# x y z rho theta phi s1 s2 stress_xx np intf bulk
-0.703680 -10.569782 -14.341264 17.829395 1.504320 2.505395 0.002142 -0.004943 209860.000000 1 0 0
2.241820 -13.355382 -13.028464 18.791830 -1.404488 2.336861 -0.000595 0.002994 576223.000000 1 0 0
2.173820 -11.147782 -14.727664 18.598458 -1.378213 2.484670 0.005439 0.000035 911985.000000 1 0 0
-5.512080 -6.296482 -16.332664 18.351693 0.851727 2.668101 0.012039 -0.007376 -1089550.000000 1 0 0
4.587120 -14.160282 -11.416064 18.758512 -1.257521 2.225067 -0.000026 -0.000363 1464140.000000 1 0 0
14.186220 -10.520282 -7.885164 19.341690 -0.638093 1.990705 0.049641 -0.020451 668816.000000 1 0 0
6.976020 10.801918 -10.726264 16.745120 0.997370 2.266024 0.023111 -0.017603 -572357.000000 1 0 0
5.735920 -4.218782 -12.492264 14.378997 -0.634158 2.623541 0.005107 -0.003697 1798560.000000 1 0 0
13.669520 0.597418 -10.051164 16.977591 0.043677 2.204366 0.018605 -0.000963 1101280.000000 1 0 0
14.204020 5.042918 -10.420664 18.324177 0.341153 2.175701 0.007876 0.002200 -39644.900000 1 0 0
4.154320 4.352318 -13.484464 14.765901 0.808670 2.721906 0.006977 0.005631 2949890.000000 1 0 0
10.515220 -4.943782 -13.559964 17.857308 -0.439488 2.433111 0.035728 -0.008794 -1177650.000000 1 0 0
2.593820 -7.606882 -12.028864 14.466725 -1.242177 2.552572 -0.000670 -0.000459 993156.000000 1 0 0
-5.492580 -2.116982 -15.094264 16.201446 0.367880 2.769756 0.009733 -0.006486 948973.000000 1 0 0
10.701320 0.111218 -9.633564 14.399173 0.010393 2.303707 0.016767 -0.004400 2598530.000000 1 0 0
-1.606380 -9.513782 -16.990464 19.538894 1.403526 2.625130 0.024597 -0.007423 829162.000000 1 0 0
8.655820 1.690118 -17.977664 20.024388 0.192832 2.685518 0.020171 0.001850 -31589.500000 1 0 0
16.459420 -5.863182 -8.570664 19.461390 -0.342206 2.026833 0.048807 -0.018926 -130864.000000 1 0 0
10.084920 7.621818 -9.944164 16.083660 0.647180 2.237345 0.016505 -0.005020 -332244.000000 1 0 0
13.913320 -2.204982 -10.511864 17.576738 -0.157173 2.211869 0.035744 -0.007035 -623376.000000 1 0 0
7.204520 -1.954982 -13.521364 15.445205 -0.264974 2.637144 0.015982 -0.007944 858800.000000 1 0 0
-2.864880 6.546318 -13.747064 15.493340 -1.158275 2.662229 0.008347 -0.000569 -1050790.000000 1 0 0
11.325820 1.775518 -13.989564 18.086862 0.155502 2.455087 0.024264 -0.000289 718297.000000 1 0 0
-2.331880 10.623318 -12.881564 16.859040 -1.354717 2.440402 0.014904 -0.004077 52896.100000 1 0 0
2.823720 -1.169382 -15.240964 15.544383 -0.392626 2.943687 0.011810 -0.005446 -681805.000000 1 0 0
-8.982780 0.380218 -15.166764 17.631382 -0.042302 2.606486 0.021285 -0.006152 -442582.000000 1 0 0
2.337320 -1.743782 -17.999764 18.234455 -0.640975 2.980979 0.024864 -0.012357 2028200.000000 1 0 0
1.037120 7.836818 -13.208464 15.393338 1.439221 2.602284 0.010943 0.001413 327989.000000 1 0 0
9.428920 -8.970082 -9.818764 16.302608 -0.760465 2.217153 0.024703 -0.008195 452884.000000 1 0 0
3.976820 7.300918 -13.479564 15.837208 1.072030 2.588935 0.006029 0.003365 777551.000000 1 0 0
-2.721680 9.036018 -15.438464 18.094290 -1.278236 2.592930 0.006281 -0.002015 -457842.000000 1 0 0
5.629720 -7.687682 -15.166164 17.911079 -0.938717 2.580638 0.015693 -0.001107 -1936380.000000 1 0 0
4.252420 7.437918 -16.362464 18.469866 1.051429 2.659228 0.014926 0.006239 99854.200000 1 0 0
-0.227880 5.020918 -13.495064 14.400636 -1.525441 2.785069 0.012884 -0.000548 3018500.000000 1 0 0
8.853220 4.238018 -16.634864 19.314736 0.446461 2.608526 0.016813 0.002133 -1617670.000000 1 0 0
5.348020 0.256018 -14.366664 15.331924 0.047835 2.784859 0.006723 -0.000600 256727.000000 1 0 0
6.341720 7.855118 -11.593664 15.373137 0.891598 2.425156 0.007550 -0.002257 -711816.000000 1 0 0
2.847520 -8.329882 -15.059364 17.443616 -1.241406 2.612601 0.004627 -0.000964 1324000.000000 1 0 0
4.014820 11.468018 -13.868464 18.438235 1.234043 2.422127 0.015727 -0.012045 171320.000000 1 0 0
0.650020 -4.535982 -13.702264 14.448173 -1.428462 2.818864 0.005530 -0.003098 1241120.000000 1 0 0
8.499920 -0.108682 -11.548964 14.340120 -0.012786 2.507079 0.008699 -0.003371 -39743.300000 1 0 0
-0.868880 -5.098182 -16.219064 17.023644 1.401989 2.832920 0.010420 -0.007597 161809.000000 1 0 0
4.524320 0.879818 -11.744764 12.616776 0.192067 2.767624 0.002487 -0.002367 2115840.000000 1 0 0
-2.843580 -7.221182 -15.560364 17.388397 1.195661 2.678937 0.009390 -0.004098 1273100.000000 1 0 0
11.435220 -3.663482 -11.269564 16.467800 -0.310037 2.324494 0.028290 -0.009939 367909.000000 1 0 0
6.586620 -7.130782 -12.420564 15.763947 -0.825047 2.478203 0.011082 -0.002570 -975350.000000 1 0 0
3.532820 -4.047082 -14.594564 15.551881 -0.853140 2.788893 0.011551 -0.004879 2958150.000000 1 0 0
-0.574580 -1.597982 -18.313664 18.392226 1.225625 3.049132 0.026633 -0.018155 323153.000000 1 0 0
14.939320 2.942418 -8.423264 17.400934 0.194469 2.076096 0.004093 0.004323 -1360300.000000 1 0 0
7.009520 4.373018 -14.343464 16.552692 0.557785 2.619011 0.004998 0.006339 2106080.000000 1 0 0
10.345220 -9.553882 -13.835064 19.741055 -0.745652 2.347353 0.045216 -0.012417 -1572540.000000 1 0 0
9.129020 -3.150082 -15.379464 18.160120 -0.332269 2.580889 0.036281 -0.016437 618804.000000 1 0 0
-5.279580 -2.058682 -18.004464 18.875192 0.371798 2.836667 0.004849 0.000547 538766.000000 1 0 0
5.021620 -9.170782 -11.088064 15.240245 -1.069823 2.385543 -0.003941 0.000535 2603940.000000 1 0 0
-2.618380 4.034418 -17.257464 17.915148 -0.995117 2.869792 0.004809 0.002563 1393870.000000 1 0 0
9.344520 9.541918 -14.494964 19.709699 0.795850 2.397087 0.037051 -0.007252 231061.000000 1 0 0
9.703220 10.124318 -11.615264 18.209027 0.806633 2.262545 0.021512 -0.011232 -551503.000000 1 0 0
12.102020 -5.813482 -9.582264 16.494704 -0.447823 2.190667 0.030263 -0.013433 -605203.000000 1 0 0
8.174020 6.987218 -13.794864 17.490972 0.707279 2.479463 0.012315 0.005458 195709.000000 1 0 0
4.064920 -4.134882 -17.476064 18.412866 -0.793930 2.821234 0.025115 -0.014962 -67850.300000 1 0 0
9.442620 -7.393182 -12.191064 17.101002 -0.664263 2.364401 0.027873 -0.009704 1320920.000000 1 0 0
12.109520 -8.536882 -8.797064 17.230995 -0.614056 2.106606 0.034480 -0.018283 1101970.000000 1 0 0
-2.816880 -2.532582 -13.823964 14.333554 0.732303 2.874142 0.001801 -0.006823 -2377340.000000 1 0 0
-0.491580 6.188518 -17.701164 18.758215 -1.491529 2.804284 0.019693 0.003847 3037730.000000 1 0 0
1.177020 -8.454682 -17.534564 19.501999 -1.432470 2.688543 0.021796 -0.006442 1905710.000000 1 0 0
0.025220 8.546318 -16.027764 18.163959 1.567845 2.651722 0.012508 0.003571 -437222.000000 1 0 0
1.799720 3.384918 -15.044164 15.524933 1.082121 2.892078 0.018832 0.001702 2139550.000000 1 0 0
-1.861880 -0.478982 -15.792364 15.908953 0.251797 3.020452 0.009710 -0.008909 1432600.000000 1 0 0
14.157820 -4.102782 -8.298164 16.915562 -0.282063 2.083533 0.034161 -0.013541 994230.000000 1 0 0
0.664320 0.680518 -14.615264 14.646173 0.797442 3.076614 0.008261 -0.004918 1181570.000000 1 0 0
8.860020 2.734518 -12.583564 15.630855 0.299360 2.506550 0.009944 0.002638 1250750.000000 1 0 0
5.909020 0.982618 -17.088464 18.107945 0.164783 2.804438 0.024619 -0.000182 1479620.000000 1 0 0
15.449920 1.638318 -12.371964 19.860756 0.105646 2.243286 0.031209 -0.008453 902764.000000 1 0 0
8.934220 -11.171382 -11.903364 18.609410 -0.896213 2.264829 0.033273 -0.008016 938343.000000 1 0 0
-4.566680 0.686618 -14.980064 15.675724 -0.149236 2.842560 0.008322 -0.007167 -327545.000000 1 0 0
2.350620 5.332018 -17.274164 18.230540 1.155578 2.816246 0.023834 0.000153 2127040.000000 1 0 0
6.037820 -11.774882 -12.269764 18.045782 -1.096984 2.318456 0.009727 -0.001720 1249600.000000 1 0 0
12.834120 7.207318 -8.711964 17.104338 0.511686 2.105217 0.017158 -0.001974 682566.000000 1 0 0
-5.027280 3.531518 -15.610664 16.776114 -0.612382 2.766652 0.005318 -0.001845 1443360.000000 1 0 0
-0.602780 -4.467682 -19.135864 19.659726 1.436686 2.910224 0.033747 -0.013010 -739661.000000 1 0 0
9.840620 4.473418 -10.343664 14.961306 0.426662 2.334167 0.005886 0.003019 3994.900000 1 0 0
13.430020 3.645818 -12.925964 18.993104 0.265079 2.319324 0.019438 -0.002742 -225311.000000 1 0 0
-6.358580 5.685518 -17.161464 19.164355 -0.729573 2.680324 0.009683 0.001813 -1583690.000000 1 0 0
-10.178980 3.071518 -15.370364 18.689407 -0.293062 2.536432 0.029349 -0.005621 -270455.000000 1 0 0
10.711620 13.604518 -8.206764 19.161751 0.903812 2.013395 0.070703 -0.022886 -914341.000000 1 0 0
7.376720 13.401418 -12.291464 19.623815 1.067613 2.247664 0.047471 -0.019497 -942643.000000 1 0 0
5.081120 15.149818 -11.302964 19.572730 1.247195 2.186441 0.024175 -0.013542 527982.000000 1 0 0
14.267720 9.607318 -9.615964 19.706221 0.592622 2.080554 0.061187 -0.016422 -1574510.000000 1 0 0
8.326420 -17.350082 -2.074064 19.356042 -1.123352 1.678156 0.035718 0.001045 550338.000000 1 0 0
0.696820 -15.987982 -0.020664 16.003173 -1.527240 1.572088 0.014815 -0.006971 2332750.000000 1 0 0
-9.134480 -11.672282 7.596436 16.654931 0.906769 1.097180 0.027978 -0.016763 78076.600000 1 0 0
2.033520 -15.927682 -2.574464 16.262046 -1.443811 1.729776 0.016175 -0.006281 2545640.000000 1 0 0
-1.295580 -10.952382 -9.459164 14.529590 1.453051 2.279734 -0.000798 0.001127 1546780.000000 1 0 0
-4.681780 -12.604482 -13.050864 18.738119 1.215152 2.341287 0.027459 -0.002906 1368120.000000 1 0 0
-8.116480 -17.763282 -1.831464 19.615445 1.142199 1.664301 0.021199 -0.014690 -865804.000000 1 0 0
-11.385780 -7.127182 -8.875364 16.099838 0.559298 2.154682 0.027301 -0.016404 2885440.000000 1 0 0
-13.579580 -11.662382 -4.645664 18.493197 0.709591 1.824726 0.030394 -0.006549 598777.000000 1 0 0
-5.773380 -13.404182 9.740336 17.546457 1.164095 0.982293 0.026418 -0.017269 -183797.000000 1 0 0
0.137420 -14.048982 -3.670564 14.521220 -1.561015 1.826341 0.007168 -0.001256 237569.000000 1 0 0
-14.712680 -11.624682 1.991036 18.856309 0.668683 1.465009 0.020848 -0.000431 886751.000000 1 0 0
-3.932580 -16.475682 -7.573564 18.554572 1.336490 1.991253 0.005702 -0.004861 -762954.000000 1 0 0
0.515920 -15.172682 -9.341364 17.825194 -1.536806 2.122400 0.001496 -0.001007 703905.000000 1 0 0
4.569820 -14.270482 -2.590764 15.206642 -1.260886 1.742002 0.012293 0.000017 361942.000000 1 0 0
-3.591880 -18.030782 -2.505264 18.554974 1.374162 1.706228 0.004700 -0.010185 430279.000000 1 0 0
-0.900780 -13.471682 0.691936 13.519482 1.504031 1.519593 0.008247 -0.004804 3333720.000000 1 0 0
-8.428280 -11.295382 -10.577064 17.620892 0.929751 2.214619 0.026173 -0.013692 2914570.000000 1 0 0
-3.680380 -14.099182 -0.364864 14.576188 1.315459 1.595830 -0.002648 0.000512 3558980.000000 1 0 0
-1.599980 -14.836482 -7.399464 16.656326 1.463371 2.031126 -0.004503 0.000352 928161.000000 1 0 0
-14.226080 -8.114882 -1.852064 16.482196 0.518388 1.683402 0.016653 0.000471 2563250.000000 1 0 0
-10.736480 -7.341582 -11.689964 17.487884 0.599769 2.302934 0.043060 -0.018260 -299320.000000 1 0 0
-9.567980 -14.670082 6.882736 18.818331 0.992869 1.196362 0.026881 -0.009042 -411839.000000 1 0 0
-2.309180 -14.252382 -12.398764 19.031344 1.410172 2.280345 0.021397 -0.000411 549930.000000 1 0 0
2.237020 -17.783882 -4.710664 18.532703 -1.445664 1.827797 0.024271 -0.011307 -314619.000000 1 0 0
-6.540580 -9.628582 -9.308664 14.904362 0.974107 2.245364 0.012677 -0.011947 677080.000000 1 0 0
-10.894680 -15.399682 0.313036 18.866432 0.955080 1.554203 0.025304 -0.009739 673453.000000 1 0 0
-12.608180 -10.933482 4.141236 17.194681 0.714380 1.327561 0.022068 -0.006381 2328450.000000 1 0 0
-17.088080 -9.087582 -1.619764 19.421901 0.488769 1.654292 0.018239 -0.002329 -368045.000000 1 0 0
-1.588780 -19.186682 -4.177464 19.700360 1.488178 1.784469 0.005581 -0.008915 116531.000000 1 0 0
3.259020 -14.394082 -8.699764 17.131746 -1.348137 2.103443 -0.001272 0.001843 1027070.000000 1 0 0
-4.267180 -7.960182 -12.975564 15.809446 1.078714 2.533515 0.010850 -0.005989 1413510.000000 1 0 0
5.588420 -16.473282 1.337936 17.446763 -1.243738 1.494034 0.032627 -0.006637 4009900.000000 1 0 0
-2.805780 -13.723482 -3.202564 14.368813 1.369125 1.795567 -0.006590 -0.001096 -723478.000000 1 0 0
-0.426480 -13.907882 3.622936 14.378342 1.540141 1.316079 0.011759 -0.005624 -2281440.000000 1 0 0
1.257420 -16.115782 7.008136 17.618556 -1.492930 1.161711 0.027922 -0.015530 1602260.000000 1 0 0
-5.468680 -10.271982 -14.509564 18.599665 1.081575 2.465619 0.028898 -0.010130 -1818890.000000 1 0 0
-0.305480 -17.203082 -5.968764 18.211686 1.553041 1.904711 0.013696 -0.008355 111741.000000 1 0 0
-6.474080 -13.353482 -1.270664 14.894421 1.119364 1.656212 -0.001593 -0.002694 2789880.000000 1 0 0
-1.703380 -17.827782 -0.165464 17.909737 1.475539 1.580035 0.006387 -0.002445 3067230.000000 1 0 0
-9.436480 -9.689282 -4.924764 14.393840 0.798615 1.919994 0.016060 -0.006966 3376390.000000 1 0 0
-0.772580 -16.613082 4.843536 17.321986 1.524326 1.287400 0.026554 -0.014273 2709030.000000 1 0 0
-6.715880 -9.741782 -6.425364 13.464422 0.967227 2.068274 0.012762 -0.008298 3063380.000000 1 0 0
-5.970680 -14.467982 -8.548264 17.833798 1.179405 2.070687 0.010832 -0.008658 -694331.000000 1 0 0
-5.655280 -12.161782 -10.269364 16.892335 1.135535 2.224248 0.022142 -0.008398 254931.000000 1 0 0
-10.646180 -12.207882 -8.847164 18.456593 0.853626 2.070710 0.037079 -0.018050 122530.000000 1 0 0
4.017420 -17.033782 6.561336 18.690653 -1.339179 1.212105 0.037324 -0.016841 -328799.000000 1 0 0
-6.687580 -14.239182 -4.193464 16.280761 1.131714 1.831305 0.007306 -0.009736 -402365.000000 1 0 0
-2.897780 -12.140482 -7.126164 14.372566 1.336493 2.089572 0.004476 -0.002194 1829120.000000 1 0 0
-7.043280 -12.784582 4.405136 15.246591 1.067247 1.277692 0.005870 -0.005436 2187560.000000 1 0 0
2.557020 -16.375082 2.343436 16.738380 -1.415894 1.430331 0.024975 -0.009684 3144240.000000 1 0 0
-6.198080 -11.933482 7.219536 15.262565 1.091761 1.078078 0.009101 -0.010847 783696.000000 1 0 0
-11.158480 -12.791182 -1.033764 17.005725 0.853465 1.631623 0.031607 -0.001996 1015310.000000 1 0 0
-14.352480 -8.738582 4.722836 17.454560 0.546905 1.296802 0.028075 -0.002656 -1206620.000000 1 0 0
-8.094280 -15.477982 4.389736 18.009860 1.088954 1.324575 0.013224 0.000926 186395.000000 1 0 0
-16.518480 -9.311082 1.177036 18.998469 0.513283 1.508802 0.011884 0.001108 115030.000000 1 0 0
-6.602680 -17.003282 2.353936 18.391520 1.200401 1.442454 0.012508 -0.001993 2217910.000000 1 0 0
-11.440480 -14.906582 -4.637264 19.354456 0.916203 1.812747 0.047233 -0.009066 -604464.000000 1 0 0
-9.993180 -9.989382 -12.658164 18.970517 0.785208 2.301313 0.031569 -0.010688 530020.000000 1 0 0
-4.301380 -15.946882 -4.604764 17.146684 1.307335 1.842685 -0.004386 -0.004641 -250948.000000 1 0 0
-11.861280 -8.301982 0.087136 14.478275 0.610674 1.564778 0.008625 0.002003 932016.000000 1 0 0
-9.602480 -11.143882 3.481336 15.116660 0.859559 1.338412 0.008813 -0.000077 839228.000000 1 0 0
-14.005380 -13.035382 -0.494764 19.139400 0.749542 1.596650 0.017431 0.001866 -27662.900000 1 0 0
5.591320 -14.928782 -7.055764 17.433164 -1.212435 1.987482 0.011417 -0.012272 557664.000000 1 0 0
-7.444380 -10.532682 -1.188864 12.952590 0.955529 1.662712 0.005418 -0.001639 557596.000000 1 0 0
-11.754980 -8.275082 -6.126264 15.626505 0.613381 1.973648 0.020226 -0.009869 413924.000000 1 0 0
-14.383980 -6.601382 -9.327564 18.370644 0.430263 2.103359 0.040505 -0.020492 1654510.000000 1 0 0
-3.815880 -16.452582 1.432236 16.949917 1.342894 1.486197 -0.002038 -0.003036 1124570.000000 1 0 0
-7.887180 -15.527282 0.092136 17.415872 1.100804 1.565506 0.021036 -0.006601 1564460.000000 1 0 0
0.905820 -18.533382 3.673436 18.915626 -1.521960 1.375353 0.026956 -0.016586 866453.000000 1 0 0
-14.147280 -8.867682 -4.609664 17.321383 0.559901 1.840168 0.026328 -0.008645 -332629.000000 1 0 0
-3.366580 -14.452482 11.104736 18.534380 1.341936 0.928367 0.017274 -0.019362 1708530.000000 1 0 0
-10.743580 -12.049582 -3.829164 16.591547 0.842634 1.803686 0.035529 -0.011560 2186780.000000 1 0 0
-10.028380 -10.678582 0.559436 14.659928 0.816788 1.532626 0.009090 0.001802 2099810.000000 1 0 0
0.093920 -13.029982 -11.146064 17.147128 -1.563588 2.278414 0.008056 -0.002439 1798220.000000 1 0 0
-5.916480 -12.516682 -6.353264 15.232729 1.129236 2.001026 0.002976 -0.008286 1479520.000000 1 0 0
1.807320 -15.777882 9.837136 18.680932 -1.456746 1.016215 0.023604 -0.014132 -816588.000000 1 0 0
-8.914880 -15.647982 -5.480764 18.824803 1.052943 1.866221 0.039559 -0.013087 -1945540.000000 1 0 0
-3.286780 -15.430382 5.901736 16.844290 1.360926 1.212830 0.010689 -0.008394 -364435.000000 1 0 0
-17.435980 -5.558182 -6.652164 19.471982 0.308593 1.919444 0.019787 -0.013760 -355905.000000 1 0 0
18.894020 5.638518 -2.885864 19.927496 0.290015 1.716126 0.031927 0.001577 -879912.000000 1 0 0
12.938120 -12.380582 -5.813964 18.827532 -0.763381 1.884729 0.051138 -0.012483 -881287.000000 1 0 0
11.031520 -13.487882 -1.731464 17.510436 -0.885245 1.669840 0.037929 -0.008551 2093920.000000 1 0 0
18.735620 -2.863582 4.525836 19.486066 -0.151668 1.336396 0.043892 -0.015749 -935521.000000 1 0 0
8.927320 -16.782482 4.981936 19.651169 -1.081922 1.314480 0.046626 -0.018702 -766697.000000 1 0 0
17.973820 -0.949982 6.624536 19.179290 -0.052805 1.218131 0.049940 -0.019067 -288597.000000 1 0 0
18.085720 -4.204882 -4.778864 19.173207 -0.228439 1.822699 0.047879 -0.016068 -199223.000000 1 0 0
5.222720 -11.805582 14.723936 19.581697 -1.154285 0.719822 0.009995 0.000295 316102.000000 1 0 0
15.993220 -8.990482 -0.779664 18.363544 -0.512118 1.613266 0.047448 -0.013350 1023540.000000 1 0 0
13.906320 -12.573582 -1.419764 18.801501 -0.735110 1.646382 0.050990 -0.008018 1854430.000000 1 0 0
11.239120 -2.051482 13.725436 17.858163 -0.180543 0.694177 0.013210 -0.002068 -451377.000000 1 0 0
16.968620 -6.222382 -1.401664 18.127790 -0.351474 1.648195 0.033494 -0.014604 -1861090.000000 1 0 0
17.842920 3.652418 -0.944264 18.237368 0.201909 1.622596 0.029153 0.000751 1212720.000000 1 0 0
9.765220 -11.111582 9.624736 17.648295 -0.849800 0.993974 0.015044 -0.002538 1831760.000000 1 0 0
9.133920 -11.029882 4.192036 14.921795 -0.879151 1.286029 0.004276 -0.004954 927239.000000 1 0 0
14.018020 -10.098682 6.772836 18.556928 -0.624291 1.197189 0.030063 -0.012358 -435418.000000 1 0 0
16.344320 -0.546682 -4.676364 17.008940 -0.033435 1.849319 0.021653 -0.002202 -1372290.000000 1 0 0
15.727320 -0.452782 -1.631464 15.818195 -0.028782 1.674119 0.016544 -0.003431 2508790.000000 1 0 0
12.959320 -5.233582 -0.274764 13.978908 -0.383818 1.590453 0.017130 -0.007369 957997.000000 1 0 0
14.294520 -7.610682 1.109436 16.232271 -0.489246 1.502395 0.036968 -0.009229 2931980.000000 1 0 0
15.650020 2.492718 3.560936 16.242446 0.157952 1.349765 0.028623 -0.006182 1006360.000000 1 0 0
15.910920 -7.112982 5.022936 18.137855 -0.420398 1.290198 0.042667 -0.016500 -1052060.000000 1 0 0
13.759820 -12.210982 3.251336 18.681861 -0.725831 1.395869 0.030059 -0.002822 468906.000000 1 0 0
14.065620 -1.027982 9.162136 16.817941 -0.072955 0.994665 0.019411 -0.011736 700378.000000 1 0 0
14.213020 -2.766182 -1.487864 14.555942 -0.192220 1.673192 0.012742 -0.005410 1260760.000000 1 0 0
15.037320 1.729918 9.147236 17.685744 0.114538 1.027209 0.025428 -0.010631 -1478830.000000 1 0 0
14.364720 -10.072982 -2.983064 17.796315 -0.611551 1.739214 0.048993 -0.014467 -461668.000000 1 0 0
7.447520 -12.579682 6.094836 15.838591 -1.036259 1.175795 0.004399 -0.005231 153962.000000 1 0 0
12.350020 -4.693082 6.995536 14.949433 -0.363152 1.083831 0.010447 -0.005622 2775310.000000 1 0 0
15.039120 -8.865882 -5.658764 18.352128 -0.532679 1.884248 0.060839 -0.021552 -1929310.000000 1 0 0
14.284220 -4.585482 4.736436 15.732114 -0.310625 1.264984 0.022744 -0.009235 1185050.000000 1 0 0
17.188620 -4.336782 0.976536 17.754153 -0.247147 1.515765 0.029503 -0.012532 -1862440.000000 1 0 0
10.277820 -14.452182 0.993636 17.761939 -0.952619 1.514825 0.030434 -0.005542 187495.000000 1 0 0
16.405920 -2.569482 8.542436 18.674305 -0.155357 1.095678 0.039840 -0.014025 -355392.000000 1 0 0
16.023520 -2.670582 3.242436 16.564981 -0.165148 1.373784 0.030260 -0.008130 921316.000000 1 0 0
7.890520 -15.175182 2.614236 17.302621 -1.091307 1.419126 0.019121 -0.006654 2740490.000000 1 0 0
16.561420 -7.049082 7.931936 19.669413 -0.402406 1.155717 0.042325 -0.011658 -1910440.000000 1 0 0
10.250220 -8.521782 5.149136 14.289905 -0.693582 1.202171 0.007269 -0.005471 940911.000000 1 0 0
11.011120 -11.864682 2.105136 16.323206 -0.822694 1.441470 0.020487 -0.003670 1993010.000000 1 0 0
12.432520 -7.253682 12.048436 18.770942 -0.528157 0.873867 0.015773 -0.008365 -124656.000000 1 0 0
15.181720 -9.865582 4.259836 18.600014 -0.576258 1.339722 0.034687 -0.011438 237782.000000 1 0 0
7.447120 -10.251582 7.879136 14.920969 -0.942547 1.014484 0.005249 -0.001780 735793.000000 1 0 0
15.274220 -3.282982 -4.325964 16.210914 -0.211715 1.840925 0.028094 -0.006352 484439.000000 1 0 0
11.870420 -9.011582 9.871336 17.876206 -0.649340 0.985789 0.015693 -0.007281 -297733.000000 1 0 0
17.001820 -6.783682 2.396636 18.461422 -0.379642 1.440610 0.044576 -0.011788 975283.000000 1 0 0
17.660420 4.088218 1.991036 18.236452 0.227483 1.461399 0.040230 -0.003312 826394.000000 1 0 0
14.771620 -4.905282 8.753236 17.857259 -0.320617 1.058502 0.034509 -0.011436 194765.000000 1 0 0
12.797920 -12.691182 6.023636 19.003606 -0.781211 1.248260 0.020700 -0.004431 -236178.000000 1 0 0
18.272920 0.707318 -0.818364 18.304907 0.038689 1.615519 0.032473 -0.004585 1595290.000000 1 0 0
11.695620 -2.144682 10.894036 16.126599 -0.181360 0.829110 0.006363 -0.001914 1164980.000000 1 0 0
5.828320 -12.498182 10.533736 17.353197 -1.134443 0.918491 0.009010 -0.001017 -2190190.000000 1 0 0
10.719220 -5.073382 11.074036 16.225756 -0.442058 0.819622 0.009859 -0.002820 1548400.000000 1 0 0
17.885820 1.335818 4.916236 18.597213 0.074547 1.303263 0.051382 -0.014118 -1257540.000000 1 0 0
12.227920 -7.745982 7.175136 16.155644 -0.564665 1.110598 0.020128 -0.010162 -248660.000000 1 0 0
10.767920 -7.970482 14.332836 19.619044 -0.637204 0.751659 0.035020 -0.005823 1170790.000000 1 0 0
14.269220 -0.256282 3.664436 14.734463 -0.017959 1.319460 0.011001 -0.003720 2425090.000000 1 0 0
11.696720 -7.716982 2.571836 14.247084 -0.583203 1.389285 0.013742 -0.003027 995003.000000 1 0 0
9.324120 6.075918 3.503236 11.667419 0.577523 1.265833 0.005456 -0.000905 2639870.000000 1 0 0
-3.938980 14.743118 -9.983664 18.235916 -1.309720 2.150137 0.015628 -0.005677 714861.000000 1 0 0
8.844020 -6.463482 9.276936 14.354610 -0.631120 0.868112 0.010108 -0.006735 -641351.000000 1 0 0
5.830220 -10.610782 -8.459864 14.769884 -1.068366 2.180687 0.002279 -0.001850 958017.000000 1 0 0
5.356320 0.989018 0.608936 5.480796 0.182589 1.459463 0.004795 -0.001538 4319260.000000 1 0 0
-0.536280 9.927718 10.957036 14.795398 -1.516830 0.736877 -0.008520 0.001340 154378.000000 1 0 0
-6.330180 -5.143182 1.076336 8.226907 0.682308 1.439589 0.008941 -0.005105 3023350.000000 1 0 0
-0.999780 3.892018 -10.912864 11.629186 -1.319353 2.788776 0.014994 -0.003265 983861.000000 1 0 0
10.962920 5.826918 1.197536 12.472878 0.488538 1.474637 0.008048 -0.000965 844202.000000 1 0 0
-10.031580 -1.901282 -13.522764 16.944398 0.187308 2.494877 0.028559 -0.012722 -137505.000000 1 0 0
7.341920 10.875218 -6.005364 14.430473 0.976974 2.000013 0.007928 -0.004992 1683980.000000 1 0 0
-12.455280 -2.971582 -9.625264 16.019051 0.234202 2.215377 0.024379 -0.011201 -1161440.000000 1 0 0
-3.935080 -8.622082 2.513736 9.805306 1.142637 1.311537 0.008129 -0.003805 -255420.000000 1 0 0
8.044420 -6.697982 -5.851164 11.992155 -0.694320 2.080497 0.006933 -0.006513 158556.000000 1 0 0
14.469220 3.068018 -4.225564 15.382667 0.208943 1.849070 0.015212 0.000051 1213150.000000 1 0 0
-2.576580 -4.927582 9.781736 11.251764 1.089005 0.516908 0.003125 -0.004425 1094980.000000 1 0 0
3.516220 -1.864782 -4.532464 6.031952 -0.487622 2.420991 -0.002221 -0.001786 -2439530.000000 1 0 0
-4.115680 8.332818 -3.485664 9.925952 -1.112031 1.929613 0.004670 -0.005415 92048.500000 1 0 0
5.875920 0.105018 11.773436 13.158695 0.017871 0.462977 0.009619 -0.000604 2424840.000000 1 0 0
7.295620 4.769418 12.479536 15.222097 0.578998 0.609682 0.008346 0.001583 446432.000000 1 0 0
1.229020 -14.379982 12.387336 19.019476 -1.485536 0.861503 0.002959 -0.012117 -534278.000000 1 0 0
3.037820 8.734518 -9.114364 12.984290 1.236087 2.348933 0.003385 0.000714 1414670.000000 1 0 0
-4.352580 -8.799182 -4.556464 10.822750 1.111432 2.005353 0.006918 -0.005568 982796.000000 1 0 0
5.726020 -6.449982 -4.040864 9.524608 -0.844786 2.008936 0.002849 -0.005819 2858140.000000 1 0 0
-3.183980 3.453418 8.670636 9.861224 -0.825970 0.496478 -0.001247 0.001375 2237360.000000 1 0 0
-3.782180 3.095518 -11.042664 12.075908 -0.685889 2.724912 0.008812 -0.004332 -737503.000000 1 0 0
3.122420 -6.146382 8.543636 10.978216 -1.100762 0.678946 0.002483 -0.001138 274867.000000 1 0 0
-5.049680 -8.674682 10.489436 14.518183 1.043630 0.763380 0.007279 -0.011278 1385100.000000 1 0 0
-13.228880 -2.469282 6.513236 14.950681 0.184535 1.120038 0.011194 -0.001796 763554.000000 1 0 0
4.012420 -5.905982 -8.328364 10.970041 -0.974042 2.432867 -0.002466 -0.003165 897672.000000 1 0 0
2.942120 -0.474482 12.308636 12.664269 -0.159895 0.237546 0.011725 -0.002268 637241.000000 1 0 0
1.524620 -1.456882 -7.515364 7.805618 -0.762683 2.868031 -0.000144 -0.005181 -36103.700000 1 0 0
3.578720 -3.538882 3.414636 6.081995 -0.779801 0.974679 0.003241 -0.002012 2126320.000000 1 0 0
1.588720 0.408418 -11.842264 11.955336 0.251625 3.003950 0.003881 -0.005651 -180899.000000 1 0 0
4.070120 3.519118 -10.640264 11.923309 0.712922 2.673415 0.000767 0.003222 346996.000000 1 0 0
2.850220 3.253818 3.435436 5.523885 0.851422 0.899599 -0.001280 -0.000341 -297132.000000 1 0 0
-5.343380 0.886718 2.547336 5.985557 -0.164448 1.131193 0.000551 -0.002146 1607580.000000 1 0 0
-9.503280 -9.230882 5.740536 14.438672 0.770859 1.161918 0.009964 -0.006729 -1295110.000000 1 0 0
-3.048080 3.904418 -0.557364 4.984569 -0.907951 1.682849 0.000133 -0.006068 -1022710.000000 1 0 0
-15.933480 -6.452582 5.029036 17.910969 0.384784 1.286190 0.045520 -0.004533 772897.000000 1 0 0
1.036520 6.703918 -8.035364 10.515891 1.417397 2.440467 0.006286 -0.001321 1561450.000000 1 0 0
-1.656580 6.436118 -9.458864 11.560190 -1.318876 2.529117 0.011828 -0.000394 2200880.000000 1 0 0
2.057420 -0.315082 5.292236 5.686828 -0.151964 0.374712 0.005380 -0.000803 2798860.000000 1 0 0
-3.376780 -0.634782 -6.209064 7.096342 0.185816 2.636164 0.009266 -0.010845 544044.000000 1 0 0
1.792720 -1.181382 -2.418564 3.234032 -0.582668 2.415611 0.005237 -0.002446 1515480.000000 1 0 0
2.497920 -8.582882 -7.659864 11.771958 -1.287584 2.279286 -0.003427 -0.001845 2833430.000000 1 0 0
-2.532580 14.002618 -5.611564 15.296304 -1.391866 1.946425 0.001698 -0.002049 2014160.000000 1 0 0
6.896720 -5.075682 -8.176964 11.840188 -0.634452 2.333130 0.005880 -0.007852 3456680.000000 1 0 0
-14.277480 -5.118582 -2.254464 15.333914 0.344234 1.718356 0.009042 -0.000870 -567938.000000 1 0 0
-2.755380 6.882018 -6.763864 10.035146 -1.189968 2.310430 0.010090 -0.002791 -1109570.000000 1 0 0
-5.633280 -1.279282 -8.031164 9.892927 0.223306 2.518039 0.017700 -0.016287 -520815.000000 1 0 0
-5.732180 -10.549382 3.512236 12.509322 1.073060 1.286201 0.005121 -0.006070 -2469140.000000 1 0 0
8.118320 -7.525482 6.742136 12.961342 -0.747520 1.023743 0.003974 -0.003935 1510420.000000 1 0 0
8.780120 -6.120882 13.154036 16.958313 -0.608797 0.683022 0.019996 -0.000783 227747.000000 1 0 0
-4.892280 9.534018 -0.790564 10.745087 -1.096693 1.644437 0.001520 -0.003995 1007340.000000 1 0 0
2.792820 6.602118 12.143736 14.101706 1.170605 0.533262 0.001713 -0.000668 260614.000000 1 0 0
6.070720 -2.886882 10.948536 12.847497 -0.443890 0.550636 0.010734 -0.001221 -1636720.000000 1 0 0
-9.740880 -6.492482 -1.025864 11.751147 0.587900 1.658207 0.011664 -0.002402 934709.000000 1 0 0
0.948820 -13.306882 6.256036 14.734699 -1.499614 1.132300 0.009542 -0.008356 1206680.000000 1 0 0
-0.560380 -3.117282 8.811936 9.363850 1.392931 0.345048 0.003394 -0.003690 803096.000000 1 0 0
4.246820 0.753018 3.491036 5.548860 0.175489 0.890344 0.002009 0.000097 1533200.000000 1 0 0
-10.152280 5.555818 8.233136 14.202832 -0.500728 0.952457 -0.001353 -0.008809 805152.000000 1 0 0
9.355320 7.983318 -0.019764 12.298609 0.706433 1.572403 0.006045 -0.002069 1129710.000000 1 0 0
4.337720 2.873718 8.249736 9.753574 0.585109 0.562702 0.001357 -0.001006 3354880.000000 1 0 0
1.379920 2.578518 -9.776664 10.204710 1.079418 2.850930 0.008790 -0.003050 1452260.000000 1 0 0
-1.404480 -10.144282 3.050636 10.685757 1.433221 1.281283 0.004481 -0.004649 -562430.000000 1 0 0
-9.885680 9.581718 9.051836 16.476399 -0.769786 0.989172 0.015303 -0.013595 2587290.000000 1 0 0
9.820220 -1.911882 -7.601464 12.564803 -0.192283 2.220538 0.014434 -0.006699 -402402.000000 1 0 0
-5.275480 -1.908382 6.742436 8.771149 0.347100 0.693981 -0.001223 -0.002442 82689.800000 1 0 0
3.141920 -7.802382 -4.914264 9.741603 -1.187975 2.099555 -0.004826 -0.003943 1285790.000000 1 0 0
-5.104280 4.887418 -13.018564 14.812952 -0.763697 2.644271 0.003476 -0.006623 1681200.000000 1 0 0
-5.605980 9.721818 5.384636 12.447291 -1.047731 1.123427 0.002554 -0.001593 1682820.000000 1 0 0
-0.391780 -1.809782 -9.387964 9.568839 1.357607 2.946850 0.004591 -0.009342 -736317.000000 1 0 0
-16.739580 0.084018 6.420736 17.928927 -0.005019 1.204541 0.041970 -0.014398 -672921.000000 1 0 0
-5.930580 -2.851682 4.027736 7.715343 0.448205 1.021553 -0.000295 -0.003467 2296130.000000 1 0 0
1.037120 -5.673882 -5.169464 7.745445 -1.390004 2.301535 -0.001030 -0.004537 -84145.700000 1 0 0
-7.101080 1.262018 -8.388264 11.062595 -0.175886 2.431428 0.009318 -0.006531 760417.000000 1 0 0
8.076520 1.998918 4.832436 9.621761 0.242622 1.044609 0.001715 -0.000876 448736.000000 1 0 0
0.439620 -8.041182 -0.599064 8.075441 -1.516180 1.645048 0.000193 -0.002336 1025050.000000 1 0 0
5.419820 5.462618 -3.353664 8.394147 0.789331 1.981794 0.002815 -0.000221 1174400.000000 1 0 0
-0.807980 -0.336982 -1.223864 1.504736 0.395133 2.520669 0.002313 -0.004422 201848.000000 1 0 0
9.068820 6.404518 -6.306364 12.768382 0.614884 2.087371 0.008960 -0.004616 1279360.000000 1 0 0
-15.101480 -7.147682 2.480836 16.890784 0.442069 1.423388 0.015642 0.000446 311319.000000 1 0 0
-6.366580 6.896218 8.890736 12.928122 -0.825311 0.812473 0.001340 -0.001660 -985100.000000 1 0 0
-9.477380 -3.230982 -9.570564 13.851198 0.328559 2.333607 0.019035 -0.016394 873616.000000 1 0 0
14.998920 3.501418 -1.240764 15.452088 0.229338 1.651180 0.017069 -0.000436 1827370.000000 1 0 0
12.167520 1.706418 -5.757464 13.568670 0.139335 2.009008 0.012024 -0.001652 1607650.000000 1 0 0
1.517720 -9.290582 12.691836 15.801933 -1.408866 0.638178 -0.004737 -0.008289 -707280.000000 1 0 0
-3.657580 6.399718 7.905236 10.808655 -1.051580 0.750453 -0.001985 0.001811 2321730.000000 1 0 0
-4.012780 13.021518 -12.386064 18.414041 -1.271865 2.308570 0.015782 -0.010401 404525.000000 1 0 0
-10.231880 7.788118 6.438236 14.380439 -0.650607 1.106596 0.006874 -0.008710 613668.000000 1 0 0
8.078520 -9.296582 -7.092664 14.212488 -0.855388 2.093292 0.011169 -0.004600 -194728.000000 1 0 0
5.800620 -3.766882 -0.213264 6.919688 -0.575948 1.601621 0.006839 -0.003502 -2131480.000000 1 0 0
-1.623380 -4.459382 4.188736 6.329847 1.221672 0.847654 0.001960 -0.003076 636702.000000 1 0 0
9.922220 -2.011782 -2.539664 10.437797 -0.200043 1.816578 0.010294 -0.004066 -3070570.000000 1 0 0
13.563420 7.118518 1.370036 15.379098 0.483315 1.481594 0.012277 -0.001258 111867.000000 1 0 0
5.452320 -3.635882 -3.199464 7.292736 -0.588130 2.024969 0.004863 -0.006411 -1581190.000000 1 0 0
-12.350580 -6.026082 2.006536 13.888005 0.453936 1.425809 0.003672 0.002807 1703090.000000 1 0 0
3.709320 -5.684082 -0.251464 6.791986 -0.992609 1.607828 0.005584 -0.003882 5141.740000 1 0 0
-5.272680 3.532818 -8.601164 10.689340 -0.590323 2.505880 0.007146 -0.005287 200540.000000 1 0 0
-1.700480 -9.308582 7.165636 11.869611 1.390110 0.922667 0.005429 -0.009118 1045670.000000 1 0 0
-7.427780 -7.394182 2.647136 10.809864 0.783131 1.323399 0.012005 -0.006036 -3924450.000000 1 0 0
-5.791580 13.077518 -8.552764 16.664743 -1.153891 2.109735 0.014735 -0.007187 1426900.000000 1 0 0
9.227120 -13.857682 -4.238264 17.179580 -0.983360 1.820074 0.032137 -0.005001 -213900.000000 1 0 0
-6.532880 -5.177482 -6.658764 10.668832 0.670167 2.244817 0.018342 -0.012265 1238830.000000 1 0 0
3.343120 0.418018 -6.185064 7.043168 0.124393 2.642809 0.002696 -0.003640 322005.000000 1 0 0
-3.653380 5.796118 4.943436 8.448652 -1.008384 0.945774 0.002338 0.001916 521409.000000 1 0 0
-2.654680 -10.774282 -2.859864 11.459114 1.329218 1.823034 0.004882 -0.000921 1579660.000000 1 0 0
-12.527980 -0.453282 1.689136 12.649463 0.036166 1.436862 0.004180 -0.000894 1369950.000000 1 0 0
8.405220 -11.954082 -6.022564 15.805666 -0.957976 1.961715 0.021628 -0.006993 -354247.000000 1 0 0
6.122920 3.889918 1.048236 7.329421 0.565975 1.427287 0.003300 -0.001563 -805571.000000 1 0 0
3.389720 -4.908682 -10.910564 12.434861 -0.966437 2.641248 0.000234 -0.002524 -873963.000000 1 0 0
-7.541980 4.213118 8.662136 12.233741 -0.509439 0.784059 -0.003673 -0.000491 2215960.000000 1 0 0
8.259320 8.674118 4.072036 12.650619 0.809889 1.243077 0.001780 0.000220 1167990.000000 1 0 0
0.259020 10.568318 -6.224764 12.268012 1.546292 2.102959 0.002102 -0.000761 1031560.000000 1 0 0
5.409220 8.058818 3.274636 10.243410 0.979650 1.245402 0.003585 -0.002123 4199580.000000 1 0 0
8.019320 6.650018 -3.702064 11.056108 0.692323 1.912235 0.006664 -0.002334 -163743.000000 1 0 0
10.584320 2.605518 -8.229964 13.658289 0.241369 2.217504 0.009505 -0.001566 633623.000000 1 0 0
3.394020 -12.459582 -0.313564 12.917387 -1.304847 1.595073 0.004362 -0.000447 -1846830.000000 1 0 0
0.552720 2.123618 5.199536 5.643618 1.316173 0.399354 0.005022 -0.001784 851030.000000 1 0 0
-4.921580 13.473718 1.394336 14.412050 -1.220581 1.473897 -0.000431 -0.000471 276179.000000 1 0 0
8.249620 4.126918 -8.043664 12.238800 0.463852 2.287929 0.003148 0.001746 1535860.000000 1 0 0
-13.926580 -0.531782 -3.588064 14.391199 0.038166 1.822778 0.006633 -0.002624 632506.000000 1 0 0
-8.557980 0.013118 -0.518564 8.573686 -0.001533 1.631316 0.002405 -0.004014 451315.000000 1 0 0
1.785620 -3.790782 -1.073064 4.325498 -1.130582 1.821493 0.001863 -0.003451 -1608640.000000 1 0 0
8.056820 -5.578782 -0.256364 9.803106 -0.605627 1.596951 0.009919 -0.004202 2088230.000000 1 0 0
-2.324580 -1.185782 7.328936 7.779656 0.471700 0.342064 0.004515 -0.002775 3222260.000000 1 0 0
-5.900380 8.906218 -11.673564 15.824263 -0.985683 2.400454 0.006375 -0.000290 -1180880.000000 1 0 0
-6.246780 9.184518 -8.784664 14.161495 -0.973522 2.239947 0.009090 -0.000040 2167200.000000 1 0 0
-1.549680 13.936918 -8.387264 16.339688 -1.460059 2.109829 0.009842 -0.006190 -140171.000000 1 0 0
-1.424580 7.268718 9.699836 12.204528 -1.377262 0.652162 -0.002531 -0.000456 171302.000000 1 0 0
10.062420 2.394518 -4.057264 11.110689 0.233621 1.944609 0.008829 -0.003049 -2519820.000000 1 0 0
-2.882580 -7.450482 -6.844564 10.519839 1.201635 2.279215 0.005869 -0.008389 1132100.000000 1 0 0
-5.517680 -4.945382 -1.609564 7.582367 0.730756 1.784701 0.010795 -0.005656 800547.000000 1 0 0
5.750720 7.406318 -8.802864 12.861366 0.910574 2.324635 -0.001828 0.002388 -207573.000000 1 0 0
-9.575980 5.174818 -7.422064 13.174413 -0.495440 2.169255 0.005690 -0.003440 856265.000000 1 0 0
-0.441080 6.165418 -5.327164 8.160001 -1.499377 2.282122 0.007941 -0.002248 -1640360.000000 1 0 0
-8.278680 2.772818 -6.285464 10.757886 -0.323191 2.194771 0.006406 -0.004164 1108180.000000 1 0 0
3.590520 1.417018 -1.984264 4.340170 0.375890 2.045625 0.001750 -0.002817 3318780.000000 1 0 0
-6.827380 12.333318 -3.611964 14.552324 -1.065215 1.821623 0.012806 -0.002945 835954.000000 1 0 0
-6.582980 3.162318 -2.353864 7.673106 -0.447827 1.882592 0.003222 -0.005645 -1369630.000000 1 0 0
12.129520 4.033818 -0.820264 12.808973 0.321056 1.634878 0.006175 -0.001916 2083530.000000 1 0 0
2.213520 12.323918 -5.400664 13.636194 1.393080 1.978011 0.000653 -0.004204 -1439960.000000 1 0 0
-9.176580 -1.437982 -4.312964 10.241048 0.155437 2.005503 0.008679 -0.006344 -646636.000000 1 0 0
-1.188180 5.799418 3.367936 6.810875 -1.368714 1.053544 0.003452 -0.001463 1299040.000000 1 0 0
11.609120 2.707918 12.053536 16.952646 0.229160 0.779860 0.008494 0.005430 3639.470000 1 0 0
-7.045980 -2.415182 -5.706764 9.383288 0.330223 2.224567 0.018291 -0.012234 -773568.000000 1 0 0
7.474620 -7.447782 10.886236 15.160789 -0.783600 0.769797 0.015541 -0.002145 -1576710.000000 1 0 0
-5.430180 -1.936782 -10.875864 12.309444 0.342604 2.654160 0.012596 -0.012081 1203160.000000 1 0 0
0.783820 -6.181682 4.467236 7.667057 -1.444672 0.948807 0.002035 -0.002674 217819.000000 1 0 0
-4.729680 -9.393382 7.375636 12.845447 1.104343 0.959191 0.001943 -0.008730 2427710.000000 1 0 0
-8.936580 9.379618 1.657036 13.060837 -0.809582 1.443583 0.008875 -0.004854 295245.000000 1 0 0
-8.300980 7.190318 -9.118164 14.274027 -0.713825 2.263726 0.007571 -0.002105 -335565.000000 1 0 0
-1.303380 -10.626982 -0.073464 10.706864 1.448758 1.577658 0.004939 -0.001880 -843311.000000 1 0 0
-3.902380 10.329118 7.729736 13.478429 -1.209570 0.960037 0.004043 -0.001651 998473.000000 1 0 0
-7.561880 12.031618 1.926536 14.340621 -1.009684 1.436048 0.005104 -0.006109 669857.000000 1 0 0
-8.139680 -8.241982 -2.807864 11.919260 0.791643 1.808605 0.015191 -0.004360 1081200.000000 1 0 0
5.413520 4.552618 -8.086464 10.743530 0.699229 2.422923 0.001351 0.002962 1124750.000000 1 0 0
-8.961180 -0.241282 -10.175064 13.560711 0.026919 2.419364 0.017340 -0.010530 -1616890.000000 1 0 0
-15.253080 -2.304482 -1.598064 15.508736 0.149949 1.674022 0.003025 -0.002756 -751030.000000 1 0 0
-7.235580 -5.870382 8.731836 12.769493 0.681606 0.817832 0.002241 -0.005838 -2343210.000000 1 0 0
8.120320 3.469818 -0.983264 8.885159 0.403818 1.681687 0.006777 -0.000620 655391.000000 1 0 0
11.894820 7.248918 -5.846864 15.106932 0.547316 1.968207 0.012687 -0.005961 677389.000000 1 0 0
3.644020 13.213818 -9.545464 16.703286 1.301711 2.179095 0.003315 -0.009330 -115475.000000 1 0 0
-9.793180 5.405118 -0.558464 11.199712 -0.504321 1.620681 0.001015 -0.004376 2148470.000000 1 0 0
11.316920 -1.202682 -5.050464 12.450956 -0.105876 1.988463 0.016397 -0.006757 -1318630.000000 1 0 0
10.596120 1.757818 -1.224364 10.810493 0.164395 1.684297 0.010343 -0.001589 913707.000000 1 0 0
14.661620 5.009118 4.811736 16.223661 0.329215 1.269679 0.015633 -0.004376 2293380.000000 1 0 0
0.901220 -0.739082 10.270936 10.336855 -0.686872 0.112994 0.008874 -0.003419 2641410.000000 1 0 0
-7.834080 1.372318 -12.508364 14.822795 -0.173413 2.575233 0.011294 -0.008514 -171767.000000 1 0 0
3.119120 -11.536182 -7.788564 14.264436 -1.306733 2.148394 -0.006321 -0.000319 1602130.000000 1 0 0
2.924320 4.955418 -6.731764 8.855759 1.037669 2.434351 0.002605 0.001192 -905241.000000 1 0 0
6.491220 8.111218 0.611436 10.406808 0.895887 1.512009 0.006252 -0.003998 -517320.000000 1 0 0
-9.141980 -5.443482 6.763636 12.607698 0.537058 1.004549 0.000350 -0.003298 -2932490.000000 1 0 0
-0.210680 -6.861582 -11.719464 13.582030 1.540102 2.611708 0.001310 -0.000357 2683410.000000 1 0 0
6.517020 -13.342282 -4.621464 15.551398 -1.116432 1.872527 0.016411 -0.005553 1203320.000000 1 0 0
-3.270780 -0.361482 9.988436 10.516536 0.110072 0.318252 -0.000487 -0.001023 -419716.000000 1 0 0
8.549620 8.478418 6.984436 13.919839 0.781217 1.045163 -0.002403 0.002375 602297.000000 1 0 0
-7.995980 5.683218 -2.660164 10.164208 -0.617911 1.835599 0.005951 -0.005559 681634.000000 1 0 0
-5.394580 5.753618 -6.471864 10.202482 -0.817593 2.257954 0.005757 -0.001505 -47410.900000 1 0 0
3.354720 -13.555182 2.617536 14.207343 -1.328185 1.385500 0.014732 -0.006789 -1633720.000000 1 0 0
-11.377880 -6.974582 6.593336 14.885329 0.549920 1.111919 0.016158 -0.005722 -1674380.000000 1 0 0
-12.949680 -3.706182 -6.795764 15.086829 0.278747 2.038058 0.015147 -0.009481 -1114340.000000 1 0 0
6.025520 0.417518 -7.213164 9.408026 0.069181 2.444487 0.002284 0.000613 1796380.000000 1 0 0
-1.393080 2.290318 -2.453064 3.633697 -1.024335 2.311880 0.004892 -0.007240 2110690.000000 1 0 0
7.603220 0.984318 -4.940864 9.120854 0.128745 2.143267 0.006070 0.000139 -650617.000000 1 0 0
3.709620 -4.527082 10.885536 12.359233 -0.884320 0.493329 0.005054 -0.000045 -107633.000000 1 0 0
6.031620 -2.527082 2.171236 6.890635 -0.396754 1.250235 0.008016 -0.002695 -255180.000000 1 0 0
-6.407780 7.833618 1.175436 10.188565 -0.885185 1.455171 0.001084 -0.004190 2631840.000000 1 0 0
6.104620 -3.434482 7.962036 10.604531 -0.512468 0.721502 0.006851 -0.005934 1098120.000000 1 0 0
6.777920 -2.190982 -7.737964 10.517447 -0.312651 2.397535 0.004628 -0.004604 2292110.000000 1 0 0
12.182220 -8.018082 -5.801664 15.695714 -0.582104 1.949411 0.031548 -0.015493 1592760.000000 1 0 0
5.536520 -9.673982 10.014036 14.983988 -1.050986 0.838854 0.002107 0.002176 1697880.000000 1 0 0
-6.692380 7.478218 -4.493864 10.995750 -0.840797 1.991816 0.007971 -0.003522 755274.000000 1 0 0
-1.295180 -7.538082 9.648236 12.312133 1.400640 0.670298 0.003325 -0.007152 -816166.000000 1 0 0
10.169220 -9.287182 0.688136 13.789065 -0.740095 1.520871 0.010343 -0.004751 3780670.000000 1 0 0
11.166720 6.093618 9.836336 16.080464 0.499532 0.912595 0.007231 -0.000661 1726070.000000 1 0 0
-15.288180 -4.385582 -5.079764 16.696280 0.279359 1.879942 0.009424 -0.009817 336585.000000 1 0 0
-4.810880 -4.677382 7.797836 10.287308 0.771329 0.710547 0.003120 -0.006006 -1004880.000000 1 0 0
2.892720 10.889318 -11.105764 15.820337 1.311146 2.348988 0.001278 -0.002967 -1614450.000000 1 0 0
9.968720 -1.483582 1.619736 10.207837 -0.147739 1.411447 0.006270 -0.000192 146587.000000 1 0 0
-1.676180 -2.550182 0.748536 3.142183 0.989321 1.330262 0.002253 -0.006055 671724.000000 1 0 0
1.671320 3.048318 0.872436 3.584229 1.069278 1.324917 -0.003869 -0.003067 -1019660.000000 1 0 0
-8.943080 -2.410082 4.350136 10.232832 0.263238 1.131707 -0.001191 -0.002594 3841620.000000 1 0 0
9.931920 4.914218 -2.681764 11.401072 0.459471 1.808242 0.006044 -0.000331 1360010.000000 1 0 0
2.577720 8.445518 2.586936 9.201285 1.274560 1.285805 0.002008 -0.004892 -320359.000000 1 0 0
-8.143780 -0.139182 2.441036 8.502892 0.017089 1.279616 -0.002430 -0.003909 868758.000000 1 0 0
6.999220 2.084218 13.767036 15.584105 0.289418 0.487723 0.008747 0.002998 -321282.000000 1 0 0
6.846320 4.337618 3.816336 8.958317 0.564738 1.130718 -0.000093 -0.000661 351397.000000 1 0 0
-0.329580 3.377518 7.775136 8.483454 -1.473524 0.411540 0.002418 -0.000096 1750670.000000 1 0 0
2.687820 -10.187382 9.226836 14.005057 -1.312837 0.851545 0.000999 -0.005813 1223100.000000 1 0 0
1.322620 -4.527682 6.962936 8.410214 -1.286586 0.595418 0.001832 -0.003441 -179148.000000 1 0 0
-0.268480 10.753818 -1.998064 10.941158 -1.545836 1.754446 0.004479 -0.007297 2684870.000000 1 0 0
8.824320 5.558818 8.081236 13.193766 0.562146 0.911572 0.000633 -0.000855 -503619.000000 1 0 0
2.554220 11.356518 -2.799264 11.972068 1.349565 1.806797 0.005475 -0.006475 1106210.000000 1 0 0
1.466120 2.495618 -6.736964 7.332415 1.039635 2.735806 0.005733 -0.002895 1369060.000000 1 0 0
-13.605780 -2.200582 3.563536 14.235821 0.160350 1.317784 0.007420 -0.001906 458596.000000 1 0 0
-0.904980 -10.696182 -5.303164 11.972922 1.486390 2.029660 0.000907 -0.003320 46447.700000 1 0 0
-5.662680 2.942818 0.440436 6.396882 -0.479272 1.501890 0.004493 -0.004662 366272.000000 1 0 0
3.747620 7.235718 -4.962564 9.540824 1.092905 2.117811 0.001557 -0.001774 -2776150.000000 1 0 0
3.004920 9.813018 -6.412364 12.101375 1.273645 2.129264 0.003509 0.000224 755667.000000 1 0 0
-12.190180 1.663318 -2.594964 12.573820 -0.135610 1.778668 0.003466 -0.003108 654234.000000 1 0 0
-2.495480 9.613018 -5.595864 11.399615 -1.316809 2.083898 0.003731 -0.000068 1281270.000000 1 0 0
-1.261080 3.400118 1.703236 4.006512 -1.215631 1.131705 0.000241 -0.003160 452686.000000 1 0 0
12.865920 3.670018 9.668036 16.506721 0.277871 0.945049 0.010966 -0.001360 459253.000000 1 0 0
-2.460980 -9.471082 11.645036 15.210676 1.316577 0.698849 -0.001828 -0.014379 1011220.000000 1 0 0
-0.399980 -8.944682 -7.493464 11.675587 1.526109 2.267648 0.001643 -0.003697 2308180.000000 1 0 0
2.291620 7.635518 -0.408364 7.982444 1.279224 1.621976 0.002350 -0.005715 1760430.000000 1 0 0
-11.832680 -1.321082 -5.550664 13.136493 0.111186 2.007040 0.006957 -0.001058 -148472.000000 1 0 0
-6.118580 -7.118482 -10.912364 14.394079 0.860793 2.431214 0.011617 -0.014721 725226.000000 1 0 0
-4.681280 -2.260682 -1.354264 5.372066 0.449890 1.825640 0.007747 -0.008042 -2155300.000000 1 0 0
-10.393480 3.721218 4.414636 11.889529 -0.343814 1.190383 0.001086 -0.005370 2905040.000000 1 0 0
6.691720 9.349918 -3.566164 12.038173 0.949612 1.871548 0.003734 -0.000684 1434140.000000 1 0 0
1.318820 -2.695482 -11.497564 11.882714 -1.115769 2.886292 0.000080 -0.005473 -911031.000000 1 0 0
1.319520 8.795718 7.498536 11.633307 1.421888 0.870329 -0.004732 0.005681 1049920.000000 1 0 0
10.480920 0.453118 10.403036 14.774240 0.043206 0.789594 0.000377 0.000708 1567490.000000 1 0 0
-5.275880 -0.912582 -3.952364 6.654990 0.171278 2.206688 0.011775 -0.011687 91738.600000 1 0 0
11.770920 5.654418 5.388536 14.126688 0.447822 1.179439 0.002768 0.001363 1836860.000000 1 0 0
9.919820 -3.569982 3.715436 11.178196 -0.345453 1.231968 0.011769 -0.006869 -1884260.000000 1 0 0
7.415420 -1.680582 -3.384464 8.322704 -0.222869 1.989585 0.007199 -0.001724 -3799590.000000 1 0 0
2.427920 9.221418 10.421236 14.125562 1.313348 0.741054 -0.005027 0.001142 2591460.000000 1 0 0
2.518020 -10.822482 6.327336 12.786779 -1.342198 1.053152 0.001771 -0.003224 1368760.000000 1 0 0
5.808420 -7.457682 -1.265164 9.537054 -0.909085 1.703846 0.005660 -0.005872 833985.000000 1 0 0
-0.190080 -5.588382 -2.416264 6.091344 1.536796 1.978685 0.001101 -0.002126 260341.000000 1 0 0
7.728120 -5.096282 2.704036 9.644052 -0.582987 1.286602 0.006512 -0.004974 1410390.000000 1 0 0
-2.656780 -12.417282 4.711636 13.544256 1.360016 1.215498 0.007176 -0.005907 -1150410.000000 1 0 0
4.895520 -10.197482 -1.238764 11.379336 -1.123218 1.679873 0.004390 -0.004125 883210.000000 1 0 0
1.003520 0.179318 1.061736 1.471900 0.176823 0.765066 -0.002543 -0.001646 -828177.000000 1 0 0
-1.598380 8.615518 2.364236 9.075879 -1.387359 1.307260 0.001056 -0.001469 -764029.000000 1 0 0
-7.509680 0.633418 -3.055564 8.132219 -0.084148 1.955987 0.006052 -0.005776 -527311.000000 1 0 0
4.395020 -6.399982 12.914136 15.068207 -0.969036 0.541289 0.008649 0.000529 -1052370.000000 1 0 0
-5.048680 13.004018 8.485436 16.327776 -1.200469 1.024304 0.010357 -0.010673 1687660.000000 1 0 0
0.685120 6.156218 8.148036 10.235179 1.459963 0.650004 -0.001624 0.002438 769497.000000 1 0 0
7.942320 -0.571682 -0.631864 7.987898 -0.071855 1.649982 0.008373 -0.002437 4157480.000000 1 0 0
2.383020 -9.258782 -2.445664 9.868389 -1.318884 1.821234 -0.001351 -0.002803 2040010.000000 1 0 0
-7.122780 12.241718 4.804336 14.955778 -1.043833 1.243762 0.003231 -0.007361 2149710.000000 1 0 0
-14.977380 0.259618 0.119336 14.980105 -0.017332 1.562830 0.012542 -0.005490 175490.000000 1 0 0
6.895320 -0.437482 3.999836 7.983453 -0.063361 1.046024 0.006860 -0.001567 475546.000000 1 0 0
-4.207480 -5.042582 5.105736 8.318597 0.875435 0.909965 0.004500 -0.005114 -269858.000000 1 0 0
3.027520 5.146018 6.829236 9.071154 1.039007 0.718412 -0.001433 -0.000538 -18552.300000 1 0 0
2.047420 -7.206582 1.753236 7.694192 -1.293986 1.340912 0.000992 -0.002191 2662040.000000 1 0 0
-2.531480 6.470618 -1.744264 7.163780 -1.197876 1.816752 0.005474 -0.005122 1580020.000000 1 0 0
2.786020 -3.796382 -6.471064 8.003068 -0.937704 2.512519 -0.004596 -0.003654 -528042.000000 1 0 0
-5.052380 0.872018 -12.124864 13.164319 -0.170912 2.741539 0.006474 -0.005324 -434147.000000 1 0 0
-7.492980 6.392318 -11.933164 15.472779 -0.706295 2.451577 0.006378 -0.002424 2484380.000000 1 0 0
-1.056880 11.138918 -8.986464 14.350924 -1.476198 2.247458 0.005208 -0.001266 821177.000000 1 0 0
4.675620 5.974218 -0.539064 7.605478 0.906735 1.641734 0.002143 -0.001851 750947.000000 1 0 0
-2.711780 13.430318 3.512536 14.144437 -1.371560 1.319837 0.000376 0.000074 1076570.000000 1 0 0
1.427120 -7.798782 10.156036 12.884205 -1.389806 0.662829 -0.002387 -0.003868 651673.000000 1 0 0
12.949220 -0.270282 -1.069764 12.996144 -0.020869 1.653204 0.012673 -0.002468 447609.000000 1 0 0
-0.965180 3.161318 -5.358264 6.295752 -1.274476 2.588858 0.006799 -0.007214 90864.400000 1 0 0
6.640420 1.189218 7.371036 9.992076 0.177209 0.741157 0.004132 -0.001015 688821.000000 1 0 0
5.504920 -6.164782 6.839936 10.728159 -0.841883 0.879458 0.000320 -0.001689 682274.000000 1 0 0
12.228620 -4.922682 2.669036 13.449747 -0.382706 1.371025 0.013233 -0.006184 -327917.000000 1 0 0
4.298520 -9.175582 13.881936 17.186527 -1.132686 0.630518 0.006343 -0.002193 1238750.000000 1 0 0
-2.683480 -4.302282 -1.451464 5.274224 1.013108 1.849594 0.006605 -0.006501 2361830.000000 1 0 0
-9.311680 -5.288782 -7.511964 13.080833 0.516537 2.182512 0.020456 -0.010772 770355.000000 1 0 0
-10.594980 -3.163182 7.897836 13.588051 0.290130 0.950552 -0.001788 0.000001 163992.000000 1 0 0
12.088420 -0.607482 1.676036 12.219167 -0.050211 1.433198 0.010182 -0.002353 790020.000000 1 0 0
-7.582280 4.769918 4.350836 9.958557 -0.561533 1.118653 -0.002729 -0.000649 782183.000000 1 0 0
-1.029980 10.621318 6.933436 12.725792 -1.474126 0.994606 -0.006784 0.004018 3017980.000000 1 0 0
7.375220 -10.056382 1.816236 12.602516 -0.938013 1.426176 0.005016 -0.005096 4694090.000000 1 0 0
-4.353080 -1.678482 1.649936 4.948625 0.368018 1.230875 0.000066 -0.002664 225519.000000 1 0 0
6.726520 -15.033482 -0.978464 16.498759 -1.150077 1.630136 0.027890 -0.004387 -871453.000000 1 0 0
-10.428780 1.680018 2.363836 10.824492 -0.159722 1.350644 -0.004437 -0.001303 1142110.000000 1 0 0
-3.057280 8.234718 -11.327464 14.334189 -1.215302 2.481999 0.008146 0.001932 -322194.000000 1 0 0
-1.245580 -5.076182 -6.802864 8.578931 1.330173 2.486470 -0.000323 -0.007232 -939459.000000 1 0 0
12.926720 -0.447982 6.357136 14.412285 -0.034642 1.113982 0.007754 -0.004838 3935020.000000 1 0 0
5.952120 -13.294782 3.747236 15.040636 -1.149854 1.319003 0.008864 -0.004832 520325.000000 1 0 0
-5.576680 3.385718 -4.925064 8.174271 -0.545639 2.217436 0.006741 -0.005254 2412480.000000 1 0 0
-4.359380 8.102218 3.340736 9.788291 -1.077176 1.222498 0.001235 -0.001415 198283.000000 1 0 0
14.093220 6.084818 -4.100664 15.888968 0.407578 1.831833 0.023932 -0.000701 -1564170.000000 1 0 0
-6.737980 -8.458882 5.334436 12.058576 0.898158 1.112549 0.012499 -0.007779 1580390.000000 1 0 0
1.701720 11.382218 2.703136 11.821915 1.422389 1.340101 0.003312 -0.005519 2648050.000000 1 0 0
-7.325880 7.314718 5.966836 11.948922 -0.784636 1.047934 0.001712 -0.004223 -1210530.000000 1 0 0
-17.378680 -3.936482 5.158236 18.550520 0.222753 1.289018 0.043340 -0.008117 -1042850.000000 1 0 0
7.511220 -13.086582 -8.579064 17.357344 -1.049741 2.087781 0.021866 -0.009591 -684404.000000 1 0 0
-2.371280 12.830018 -2.781964 13.340602 -1.388036 1.780872 -0.001040 -0.002262 880369.000000 1 0 0
-5.563880 13.891618 -5.862564 16.071822 -1.189841 1.944185 0.016145 -0.002002 2734820.000000 1 0 0
-5.650980 2.467718 7.385336 9.621143 -0.411729 0.695684 -0.004068 0.000637 1012210.000000 1 0 0
-7.521680 5.157218 1.425536 9.230640 -0.601028 1.415741 0.001340 -0.003700 1149530.000000 1 0 0
10.682220 -5.610782 -5.044264 13.078047 -0.483639 1.966768 0.015006 -0.009219 3558910.000000 1 0 0
-9.437280 -0.804282 6.854136 11.691377 0.085018 0.944367 -0.005682 -0.001873 110236.000000 1 0 0
-11.358980 -4.581882 -2.591664 12.519456 0.383409 1.779315 0.007932 -0.002385 2006650.000000 1 0 0
6.476820 -4.390782 13.544036 15.641901 -0.595755 0.523886 0.014919 -0.002055 515598.000000 1 0 0
0.244420 10.140818 -11.592064 15.403632 1.546698 2.422728 0.003540 -0.000959 -662231.000000 1 0 0
-11.819380 -3.245582 1.454036 12.342843 0.267993 1.452718 0.005065 -0.000230 2235060.000000 1 0 0
5.242720 5.951918 5.368736 9.577827 0.848665 0.975761 -0.000485 0.000042 -5277940.000000 1 0 0
-7.111280 0.007218 8.072136 10.757775 -0.001015 0.722199 -0.008054 0.000129 17353.900000 1 0 0
1.752220 2.116018 9.611736 9.996663 0.879170 0.278407 0.008922 -0.003207 2252800.000000 1 0 0
10.519320 -4.922482 -1.996464 11.784430 -0.437678 1.741033 0.008050 -0.004981 2091200.000000 1 0 0
-9.656180 -2.433782 -1.709164 10.103779 0.246901 1.740775 0.005892 -0.002110 -30351.300000 1 0 0
-1.972180 -5.191782 -9.808264 11.271475 1.207767 2.626373 0.008996 -0.009899 873266.000000 1 0 0
7.711120 -1.508182 6.584136 10.251187 -0.193147 0.873327 0.005775 -0.003614 1303850.000000 1 0 0
1.466720 -11.900582 -2.529364 12.254501 -1.448167 1.778694 0.001410 0.000855 -4326490.000000 1 0 0
-0.728880 -1.485482 4.765236 5.044343 1.114641 0.334211 0.004486 -0.002931 2700060.000000 1 0 0
7.710620 1.582018 9.968136 12.701188 0.202365 0.668392 0.005309 -0.001512 906960.000000 1 0 0
-3.861280 10.726118 -7.952464 13.899668 -1.225251 2.179901 0.012590 -0.000954 2627160.000000 1 0 0
-9.626280 12.585218 6.400836 17.088700 -0.917835 1.186868 0.018464 -0.011959 1500550.000000 1 0 0
-2.447180 -2.446882 -11.036664 11.566498 0.785337 2.837745 0.012751 -0.011061 -2989750.000000 1 0 0
1.075420 -11.775482 11.075036 16.201078 -1.479722 0.818114 -0.005328 -0.004927 1310830.000000 1 0 0
1.370120 3.599818 -1.895864 4.293043 1.207118 2.028192 0.001336 -0.003957 2601440.000000 1 0 0
-1.867380 -9.313182 -12.026464 15.325088 1.372911 2.473100 -0.000260 -0.003550 502365.000000 1 0 0
1.244020 -2.691382 1.583536 3.361355 -1.137824 1.080258 0.005714 -0.002499 1934270.000000 1 0 0
-1.027980 -2.183682 -6.606664 7.033720 1.130817 2.791335 0.003606 -0.010352 93358.700000 1 0 0
1.769920 5.856718 4.096936 7.363331 1.277319 0.980753 -0.002872 0.000082 -902574.000000 1 0 0
-11.109080 8.631118 3.659136 14.536063 -0.660523 1.316331 0.005738 -0.010668 2542550.000000 1 0 0
-16.318380 -1.497682 3.916936 16.848589 0.091522 1.336171 0.027690 -0.005656 -881689.000000 1 0 0
-12.129880 0.231318 6.781636 13.898852 -0.019068 1.061082 -0.004607 -0.002443 -635603.000000 1 0 0
-5.127380 3.050718 4.594536 7.530383 -0.536724 0.914568 -0.001846 0.001315 967168.000000 1 0 0
5.189220 -6.058982 3.919936 8.888485 -0.862569 1.114069 0.001036 -0.003146 1687240.000000 1 0 0
9.948620 3.513118 6.290136 12.283438 0.339457 1.033189 -0.001999 0.002301 -787894.000000 1 0 0
-12.152480 5.826518 3.161736 13.842964 -0.447074 1.340362 0.002897 -0.005728 1840460.000000 1 0 0
-4.928880 12.314318 -1.351464 13.332769 -1.190069 1.672335 0.000706 0.000033 1371510.000000 1 0 0
-1.819680 -12.106882 10.358636 16.037118 1.421612 0.868573 0.009482 -0.011848 1616900.000000 1 0 0
5.154820 6.320918 13.864536 16.085755 0.886665 0.531764 0.008106 -0.002018 1679970.000000 1 0 0
12.920220 -3.598682 -5.800964 14.612795 -0.271646 1.979019 0.012605 -0.007918 2038500.000000 1 0 0
3.550220 -2.562582 6.416336 7.767899 -0.625214 0.598811 0.001780 -0.000680 2112540.000000 1 0 0
7.224320 -11.861782 -0.758764 13.909292 -1.023755 1.625374 0.013446 -0.000423 -684558.000000 1 0 0
-6.077280 -6.538982 -4.024564 9.792279 0.821978 1.994340 0.014542 -0.007710 132422.000000 1 0 0
0.406820 -8.939382 5.010236 10.255755 -1.525319 1.060393 0.003444 -0.005000 2064410.000000 1 0 0
-10.227880 2.463318 -0.408664 10.528270 -0.236342 1.609622 -0.000514 -0.002106 -1095510.000000 1 0 0
-1.958480 9.029318 -0.369964 9.246680 -1.357203 1.610817 0.003810 -0.005936 703619.000000 1 0 0
-3.496380 2.215418 -6.596264 7.787390 -0.564782 2.581196 0.011887 -0.009091 1327260.000000 1 0 0
-12.562180 3.007418 6.298936 14.371135 -0.234980 1.117085 0.001216 -0.010095 333992.000000 1 0 0
11.400920 1.641018 7.885036 13.958786 0.142955 0.970509 0.004640 -0.006398 -1787220.000000 1 0 0
5.999320 2.646218 -3.113164 7.258519 0.415417 2.014069 0.003082 -0.000031 112534.000000 1 0 0
10.512820 -2.347982 6.401836 12.530599 -0.219738 1.034569 0.011828 -0.005334 3636860.000000 1 0 0
-0.947580 11.039618 4.067136 11.803079 -1.485172 1.219002 0.002629 0.000202 489969.000000 1 0 0
-1.513780 -12.255882 7.440436 14.417290 1.447904 1.028531 0.007697 -0.006607 -889693.000000 1 0 0
8.108620 8.685218 -7.757864 14.190391 0.819719 2.149212 0.008003 -0.002857 1711530.000000 1 0 0
-4.686680 -5.894382 -8.672864 11.485960 0.899044 2.426578 0.014296 -0.012294 412175.000000 1 0 0
-8.527780 -5.374482 -11.631464 15.391525 0.562353 2.427527 0.020265 -0.015537 4235590.000000 1 0 0
6.023120 -0.620682 -9.913064 11.616026 -0.102687 2.593261 0.003215 -0.000029 371169.000000 1 0 0
-11.247980 -5.535982 -5.359264 13.633996 0.457369 1.974776 0.010011 -0.007411 -567329.000000 1 0 0
3.837120 8.873818 -2.666064 10.028760 1.162667 1.839873 0.007138 -0.006468 180698.000000 1 0 0
11.698520 -10.294682 -4.016464 16.092478 -0.721654 1.823049 0.028993 -0.009823 54722.100000 1 0 0
4.039720 -11.215682 3.946136 12.557183 -1.225077 1.251126 0.006309 -0.004823 137531.000000 1 0 0
-0.926980 0.869918 3.132236 3.380377 -0.753653 0.385545 0.002613 -0.000581 -2184680.000000 1 0 0
-10.665980 -5.080482 4.541336 12.656941 0.444530 1.203812 0.003956 -0.001266 2033320.000000 1 0 0
4.570520 -8.679482 2.690336 10.171577 -1.086104 1.303116 0.002294 -0.001170 4041560.000000 1 0 0
-3.707080 -5.742782 2.592536 7.310488 0.997577 1.208275 0.004127 -0.003347 2053670.000000 1 0 0
10.133720 5.150318 12.418436 16.835546 0.470214 0.741240 0.011855 0.008668 -335857.000000 1 0 0
1.656220 -12.345082 -5.259364 13.520541 -1.437432 1.970332 -0.000224 -0.002101 1589880.000000 1 0 0
9.874220 -10.729182 -1.750364 14.686026 -0.826871 1.690266 0.017186 -0.005476 1360950.000000 1 0 0
9.617220 -4.393982 -9.174764 13.999082 -0.428566 2.285486 0.021205 -0.012348 3146580.000000 1 0 0
-7.351980 -3.138782 -12.979064 15.243348 0.403504 2.589555 0.014012 -0.010003 2709770.000000 1 0 0
0.296820 6.333718 -2.511764 6.820047 1.523967 1.947967 0.003727 -0.004890 409101.000000 1 0 0
-5.975580 -9.411282 1.018336 11.194498 1.005083 1.479703 0.008198 -0.003084 -557541.000000 1 0 0
-9.032180 -4.082582 0.655236 9.933634 0.424519 1.504787 0.005152 -0.002057 2871290.000000 1 0 0
1.805920 3.792518 12.064336 12.774691 1.126386 0.335051 0.008200 -0.002426 -342446.000000 1 0 0
6.708120 4.348118 9.663436 12.541411 0.575100 0.691136 0.003448 0.001741 2069950.000000 1 0 0
-8.371980 9.764118 -3.607664 13.358267 -0.862009 1.844262 0.006681 -0.000741 2356760.000000 1 0 0
16.548920 2.121218 -6.019064 17.736839 0.127483 1.917026 0.023785 0.006419 643747.000000 1 0 0
-10.954580 2.542118 -5.168964 12.376727 -0.228024 2.001638 0.002680 -0.002600 200693.000000 1 0 0
-13.744180 3.994218 1.437836 14.384840 -0.282821 1.470674 0.006259 -0.003292 239953.000000 1 0 0
-17.546980 10.376118 3.345036 20.657918 -0.534023 1.408155 0.041356 -0.015518 305600.000000 1 0 0
-14.325580 2.829018 -1.226564 14.653670 -0.194971 1.654598 0.010953 -0.004856 1097870.000000 1 0 0
-14.377880 5.045718 5.142736 16.081991 -0.337509 1.245297 0.006705 -0.009565 833160.000000 1 0 0
-17.516380 7.405018 3.008136 19.253746 -0.399962 1.413917 0.023589 -0.007393 -1301230.000000 1 0 0
-15.231380 12.601118 -3.500864 20.075835 -0.691175 1.746074 0.056167 -0.013470 -879619.000000 1 0 0
-8.580280 12.482318 -9.570164 17.916961 -0.968580 2.134286 0.016318 -0.014352 1504960.000000 1 0 0
-12.519080 8.708618 -9.971664 18.220908 -0.607785 2.149889 0.016950 -0.002848 -96014.000000 1 0 0
-13.915780 -3.497682 -12.211264 18.841382 0.246246 2.275895 0.048218 -0.010584 -683801.000000 1 0 0
-14.808880 5.846118 -7.722164 17.694966 -0.375991 2.022395 0.036171 -0.000854 -531740.000000 1 0 0
-10.951680 13.568118 -8.358264 19.336331 -0.891703 2.017791 0.025908 -0.012436 1113900.000000 1 0 0
-11.001780 13.457918 3.908536 17.816604 -0.885478 1.349621 0.017708 -0.012170 -254900.000000 1 0 0
-15.155680 3.224518 3.056136 15.793420 -0.209634 1.376061 0.012678 -0.005417 1072840.000000 1 0 0
-11.247280 9.360218 -12.645464 19.339668 -0.694081 2.283473 0.029810 -0.008110 -1289530.000000 1 0 0
-13.042280 11.551918 -9.205364 19.704989 -0.724874 2.056871 0.019437 -0.012291 -1752280.000000 1 0 0
-8.902880 14.475618 -3.462664 17.343438 -1.019402 1.771800 0.020390 -0.010405 -413105.000000 1 0 0
-16.864880 8.068218 -4.118164 19.143657 -0.446222 1.787610 0.049348 -0.006559 -1599160.000000 1 0 0
-16.940880 6.619318 0.140836 18.188695 -0.372490 1.563053 0.024233 -0.003036 -344986.000000 1 0 0
-10.458680 2.676318 -12.433664 16.466410 -0.250519 2.426592 0.014227 -0.010935 -23070.500000 1 0 0
-16.830080 0.921818 2.351036 17.018481 -0.054717 1.432207 0.027968 -0.009502 -1509690.000000 1 0 0
-12.672980 1.095518 -7.089264 14.562357 -0.086231 2.079243 0.008722 -0.006151 651861.000000 1 0 0
-12.386480 8.966718 -5.467164 16.239360 -0.626594 1.914165 0.017763 -0.002623 -190100.000000 1 0 0
-9.741380 13.794018 1.163336 16.926983 -0.955919 1.502015 0.023618 -0.008940 545943.000000 1 0 0
-12.360180 11.038618 2.693636 16.789306 -0.728978 1.409662 0.013456 -0.011047 -68143.500000 1 0 0
-12.649780 6.735218 -3.727164 14.807830 -0.489260 1.825235 0.002631 0.001514 -45348.000000 1 0 0
-15.934380 3.789418 -9.557164 18.963215 -0.233477 2.099002 0.042127 -0.004869 -955286.000000 1 0 0
-15.152780 5.713918 -4.786364 16.886826 -0.360599 1.858173 0.025016 0.002854 1803220.000000 1 0 0
-17.831480 5.203718 7.330436 19.969368 -0.283942 1.194924 0.024518 -0.022092 -1018260.000000 1 0 0
-15.930780 10.067618 -2.199064 18.973206 -0.563589 1.686961 0.036201 -0.008527 -753820.000000 1 0 0
-8.907180 9.921018 -8.388264 15.752061 -0.839193 2.132370 0.011664 -0.004243 81750.000000 1 0 0
-17.054680 4.060518 -1.385664 17.586073 -0.233737 1.649671 0.021981 0.000112 -141972.000000 1 0 0
-10.229680 5.288918 -4.556264 12.384609 -0.477168 1.947543 0.001115 -0.003606 -378291.000000 1 0 0
-18.194480 2.604018 6.067336 19.355427 -0.142156 1.251952 0.046951 -0.016573 -1279860.000000 1 0 0
-10.373880 10.009818 -5.738264 15.515847 -0.767540 1.949625 0.007081 -0.003976 1067670.000000 1 0 0
-15.268580 0.523318 -5.903364 16.378434 -0.034261 1.939531 0.012057 -0.001621 626115.000000 1 0 0
-16.436880 -4.113282 -8.969664 19.171463 0.245211 2.057670 0.039399 -0.017132 -1657400.000000 1 0 0
-10.084080 9.519518 -1.101064 13.911227 -0.756607 1.650029 0.006169 -0.004004 2368410.000000 1 0 0
-17.447280 -3.232882 -3.278164 18.044541 0.183216 1.753481 0.020069 -0.010302 829037.000000 1 0 0
-11.933880 4.900118 -11.522564 17.297345 -0.389616 2.299826 0.014859 -0.003729 -866232.000000 1 0 0
-16.300880 7.070618 5.702736 18.661016 -0.409264 1.260232 0.021062 -0.009719 -66179.300000 1 0 0
-12.110080 5.958018 -8.832264 16.129504 -0.457218 2.150271 0.013445 -0.001662 292438.000000 1 0 0
-14.682880 8.321918 -0.163564 16.878034 -0.515632 1.580487 0.021829 -0.007983 2258620.000000 1 0 0
-15.005180 11.734418 3.819036 19.427738 -0.663684 1.372931 0.015904 -0.015075 1472800.000000 1 0 0
-17.331480 3.948318 -4.223764 18.270457 -0.223989 1.804087 0.028831 -0.001738 -611972.000000 1 0 0
-13.979780 13.277118 -0.840264 19.298242 -0.759625 1.614351 0.035352 -0.010172 -453887.000000 1 0 0
-10.152480 6.707718 -13.142564 17.910704 -0.583859 2.394669 0.007584 -0.006875 2635750.000000 1 0 0
-15.905680 -1.181182 -8.261764 17.962255 0.074126 2.048737 0.024260 -0.011221 425094.000000 1 0 0
-11.595280 11.823718 -0.134564 16.561067 -0.795152 1.578922 0.025328 -0.009539 1465310.000000 1 0 0
-12.116080 7.310918 -1.036264 14.188825 -0.542920 1.643895 0.002938 -0.002634 1867760.000000 1 0 0
-11.448480 0.042418 -11.687164 16.360296 -0.003705 2.366507 0.023086 -0.011244 -6179.620000 1 0 0
-19.058780 -1.377082 -4.816764 19.706209 0.072129 1.817727 0.023103 -0.007549 -660409.000000 1 0 0
-17.933880 1.297518 -5.195664 18.716371 -0.072224 1.852091 0.016703 0.001479 -1152410.000000 1 0 0
-13.374080 -0.211482 -9.529564 16.423256 0.015812 2.189830 0.023359 -0.009230 -630370.000000 1 0 0
-6.174880 11.302418 -13.263764 18.487867 -1.070773 2.370903 0.006790 -0.003282 -579152.000000 1 0 0
16.406820 5.788618 7.065736 18.778085 0.339183 1.185023 0.041345 -0.008186 301854.000000 1 0 0
14.884520 10.085618 -5.314164 18.748573 0.595528 1.858179 0.060904 -0.015477 262397.000000 1 0 0
2.261620 16.914718 4.329836 17.605967 1.437877 1.322317 0.013266 -0.008622 1865980.000000 1 0 0
-4.057280 18.097818 -5.962564 19.481907 -1.350257 1.881844 0.019314 -0.014971 1647150.000000 1 0 0
5.457020 14.605918 5.598436 16.566665 1.213239 1.226076 0.010865 -0.005538 814073.000000 1 0 0
9.978620 6.125418 15.122336 19.125340 0.550544 0.658851 0.022675 0.003290 -947274.000000 1 0 0
4.557720 12.721318 -1.081264 13.556322 1.226769 1.650642 0.007778 -0.008821 2010380.000000 1 0 0
3.480820 13.640518 12.937136 19.119344 1.320946 0.827591 0.001580 -0.007966 -892478.000000 1 0 0
-0.703280 12.378918 9.238736 15.462421 -1.514045 0.930421 -0.005981 -0.003506 1347210.000000 1 0 0
-7.805780 13.816418 8.391936 17.951273 -1.056537 1.084354 0.017218 -0.017651 3090180.000000 1 0 0
11.335220 12.748818 -4.204364 17.569754 0.844025 1.812437 0.053434 -0.015459 347610.000000 1 0 0
-5.917880 16.221818 0.783436 17.285325 -1.220989 1.525457 0.011746 -0.000080 764893.000000 1 0 0
3.253520 10.690518 6.737736 13.048741 1.275365 1.028211 -0.003045 0.004983 323675.000000 1 0 0
-1.378780 15.626818 2.429136 15.874482 -1.482793 1.417171 0.000779 -0.004317 -1738740.000000 1 0 0
9.839920 8.794718 9.512336 16.268240 0.729368 0.946264 0.010734 -0.002770 1673580.000000 1 0 0
7.246920 12.201718 6.175736 15.477063 1.034855 1.160343 0.007368 -0.004934 432734.000000 1 0 0
11.734520 14.001518 -1.631664 18.341314 0.873258 1.659875 0.052470 -0.015070 542525.000000 1 0 0
9.658520 16.057518 -1.197264 18.776697 1.029278 1.634603 0.039855 -0.010315 393874.000000 1 0 0
10.083620 13.792518 2.997136 17.346347 0.939506 1.397143 0.030883 -0.008203 2366750.000000 1 0 0
-6.031380 14.533018 6.321236 16.957128 -1.177416 1.188796 -0.001979 -0.007986 -143108.000000 1 0 0
-1.108780 18.183218 -6.267164 19.264894 -1.509894 1.902141 0.015725 -0.004000 1191060.000000 1 0 0
-3.534780 15.710418 5.524536 17.024465 -1.349486 1.240307 -0.003637 -0.000739 1109050.000000 1 0 0
7.158120 12.326218 10.611736 17.770292 1.044672 0.930839 0.007154 -0.001928 3378290.000000 1 0 0
1.396120 14.602818 6.164036 15.911844 1.475480 1.173001 0.002957 -0.004094 1016150.000000 1 0 0
17.450420 7.687718 -1.446764 19.123580 0.414964 1.646522 0.043188 -0.001435 -917916.000000 1 0 0
1.955620 16.167818 -3.406564 16.638133 1.450424 1.776999 0.003609 -0.014006 -331132.000000 1 0 0
6.710620 11.245818 0.614336 13.110235 1.032791 1.523920 0.010611 -0.004894 2403620.000000 1 0 0
12.689220 9.369518 3.168736 16.088663 0.636025 1.372546 0.017039 0.001150 -1086570.000000 1 0 0
5.920120 14.333518 -3.370364 15.870000 1.179111 1.784799 0.009971 -0.006695 1206510.000000 1 0 0
3.007720 16.504818 1.491236 16.842778 1.390541 1.482142 0.015812 -0.015834 -1525740.000000 1 0 0
2.463020 18.913818 -2.623964 19.253160 1.441302 1.707509 0.015101 -0.021017 -1213890.000000 1 0 0
3.990420 11.905718 10.659636 16.471108 1.247395 0.866928 -0.001463 -0.004732 3161910.000000 1 0 0
8.087820 11.524218 3.380636 14.479266 0.958856 1.335140 0.007028 0.000080 1581820.000000 1 0 0
0.638320 12.505918 0.165236 12.523288 1.519799 1.557602 0.005654 -0.007648 -2890710.000000 1 0 0
11.970520 9.875718 -4.587464 16.182336 0.689802 1.858224 0.035766 -0.008991 342015.000000 1 0 0
-1.335680 16.417218 9.966036 19.251778 -1.489617 1.026673 -0.000423 -0.004922 -826634.000000 1 0 0
8.058520 14.707518 -7.997864 18.580007 1.069553 2.015794 0.035611 -0.013614 337533.000000 1 0 0
14.506720 7.571118 -1.470264 16.429499 0.481017 1.660405 0.026370 -0.001628 492539.000000 1 0 0
12.570320 8.330318 5.943236 16.208923 0.585250 1.195375 0.011042 0.001406 -1645880.000000 1 0 0
-3.039680 14.165718 10.237836 17.740364 -1.359422 0.955632 0.002799 -0.011461 1970430.000000 1 0 0
-4.661080 17.146018 -3.193364 18.052955 -1.305365 1.748621 0.023974 -0.008305 1562440.000000 1 0 0
-7.244780 16.418118 -1.846964 18.040308 -1.155228 1.673356 0.021361 -0.005804 566293.000000 1 0 0
8.310920 11.256718 -1.874064 14.117266 0.934820 1.703939 0.015006 -0.005686 -1746960.000000 1 0 0
8.459120 12.973018 -4.141964 16.031587 0.992978 1.832123 0.028310 -0.004179 4153130.000000 1 0 0
2.482920 14.787418 -7.261964 16.660395 1.404440 2.021814 -0.005248 -0.007286 -867733.000000 1 0 0
11.344220 11.310018 9.686136 18.719751 0.783888 1.026953 0.027820 -0.011431 344613.000000 1 0 0
8.500820 15.710818 1.529736 17.928576 1.074827 1.485369 0.019907 -0.011102 794226.000000 1 0 0
5.985020 9.878518 7.757736 13.913592 1.026078 0.979346 0.002838 0.004696 2354140.000000 1 0 0
14.392720 11.455018 2.472736 18.560233 0.672230 1.437171 0.036195 -0.001523 3499290.000000 1 0 0
12.033820 12.686318 1.087336 17.519640 0.811787 1.508693 0.037443 -0.004855 1700870.000000 1 0 0
5.188520 15.907518 8.228436 18.646099 1.255509 1.113755 0.015208 -0.000631 -2376330.000000 1 0 0
11.484220 15.101018 5.122836 19.651247 0.920613 1.307062 0.041629 -0.007201 -819832.000000 1 0 0
5.812820 16.724118 1.699036 17.786841 1.236287 1.475128 0.013728 -0.020342 1374820.000000 1 0 0
-0.724780 16.084418 -4.212964 16.642802 -1.525766 1.826721 0.000951 -0.009225 662445.000000 1 0 0
16.052920 6.477718 2.549636 17.497363 0.383540 1.424560 0.018999 -0.004434 -6591.410000 1 0 0
7.504120 16.813018 -3.137464 18.677073 1.151000 1.739581 0.026087 -0.014091 -20059.800000 1 0 0
14.858220 8.165218 7.419936 18.506565 0.502492 1.158259 0.038362 -0.009513 769534.000000 1 0 0
2.117120 12.924418 8.557636 15.644677 1.408431 0.992020 -0.000573 -0.000263 657891.000000 1 0 0
15.991020 7.400418 -5.913464 18.586231 0.433436 1.894588 0.022327 -0.001390 -991655.000000 1 0 0
-3.111180 17.035218 0.610936 17.327762 -1.390155 1.535531 0.002128 -0.004913 -614278.000000 1 0 0
-2.958180 18.589318 4.568636 19.369719 -1.412986 1.332688 0.009934 -0.004152 -670377.000000 1 0 0
-1.019980 19.084118 0.783236 19.127399 -1.517401 1.529837 0.010613 -0.014545 54829.600000 1 0 0
6.963020 16.794318 -6.077164 19.169369 1.177763 1.893387 0.024269 -0.012429 2093160.000000 1 0 0
10.968320 10.084018 0.744736 14.917979 0.743418 1.520854 0.017795 -0.001399 -2101370.000000 1 0 0
9.099720 8.878118 14.285936 19.123646 0.773072 0.727213 0.025248 0.002585 781736.000000 1 0 0
6.263120 12.341718 -8.321364 16.148987 1.101186 2.112139 0.015975 -0.011278 1806860.000000 1 0 0
6.282020 8.991918 13.349636 17.278054 0.960991 0.687814 0.009097 -0.003268 1038260.000000 1 0 0
16.672920 9.506118 2.854636 19.403646 0.518184 1.423142 0.035100 -0.006156 -384036.000000 1 0 0
2.417820 14.709918 -0.759464 14.926631 1.407886 1.621698 0.005825 -0.011294 763705.000000 1 0 0
9.114620 12.844018 8.278736 17.792767 0.953630 1.086838 0.018821 -0.008982 1802100.000000 1 0 0
7.192420 9.387818 10.536236 15.839012 0.917043 0.843024 0.005855 -0.002969 1047550.000000 1 0 0
4.312620 15.836818 -5.327864 17.256582 1.304927 1.884668 0.011324 -0.009803 1193960.000000 1 0 0
0.192020 16.313618 -8.143464 18.234226 1.559026 2.033762 -0.002207 -0.003173 997505.000000 1 0 0
-2.481380 15.723218 -2.023564 16.045923 -1.414271 1.697244 -0.005031 -0.004638 -817796.000000 1 0 0
13.332620 10.535318 7.613036 18.620150 0.668731 1.149592 0.036572 -0.012401 2025770.000000 1 0 0
-1.043480 15.940018 7.089836 17.476807 -1.505427 1.153083 0.003672 -0.003801 753022.000000 1 0 0
13.240820 13.425918 6.668036 20.000932 0.792339 1.230903 0.044300 -0.009857 -298748.000000 1 0 0
5.249620 17.366118 4.451736 18.680431 1.277239 1.330171 0.018015 -0.016703 1213360.000000 1 0 0
10.738320 9.528418 -1.904764 14.482072 0.725770 1.702704 0.016452 -0.001124 987559.000000 1 0 0
3.224620 12.780218 4.713836 13.998300 1.323642 1.227340 0.003168 0.000650 1630150.000000 1 0 0
-0.279780 18.044518 3.483636 18.379843 -1.555293 1.380107 0.005962 -0.008546 805521.000000 1 0 0
-7.783080 15.898918 -5.857964 18.645849 -1.115556 1.890378 0.040852 -0.012382 986716.000000 1 0 0
-12.368780 -9.024682 8.340236 17.435342 0.630339 1.072019 0.031274 -0.012961 -1163900.000000 1 0 0
-13.144280 -11.706382 6.958436 18.926999 0.727601 1.194320 0.034101 -0.011255 -86951.800000 1 0 0
-6.634080 -12.334282 12.276636 18.624213 1.077324 0.851074 0.034841 -0.021227 -438682.000000 1 0 0
-1.825980 -10.695682 14.385136 18.018434 1.401705 0.646235 0.000288 -0.015341 934075.000000 1 0 0
-8.797680 2.841318 11.007136 14.374606 -0.312388 0.698613 -0.007491 -0.003307 408674.000000 1 0 0
0.545920 9.980418 15.159336 18.157980 1.516152 0.582921 -0.000439 -0.011068 -703873.000000 1 0 0
0.960520 -6.769382 16.538636 17.896190 -1.429845 0.392010 0.001151 -0.013960 1866070.000000 1 0 0
6.089020 2.319918 17.802636 18.957638 0.364021 0.350868 0.020878 -0.003717 1820880.000000 1 0 0
-5.064080 -2.954382 17.605636 18.556177 0.528124 0.321461 0.022680 -0.015132 2021490.000000 1 0 0
-4.273080 8.159818 12.988236 15.922817 -1.088390 0.616859 -0.000209 -0.002558 32805.200000 1 0 0
0.060720 -4.964582 18.686036 19.334392 -1.558566 0.259703 0.009763 -0.016224 -1421810.000000 1 0 0
-11.565480 2.060018 11.117936 16.174440 -0.176269 0.812925 0.008276 -0.010518 79060.000000 1 0 0
-3.399180 -6.068882 14.302936 15.904708 1.060232 0.452654 0.011448 -0.011447 1294310.000000 1 0 0
-7.444180 -2.303482 14.609536 16.557789 0.300089 0.489993 0.012615 -0.003459 1184310.000000 1 0 0
-6.138380 -1.125382 10.538436 12.247646 0.181322 0.534652 -0.004240 -0.002369 1096550.000000 1 0 0
-4.037580 2.350318 11.173136 12.110533 -0.527162 0.396038 -0.003279 0.002518 861880.000000 1 0 0
-6.437980 6.252618 13.499336 16.210333 -0.770793 0.586720 -0.006770 -0.004372 1260700.000000 1 0 0
-9.007680 5.506418 12.489236 16.353591 -0.548689 0.701771 0.004214 -0.010406 -565940.000000 1 0 0
-12.210480 -2.216382 16.012336 20.258407 0.179560 0.659327 0.025195 0.004727 1705710.000000 1 0 0
-3.472380 -7.646682 16.842536 18.820207 1.144536 0.462550 0.025843 -0.016713 -724559.000000 1 0 0
-0.553580 -5.390382 14.362236 15.350456 1.468457 0.360777 0.000416 -0.003922 -7019.120000 1 0 0
-14.139280 -2.311282 13.750236 19.857750 0.162032 0.805935 0.022946 -0.003438 209836.000000 1 0 0
-6.538080 1.400118 12.197636 13.910037 -0.210962 0.501433 -0.002952 -0.001102 987857.000000 1 0 0
2.133020 -2.241882 14.526736 14.852672 -0.810276 0.209883 0.005998 0.001254 1825940.000000 1 0 0
-12.569680 4.019318 9.094136 16.026699 -0.309488 0.967407 0.006305 -0.012469 844097.000000 1 0 0
-9.129480 -3.023482 12.646536 15.887848 0.319809 0.650158 0.000857 0.001705 866554.000000 1 0 0
-7.103180 -7.323582 15.247436 18.345962 0.800674 0.589703 0.029058 -0.012328 -291717.000000 1 0 0
-3.375280 5.909518 19.347036 20.509088 -1.051853 0.338242 0.030043 -0.011937 -1130300.000000 1 0 0
0.588120 5.425518 16.201536 17.095961 1.462819 0.324902 0.006039 -0.007191 2745920.000000 1 0 0
3.469220 1.480918 16.724736 17.144836 0.403456 0.221828 0.008132 -0.002305 2257050.000000 1 0 0
-11.772780 11.346218 7.862736 18.142702 -0.766950 1.122553 0.019177 -0.016542 -525661.000000 1 0 0
0.600720 -9.448482 15.488236 18.152689 -1.507303 0.548668 -0.004498 -0.004179 -248298.000000 1 0 0
-2.451380 -3.630582 18.894736 19.395913 0.976907 0.227822 0.030179 -0.022449 956088.000000 1 0 0
-12.855580 2.262318 13.738636 18.950835 -0.174196 0.759817 0.017766 -0.015759 368111.000000 1 0 0
-5.399580 -0.631682 15.691736 16.606777 0.116458 0.333509 0.010629 -0.001145 -582975.000000 1 0 0
-4.545580 -5.954582 11.602036 13.810379 0.918790 0.573337 0.004670 -0.006271 304198.000000 1 0 0
2.405920 1.822518 13.975836 14.298042 0.648293 0.212698 0.012716 -0.002377 -658139.000000 1 0 0
0.010120 3.306818 14.245636 14.624407 1.567736 0.228090 0.012065 -0.002794 330413.000000 1 0 0
-12.984480 6.893018 12.063236 19.016626 -0.488034 0.883626 0.020814 -0.019680 -953362.000000 1 0 0
0.884920 1.449718 18.185736 18.264878 1.022759 0.093125 0.016347 -0.007267 1158920.000000 1 0 0
-1.992680 6.420018 12.422436 14.124600 -1.269839 0.496008 -0.001417 0.000530 2409710.000000 1 0 0
-13.497680 -2.597782 10.923636 17.557382 0.190136 0.899288 0.027117 -0.007962 121064.000000 1 0 0
-2.583380 3.621018 13.413836 14.132113 -0.951107 0.320195 0.000265 -0.000603 -1249420.000000 1 0 0
3.494720 5.983518 16.368536 17.774828 1.042182 0.400457 0.009960 -0.007285 67864.100000 1 0 0
-3.673680 12.382318 12.409836 17.911498 -1.282381 0.805374 0.006146 -0.009740 -260992.000000 1 0 0
3.707820 -1.486682 17.038836 17.500859 -0.381332 0.230291 0.013763 -0.002921 505167.000000 1 0 0
-15.737880 0.729618 9.132236 18.210188 -0.046327 1.045476 0.035775 -0.014544 871742.000000 1 0 0
-4.726780 4.596018 15.166636 16.537614 -0.771373 0.410054 0.009595 -0.007039 1028090.000000 1 0 0
-7.983680 -8.164682 10.552036 15.548204 0.796606 0.824852 0.013531 -0.014930 3226410.000000 1 0 0
-2.709780 -0.433982 14.678436 14.932773 0.158805 0.184828 0.007861 -0.001473 1235810.000000 1 0 0
-1.859580 0.944218 17.186536 17.312614 -0.469835 0.120758 0.006038 -0.006522 1576170.000000 1 0 0
-0.790580 -2.477182 14.282536 14.517310 1.261869 0.180088 0.007182 -0.002097 -16741.400000 1 0 0
4.949720 -8.354882 16.618136 19.247499 -1.035958 0.528842 0.009451 0.001156 485391.000000 1 0 0
-4.427180 9.994318 10.628936 15.246658 -1.153804 0.799407 0.002236 -0.006899 -1201940.000000 1 0 0
-6.232680 2.061918 15.195236 16.552734 -0.319490 0.407815 0.010726 -0.001981 -656223.000000 1 0 0
-4.948080 6.877918 17.205136 19.178268 -0.947158 0.457598 0.011370 -0.004288 -44697.100000 1 0 0
-4.043580 9.155718 15.667436 18.591564 -1.154912 0.568485 0.009115 -0.007797 -2409850.000000 1 0 0
-4.758780 -9.897682 18.257536 21.306049 1.122628 0.541536 0.057109 -0.027212 -319295.000000 1 0 0
-6.955980 -4.078082 11.054436 13.682725 0.530263 0.630196 -0.000342 -0.002478 577879.000000 1 0 0
-2.272480 -0.840482 19.626836 19.775825 0.354250 0.122828 0.018580 -0.010836 17359.700000 1 0 0
-5.695280 -4.605182 15.287436 16.951390 0.679961 0.446788 0.013134 -0.007059 1710010.000000 1 0 0
-12.831280 0.036818 9.636136 16.046751 -0.002869 0.926665 0.008290 -0.005291 2016210.000000 1 0 0
-14.554780 8.670718 10.294336 19.824135 -0.537274 1.024785 0.022154 -0.018410 -2255050.000000 1 0 0
-8.282680 10.560918 12.895936 18.612924 -0.905717 0.805364 0.015921 -0.015633 -383460.000000 1 0 0
-10.429680 7.242018 10.659736 16.578752 -0.606935 0.872419 0.013646 -0.009917 -25087.100000 1 0 0
-9.811480 -6.513382 14.888736 18.983249 0.586052 0.669215 0.030185 -0.012248 844891.000000 1 0 0
-0.710880 -13.371382 14.383336 19.651452 1.517682 0.749657 0.000366 -0.020471 56742.600000 1 0 0
3.772320 -5.680782 16.935436 18.256798 -0.984608 0.382797 0.014153 -0.005150 1440070.000000 1 0 0
-7.279380 9.430918 10.351436 15.782389 -0.913449 0.855442 0.009714 -0.010341 39193.900000 1 0 0
-10.267980 -6.764882 11.997336 17.179380 0.582560 0.797697 0.026769 -0.012182 2332620.000000 1 0 0
-11.018580 -4.001182 10.771836 15.920145 0.348324 0.827638 0.011773 -0.000349 -1321040.000000 1 0 0
-10.123580 -10.209082 9.866136 17.437112 0.789603 0.969378 0.037221 -0.021358 911466.000000 1 0 0
-9.820480 -3.619082 15.349836 18.578402 0.353081 0.598433 0.030222 -0.009475 391363.000000 1 0 0
5.598620 -3.347682 16.093836 17.365571 -0.538909 0.385084 0.018168 0.000544 439084.000000 1 0 0
-11.183080 0.474818 15.219636 18.892433 -0.042433 0.634119 0.017736 -0.011651 981573.000000 1 0 0
-3.291780 3.022718 18.742136 19.267597 -0.742814 0.234080 0.018041 -0.009920 -632670.000000 1 0 0
0.528120 7.275818 13.962636 15.753464 1.498338 0.481456 0.001406 -0.005166 1337530.000000 1 0 0
-13.023480 -7.593982 12.215236 19.403391 0.527900 0.889834 0.032116 -0.014685 20701.800000 1 0 0
-1.476080 -1.062982 12.071736 12.208012 0.624114 0.149557 0.005861 -0.001339 572759.000000 1 0 0
1.953520 -4.831882 13.038936 14.041979 -1.186590 0.380260 0.002108 -0.000575 1496830.000000 1 0 0
-14.741980 -3.883382 8.670536 17.538096 0.257572 1.053672 0.038089 -0.011095 -2208850.000000 1 0 0
8.218820 1.067718 16.188736 18.186924 0.129188 0.473165 0.025780 -0.002389 1458450.000000 1 0 0
-1.180380 11.412118 13.375836 17.622222 -1.467731 0.708971 -0.006658 -0.004812 1060750.000000 1 0 0
2.931420 -12.216782 -13.834964 18.688211 -1.335298 2.404319 0.004650 0.002860 -736949.000000 1 0 0
0.871220 -10.576882 -13.992964 17.562247 -1.488612 2.492717 -0.002416 -0.000446 -648791.000000 1 0 0
3.343720 -14.378882 -12.448864 19.310798 -1.342313 2.271372 0.006147 0.002299 616116.000000 1 0 0
-5.047880 -10.160482 -16.071064 19.672204 1.109700 2.526886 0.025506 -0.013658 -508509.000000 1 0 0
-1.033680 -11.957782 -15.089664 19.280949 1.484567 2.469661 0.016026 -0.002080 -168747.000000 1 0 0
5.767720 -15.063082 -12.059164 20.139178 -1.205114 2.212787 0.014341 -0.001957 264746.000000 1 0 0
1.816020 -11.885882 -16.151164 20.135348 -1.419181 2.501650 0.003676 0.000781 -683894.000000 1 0 0
1.251420 -14.204382 -13.981664 19.970415 -1.482922 2.346360 0.015941 0.005184 -152356.000000 1 0 0
-1.121480 -10.645782 -15.890064 19.159450 1.465838 2.548756 0.016969 -0.008705 -22688.500000 1 0 0
-5.911980 -5.850782 -14.851764 17.022281 0.780196 2.631071 0.013723 -0.008336 -263618.000000 1 0 0
-6.387880 -7.610482 -16.658664 19.396792 0.872516 2.603789 0.018914 -0.001978 823438.000000 1 0 0
5.119820 -12.643182 -11.279464 17.699970 -1.186032 2.261733 0.001786 0.001147 405712.000000 1 0 0
-1.560880 -15.368082 -13.291664 20.378484 1.469577 2.281332 0.021033 0.000647 -31796.600000 1 0 0
15.623420 -7.200482 -8.745064 19.298040 -0.431863 2.041101 0.028709 -0.013913 200345.000000 1 0 0
19.297020 -3.509582 -3.993164 20.015931 -0.179905 1.771643 0.041849 -0.017341 177321.000000 1 0 0
15.071120 -11.576882 -8.730364 20.913683 -0.655016 2.001431 0.056010 -0.021198 324583.000000 1 0 0
18.041720 -3.603282 -6.274264 19.438459 -0.197126 1.899457 0.060012 -0.009010 658218.000000 1 0 0
9.912920 -9.127482 -15.332564 20.412360 -0.744170 2.420585 0.061418 -0.015718 405029.000000 1 0 0
1.389820 1.910318 -15.343864 15.524661 0.941830 2.988829 0.013697 -0.004446 9149.860000 1 0 0
4.908220 -4.456582 -13.840464 15.346342 -0.737208 2.694884 0.007104 -0.002933 517736.000000 1 0 0
13.155520 -5.306782 -8.506464 16.540544 -0.383424 2.110964 0.030716 -0.013889 -842107.000000 1 0 0
2.978220 1.036918 -12.248564 12.648016 0.335041 2.889601 0.004148 -0.003257 -1153540.000000 1 0 0
0.656920 6.284618 -13.073364 14.520359 1.466646 2.691363 0.017590 0.001627 -2967.890000 1 0 0
3.122220 -1.100182 -16.776464 17.099954 -0.338786 2.946772 0.020210 -0.006902 -313388.000000 1 0 0
13.275720 4.267218 -11.480364 18.062465 0.311000 2.259572 0.007405 -0.000899 1070650.000000 1 0 0
-3.770680 9.497318 -16.515864 19.421402 -1.192857 2.587532 0.001388 0.002659 -663152.000000 1 0 0
-0.186280 -5.115382 -17.680264 18.406346 1.534397 2.859779 0.021286 -0.008526 636688.000000 1 0 0
-0.425480 -8.563582 -17.528464 19.513150 1.521152 2.686658 0.022487 -0.008309 -473528.000000 1 0 0
5.655120 -10.247682 -12.113564 16.844400 -1.066539 2.373367 0.006547 -0.000855 549424.000000 1 0 0
1.839220 -9.794782 -18.098564 20.661039 -1.385182 2.638251 0.033051 -0.008258 -459164.000000 1 0 0
10.835120 8.936618 -14.607164 20.264062 0.689671 2.375811 0.038711 -0.015626 -310705.000000 1 0 0
11.074120 -3.668382 -12.805864 17.322913 -0.319881 2.402744 0.031523 -0.010344 604503.000000 1 0 0
4.974320 7.356818 -12.237564 15.120338 0.976256 2.513832 0.000879 0.001175 -392823.000000 1 0 0
9.696720 -5.844982 -12.540664 16.895516 -0.542461 2.407215 0.026238 -0.007435 -699930.000000 1 0 0
-3.242480 0.331618 -15.777564 16.110716 -0.101919 2.937874 0.011201 -0.007217 -1283070.000000 1 0 0
-0.731080 10.579518 -12.806964 16.627658 -1.501803 2.449983 0.003165 -0.003510 -501632.000000 1 0 0
6.712120 -5.506582 -12.312664 15.065746 -0.687053 2.527440 0.014020 -0.005117 513235.000000 1 0 0
17.804020 -6.266082 -7.757064 20.406346 -0.338409 1.960733 0.033835 -0.019360 954744.000000 1 0 0
13.220120 4.787918 -14.013064 19.850987 0.347474 2.354507 0.024351 -0.006843 410868.000000 1 0 0
14.269420 0.940218 -11.495164 18.347729 0.065795 2.247873 0.021267 -0.001200 662191.000000 1 0 0
15.132820 6.062218 -11.210864 19.784747 0.381024 2.173221 0.027183 -0.006927 -227236.000000 1 0 0
8.342920 1.504018 -11.623864 14.386821 0.178359 2.511465 0.001760 0.002190 583830.000000 1 0 0
9.951320 1.301018 -8.866864 13.391889 0.130001 2.294423 0.008196 -0.002475 326693.000000 1 0 0
-0.066280 -5.798682 -12.949764 14.188922 1.559367 2.720560 0.002935 -0.004614 442935.000000 1 0 0
10.637520 -5.660882 -9.021764 15.053061 -0.489045 2.213461 0.023615 -0.015805 -942967.000000 1 0 0
10.005420 8.606118 -11.219464 17.321954 0.710355 2.275361 0.018223 -0.012592 512614.000000 1 0 0
8.285620 8.331918 -14.666364 18.792940 0.788184 2.466132 0.027007 -0.002537 682685.000000 1 0 0
8.550220 10.646218 -10.661064 17.323583 0.894154 2.233699 0.036030 -0.012527 -1602880.000000 1 0 0
7.059920 1.711918 -17.961664 19.375100 0.237892 2.757260 0.023994 0.005685 -667245.000000 1 0 0
12.193220 2.639718 -13.001364 18.018829 0.213200 2.376825 0.015766 -0.000324 -945051.000000 1 0 0
2.725820 -0.900082 -19.330664 19.542641 -0.318933 2.994171 0.034455 -0.014632 -489049.000000 1 0 0
10.299220 -2.027282 -15.171764 18.449017 -0.194354 2.536346 0.034650 -0.017689 874279.000000 1 0 0
8.312020 -0.900082 -12.994564 15.451813 -0.107866 2.569876 0.011007 -0.004453 633120.000000 1 0 0
0.473520 4.225118 -14.697464 15.300042 1.459189 2.860007 0.015694 -0.000955 417463.000000 1 0 0
4.168220 -7.611082 -15.669264 17.911685 -1.069758 2.635833 0.014448 -0.006383 -1543360.000000 1 0 0
11.752420 -5.673582 -14.213664 19.296040 -0.449760 2.398841 0.048530 -0.012379 -822795.000000 1 0 0
-5.973680 4.227418 -16.682264 18.216856 -0.615858 2.728191 0.011550 -0.005493 -267216.000000 1 0 0
11.434820 7.829218 -9.163764 16.614040 0.600371 2.155039 0.025743 -0.009627 -1198600.000000 1 0 0
9.623020 6.313218 -13.700864 17.893376 0.580619 2.442917 0.017638 0.008447 -614724.000000 1 0 0
12.096720 0.695218 -10.242564 15.865815 0.057408 2.272572 0.015401 -0.001350 -685759.000000 1 0 0
5.618220 -7.391282 -13.614364 16.478664 -0.920853 2.543092 0.011476 -0.002828 -773108.000000 1 0 0
8.664620 -10.125582 -10.698264 17.089643 -0.862993 2.247221 0.022498 -0.007480 492144.000000 1 0 0
10.201720 4.488118 -15.867164 19.390338 0.414454 2.529248 0.034167 -0.002315 -1086550.000000 1 0 0
9.927920 -0.455182 -10.941864 14.781583 -0.045817 2.404218 0.011841 -0.003148 -675656.000000 1 0 0
-1.750480 5.417918 -13.931864 15.050410 -1.258292 2.753626 0.009857 -0.002486 1164110.000000 1 0 0
1.384020 -0.703682 -14.898164 14.978851 -0.470372 3.037751 0.010299 -0.004993 -2321190.000000 1 0 0
11.731020 -10.340482 -13.834464 20.879052 -0.722480 2.295081 0.069174 -0.020202 -205647.000000 1 0 0
9.303720 -7.609482 -10.640064 16.052239 -0.685559 2.295401 0.027400 -0.010661 -159802.000000 1 0 0
13.997720 -0.888682 -9.565864 16.977387 -0.063403 2.169349 0.018570 -0.002475 596143.000000 1 0 0
3.979920 11.228618 -12.231764 17.074475 1.230168 2.369392 0.013789 -0.008489 -520715.000000 1 0 0
-1.516880 2.856718 -17.089764 17.393154 -1.082668 2.954542 0.008334 -0.002909 239110.000000 1 0 0
5.793420 -0.529682 -17.625564 18.560840 -0.091175 2.822786 0.006976 0.001009 -72438.400000 1 0 0
6.546020 -6.664882 -15.907964 18.448153 -0.794395 2.610603 0.030832 -0.003540 -431781.000000 1 0 0
-1.804180 -5.335582 -19.785264 20.571344 1.244725 2.864254 0.035008 -0.017173 96515.100000 1 0 0
0.134420 -4.348582 -15.214364 15.824194 -1.539895 2.863068 0.007234 -0.005565 -28251.600000 1 0 0
0.555720 0.783118 -12.978864 13.014339 0.953640 3.067741 0.006288 -0.005612 286823.000000 1 0 0
15.727420 0.687218 -13.593664 20.799320 0.043668 2.283079 0.032588 -0.012383 614963.000000 1 0 0
-0.374480 7.046918 -16.392364 17.846817 -1.517705 2.735075 0.018292 0.004464 -495447.000000 1 0 0
-5.155380 -0.477182 -18.173364 18.896476 0.092297 2.864055 0.017817 -0.007444 -49404.400000 1 0 0
10.553520 -8.300882 -12.949764 18.654164 -0.666486 2.338107 0.033041 -0.015717 1057060.000000 1 0 0
4.182320 8.782918 -17.221464 19.779036 1.126379 2.627405 0.027934 -0.012181 -282900.000000 1 0 0
9.185920 0.541918 -16.987964 19.320086 0.058926 2.645166 0.020824 0.001940 -121355.000000 1 0 0
3.280320 5.050818 -18.565564 19.517977 0.994799 2.827909 0.027864 -0.002243 -295660.000000 1 0 0
1.573720 -8.132582 -15.997864 18.015192 -1.379651 2.663819 0.006115 -0.005582 221506.000000 1 0 0
4.569320 7.792318 -14.855664 17.386479 1.040446 2.595264 0.010625 0.001631 546292.000000 1 0 0
-5.565680 -0.513382 -15.039764 16.044777 0.091980 2.785775 0.007178 -0.007483 -726927.000000 1 0 0
2.916620 3.395318 -13.902064 14.604871 0.861093 2.830105 0.010369 0.001869 549238.000000 1 0 0
-2.348480 -10.210082 -18.212664 21.011004 1.344713 2.619576 0.038837 -0.009218 68001.000000 1 0 0
6.338720 -9.097482 -15.277264 18.876927 -0.962251 2.513771 0.016231 -0.009777 261576.000000 1 0 0
-1.922580 5.439718 -17.591764 18.513698 -1.231066 2.824682 0.011793 0.007534 907579.000000 1 0 0
10.214020 -12.037182 -11.449064 19.501308 -0.867151 2.198258 0.053561 -0.017221 346712.000000 1 0 0
10.905020 3.656918 -9.424964 14.870187 0.323558 2.257273 0.007754 -0.000710 -1136950.000000 1 0 0
4.840420 -0.437382 -10.966364 11.995087 -0.090116 2.724420 0.004415 -0.005428 89323.300000 1 0 0
6.248120 9.459118 -11.344464 16.037792 0.987048 2.356550 0.017178 -0.013125 600294.000000 1 0 0
10.932820 -9.376182 -9.491764 17.249143 -0.708900 2.153489 0.033101 -0.012754 -869886.000000 1 0 0
3.196120 -2.508982 -14.499964 15.058524 -0.665533 2.868374 0.011439 -0.005384 -71356.500000 1 0 0
9.457620 -4.520882 -14.662364 18.024147 -0.445905 2.520915 0.042247 -0.010181 316796.000000 1 0 0
-3.967580 -6.547882 -16.453164 18.147260 1.026026 2.706064 0.007724 -0.005999 -1771440.000000 1 0 0
5.896820 -7.851282 -11.155364 14.861267 -0.926614 2.419817 0.005707 -0.002441 295789.000000 1 0 0
5.485920 6.558118 -16.801164 18.851614 0.874187 2.670851 0.014403 -0.001679 -1204890.000000 1 0 0
9.017820 1.157918 -19.418664 21.441697 0.127705 2.703706 0.032526 -0.006244 419679.000000 1 0 0
13.141920 5.828318 -9.471964 17.216198 0.417428 2.153373 0.002808 -0.001732 1261800.000000 1 0 0
-1.577480 -0.882182 -17.291864 17.386065 0.509906 3.037448 0.012777 -0.010230 618155.000000 1 0 0
-0.377780 -0.547582 -19.506564 19.517905 0.966877 3.107502 0.028420 -0.018829 -308652.000000 1 0 0
2.851320 6.660518 -16.594464 18.107147 1.166309 2.729936 0.020884 0.007141 142259.000000 1 0 0
7.716120 3.779618 -15.634264 17.839682 0.455482 2.639081 0.011805 0.003147 -414074.000000 1 0 0
3.139320 -9.902282 -14.993464 18.240463 -1.263790 2.535692 0.007002 0.000086 271388.000000 1 0 0
9.208520 -10.501182 -13.293964 19.282146 -0.850889 2.331518 0.040765 -0.008853 -279418.000000 1 0 0
3.842820 -0.028482 -14.786264 15.277490 -0.007412 2.887320 0.009233 -0.002679 -1794780.000000 1 0 0
-1.159180 -2.948282 -18.969364 19.232079 1.196191 2.976115 0.034812 -0.010459 412044.000000 1 0 0
9.222420 10.289518 -13.101564 19.041486 0.840033 2.329600 0.040067 -0.014170 81248.700000 1 0 0
4.760320 2.092718 -10.761164 11.951685 0.414186 2.691459 -0.003339 0.001284 350600.000000 1 0 0
-0.422080 7.127018 -18.982364 20.280599 -1.511643 2.781847 0.022610 0.002733 -32820.700000 1 0 0
0.787420 -1.903682 -17.598564 17.718733 -1.178595 3.025062 0.023477 -0.014920 -1976810.000000 1 0 0
-4.365780 -2.366682 -14.003464 14.857935 0.496756 2.800802 0.006342 -0.008597 -3098070.000000 1 0 0
10.034220 6.084118 -10.405364 15.683548 0.545066 2.296226 0.009124 0.004296 135074.000000 1 0 0
8.424120 5.591018 -17.368264 20.096813 0.585940 2.614414 0.037134 -0.005508 -326266.000000 1 0 0
11.481820 0.251818 -13.480564 17.709354 0.021928 2.435976 0.023208 -0.003772 505230.000000 1 0 0
6.717020 12.106118 -11.657064 18.098718 1.064241 2.270619 0.030487 -0.019137 -468326.000000 1 0 0
-0.788580 0.567618 -15.254664 15.285576 -0.623890 3.077985 0.010456 -0.008656 -643447.000000 1 0 0
-4.207880 -2.706582 -19.035164 19.681700 0.571592 2.884567 0.011232 -0.005724 161396.000000 1 0 0
5.778520 -12.206282 -13.839164 19.336677 -1.128650 2.368415 0.004913 -0.004582 -204038.000000 1 0 0
2.225720 -4.749882 -13.984064 14.935503 -1.132596 2.782730 0.006603 -0.003207 32391.900000 1 0 0
11.856420 1.805118 -15.511664 19.607266 0.151088 2.483431 0.039729 -0.003017 580753.000000 1 0 0
9.768120 2.119418 -13.782664 17.025567 0.213661 2.514143 0.015761 0.000156 633728.000000 1 0 0
-2.076880 -4.092482 -16.326064 16.958839 1.101177 2.867561 0.001992 -0.007386 -1686030.000000 1 0 0
-2.977680 10.012418 -14.192664 17.622338 -1.281728 2.507111 0.012286 -0.007258 52665.100000 1 0 0
3.596820 5.775218 -13.716864 15.311519 1.013779 2.681143 0.006336 0.004736 24197.900000 1 0 0
-4.985080 -2.549382 -16.496164 17.420500 0.472728 2.814373 0.003175 -0.004992 136216.000000 1 0 0
-4.337280 6.144618 -13.567864 15.513068 -0.956144 2.635425 0.004389 -0.000673 -2547020.000000 1 0 0
5.898220 -1.210682 -14.020764 15.258984 -0.202450 2.735960 0.011068 -0.003805 -1007650.000000 1 0 0
6.697920 -2.954182 -12.395064 14.395379 -0.415394 2.608117 0.010102 -0.006577 790715.000000 1 0 0
2.963320 -3.211482 -18.176864 18.694739 -0.825566 2.905667 0.025608 -0.017025 100943.000000 1 0 0
7.609220 -12.025582 -12.037964 18.639405 -1.006641 2.272912 0.019448 -0.005796 -411741.000000 1 0 0
-6.068280 -5.252782 -17.448164 19.205577 0.713489 2.710464 0.029203 -0.010146 645637.000000 1 0 0
0.552620 8.605418 -11.933664 14.723143 1.506667 2.515866 0.008448 0.000947 63197.600000 1 0 0
0.566920 8.614318 -14.521964 16.894239 1.505080 2.605245 0.013315 0.004868 66069.400000 1 0 0
7.714020 -2.634482 -14.848264 16.938641 -0.329099 2.639529 0.020205 -0.018144 -42083.300000 1 0 0
14.190120 1.610018 -8.886264 16.820147 0.112977 2.127406 0.004557 0.003573 274780.000000 1 0 0
2.812420 10.786618 -14.723164 18.467063 1.315742 2.493549 0.010510 -0.001151 243419.000000 1 0 0
6.155820 0.978618 -15.510164 16.715771 0.157655 2.759472 0.015892 -0.000338 263223.000000 1 0 0
16.963520 -5.412882 -10.019864 20.431789 -0.308877 2.083351 0.078677 -0.021515 819044.000000 1 0 0
4.816620 -4.277782 -11.175464 12.899234 -0.726218 2.618676 0.003588 -0.003015 -1633420.000000 1 0 0
9.063220 -3.401182 -16.994464 19.558165 -0.359010 2.623811 0.039200 -0.010322 421869.000000 1 0 0
13.402720 -9.493682 -8.817764 18.641778 -0.616301 2.063501 0.052219 -0.021340 340142.000000 1 0 0
2.381520 -7.807782 -13.626164 15.884126 -1.274742 2.601864 0.001715 0.000158 298890.000000 1 0 0
-6.786580 -2.474682 -18.450864 19.814543 0.349660 2.768427 0.008710 -0.000539 58465.100000 1 0 0
-1.431580 -6.509582 -15.640364 17.001326 1.354323 2.738748 0.008774 -0.005503 -188470.000000 1 0 0
1.632920 -7.231982 -18.515364 19.944591 -1.348729 2.760719 0.030010 -0.007002 -261732.000000 1 0 0
5.401420 10.799418 -14.382864 18.779498 1.107022 2.443207 0.026086 -0.025880 161809.000000 1 0 0
5.421020 -3.331182 -17.222664 18.360403 -0.551008 2.787706 0.020411 -0.011889 -866682.000000 1 0 0
4.132120 13.056818 -14.185164 19.717348 1.264297 2.373771 0.015046 -0.009335 228262.000000 1 0 0
9.135120 10.609918 -15.682164 21.022632 0.859952 2.412780 0.050544 -0.021088 170892.000000 1 0 0
2.468820 4.020718 -16.351964 17.019048 1.020128 2.860683 0.019626 0.001158 488544.000000 1 0 0
16.786420 1.822118 -11.479664 20.417804 0.108124 2.167886 0.037148 -0.002070 529795.000000 1 0 0
10.068720 -3.569282 -10.484064 14.967782 -0.340671 2.346813 0.022628 -0.008800 -496146.000000 1 0 0
14.829520 -2.028582 -11.855764 19.094213 -0.135950 2.240698 0.048919 -0.006936 583998.000000 1 0 0
-2.639580 -8.695682 -16.095564 18.483762 1.276085 2.627613 0.014538 -0.002179 -646672.000000 1 0 0
14.054520 8.213318 -8.954064 18.578574 0.528862 2.073683 0.044163 -0.006524 475377.000000 1 0 0
-8.206580 0.021018 -16.546964 18.470258 -0.002561 2.681184 0.008449 -0.004301 -297047.000000 1 0 0
-3.511780 3.988118 -15.908764 16.772789 -0.848826 2.819220 0.004003 -0.002518 -69957.100000 1 0 0
15.124220 4.031018 -9.571964 18.347034 0.260472 2.119659 0.006045 0.003374 370947.000000 1 0 0
5.479520 1.068518 -13.013864 14.160774 0.192585 2.736353 0.002703 0.000449 401813.000000 1 0 0
8.003420 -7.741882 -12.795764 16.962401 -0.768789 2.425476 0.029280 -0.006774 -1930210.000000 1 0 0
3.293420 -6.177782 -11.856464 13.769072 -1.081015 2.608214 0.003086 -0.002246 -1036150.000000 1 0 0
-3.484980 3.603518 -18.533564 19.199568 -0.802119 2.877430 0.014593 -0.003840 -506212.000000 1 0 0
0.833220 5.270118 -17.818764 18.600450 1.413991 2.850653 0.027434 -0.006389 608529.000000 1 0 0
6.469020 7.138718 -10.198664 14.029336 0.834573 2.384670 -0.000645 0.001314 -37036.200000 1 0 0
9.782220 3.736118 -11.747064 15.736706 0.364832 2.413546 0.013078 0.003418 -188383.000000 1 0 0
4.493420 1.774918 -17.353164 18.013147 0.376192 2.870060 0.019138 -0.004226 692851.000000 1 0 0
2.623520 8.029918 -13.149564 15.629251 1.255011 2.570560 0.006759 -0.001456 -1452330.000000 1 0 0
14.501520 -3.399882 -9.672564 17.759836 -0.230291 2.146746 0.038406 -0.009846 497466.000000 1 0 0
-1.305980 9.352518 -16.091164 18.657458 -1.432054 2.610891 0.012367 0.000229 -2547300.000000 1 0 0
-5.207180 1.939018 -15.711564 16.665166 -0.356466 2.801665 0.006388 -0.006013 445327.000000 1 0 0
4.444820 4.344818 -11.934764 13.456317 0.774021 2.661445 0.003774 0.002792 712194.000000 1 0 0
9.267320 3.141918 -17.732864 20.253625 0.326871 2.637349 0.022467 0.004599 906461.000000 1 0 0
-4.181980 14.204018 -13.451764 20.004825 -1.284464 2.308278 0.021845 -0.012202 -347927.000000 1 0 0
15.559720 -4.733482 -7.789564 18.032971 -0.295318 2.017464 0.039138 -0.015619 1341680.000000 1 0 0
1.088920 9.038018 -17.165664 19.430171 1.450892 2.653980 0.015214 0.003144 -339836.000000 1 0 0
0.536420 -3.220882 -12.781564 13.192051 -1.405767 2.891477 0.003502 -0.003730 87924.500000 1 0 0
7.689820 3.684018 -13.063564 15.600065 0.446770 2.563313 0.005423 0.006225 -426671.000000 1 0 0
-2.905080 7.470418 -15.046664 17.048423 -1.199915 2.652126 0.005800 -0.001701 -52858.500000 1 0 0
12.225020 -5.022782 -10.918064 17.143033 -0.389834 2.261242 0.037499 -0.013367 -542068.000000 1 0 0
0.650420 -4.534682 -20.105664 20.620963 -1.428336 2.917567 0.042656 -0.011418 -929073.000000 1 0 0
3.553220 -4.596382 -16.062364 17.080739 -0.912707 2.794539 0.018688 -0.011775 399628.000000 1 0 0
-5.655680 4.087318 -14.240464 15.858238 -0.625794 2.685966 0.004141 -0.001189 593482.000000 1 0 0
12.377220 -7.287282 -9.782464 17.378051 -0.532118 2.168712 0.030382 -0.012700 411335.000000 1 0 0
-1.966980 -1.793982 -14.913964 15.149710 0.739432 2.964948 0.007391 -0.004659 389791.000000 1 0 0
7.086620 5.962618 -14.382064 17.106045 0.699475 2.569480 0.009817 0.008054 118115.000000 1 0 0
4.349620 -5.482582 -18.341764 19.631562 -0.900122 2.777086 0.031844 -0.012861 182992.000000 1 0 0
7.636120 7.462818 -12.386564 16.353316 0.773921 2.430171 0.008482 -0.003249 -1223610.000000 1 0 0
12.376620 -2.396882 -10.901964 16.666691 -0.191294 2.283811 0.026848 -0.009365 -341827.000000 1 0 0
7.471720 -0.715382 -10.567164 12.961610 -0.095454 2.523985 0.005810 -0.002857 -1575190.000000 1 0 0
5.466220 3.991618 -14.373664 15.887567 0.630730 2.701498 0.000839 0.005422 -26841.200000 1 0 0
14.833420 2.935118 -13.045064 19.970452 0.195349 2.282623 0.025263 -0.009084 -293023.000000 1 0 0
-6.720080 6.540218 -15.861464 18.426068 -0.771835 2.607668 0.009746 0.000880 534831.000000 1 0 0
-11.354580 3.757718 -16.299064 20.216489 -0.319598 2.508542 0.063895 -0.021742 658768.000000 1 0 0
-5.110380 6.415218 -17.891164 19.681584 -0.898130 2.711748 0.000812 0.005359 102715.000000 1 0 0
-10.046380 1.495118 -15.528464 18.555278 -0.147737 2.562347 0.039403 -0.013004 -95943.600000 1 0 0
-7.672680 5.775618 -18.023064 20.422013 -0.645259 2.652014 0.008690 -0.001187 -907224.000000 1 0 0
-8.804080 3.770518 -15.744164 18.428438 -0.404637 2.595077 0.010890 0.008646 -1594480.000000 1 0 0
8.812520 13.579018 -11.716664 19.983255 0.995138 2.197310 0.070724 -0.033903 -2416840.000000 1 0 0
14.048020 9.487718 -11.200464 20.317826 0.594009 2.154674 0.051900 -0.013801 380185.000000 1 0 0
8.267620 15.769718 -9.157764 20.022542 1.087920 2.045835 0.053503 -0.022846 -84628.400000 1 0 0
7.609920 13.119818 -13.852764 20.541168 1.045188 2.310935 0.050118 -0.028056 208956.000000 1 0 0
4.164520 15.888818 -12.413264 20.588514 1.314459 2.217955 0.041900 -0.019815 225910.000000 1 0 0
11.047820 10.936518 -11.376664 19.263703 0.780335 2.202568 0.060484 -0.022944 -228151.000000 1 0 0
15.738720 10.141818 -9.266764 20.891068 0.572419 2.030380 0.064656 -0.012749 -202100.000000 1 0 0
13.303020 10.733018 -9.046064 19.339061 0.678880 2.057553 0.078568 -0.020564 -357342.000000 1 0 0
10.690520 11.973018 -8.125864 17.990832 0.841926 2.039429 0.052481 -0.009576 212166.000000 1 0 0
5.352520 16.193118 -10.128764 19.835786 1.251559 2.106715 0.027580 -0.018269 -336300.000000 1 0 0
6.429220 14.686418 -12.014164 20.034118 1.158162 2.213904 0.032663 0.003202 -201284.000000 1 0 0
10.769320 14.004718 -9.776864 20.191519 0.915260 2.076252 0.079100 -0.020729 -540152.000000 1 0 0
8.373020 -18.707382 -1.230564 20.532606 -1.149958 1.630764 0.055433 0.004280 -46052.200000 1 0 0
7.256820 -17.559582 -3.268064 19.279020 -1.178904 1.741133 0.040494 -0.004878 -26781.300000 1 0 0
4.655620 -17.988282 5.470436 19.369532 -1.317539 1.284475 0.044712 -0.016982 205636.000000 1 0 0
9.757520 -17.123082 -2.795364 19.905356 -1.052844 1.711695 0.048764 -0.007855 -335856.000000 1 0 0
-9.702680 -12.140582 -10.121764 18.546855 0.896547 2.148069 0.037673 -0.015934 -394661.000000 1 0 0
-5.031180 -6.860782 -12.086264 14.780422 0.938053 2.528237 0.006679 -0.012086 754297.000000 1 0 0
-10.798780 -9.459882 -5.761564 15.469280 0.719404 1.952446 0.017431 -0.010635 32559.700000 1 0 0
-4.444680 -11.333582 -13.963264 18.525064 1.197059 2.424546 0.024333 -0.009152 -163365.000000 1 0 0
-3.002480 -15.418482 7.467236 17.392645 1.378471 1.127042 0.011621 -0.007734 225234.000000 1 0 0
-4.694380 -12.037482 -11.538664 17.322787 1.198957 2.299761 0.017662 -0.004971 555972.000000 1 0 0
-14.474180 -12.933382 -4.152064 19.849783 0.729239 1.781527 0.045565 -0.007317 499889.000000 1 0 0
-3.327380 -12.198482 -3.201264 13.043102 1.304505 1.818767 0.000121 -0.001498 1049750.000000 1 0 0
-2.478380 -17.454782 -1.512664 17.694630 1.429751 1.656388 -0.004170 -0.002914 -463856.000000 1 0 0
-5.782680 -12.124582 3.731536 13.941637 1.125768 1.299839 0.004228 -0.005275 -132060.000000 1 0 0
-8.735280 -10.659182 -11.965264 18.250776 0.884273 2.285777 0.025714 -0.011034 -3339.090000 1 0 0
-9.759780 -11.978982 -7.484564 17.168809 0.887131 2.021878 0.034083 -0.014814 402274.000000 1 0 0
-11.006480 -15.042982 6.279636 19.668954 0.939131 1.245841 0.046488 -0.015355 -651410.000000 1 0 0
-9.370580 -15.819382 0.589436 18.395870 1.036022 1.538749 0.022809 -0.000496 -975571.000000 1 0 0
-14.823280 -7.562382 -8.142764 18.526302 0.471750 2.025866 0.027681 -0.019551 -207875.000000 1 0 0
-2.369080 -16.479682 5.127836 17.420883 1.428017 1.272021 0.017010 -0.011497 558322.000000 1 0 0
4.536320 -15.605982 6.090136 17.355536 -1.287913 1.212259 0.029177 -0.012595 -565344.000000 1 0 0
4.133620 -14.747382 -10.039564 18.312972 -1.297514 2.151032 -0.003898 0.000645 427569.000000 1 0 0
-7.618180 -14.019382 -0.347264 15.959334 1.073032 1.592557 0.003912 0.000807 768713.000000 1 0 0
3.039720 -14.830982 9.569136 17.909949 -1.368639 1.007127 0.022668 -0.012432 -1078100.000000 1 0 0
2.334920 -17.205482 10.281636 20.179011 -1.435912 1.036168 0.042038 -0.017909 -494807.000000 1 0 0
-8.162880 -17.013182 -5.827264 19.749379 1.123441 1.870315 0.034638 -0.011489 -398745.000000 1 0 0
-6.361280 -9.028582 -7.842164 13.545505 0.957009 2.188236 0.013058 -0.009364 273159.000000 1 0 0
-6.156280 -12.848182 -4.830164 15.043472 1.123963 1.897666 -0.000523 -0.007000 538590.000000 1 0 0
2.090520 -19.376082 -4.916064 20.099018 -1.463320 1.817895 0.021896 -0.011098 116950.000000 1 0 0
-5.466280 -12.766982 8.335836 16.197599 1.166254 1.030216 0.014180 -0.015740 962445.000000 1 0 0
2.077120 -17.417882 3.474536 17.882098 -1.452105 1.375250 0.025152 -0.014846 645649.000000 1 0 0
-17.863480 -10.110682 -2.616464 20.692407 0.515042 1.697581 0.047262 -0.010473 991757.000000 1 0 0
-3.344580 -15.410482 2.547836 15.973748 1.357078 1.410611 0.000952 -0.003586 -378044.000000 1 0 0
-10.070380 -10.333582 -14.244664 20.275747 0.798297 2.349767 0.040657 -0.015247 -103768.000000 1 0 0
6.101220 -14.544182 -5.584364 16.731504 -1.173597 1.911089 0.010408 -0.009276 607223.000000 1 0 0
-7.169680 -12.338882 -10.695264 17.833704 1.044417 2.213950 0.023289 -0.013183 -440145.000000 1 0 0
-7.131780 -14.276282 3.944536 16.438792 1.107505 1.328479 0.003412 -0.001023 1179460.000000 1 0 0
3.242920 -15.023682 -3.115064 15.682193 -1.358204 1.770763 0.012234 -0.003970 -32740.600000 1 0 0
-7.568280 -11.351082 7.735836 15.683401 0.982739 1.054975 0.012834 -0.019179 -1477340.000000 1 0 0
-12.703980 -12.317682 -1.076864 17.727832 0.769961 1.631578 0.026477 0.001167 -367385.000000 1 0 0
-1.940880 -13.600782 3.996436 14.308032 1.429050 1.287717 0.006244 -0.002668 -2318060.000000 1 0 0
-3.104280 -13.890582 5.278536 15.180506 1.350928 1.215660 0.005482 -0.004112 -73956.700000 1 0 0
-14.501280 -10.399182 -4.451864 18.391552 0.622125 1.815285 0.026766 -0.005950 587140.000000 1 0 0
-6.216980 -8.652182 -10.556464 14.998334 0.947732 2.351589 0.015323 -0.012831 171247.000000 1 0 0
0.802320 -19.522582 2.415836 19.687844 -1.529722 1.447779 0.036376 -0.014259 -24433.900000 1 0 0
6.362720 -14.082082 -8.130764 17.461345 -1.146421 2.055158 0.016663 -0.009656 -1667610.000000 1 0 0
-3.883380 -16.561282 -5.990364 18.034444 1.340472 1.909392 -0.000702 -0.009236 -318635.000000 1 0 0
-3.418680 -13.530982 -13.276164 19.262175 1.323320 2.331229 0.034121 -0.003717 -1028470.000000 1 0 0
-8.190880 -14.595882 -4.524464 17.337851 1.059412 1.834812 0.014801 -0.012219 -2104350.000000 1 0 0
-4.564180 -14.419082 10.082436 18.176831 1.264237 0.982811 0.026477 -0.012119 -173671.000000 1 0 0
-0.217880 -12.010082 -9.984164 15.619638 1.552657 2.264262 0.003567 0.000113 987403.000000 1 0 0
2.462520 -17.132282 6.723936 18.568533 -1.428038 1.200261 0.028531 -0.017822 -2091750.000000 1 0 0
-3.039280 -19.087882 -3.539564 19.649758 1.412896 1.751918 0.000010 -0.009223 -843822.000000 1 0 0
0.616720 -15.404882 -3.098764 15.725555 -1.530784 1.769147 0.006442 -0.002054 -223296.000000 1 0 0
5.910220 -17.866482 0.568536 18.827244 -1.251328 1.540594 0.035200 -0.007839 -104546.000000 1 0 0
-7.145280 -16.675382 3.831036 18.541851 1.165971 1.362682 0.011958 0.001297 958954.000000 1 0 0
-5.155680 -13.488782 -9.525364 17.299157 1.205711 2.153910 0.013489 -0.006849 136789.000000 1 0 0
5.691620 -15.237782 -2.177464 16.411151 -1.213324 1.703871 0.024589 -0.002399 -1528520.000000 1 0 0
-8.890380 -10.311082 -0.550964 13.625741 0.859253 1.611243 0.007327 -0.000732 368085.000000 1 0 0
-7.247380 -18.146982 -3.179364 19.797622 1.190832 1.732088 0.017132 -0.017759 552497.000000 1 0 0
7.935020 -16.083482 -1.140564 17.970638 -1.112471 1.634307 0.028678 -0.001365 71369.800000 1 0 0
-8.025380 -10.207582 -9.467364 16.069612 0.904516 2.200799 0.023999 -0.015408 -590087.000000 1 0 0
-9.175880 -14.941482 -6.918764 18.849773 1.020058 1.946629 0.041507 -0.018183 -302633.000000 1 0 0
-11.360480 -10.518582 -11.921264 19.540154 0.746938 2.226971 0.048284 -0.009139 356553.000000 1 0 0
6.698520 -16.273382 2.469136 17.770475 -1.180309 1.431399 0.030531 -0.004125 626935.000000 1 0 0
-2.209580 -11.219382 -6.019664 12.922582 1.376342 2.055363 0.000090 -0.002369 -607018.000000 1 0 0
-12.317880 -15.227182 -3.347964 19.869728 0.890628 1.740100 0.041026 -0.010475 -336407.000000 1 0 0
-0.511380 -19.718182 -3.066664 19.961780 1.544868 1.725034 0.021717 -0.008919 490750.000000 1 0 0
-5.806380 -15.462782 -4.718864 17.177874 1.211581 1.849080 -0.001056 -0.010361 -2218960.000000 1 0 0
1.956320 -15.923782 -1.015764 16.075628 -1.448554 1.634025 0.021425 -0.007929 584589.000000 1 0 0
-13.177180 -11.876182 5.344836 18.526981 0.733516 1.278148 0.028555 -0.009267 651620.000000 1 0 0
2.010420 -15.344982 -8.828064 17.816986 -1.440523 2.089190 0.002445 0.003824 -1807450.000000 1 0 0
-11.805680 -16.641782 -0.130764 20.404413 0.953789 1.577205 0.057671 -0.021148 158438.000000 1 0 0
-7.461580 -16.590682 -1.010164 18.219394 1.148154 1.626269 0.022284 -0.007423 335262.000000 1 0 0
-2.949180 -14.363782 -1.751964 14.767711 1.368290 1.689711 -0.003848 -0.003532 329702.000000 1 0 0
-1.698680 -10.500782 -13.100864 16.875562 1.410419 2.459605 0.004847 -0.003370 -183368.000000 1 0 0
1.301720 -19.443982 4.919936 20.098972 -1.503949 1.323498 0.046449 -0.028086 -278656.000000 1 0 0
-17.444880 -9.599882 2.476736 20.065288 0.503072 1.447047 0.044586 -0.008317 284252.000000 1 0 0
-2.709380 -15.668582 -8.181964 17.882666 1.399572 2.046019 0.000998 0.000272 -978851.000000 1 0 0
-10.467380 -12.184282 0.228436 16.064711 0.861049 1.556576 0.013711 0.001151 331593.000000 1 0 0
-6.822980 -11.298982 -6.664464 14.786316 1.027545 2.038366 0.011252 -0.009357 -517030.000000 1 0 0
-2.320280 -13.547882 -6.775964 15.324572 1.401177 2.028806 -0.005119 0.000875 634779.000000 1 0 0
-13.972780 -14.584682 -0.849764 20.215678 0.806822 1.612844 0.033125 -0.003273 -686578.000000 1 0 0
-9.502880 -11.223582 -4.458264 15.367161 0.868228 1.865145 0.016859 -0.010007 1534810.000000 1 0 0
9.440520 -15.069382 -5.239964 18.538256 -1.011140 1.857359 0.036488 -0.011953 51579.300000 1 0 0
-5.518880 -10.872682 -9.362964 15.373300 1.101094 2.225647 0.017457 -0.010287 -315471.000000 1 0 0
-10.315480 -16.003782 -4.917464 19.664985 0.998251 1.823541 0.048086 -0.011015 -2276290.000000 1 0 0
2.121020 -17.386982 -3.157964 17.798275 -1.449407 1.749172 0.019873 -0.007162 413681.000000 1 0 0
-0.389880 -14.386682 -8.312464 16.620039 1.543703 2.094565 -0.000779 0.000201 -496409.000000 1 0 0
-0.465280 -18.241882 -7.226964 19.626812 1.545296 1.947889 0.015835 -0.005208 187307.000000 1 0 0
-1.610480 -9.792682 -10.537764 14.475315 1.407798 2.386170 -0.001238 -0.002417 347085.000000 1 0 0
-5.018080 -17.275782 2.167036 18.119873 1.288106 1.450915 0.002949 -0.001362 538891.000000 1 0 0
0.243520 -12.848182 -2.623564 13.115570 -1.551845 1.772189 0.002925 -0.001579 -2604580.000000 1 0 0
2.512520 -14.867082 2.914636 15.357018 -1.403379 1.379846 0.020407 -0.009086 -1358860.000000 1 0 0
-9.428880 -13.067182 6.871536 17.517792 0.945740 1.167709 0.025629 -0.012994 -441178.000000 1 0 0
-1.167580 -17.742382 -4.732064 18.399668 1.505084 1.830901 0.009799 -0.011461 107123.000000 1 0 0
-9.559680 -17.308182 -2.327064 19.909191 1.066173 1.687948 0.043443 -0.023932 -938665.000000 1 0 0
1.269520 -16.301982 1.431536 16.413884 -1.493078 1.483470 0.020954 -0.010129 -131525.000000 1 0 0
-0.547880 -17.948282 4.003136 18.397448 1.540280 1.351450 0.029260 -0.019041 92073.800000 1 0 0
-17.450180 -9.449282 -0.125064 19.844731 0.496294 1.577099 0.020401 -0.003263 1174240.000000 1 0 0
-14.652780 -7.348782 -10.746464 19.600894 0.464869 2.151083 0.048614 -0.023098 39585.200000 1 0 0
2.884620 -12.784382 -8.768464 15.768558 -1.348876 2.160449 -0.006114 0.000321 574118.000000 1 0 0
-11.474980 -14.784182 1.683336 18.790445 0.910758 1.481091 0.028880 -0.006347 -331998.000000 1 0 0
-2.155880 -15.498682 10.669736 18.939383 1.432582 0.972347 0.014465 -0.011136 1067190.000000 1 0 0
-6.904480 -15.807582 1.339936 17.301645 1.158988 1.493273 0.015349 -0.004695 -994610.000000 1 0 0
-12.460980 -14.881282 -5.880264 20.280682 0.873687 1.864965 0.046687 -0.012213 249030.000000 1 0 0
0.957820 -13.787382 -5.033164 14.708571 -1.501437 1.920046 0.005423 -0.003129 497272.000000 1 0 0
6.076220 -16.397282 -7.386064 18.982762 -1.215922 1.970443 0.032749 -0.020657 272892.000000 1 0 0
-6.563980 -12.801782 5.925736 15.559107 1.097009 1.180077 0.012162 -0.008620 338698.000000 1 0 0
-2.548380 -13.554882 0.640536 13.807221 1.384961 1.524388 0.005144 -0.004533 2247150.000000 1 0 0
-4.219480 -15.531482 0.179836 16.095443 1.305526 1.559623 -0.005187 -0.002496 175073.000000 1 0 0
-17.748480 -7.706582 -2.051164 19.457832 0.409646 1.676408 0.013528 -0.003024 585643.000000 1 0 0
1.439820 -12.610582 -11.885664 17.388757 -1.457113 2.323378 0.006429 0.001689 65022.800000 1 0 0
1.253120 -17.076482 -5.720264 18.052644 -1.497545 1.893219 0.020722 -0.006801 -1536540.000000 1 0 0
-12.793280 -6.381682 -9.196564 16.999137 0.462712 2.142424 0.032813 -0.015356 1284260.000000 1 0 0
-11.364280 -13.653282 -8.897464 19.867658 0.876640 2.035141 0.040253 -0.012805 234239.000000 1 0 0
-4.312380 -9.792882 3.580736 11.283564 1.155989 1.247872 0.009822 -0.006533 -3420430.000000 1 0 0
-7.151680 -14.129482 9.502436 18.468489 1.102238 1.030347 0.032331 -0.021393 -2168600.000000 1 0 0
-5.274280 -15.807882 -8.068964 18.515273 1.248762 2.021724 0.006694 -0.011237 -1287100.000000 1 0 0
-0.185980 -13.419582 2.124536 13.587988 1.556938 1.413798 0.009639 -0.008296 601462.000000 1 0 0
-10.853380 -13.429282 -4.595564 17.867867 0.891083 1.830917 0.045367 -0.011868 -1349220.000000 1 0 0
-9.717080 -10.482782 6.663336 15.770555 0.823286 1.134575 0.024892 -0.011637 -335725.000000 1 0 0
-15.550280 -8.132682 -4.765664 18.184149 0.481872 1.835971 0.029417 -0.008936 -397973.000000 1 0 0
-14.555180 -7.246482 5.395336 17.131095 0.461936 1.250399 0.030490 -0.005025 444162.000000 1 0 0
-1.610580 -19.414482 0.029336 19.481195 1.488028 1.569290 0.017490 -0.005862 -337445.000000 1 0 0
-15.262280 -12.482982 -1.314464 19.760816 0.685559 1.637364 0.027750 0.005845 18533.900000 1 0 0
-4.432380 -12.007582 -6.737764 14.464629 1.217180 2.055346 0.001383 -0.004643 -1015650.000000 1 0 0
-7.333680 -18.321082 1.823336 19.818412 1.190043 1.478664 0.025748 -0.001858 16452.300000 1 0 0
-2.551880 -11.597982 -8.632164 14.681265 1.354219 2.199345 0.001464 -0.000987 855929.000000 1 0 0
-1.685880 -20.254482 -5.356464 21.018514 1.487753 1.828484 0.018249 -0.012198 88984.900000 1 0 0
-5.381780 -8.864682 -13.730964 17.207136 1.025170 2.494734 0.022975 -0.007738 1018470.000000 1 0 0
-8.232180 -19.077082 -0.935364 20.798528 1.163415 1.615784 0.033956 -0.007248 58931.000000 1 0 0
-17.177980 -7.152282 5.802236 19.491128 0.394533 1.268528 0.060262 -0.010915 538014.000000 1 0 0
-3.524980 -14.570782 -4.308864 15.598060 1.333436 1.850680 -0.007392 -0.002404 -1816230.000000 1 0 0
-2.829180 -14.832982 -10.966264 18.662277 1.382324 2.198906 0.014949 -0.003481 -86705.900000 1 0 0
0.003720 -16.661282 6.239336 17.791224 -1.570573 1.212481 0.036906 -0.017246 -1646810.000000 1 0 0
-11.090480 -11.453682 3.891036 16.411147 0.801507 1.331420 0.018753 -0.005664 -763617.000000 1 0 0
-0.184080 -14.668282 -0.069264 14.669601 1.558247 1.575518 0.002573 -0.001785 276475.000000 1 0 0
-7.221480 -9.529182 -2.411364 12.197121 0.922304 1.769807 0.010764 -0.002390 644367.000000 1 0 0
-10.952080 -14.348582 -0.919064 18.074140 0.918846 1.621668 0.024155 -0.011397 -270804.000000 1 0 0
0.533820 -14.460682 -10.698064 17.995690 -1.533898 2.207414 0.001158 -0.001136 -87224.900000 1 0 0
-1.409580 -13.917882 -3.914964 14.526572 1.469862 1.843674 -0.003450 -0.002773 -2956410.000000 1 0 0
-11.439980 -8.146582 -7.682464 16.008129 0.618811 2.071349 0.020902 -0.011395 599430.000000 1 0 0
-0.177480 -17.298682 -0.282764 17.301903 1.560537 1.587140 0.011193 -0.009205 539897.000000 1 0 0
-12.918680 -9.428282 4.624136 16.648346 0.630459 1.289342 0.025105 -0.002160 -932585.000000 1 0 0
3.998320 -16.675182 1.633136 17.225429 -1.335462 1.475844 0.031773 -0.013490 2377070.000000 1 0 0
-3.833780 -18.021382 -8.018164 20.093756 1.361186 1.981263 0.019709 -0.008111 91845.000000 1 0 0
-13.365080 -11.301982 2.792536 17.724514 0.701955 1.412585 0.017783 -0.001503 129946.000000 1 0 0
-8.537480 -12.153982 4.136236 15.418051 0.958433 1.299197 0.012605 -0.006064 1329410.000000 1 0 0
-8.179080 -9.345882 -5.884364 13.742947 0.851879 2.013267 0.017723 -0.009096 749765.000000 1 0 0
3.736220 -17.538982 -5.221364 18.677202 -1.360910 1.854130 0.014271 -0.001235 -397789.000000 1 0 0
-2.732780 -12.988482 11.378836 17.482753 1.363421 0.862079 0.012634 -0.011586 788425.000000 1 0 0
-0.091280 -16.601382 -9.695764 19.225557 1.565298 2.099386 0.003115 -0.002649 -250121.000000 1 0 0
-6.968680 -10.727182 -14.535664 19.362863 0.994683 2.419914 0.032626 -0.004973 -1865650.000000 1 0 0
-4.655880 -18.818582 -1.645164 19.455663 1.328258 1.655457 0.021660 -0.015087 -1003460.000000 1 0 0
-2.546080 -17.351982 1.103936 17.572492 1.425105 1.507933 0.009756 -0.007977 8816.980000 1 0 0
4.028720 -14.788782 -7.328764 16.989686 -1.304833 2.016802 0.004135 -0.003423 -352644.000000 1 0 0
-0.946580 -15.776582 -6.261164 16.999963 1.510869 1.947981 0.000661 -0.003493 -24799.100000 1 0 0
-9.564680 -15.039582 8.456336 19.727690 1.004349 1.127795 0.037703 -0.018023 -917380.000000 1 0 0
-7.103380 -11.972082 -1.724564 14.027219 1.035297 1.694052 0.002636 -0.002625 884258.000000 1 0 0
-7.207080 -15.042782 -9.406564 19.149693 1.124004 2.084277 0.027175 -0.009964 -154554.000000 1 0 0
-5.030480 -13.230482 -0.499964 14.163380 1.207458 1.606103 -0.000639 -0.001560 2070630.000000 1 0 0
-6.449280 -13.685082 -7.303564 16.799307 1.130401 2.020561 0.008827 -0.010472 140628.000000 1 0 0
5.800820 -15.282082 0.279936 16.348392 -1.208014 1.553672 0.022734 -0.002781 -278643.000000 1 0 0
-14.237880 -12.845482 1.049936 19.204843 0.734032 1.516099 0.011702 -0.004530 919840.000000 1 0 0
0.906320 -15.199082 11.045136 18.810331 -1.511237 0.943220 0.017644 -0.013592 245993.000000 1 0 0
-9.282680 -10.701782 1.972636 14.303411 0.856289 1.432442 0.007190 0.001473 399978.000000 1 0 0
-9.420580 -8.772682 -3.620664 13.372228 0.749801 1.844979 0.013198 -0.004327 18009.400000 1 0 0
-12.261380 -7.287782 -12.167764 18.748538 0.536269 2.277063 0.056593 -0.022375 -1062680.000000 1 0 0
-13.292880 -8.462482 -0.604364 15.769576 0.566910 1.609130 0.012823 0.000307 -274450.000000 1 0 0
-11.307380 -9.731382 0.508036 14.926980 0.710629 1.536755 0.010467 0.002993 322950.000000 1 0 0
-15.737580 -12.295282 3.044436 20.201831 0.663215 1.419519 0.048201 0.001711 -29127.600000 1 0 0
-10.336380 -12.330482 -2.307264 16.254384 0.873147 1.713225 0.028244 -0.008419 585357.000000 1 0 0
-3.399180 -8.899182 -12.002364 15.323401 1.205933 2.470705 0.005859 -0.004384 -809533.000000 1 0 0
-0.357580 -15.484882 3.791236 15.946250 1.547708 1.330747 0.020455 -0.011518 -900951.000000 1 0 0
-15.841280 -7.785682 1.239736 17.694630 0.456809 1.500676 0.011977 0.001317 920810.000000 1 0 0
-6.056480 -13.407082 -13.393064 19.894848 1.146499 2.309314 0.029543 -0.005174 611385.000000 1 0 0
-15.316780 -10.396082 1.148736 18.547287 0.596313 1.508821 0.017326 0.001114 532427.000000 1 0 0
-9.880580 -8.411482 -12.523564 18.033817 0.705257 2.338450 0.033510 -0.014986 561961.000000 1 0 0
-13.232880 -12.014182 -6.173064 18.909162 0.737165 1.903351 0.038195 -0.005347 -148746.000000 1 0 0
-12.219680 -11.435882 -3.830164 17.168871 0.752277 1.795777 0.031616 -0.006242 -581824.000000 1 0 0
-11.744480 -11.059482 -8.974664 18.460486 0.755369 2.078481 0.038843 -0.021699 164194.000000 1 0 0
-13.281880 -8.670582 -5.944964 16.939006 0.578350 1.929396 0.027310 -0.008218 -902465.000000 1 0 0
-13.480980 -8.280882 -3.273264 16.156240 0.550842 1.774809 0.019963 -0.003639 225852.000000 1 0 0
-4.317980 -16.873382 -3.323264 17.731330 1.320268 1.759335 -0.000712 -0.011031 236105.000000 1 0 0
-15.525180 -9.103082 -1.849664 18.091948 0.530317 1.673212 0.021040 -0.000671 -743317.000000 1 0 0
-9.402280 -15.452782 3.536336 18.430871 1.024185 1.377729 0.021727 -0.009961 -2255780.000000 1 0 0
4.727320 -17.385582 7.968436 19.700304 -1.305305 1.154383 0.044298 -0.021168 353503.000000 1 0 0
-8.455080 -15.395282 5.980836 18.554608 1.068568 1.242599 0.021610 -0.003075 -74545.200000 1 0 0
0.913820 -15.907482 8.558336 18.086685 -1.513413 1.077894 0.022217 -0.015430 -190559.000000 1 0 0
-10.822580 -7.863682 -10.192464 16.818206 0.628356 2.221866 0.033335 -0.017122 1250590.000000 1 0 0
-4.822480 -15.885582 5.705836 17.554617 1.276062 1.239749 0.010867 -0.009007 -255479.000000 1 0 0
-1.239680 -13.134682 -12.039564 17.860789 1.476693 2.310512 0.005976 -0.002934 -37071.700000 1 0 0
-6.457280 -14.246982 -2.585964 15.854342 1.145253 1.734636 0.003616 -0.005575 617612.000000 1 0 0
-17.655580 -6.994082 -7.312264 20.349592 0.377174 1.938349 0.034476 -0.022418 92947.200000 1 0 0
-17.311180 -3.863082 -10.262164 20.491763 0.219558 2.095313 0.058466 -0.021128 395984.000000 1 0 0
-15.337680 -5.286982 -9.213164 18.656875 0.331950 2.087275 0.033629 -0.019082 1004420.000000 1 0 0
-16.053880 -5.531282 -5.804864 17.944876 0.331807 1.900205 0.013981 -0.013770 383582.000000 1 0 0
-15.270880 -4.391782 -12.281064 20.082631 0.280035 2.228785 0.071508 -0.023112 172564.000000 1 0 0
-18.660480 -5.246382 -5.691264 20.202191 0.274074 1.856378 0.025795 -0.018579 -728187.000000 1 0 0
-17.446880 -4.491182 -7.798864 19.631266 0.251950 1.979334 0.031382 -0.016541 782963.000000 1 0 0
12.293320 -7.903382 8.792936 17.055934 -0.571368 1.029164 0.020057 -0.009080 339282.000000 1 0 0
16.083320 -3.451582 1.835936 16.551654 -0.211400 1.459646 0.030765 -0.010201 1550030.000000 1 0 0
12.137520 -2.135082 12.415736 17.493669 -0.174126 0.781685 0.011557 -0.003315 540094.000000 1 0 0
9.586620 -9.953982 5.236836 14.778684 -0.804196 1.208577 0.003252 -0.005190 -269267.000000 1 0 0
16.816720 -1.829382 7.201136 18.384914 -0.108357 1.168332 0.036120 -0.020857 -443054.000000 1 0 0
5.295120 -12.909582 9.116636 16.667593 -1.181554 0.992058 0.012950 -0.000027 -297780.000000 1 0 0
15.129720 -8.984782 -2.134164 17.725388 -0.535885 1.691491 0.039226 -0.015457 150029.000000 1 0 0
11.091120 -8.591082 6.519336 15.470015 -0.659055 1.135788 0.013608 -0.008922 -2754530.000000 1 0 0
19.952920 -2.984882 3.505336 20.477205 -0.148495 1.398767 0.055715 -0.023958 -161670.000000 1 0 0
13.560120 -8.589182 6.751236 17.413503 -0.564628 1.172660 0.026539 -0.011717 -466383.000000 1 0 0
8.329120 -11.128782 8.873436 16.491267 -0.928300 1.002652 0.010534 -0.000666 -650596.000000 1 0 0
16.789620 0.065918 -0.515864 16.797673 0.003926 1.601512 0.023128 -0.004364 1676470.000000 1 0 0
12.506320 -12.454482 2.324036 17.802340 -0.783321 1.439876 0.025711 -0.005739 -609068.000000 1 0 0
10.473020 -11.568382 3.531136 15.999392 -0.835053 1.348260 0.009722 -0.004219 -456614.000000 1 0 0
16.456120 3.108618 2.288936 16.902858 0.186703 1.434962 0.029931 -0.004211 -605030.000000 1 0 0
18.379420 -3.498182 0.394636 18.713527 -0.188082 1.549707 0.029750 -0.012602 -876636.000000 1 0 0
13.554220 -11.649782 -0.147464 17.873334 -0.709981 1.579047 0.048758 -0.007729 -461082.000000 1 0 0
17.010820 -7.718182 -0.785664 18.696406 -0.425945 1.612831 0.044433 -0.016733 645141.000000 1 0 0
10.198020 -5.796482 9.727936 15.239145 -0.516855 0.878441 0.009928 -0.007275 -638350.000000 1 0 0
11.277220 -13.250282 5.997436 18.404209 -0.865668 1.238861 0.019103 -0.005432 -16542.500000 1 0 0
13.049920 -1.863282 10.046436 16.574170 -0.141823 0.919585 0.010520 -0.006171 670427.000000 1 0 0
15.594720 -2.017282 -1.254064 15.774581 -0.128642 1.650379 0.014281 -0.008215 -560504.000000 1 0 0
10.571920 -12.437582 9.169536 18.722696 -0.866303 1.058987 0.022132 -0.009881 192248.000000 1 0 0
14.703620 1.220418 3.171836 15.091269 0.082811 1.359040 0.016127 -0.003929 1535300.000000 1 0 0
15.057720 -5.828682 5.347736 17.009020 -0.369327 1.250966 0.034335 -0.013134 -750590.000000 1 0 0
14.374820 -3.214582 -3.007964 15.033856 -0.220006 1.772235 0.014060 -0.007192 878246.000000 1 0 0
14.071020 0.487818 9.576136 17.027447 0.034654 0.973518 0.016725 -0.007152 787434.000000 1 0 0
15.316120 -3.388482 4.455236 16.306884 -0.217729 1.294066 0.027514 -0.010580 -251815.000000 1 0 0
18.645120 4.838718 -4.294764 19.735721 0.253915 1.790165 0.028996 -0.000450 466481.000000 1 0 0
18.386320 -5.800382 -4.898564 19.892137 -0.305591 1.819612 0.066309 -0.020946 685492.000000 1 0 0
17.236120 0.027418 5.562136 18.111376 0.001591 1.258644 0.043683 -0.015346 920447.000000 1 0 0
17.020720 -6.754682 3.942236 18.731574 -0.377788 1.358751 0.044108 -0.016688 179848.000000 1 0 0
9.725620 -6.787082 14.235836 18.528659 -0.609286 0.694593 0.023572 -0.003030 -484749.000000 1 0 0
8.626420 -12.283282 5.086636 15.848281 -0.958535 1.244055 0.007018 -0.005828 -1833630.000000 1 0 0
16.830420 -10.364282 -0.664864 19.776841 -0.551961 1.604421 0.050934 -0.012831 -21678.300000 1 0 0
15.009020 -8.931882 0.510936 17.473130 -0.536809 1.541551 0.053972 -0.014587 729124.000000 1 0 0
10.032620 -12.913682 1.418836 16.414315 -0.910301 1.484249 0.018149 -0.003202 162404.000000 1 0 0
16.858920 -8.195582 8.986336 20.788097 -0.452488 1.123774 0.049875 -0.009960 609512.000000 1 0 0
19.105920 -0.178382 -1.841564 19.195295 -0.009336 1.666882 0.042510 -0.004244 -72722.400000 1 0 0
13.516720 -1.227382 7.660536 15.584993 -0.090556 1.056947 0.010663 -0.008592 288474.000000 1 0 0
12.811020 -9.739282 -3.035864 16.376579 -0.650014 1.757253 0.029391 -0.010549 -1719830.000000 1 0 0
8.906020 -15.173182 1.412436 17.650428 -1.040022 1.490688 0.028727 -0.003661 -739144.000000 1 0 0
11.541420 -8.215482 11.235836 18.081552 -0.618619 0.900271 0.021450 -0.006318 -415992.000000 1 0 0
14.066020 -4.117882 -0.623464 14.669648 -0.284796 1.613309 0.016108 -0.009244 -726512.000000 1 0 0
7.172220 -13.327282 10.702136 18.536259 -1.077088 0.955302 0.022214 0.001714 -881944.000000 1 0 0
15.476320 -6.801682 1.875936 17.008777 -0.414079 1.460279 0.037987 -0.013458 267922.000000 1 0 0
15.882220 -6.167782 -2.555264 17.228344 -0.370419 1.719663 0.040264 -0.014564 -324021.000000 1 0 0
11.240020 -8.552482 3.852236 14.639765 -0.650438 1.304526 0.015567 -0.007013 781072.000000 1 0 0
10.707720 -14.494182 -0.534364 18.028370 -0.934528 1.600441 0.040604 -0.007451 458765.000000 1 0 0
13.542620 -12.969682 4.647536 19.318768 -0.763791 1.327842 0.024418 0.000010 321647.000000 1 0 0
12.831520 -11.131482 6.426636 18.162033 -0.714573 1.209112 0.018425 -0.008269 31181.700000 1 0 0
11.086420 -10.520382 1.256736 15.335141 -0.759207 1.488753 0.016896 -0.003046 956193.000000 1 0 0
14.018220 -7.516082 11.789336 19.798748 -0.492159 0.932960 0.024147 -0.016394 776203.000000 1 0 0
15.428820 -1.833682 -4.986264 16.317895 -0.118293 1.881334 0.022703 -0.004247 -414438.000000 1 0 0
13.082820 -11.323582 -7.022064 18.673325 -0.713442 1.956324 0.053464 -0.016160 632429.000000 1 0 0
17.767620 -5.455582 1.892336 18.682415 -0.297914 1.469333 0.046091 -0.012902 800328.000000 1 0 0
10.609020 -9.794082 9.229336 17.136394 -0.745478 1.002044 0.009413 -0.006502 -155600.000000 1 0 0
16.429720 1.745418 9.904136 19.263284 0.105838 1.030785 0.045793 -0.009871 -297108.000000 1 0 0
18.283520 3.864018 0.551236 18.695497 0.208274 1.541307 0.034875 0.000725 694442.000000 1 0 0
13.266820 -4.021082 5.830636 15.039080 -0.294292 1.172662 0.019296 -0.011789 -1002220.000000 1 0 0
11.964220 -6.207382 6.626636 15.019536 -0.478597 1.113860 0.014862 -0.011392 -103830.000000 1 0 0
16.613520 -10.265682 3.640336 19.865682 -0.553486 1.386507 0.036930 -0.010565 41439.500000 1 0 0
16.281020 -7.921682 -5.457864 18.910657 -0.452837 1.863574 0.055226 -0.022696 -656041.000000 1 0 0
14.138720 -0.350082 5.247836 15.085282 -0.024755 1.215490 0.012581 -0.006559 1594920.000000 1 0 0
18.451320 -4.371382 5.088336 19.632915 -0.232625 1.308630 0.063815 -0.016393 571813.000000 1 0 0
13.530620 -13.553882 7.133136 20.436904 -0.786257 1.214258 0.035110 -0.005307 -68757.600000 1 0 0
15.022020 -13.616682 -0.901664 20.295027 -0.736366 1.615239 0.052131 -0.005625 391757.000000 1 0 0
17.797020 -6.040382 7.979336 20.417883 -0.327204 1.169294 0.056451 -0.011418 -362346.000000 1 0 0
14.326120 3.139618 9.304836 17.368791 0.215743 1.005434 0.015925 -0.006414 -235317.000000 1 0 0
18.878320 3.896818 3.085536 19.521698 0.203559 1.412074 0.059871 -0.006718 1180040.000000 1 0 0
14.686620 -10.569582 8.150036 19.845301 -0.623808 1.147598 0.021306 -0.014771 -15644.900000 1 0 0
14.867120 -4.855182 10.340736 18.749263 -0.315653 0.986602 0.031449 -0.015031 321128.000000 1 0 0
17.865220 -7.968282 1.870836 19.650945 -0.419541 1.475449 0.066710 -0.020613 -311547.000000 1 0 0
18.447620 -5.921682 -1.929064 19.470549 -0.310610 1.670035 0.036570 -0.014804 -153001.000000 1 0 0
14.402420 -12.815982 -5.357564 20.009563 -0.727179 1.841854 0.062858 -0.019476 -1107080.000000 1 0 0
15.537220 -1.613682 9.377436 18.219371 -0.103488 1.030143 0.038556 -0.013823 -1011220.000000 1 0 0
13.050020 -10.018682 10.367736 19.446515 -0.654742 1.008487 0.016114 -0.009514 -400028.000000 1 0 0
16.679320 2.311218 4.705236 17.483727 0.137691 1.298316 0.040257 -0.011188 -2045430.000000 1 0 0
15.035720 2.510318 0.011436 15.243842 0.165431 1.570046 0.016001 -0.000019 -1304050.000000 1 0 0
15.243320 -9.705682 -6.973364 19.369741 -0.566981 1.939078 0.063593 -0.022701 1477970.000000 1 0 0
16.117920 -0.067882 -3.128764 16.418926 -0.004212 1.762527 0.012226 -0.000074 -3600.790000 1 0 0
12.144820 2.548718 13.558336 18.379910 0.206859 0.741181 0.020914 0.004414 -154718.000000 1 0 0
17.730120 -3.007682 9.337936 20.263276 -0.168037 1.091866 0.053190 -0.021499 188968.000000 1 0 0
8.162720 -18.135782 4.540536 20.399830 -1.147868 1.346339 0.063728 -0.018186 69604.900000 1 0 0
6.980020 -11.166882 6.649736 14.752590 -1.012151 1.103191 0.006010 -0.004313 99428.300000 1 0 0
18.056020 2.120518 -1.456964 18.238399 0.116906 1.650766 0.025580 0.001674 540937.000000 1 0 0
17.508920 -2.340582 3.682636 18.044457 -0.132892 1.365266 0.028904 -0.010884 -1875780.000000 1 0 0
12.613820 -13.440482 -1.984864 18.539005 -0.817116 1.678066 0.043895 -0.004519 804331.000000 1 0 0
14.991920 -8.262982 4.347936 17.661797 -0.503735 1.322062 0.035112 -0.012291 -592930.000000 1 0 0
11.838820 -3.073482 14.810236 19.207994 -0.254003 0.690315 0.019844 -0.003986 77979.200000 1 0 0
12.247120 -13.745082 -6.327464 19.466793 -0.842966 1.901849 0.050216 -0.014847 -48363.900000 1 0 0
10.612920 -12.023582 -1.284564 16.088838 -0.847636 1.650723 0.030160 -0.007820 -1026330.000000 1 0 0
13.202320 -8.053782 2.189136 15.619122 -0.547760 1.430176 0.029039 -0.006803 -1198690.000000 1 0 0
8.699720 -7.910982 9.997936 15.434620 -0.737950 0.866155 0.010979 -0.002682 -1430870.000000 1 0 0
15.665820 -3.868382 8.016136 18.017789 -0.242088 1.109732 0.039971 -0.017176 -983784.000000 1 0 0
10.455520 -16.998882 5.358436 20.663802 -1.019369 1.308483 0.049393 -0.019842 -1111010.000000 1 0 0
15.192420 -6.377482 8.325436 18.460628 -0.397441 1.102930 0.035739 -0.008111 -711592.000000 1 0 0
16.644220 -5.091382 -0.318264 17.408433 -0.296856 1.589080 0.028567 -0.011370 -932208.000000 1 0 0
14.035320 -10.655282 3.430736 17.952582 -0.649348 1.378514 0.035543 -0.007800 508629.000000 1 0 0
14.950120 -9.885282 -4.456064 18.468389 -0.584221 1.814482 0.057119 -0.025608 132048.000000 1 0 0
13.621220 -6.655482 -0.022064 15.160263 -0.454495 1.572252 0.030782 -0.009812 190611.000000 1 0 0
17.872820 -0.910582 -4.874664 18.548024 -0.050904 1.836733 0.034611 -0.003431 -908102.000000 1 0 0
14.313720 0.301918 -1.564364 14.402117 0.021090 1.679631 0.009758 -0.000163 -2213570.000000 1 0 0
4.828220 -12.942682 11.705936 18.106730 -1.213740 0.867813 0.005559 0.001003 -464651.000000 1 0 0
12.148620 -7.545182 13.581736 19.722634 -0.555771 0.811189 0.024663 -0.005848 1300290.000000 1 0 0
12.061020 -5.733682 11.669036 17.734422 -0.443766 0.852653 0.012836 -0.001973 584845.000000 1 0 0
13.255820 -4.678982 8.319336 16.334656 -0.339323 1.036418 0.019481 -0.012976 -613056.000000 1 0 0
15.365420 -1.252882 3.013036 15.708095 -0.081359 1.377786 0.027521 -0.003774 654113.000000 1 0 0
15.160420 -10.413482 5.740636 19.267430 -0.601870 1.268257 0.032229 -0.011813 -459617.000000 1 0 0
13.798220 -7.931082 -5.785964 16.934294 -0.521677 1.919491 0.043741 -0.016841 -1230630.000000 1 0 0
9.675220 -2.285482 13.451336 16.726379 -0.231968 0.636470 0.014150 -0.001587 -315820.000000 1 0 0
10.020720 -9.240682 13.632936 19.278537 -0.744923 0.785328 0.036645 -0.003351 139222.000000 1 0 0
20.326220 6.373318 -2.993464 21.511282 0.303843 1.710407 0.077416 -0.008692 188371.000000 1 0 0
11.099720 -3.591982 10.568336 15.741532 -0.312974 0.834745 0.010017 -0.003361 910597.000000 1 0 0
10.324820 -13.988882 -3.090464 17.659040 -0.934972 1.746710 0.035869 -0.007963 294414.000000 1 0 0
15.022120 -12.909682 2.544536 19.969944 -0.709913 1.443031 0.039697 -0.002812 70101.300000 1 0 0
11.384220 -0.543382 14.292936 18.280693 -0.047695 0.673153 0.025675 0.002733 266672.000000 1 0 0
18.966220 -1.871082 5.757836 19.909072 -0.098335 1.277398 0.065871 -0.021178 694081.000000 1 0 0
18.846620 -0.213782 7.778736 20.389937 -0.011343 1.179379 0.064195 -0.020812 677323.000000 1 0 0
19.083820 0.797618 0.567436 19.108908 0.041771 1.541097 0.044927 -0.010562 318979.000000 1 0 0
18.468220 0.886118 3.490736 18.816099 0.047944 1.384197 0.041406 -0.015208 -190624.000000 1 0 0
16.692420 -3.906582 -4.052864 17.616015 -0.229896 1.802943 0.027490 -0.010529 -997576.000000 1 0 0
11.075520 -8.352782 15.841036 21.056461 -0.646162 0.719231 0.040728 -0.011100 354116.000000 1 0 0
16.575020 -7.587182 6.393136 19.317578 -0.429278 1.233487 0.041812 -0.014286 438143.000000 1 0 0
19.001220 2.037718 5.798436 19.970491 0.106833 1.276204 0.065503 -0.018829 -38948.900000 1 0 0
15.445820 1.713018 7.592336 17.295992 0.110454 1.116350 0.029373 -0.009166 483163.000000 1 0 0
8.818720 -15.609982 3.874136 18.342581 -1.056554 1.357984 0.027132 -0.013229 964865.000000 1 0 0
11.403920 -15.100282 1.918136 19.019652 -0.923968 1.469774 0.032716 -0.002932 -429525.000000 1 0 0
8.178120 -16.126482 6.233036 19.125789 -1.101466 1.238836 0.035594 -0.013184 40201.700000 1 0 0
14.580020 -11.591082 -2.490864 18.791875 -0.671683 1.703738 0.048287 -0.011727 427182.000000 1 0 0
13.676120 -4.945282 3.319036 14.916705 -0.346971 1.346414 0.018094 -0.007034 -1685310.000000 1 0 0
-1.009080 10.125018 -5.438264 11.537285 -1.471462 2.061633 0.000173 0.001184 -2063240.000000 1 0 0
8.317420 -1.610782 -7.877964 11.568769 -0.191296 2.319880 0.004099 -0.004918 -1777460.000000 1 0 0
2.947420 -10.094682 7.666436 13.013997 -1.286716 0.940862 0.003170 -0.005369 578974.000000 1 0 0
-6.289180 1.322118 8.289736 10.489113 -0.207204 0.659468 -0.008708 0.001211 -620153.000000 1 0 0
7.315520 -6.258982 -7.215664 12.031521 -0.707722 2.213960 0.003702 -0.006397 88971.100000 1 0 0
-11.471480 -4.520982 -4.159764 13.012985 0.375415 1.896170 0.007827 -0.003514 245569.000000 1 0 0
2.056720 -3.231282 2.920336 4.816601 -1.003968 0.919389 0.003246 -0.000821 1852100.000000 1 0 0
-3.662780 -4.247982 8.771036 10.411166 0.859239 0.568955 0.001771 -0.004611 -1313240.000000 1 0 0
-4.864680 -1.115682 -2.418064 5.545890 0.225445 2.021957 0.006234 -0.006976 -196040.000000 1 0 0
4.955020 -5.094582 -3.650464 7.989548 -0.799285 2.045309 0.007534 -0.005778 469045.000000 1 0 0
2.698020 14.208218 -8.750464 16.903355 1.383139 2.114929 0.004399 -0.010139 -164294.000000 1 0 0
5.378120 -5.537582 13.762436 15.779532 -0.800006 0.511175 0.015798 0.001292 -831063.000000 1 0 0
-4.710880 -0.980082 9.830236 10.944701 0.205120 0.455200 0.000046 -0.001869 -2490900.000000 1 0 0
-0.994480 12.011418 -2.651764 12.340786 -1.488190 1.787363 -0.000435 -0.004856 187590.000000 1 0 0
3.151320 9.416118 -10.537564 14.478755 1.247841 2.385897 0.004925 -0.002264 -438025.000000 1 0 0
-10.681780 2.655918 1.104936 11.062333 -0.243698 1.470747 -0.003120 -0.001948 -5271.580000 1 0 0
5.677920 -8.945582 -0.740964 10.621264 -1.005239 1.640615 0.004463 -0.004582 392739.000000 1 0 0
-6.871480 5.442818 9.398436 12.851930 -0.669898 0.750591 -0.001435 -0.001332 198504.000000 1 0 0
-5.613780 -1.900682 5.213436 7.893480 0.326460 0.849347 -0.002497 -0.002823 287816.000000 1 0 0
6.687520 -3.731282 -7.316564 10.591388 -0.508924 2.333396 0.003565 -0.005139 331835.000000 1 0 0
6.441620 4.948518 11.142936 13.789392 0.655054 0.629910 0.007304 -0.000319 334167.000000 1 0 0
3.733620 -9.904282 3.175736 11.050793 -1.210299 1.279310 0.001343 -0.002598 899756.000000 1 0 0
-6.654880 6.535218 -5.802864 10.984978 -0.776326 2.127340 0.005530 -0.004069 280950.000000 1 0 0
-11.073180 8.467918 5.281836 14.907003 -0.652858 1.208611 0.008851 -0.009491 -99195.300000 1 0 0
-9.246680 -5.511782 5.136536 11.927482 0.537534 1.125587 0.002620 -0.003172 -1379570.000000 1 0 0
3.270220 9.831318 -7.979464 13.077500 1.249676 2.227068 0.001644 -0.002299 897755.000000 1 0 0
-8.157280 -8.495882 6.116936 13.271704 0.805728 1.091787 0.006093 -0.007896 -676272.000000 1 0 0
-7.793380 -5.807682 -7.396764 12.213847 0.640427 2.221322 0.016471 -0.012160 -556589.000000 1 0 0
9.261120 -1.468582 6.994036 11.697932 -0.157266 0.929934 0.006454 -0.006502 1049490.000000 1 0 0
-3.998880 -0.461782 -4.788164 6.255462 0.114969 2.442517 0.009597 -0.011983 -632893.000000 1 0 0
9.073420 1.326318 -4.593464 10.256022 0.145148 2.035189 0.006190 -0.000512 -3955810.000000 1 0 0
-1.970280 -10.599982 10.692236 15.184384 1.387018 0.789557 0.001996 -0.012234 -78526.400000 1 0 0
-12.900080 0.265018 -2.706064 13.183515 -0.020541 1.777527 0.006483 -0.003872 -1144870.000000 1 0 0
-9.860980 -5.229382 -6.025964 12.684542 0.487601 2.065833 0.015390 -0.008158 -1640900.000000 1 0 0
-5.936180 8.496518 -0.184264 10.366436 -0.960970 1.588572 0.001316 -0.003920 778640.000000 1 0 0
6.328820 9.681218 0.410236 11.573601 0.991809 1.535343 0.008637 -0.005910 405165.000000 1 0 0
-0.541580 -12.044182 0.014236 12.056361 1.525861 1.569616 0.006047 -0.002668 -422479.000000 1 0 0
6.217320 4.661618 2.399236 8.132778 0.643360 1.271332 0.001851 -0.001242 313886.000000 1 0 0
3.586420 -7.457682 -8.177364 11.633947 -1.122543 2.350246 -0.002010 -0.003292 1265440.000000 1 0 0
-6.609680 -9.823982 4.619036 12.709602 0.978552 1.198851 0.009570 -0.005128 -2704960.000000 1 0 0
-0.077580 6.455818 -9.132264 11.184000 -1.558780 2.526201 0.010801 -0.000120 -217703.000000 1 0 0
-17.257280 -2.723782 4.143536 17.955545 0.156542 1.337931 0.044207 -0.006227 -133473.000000 1 0 0
-8.476180 0.639018 -8.968964 12.357034 -0.075248 2.383020 0.009961 -0.009363 1512730.000000 1 0 0
-10.096280 -5.892782 -11.778364 16.594867 0.528317 2.359953 0.030830 -0.015704 2016560.000000 1 0 0
2.243620 9.508018 6.373436 11.664344 1.339064 0.992733 -0.003313 0.004338 190222.000000 1 0 0
-11.325080 1.655218 -1.257464 11.514269 -0.145128 1.680224 0.001966 -0.002970 -1521030.000000 1 0 0
-5.938580 -5.296482 -3.087664 8.535404 0.728309 1.940938 0.017961 -0.007897 628612.000000 1 0 0
-7.019580 -8.282282 1.388136 10.945210 0.867731 1.443628 0.012038 -0.003595 -230090.000000 1 0 0
-0.022480 10.933618 -7.771064 13.413946 -1.568740 2.188699 0.003140 -0.000975 751959.000000 1 0 0
-3.015580 9.319918 -4.124764 10.628653 -1.257865 1.969343 0.006171 -0.002845 161809.000000 1 0 0
3.472020 -4.813482 9.317336 11.047048 -0.945910 0.567173 0.004934 -0.004138 -867601.000000 1 0 0
-8.933780 1.553718 -0.363864 9.075178 -0.172193 1.610902 0.000310 -0.002361 -1921330.000000 1 0 0
2.516820 3.529118 -10.362064 11.232161 0.951294 2.745396 0.005037 -0.000685 -1485660.000000 1 0 0
-13.673380 0.484618 1.033436 13.720939 -0.035428 1.495407 0.009298 -0.003129 324831.000000 1 0 0
9.504320 -12.539482 -5.080164 16.534170 -0.922226 1.883101 0.034616 -0.007113 -2092510.000000 1 0 0
-4.796180 9.423118 -8.129364 13.337356 -1.099990 2.226249 0.010733 -0.002279 355107.000000 1 0 0
-2.311480 7.180818 8.347236 11.250930 -1.259374 0.734874 -0.001879 0.002838 -107115.000000 1 0 0
-10.727380 -1.274182 -4.423964 11.673546 0.118225 1.959483 0.006252 -0.005458 -3044210.000000 1 0 0
2.810320 -7.126182 9.702736 12.362178 -1.195157 0.668306 -0.000475 -0.000256 -455822.000000 1 0 0
-16.221180 -6.625882 3.459936 17.860575 0.387788 1.375845 0.035785 -0.003013 -670494.000000 1 0 0
-10.703180 -0.123482 6.198336 12.369021 0.011536 1.045906 -0.005278 -0.002667 -1917390.000000 1 0 0
-8.324180 9.964918 9.295636 15.968732 -0.874870 0.949469 0.012609 -0.013070 358617.000000 1 0 0
0.381220 -6.084682 -3.768764 7.167445 -1.508226 2.124472 -0.000326 -0.002777 -19314.300000 1 0 0
4.940920 1.505718 -2.844664 5.896778 0.295804 2.074200 0.001565 -0.000133 238777.000000 1 0 0
0.281620 5.396818 3.836836 6.627689 1.518661 0.953405 0.000746 0.000669 -1537270.000000 1 0 0
6.047220 -11.185882 -1.630964 12.820018 -1.075189 1.698362 0.004232 -0.002323 -1793860.000000 1 0 0
6.294820 -13.447782 5.311736 15.769659 -1.132998 1.227245 0.009277 -0.007351 435699.000000 1 0 0
8.203120 -8.269382 -5.887664 13.051377 -0.789421 2.038810 0.007108 -0.005841 601253.000000 1 0 0
-13.171480 -1.317282 -4.744264 14.061691 0.099679 1.914939 0.005223 -0.002140 -3266270.000000 1 0 0
-6.770480 -1.738282 -7.080764 9.949786 0.251316 2.362640 0.016228 -0.011204 -996621.000000 1 0 0
-5.787780 12.802618 -4.707564 14.817779 -1.146216 1.894096 0.009568 -0.000262 143496.000000 1 0 0
-4.322180 6.872018 -6.796564 10.587689 -1.009359 2.267810 0.009314 -0.002145 -2470000.000000 1 0 0
-9.366580 -3.783682 -8.057864 12.922006 0.383912 2.244106 0.017258 -0.011188 666375.000000 1 0 0
-2.216680 -6.331782 9.156636 11.351172 1.234043 0.632303 0.001548 -0.006119 -445942.000000 1 0 0
7.511420 -6.038382 10.114636 13.971018 -0.677111 0.761252 0.011641 -0.003308 748183.000000 1 0 0
9.634920 -5.134182 12.257936 16.414887 -0.489598 0.727623 0.013163 0.001515 -717358.000000 1 0 0
-6.511180 2.567218 -9.025264 11.421097 -0.375564 2.481976 0.007311 -0.006783 341168.000000 1 0 0
7.425620 5.518518 8.863036 12.811997 0.639117 0.806850 -0.000802 -0.000624 -132021.000000 1 0 0
12.778320 3.387518 11.201436 17.327230 0.259138 0.867855 0.014159 0.003238 -73876.300000 1 0 0
-7.488580 -7.209682 -3.816164 11.073457 0.766426 1.922633 0.016413 -0.008380 -1149140.000000 1 0 0
2.179820 1.422918 -5.828664 6.383544 0.578319 2.721562 0.004741 -0.000726 -355634.000000 1 0 0
12.751620 6.926818 -7.154964 16.179559 0.497616 2.028871 0.012630 -0.001010 301517.000000 1 0 0
0.736620 -7.778482 0.980136 7.874520 -1.476378 1.446003 0.002656 -0.001994 1618030.000000 1 0 0
-10.137680 -6.205182 -8.536964 14.634090 0.549262 2.193658 0.021261 -0.013360 18774.200000 1 0 0
-6.681180 0.175718 3.063336 7.352079 -0.026294 1.141025 -0.002036 -0.003478 -72057.900000 1 0 0
10.775120 -7.915482 1.298936 13.432993 -0.633577 1.473948 0.009146 -0.004699 -72598.400000 1 0 0
6.352620 1.048718 10.606336 12.407657 0.163609 0.545589 0.008055 -0.000475 -391852.000000 1 0 0
-13.001080 5.331118 1.892336 14.178499 -0.389142 1.436932 0.006282 -0.003405 -41103.400000 1 0 0
2.030020 7.419518 3.781736 8.571567 1.303727 1.113866 -0.002276 -0.001220 359272.000000 1 0 0
10.159520 -9.443282 -0.869264 13.897735 -0.748877 1.633384 0.011126 -0.005737 668412.000000 1 0 0
6.832420 -11.713482 -9.073264 16.315997 -1.042750 2.160478 0.006223 -0.006333 -85325.300000 1 0 0
10.319620 3.623618 12.029736 16.258527 0.337689 0.737870 0.002697 0.005339 -1410490.000000 1 0 0
-11.085080 -3.105482 -2.030564 11.689577 0.273148 1.745389 0.005992 -0.000719 386714.000000 1 0 0
12.499820 1.068718 6.827936 14.283150 0.085291 1.072373 0.006221 -0.004769 503298.000000 1 0 0
-9.709780 9.252218 3.069136 13.758741 -0.761272 1.345836 0.006827 -0.007361 656852.000000 1 0 0
-6.799380 7.668418 -8.879364 13.560211 -0.845393 2.284728 0.010383 -0.003126 -887693.000000 1 0 0
8.638820 5.580618 12.284436 16.021232 0.573553 0.697018 0.007015 0.003498 -3437970.000000 1 0 0
1.248420 5.027718 -2.619664 5.805096 1.327411 2.038984 0.001732 -0.004536 731721.000000 1 0 0
1.221220 0.607418 9.454436 9.552313 0.461554 0.143276 0.010319 -0.003565 847604.000000 1 0 0
2.497020 12.564018 -3.857364 13.377926 1.374609 1.863287 0.002993 -0.007709 480573.000000 1 0 0
2.043820 0.604318 13.042136 13.215132 0.287489 0.161984 0.012062 -0.003041 -161231.000000 1 0 0
-12.301880 -1.820782 0.821436 12.462995 0.146942 1.504839 0.002972 -0.000762 -163967.000000 1 0 0
3.172920 8.682318 -1.238964 9.326580 1.220428 1.704032 0.005487 -0.006215 -186632.000000 1 0 0
3.764120 -2.801582 -5.830064 7.483790 -0.639834 2.463907 -0.003272 -0.002840 -1756340.000000 1 0 0
-7.814480 -7.288782 9.238136 14.125707 0.750605 0.857944 0.006073 -0.008050 295207.000000 1 0 0
-7.078680 10.755218 -3.608464 13.371740 -0.988704 1.844041 0.013931 -0.001052 1234340.000000 1 0 0
0.450620 0.517818 2.487936 2.580895 0.854675 0.269208 -0.000551 -0.000757 -2874800.000000 1 0 0
-7.100480 4.568118 -1.966164 8.668928 -0.571689 1.799593 0.006200 -0.005652 -887595.000000 1 0 0
-7.078780 -3.928082 -5.827664 9.975000 0.506605 2.194724 0.013475 -0.011673 -47666.900000 1 0 0
2.909620 -6.083382 13.348636 14.955250 -1.124667 0.467779 0.002598 -0.001834 -1419180.000000 1 0 0
-5.457280 -0.627682 -11.773264 12.991753 0.114514 2.705030 0.011122 -0.011672 -826868.000000 1 0 0
11.904320 2.485918 -0.712364 12.181958 0.205866 1.629307 0.007191 -0.001125 -1051750.000000 1 0 0
6.150920 -10.946982 10.709236 16.503271 -1.058876 0.864638 0.010903 -0.001069 57089.100000 1 0 0
-8.297280 6.419718 -10.544364 14.874181 -0.658506 2.358739 0.010516 -0.003057 393703.000000 1 0 0
2.883520 7.840118 11.121336 13.909214 1.218361 0.644224 -0.001568 0.000800 790319.000000 1 0 0
-6.217480 -10.172682 -0.291664 11.925837 1.022187 1.595255 0.011553 -0.003342 -297900.000000 1 0 0
11.320220 4.333818 6.150836 13.592724 0.365625 1.101219 0.002143 -0.000199 234887.000000 1 0 0
-7.991880 10.624018 1.432436 13.371304 -0.925859 1.463463 0.002909 -0.001977 546322.000000 1 0 0
4.422420 -2.492482 -3.452364 6.139144 -0.513226 2.168025 0.003187 -0.004026 -4524510.000000 1 0 0
6.503320 6.376818 6.112736 10.969162 0.775577 0.979707 0.002224 0.000081 -5391930.000000 1 0 0
-0.421780 10.290118 -10.183764 14.483559 -1.529830 2.350580 0.005099 0.001004 -374622.000000 1 0 0
14.168620 6.464018 -2.580064 15.785755 0.428015 1.734975 0.022889 -0.000008 691517.000000 1 0 0
1.452620 9.524018 -6.179664 11.445754 1.419441 2.141125 0.002941 -0.001925 -1228390.000000 1 0 0
0.730120 7.381018 7.144636 10.298462 1.472198 0.804103 -0.003852 0.004133 203191.000000 1 0 0
12.276620 6.337818 1.892836 13.945113 0.476564 1.434641 0.008731 -0.000828 -1095270.000000 1 0 0
-6.892880 6.682618 -3.178164 10.112858 -0.769911 1.890484 0.003679 -0.005012 78440.000000 1 0 0
1.076720 9.881618 11.058436 14.869254 1.462263 0.732191 -0.006370 -0.000076 918333.000000 1 0 0
-3.567080 13.619618 -11.028564 17.884275 -1.314642 2.235293 0.010537 -0.003327 -84534.700000 1 0 0
-10.143780 -5.552382 -2.263464 11.783399 0.500820 1.764087 0.008765 -0.003557 -122899.000000 1 0 0
-4.043080 3.931318 -12.372964 13.597500 -0.771384 2.713946 0.005112 -0.004859 -964565.000000 1 0 0
-3.149580 8.490218 2.408336 9.370365 -1.215567 1.310863 0.000506 -0.000659 -3893520.000000 1 0 0
6.966720 8.815818 7.115536 13.299800 0.902027 1.006276 0.005158 0.002781 478538.000000 1 0 0
-1.342580 -2.199982 -8.162464 8.559688 1.022861 2.835750 0.006068 -0.010931 -1157340.000000 1 0 0
0.881120 -1.316482 4.869636 5.120825 -0.980974 0.314512 0.005405 -0.002154 -29004.400000 1 0 0
2.857420 -8.807582 -6.107264 11.092206 -1.257082 2.153868 -0.002431 -0.003850 717237.000000 1 0 0
5.319420 3.906918 9.001836 11.162136 0.633483 0.632653 0.003785 -0.000079 147407.000000 1 0 0
6.118520 -7.403082 -2.806664 10.005962 -0.880115 1.855110 0.004864 -0.006278 861956.000000 1 0 0
1.816620 2.274618 -8.307564 8.802819 0.896880 2.804557 0.005705 -0.002795 112150.000000 1 0 0
-5.508580 10.950618 -0.795564 12.283868 -1.104721 1.635607 0.002628 -0.003174 735756.000000 1 0 0
-5.369380 3.247418 -3.337664 7.107458 -0.543944 2.059634 0.003069 -0.003734 -164202.000000 1 0 0
2.081720 13.713418 -6.146564 15.171409 1.420145 1.987930 -0.006105 -0.005391 275083.000000 1 0 0
-5.390480 -2.532482 2.562636 6.483659 0.439202 1.164461 -0.003545 -0.003569 53263.300000 1 0 0
10.528920 -3.348382 -1.952064 11.219642 -0.307904 1.745673 0.008239 -0.003190 -275488.000000 1 0 0
2.286820 -3.299482 7.067436 8.128024 -0.964727 0.516578 0.003878 -0.001688 -1141650.000000 1 0 0
-2.929580 9.798018 -11.628964 15.486007 -1.280260 2.420271 0.009343 -0.001064 -2162840.000000 1 0 0
0.468820 -1.972782 9.281936 9.500842 -1.337480 0.215080 0.007823 -0.005470 373136.000000 1 0 0
9.494520 2.731418 5.014336 11.079265 0.280119 1.101132 0.002655 -0.001742 -368920.000000 1 0 0
13.636920 1.972118 -5.064264 14.679973 0.143620 1.923011 0.012215 -0.000106 -662492.000000 1 0 0
-6.442680 3.780818 7.571536 10.636299 -0.530686 0.778656 -0.005231 0.000360 -421967.000000 1 0 0
10.595520 -0.028182 1.853536 10.756460 -0.002660 1.397614 0.004676 0.000087 896452.000000 1 0 0
15.432620 6.587918 -4.684864 17.421664 0.403464 1.843058 0.024992 -0.003724 -1662660.000000 1 0 0
8.074420 -4.877282 -9.285764 13.236675 -0.543386 2.348322 0.010145 -0.006348 1533000.000000 1 0 0
4.441520 5.683618 -2.068064 7.503833 0.907463 1.850011 0.002715 -0.002901 731425.000000 1 0 0
-1.673380 -10.503882 1.465236 10.736790 1.412813 1.433900 0.004901 -0.003095 -750783.000000 1 0 0
-2.785180 12.126418 -12.838364 17.878222 -1.345033 2.371866 0.012757 -0.008824 -168364.000000 1 0 0
8.445620 4.288418 -9.623364 13.502895 0.469843 2.364120 0.004729 0.002184 -1819900.000000 1 0 0
4.212720 7.671118 -8.955164 12.521503 1.068593 2.367682 0.003404 0.000972 -1867840.000000 1 0 0
-1.631780 -4.941382 -2.497164 5.771983 1.251844 2.018210 0.003788 -0.005281 -444105.000000 1 0 0
-3.234680 -9.283082 6.829736 11.970132 1.235504 0.963603 0.007007 -0.009441 -1830030.000000 1 0 0
1.000720 7.293718 -1.356964 7.486061 1.434445 1.753069 0.002132 -0.005474 1519690.000000 1 0 0
0.228720 -0.964782 -2.199764 2.412899 -1.338024 2.718123 0.006224 -0.001243 -1585060.000000 1 0 0
4.227420 -6.781982 7.559536 11.000588 -1.013398 0.813177 0.000207 -0.001752 -558491.000000 1 0 0
-13.905780 3.779918 5.976636 15.600598 -0.265411 1.177643 0.004697 -0.005208 -496274.000000 1 0 0
4.279620 6.312918 12.538436 14.675846 0.975047 0.546481 0.006075 -0.000120 -2181870.000000 1 0 0
8.286120 10.155218 -7.141364 14.926062 0.886407 2.069684 0.017752 -0.006897 695436.000000 1 0 0
12.486720 5.207118 9.437136 16.495205 0.395086 0.961715 0.013406 0.001946 1440580.000000 1 0 0
7.523420 4.010218 0.355036 8.532863 0.489722 1.529176 0.004584 0.000977 -1682290.000000 1 0 0
-10.925880 -7.560382 -0.896264 13.316813 0.605316 1.638150 0.008419 -0.001604 -1290750.000000 1 0 0
10.460420 6.835818 0.129536 12.496623 0.578827 1.560430 0.007639 -0.002219 -503902.000000 1 0 0
14.643120 3.564118 4.139836 15.628888 0.238756 1.302713 0.015475 -0.004369 402164.000000 1 0 0
2.208220 5.630018 8.113936 10.119748 1.197013 0.640508 -0.001897 0.001818 177339.000000 1 0 0
4.280920 0.215218 11.860936 12.611677 0.050231 0.346778 0.010484 -0.001751 -1589620.000000 1 0 0
-1.652980 -1.398382 -0.335664 2.191001 0.702154 1.724603 0.005866 -0.007748 -907797.000000 1 0 0
3.075520 -5.326282 -9.453564 11.278208 -1.047143 2.564798 -0.003525 -0.003019 220386.000000 1 0 0
-3.953780 -5.281582 -1.363264 6.736911 0.928193 1.774561 0.005743 -0.007004 182688.000000 1 0 0
-1.360880 -8.722382 8.590936 12.318122 1.416023 0.799002 0.004704 -0.007948 146755.000000 1 0 0
3.903120 8.535818 -5.908964 11.091005 1.141918 2.132668 0.004602 -0.001703 382958.000000 1 0 0
-14.439980 -1.804682 -2.808364 14.820823 0.124333 1.761437 0.007010 -0.001754 -1129310.000000 1 0 0
8.885520 -10.573382 -6.624364 15.317672 -0.871921 2.018022 0.008304 -0.005244 344229.000000 1 0 0
14.852720 6.209918 1.553436 16.173421 0.396012 1.474599 0.014109 -0.002156 -1265940.000000 1 0 0
-5.879180 0.272318 -8.297864 10.173174 -0.046286 2.524668 0.012452 -0.011330 -454462.000000 1 0 0
-8.030780 -4.620982 -12.943364 15.917838 0.522142 2.520316 0.021196 -0.012724 859428.000000 1 0 0
0.780620 -10.495482 11.999736 15.961146 -1.496556 0.719995 -0.005177 -0.005541 -1082440.000000 1 0 0
0.257720 11.788518 3.347236 12.257225 1.548938 1.294200 0.002224 -0.002329 268909.000000 1 0 0
5.187420 -13.317682 -3.776864 14.782919 -1.199362 1.829149 0.010492 -0.003013 339099.000000 1 0 0
-7.591180 1.467718 -6.911264 10.370428 -0.190989 2.300219 0.006086 -0.006024 985028.000000 1 0 0
1.482820 2.703418 4.026136 5.071193 1.069107 0.653562 0.001823 -0.001898 -1649340.000000 1 0 0
17.304620 5.624918 2.067636 18.312965 0.314280 1.457649 0.032504 -0.006653 -121540.000000 1 0 0
2.357420 -8.312182 -3.669464 9.386947 -1.294443 1.972418 -0.002850 -0.002388 352525.000000 1 0 0
-0.513580 -9.324882 -0.664064 9.362594 1.515776 1.641783 0.003548 -0.000818 -577918.000000 1 0 0
0.748420 11.829618 -5.455464 13.048451 1.507614 2.002141 0.002106 -0.006597 -2426350.000000 1 0 0
6.096120 -5.019982 7.802136 11.101181 -0.688890 0.791442 0.004684 -0.003729 -889933.000000 1 0 0
-5.933880 -1.989282 -9.370464 11.268264 0.323467 2.552743 0.017221 -0.013704 -177079.000000 1 0 0
2.258320 -1.126982 11.044536 11.329248 -0.462876 0.224663 0.006126 -0.001833 -26620.300000 1 0 0
18.163020 2.120318 -5.721064 19.160418 0.116212 1.874009 0.028658 0.006708 1177840.000000 1 0 0
-8.801080 4.802118 7.823536 12.717195 -0.499481 0.908165 -0.003927 -0.007265 -178698.000000 1 0 0
11.608920 -6.875482 -4.843064 14.335081 -0.534708 1.915425 0.017940 -0.011600 197322.000000 1 0 0
10.984720 0.510418 8.943536 14.174323 0.046433 0.887997 -0.000529 -0.004400 -545105.000000 1 0 0
-8.485680 -7.407482 -1.484264 11.361364 0.717662 1.701812 0.014505 -0.005021 -113970.000000 1 0 0
10.280520 -10.417382 -3.297764 15.002873 -0.792010 1.792415 0.023572 -0.006030 247154.000000 1 0 0
7.745020 -13.859282 -3.743764 16.311984 -1.061197 1.802371 0.026193 -0.006964 -2853400.000000 1 0 0
1.814020 -1.176682 -11.696864 11.895036 -0.575433 2.958800 0.000647 -0.006510 122646.000000 1 0 0
-11.863580 -2.666782 -6.369364 13.726801 0.221112 2.053312 0.012216 -0.008018 -206429.000000 1 0 0
2.749420 -12.206282 -6.402164 14.054904 -1.349247 2.043743 -0.001264 -0.001449 54141.100000 1 0 0
-5.578380 1.522018 1.132136 5.892079 -0.266359 1.377449 0.001647 -0.003010 544841.000000 1 0 0
0.027820 6.922818 -3.979964 7.985380 1.566778 2.092556 0.006801 -0.004854 868584.000000 1 0 0
5.517820 -11.756282 3.700336 13.503666 -1.131967 1.293221 0.002558 -0.007069 -3065500.000000 1 0 0
-4.415380 -9.172682 1.084336 10.237649 1.122170 1.464681 0.009404 -0.003348 -953583.000000 1 0 0
7.142720 -6.160082 -4.680864 10.529746 -0.711665 2.031454 0.008330 -0.006395 -606817.000000 1 0 0
-7.003480 -5.968082 2.220836 9.465667 0.705746 1.333969 0.008368 -0.005332 -11267.900000 1 0 0
-6.236480 -0.719482 7.006636 9.407671 0.114859 0.730593 -0.006472 -0.000841 -1985400.000000 1 0 0
4.130820 -5.054182 3.198236 7.268916 -0.885591 1.115211 0.001121 -0.001444 -27210.800000 1 0 0
-2.514080 10.595118 -8.760964 13.976109 -1.337819 2.248304 0.006151 -0.000017 -1573520.000000 1 0 0
-2.323180 -4.934082 2.804736 6.132607 1.130745 1.095786 0.001294 -0.003513 175465.000000 1 0 0
15.149320 5.035918 6.364936 17.186471 0.320927 1.191415 0.023241 -0.006852 785252.000000 1 0 0
6.826420 0.240818 0.270336 6.836014 0.035263 1.531240 0.006867 -0.002148 4510230.000000 1 0 0
-9.770480 9.028518 0.395336 13.309121 -0.745950 1.541088 0.003267 -0.007398 -1218600.000000 1 0 0
7.079020 10.456418 -2.520064 12.876332 0.975672 1.767781 0.005330 -0.002940 164601.000000 1 0 0
1.742820 -4.253782 -5.330864 7.039190 -1.181947 2.429984 -0.003431 -0.002952 -194379.000000 1 0 0
0.950020 -8.130282 -7.847764 11.339816 -1.454474 2.335127 -0.002622 -0.001877 1184170.000000 1 0 0
-10.460980 0.146518 -10.424864 14.769271 -0.014005 2.354416 0.016681 -0.011348 -3439690.000000 1 0 0
5.787520 -2.432582 0.611336 6.307660 -0.397896 1.473724 0.006149 -0.002125 66627.800000 1 0 0
-3.397280 5.297918 -1.123064 6.393021 -1.000598 1.747383 0.003674 -0.006739 868178.000000 1 0 0
-0.351380 4.614618 -5.101864 6.888192 -1.494798 2.404861 0.006446 -0.003894 -1096550.000000 1 0 0
3.951320 -9.809882 10.106336 14.628217 -1.187887 0.808091 -0.000158 -0.002867 -1551050.000000 1 0 0
7.297320 -13.507382 -0.895964 15.378654 -1.075472 1.629090 0.022961 -0.005658 161097.000000 1 0 0
12.988620 -0.000082 0.500036 12.998242 -0.000006 1.532317 0.008052 -0.003224 450547.000000 1 0 0
9.259020 2.411218 -0.624964 9.588222 0.254760 1.636023 0.007097 -0.000610 434702.000000 1 0 0
-0.756880 -5.790582 4.504236 7.375083 1.440824 0.913805 0.001247 -0.002089 -663222.000000 1 0 0
11.445020 -3.815882 3.432936 12.543305 -0.321819 1.293572 0.013369 -0.007477 -2400690.000000 1 0 0
1.503320 -8.036182 11.719936 14.289755 -1.385865 0.609100 -0.001344 -0.004063 317145.000000 1 0 0
9.384520 -5.944382 -5.966364 12.609615 -0.564634 2.063670 0.006018 -0.008699 -1704320.000000 1 0 0
3.204720 6.382118 -0.040764 7.141661 1.105438 1.576504 0.000584 -0.002847 -69490.800000 1 0 0
6.357420 -1.429382 11.519536 13.234789 -0.221159 0.514786 0.009896 0.000481 541944.000000 1 0 0
-4.834080 -7.510782 -3.742364 9.684290 0.998920 1.967561 0.012693 -0.007639 464437.000000 1 0 0
-3.279780 -8.390782 -5.652764 10.635597 1.198178 2.131161 0.009232 -0.004134 -856203.000000 1 0 0
9.800120 5.374318 2.164836 11.384734 0.501609 1.379479 0.006181 -0.002560 -159955.000000 1 0 0
8.946820 -1.421182 0.341236 9.065417 -0.157532 1.533146 0.008990 -0.001659 1208960.000000 1 0 0
-3.885880 9.688718 9.182236 13.902689 -1.189366 0.849359 0.000315 -0.001129 -102232.000000 1 0 0
-14.416380 -3.635782 -6.177464 16.100062 0.247046 1.964587 0.010239 -0.007829 -819096.000000 1 0 0
10.647120 6.275518 -6.010564 13.743005 0.532596 2.023451 0.006802 -0.003765 -254943.000000 1 0 0
-1.832680 4.579118 2.591836 5.571773 -1.190096 1.086967 0.002791 -0.001489 417899.000000 1 0 0
7.001720 -3.683182 2.673936 8.351039 -0.484262 1.244864 0.006002 -0.003286 -1897090.000000 1 0 0
8.327820 -11.140482 -1.667664 14.008713 -0.928879 1.690124 0.018371 -0.005004 -1277270.000000 1 0 0
4.523120 0.480318 1.902336 4.930335 0.105795 1.174675 0.005124 -0.000599 80387.400000 1 0 0
-10.769180 2.344218 3.745336 11.640367 -0.214335 1.243215 -0.005525 -0.003452 -158509.000000 1 0 0
-0.868280 -3.041982 4.458336 5.466656 1.292757 0.617116 0.004033 -0.001901 305069.000000 1 0 0
8.707720 -8.622282 -8.407764 14.861313 -0.780468 2.172137 0.014446 -0.007345 -22924.300000 1 0 0
12.266720 -4.748782 1.088736 13.198814 -0.369360 1.488215 0.010863 -0.004370 263784.000000 1 0 0
2.859120 4.874518 3.448636 6.620316 1.040330 1.022871 -0.001488 -0.002222 -378798.000000 1 0 0
6.041420 7.449318 1.988836 9.795232 0.889382 1.366333 0.002000 -0.003737 -165697.000000 1 0 0
-1.564280 -1.307982 -10.327764 10.527132 0.696402 2.946664 0.010552 -0.009299 729241.000000 1 0 0
-0.829480 -8.651182 5.998836 10.560162 1.475208 0.966646 0.002038 -0.005411 -185959.000000 1 0 0
-4.228380 -0.214182 2.195636 4.769265 0.050610 1.092382 -0.000885 -0.001431 873675.000000 1 0 0
-8.476980 6.187518 -7.893064 13.131833 -0.630526 2.215627 0.004109 -0.001759 -769584.000000 1 0 0
6.384520 11.093818 -9.328764 15.838584 1.048584 2.200605 0.013209 -0.013533 -32609.300000 1 0 0
-11.224180 -5.828982 3.176236 13.040235 0.478987 1.324749 0.004243 0.002013 1154840.000000 1 0 0
1.546020 -6.347282 3.033436 7.202770 -1.331877 1.136085 0.000942 -0.002804 634690.000000 1 0 0
10.140520 2.224018 7.192336 12.629572 0.215902 0.964919 0.000115 -0.000998 -2090190.000000 1 0 0
-3.912980 -2.347182 -10.522064 11.468850 0.540306 2.732412 0.011990 -0.013817 -2134530.000000 1 0 0
-8.323780 11.819518 5.854136 15.596705 -0.957230 1.186028 0.014646 -0.008096 1726420.000000 1 0 0
6.886620 5.914418 -2.889864 9.526657 0.709597 1.878997 0.006890 -0.000706 -2838120.000000 1 0 0
3.886920 -9.842482 -2.420464 10.855471 -1.194683 1.795658 -0.000539 -0.005177 -379904.000000 1 0 0
8.485920 -12.814582 -7.373064 17.046596 -0.985887 2.018087 0.023214 -0.011223 146682.000000 1 0 0
-1.180280 9.489318 3.623236 10.225852 -1.447052 1.208608 0.000303 -0.000190 32642.100000 1 0 0
0.516420 -13.125982 4.694136 13.949660 -1.531473 1.227593 0.009215 -0.007835 -827422.000000 1 0 0
-11.395580 -7.094982 -5.128764 14.370186 0.556878 1.935747 0.010711 -0.007862 -107473.000000 1 0 0
3.534120 10.259118 -3.345264 11.354748 1.239042 1.869848 0.005932 -0.006041 -586198.000000 1 0 0
11.724720 -8.008382 -7.331164 15.979650 -0.599248 2.047419 0.033177 -0.015495 237772.000000 1 0 0
11.638620 -4.583982 -5.833064 13.801993 -0.375202 2.007136 0.017584 -0.011061 706828.000000 1 0 0
1.239720 -10.343682 -2.639164 10.746807 -1.451512 1.818911 -0.001387 -0.000762 -1154430.000000 1 0 0
2.332720 -12.066682 -3.828564 12.872618 -1.379833 1.872785 0.001148 -0.000190 -2182920.000000 1 0 0
-7.717180 -5.810382 7.247636 12.076574 0.645364 0.927120 0.000399 -0.004052 -2845450.000000 1 0 0
-7.238180 -0.809482 9.444336 11.926525 0.111372 0.656920 -0.006823 -0.000923 -179212.000000 1 0 0
16.201120 2.497418 -7.553564 18.049092 0.152947 2.002591 0.012308 0.004296 -494441.000000 1 0 0
-2.005480 6.292418 -5.477664 8.580284 -1.262261 2.263216 0.007624 -0.001504 -1098750.000000 1 0 0
7.759520 1.152018 8.453436 11.532470 0.147388 0.748057 0.006300 -0.003635 -788208.000000 1 0 0
7.813220 8.219518 -3.776764 11.952859 0.810735 1.892277 0.007001 -0.001671 -11921.700000 1 0 0
8.053020 0.623818 4.084736 9.051262 0.077309 1.102587 0.004050 -0.001027 -150699.000000 1 0 0
-6.992780 5.822018 5.425836 10.594081 -0.694291 1.033102 0.002140 -0.004235 152592.000000 1 0 0
-6.002780 -2.133382 -4.532964 7.818724 0.341477 2.189227 0.014786 -0.011720 -1089420.000000 1 0 0
-15.095180 -2.095382 3.065436 15.545159 0.137930 1.372300 0.014126 -0.001830 -2072570.000000 1 0 0
1.176720 1.166018 -10.508664 10.638435 0.780830 2.985240 0.006325 -0.006466 405502.000000 1 0 0
1.515520 -9.134282 9.345236 13.155430 -1.406378 0.780771 0.000880 -0.007235 -691794.000000 1 0 0
-0.223180 -6.712282 -1.210664 6.824240 1.537559 1.749147 0.000630 -0.002039 505812.000000 1 0 0
-0.363280 -10.268282 -8.371564 13.253402 1.535432 2.254481 -0.001101 -0.002437 -269920.000000 1 0 0
-4.435480 6.530618 3.757036 8.742870 -0.974179 1.126607 0.000727 0.000424 -166457.000000 1 0 0
10.759520 -1.107882 -8.588764 13.811645 -0.102606 2.241898 0.020524 -0.006979 -45580.700000 1 0 0
3.135620 -1.047482 6.224136 7.047638 -0.322403 0.488257 0.002493 -0.001542 805534.000000 1 0 0
2.104420 -12.310182 6.717836 14.180920 -1.401483 1.077282 0.004450 -0.007004 422242.000000 1 0 0
2.870820 -4.895082 -1.344964 5.832012 -1.040385 1.803509 0.007171 -0.003868 -1911930.000000 1 0 0
-1.218680 9.495118 -1.717064 9.725778 -1.443146 1.748274 0.004097 -0.008306 -9873.650000 1 0 0
4.527720 -2.546782 2.660936 5.836688 -0.512379 1.097415 0.006475 -0.001175 -1348020.000000 1 0 0
17.759220 6.712318 -2.643864 19.168598 0.361365 1.709164 0.030198 0.001092 -309896.000000 1 0 0
-7.116780 3.417618 -5.447364 9.591790 -0.447699 2.174772 0.007032 -0.005262 -455363.000000 1 0 0
-13.910580 -6.094982 2.381036 15.372780 0.412960 1.415284 0.007966 0.000808 240867.000000 1 0 0
6.643520 -6.147982 3.224036 9.608769 -0.746678 1.228628 0.003901 -0.004249 260394.000000 1 0 0
-4.596780 1.973718 3.517336 6.115358 -0.405566 0.957991 0.000015 -0.001554 1210650.000000 1 0 0
6.912620 -11.991682 -5.391964 14.854563 -1.047872 1.942264 0.016029 -0.005523 143622.000000 1 0 0
2.969520 -12.255182 3.369736 13.052305 -1.333071 1.309667 0.007930 -0.007868 -801560.000000 1 0 0
3.315420 11.309018 -5.981064 13.215863 1.285621 2.040438 0.002120 -0.001836 -464418.000000 1 0 0
-5.571180 -8.361882 6.439236 11.934105 0.983076 1.000875 0.007691 -0.005111 130687.000000 1 0 0
-3.996380 6.557818 6.331236 9.952918 -1.023489 0.881339 0.001950 0.000366 70558.200000 1 0 0
4.325620 4.248118 -6.988564 9.251893 0.776359 2.427009 0.002953 0.001089 -1640650.000000 1 0 0
-0.331480 -2.652782 1.662636 3.148252 1.446485 1.014418 0.001990 -0.002949 -909532.000000 1 0 0
-13.154580 -0.906182 6.522236 14.710666 0.068779 1.111444 0.004900 -0.004063 -785800.000000 1 0 0
-0.484780 -9.315482 -5.915164 11.045469 1.518803 2.135930 -0.000930 -0.001603 137237.000000 1 0 0
2.077220 -1.663482 -3.921264 4.739022 -0.675241 2.545333 0.000385 -0.001786 -1430950.000000 1 0 0
11.450620 -2.014882 1.196436 11.687939 -0.174180 1.468252 0.008022 -0.002739 1202660.000000 1 0 0
0.539720 -4.244882 -1.944964 4.700341 -1.444329 1.997412 0.000410 -0.003887 -1428480.000000 1 0 0
1.238520 -7.381182 -11.169464 13.445174 -1.404551 2.551235 -0.001436 -0.001224 703200.000000 1 0 0
-4.543980 3.975818 -9.931564 11.622859 -0.718810 2.595356 0.008362 -0.003081 586445.000000 1 0 0
-1.082980 5.850718 -2.050064 6.293370 -1.387766 1.902601 0.004019 -0.005290 -3255990.000000 1 0 0
-11.453580 1.598118 -4.015964 12.241995 -0.138635 1.905033 0.002063 -0.003811 -579167.000000 1 0 0
-1.855580 -11.150482 4.244236 12.074351 1.405895 1.211615 0.007715 -0.005029 -807260.000000 1 0 0
-3.548680 -5.388782 -9.665564 11.621327 0.988447 2.552975 0.008166 -0.008511 -619303.000000 1 0 0
-13.004480 -3.768582 -8.386264 15.926335 0.282065 2.125352 0.025754 -0.009015 -131164.000000 1 0 0
11.516520 4.537418 0.556636 12.390651 0.375316 1.525857 0.009763 -0.001375 247415.000000 1 0 0
-8.844680 -2.370482 -3.054164 9.652744 0.261858 1.892732 0.009800 -0.005316 -238410.000000 1 0 0
-2.477680 -5.988982 -6.319764 9.052415 1.178530 2.343579 0.003925 -0.007686 3616.880000 1 0 0
0.001020 2.750818 -1.809364 3.292537 1.570425 2.152604 0.002469 -0.005146 -526418.000000 1 0 0
8.056720 6.112818 -5.168064 11.357208 0.649060 2.043221 0.007378 -0.001340 -757557.000000 1 0 0
-9.773380 -0.950182 -1.056864 9.876171 0.096917 1.678013 0.002533 -0.001880 663415.000000 1 0 0
6.135720 0.572318 -8.814964 10.755380 0.093007 2.531485 0.001819 0.000684 543936.000000 1 0 0
-4.112280 2.490118 7.790836 9.154707 -0.544477 0.552872 -0.004342 0.001768 -617378.000000 1 0 0
-10.199380 -3.316482 1.493136 10.828474 0.314381 1.432466 0.004122 -0.000858 1129150.000000 1 0 0
-1.761580 -8.131782 -7.732764 11.358903 1.357464 2.319605 0.002093 -0.007163 -618302.000000 1 0 0
-9.380280 -9.749082 4.248236 14.180330 0.804675 1.266537 0.006786 -0.004257 -853771.000000 1 0 0
-1.077680 -10.733882 7.327336 13.040992 1.470732 0.974152 0.007748 -0.007949 -8614.580000 1 0 0
9.501320 3.849918 -3.820664 10.940495 0.384980 1.927537 0.006996 -0.001473 -522919.000000 1 0 0
12.813020 -0.659582 3.095636 13.198163 -0.051432 1.334040 0.009150 -0.004489 1482.460000 1 0 0
6.373220 11.831818 -6.790164 15.057097 1.076708 2.038638 0.004918 -0.005351 -117891.000000 1 0 0
-11.865380 -0.194482 -6.669864 13.612941 0.016389 2.082846 0.008644 -0.003454 323423.000000 1 0 0
-7.532980 -6.638982 -11.402364 15.193281 0.722399 2.419595 0.020825 -0.016925 -1131530.000000 1 0 0
4.187120 6.135018 6.535736 9.893749 0.971915 0.849189 -0.002421 0.000111 -2462270.000000 1 0 0
-4.226680 -1.478982 -7.304764 8.568068 0.336600 2.591654 0.011039 -0.014379 -596210.000000 1 0 0
9.603820 9.309518 0.869236 13.403584 0.769839 1.505900 0.010452 -0.001204 -2136040.000000 1 0 0
-8.836380 3.919618 4.774736 10.781610 -0.417500 1.112011 -0.001843 -0.002410 -602180.000000 1 0 0
-7.033080 7.933818 -12.118264 16.101615 -0.845508 2.422816 0.007934 -0.003493 -994608.000000 1 0 0
11.195220 -3.558082 7.213936 13.785274 -0.307726 1.020069 0.009919 -0.006520 306464.000000 1 0 0
11.900620 6.948518 6.388936 15.189640 0.528481 1.136677 0.005919 0.001306 141536.000000 1 0 0
-9.808780 -0.926082 -14.725764 17.717729 0.094135 2.551936 0.019838 -0.006247 606927.000000 1 0 0
1.756720 -12.897882 11.997236 17.702404 -1.435427 0.826142 -0.000535 -0.006177 450893.000000 1 0 0
2.837720 3.062318 13.028036 13.680649 0.823447 0.310121 0.009803 -0.002402 -1392410.000000 1 0 0
-2.569980 -1.357282 10.953136 11.332175 0.485897 0.259369 0.004933 -0.002712 -462173.000000 1 0 0
2.557620 -10.098282 -8.253864 13.290711 -1.322740 2.240846 -0.006543 0.000767 -1620050.000000 1 0 0
13.979620 3.677418 -7.412864 16.245114 0.257228 2.044644 0.010334 0.001055 -2445130.000000 1 0 0
7.395520 -1.515282 5.011336 9.061086 -0.202095 0.984762 0.004789 -0.002368 251349.000000 1 0 0
-1.184380 8.762618 10.130036 13.446332 -1.436448 0.717628 -0.003953 0.000015 -268468.000000 1 0 0
-12.304080 -4.707282 1.009836 13.212443 0.365399 1.494291 0.004713 0.001773 151391.000000 1 0 0
-4.916080 4.820718 -5.273164 8.672567 -0.775605 2.224371 0.008837 -0.003476 109639.000000 1 0 0
-11.150680 0.288718 1.957036 11.324796 -0.025887 1.397115 -0.004693 -0.001345 -2408060.000000 1 0 0
-1.213480 2.315818 -4.056564 4.826102 -1.088137 2.569088 0.006040 -0.007983 898386.000000 1 0 0
2.974620 -9.759082 13.135336 16.632050 -1.274937 0.660378 0.003090 -0.003381 -900719.000000 1 0 0
8.955920 4.697218 -1.456264 10.217293 0.483041 1.713813 0.007697 -0.002691 -1426570.000000 1 0 0
4.075120 2.289818 3.870236 6.068657 0.511935 0.879233 -0.000291 0.000733 406692.000000 1 0 0
-5.583480 -3.320582 7.427036 9.867237 0.536525 0.718648 0.001890 -0.004128 -139913.000000 1 0 0
1.852020 -5.771582 7.689636 9.791406 -1.260290 0.667542 0.000334 -0.002640 -1326840.000000 1 0 0
-5.884480 -6.231182 -9.584864 12.857852 0.814006 2.412004 0.013564 -0.011659 -1051960.000000 1 0 0
-11.746680 -5.744482 5.543836 14.202735 0.454833 1.169800 0.006018 -0.000717 -2718130.000000 1 0 0
10.596720 6.186718 4.466136 13.058037 0.528447 1.221729 0.000309 0.001284 -585136.000000 1 0 0
1.298420 -3.737982 0.442436 3.981728 -1.236477 1.459450 0.010702 -0.002739 -674747.000000 1 0 0
8.853020 4.378318 6.986336 12.097707 0.459283 0.955142 0.002413 0.003026 -961474.000000 1 0 0
-7.936180 12.227418 3.434736 14.976318 -0.995091 1.339392 0.009584 -0.009217 97905.800000 1 0 0
-6.312780 13.221118 -7.065964 16.265823 -1.125329 2.020175 0.017608 -0.007367 387219.000000 1 0 0
4.358620 -6.887082 -1.068064 8.220111 -1.006558 1.701098 0.004158 -0.005932 -1551320.000000 1 0 0
-1.806880 -8.123782 11.061036 13.842224 1.351940 0.645034 -0.000398 -0.009883 -144472.000000 1 0 0
11.531020 8.850318 -5.807264 15.653015 0.654622 1.950882 0.023032 -0.008785 707200.000000 1 0 0
-3.324380 -2.906282 -1.927864 4.818157 0.718395 1.982449 0.008102 -0.008026 -1570700.000000 1 0 0
-2.087280 6.036518 4.647436 7.899047 -1.237890 0.941775 0.001578 0.000967 -117673.000000 1 0 0
0.406620 -11.478982 -5.674364 12.811353 -1.535388 2.029646 -0.003177 -0.004191 -1096610.000000 1 0 0
-8.949980 6.324418 -1.555864 11.068926 -0.615169 1.711825 0.004081 -0.005002 -621331.000000 1 0 0
2.916520 -0.001682 3.971136 4.927069 -0.000577 0.633462 0.001063 -0.000327 16634.200000 1 0 0
-10.037080 3.916618 -1.073764 10.827550 -0.372043 1.670129 0.005003 -0.004251 -362842.000000 1 0 0
6.519220 5.509418 13.606136 16.061782 0.701645 0.560269 0.013310 0.000347 -192136.000000 1 0 0
-8.644580 -1.713282 5.759436 10.527830 0.195656 0.991939 -0.002830 -0.002474 -173192.000000 1 0 0
12.884120 -1.828082 -1.336364 13.081602 -0.140946 1.673131 0.013424 -0.004435 -861291.000000 1 0 0
5.196420 -5.548482 5.408236 9.329386 -0.818152 0.952437 0.000310 -0.003379 -88583.800000 1 0 0
-8.972780 -1.291682 3.223036 9.621184 0.142973 1.229198 -0.003111 -0.000865 443690.000000 1 0 0
2.006920 5.349218 5.581636 7.987272 1.211868 0.797055 0.000004 0.000088 -595016.000000 1 0 0
9.323120 3.149418 -7.391064 12.307202 0.325772 2.214982 0.006740 -0.001251 -489010.000000 1 0 0
2.270620 -2.333782 -1.448364 3.563708 -0.799115 1.989329 0.001855 -0.003281 172228.000000 1 0 0
-6.282480 0.311118 -3.996464 7.452387 -0.049481 2.136804 0.004686 -0.005856 -1942190.000000 1 0 0
-4.039680 4.207218 4.933336 7.639208 -0.805711 0.868737 0.000413 0.000121 581717.000000 1 0 0
-6.332780 1.760718 -12.333764 13.975907 -0.271183 2.651952 0.009136 -0.006590 -3657300.000000 1 0 0
-0.260180 3.119018 6.180236 6.927574 -1.487572 0.468778 0.003414 -0.000615 1657440.000000 1 0 0
-8.771680 9.367918 -2.068664 12.999216 -0.818256 1.730613 0.006245 -0.002482 1460430.000000 1 0 0
-1.244980 -3.664382 -6.073564 7.201795 1.243280 2.574266 -0.001777 -0.006033 435355.000000 1 0 0
-3.357280 7.039118 -2.993264 8.353451 -1.125761 1.937271 0.006246 -0.004000 666043.000000 1 0 0
7.227420 -0.451882 -4.342664 8.443846 -0.062442 2.110987 0.005100 -0.000516 -112337.000000 1 0 0
-5.103780 -10.837082 6.875336 13.811631 1.130653 1.049744 0.006202 -0.009180 171603.000000 1 0 0
9.606920 8.458618 -1.502364 12.887910 0.721920 1.687634 0.010513 -0.001923 351055.000000 1 0 0
13.832520 4.531518 -4.471264 15.227129 0.316581 1.868827 0.009871 -0.004563 716020.000000 1 0 0
4.626020 1.113218 -6.760164 8.266749 0.236153 2.528294 0.000902 0.000778 -329571.000000 1 0 0
8.978420 -4.856782 3.648236 10.840202 -0.495860 1.227549 0.007286 -0.004891 -501905.000000 1 0 0
-8.838480 -3.354482 -0.723964 9.481318 0.362738 1.647228 0.003770 -0.002118 237499.000000 1 0 0
-8.610080 -4.318582 -10.417564 14.188350 0.464905 2.395334 0.016812 -0.017463 529107.000000 1 0 0
10.520020 -1.125782 10.633336 15.000201 -0.106608 0.782888 0.008079 -0.000205 267943.000000 1 0 0
2.035420 -11.546482 9.830336 15.300316 -1.396308 0.873050 -0.001264 -0.007074 444899.000000 1 0 0
-6.350480 -10.528782 2.045536 12.464673 1.028061 1.405944 0.010597 -0.002561 -797796.000000 1 0 0
-3.748680 -1.500482 6.644336 7.775040 0.380739 0.546069 0.004333 -0.002908 -825538.000000 1 0 0
4.676220 -7.567982 3.868236 9.700754 -1.017322 1.160636 0.000278 -0.001126 265858.000000 1 0 0
11.605820 -9.396382 -5.305864 15.847374 -0.680583 1.912200 0.028606 -0.011589 386498.000000 1 0 0
11.380620 1.223918 11.504336 16.228562 0.107132 0.782867 0.001449 0.003874 -23007.600000 1 0 0
-10.227280 -3.491482 4.400336 11.668361 0.328983 1.184115 0.001961 -0.002390 1883530.000000 1 0 0
2.138120 8.717518 8.927436 12.659612 1.330277 0.788105 -0.007227 0.004048 141857.000000 1 0 0
6.644520 8.731418 4.066236 11.701350 0.920299 1.215891 0.001944 -0.000506 672705.000000 1 0 0
-4.235480 3.598018 0.446536 5.575340 -0.704201 1.490619 0.003274 -0.005797 -1673190.000000 1 0 0
4.881020 6.860918 4.176636 9.398981 0.952444 1.110324 0.001128 -0.002008 -1370910.000000 1 0 0
-8.359580 12.994318 0.993436 15.482952 -0.999127 1.506589 0.008671 -0.004346 259349.000000 1 0 0
8.871420 8.188018 -9.102664 15.119664 0.745360 2.216852 0.008432 -0.006889 -1550600.000000 1 0 0
7.114020 2.076418 6.114436 9.607659 0.283988 0.880958 0.002578 -0.000272 -666076.000000 1 0 0
11.557420 -6.268282 3.118336 13.512562 -0.496959 1.337924 0.012365 -0.003361 -233449.000000 1 0 0
11.430320 4.748818 -2.113564 12.556697 0.393761 1.739923 0.007365 -0.001794 447458.000000 1 0 0
-4.018980 14.298118 -6.087064 16.051191 -1.296782 1.959758 0.007736 -0.001134 -586048.000000 1 0 0
7.239420 -2.986582 6.939336 10.463425 -0.391273 0.845711 0.005934 -0.005415 -540984.000000 1 0 0
-7.945780 -0.500882 0.865136 8.008418 0.062954 1.462557 0.002848 -0.002861 392425.000000 1 0 0
-3.237880 1.068118 10.673736 11.205060 -0.318641 0.309185 -0.000222 0.001381 -119170.000000 1 0 0
7.089420 -1.246882 -1.829564 7.427106 -0.174099 1.819694 0.009384 -0.002260 -1344270.000000 1 0 0
-7.813980 5.498318 2.939436 9.996503 -0.613172 1.272339 -0.000105 -0.002359 661025.000000 1 0 0
9.479820 -2.264882 2.931636 10.177975 -0.234520 1.278620 0.005739 -0.003259 -1586760.000000 1 0 0
0.315020 3.521318 1.573736 3.869827 1.481573 1.151992 0.000756 -0.001796 -2671950.000000 1 0 0
-7.535080 -3.089582 4.014136 9.079440 0.389120 1.112844 0.001709 -0.002628 615155.000000 1 0 0
-2.259380 8.397618 -6.621564 10.930229 -1.307970 2.221571 0.006828 -0.001821 -424554.000000 1 0 0
4.447920 9.833718 7.316836 13.039252 1.146020 0.975035 -0.003443 0.005319 -1049910.000000 1 0 0
-11.862980 -3.188782 6.905636 14.092070 0.262594 1.058664 0.004264 -0.002885 -553568.000000 1 0 0
-4.754480 2.209418 -5.604664 7.674560 -0.435013 2.389545 0.008642 -0.007422 -251971.000000 1 0 0
-2.711980 2.956818 -1.829664 4.409680 -0.828562 1.998651 0.004333 -0.005867 876736.000000 1 0 0
2.249220 5.215318 11.485436 12.813031 1.163625 0.459246 0.007623 -0.002488 406420.000000 1 0 0
-0.713980 1.602418 4.485336 4.816196 -1.151637 0.372824 0.004071 -0.002844 -859142.000000 1 0 0
5.157720 1.599218 7.773836 9.465310 0.300663 0.607115 0.002621 0.000986 -336317.000000 1 0 0
3.374320 -8.140282 1.774936 8.988917 -1.177835 1.372032 0.001415 -0.001055 1896240.000000 1 0 0
5.017520 6.418918 -4.547864 9.330653 0.907328 2.079919 0.004782 -0.001469 -3115670.000000 1 0 0
-4.086980 2.768018 -7.940964 9.350093 -0.595312 2.585440 0.012378 -0.008535 -479710.000000 1 0 0
-8.662280 -2.220082 -12.777064 15.595423 0.250893 2.530956 0.020688 -0.013531 -44258.800000 1 0 0
-7.906980 8.194318 1.671836 11.509223 -0.803242 1.425020 0.005685 -0.002518 -293545.000000 1 0 0
7.362920 1.013318 -6.524864 9.890059 0.136765 2.291269 0.002295 -0.000115 963328.000000 1 0 0
9.001920 8.785018 5.478236 13.719409 0.773204 1.160037 -0.002238 0.004670 400853.000000 1 0 0
9.403320 -1.057582 -1.302464 9.551823 -0.111998 1.707580 0.009190 -0.003255 1123680.000000 1 0 0
5.454120 0.160618 4.374636 6.993616 0.029440 0.895000 0.001795 -0.000687 -780802.000000 1 0 0
-4.123780 -7.240082 -7.867764 11.459758 1.053048 2.327538 0.014257 -0.012288 354242.000000 1 0 0
-2.292280 7.494918 -0.586864 7.859564 -1.273986 1.645535 0.004122 -0.005694 346140.000000 1 0 0
13.439120 -3.166582 -7.242764 15.591499 -0.231403 2.053903 0.022229 -0.011699 753914.000000 1 0 0
-4.795880 -4.993782 1.588736 7.103689 0.805611 1.345239 0.007502 -0.004888 1890350.000000 1 0 0
-8.881980 1.275318 2.545536 9.327151 -0.142610 1.294373 -0.002743 -0.001106 -601962.000000 1 0 0
-1.012580 11.198518 10.224536 15.197804 -1.480621 0.832858 -0.006578 -0.004004 243208.000000 1 0 0
-8.506880 0.368418 7.380736 11.268451 -0.043281 0.856625 -0.006475 -0.001637 -622053.000000 1 0 0
-6.146580 12.806618 -2.258564 14.383707 -1.123314 1.728471 0.005381 -0.005012 474808.000000 1 0 0
-12.947680 -0.795782 3.218436 13.365404 0.061384 1.327603 0.006132 -0.003291 297726.000000 1 0 0
-6.621480 12.728518 8.751336 16.806101 -1.091113 1.023098 0.011909 -0.013231 1843280.000000 1 0 0
-7.974580 0.856018 -13.999964 16.134612 -0.106934 2.621348 0.009563 -0.007373 69295.100000 1 0 0
7.273720 2.832318 3.777836 8.671855 0.371327 1.120043 0.001851 0.000528 -557006.000000 1 0 0
-1.591280 0.726618 -2.118764 2.747600 -0.428350 2.451415 0.003171 -0.006384 604740.000000 1 0 0
-6.277880 9.681118 -10.340164 15.493702 -0.995500 2.301479 0.009793 -0.001826 -1209.700000 1 0 0
-10.078780 13.587918 5.258436 17.716220 -0.932599 1.269441 0.011194 -0.011455 825709.000000 1 0 0
-5.557780 8.458118 2.351736 10.390348 -0.989450 1.342479 0.004318 -0.002770 -1133290.000000 1 0 0
-2.437780 -10.693782 -1.203664 11.033973 1.346664 1.680101 0.004698 -0.000490 -365544.000000 1 0 0
-2.264480 -12.346782 8.837736 15.351758 1.389406 0.957358 0.007669 -0.010593 534483.000000 1 0 0
-14.758280 -6.592082 -1.809364 16.264568 0.420081 1.682273 0.013962 -0.000602 594555.000000 1 0 0
-2.701580 -9.267482 3.347836 10.217278 1.287145 1.236966 0.006207 -0.005297 777618.000000 1 0 0
4.751420 -2.681082 7.480636 9.258731 -0.513733 0.630124 0.003597 -0.000386 -413361.000000 1 0 0
-15.029380 -1.282482 -0.371864 15.088582 0.085125 1.595444 0.006567 -0.004413 58532.000000 1 0 0
5.419020 8.766718 -2.738664 10.664024 1.017148 1.830520 0.005118 -0.002594 -847146.000000 1 0 0
-5.708080 -5.700782 8.564036 11.765364 0.784759 0.755539 0.005964 -0.004640 -4163490.000000 1 0 0
3.544920 3.618018 7.036536 8.670026 0.795603 0.623922 -0.000537 -0.000070 301897.000000 1 0 0
3.339220 2.301518 9.401636 10.239049 0.603467 0.407249 0.009449 -0.004123 558231.000000 1 0 0
9.901720 -3.190482 5.210836 11.635121 -0.311711 1.106433 0.011521 -0.004870 -526534.000000 1 0 0
6.394620 9.964518 -4.983664 12.845999 1.000250 1.969208 0.001692 -0.001641 1172680.000000 1 0 0
-4.585980 12.047718 -8.461264 15.419848 -1.207080 2.151635 0.011170 -0.006764 -689529.000000 1 0 0
-3.354580 -7.222982 2.081336 8.231442 1.136006 1.315170 0.006374 -0.004302 1079600.000000 1 0 0
-7.471280 -3.980282 1.077536 8.533683 0.489499 1.444190 0.005860 -0.002422 2388670.000000 1 0 0
-2.004380 -3.953282 -10.840064 11.711233 1.101551 2.753447 0.009878 -0.009579 -863504.000000 1 0 0
-5.297380 8.244818 -4.492464 10.780607 -0.999704 2.000627 0.011328 -0.005141 -1614850.000000 1 0 0
-10.987080 -3.319982 -10.061664 15.263528 0.293448 2.290546 0.026309 -0.013296 -1705990.000000 1 0 0
4.726220 -11.381782 -7.619664 14.489355 -1.177218 2.124546 0.003455 -0.005672 -180415.000000 1 0 0
-9.399680 -3.992582 7.324236 12.567383 0.401665 0.948630 -0.002443 -0.001335 -1074390.000000 1 0 0
-5.578880 -9.574682 -5.269064 12.270349 1.043217 2.014641 0.011623 -0.007354 903701.000000 1 0 0
4.898820 4.350818 -9.569164 11.597282 0.726222 2.541213 0.000185 0.006098 310316.000000 1 0 0
-3.335980 -7.197482 -14.029064 16.116673 1.136779 2.626951 0.004852 -0.002864 -239992.000000 1 0 0
0.685120 -0.871782 -8.777264 8.847020 -0.904722 3.015934 0.004234 -0.009463 -636796.000000 1 0 0
-7.733480 2.163218 -2.887764 8.533780 -0.272750 1.916004 0.005917 -0.006389 -83260.400000 1 0 0
-2.410180 7.436618 -12.528264 14.767182 -1.257382 2.583724 0.009456 -0.000102 88605.000000 1 0 0
-9.797080 8.812118 7.595936 15.209682 -0.732519 1.047874 0.007961 -0.013326 -121478.000000 1 0 0
-10.464780 -3.275982 -14.194764 17.936973 0.303384 2.483841 0.037491 -0.006597 -683378.000000 1 0 0
-3.278680 4.880118 8.008036 9.934482 -0.979218 0.633290 -0.000710 0.001448 166042.000000 1 0 0
8.774120 -2.419382 -3.481364 9.744665 -0.269055 1.936127 0.007863 -0.001292 -5728170.000000 1 0 0
1.884220 -8.342382 -1.232964 8.640939 -1.348662 1.713974 0.000663 -0.000923 -87281.200000 1 0 0
-13.617380 -2.792482 5.045836 14.788220 0.202263 1.222596 0.017867 -0.003843 -9059.370000 1 0 0
7.009420 2.833618 -1.900564 7.795736 0.384172 1.817074 0.006504 -0.001617 -374084.000000 1 0 0
-11.051580 4.460618 8.852236 14.845761 -0.383622 0.931937 0.000455 -0.009524 -1498750.000000 1 0 0
-1.714980 -2.533382 7.926436 8.496327 0.975706 0.368344 0.003711 -0.003729 -1012290.000000 1 0 0
2.924420 11.839018 -9.850564 15.676358 1.328629 2.250253 0.001047 -0.006607 605984.000000 1 0 0
3.734720 -4.988582 -7.050064 9.409436 -0.928157 2.417732 -0.004701 -0.003697 430910.000000 1 0 0
8.293820 -13.812682 -9.748364 18.831045 -1.030046 2.114928 0.027050 -0.006617 65541.400000 1 0 0
-6.287380 -5.733782 -0.407864 8.519023 0.739379 1.618692 0.012685 -0.004947 303580.000000 1 0 0
-1.306180 -4.015582 9.926336 10.787175 1.256313 0.402211 0.002261 -0.003030 -181825.000000 1 0 0
2.834220 3.306318 1.849436 4.731274 0.862129 1.169192 -0.002038 -0.001593 -1343690.000000 1 0 0
-9.218980 13.349118 7.735136 17.972781 -0.966403 1.125882 0.020948 -0.017820 1072660.000000 1 0 0
4.058220 -11.032682 -0.139964 11.756224 -1.218321 1.582702 0.002707 -0.001841 -86389.300000 1 0 0
-12.586880 -1.491382 -9.095964 15.600972 0.117937 2.193260 0.020007 -0.007274 -132735.000000 1 0 0
-4.190580 0.988318 -13.464164 14.135822 -0.231610 2.832091 0.006019 -0.006102 494411.000000 1 0 0
3.818120 -3.247382 4.966536 7.056204 -0.704795 0.789988 0.001223 0.001607 -214095.000000 1 0 0
1.780620 -1.242182 1.107436 2.437219 -0.609121 1.099115 0.001333 -0.001680 790110.000000 1 0 0
8.216420 -8.974882 7.387836 14.235104 -0.829489 1.025131 0.006784 -0.003808 -1647670.000000 1 0 0
-0.117480 2.423218 -6.488964 6.927658 -1.522353 2.783808 0.005020 -0.007780 -618550.000000 1 0 0
-3.770880 -9.730482 -3.374864 10.967749 1.201084 1.883580 0.008350 -0.002536 751204.000000 1 0 0
-9.445480 2.178618 -5.339064 11.066575 -0.226687 2.074245 0.005056 -0.003556 -1750740.000000 1 0 0
8.985620 -7.585482 5.343536 12.916435 -0.701106 1.144281 0.004010 -0.003424 872914.000000 1 0 0
-5.461980 -4.248282 4.620136 8.320263 0.661052 0.982088 0.003941 -0.004076 -1446110.000000 1 0 0
-0.260780 -12.429082 10.474336 16.256131 1.549818 0.870648 0.006496 -0.006249 -1320670.000000 1 0 0
-14.441580 -8.410482 3.178736 17.011755 0.527363 1.382836 0.022343 -0.001906 -1342840.000000 1 0 0
10.862920 -1.152082 -3.509364 11.473708 -0.105661 1.881639 0.014417 -0.003220 -488643.000000 1 0 0
-13.582080 3.023918 2.700836 14.174325 -0.219067 1.379080 0.005995 -0.004765 -479467.000000 1 0 0
-6.431380 6.243518 1.074936 9.027716 -0.770578 1.451443 0.001009 -0.003993 310981.000000 1 0 0
7.001320 -6.791082 -0.406864 9.762316 -0.770156 1.612485 0.004000 -0.005399 721949.000000 1 0 0
-6.909880 7.879118 10.041936 14.514386 -0.850842 0.806733 0.005414 -0.005077 445659.000000 1 0 0
-12.717980 -5.170682 -1.950664 13.866797 0.386153 1.711936 0.008175 -0.002968 -1103210.000000 1 0 0
-9.465080 -5.606682 0.286136 11.004749 0.534779 1.544792 0.009695 -0.001935 -760170.000000 1 0 0
-1.680780 1.900418 2.139436 3.318704 -0.846652 0.870218 0.002871 -0.002239 -37576.200000 1 0 0
-7.030680 7.428018 7.534536 12.703352 -0.812872 0.935875 0.003378 -0.006158 -86606.600000 1 0 0
5.634020 7.215418 -0.392064 9.162868 0.907854 1.613598 0.005896 -0.003911 -1576670.000000 1 0 0
-0.063280 -4.082982 7.612336 8.638426 1.555299 0.492364 0.002804 -0.002935 -696265.000000 1 0 0
6.499420 0.686418 13.142036 14.677423 0.105222 0.461487 0.010862 -0.000034 742880.000000 1 0 0
5.804420 6.046018 -7.954764 11.555254 0.805783 2.330092 -0.000690 0.001684 -736131.000000 1 0 0
9.934420 5.342018 9.179036 14.542509 0.493373 0.887714 -0.000551 0.000868 -2128200.000000 1 0 0
-1.270180 -4.919282 -8.406864 9.822834 1.318111 2.597987 0.004919 -0.008983 515841.000000 1 0 0
9.929820 -3.471882 -7.904164 13.157929 -0.336356 2.215191 0.017835 -0.013385 464145.000000 1 0 0
8.376820 -5.474182 1.294036 10.090209 -0.578826 1.442195 0.007683 -0.004525 1054970.000000 1 0 0
15.909020 3.135918 -4.949264 16.953646 0.194621 1.867040 0.020186 0.003757 -320227.000000 1 0 0
-6.894280 3.724518 1.104636 7.913492 -0.495314 1.430750 0.000992 -0.003404 735286.000000 1 0 0
-1.734080 3.908418 0.261636 4.283832 -1.153212 1.509683 0.002969 -0.004971 -1564420.000000 1 0 0
-2.577080 10.092518 6.878836 12.482734 -1.320793 0.987153 0.000120 0.001262 709390.000000 1 0 0
5.532420 -5.759082 -8.697864 11.807944 -0.805469 2.398842 0.002141 -0.006022 -1541670.000000 1 0 0
-1.237580 -0.836382 6.187436 6.365179 0.594313 0.236876 0.005775 -0.004284 710916.000000 1 0 0
-5.707180 4.819918 -7.729864 10.749619 -0.701313 2.373278 0.006978 -0.003112 -72619.700000 1 0 0
6.810220 -1.199682 2.605736 7.389736 -0.174370 1.210432 0.005494 -0.000130 -914560.000000 1 0 0
8.824120 7.542418 3.131236 12.023219 0.707245 1.307326 0.003924 -0.000756 -153648.000000 1 0 0
-5.350980 -4.833482 -7.725864 10.568089 0.734629 2.390665 0.016238 -0.015918 1524800.000000 1 0 0
-2.306180 7.806818 -9.981664 12.880159 -1.283560 2.457455 0.009879 0.000440 552287.000000 1 0 0
-2.918180 -2.308682 1.775036 4.122686 0.669314 1.125691 -0.001110 -0.001464 -608856.000000 1 0 0
6.052820 -2.006682 -9.156764 11.158393 -0.320125 2.533286 0.001267 -0.002370 1131730.000000 1 0 0
1.170020 -7.554882 5.187536 9.238816 -1.417148 0.974607 0.000940 -0.002162 355616.000000 1 0 0
1.649620 11.948218 1.203136 12.121415 1.433600 1.471376 0.004978 -0.008555 -481818.000000 1 0 0
-1.016380 7.077518 2.433336 7.552841 -1.428165 1.242770 0.002315 -0.001698 894827.000000 1 0 0
8.803220 7.915518 -6.586464 13.547458 0.732352 2.078506 0.011444 -0.004422 -464450.000000 1 0 0
3.843520 -10.925282 5.490236 12.817064 -1.232518 1.128126 0.008548 -0.002590 -248775.000000 1 0 0
7.921520 -7.209782 12.402036 16.387249 -0.738395 0.712377 0.019749 -0.001572 -105420.000000 1 0 0
-8.743880 0.028518 -3.858464 9.557405 -0.003261 1.986370 0.007685 -0.007621 -680897.000000 1 0 0
-3.405780 -4.930282 11.127836 12.638661 0.966280 0.493965 0.002625 -0.005223 133125.000000 1 0 0
-8.159880 0.164218 -11.478164 14.083993 -0.020122 2.523490 0.015784 -0.012404 -1414160.000000 1 0 0
1.315620 -4.998582 5.410736 7.482830 -1.313434 0.762536 0.002168 -0.001729 -793735.000000 1 0 0
6.717420 3.725418 -7.705464 10.880103 0.506361 2.357765 0.002003 0.002628 226824.000000 1 0 0
16.391220 4.250918 -1.339564 16.986372 0.253751 1.649739 0.027437 0.003047 -666121.000000 1 0 0
7.859320 7.496018 0.189336 10.862553 0.761743 1.553365 0.005761 -0.002945 -2690240.000000 1 0 0
5.318020 -10.395282 13.912536 18.163201 -1.097928 0.698242 0.010205 -0.003513 28864.900000 1 0 0
-4.873380 -9.338382 8.970536 13.835668 1.089810 0.865364 -0.002940 -0.010490 638265.000000 1 0 0
-12.608580 -3.228182 2.837036 13.320894 0.250646 1.356176 0.004818 0.001114 19784.900000 1 0 0
-2.034380 -1.320582 -5.726864 6.219294 0.575765 2.740980 0.007768 -0.011324 -632543.000000 1 0 0
-2.653580 13.086718 -4.329964 14.037531 -1.370740 1.884366 0.002718 -0.000281 423881.000000 1 0 0
3.834520 -0.359782 -4.898464 6.231207 -0.093553 2.475299 0.002774 -0.000459 -41802.700000 1 0 0
-8.885280 3.761318 -7.372864 12.143098 -0.400447 2.223284 0.009210 -0.004939 -98858.800000 1 0 0
-4.626580 7.986418 -11.249564 14.551316 -1.045732 2.454504 0.006816 -0.000484 -1022970.000000 1 0 0
-10.166280 -6.441882 7.437836 14.148233 0.564797 1.017249 0.003050 -0.001993 -2676210.000000 1 0 0
8.084820 5.288918 4.126036 10.505291 0.579307 1.167168 0.000384 0.000456 -1598570.000000 1 0 0
-6.697980 -7.471282 4.084736 10.833654 0.839920 1.184196 0.011992 -0.006060 -809703.000000 1 0 0
-4.018980 11.871518 8.092936 14.919140 -1.244367 0.997442 0.000776 -0.006154 -260120.000000 1 0 0
-7.368980 9.992318 -7.943564 14.739352 -0.935366 2.139970 0.010153 -0.003555 -411209.000000 1 0 0
13.148520 5.476218 4.646236 14.981991 0.394640 1.255476 0.005366 -0.000215 -1046300.000000 1 0 0
5.353120 3.930518 -3.680864 7.592999 0.633343 2.076897 0.003915 -0.000286 199750.000000 1 0 0
-2.846280 -4.190082 5.126536 7.206904 0.974105 0.779398 0.003016 -0.003222 -1444780.000000 1 0 0
12.457420 -2.257882 -5.078164 13.640861 -0.179301 1.952256 0.015919 -0.007288 -2371020.000000 1 0 0
-5.204380 9.831618 6.954936 13.119353 -1.083944 1.012045 0.003200 -0.000982 -153454.000000 1 0 0
1.784720 3.911618 -0.463764 4.324472 1.142748 1.678245 -0.000677 -0.003321 413229.000000 1 0 0
-0.038880 9.626418 7.681236 12.315471 -1.566757 0.897321 -0.006254 0.004215 -33189.400000 1 0 0
-5.595780 2.205118 5.859036 8.396642 -0.375382 0.798498 -0.004737 0.000516 724074.000000 1 0 0
8.984220 1.006518 10.702536 14.009767 0.111567 0.701409 0.009754 0.000507 -430567.000000 1 0 0
0.459520 -2.948382 -10.156164 10.585452 -1.416185 2.855825 0.001486 -0.006671 -2054370.000000 1 0 0
1.145120 10.562718 -2.728364 10.969334 1.462807 1.822162 0.006087 -0.007000 94203.800000 1 0 0
2.289020 -4.268182 11.585336 12.556950 -1.078533 0.395969 0.002455 -0.000658 260643.000000 1 0 0
6.583020 -3.021082 9.463736 11.917440 -0.430247 0.653258 0.008354 -0.003701 291303.000000 1 0 0
-10.783780 -8.246482 5.782536 14.755748 0.652850 1.168118 0.011907 -0.004129 -550041.000000 1 0 0
-2.871780 0.740418 -6.790764 7.410116 -0.252330 2.729833 0.008196 -0.010576 1172260.000000 1 0 0
11.235320 2.704518 -4.977964 12.582804 0.236222 1.977535 0.006427 -0.002941 -2921970.000000 1 0 0
-1.977180 -3.952182 -0.033364 4.419287 1.106928 1.578346 0.001114 -0.004431 1076710.000000 1 0 0
-1.200680 -6.362582 -10.575064 12.399841 1.384280 2.592194 0.004493 -0.005169 708549.000000 1 0 0
0.351020 6.855018 -6.605064 9.525826 1.519635 2.336972 0.007678 -0.001206 -1785600.000000 1 0 0
1.998220 3.839818 -6.138764 7.511425 1.090967 2.527431 0.002623 -0.001696 -2649880.000000 1 0 0
1.640320 -14.746682 6.273736 16.109471 -1.460019 1.170769 0.019627 -0.010417 -229760.000000 1 0 0
-1.615280 5.349318 -10.621864 12.002014 -1.277542 2.657305 0.011573 -0.000501 133751.000000 1 0 0
13.724220 4.379518 -0.788964 14.427642 0.308894 1.625508 0.010238 -0.002754 1420980.000000 1 0 0
-2.377480 3.238618 -6.077464 7.285371 -0.937547 2.557479 0.009260 -0.006421 -694358.000000 1 0 0
5.575620 7.853118 14.175836 17.138066 0.953398 0.596770 0.010323 -0.003131 727041.000000 1 0 0
16.052720 0.602218 -5.744364 17.060194 0.037497 1.914219 0.018406 0.003306 -52827.300000 1 0 0
6.137520 -8.271182 10.559936 14.751063 -0.932411 0.772918 0.008542 0.001929 607965.000000 1 0 0
0.024120 -5.879182 -6.365364 8.665058 -1.566694 2.395875 -0.000816 -0.005138 -1988840.000000 1 0 0
8.657220 5.557918 -7.557964 12.765608 0.570729 2.204405 0.005837 0.000384 -455440.000000 1 0 0
-16.023780 -0.830282 5.337336 16.909703 0.051769 1.249668 0.030420 -0.011603 -708069.000000 1 0 0
-0.344480 3.950418 -12.316364 12.938984 -1.483815 2.830110 0.011580 -0.002643 511949.000000 1 0 0
-11.237380 3.733418 5.771436 13.172949 -0.320759 1.117281 0.001939 -0.008650 -333750.000000 1 0 0
5.093720 -9.741282 -9.572964 14.576701 -1.088997 2.287271 -0.007554 0.000099 -284801.000000 1 0 0
1.509920 11.067418 -11.776864 16.231517 1.435204 2.382637 0.001949 0.000651 -3406040.000000 1 0 0
5.861320 2.345818 1.253836 6.436617 0.380696 1.374746 0.003871 -0.000650 -214119.000000 1 0 0
5.670720 4.499118 4.906736 8.745009 0.670700 0.975094 -0.001453 -0.000065 72620.300000 1 0 0
0.410320 -1.503882 -6.328864 6.518017 -1.304439 2.900091 0.002410 -0.005460 174999.000000 1 0 0
12.852920 6.895018 -4.596264 15.292628 0.492385 1.876070 0.017162 -0.004634 -660048.000000 1 0 0
7.468820 3.176218 12.757436 15.120311 0.402094 0.566605 0.006759 0.002652 -630220.000000 1 0 0
-2.462580 -0.203582 8.594836 8.942983 0.082483 0.279946 0.000385 -0.002077 934580.000000 1 0 0
2.454920 -15.090782 13.092236 20.128710 -1.409532 0.862651 0.014078 -0.013517 -409355.000000 1 0 0
18.973320 4.487218 -1.719664 19.572410 0.232234 1.658771 0.033972 0.001183 1108560.000000 1 0 0
-0.311680 -13.280082 7.220736 15.119416 1.547331 1.072898 0.006047 -0.009681 -1208600.000000 1 0 0
4.284820 1.487318 -0.495664 4.562618 0.334101 1.679647 0.003275 -0.001729 485810.000000 1 0 0
2.783920 -0.511682 -7.329064 7.856667 -0.181770 2.773031 -0.001808 -0.003094 -391842.000000 1 0 0
7.289620 -11.279182 0.778736 13.452321 -0.997034 1.512875 0.005973 -0.001285 511259.000000 1 0 0
-11.890980 -7.399782 1.385436 14.073792 0.556657 1.472196 0.006012 0.004729 398930.000000 1 0 0
0.159820 -6.915682 9.803736 11.998560 -1.547691 0.614475 -0.000904 -0.005746 -1926060.000000 1 0 0
-4.634380 -7.139682 10.530036 13.540096 0.995053 0.679809 0.004317 -0.005593 -1237860.000000 1 0 0
11.791820 0.741418 -1.693264 11.935823 0.062793 1.713141 0.009615 -0.002147 1398070.000000 1 0 0
6.566220 -9.619682 -7.404164 13.801274 -0.971856 2.137062 0.000842 -0.004010 -1049240.000000 1 0 0
-10.913980 4.836918 3.399636 12.412423 -0.417173 1.293361 0.001839 -0.005570 136214.000000 1 0 0
5.987420 -9.114082 1.993636 11.085589 -0.989557 1.389972 0.001898 -0.003229 3885880.000000 1 0 0
11.582220 -1.237782 5.908736 13.061129 -0.106465 1.101352 0.012475 -0.006272 766427.000000 1 0 0
-6.454080 3.699018 4.077436 8.483122 -0.520427 1.069397 -0.004786 -0.000514 -1922310.000000 1 0 0
9.466020 6.330518 -3.137764 11.812136 0.589452 1.839663 0.008890 -0.002783 -412409.000000 1 0 0
-2.223280 6.643118 10.886536 12.945681 -1.247840 0.571779 -0.002849 0.000317 -239242.000000 1 0 0
1.839320 9.811718 2.910836 10.398359 1.385485 1.287073 0.002276 -0.004549 -105567.000000 1 0 0
2.896320 6.092818 -5.604364 8.770405 1.127049 2.264005 0.001446 -0.000541 -1992100.000000 1 0 0
11.950420 0.092418 -5.655964 13.221612 0.007733 2.012834 0.013517 -0.003570 179130.000000 1 0 0
-2.573580 -12.429782 6.302536 14.171971 1.366632 1.109937 0.008895 -0.006652 -646562.000000 1 0 0
10.800320 1.964518 -2.784464 11.325171 0.179927 1.819208 0.008171 -0.002418 306271.000000 1 0 0
-8.979680 5.363018 0.813436 10.490867 -0.538387 1.493181 0.000446 -0.004215 -29451.900000 1 0 0
1.252920 -10.210982 5.523536 11.676618 -1.448703 1.078056 0.002468 -0.004782 104777.000000 1 0 0
9.330420 -5.624282 -1.210664 10.961523 -0.542468 1.681469 0.011537 -0.006300 -173675.000000 1 0 0
-7.891780 8.525018 -4.513964 12.463226 -0.823952 1.941405 0.007202 -0.003790 -461652.000000 1 0 0
-7.422980 -0.053382 -1.608564 7.595456 0.007191 1.784192 0.005136 -0.005949 -1643270.000000 1 0 0
4.088920 8.883318 2.751736 10.158969 1.139417 1.296502 0.004529 -0.005096 31427.700000 1 0 0
-1.307180 -10.586982 -3.729564 11.300556 1.447948 1.907136 0.004492 -0.001452 -578800.000000 1 0 0
3.135020 7.786618 -3.597364 9.132404 1.188036 1.975680 0.005344 -0.005928 -218699.000000 1 0 0
-4.275280 1.565018 -10.931464 11.841630 -0.350912 2.746962 0.007713 -0.007485 -95382.400000 1 0 0
1.274920 2.815418 10.946136 11.374088 1.145587 0.275186 0.009024 -0.002985 338875.000000 1 0 0
2.198520 5.562518 -8.009464 9.996330 1.194402 2.500162 0.003763 0.000377 627472.000000 1 0 0
15.647020 6.022918 4.015236 17.240270 0.367443 1.335739 0.026066 -0.005991 514112.000000 1 0 0
-4.397580 9.098118 4.564836 11.088381 -1.120557 1.146502 0.002771 0.000210 -297433.000000 1 0 0
-0.900680 -8.125882 -12.416564 14.866481 1.460406 2.559302 -0.000110 -0.002182 -295665.000000 1 0 0
14.214120 -4.216982 -5.062764 15.667027 -0.288404 1.899850 0.022641 -0.007388 1129280.000000 1 0 0
-5.971480 -6.221382 -5.586064 10.274643 0.805891 2.145606 0.017619 -0.009201 502092.000000 1 0 0
-8.902080 2.531018 -12.172064 15.290920 -0.277008 2.491507 0.013141 -0.009267 -339254.000000 1 0 0
10.717220 5.507218 13.837636 18.348526 0.474679 0.716430 0.028101 0.006943 766522.000000 1 0 0
-0.393180 10.902718 5.495736 12.215849 -1.534749 1.104159 -0.002740 0.005127 706022.000000 1 0 0
0.284220 11.206918 -0.594564 11.226277 1.545441 1.623783 0.005846 -0.008409 -381327.000000 1 0 0
-1.450580 -0.566682 3.629536 3.949537 0.372428 0.405317 0.000866 -0.001380 441172.000000 1 0 0
-4.808780 6.791518 8.985336 12.246850 -0.954684 0.747066 -0.002573 -0.002176 -1891790.000000 1 0 0
3.460820 -8.776082 -11.423864 14.815585 -1.195173 2.451317 -0.005211 0.001143 1286740.000000 1 0 0
6.690220 -3.920982 12.028136 14.311156 -0.530119 0.572641 0.016350 -0.001926 -402498.000000 1 0 0
-2.389880 -1.866482 -12.487664 12.850566 0.663044 2.903374 0.008353 -0.010311 1062680.000000 1 0 0
-16.081180 -4.862982 5.238036 17.598010 0.293659 1.268567 0.034651 -0.006508 103694.000000 1 0 0
-8.858480 7.488418 5.731336 12.938210 -0.701782 1.111879 0.008414 -0.007470 -3768290.000000 1 0 0
-12.604180 1.462318 5.970536 14.023231 -0.115502 1.130994 -0.004090 -0.007948 98423.300000 1 0 0
-3.708280 3.567218 10.197236 11.421909 -0.766012 0.467320 -0.000351 0.001759 602768.000000 1 0 0
2.043420 -12.324582 -1.142964 12.545009 -1.406491 1.662032 0.001520 0.000101 -2300110.000000 1 0 0
10.240120 -5.129282 -3.575364 11.998034 -0.464368 1.873389 0.014497 -0.005935 589134.000000 1 0 0
3.330320 -13.356782 1.032936 13.804406 -1.326443 1.495900 0.010547 -0.002408 473941.000000 1 0 0
10.135620 -1.658482 -6.026064 11.907763 -0.162192 2.101409 0.014032 -0.005403 -153178.000000 1 0 0
11.944920 -5.501982 -1.481964 13.234392 -0.431644 1.683010 0.016934 -0.006701 204980.000000 1 0 0
1.409820 0.987618 5.961036 6.204589 0.611080 0.281117 0.006507 -0.001883 627764.000000 1 0 0
-10.847880 11.596718 6.607236 17.199300 -0.818750 1.176501 0.017700 -0.015376 -365931.000000 1 0 0
4.718220 -14.124182 3.231336 15.237967 -1.248399 1.357116 0.013808 -0.006157 -2861740.000000 1 0 0
5.272320 -3.435682 -1.652164 6.506221 -0.577531 1.827544 0.006259 -0.003391 -1327860.000000 1 0 0
2.027220 -2.983782 -7.656264 8.463507 -0.974021 2.701285 -0.002389 -0.003116 -81964.000000 1 0 0
-2.812580 14.793818 -8.854764 17.469245 -1.382920 2.102355 0.008754 -0.007751 -1263280.000000 1 0 0
-2.320580 6.008518 -8.077464 10.331157 -1.202230 2.468432 0.011880 -0.002599 -100773.000000 1 0 0
2.629820 -3.596182 -11.381464 12.222365 -0.939383 2.768487 -0.000892 -0.003006 -1525050.000000 1 0 0
14.627820 2.832318 -2.661464 15.135341 0.191259 1.747560 0.013913 0.002280 633682.000000 1 0 0
-3.606380 13.308118 2.190136 13.960970 -1.306161 1.413270 -0.002684 -0.000478 -2284160.000000 1 0 0
7.902920 -5.042382 13.923436 16.785226 -0.567922 0.592575 0.018737 -0.002739 -83900.800000 1 0 0
-11.525980 7.256118 2.923336 13.930016 -0.561861 1.359366 0.004062 -0.006889 882620.000000 1 0 0
-2.263580 11.928818 3.967136 12.773357 -1.383269 1.254994 -0.000337 0.000682 -472.429000 1 0 0
1.815820 1.454318 0.606336 2.404139 0.675299 1.315838 -0.002101 -0.001971 -2228390.000000 1 0 0
-6.805880 8.653818 5.237236 12.191686 -0.904366 1.126775 0.003856 -0.004143 -799530.000000 1 0 0
-1.160980 9.270418 1.000136 9.396212 -1.446210 1.464154 0.002757 -0.004549 276681.000000 1 0 0
4.818620 12.993418 -8.522964 16.269263 1.215668 2.122183 0.006156 -0.014429 -1656450.000000 1 0 0
8.918320 6.924418 7.220636 13.402298 0.660201 1.001831 -0.002425 0.001108 -1140920.000000 1 0 0
7.213020 -13.713182 2.857036 15.755687 -1.086572 1.388454 0.016519 -0.005152 267222.000000 1 0 0
4.205520 -13.329382 -1.315464 14.038849 -1.265174 1.664636 0.005502 0.002307 -2716990.000000 1 0 0
12.204120 -11.737682 -4.541164 17.530998 -0.765918 1.832821 0.033973 -0.009376 -995749.000000 1 0 0
2.745920 0.036118 -1.974764 3.382466 0.013153 2.194227 0.002244 -0.003066 1221720.000000 1 0 0
-13.547080 -3.105782 -10.738164 17.563525 0.225364 2.228612 0.035856 -0.016434 -112221.000000 1 0 0
-6.515180 13.691218 5.072336 15.988296 -1.126642 1.247965 0.006309 -0.007973 396379.000000 1 0 0
7.250420 -4.271382 -0.531664 8.431842 -0.532383 1.633893 0.004781 -0.001615 -1860690.000000 1 0 0
11.776820 2.156018 -7.257164 14.000298 0.181068 2.115726 0.012594 -0.001808 -1293500.000000 1 0 0
-7.597180 -4.600682 9.655636 13.119250 0.544511 0.743669 -0.000245 -0.002847 188445.000000 1 0 0
1.026720 2.856618 8.445236 8.974209 1.225756 0.345057 0.005842 -0.000838 -982770.000000 1 0 0
1.650720 8.037818 -8.684664 11.948003 1.368243 2.384552 0.007397 -0.000095 254265.000000 1 0 0
-8.536580 -1.931582 -5.624864 10.404004 0.222524 2.141999 0.016830 -0.009378 -1576160.000000 1 0 0
6.709020 -0.396882 7.174936 9.830980 -0.059088 0.752724 0.004596 -0.000874 443758.000000 1 0 0
-10.826780 6.401818 7.044736 14.416336 -0.533994 1.060239 0.002075 -0.010238 595216.000000 1 0 0
-5.924280 11.155618 4.731936 13.488370 -1.082612 1.212354 0.002325 -0.000955 659502.000000 1 0 0
6.011720 -1.151682 -6.820764 9.164604 -0.189280 2.410209 0.001595 -0.000814 -919797.000000 1 0 0
4.522420 -5.794782 11.459436 13.614347 -0.908103 0.570340 0.007435 -0.002013 -1382740.000000 1 0 0
-8.998180 -7.365882 2.790736 11.958748 0.685978 1.335261 0.009722 -0.003014 -2409070.000000 1 0 0
-1.277780 12.683818 -9.329464 15.797179 -1.470394 2.202571 0.010216 -0.004296 708149.000000 1 0 0
-4.783480 9.144518 -2.300164 10.573299 -1.088841 1.790094 0.002218 -0.006565 463972.000000 1 0 0
-3.405380 9.685918 -0.194964 10.268964 -1.232714 1.589783 0.003804 -0.005410 -270394.000000 1 0 0
-3.373580 10.700218 -6.406664 12.919793 -1.265380 2.089644 0.009199 -0.000539 694631.000000 1 0 0
4.831720 -4.813282 0.428936 6.833534 -0.783486 1.507986 0.004904 -0.004398 -1699820.000000 1 0 0
-2.246880 2.924118 -10.847164 11.456872 -0.915626 2.813884 0.013694 -0.002847 -2202750.000000 1 0 0
-3.598280 12.054718 -2.227464 12.775971 -1.280720 1.746040 -0.001566 -0.001833 -1129880.000000 1 0 0
-0.191280 0.373018 0.013136 0.419408 -1.096969 1.539471 -0.003858 -0.003085 -1425260.000000 1 0 0
-4.757880 -1.635582 0.120736 5.032606 0.331108 1.546803 0.003516 -0.004738 -235867.000000 1 0 0
2.579420 2.629718 -2.387664 4.389734 0.795054 2.145898 -0.004716 -0.002406 1683500.000000 1 0 0
6.064720 -9.728782 8.497036 14.269886 -1.013363 0.932968 0.001940 -0.000212 367355.000000 1 0 0
-4.361580 -5.617382 6.546036 9.665865 0.910585 0.826802 0.003985 -0.006977 208516.000000 1 0 0
-6.300880 5.325918 -12.012764 14.573023 -0.701739 2.539788 0.004713 -0.004140 652087.000000 1 0 0
-12.754380 3.072618 7.863936 15.295642 -0.236402 1.030804 0.006461 -0.010570 653117.000000 1 0 0
4.700920 -7.436782 -4.887964 10.064620 -1.007095 2.077912 -0.000561 -0.005463 1166410.000000 1 0 0
-5.979280 2.551618 -1.056564 6.586264 -0.403346 1.731912 0.003451 -0.005723 -402606.000000 1 0 0
-6.788280 -2.833582 -14.462364 16.225594 0.395435 2.671067 0.011133 -0.009167 248658.000000 1 0 0
2.631420 -6.106782 0.842436 6.702750 -1.163938 1.444778 0.003263 -0.001733 -119608.000000 1 0 0
4.857920 -7.929282 13.011536 15.992904 -1.021123 0.620510 0.009977 -0.002106 322799.000000 1 0 0
-9.982280 -1.695382 8.058136 12.940393 0.168234 0.898593 -0.003892 -0.000726 -68205.800000 1 0 0
-4.613780 13.310218 -0.165764 14.088163 -1.237123 1.582563 -0.002890 0.000867 504638.000000 1 0 0
6.793420 2.189218 -4.366064 8.366944 0.311748 2.119783 0.004471 0.002005 -1641620.000000 1 0 0
5.095920 4.579918 0.063836 6.851870 0.732120 1.561480 0.000573 -0.001805 -1023120.000000 1 0 0
-6.008980 12.371118 1.812736 13.872217 -1.118633 1.439748 0.002275 -0.000660 -388698.000000 1 0 0
6.533320 -7.300982 6.537536 11.778284 -0.840831 0.982373 0.000966 -0.003148 -766845.000000 1 0 0
-0.245280 4.951218 7.629336 9.098433 -1.521297 0.576211 -0.000853 0.000860 -79111.600000 1 0 0
-5.780580 -3.403782 -1.438764 6.860822 0.532166 1.782072 0.009674 -0.007536 -609310.000000 1 0 0
2.282620 -6.569982 -5.290764 8.738833 -1.236411 2.221104 -0.002391 -0.002940 -1950890.000000 1 0 0
-14.511280 -5.018182 -3.842264 15.827899 0.332939 1.815999 0.010334 -0.008241 -340840.000000 1 0 0
-12.377880 -5.117882 -6.421564 14.853993 0.392064 2.017852 0.015832 -0.015471 -755262.000000 1 0 0
-14.836380 -3.891882 -1.373864 15.399754 0.256540 1.660128 0.005163 -0.000827 277602.000000 1 0 0
11.782420 2.902018 8.795836 14.987123 0.241494 0.943580 0.002706 -0.002278 -1038900.000000 1 0 0
8.746020 -6.461682 7.681436 13.313552 -0.636304 0.955790 0.007272 -0.008310 -328061.000000 1 0 0
-8.808780 -1.792682 -9.826764 13.318168 0.200769 2.400671 0.016136 -0.012839 276010.000000 1 0 0
-8.840980 5.073318 -3.862364 10.900428 -0.520963 1.932995 0.005101 -0.004646 -1617240.000000 1 0 0
-4.164680 -6.227782 4.067036 8.524706 0.981369 1.073458 0.005065 -0.005265 -1179010.000000 1 0 0
-0.083180 -9.307782 3.496536 9.943213 1.561860 1.211463 0.000940 -0.004915 1017390.000000 1 0 0
7.906720 -10.488982 3.277936 13.538088 -0.924860 1.326239 0.003442 -0.004229 469707.000000 1 0 0
0.027320 6.606418 9.533336 11.598707 1.566661 0.606003 -0.004068 -0.000931 -31292.700000 1 0 0
0.067420 3.493118 -9.809964 10.413540 1.551498 2.799454 0.010754 -0.002927 -533917.000000 1 0 0
4.548020 -3.177382 10.951936 12.277017 -0.609806 0.468895 0.010367 -0.001869 -3242180.000000 1 0 0
8.616120 -9.209782 1.223836 12.671045 -0.818689 1.474060 0.006160 -0.004897 1875200.000000 1 0 0
-0.234480 -0.345682 11.361436 11.369112 0.974776 0.036749 0.010446 -0.001794 -807286.000000 1 0 0
10.966920 6.056418 11.416236 16.949454 0.504565 0.831801 0.013832 0.000912 255638.000000 1 0 0
-6.228780 -3.017282 -11.783764 13.665972 0.451098 2.610532 0.011834 -0.013555 1205510.000000 1 0 0
-1.667480 2.971718 8.586036 9.237511 -1.059458 0.377809 0.001967 -0.003704 -24980.100000 1 0 0
-1.727680 13.428018 -6.857164 15.176207 -1.442837 2.039619 0.006891 -0.005996 334050.000000 1 0 0
7.745620 3.119218 9.806736 12.880071 0.382838 0.705344 0.005313 -0.000644 501098.000000 1 0 0
6.527820 8.431418 -7.845664 13.238417 0.911970 2.205133 0.004913 -0.003246 -92435.200000 1 0 0
6.737120 -3.015082 -3.861464 8.330091 -0.420800 2.052801 0.006407 -0.003020 -2287230.000000 1 0 0
1.998020 8.106718 1.119336 8.424006 1.329148 1.437528 0.002612 -0.005083 811564.000000 1 0 0
-17.631180 6.335518 6.236636 19.745706 -0.344968 1.249446 0.032374 -0.012517 191810.000000 1 0 0
-14.903280 2.995418 -10.480064 18.463803 -0.198348 2.174385 0.049095 -0.005230 -560046.000000 1 0 0
-18.249080 -0.075582 -4.429964 18.779223 0.004142 1.808938 0.028756 -0.005240 314755.000000 1 0 0
-13.146180 7.837018 0.070636 15.305093 -0.537579 1.566181 0.006831 -0.004678 437991.000000 1 0 0
-12.782380 -4.404582 -12.851264 18.653272 0.331840 2.330843 0.059051 -0.007964 -721667.000000 1 0 0
-17.442380 -0.780082 -8.590064 19.458529 0.044694 2.028016 0.036930 -0.011854 689265.000000 1 0 0
-16.736080 -2.298182 -2.155064 17.030041 0.136466 1.697681 0.016982 -0.008154 -427678.000000 1 0 0
-15.344380 4.034618 1.656236 15.952155 -0.257118 1.466784 0.011858 -0.004440 -598612.000000 1 0 0
-13.163180 5.820718 4.431736 15.059560 -0.416346 1.272094 0.004671 -0.009262 408443.000000 1 0 0
-10.270380 14.067118 2.628436 17.614573 -0.940154 1.421018 0.025744 -0.012461 121697.000000 1 0 0
-11.816080 2.334818 -6.527464 13.699595 -0.195084 2.067433 0.005567 -0.001579 528174.000000 1 0 0
-15.957180 10.429118 3.687736 19.416423 -0.578880 1.379707 0.012094 -0.012460 938075.000000 1 0 0
-12.943280 1.091118 -8.656764 15.609568 -0.084101 2.158655 0.018701 -0.004984 817246.000000 1 0 0
-12.466380 14.086218 4.027136 19.236683 -0.846328 1.359890 0.030293 -0.018232 -123199.000000 1 0 0
-10.627080 11.005218 -1.109664 15.338872 -0.802877 1.643203 0.013765 -0.004646 404252.000000 1 0 0
-16.981080 5.393718 8.664936 19.812379 -0.307553 1.118147 0.022114 -0.020431 228554.000000 1 0 0
-11.815380 12.510018 -9.238364 19.530774 -0.813946 2.063507 0.021860 -0.009646 -1834990.000000 1 0 0
-17.099780 -0.450182 3.049736 17.375443 0.026321 1.394362 0.027736 -0.009244 422590.000000 1 0 0
-13.328180 14.739518 -0.702764 19.884357 -0.835639 1.606146 0.045324 -0.010942 -302823.000000 1 0 0
-16.522480 4.914018 -10.556764 20.213490 -0.289083 2.120299 0.059974 -0.004819 679721.000000 1 0 0
-11.814580 7.499918 -9.144564 16.716941 -0.565617 2.149601 0.009236 -0.002077 -596194.000000 1 0 0
-14.885580 13.365918 -2.178864 20.124008 -0.731659 1.679281 0.049050 -0.017830 525629.000000 1 0 0
-11.900380 10.480718 -5.400764 16.752097 -0.722052 1.899053 0.020193 -0.007716 1500470.000000 1 0 0
-17.684980 2.633618 -0.981864 17.906940 -0.147832 1.625655 0.025698 -0.001525 -399144.000000 1 0 0
-9.514180 15.249718 0.522436 17.981837 -1.012994 1.541739 0.029850 -0.010333 211685.000000 1 0 0
-8.229280 13.059718 -3.799964 15.897075 -1.008519 1.812169 0.015535 -0.004778 -262006.000000 1 0 0
-17.995180 11.553418 2.286436 21.506644 -0.570751 1.464282 0.078852 -0.010576 -71984.700000 1 0 0
-8.340780 15.669518 -7.310064 19.197381 -1.081649 1.961441 0.054341 -0.022940 -94173.200000 1 0 0
-6.350880 15.242118 -5.547364 17.419216 -1.176005 1.894903 0.022308 -0.004534 -455902.000000 1 0 0
-17.428980 5.139018 -0.280364 18.172987 -0.286730 1.586224 0.030192 -0.002207 993523.000000 1 0 0
-5.357980 12.188218 -12.217864 18.070330 -1.156622 2.313292 0.005123 -0.012519 -676354.000000 1 0 0
-11.063580 3.597718 -11.291064 16.212171 -0.314400 2.341243 0.007317 -0.009437 122661.000000 1 0 0
-11.963380 10.934118 1.135336 16.247042 -0.740478 1.500860 0.014691 -0.008770 409551.000000 1 0 0
-12.911980 0.035218 -11.052064 16.996134 -0.002728 2.278735 0.021820 -0.012623 404913.000000 1 0 0
-14.218980 -2.161582 -13.063864 19.429781 0.150866 2.308193 0.063072 -0.012438 485206.000000 1 0 0
-18.802080 -2.510482 -3.712564 19.328835 0.132736 1.764071 0.025938 -0.008615 623905.000000 1 0 0
-18.326580 4.632518 -5.269564 19.623763 -0.247590 1.842663 0.047404 -0.004710 -82579.500000 1 0 0
-8.189080 15.178318 -2.275264 17.395953 -1.076031 1.701965 0.024501 -0.013102 -106239.000000 1 0 0
-16.296580 8.978318 -5.310964 19.349291 -0.503559 1.848844 0.045352 -0.005941 4553.150000 1 0 0
-18.215780 1.655718 2.230936 18.426424 -0.090646 1.449426 0.041559 -0.010530 -1184100.000000 1 0 0
-15.715880 -2.739082 -8.586364 18.116763 0.172554 2.064563 0.019130 -0.012154 -373522.000000 1 0 0
-9.789780 10.515918 -7.164864 16.054893 -0.821143 2.033393 0.015307 -0.005994 577206.000000 1 0 0
-13.940480 11.979818 -7.965464 20.032514 -0.709900 1.979725 0.035484 -0.013650 -259210.000000 1 0 0
-11.112680 6.451418 -3.930464 13.437299 -0.525992 1.867641 0.000351 -0.001305 -1398100.000000 1 0 0
-13.063980 4.805518 -12.627964 18.794309 -0.352483 2.307572 0.039729 -0.013139 -462827.000000 1 0 0
-17.866380 8.934818 2.690936 20.156380 -0.463721 1.436894 0.037526 -0.016453 883101.000000 1 0 0
-13.466580 8.800718 -6.661364 17.411926 -0.578848 1.963378 0.015812 -0.001571 -213208.000000 1 0 0
-15.930880 6.809318 -3.901664 17.759018 -0.403926 1.792304 0.029685 -0.000983 -678222.000000 1 0 0
-14.949780 -0.392682 -9.288264 17.604601 0.026261 2.126574 0.029558 -0.013406 260403.000000 1 0 0
-9.950180 5.818418 -6.012364 13.000330 -0.529135 2.051584 0.003451 -0.001675 526436.000000 1 0 0
-12.990480 12.049618 -0.908264 17.741781 -0.747842 1.622012 0.029281 -0.011145 -291129.000000 1 0 0
-10.458280 3.417618 -13.830464 17.673072 -0.315846 2.469584 0.012433 -0.012008 264853.000000 1 0 0
-11.039380 6.184118 -11.906464 17.374554 -0.510631 2.325787 0.011329 -0.006761 -155577.000000 1 0 0
-5.848880 11.672318 -14.767764 19.711399 -1.106277 2.417649 0.013415 -0.008991 -273535.000000 1 0 0
-15.866480 13.093918 3.525236 20.871587 -0.689953 1.401082 0.034824 -0.019350 347017.000000 1 0 0
-15.285980 10.995818 -3.326364 19.121556 -0.623588 1.745645 0.046709 -0.008778 750991.000000 1 0 0
-18.351580 7.599118 -4.421264 20.348824 -0.392590 1.789817 0.056060 -0.007868 -500698.000000 1 0 0
-4.019380 16.158318 -10.726564 19.806712 -1.326995 2.143090 0.022135 -0.008721 -97810.500000 1 0 0
-15.804380 4.283218 -4.583664 17.003951 -0.264657 1.843737 0.028494 0.002644 8356.100000 1 0 0
-18.637380 -1.864582 -6.267464 19.751195 0.099713 1.893699 0.022689 -0.009787 70655.600000 1 0 0
-10.899080 8.475618 -5.833764 14.988624 -0.660961 1.970573 0.009722 0.000938 480763.000000 1 0 0
-11.339280 13.465718 -6.823864 18.880412 -0.870915 1.940593 0.027436 -0.009485 -97729.400000 1 0 0
-9.550680 10.442818 -4.424264 14.827071 -0.829990 1.873803 0.002130 -0.000660 -822177.000000 1 0 0
-11.152880 6.262118 -0.336064 12.795069 -0.511614 1.597064 0.001787 -0.005570 -220472.000000 1 0 0
-14.760780 9.215718 -1.511064 17.466923 -0.558123 1.657415 0.026782 -0.005937 186562.000000 1 0 0
-18.752780 3.286618 4.696536 19.609336 -0.173498 1.328940 0.051729 -0.012823 838394.000000 1 0 0
-14.938280 13.069218 0.458536 19.853637 -0.718763 1.547698 0.031998 -0.010530 102438.000000 1 0 0
-17.092780 2.746718 -9.081064 19.549253 -0.159332 2.053891 0.050673 -0.008274 903083.000000 1 0 0
-9.285080 8.454218 -8.905864 15.394834 -0.738595 2.187681 0.012961 0.000249 -1985130.000000 1 0 0
-17.654780 4.503518 -2.757564 18.427617 -0.249761 1.721004 0.026563 -0.000205 697927.000000 1 0 0
-13.568180 5.728518 -4.541764 15.412302 -0.399499 1.869922 0.012373 0.000892 -498751.000000 1 0 0
-12.354180 9.566918 3.283936 15.966713 -0.658927 1.363644 0.006875 -0.009269 690072.000000 1 0 0
-17.617980 2.403818 -4.085264 18.244477 -0.135604 1.796629 0.034255 0.003775 842392.000000 1 0 0
-11.310580 1.347618 -12.620564 17.000704 -0.118588 2.407375 0.026034 -0.006209 526383.000000 1 0 0
-11.297180 11.935418 3.488536 16.800308 -0.812863 1.361627 0.013932 -0.012586 466481.000000 1 0 0
-16.676980 13.134318 -3.988764 21.599588 -0.667117 1.756531 0.061691 -0.013835 553520.000000 1 0 0
-11.120380 3.985818 -4.541664 12.656078 -0.344160 1.937834 -0.000217 -0.002090 -213948.000000 1 0 0
-11.215080 15.079918 -8.867064 20.779961 -0.931333 2.011651 0.044208 -0.017903 183649.000000 1 0 0
-15.458080 6.957618 -0.326964 16.954869 -0.422934 1.590082 0.016471 -0.000521 -1039110.000000 1 0 0
-12.995280 8.236518 -4.118564 15.927338 -0.564908 1.832353 0.009539 0.000182 1101530.000000 1 0 0
-19.310880 1.745618 -5.941164 20.279416 -0.090151 1.868123 0.049585 -0.005271 1037790.000000 1 0 0
-12.667380 10.004618 -9.014364 18.488203 -0.668487 2.080105 0.019225 -0.009869 432168.000000 1 0 0
-16.820980 10.874318 -1.077964 20.058867 -0.573892 1.624562 0.043412 -0.011379 976285.000000 1 0 0
-10.798780 6.247418 -14.551764 19.167622 -0.524483 2.432856 0.030882 -0.016249 -24751.600000 1 0 0
-14.168880 12.880018 -4.640964 19.702552 -0.737785 1.808582 0.049585 -0.009917 -484653.000000 1 0 0
-18.078780 7.619518 -0.386764 19.622663 -0.398870 1.590508 0.048184 -0.007867 253075.000000 1 0 0
-12.892580 6.454918 -2.160064 14.579110 -0.464183 1.719505 0.001548 -0.001482 691418.000000 1 0 0
-13.932680 8.320618 -10.620564 19.394552 -0.538359 2.150296 0.033387 -0.010172 -489732.000000 1 0 0
-14.950780 1.344918 -1.035464 15.046821 -0.089715 1.639667 0.012179 -0.003353 -928048.000000 1 0 0
-13.368880 2.732718 -2.491364 13.870890 -0.201631 1.751387 0.003068 -0.000231 -205228.000000 1 0 0
-11.430280 9.125418 -11.111164 18.367975 -0.673737 2.220462 0.016093 -0.007205 974233.000000 1 0 0
-15.243080 4.394018 -8.232364 17.872624 -0.280655 2.049482 0.024674 -0.006843 480698.000000 1 0 0
-18.296980 10.500018 4.734836 21.620558 -0.520982 1.350010 0.060102 -0.024104 86743.900000 1 0 0
-15.426980 6.108118 -6.286264 17.743109 -0.376999 1.932955 0.032870 0.002258 696655.000000 1 0 0
-7.747680 11.273718 -12.951464 18.837826 -0.968690 2.328871 0.009111 -0.009111 -635879.000000 1 0 0
-16.898580 9.035418 -2.870464 19.376283 -0.491009 1.719487 0.043320 -0.011376 195808.000000 1 0 0
-20.653880 -1.129882 -4.861564 21.248393 0.054651 1.801638 0.047366 -0.011053 736733.000000 1 0 0
-15.385780 4.326518 4.143036 16.510776 -0.274123 1.317156 0.011321 -0.007129 -90369.200000 1 0 0
-6.973680 12.484518 -9.420664 17.124378 -1.061385 2.153318 0.013228 -0.009654 55645.100000 1 0 0
-17.229480 1.436518 5.704836 18.206145 -0.083183 1.252081 0.043635 -0.019409 -125434.000000 1 0 0
-10.408780 14.297318 -2.983964 17.934883 -0.941509 1.737951 0.034251 -0.014660 -448743.000000 1 0 0
-10.212480 8.312018 -13.176164 18.627820 -0.683164 2.356521 0.010334 -0.002652 -402355.000000 1 0 0
-13.847480 11.615418 2.741736 18.280803 -0.697962 1.420249 0.021192 -0.012114 -517221.000000 1 0 0
-16.947080 6.623318 1.744836 18.278849 -0.372571 1.475194 0.018438 -0.001840 801392.000000 1 0 0
-9.382880 13.221318 -8.432264 18.274156 -0.953604 2.050404 0.026853 -0.017326 30521.000000 1 0 0
-5.694180 9.812518 -12.966264 17.228848 -1.044990 2.422783 0.011636 -0.003095 -115798.000000 1 0 0
-15.930980 1.836418 3.254736 16.363430 -0.114767 1.370558 0.018414 -0.009186 -969850.000000 1 0 0
-18.613580 -4.773582 4.516936 19.739685 0.251047 1.339926 0.055709 -0.007977 265690.000000 1 0 0
-5.303180 14.427518 -9.219564 17.924211 -1.218552 2.111062 0.015711 -0.005594 -295911.000000 1 0 0
-15.380980 -0.825582 -6.765764 16.823546 0.053624 1.984672 0.015955 -0.006131 618078.000000 1 0 0
-9.110180 10.955918 -9.588564 17.174635 -0.877123 2.163129 0.014497 -0.010357 702520.000000 1 0 0
-16.720280 1.180218 -6.130664 17.847849 -0.070469 1.921433 0.021040 -0.000702 -1198460.000000 1 0 0
-11.280380 8.580318 -1.573664 14.259917 -0.650277 1.681377 0.003927 -0.006212 -287314.000000 1 0 0
-10.831780 10.855618 -12.891164 20.033822 -0.786497 2.269819 0.031570 -0.006630 -41743.400000 1 0 0
-13.870580 11.760618 -10.538064 21.017990 -0.703263 2.095993 0.040601 -0.012396 -249006.000000 1 0 0
-13.231780 5.930018 -7.694464 16.414929 -0.421327 2.058669 0.017782 0.000384 -1409780.000000 1 0 0
-8.897980 15.283518 -4.805964 18.326409 -1.043572 1.836142 0.032947 -0.015709 1703880.000000 1 0 0
-8.615080 6.167618 -13.046564 16.806902 -0.621324 2.459511 0.004861 -0.004150 1096360.000000 1 0 0
-16.359480 7.449418 4.121436 18.442143 -0.427301 1.345414 0.017249 -0.008822 250664.000000 1 0 0
-12.644480 5.234818 -10.164964 17.047366 -0.392517 2.209653 0.018050 -0.004028 242454.000000 1 0 0
-12.596080 9.041518 -13.458364 20.531387 -0.622575 2.285643 0.054294 -0.015347 -706801.000000 1 0 0
-10.921280 5.110818 -8.306064 14.641910 -0.437696 2.173996 0.004334 -0.001870 -1153990.000000 1 0 0
-17.670180 -4.691082 -2.643364 18.472382 0.259494 1.714387 0.007230 -0.006948 26136.000000 1 0 0
-9.016780 13.216818 -10.921664 19.371870 -0.972103 2.169764 0.035914 -0.017796 236860.000000 1 0 0
-15.104580 6.113518 6.059036 17.384917 -0.384591 1.214802 0.016901 -0.013259 -1684760.000000 1 0 0
-16.344280 -3.326582 -4.523664 17.281932 0.200789 1.835638 0.009003 -0.009750 759482.000000 1 0 0
-11.070180 -1.307582 -12.483764 16.736279 0.117573 2.412697 0.027768 -0.010689 -107285.000000 1 0 0
-15.469880 7.014818 -8.599864 19.038974 -0.425719 2.039464 0.036250 0.002371 54287.600000 1 0 0
-15.106680 9.140518 1.197136 17.697287 -0.544135 1.503099 0.025053 -0.009618 -54628.700000 1 0 0
-19.393280 5.163118 7.720436 21.502610 -0.260197 1.203550 0.058152 -0.023669 5511.540000 1 0 0
-16.262180 0.622018 0.919836 16.300046 -0.038231 1.514335 0.021068 -0.005438 -1274550.000000 1 0 0
-17.373080 3.741618 6.799136 19.027660 -0.212129 1.205390 0.025001 -0.015381 794597.000000 1 0 0
-15.464080 3.930418 -1.518864 16.027879 -0.248894 1.665703 0.015710 -0.001553 -629979.000000 1 0 0
-10.924880 13.220518 0.267836 17.152458 -0.880189 1.555181 0.026205 -0.011987 -676563.000000 1 0 0
-13.439480 3.369318 0.004136 13.855394 -0.245640 1.570498 0.006999 -0.002507 -177466.000000 1 0 0
-15.114680 0.217318 -4.362264 15.733090 -0.014377 1.851745 0.014504 -0.002464 -548199.000000 1 0 0
-18.817380 6.665718 3.597036 20.284581 -0.340440 1.392525 0.028235 -0.011207 235855.000000 1 0 0
-14.082780 1.430118 -6.430764 15.547497 -0.101204 1.997223 0.015892 -0.000583 -972118.000000 1 0 0
-14.309680 11.857518 5.244036 19.309779 -0.691960 1.295768 0.014678 -0.016145 349427.000000 1 0 0
17.739120 5.430218 6.252036 19.576813 0.297058 1.245743 0.047518 -0.013454 -56085.000000 1 0 0
18.501620 7.663518 -0.268864 20.027774 0.392694 1.584221 0.048941 -0.001076 -36872.400000 1 0 0
16.641020 5.210018 8.516236 19.406033 0.303416 1.116484 0.045315 -0.005150 659043.000000 1 0 0
11.563320 12.407818 10.879636 20.150206 0.820613 1.000446 0.030648 -0.010827 548861.000000 1 0 0
-2.432080 16.145618 -0.504564 16.335562 -1.421286 1.601689 -0.004130 -0.007749 -249129.000000 1 0 0
15.094120 12.732618 3.210236 20.006440 0.700737 1.409640 0.050353 -0.004829 784026.000000 1 0 0
13.571720 11.827218 6.738636 19.221964 0.716822 1.212617 0.042251 -0.002399 696542.000000 1 0 0
-0.638380 15.883718 8.652836 18.098939 -1.530627 1.072323 0.001577 -0.001196 247823.000000 1 0 0
0.776920 12.983618 9.414736 16.056625 1.511029 0.944256 -0.008429 -0.003138 -335439.000000 1 0 0
0.729320 15.465018 -4.059964 16.005686 1.523672 1.827256 0.000931 -0.008261 -1827620.000000 1 0 0
5.314820 10.281318 13.526636 17.802323 1.093689 0.707754 0.009988 -0.008323 457637.000000 1 0 0
-1.332280 16.457218 -2.812464 16.748879 -1.490018 1.739515 -0.001412 -0.005497 -1062500.000000 1 0 0
8.581920 10.015018 3.281336 13.591067 0.862307 1.326954 0.005121 -0.001513 361671.000000 1 0 0
12.515620 13.555918 -4.919864 19.094730 0.825279 1.831391 0.077283 -0.028466 239979.000000 1 0 0
2.430120 11.549118 7.817736 14.156433 1.363406 0.985749 -0.000374 0.002997 333426.000000 1 0 0
-0.333280 14.925018 -8.624964 17.241150 -1.548470 2.094689 0.005024 -0.005084 -1761200.000000 1 0 0
2.282320 15.911218 0.223836 16.075632 1.428327 1.556872 0.010390 -0.014281 -595410.000000 1 0 0
1.822520 13.378018 5.197136 14.467314 1.435397 1.203350 0.003917 0.000427 273876.000000 1 0 0
17.492720 9.216818 -1.925264 19.865841 0.484931 1.667862 0.039206 -0.006147 297020.000000 1 0 0
-7.248780 14.887818 7.310436 18.100674 -1.117689 1.155046 0.012409 -0.013915 -216858.000000 1 0 0
8.602320 15.887018 -0.025564 18.066486 1.074527 1.572211 0.027329 -0.015448 -272115.000000 1 0 0
15.641120 10.450918 2.038236 18.921436 0.589042 1.462866 0.038445 -0.004852 1439500.000000 1 0 0
14.016820 7.445118 8.574936 18.039694 0.488261 1.075449 0.024545 -0.006943 -1164950.000000 1 0 0
3.824920 18.632718 -1.846564 19.110677 1.368329 1.667572 0.020970 -0.025008 -843180.000000 1 0 0
-0.602780 17.553018 -4.889864 18.231362 -1.536469 1.842333 0.003978 -0.005100 483528.000000 1 0 0
1.154620 13.722418 -0.736764 13.790603 1.486853 1.624247 0.000337 -0.008420 51391.100000 1 0 0
10.195820 14.769718 4.260636 18.445930 0.966597 1.337712 0.028665 -0.012169 -392823.000000 1 0 0
-1.745280 15.313918 -5.179564 16.260073 -1.457319 1.894990 0.003745 -0.004826 61539.200000 1 0 0
15.138620 8.737818 -6.116164 18.518497 0.523476 1.907389 0.042012 -0.011672 458018.000000 1 0 0
-2.506780 18.503118 0.791236 18.688910 -1.436137 1.528446 0.008894 -0.011268 -633194.000000 1 0 0
-3.789080 19.216018 3.350536 19.870545 -1.376110 1.401369 0.009177 -0.014489 -251423.000000 1 0 0
1.654420 17.579418 -2.696164 17.861756 1.476962 1.722322 0.005871 -0.018963 -1124610.000000 1 0 0
2.973120 12.145118 3.283736 12.927732 1.330718 1.313975 0.003843 -0.002028 377399.000000 1 0 0
-2.766480 16.240418 1.934336 16.587533 -1.402071 1.453917 0.003411 -0.004256 -870630.000000 1 0 0
11.665520 12.785618 -2.638264 17.507622 0.831176 1.722065 0.035300 -0.006941 160362.000000 1 0 0
7.188620 11.593418 4.713336 14.432572 1.015757 1.238117 0.004818 -0.001427 133470.000000 1 0 0
6.977520 15.641018 1.959736 17.238555 1.151187 1.456867 0.016664 -0.013085 -770118.000000 1 0 0
5.546820 12.270318 10.336836 16.975809 1.146237 0.916103 0.002973 0.004859 1910410.000000 1 0 0
-1.439780 14.247318 3.088736 14.649209 -1.470082 1.358355 -0.002224 -0.001573 -1045860.000000 1 0 0
4.475820 15.903118 1.477336 16.586882 1.296450 1.481612 0.013218 -0.017767 -2335520.000000 1 0 0
7.350720 13.114618 11.996536 19.233907 1.059929 0.897306 0.015402 -0.000140 143231.000000 1 0 0
0.770120 17.056018 -9.422664 19.500960 1.525675 2.075091 0.007335 -0.004277 124712.000000 1 0 0
9.724320 9.808018 15.473536 20.741020 0.789683 0.728708 0.031859 0.000763 156967.000000 1 0 0
13.515620 7.532718 -0.190164 15.474172 0.508457 1.583086 0.011429 -0.000302 354993.000000 1 0 0
12.176420 13.682518 -0.116664 18.316389 0.843575 1.577166 0.046223 -0.013385 654697.000000 1 0 0
9.460720 12.384818 3.451236 15.962455 0.918461 1.352866 0.016334 -0.000298 968820.000000 1 0 0
-0.748580 12.808518 0.844036 12.858106 -1.512419 1.505107 0.001350 -0.004984 -1433130.000000 1 0 0
15.992320 7.378018 -0.946464 17.637609 0.432250 1.624484 0.032522 0.000014 -2168440.000000 1 0 0
-4.241480 18.500118 -2.422564 19.134088 -1.345424 1.697747 0.017418 -0.010441 272608.000000 1 0 0
11.449620 9.143418 -3.263764 15.011597 0.673873 1.789963 0.019557 -0.004909 246330.000000 1 0 0
14.762520 9.754218 7.746636 19.315464 0.583890 1.158124 0.042167 -0.012389 755910.000000 1 0 0
4.429220 13.815118 4.655036 15.236300 1.260543 1.260309 0.007396 0.000227 -68457.600000 1 0 0
2.063420 15.959918 5.638536 17.051973 1.442222 1.233785 0.006283 -0.002482 171627.000000 1 0 0
6.087420 18.505818 5.201236 20.163701 1.252999 1.309896 0.029865 -0.018443 -127232.000000 1 0 0
10.735820 17.103118 -0.739764 20.206972 1.010250 1.607414 0.062711 -0.026701 -1521100.000000 1 0 0
9.950220 13.545518 -4.465064 17.390363 0.937240 1.830460 0.053163 -0.011129 1294480.000000 1 0 0
16.495420 7.997618 2.401636 18.488608 0.451445 1.440530 0.018945 -0.004188 -74917.700000 1 0 0
3.816820 13.982818 -0.447564 14.501297 1.304323 1.601665 0.008017 -0.010930 478606.000000 1 0 0
5.508420 13.168518 -2.325364 14.462361 1.174612 1.732285 0.008640 -0.007154 145781.000000 1 0 0
-6.258280 16.937318 -2.961064 18.297724 -1.216859 1.733338 0.026323 -0.004645 268192.000000 1 0 0
18.143720 10.021018 2.411336 20.866958 0.504618 1.454980 0.055276 -0.013782 556223.000000 1 0 0
7.937320 12.919318 9.392536 17.836187 1.019873 1.016200 0.019546 -0.003764 179614.000000 1 0 0
-2.575580 15.735518 6.815736 17.340542 -1.408556 1.166848 0.000296 -0.003784 -1400710.000000 1 0 0
11.154220 16.079218 6.382536 20.583844 0.964308 1.255524 0.038034 -0.007511 78721.300000 1 0 0
13.480820 11.991218 1.255336 18.085842 0.726985 1.501331 0.042691 -0.003099 101806.000000 1 0 0
17.545420 7.746418 -5.753464 20.023764 0.415768 1.862236 0.039375 0.007129 -78714.900000 1 0 0
9.452120 9.251818 8.058336 15.487914 0.774689 1.023596 0.006344 0.001266 -31757.300000 1 0 0
-2.109480 14.187018 -1.948464 14.474733 -1.423187 1.705818 -0.004590 -0.004937 586173.000000 1 0 0
10.863720 11.678718 0.764436 15.968633 0.821536 1.522907 0.022331 -0.000805 -438304.000000 1 0 0
11.707820 9.749018 -0.669364 15.250064 0.694360 1.614703 0.016752 -0.000654 -1339280.000000 1 0 0
-0.304980 16.136118 11.176036 19.630871 -1.551898 0.965131 0.000944 -0.005739 -57321.300000 1 0 0
1.719820 20.123618 -1.885864 20.284828 1.485541 1.663900 0.029647 -0.028412 -492386.000000 1 0 0
9.282620 14.343918 1.751936 17.175107 0.996430 1.468614 0.023591 -0.008636 -796829.000000 1 0 0
8.340320 11.775818 -5.123364 15.312730 0.954549 1.911958 0.018798 -0.003364 -240458.000000 1 0 0
10.634720 10.005918 10.254236 17.842786 0.754943 0.958560 0.016813 -0.006656 868853.000000 1 0 0
-5.063980 15.745518 5.984036 17.589028 -1.259630 1.223652 -0.006662 -0.005515 -134175.000000 1 0 0
14.492020 9.078918 -1.973464 17.214528 0.559661 1.685688 0.039656 -0.004973 -479368.000000 1 0 0
12.257120 9.624218 6.832436 17.016014 0.665648 1.157610 0.013475 -0.003699 -990756.000000 1 0 0
3.250020 12.919618 9.657236 16.454220 1.324353 0.943553 -0.000864 -0.000511 -582476.000000 1 0 0
8.394820 12.647218 -2.593164 15.399663 0.984803 1.739993 0.022907 -0.004983 -836932.000000 1 0 0
9.237120 16.990818 2.210336 19.465299 1.072839 1.456998 0.021723 -0.018007 -92610.700000 1 0 0
9.476020 14.288418 -7.454264 18.695451 0.985200 1.980918 0.060208 -0.025959 -1242160.000000 1 0 0
6.417220 11.363718 7.279036 14.943198 1.056729 1.062015 0.001800 0.000556 -768974.000000 1 0 0
5.379220 16.982518 -5.668764 18.694299 1.264044 1.878882 0.027283 -0.008380 720184.000000 1 0 0
-4.222980 17.180518 -4.697364 18.304890 -1.329774 1.830318 0.019645 -0.007891 275337.000000 1 0 0
-0.344180 18.434818 -0.524664 18.445494 -1.552128 1.599244 0.006294 -0.018314 -568482.000000 1 0 0
6.423020 15.690718 -2.669064 17.163267 1.182254 1.726940 0.019675 -0.009259 1013930.000000 1 0 0
-1.031580 20.671918 0.682436 20.708889 -1.520935 1.537837 0.019290 -0.016037 -76726.300000 1 0 0
-1.440080 18.841618 4.191336 19.355818 -1.494514 1.352526 0.004663 -0.008429 -1708530.000000 1 0 0
7.091220 13.841618 -4.349864 16.149214 1.097348 1.843519 0.018363 -0.002317 867248.000000 1 0 0
-0.854580 12.004818 7.682636 14.278265 -1.499730 1.002656 -0.003228 0.003142 317079.000000 1 0 0
7.709520 10.825718 10.919536 17.200847 0.951963 0.883014 0.010096 -0.005155 441110.000000 1 0 0
1.445520 16.019918 -7.202564 17.623968 1.480807 1.991804 -0.001965 -0.007519 36126.200000 1 0 0
9.020320 7.377418 14.804236 18.840326 0.685541 0.666850 0.024287 0.001842 343965.000000 1 0 0
11.243120 11.265618 -4.810064 16.627045 0.786398 1.864283 0.048666 -0.013621 -188588.000000 1 0 0
-3.331180 17.000718 4.616936 17.928672 -1.377304 1.310345 0.003478 -0.002993 -559088.000000 1 0 0
3.871720 15.366218 -6.761564 17.228744 1.323971 1.974099 0.012176 -0.009738 -798697.000000 1 0 0
-4.482880 13.978918 9.573536 17.525951 -1.260469 0.992917 0.014832 -0.012004 -329665.000000 1 0 0
6.163920 17.631518 0.424336 18.682730 1.234481 1.548082 0.020120 -0.026525 -346173.000000 1 0 0
9.721120 10.710218 -2.158164 14.624179 0.833771 1.718912 0.025012 -0.003149 -2380190.000000 1 0 0
6.962820 18.270018 -2.765564 19.746462 1.206683 1.711312 0.028730 -0.017010 253416.000000 1 0 0
3.551820 10.369618 10.428236 15.129194 1.240799 0.810303 -0.003150 0.000606 211720.000000 1 0 0
-0.135180 18.619118 2.020136 18.728875 -1.563536 1.462724 0.009584 -0.012980 262953.000000 1 0 0
-0.993980 17.210318 -7.486764 18.794539 -1.513106 1.980511 0.008773 -0.000203 852223.000000 1 0 0
10.134820 9.014618 13.105336 18.860746 0.726967 0.802589 0.025479 0.002418 -211533.000000 1 0 0
3.798720 11.564118 5.550936 13.378041 1.253409 1.142932 0.000747 0.000809 646775.000000 1 0 0
12.892620 13.911418 8.166636 20.650451 0.823389 1.164217 0.043688 -0.017380 -143127.000000 1 0 0
-0.538480 17.399618 6.713636 18.657695 -1.539858 1.202708 0.002895 -0.003310 -335072.000000 1 0 0
12.059620 13.734618 5.664336 19.135278 0.850244 1.270278 0.033448 -0.006848 -647974.000000 1 0 0
4.767020 14.599518 -4.478264 15.997664 1.255191 1.854520 0.009458 -0.007632 -630998.000000 1 0 0
3.672520 17.592418 4.662336 18.566582 1.364996 1.316965 0.015705 -0.010503 -315620.000000 1 0 0
7.199920 11.768818 2.050736 13.948098 1.021761 1.423235 0.010607 -0.001819 726855.000000 1 0 0
6.380420 8.781218 11.745136 15.992741 0.942441 0.746008 0.005333 -0.001907 400392.000000 1 0 0
-5.493080 14.961118 1.675536 16.025492 -1.218919 1.466050 0.004840 0.000723 263724.000000 1 0 0
6.798920 13.751018 5.921536 16.443248 1.111614 1.202400 0.008547 -0.004042 662783.000000 1 0 0
5.874120 15.908218 4.745536 17.609565 1.217076 1.297937 0.014597 -0.012610 947541.000000 1 0 0
1.113420 18.038718 4.245636 18.565034 1.509151 1.340065 0.013350 -0.007517 -302953.000000 1 0 0
7.413220 18.101318 -6.857164 20.727620 1.182093 1.907971 0.034718 -0.016625 463074.000000 1 0 0
-2.574280 18.759618 -6.132464 19.903701 -1.434424 1.883999 0.023340 -0.006844 -538627.000000 1 0 0
13.525120 10.123318 -4.468764 17.475134 0.642529 1.829390 0.039922 -0.008061 -1346550.000000 1 0 0
-1.704080 17.954518 9.780736 20.516613 -1.476169 1.073874 0.012669 -0.007878 -51289.000000 1 0 0
3.377020 11.745518 -1.498864 12.312922 1.290832 1.692830 0.007400 -0.008094 -20699.000000 1 0 0
4.240820 13.899718 -10.809264 18.111513 1.274666 2.210325 0.010504 -0.021461 -84418.200000 1 0 0
11.552620 13.404818 2.423636 17.861304 0.859477 1.434684 0.036447 -0.010133 448833.000000 1 0 0
15.782220 6.452818 -7.191764 18.505102 0.388126 1.969948 0.000533 0.004665 -312296.000000 1 0 0
2.355920 16.183818 2.906936 16.610737 1.426239 1.394887 0.010505 -0.009988 -350811.000000 1 0 0
13.500520 10.680718 3.556236 17.578071 0.669311 1.367079 0.027463 0.001772 -642393.000000 1 0 0
-5.098280 19.328418 -5.843964 20.826236 -1.312899 1.855222 0.022548 -0.018233 152556.000000 1 0 0
5.436820 12.099118 0.125736 13.265123 1.148477 1.561318 0.009729 -0.006392 774989.000000 1 0 0
4.406220 15.540518 9.601736 18.791376 1.294516 1.034489 0.005587 0.007412 16962.300000 1 0 0
7.658920 9.501618 13.971636 18.551183 0.892368 0.717974 0.014987 -0.004356 -852502.000000 1 0 0
-5.032280 13.596618 7.055836 16.123792 -1.216317 1.117864 0.002359 -0.005958 -1974980.000000 1 0 0
-4.657580 17.158718 0.537936 17.787749 -1.305742 1.540550 0.010068 -0.005726 -2714020.000000 1 0 0
-0.792280 16.563718 3.530036 16.954221 -1.523001 1.361052 0.004327 -0.006471 -2039930.000000 1 0 0
7.815120 16.699618 -4.742564 19.037995 1.133090 1.822558 0.034516 -0.019002 431574.000000 1 0 0
3.086920 16.427718 -4.501764 17.310831 1.385053 1.833875 0.008064 -0.011441 -362617.000000 1 0 0
9.610820 14.412118 8.210136 19.169855 0.982662 1.128204 0.032971 -0.008528 396182.000000 1 0 0
12.768420 10.928618 9.072036 19.098929 0.707915 1.075830 0.036129 -0.017579 134421.000000 1 0 0
3.484220 12.270218 12.155936 17.620012 1.294122 0.809454 -0.000351 -0.004296 779332.000000 1 0 0
-3.370580 19.197218 6.003836 20.394608 -1.396991 1.271986 0.008642 -0.003032 194193.000000 1 0 0
-2.721280 15.696118 10.179136 18.904716 -1.399130 1.002207 0.011668 -0.010803 -558034.000000 1 0 0
2.068820 14.210618 7.617036 16.255489 1.426229 1.083111 0.003054 -0.002422 399841.000000 1 0 0
4.611320 17.385918 7.877436 19.636405 1.311533 1.158008 0.027199 -0.004431 421057.000000 1 0 0
-1.866180 13.427118 9.437836 16.517956 -1.432695 0.962624 -0.000335 -0.007052 -831852.000000 1 0 0
5.649920 17.729018 2.949136 18.839774 1.262289 1.413612 0.011878 -0.021278 426244.000000 1 0 0
7.137720 15.462618 -6.924164 18.384332 1.138328 1.956956 0.026544 -0.008173 -210421.000000 1 0 0
10.971220 7.627518 9.422636 16.350314 0.607517 0.956606 0.008248 -0.004270 991109.000000 1 0 0
8.927320 16.696518 -2.464064 19.092993 1.079790 1.700213 0.044350 -0.005939 -617074.000000 1 0 0
14.824820 11.265418 -6.404364 19.690120 0.649809 1.902081 0.096901 -0.016345 539222.000000 1 0 0
11.093320 6.673818 16.136136 20.687592 0.541600 0.676145 0.039182 -0.002480 -113338.000000 1 0 0
8.512120 8.484918 10.319736 15.841306 0.783798 0.861309 0.006463 -0.001176 -347203.000000 1 0 0
16.525720 9.767818 4.441736 19.703774 0.533826 1.343416 0.046910 -0.006652 178193.000000 1 0 0
-3.382280 14.320518 4.680236 15.440909 -1.338862 1.262846 -0.001938 -0.001035 -996449.000000 1 0 0
4.832520 14.481018 12.749136 19.889535 1.248703 0.875000 0.010320 -0.002426 -933265.000000 1 0 0
16.140620 10.418618 -4.405064 19.709688 0.573199 1.796198 0.067490 -0.022821 -64718.900000 1 0 0
14.622720 14.150718 6.264336 21.291047 0.768996 1.272153 0.044077 -0.004162 -108000.000000 1 0 0
6.160520 9.527218 9.302736 14.671768 0.996799 0.884008 0.001893 -0.000046 797735.000000 1 0 0
10.437920 11.986718 8.559836 18.052766 0.854355 1.076791 0.025136 -0.013822 221313.000000 1 0 0
7.989520 11.549618 -0.344364 14.047943 0.965625 1.595312 0.010877 -0.004381 822831.000000 1 0 0
7.352520 13.472518 -8.698164 17.641609 1.071228 2.086386 0.029604 -0.015839 -286917.000000 1 0 0
2.518320 15.151018 -2.302664 15.530536 1.406088 1.719612 0.006958 -0.012546 721608.000000 1 0 0
12.028420 14.228218 -7.623464 20.130631 0.868984 1.959187 0.068186 -0.022980 -998553.000000 1 0 0
-8.193080 14.533818 9.793536 19.346105 -1.057477 1.039991 0.033809 -0.022531 478702.000000 1 0 0
11.479420 9.642818 2.170436 15.148327 0.698665 1.427023 0.019896 0.000430 -1531290.000000 1 0 0
12.064520 8.717818 4.460636 15.538670 0.625733 1.279633 0.010228 0.002656 564486.000000 1 0 0
14.112520 8.013618 5.985436 17.297593 0.516435 1.217463 0.018157 -0.004816 -2370930.000000 1 0 0
16.250720 7.365418 7.187536 19.235279 0.425542 1.187840 0.053116 -0.011621 711781.000000 1 0 0
13.561820 8.427018 2.288536 16.129941 0.555991 1.428435 0.016638 -0.000579 -2218680.000000 1 0 0
-4.378380 17.130818 -7.200464 19.091407 -1.320568 1.957521 0.025101 -0.018821 93370.000000 1 0 0
2.782020 19.435418 -4.108964 20.058881 1.428620 1.777102 0.020022 -0.023802 411898.000000 1 0 0
-0.174080 14.847918 6.289636 16.126081 -1.559073 1.170133 0.002715 -0.001555 -343485.000000 1 0 0
6.728520 16.060318 8.432436 19.347164 1.174059 1.119815 0.028397 -0.005332 -2134940.000000 1 0 0
12.791020 15.158818 -2.113164 19.946564 0.869912 1.676937 0.085926 -0.025402 262609.000000 1 0 0
12.480720 15.857918 4.126136 20.597741 0.904012 1.369112 0.053291 -0.014800 -575354.000000 1 0 0
2.876720 18.063318 1.172636 18.328504 1.412865 1.506774 0.020889 -0.018775 -366981.000000 1 0 0
10.302320 14.695918 -1.672964 18.025166 0.959378 1.663743 0.041351 -0.007898 -1024530.000000 1 0 0
-6.418380 15.797118 -0.635464 17.063070 -1.184870 1.608047 0.012697 -0.003262 -168188.000000 1 0 0
-3.933480 15.917318 -2.582064 16.598203 -1.328531 1.726994 0.008167 -0.006408 -1832140.000000 1 0 0
-7.054380 17.092618 1.510236 18.552700 -1.179377 1.489304 0.020287 -0.004484 32813.000000 1 0 0
-0.066780 19.385818 -6.548764 20.462178 -1.567352 1.896571 0.021787 -0.009843 -11679.500000 1 0 0
4.893520 14.847518 7.061636 17.154067 1.252423 1.146522 0.015809 -0.003709 -245191.000000 1 0 0
8.695420 12.358218 6.799336 16.570059 0.957649 1.147971 0.014553 -0.006342 -973659.000000 1 0 0
-7.668580 17.473018 -5.626264 19.893927 -1.157227 1.857522 0.047488 -0.017022 165252.000000 1 0 0
-8.102580 17.705518 -1.432964 19.524102 -1.141615 1.644257 0.051308 -0.014312 355601.000000 1 0 0
-13.607480 -9.095182 9.298036 18.823903 0.589199 1.054171 0.043052 -0.022019 -1037450.000000 1 0 0
-12.376580 -12.972382 7.615036 19.479507 0.808898 1.169159 0.033974 -0.016645 -669123.000000 1 0 0
-4.012280 -14.952882 12.504936 19.901269 1.308643 0.891368 0.029566 -0.022711 465933.000000 1 0 0
-1.977680 -14.060682 14.999136 20.654009 1.431060 0.758004 0.033953 -0.019447 -1525940.000000 1 0 0
-7.223880 -13.768082 12.615636 20.022457 1.087598 0.889147 0.044968 -0.024600 36254.200000 1 0 0
-9.824380 -11.510982 9.031036 17.623301 0.864286 1.032763 0.032193 -0.020394 440529.000000 1 0 0
-10.834780 -10.668182 11.237036 18.906971 0.777651 0.934360 0.066038 -0.029629 372135.000000 1 0 0
-5.994180 -12.215282 10.809036 17.377530 1.114607 0.899486 0.028210 -0.019401 799691.000000 1 0 0
-12.401980 -10.322382 7.355936 17.733315 0.694138 1.143064 0.026458 -0.011827 -701296.000000 1 0 0
-7.812280 -11.256282 12.486736 18.537912 0.964083 0.831757 0.032493 -0.024073 93516.600000 1 0 0
-14.640180 -11.718682 7.598536 20.233638 0.675013 1.185817 0.046035 -0.006910 450724.000000 1 0 0
-10.989280 -9.086482 9.158236 16.947027 0.690900 0.999880 0.028831 -0.016988 -357942.000000 1 0 0
-5.455280 -11.906182 13.275636 18.648318 1.141153 0.778604 0.036474 -0.026609 -594579.000000 1 0 0
3.806220 -12.571082 14.548636 19.600567 -1.276795 0.734366 0.005001 -0.001619 289517.000000 1 0 0
6.423720 -12.747282 14.222236 20.150170 -1.104011 0.787227 0.017042 -0.002428 88222.000000 1 0 0
6.455220 -8.894582 16.344236 19.695621 -0.942998 0.591973 0.005368 0.007846 123515.000000 1 0 0
0.608420 -1.713382 14.424636 14.538775 -1.229586 0.125387 0.006195 -0.001872 -683221.000000 1 0 0
-0.193880 -6.418982 15.508936 16.785947 1.540601 0.392583 0.003781 -0.009137 -394348.000000 1 0 0
-1.397280 -4.631382 18.256136 18.886201 1.277782 0.259030 0.023259 -0.027196 -2813660.000000 1 0 0
-5.135580 12.609718 13.031836 18.846960 -1.184037 0.807294 0.022390 -0.012648 -290346.000000 1 0 0
-3.978080 8.844218 11.599436 15.119267 -1.148113 0.696339 -0.001120 -0.000186 -305494.000000 1 0 0
-0.704780 -3.890882 14.970736 15.484141 1.391603 0.258231 0.002815 -0.005407 37353.400000 1 0 0
-4.376680 9.241318 14.114536 17.429211 -1.128492 0.626950 0.003884 -0.009521 439899.000000 1 0 0
-13.458780 -2.510782 17.030736 21.851516 0.184433 0.677113 0.033588 0.006130 924342.000000 1 0 0
-0.264880 0.842718 17.268736 17.291315 -1.266258 0.051109 0.008187 -0.003384 -679086.000000 1 0 0
-3.358380 -7.319382 15.297236 17.287495 1.140621 0.484575 0.014216 -0.016285 288582.000000 1 0 0
-7.435280 5.533818 12.482436 15.547274 -0.639821 0.638703 -0.004328 -0.004034 -1948980.000000 1 0 0
-9.837780 10.198918 13.164836 19.341994 -0.803420 0.822167 0.026366 -0.019727 279563.000000 1 0 0
-5.635580 2.208918 11.138736 12.677165 -0.373556 0.497778 -0.003813 0.000374 -1243410.000000 1 0 0
-6.999880 -7.599182 16.839836 19.756669 0.826426 0.550311 0.037862 -0.016784 -616115.000000 1 0 0
-4.762580 2.536018 18.407736 19.182239 -0.489299 0.285134 0.017410 -0.008668 -1252910.000000 1 0 0
0.947720 -8.363382 16.579236 18.593423 -1.457960 0.469771 0.002799 -0.009064 359969.000000 1 0 0
-14.919680 -3.723382 13.729936 20.614838 0.244566 0.841933 0.043993 -0.013076 407456.000000 1 0 0
-14.223480 1.991118 12.935636 19.328802 -0.139084 0.837609 0.017719 -0.013453 -504202.000000 1 0 0
-5.554280 0.928918 16.047536 17.006949 -0.165710 0.337495 0.013995 -0.003812 138576.000000 1 0 0
4.342820 5.663618 15.074736 16.678858 0.916634 0.442175 0.005990 -0.003941 -224354.000000 1 0 0
-1.169380 -11.972282 13.747836 18.267621 1.473431 0.718826 -0.000153 -0.017382 -264488.000000 1 0 0
-5.818280 -4.103882 16.803336 18.249557 0.614303 0.400790 0.022794 -0.010905 111020.000000 1 0 0
-12.862980 -1.554782 9.852036 16.276861 0.120289 0.920681 0.007587 -0.000482 -734565.000000 1 0 0
-14.494580 10.265118 10.344036 20.553943 -0.616211 1.043426 0.017630 -0.007548 594466.000000 1 0 0
-3.469480 -3.312282 17.737136 18.374289 0.762223 0.264116 0.021315 -0.017137 113407.000000 1 0 0
-7.838780 9.423318 11.859936 17.055892 -0.876935 0.801880 0.005170 -0.008514 -17414.200000 1 0 0
-4.217880 10.622818 16.311536 19.917354 -1.192828 0.611198 0.012377 -0.012995 192403.000000 1 0 0
-12.566780 12.688818 8.122936 19.619178 -0.790230 1.143919 0.026689 -0.025072 -43273.300000 1 0 0
-12.493080 3.142118 10.387036 16.548126 -0.246398 0.892219 0.008094 -0.012897 510770.000000 1 0 0
-10.137680 -3.495282 13.782736 17.462914 0.332018 0.661197 0.018255 -0.002768 -1263500.000000 1 0 0
-4.112580 -6.496582 17.729136 19.324625 1.006438 0.409205 0.033412 -0.016018 -441649.000000 1 0 0
0.963520 -3.789482 18.104336 18.521758 -1.321811 0.212706 0.008325 -0.008126 -969344.000000 1 0 0
-5.950180 1.740718 13.620836 14.965357 -0.284607 0.427132 0.002038 -0.000089 -1243040.000000 1 0 0
-10.497180 8.792918 10.304236 17.137195 -0.697278 0.925696 0.020482 -0.013779 109526.000000 1 0 0
4.622420 2.472718 17.173436 17.955723 0.491207 0.296269 0.014485 -0.003238 -665657.000000 1 0 0
0.470220 -5.404682 13.173036 14.246423 -1.484012 0.390666 -0.000414 -0.002659 -1226140.000000 1 0 0
-4.318080 5.441718 20.503536 21.648397 -0.900023 0.326672 0.045347 -0.014365 -829682.000000 1 0 0
-10.778280 10.913718 9.044636 17.806909 -0.791642 1.038018 0.024626 -0.018032 606254.000000 1 0 0
0.552020 4.115018 12.967436 13.615891 1.437445 0.309864 0.010763 -0.002114 -2917800.000000 1 0 0
-3.185280 7.060218 13.256336 15.353277 -1.146979 0.528785 0.001942 -0.000777 -1152360.000000 1 0 0
0.723920 8.829518 14.064136 16.621804 1.488991 0.562123 -0.001539 -0.006286 229601.000000 1 0 0
-4.245580 -6.591982 13.021536 15.199986 0.998614 0.541996 0.011419 -0.007669 437126.000000 1 0 0
-5.072880 8.185218 16.342536 18.968668 -1.015973 0.532473 0.013764 -0.009666 -469366.000000 1 0 0
1.660320 -10.612282 15.721336 19.040420 -1.415602 0.599386 0.002799 -0.007020 -631046.000000 1 0 0
-15.140480 -1.222082 14.404536 20.933663 0.080542 0.811924 0.036462 -0.007893 772992.000000 1 0 0
-13.814380 -5.182782 8.559136 17.057465 0.358922 1.045138 0.039614 -0.005773 -607651.000000 1 0 0
-13.891580 -1.827082 12.239036 18.603984 0.130774 0.852807 0.020194 -0.006680 341396.000000 1 0 0
9.586320 1.481518 16.942036 19.522423 0.153332 0.519989 0.037911 -0.002141 -18861.800000 1 0 0
4.898520 -6.792282 16.868836 18.833168 -0.945991 0.460797 0.015530 -0.003340 86708.800000 1 0 0
-6.142180 -2.690082 10.942736 12.833798 0.412804 0.549760 -0.001905 -0.001421 651360.000000 1 0 0
0.516820 -6.300782 18.000636 19.078518 -1.488955 0.337749 0.010182 -0.020860 -131455.000000 1 0 0
-8.229280 12.039418 12.317036 19.088688 -0.971211 0.869442 0.013317 -0.010212 -548.166000 1 0 0
-6.620080 -5.842182 14.941236 17.355030 0.723059 0.533727 0.023839 -0.009917 -1100490.000000 1 0 0
-4.442780 -8.908482 17.036836 19.732033 1.108178 0.528806 0.037649 -0.022951 -181702.000000 1 0 0
2.405520 -6.098182 16.234436 17.508034 -1.195070 0.383779 0.001396 -0.008627 -135597.000000 1 0 0
2.191420 5.122418 16.111036 17.047198 1.166548 0.332945 0.008831 -0.005940 -557496.000000 1 0 0
0.785020 -8.838482 14.013536 16.586567 -1.482210 0.564469 -0.003859 -0.007288 -772654.000000 1 0 0
-10.090380 -2.855782 11.364236 15.463412 0.275807 0.745260 -0.000916 -0.000824 16340.900000 1 0 0
-1.129480 10.166618 12.399136 16.074029 -1.460153 0.689794 -0.008625 -0.003186 -525697.000000 1 0 0
-12.486380 -3.769082 11.298736 17.256219 0.293158 0.856927 0.021351 -0.001712 -2002560.000000 1 0 0
-1.962180 6.484418 19.857236 20.981126 -1.276957 0.328791 0.021611 -0.010913 -127704.000000 1 0 0
0.376120 -13.172682 15.547936 20.381347 -1.542251 0.703085 0.004355 -0.025082 -646672.000000 1 0 0
4.019220 -8.666582 15.339936 18.071453 -1.136558 0.556992 0.007051 -0.004767 -267909.000000 1 0 0
4.380720 -4.389082 16.178036 17.325807 -0.786352 0.366035 0.012006 0.000897 -620494.000000 1 0 0
8.183920 1.848318 14.799036 17.011887 0.222121 0.515750 0.012361 0.005919 141496.000000 1 0 0
-6.359180 -0.153882 11.776236 13.384415 0.024194 0.495256 -0.003346 -0.000048 85205.900000 1 0 0
-3.618580 -11.030682 18.366436 21.727771 1.253811 0.563674 0.053117 -0.021895 -9724.610000 1 0 0
3.150220 -1.583582 13.453136 13.907497 -0.465797 0.256319 0.012946 -0.003019 850648.000000 1 0 0
-2.574680 8.650318 15.884636 18.269609 -1.281506 0.516695 0.010729 -0.006147 -2427170.000000 1 0 0
-3.291180 3.990618 14.786936 15.665579 -0.881157 0.336511 0.006474 -0.003969 -179764.000000 1 0 0
-4.999280 -9.164582 19.702436 22.297272 1.071415 0.487246 0.072897 -0.022483 244331.000000 1 0 0
-5.649680 -2.804882 19.075836 20.091634 0.460818 0.319343 0.035906 -0.018398 -912219.000000 1 0 0
-6.552780 -8.718282 11.031636 15.512716 0.926263 0.779685 0.013993 -0.017041 -606019.000000 1 0 0
-11.674080 2.435118 12.638236 17.376390 -0.205643 0.756384 0.019504 -0.018593 274537.000000 1 0 0
-11.478980 -7.814182 11.870436 18.268434 0.597681 0.863503 0.034206 -0.008786 -543634.000000 1 0 0
-11.096080 -7.060182 15.714536 20.491847 0.566668 0.696850 0.049148 -0.031024 723779.000000 1 0 0
0.159420 5.599618 17.734436 18.598154 1.542334 0.305958 0.007338 -0.003836 -60864.500000 1 0 0
-2.254180 -0.140182 13.153436 13.345930 0.062108 0.170049 0.005632 -0.001083 312634.000000 1 0 0
-6.164880 -10.607382 17.941836 21.735496 1.044324 0.599775 0.072919 -0.030291 -136169.000000 1 0 0
0.376520 2.561018 19.218236 19.391781 1.424822 0.133887 0.015606 -0.007245 -288626.000000 1 0 0
-0.763980 10.827418 14.794936 18.349571 -1.500353 0.632956 0.001474 -0.011683 -94972.100000 1 0 0
-12.717780 -2.380082 14.492036 19.427450 0.185006 0.728826 0.022923 0.002227 -372060.000000 1 0 0
-13.867580 8.135518 11.653136 19.856787 -0.530551 0.943622 0.030850 -0.020494 238457.000000 1 0 0
-18.050380 -0.624482 6.999736 19.370144 0.034583 1.201063 0.072888 -0.022140 168835.000000 1 0 0
-2.016680 -7.962082 17.456036 19.291836 1.322728 0.439791 0.018732 -0.022168 -1224820.000000 1 0 0
5.730520 2.707318 14.498836 15.823548 0.441356 0.412099 0.009258 -0.000146 -1737570.000000 1 0 0
-13.809180 -6.866382 11.036636 18.964387 0.461432 0.949652 0.028208 -0.018632 656921.000000 1 0 0
3.185720 7.600018 16.424436 18.375831 1.173872 0.465034 0.009217 -0.006773 -127194.000000 1 0 0
0.947720 2.020618 14.507036 14.677710 1.132234 0.152648 0.014102 -0.003035 -1840890.000000 1 0 0
-14.264380 0.746518 9.714636 17.274373 -0.052287 0.973544 0.023018 -0.010718 -1729050.000000 1 0 0
-9.464880 -5.138182 15.630636 18.981613 0.497351 0.603310 0.027712 -0.006965 -356833.000000 1 0 0
-2.542580 -0.161682 18.175236 18.352930 0.063504 0.139268 0.011692 -0.008275 620425.000000 1 0 0
6.867020 3.742718 17.571136 19.233011 0.499018 0.418763 0.030204 0.000109 -226021.000000 1 0 0
-4.241180 -0.845782 14.609736 15.236382 0.196839 0.287796 0.010712 -0.000255 -1135780.000000 1 0 0
4.428520 -9.123482 17.929236 20.598719 -1.118898 0.514771 0.005160 0.001028 -337162.000000 1 0 0
1.986720 6.787218 13.503336 15.243145 1.286036 0.482446 0.007048 -0.000618 -1083260.000000 1 0 0
-3.696580 -0.956082 20.359436 20.714377 0.253093 0.185387 0.030672 -0.013463 -780935.000000 1 0 0
-10.579280 1.688618 16.039336 19.288154 -0.158280 0.588879 0.020728 -0.013545 -949745.000000 1 0 0
-4.019380 7.051418 18.479236 20.183163 -1.052720 0.413856 0.028806 -0.004997 -574316.000000 1 0 0
-12.604680 1.013918 14.635036 19.341413 -0.080267 0.712594 0.025113 -0.010722 936206.000000 1 0 0
-16.150980 -4.546882 8.444736 18.784085 0.274421 1.104514 0.062715 -0.011803 -2247820.000000 1 0 0
-2.429280 0.726918 15.725536 15.928662 -0.290752 0.159872 0.009965 -0.002718 -246927.000000 1 0 0
-13.712680 -9.075982 12.385236 20.586527 0.584673 0.925271 0.057632 -0.031200 724020.000000 1 0 0
6.096120 -3.212482 14.597036 16.141753 -0.484991 0.441052 0.015479 -0.001229 581096.000000 1 0 0
-15.704580 0.458218 7.565536 17.437922 -0.029169 1.122029 0.033892 -0.016623 210690.000000 1 0 0
-13.935580 5.605618 12.227136 19.368175 -0.382446 0.887568 0.021773 -0.025013 280188.000000 1 0 0
0.440320 9.332518 16.658436 19.099562 1.523650 0.511136 0.003910 -0.015151 -266883.000000 1 0 0
-10.546180 -5.527582 11.023636 16.226417 0.482766 0.823901 0.019601 -0.005986 196832.000000 1 0 0
-3.280780 -11.039982 15.012036 18.921045 1.281936 0.654415 0.026986 -0.021342 -343112.000000 1 0 0
-3.566380 2.641118 12.647736 13.403723 -0.637432 0.337460 0.001234 0.001278 -1725340.000000 1 0 0
-12.433780 -7.545382 7.597836 16.409107 0.545438 1.089391 0.032662 -0.006495 -660215.000000 1 0 0
-8.168980 -1.906282 13.180836 15.623718 0.229254 0.566764 0.000900 -0.000064 -274841.000000 1 0 0
-9.721580 6.479818 9.443736 15.022693 -0.587915 0.891004 0.002229 -0.005778 -449557.000000 1 0 0
-17.942580 -3.486082 6.562236 19.420398 0.191900 1.226107 0.069035 -0.011413 403266.000000 1 0 0
-1.224080 0.013218 20.529036 20.565502 -0.010798 0.059560 0.014808 -0.009617 -163184.000000 1 0 0
-2.848880 2.560818 20.224236 20.583819 -0.732199 0.187192 0.023229 -0.005572 -396747.000000 1 0 0
-3.772380 11.309718 11.209536 16.364421 -1.248849 0.816200 0.001884 -0.010200 -545905.000000 1 0 0
-4.142780 -4.830482 14.861436 16.166585 0.861888 0.404578 0.011936 -0.010039 627596.000000 1 0 0
-0.095780 -14.332582 13.272536 19.534387 1.564114 0.823791 0.006249 -0.016094 -100814.000000 1 0 0
-11.986580 0.471018 8.348236 14.614821 -0.039275 0.962808 -0.004739 -0.003827 -354373.000000 1 0 0
-7.807180 2.000918 15.433136 17.410842 -0.250892 0.481266 0.005534 0.000271 -1456050.000000 1 0 0
3.483320 -2.150882 18.460836 18.909317 -0.553174 0.218228 0.015289 -0.002658 -318083.000000 1 0 0
-2.222480 4.853818 12.482236 13.575904 -1.141406 0.404141 -0.002501 0.002333 -372067.000000 1 0 0
-10.343380 -6.216682 13.462636 18.079690 0.541177 0.730820 0.020329 -0.009925 -115509.000000 1 0 0
2.234820 -3.807782 14.258536 14.926469 -1.040058 0.300287 0.004912 -0.000024 -754661.000000 1 0 0
6.909320 1.170218 17.111936 18.491254 0.167776 0.388688 0.019021 0.003233 -603560.000000 1 0 0
-1.943880 -5.692382 13.764036 15.021004 1.241725 0.412006 0.002694 -0.006102 -2557360.000000 1 0 0
-13.069280 3.585318 14.587836 19.911442 -0.267745 0.748610 0.020482 -0.010618 164755.000000 1 0 0
-13.393480 -6.710982 13.546036 20.196972 0.464498 0.835649 0.048166 -0.019074 185037.000000 1 0 0
-9.537980 6.946018 11.966936 16.805588 -0.629434 0.778339 0.010877 -0.010092 -169536.000000 1 0 0
-1.096480 -2.474382 12.727736 13.012305 1.153668 0.209521 0.003657 -0.000025 445466.000000 1 0 0
0.054120 6.685718 15.343636 16.737052 1.562702 0.410938 0.004537 -0.004896 523159.000000 1 0 0
-16.640980 -0.417382 9.871436 19.353079 0.025076 1.035530 0.060801 -0.012718 544363.000000 1 0 0
-1.357680 2.737318 13.748236 14.083685 -1.110363 0.218694 0.004950 -0.001265 -3615430.000000 1 0 0
-11.042180 -3.240882 16.294336 19.948394 0.285483 0.614912 0.025157 -0.005054 -810754.000000 1 0 0
-5.186780 -1.420782 17.070136 17.897230 0.267365 0.305201 0.022734 -0.005647 251284.000000 1 0 0
-11.870980 6.707818 11.026936 17.535914 -0.514332 0.890761 0.020241 -0.010973 -3274910.000000 1 0 0
-3.115480 4.564718 18.523336 19.330205 -0.971903 0.289948 0.027028 -0.010742 152460.000000 1 0 0
5.144620 -1.932282 16.495036 17.386404 -0.359290 0.321597 0.014527 0.002243 -275509.000000 1 0 0
-8.065980 -4.088382 12.182336 15.171823 0.469126 0.638555 0.008968 -0.003579 -1726390.000000 1 0 0
-11.542780 -0.792882 16.218536 19.922483 0.068583 0.619650 0.034869 -0.005274 729389.000000 1 0 0
2.095420 2.070518 17.325536 17.574186 0.779421 0.168417 0.011654 -0.006860 -81393.600000 1 0 0
-8.833380 -7.441282 11.699136 16.439923 0.700068 0.778981 0.016885 -0.014885 889224.000000 1 0 0
-7.198080 6.875318 14.755736 17.799272 -0.762468 0.593465 -0.005003 -0.006442 -851171.000000 1 0 0
-5.681980 3.467818 15.712236 17.064144 -0.547972 0.400734 0.010373 -0.004633 -77386.400000 1 0 0
-9.360080 4.281718 11.507936 15.439456 -0.429028 0.729723 -0.005956 -0.008307 -55110.000000 1 0 0
-10.244480 0.072518 13.953536 17.310569 -0.007079 0.633315 0.009873 -0.006026 -120351.000000 1 0 0
8.338020 -0.449982 15.744036 17.821328 -0.053915 0.487647 0.015734 -0.001374 124124.000000 1 0 0
-8.601080 -7.572882 14.793636 18.713064 0.721912 0.659088 0.031767 -0.010666 -1350920.000000 1 0 0
-0.107180 4.152518 15.597136 16.140804 -1.544991 0.260283 0.010719 -0.006367 -188019.000000 1 0 0
-7.982080 3.036518 9.646636 12.883774 -0.363511 0.724633 -0.010054 -0.000990 -913553.000000 1 0 0
-2.007680 -9.640482 13.201136 16.469355 1.365476 0.640901 -0.001326 -0.010457 142678.000000 1 0 0
-5.965280 10.276218 10.320836 15.738643 -1.044843 0.855602 0.011751 -0.013862 -2365140.000000 1 0 0
-8.570880 -2.701482 15.684136 18.076230 0.305336 0.520308 0.026235 -0.009081 -614157.000000 1 0 0
4.142120 5.446418 17.730436 19.004973 0.920595 0.368311 0.021568 -0.010885 -8645.250000 1 0 0
-6.795380 -0.985082 15.149436 16.632888 0.143961 0.425549 0.009258 -0.000956 -2362040.000000 1 0 0
-0.898680 -10.017282 15.534036 18.505670 1.481323 0.574581 -0.005460 -0.007856 19377.700000 1 0 0
-4.409980 5.751618 16.223336 17.768671 -0.916669 0.420144 0.010484 -0.005439 21992.100000 1 0 0
3.790420 0.053518 17.378636 17.787274 0.014118 0.214766 0.015339 -0.003009 -524167.000000 1 0 0
1.422420 0.229718 19.056236 19.110630 0.160115 0.075467 0.015374 -0.014124 -795224.000000 1 0 0
-6.432680 6.404218 17.685436 19.878833 -0.783181 0.474193 0.007308 -0.011030 86191.600000 1 0 0
-12.029980 0.558018 10.926536 16.261027 -0.046352 0.833963 0.009390 -0.007023 -96363.800000 1 0 0
-5.379180 5.091518 13.818236 15.678098 -0.757932 0.492038 0.000127 -0.003532 -981163.000000 1 0 0
-8.744680 -9.502582 10.251936 16.488501 0.826909 0.899805 0.025620 -0.012875 -641711.000000 1 0 0
6.746620 -3.881082 17.097336 18.785595 -0.522032 0.427198 0.012836 0.005864 -474675.000000 1 0 0
-16.356580 2.178018 9.433336 19.007085 -0.132380 1.051457 0.034537 -0.014436 539987.000000 1 0 0
-4.084780 -9.429982 11.524936 15.441313 1.162027 0.728205 0.006871 -0.016910 1028160.000000 1 0 0
-11.037280 -3.890582 9.188236 14.878906 0.338895 0.905192 0.006512 -0.001052 33566.000000 1 0 0
3.566120 -5.393882 18.515836 19.612428 -0.986628 0.335982 0.002031 -0.006706 -411002.000000 1 0 0
2.521220 -1.834382 16.019036 16.319651 -0.628995 0.192236 0.010242 -0.001420 -133788.000000 1 0 0
-3.019580 -4.396382 20.198536 20.890833 0.968962 0.258161 0.043572 -0.022344 -962000.000000 1 0 0
-6.340080 -3.454482 14.390936 16.100593 0.498892 0.465017 0.013662 -0.001670 148084.000000 1 0 0
-9.647680 5.159818 13.903736 17.692239 -0.491118 0.666700 0.018600 -0.012412 139081.000000 1 0 0
-5.936280 -5.160482 11.631936 14.041792 0.715600 0.594587 0.006370 -0.003986 -327514.000000 1 0 0
5.968520 2.179018 19.378136 20.393222 0.350050 0.316841 0.029139 -0.011878 221377.000000 1 0 0
-2.724180 11.845118 13.508136 18.171343 -1.344744 0.732693 0.007171 -0.017734 -966225.000000 1 0 0
3.347720 1.376118 15.143936 15.570476 0.390005 0.234607 0.011161 -0.000618 -982038.000000 1 0 0
-5.705980 7.496818 12.830836 15.918255 -0.920216 0.633357 -0.006499 -0.003678 -859457.000000 1 0 0
-1.859280 -1.684382 15.141736 15.348167 0.736083 0.164196 0.008763 -0.002982 -383501.000000 1 0 0
-7.482580 10.342218 14.255736 19.135738 -0.944473 0.730292 0.027900 -0.021408 92806.700000 1 0 0
-10.058980 2.021618 10.603636 14.754901 -0.198334 0.768935 -0.005919 -0.005361 -2050180.000000 1 0 0
-13.736780 5.117918 9.198036 17.305955 -0.356639 1.010431 0.018499 -0.013456 254833.000000 1 0 0
0.245020 -5.179882 20.294736 20.946778 -1.523529 0.250165 0.013156 -0.017991 -461913.000000 1 0 0
-14.490980 -2.846682 7.450036 16.540711 0.193975 1.103576 0.028673 -0.007153 1099010.000000 1 0 0
-2.247180 2.378218 17.694036 17.994017 -0.813721 0.182853 0.006121 -0.006094 -216539.000000 1 0 0
-6.239480 -8.484282 14.443036 17.874995 0.936694 0.630043 0.020030 -0.015274 449434.000000 1 0 0
-8.003180 2.008518 12.112436 14.655925 -0.245887 0.598018 -0.008156 -0.001568 -768133.000000 1 0 0
-14.723480 -3.269382 10.154536 18.181978 0.218507 0.978226 0.039368 -0.014124 144007.000000 1 0 0
-0.494980 6.936918 12.821736 14.586389 -1.499563 0.496992 0.001451 -0.001806 308121.000000 1 0 0
-1.723580 -2.329382 19.455736 19.670343 0.933771 0.147852 0.025674 -0.012834 158872.000000 1 0 0
-12.806080 10.187018 7.522536 18.009985 -0.671981 1.139898 0.016164 -0.017619 -156551.000000 1 0 0
-19.534180 2.155518 6.854736 20.813886 -0.109901 1.235197 0.075274 -0.022030 1345700.000000 1 0 0
-16.005380 8.439718 6.515636 19.231602 -0.485252 1.225157 0.018838 -0.014070 429066.000000 1 0 0
-12.431080 7.189818 13.517736 19.721927 -0.524367 0.815621 0.037656 -0.013302 -76552.000000 1 0 0
-16.063980 8.272918 10.417536 20.857077 -0.475574 1.047807 0.025935 -0.009627 -2085840.000000 1 0 0
1.812920 10.918218 15.013336 18.651928 1.406252 0.635253 -0.000180 -0.012997 -1207280.000000 1 0 0
2.214520 14.510918 12.530436 19.299810 1.419354 0.864196 -0.004190 -0.005901 -676979.000000 1 0 0
-3.147280 13.761818 11.807836 18.404293 -1.345966 0.874239 -0.002596 -0.007747 268259.000000 1 0 0
9.163820 4.929918 15.833436 18.946698 0.493565 0.581421 0.027449 0.004354 13710.300000 1 0 0
-0.159480 12.551218 12.949036 18.034302 -1.558091 0.769839 -0.007284 -0.007334 -242047.000000 1 0 0
3.427020 13.401018 14.520336 20.054224 1.320434 0.761135 -0.003381 -0.003137 17011.200000 1 0 0
-2.842080 -4.128182 -13.702764 14.590581 0.967859 2.790948 -0.002380 -0.007433 3822.760000 1 0 0
5.498820 -11.633782 16.266636 20.740910 -1.129259 0.669265 0.002220 0.000258 229325.000000 1 0 0
7.871320 -13.500082 7.350636 17.269677 -1.042928 1.131129 0.003938 -0.005897 -371834.000000 1 0 0
-0.263780 15.611518 1.307836 15.668424 -1.553901 1.487230 0.000227 -0.006972 -2243060.000000 1 0 0
-13.960080 7.934118 8.962536 18.389157 -0.516817 1.061708 0.024835 -0.017326 685621.000000 1 0 0
-15.527780 -9.701682 5.194836 19.032102 0.558452 1.294337 0.043758 -0.006930 -539389.000000 1 0 0
9.485020 -11.085382 11.195336 18.389857 -0.863041 0.916277 0.017973 -0.003426 151734.000000 1 0 0
-4.267680 -10.691082 -16.181664 19.858464 1.190996 2.523266 0.022971 -0.021171 -53936.200000 1 0 0
-1.124580 -12.756882 -14.583964 19.408625 1.482869 2.421003 0.025525 -0.005189 -18757.700000 1 0 0
5.709120 -15.408882 -12.941964 20.917030 -1.215969 2.237920 0.026625 -0.010020 42208.500000 1 0 0
2.538920 -11.854982 -16.766664 20.690765 -1.359819 2.515538 0.025487 -0.001834 300295.000000 1 0 0
1.675820 -14.338582 -14.820864 20.689643 -1.454449 2.369342 0.061795 0.018882 425401.000000 1 0 0
-6.501880 -6.452082 -14.412564 17.077055 0.781554 2.575443 0.013338 -0.006778 -103365.000000 1 0 0
-6.005380 -8.235482 -17.263364 20.047730 0.940735 2.608251 0.009314 -0.006192 -106438.000000 1 0 0
-1.855880 -16.269482 -13.237064 21.056120 1.457216 2.250621 0.024174 -0.003489 16251.300000 1 0 0
16.114320 -7.765082 -9.330464 20.174870 -0.449042 2.051586 0.044734 -0.016421 67736.300000 1 0 0
19.262620 -2.579382 -3.803264 19.803196 -0.133114 1.764050 0.050866 -0.014682 -71112.100000 1 0 0
15.936220 -11.198882 -8.836364 21.388301 -0.612557 1.996696 0.059676 -0.024767 74551.000000 1 0 0
18.549220 -4.131782 -6.878964 20.210525 -0.219169 1.918102 0.144161 -0.011079 -342688.000000 1 0 0
9.216120 -9.641782 -15.723164 20.618407 -0.807966 2.438087 0.062567 -0.008371 163295.000000 1 0 0
-4.258580 10.300218 -16.374564 19.807987 -1.178753 2.543951 0.004885 0.014349 459097.000000 1 0 0
2.776620 -9.717182 -18.231964 20.845569 -1.292470 2.635449 0.038442 -0.005294 258810.000000 1 0 0
10.937020 8.136218 -15.108664 20.349157 0.639596 2.407548 0.044252 -0.032637 425007.000000 1 0 0
18.402920 -6.811182 -8.253864 21.288164 -0.354480 1.968954 0.034612 -0.013310 6505.050000 1 0 0
12.305420 5.003618 -14.152464 19.410095 0.386199 2.387845 0.020244 -0.002413 60792.500000 1 0 0
16.020020 6.155218 -10.884164 20.322224 0.366830 2.135990 0.024367 -0.010391 355115.000000 1 0 0
3.589720 -0.517282 -19.232464 19.571442 -0.143116 2.955205 0.040605 -0.007768 178547.000000 1 0 0
10.038920 -1.328982 -14.582464 17.753714 -0.131618 2.534615 0.020949 -0.013281 -237248.000000 1 0 0
12.514920 -5.883082 -13.687264 19.457006 -0.439431 2.351053 0.049293 -0.009894 420268.000000 1 0 0
10.086220 6.646218 -12.941164 17.702480 0.582635 2.390637 0.018866 -0.001822 429970.000000 1 0 0
10.532120 5.308318 -16.214364 20.050172 0.466852 2.512717 0.032140 -0.014655 231176.000000 1 0 0
12.482520 -9.951282 -14.266064 21.409388 -0.673042 2.300094 0.088627 -0.026020 353965.000000 1 0 0
-1.394680 2.256018 -17.815564 18.011915 -1.017099 2.993802 0.008468 -0.004691 309104.000000 1 0 0
6.272420 -1.130582 -17.066864 18.218104 -0.178332 2.784188 0.019168 0.003811 12791.000000 1 0 0
7.335420 -6.353082 -15.481164 18.271193 -0.713757 2.581675 0.031009 -0.008573 346186.000000 1 0 0
-2.403080 -4.859282 -20.348164 21.057901 1.111531 2.881227 0.050316 -0.024154 276298.000000 1 0 0
16.054720 -0.162382 -13.322564 20.863152 -0.010114 2.263434 0.030201 -0.005165 46789.900000 1 0 0
-4.280780 -0.198782 -18.418464 18.910431 0.046403 2.912992 0.019481 -0.012925 204102.000000 1 0 0
3.340420 8.898118 -17.646364 20.043180 1.211668 2.647538 0.027798 -0.023507 -393939.000000 1 0 0
9.954920 0.022918 -17.192564 19.866686 0.002302 2.616738 0.041519 -0.002751 -65706.600000 1 0 0
4.115220 4.728918 -18.246564 19.293388 0.854677 2.810667 0.023904 -0.003405 323376.000000 1 0 0
-2.335380 -11.157582 -18.143764 21.427595 1.364466 2.580638 0.048767 -0.013636 209634.000000 1 0 0
6.584120 -9.238182 -16.184164 19.764155 -0.951593 2.530226 0.037354 -0.010575 183819.000000 1 0 0
9.984520 -12.907882 -11.146464 19.762280 -0.912411 2.170051 0.024964 0.016393 58324.200000 1 0 0
6.231520 7.068218 -17.095164 19.520148 0.848226 2.637825 0.029778 -0.003728 486973.000000 1 0 0
8.277620 0.855518 -19.931664 21.599124 0.102987 2.746081 0.030572 -0.015659 -15488.800000 1 0 0
-1.104880 -0.643582 -20.110564 20.151172 0.527445 3.078097 0.032263 -0.019573 250552.000000 1 0 0
-0.975080 6.931118 -19.729564 20.934347 -1.431032 2.800679 0.014548 -0.002011 -42996.600000 1 0 0
8.596420 5.748718 -18.289164 21.010467 0.589432 2.626970 0.040541 -0.009459 176342.000000 1 0 0
12.309620 0.027118 -13.072064 17.955677 0.002203 2.386223 0.026581 -0.004404 -42269.500000 1 0 0
-4.380080 -2.464782 -19.937664 20.561389 0.512561 2.894654 0.021167 -0.010509 477565.000000 1 0 0
5.685220 -11.449882 -14.406364 19.260448 -1.109928 2.415805 0.000453 -0.007719 53230.100000 1 0 0
11.192220 2.183518 -16.075764 19.709483 0.192672 2.524624 0.029437 0.001641 -197193.000000 1 0 0
-2.819480 -4.325082 -16.870964 17.643277 0.993093 2.844618 0.007837 -0.012619 326360.000000 1 0 0
-6.626680 -4.589382 -17.059864 18.868341 0.605716 2.700189 0.016639 -0.018591 5430.170000 1 0 0
3.125820 10.492618 -15.570364 19.034233 1.281261 2.528755 0.011151 -0.007067 346930.000000 1 0 0
17.240120 -6.066482 -10.651364 21.153617 -0.338350 2.098470 0.073200 -0.020305 -80830.700000 1 0 0
9.806720 -3.102682 -17.504864 20.303169 -0.306419 2.610342 0.035604 -0.010422 83326.600000 1 0 0
-7.351680 -1.714982 -18.372564 19.863018 0.229179 2.751736 0.014564 -0.005997 489630.000000 1 0 0
1.489020 -7.413382 -19.436764 20.855772 -1.372578 2.770581 0.040836 -0.014419 258465.000000 1 0 0
6.183220 10.975018 -13.872364 18.738349 1.057731 2.404342 0.031172 -0.010557 446294.000000 1 0 0
6.173120 -3.756382 -17.617664 19.042056 -0.546651 2.752352 0.033948 -0.020427 478490.000000 1 0 0
4.923220 13.240118 -14.678264 20.371310 1.214798 2.375371 0.021867 -0.015377 192243.000000 1 0 0
9.627520 11.374518 -15.407664 21.435133 0.868389 2.372877 0.078295 -0.029396 231158.000000 1 0 0
17.407820 1.112418 -11.592464 20.944090 0.063817 2.157352 0.054785 0.005744 168479.000000 1 0 0
15.250820 -2.836682 -12.124064 19.688251 -0.183900 2.234200 0.055142 -0.009704 42663.900000 1 0 0
-7.888080 0.861618 -16.854264 18.628752 -0.108799 2.701576 -0.005824 -0.023429 360181.000000 1 0 0
-3.476880 4.313618 -19.164664 19.949445 -0.892393 2.860171 0.015029 -0.005424 59587.300000 1 0 0
3.766520 1.303718 -16.963264 17.425231 0.333226 2.910814 0.014916 -0.000546 366627.000000 1 0 0
-5.103680 14.250718 -13.677364 20.401000 -1.226893 2.305579 0.023825 -0.017842 388448.000000 1 0 0
0.640820 9.372418 -17.933664 20.245226 1.502530 2.659059 0.012316 -0.000093 321284.000000 1 0 0
1.201220 -5.280882 -19.899764 20.623561 -1.347136 2.875875 0.039452 -0.001283 455133.000000 1 0 0
3.700320 -6.159682 -18.191664 19.559415 -1.029839 2.765405 0.029341 -0.013265 -173890.000000 1 0 0
-6.754580 7.489518 -15.846264 18.783538 -0.836948 2.574796 0.004363 -0.000567 24533.500000 1 0 0
-11.901080 3.033718 -16.581464 20.634537 -0.249596 2.504079 0.079508 -0.028354 196221.000000 1 0 0
-4.689580 7.083218 -17.362864 19.329594 -0.985983 2.686574 -0.001142 0.016054 403172.000000 1 0 0
-8.402880 5.430318 -17.522964 20.177983 -0.573731 2.622803 0.020376 -0.008738 325894.000000 1 0 0
-8.524980 4.317918 -15.019564 17.801882 -0.468836 2.574947 0.000107 -0.015616 458560.000000 1 0 0
9.493720 13.085618 -12.158164 20.228324 0.943155 2.215606 0.082313 -0.052171 480668.000000 1 0 0
14.390820 10.198118 -11.730064 21.182345 0.616511 2.157677 0.080278 -0.026181 48661.400000 1 0 0
8.627420 15.357718 -9.934464 20.223389 1.058966 2.084305 0.060786 -0.031663 2635.540000 1 0 0
8.513420 13.334118 -14.053464 21.160739 1.002570 2.297125 0.054512 -0.036568 87780.800000 1 0 0
3.690220 15.308418 -12.996964 20.417798 1.334251 2.260814 0.031746 -0.018556 288115.000000 1 0 0
11.189120 10.948218 -10.437264 18.814791 0.774516 2.158843 0.073088 -0.053127 229473.000000 1 0 0
15.889120 10.900818 -8.715564 21.148358 0.601306 1.995571 0.066618 -0.047086 180473.000000 1 0 0
13.732320 11.576518 -9.127564 20.147080 0.700423 2.040976 0.104107 -0.023838 -18741.300000 1 0 0
10.546220 11.571718 -7.277064 17.265083 0.831730 2.005884 0.045967 -0.017159 -102243.000000 1 0 0
4.949620 16.097218 -9.273764 19.225552 1.272489 2.074151 0.031396 -0.030470 64618.200000 1 0 0
11.512020 13.737518 -10.305564 20.674880 0.873311 2.092616 0.108520 -0.047542 61203.700000 1 0 0
8.934520 -19.333882 -1.671764 21.363975 -1.137912 1.649128 0.063141 -0.002574 303777.000000 1 0 0
7.624420 -17.423782 -4.133464 19.462926 -1.158313 1.784802 0.044234 -0.002297 256508.000000 1 0 0
4.387520 -17.767882 4.586136 18.867448 -1.328704 1.325265 0.053688 -0.053850 262963.000000 1 0 0
10.394120 -17.785182 -2.552764 20.757337 -1.041907 1.694090 0.050161 -0.010549 636364.000000 1 0 0
-3.329780 -14.565582 7.727636 16.821414 1.346052 1.093485 0.032645 -0.042166 -30317.100000 1 0 0
-15.372180 -12.699782 -3.948264 20.326760 0.690486 1.766279 0.043299 -0.012148 317148.000000 1 0 0
-9.037380 -12.585082 -7.369664 17.157228 0.948024 2.014776 0.026468 -0.012567 90239.200000 1 0 0
-11.655880 -15.407782 6.869236 20.504772 0.923153 1.229184 0.050655 -0.009959 355817.000000 1 0 0
-15.039180 -7.163882 -7.307864 18.190740 0.444548 1.984207 0.068922 -0.035197 -384531.000000 1 0 0
5.442420 -15.480882 6.346736 17.594280 -1.232735 1.201749 0.040210 -0.014854 256584.000000 1 0 0
2.702120 -14.061082 9.126736 16.979776 -1.380941 1.003319 0.013294 -0.008498 580966.000000 1 0 0
3.001820 -17.517382 9.681336 20.238524 -1.401082 1.072008 0.029731 -0.012499 102519.000000 1 0 0
-7.217880 -17.059382 -5.740564 19.392637 1.170533 1.871317 -0.021414 -0.010414 -166161.000000 1 0 0
2.220720 -19.817382 -4.084964 20.355519 -1.459203 1.772849 0.039418 -0.010001 162384.000000 1 0 0
-18.731680 -9.812882 -2.861564 21.339096 0.482557 1.705301 0.071382 -0.029347 -36440.500000 1 0 0
-4.032580 -14.858082 2.900236 15.666387 1.305774 1.384598 0.001770 -0.001253 111728.000000 1 0 0
-10.747080 -9.826982 -14.677964 20.676362 0.740707 2.360140 0.059217 -0.014261 149262.000000 1 0 0
0.701220 -20.416782 2.720236 20.609133 -1.536465 1.438418 0.042535 -0.014587 271624.000000 1 0 0
5.310320 -18.578382 0.757936 19.337276 -1.292387 1.531591 0.024028 0.001417 75830.600000 1 0 0
-7.684980 -18.805882 -3.705564 20.650698 1.182857 1.751214 0.024512 -0.020905 -94629.200000 1 0 0
-9.834480 -15.382582 -7.442364 19.716227 1.001962 1.957863 0.056489 -0.019752 55929.600000 1 0 0
-11.762080 -11.273582 -12.335164 20.435177 0.764195 2.218835 0.045102 -0.003776 438301.000000 1 0 0
-13.262780 -15.193182 -3.439664 20.458871 0.853133 1.739724 0.045822 -0.003553 277610.000000 1 0 0
-0.695880 -20.581482 -2.715764 20.771544 1.536998 1.701916 0.023045 -0.011360 381149.000000 1 0 0
-12.075080 -16.656382 -1.041664 20.599216 0.943520 1.621386 0.052179 -0.014464 284467.000000 1 0 0
0.659420 -19.779082 5.534536 20.549404 -1.537469 1.298101 0.052838 -0.036514 -29146.600000 1 0 0
-18.325280 -9.257582 2.375936 20.667941 0.467784 1.455584 0.066506 -0.000413 113236.000000 1 0 0
-14.789780 -14.961482 -0.544564 21.044716 0.791169 1.596676 0.054347 -0.013015 84868.500000 1 0 0
10.213220 -15.535182 -4.942564 19.237481 -0.989219 1.830634 0.041493 -0.011042 77905.600000 1 0 0
0.232520 -18.873382 -7.097564 20.165169 -1.558477 1.930473 0.024883 -0.012859 223544.000000 1 0 0
-10.093880 -17.810582 -2.931064 20.680773 1.055196 1.713004 0.045280 0.018197 575578.000000 1 0 0
-15.045280 -6.836182 -11.443364 20.100856 0.426485 2.176447 0.077491 -0.023965 43762.300000 1 0 0
-12.386880 -15.036582 1.768436 19.561722 0.881721 1.480270 0.045585 -0.022806 189853.000000 1 0 0
-2.454580 -16.283982 10.226436 19.384866 1.421187 1.015085 0.019377 -0.019335 452049.000000 1 0 0
-12.136180 -14.430682 -6.650964 19.994168 0.871551 1.909903 0.032813 -0.009602 195758.000000 1 0 0
5.448620 -17.014382 -7.028564 19.198369 -1.260879 1.945613 0.032453 -0.020234 -55008.400000 1 0 0
-17.220280 -7.104382 -2.561864 18.803548 0.391286 1.707465 -0.022092 -0.009611 -379805.000000 1 0 0
-12.043080 -13.598382 -9.559864 20.526636 0.845980 2.055255 0.047377 -0.020592 8374.720000 1 0 0
-7.899680 -13.611882 9.776636 18.527571 1.044949 1.014929 0.045817 -0.019322 415576.000000 1 0 0
-16.119380 -8.449882 -5.457064 19.000381 0.482825 1.862107 0.052523 -0.004887 338228.000000 1 0 0
-0.837680 -19.753882 -0.406464 19.775813 1.528416 1.591351 0.021751 -0.008524 201112.000000 1 0 0
-15.104380 -11.708382 -1.841364 19.199456 0.659413 1.666851 0.029203 0.010605 251922.000000 1 0 0
-6.863880 -18.833982 1.176336 20.080226 1.221315 1.512181 0.023104 -0.013259 39594.000000 1 0 0
-2.572380 -20.595182 -5.378764 21.440843 1.446538 1.824370 0.022871 -0.010859 191108.000000 1 0 0
-9.135680 -19.291882 -0.735064 21.358316 1.128531 1.605219 0.040214 -0.020975 272942.000000 1 0 0
-17.638480 -7.771982 5.248736 19.976709 0.415032 1.304933 0.054942 -0.006253 -92937.300000 1 0 0
-2.636380 -15.753282 -10.830164 19.297898 1.404979 2.166643 0.018766 0.000256 67664.500000 1 0 0
-2.939380 -18.335482 -8.080664 20.251592 1.411838 1.981237 0.011455 -0.000510 165981.000000 1 0 0
3.993520 -18.119182 -5.928264 19.478123 -1.353862 1.880058 0.024156 0.027448 389875.000000 1 0 0
0.502320 -17.343082 -9.698164 19.876851 -1.541841 2.080493 0.009443 0.005087 -106657.000000 1 0 0
-7.595780 -10.134882 -14.933664 19.581267 0.927635 2.438197 0.026025 -0.009006 491176.000000 1 0 0
-5.205480 -19.484882 -2.040764 20.271220 1.309738 1.671640 0.027286 -0.015198 320816.000000 1 0 0
-10.411680 -15.163482 8.868436 20.420172 0.969101 1.121538 0.045201 -0.031186 137211.000000 1 0 0
-7.050380 -15.338882 -10.295564 19.773411 1.139954 2.118440 0.018529 -0.005393 98805.100000 1 0 0
-12.686480 -8.136582 -12.203864 19.392912 0.570276 2.251442 0.060365 -0.025272 350283.000000 1 0 0
-15.665180 -13.235982 3.155736 20.749645 0.701543 1.418118 0.059023 0.000809 153549.000000 1 0 0
-6.009780 -14.267282 -12.992664 20.210940 1.172125 2.269013 0.008652 -0.001371 514286.000000 1 0 0
-13.433780 -11.347482 -6.819264 18.860916 0.701408 1.940732 0.022832 -0.022113 297707.000000 1 0 0
-11.343280 -10.270382 -9.319564 17.916613 0.735799 2.117838 0.025738 -0.011705 212525.000000 1 0 0
-9.967780 -14.693982 3.618636 18.120824 0.974743 1.369750 0.019291 -0.008514 500647.000000 1 0 0
4.574820 -18.277882 8.256736 20.571428 -1.325542 1.157785 0.043743 -0.021038 214951.000000 1 0 0
-4.971880 -16.579182 5.074136 18.037065 1.279443 1.285630 0.010418 -0.000568 403107.000000 1 0 0
-18.181280 -7.549582 -6.748864 20.811110 0.393574 1.901059 0.029606 -0.027364 648.452000 1 0 0
-17.373980 -4.736782 -10.629964 20.911442 0.266168 2.104044 0.082955 -0.014342 -122256.000000 1 0 0
-15.907380 -4.018182 -12.879364 20.858297 0.247423 2.236318 0.079150 -0.023254 325662.000000 1 0 0
-19.449880 -5.667282 -6.010964 21.131673 0.283529 1.859232 0.053624 -0.015262 38158.500000 1 0 0
5.731720 -13.690082 8.796136 17.252332 -1.174294 1.035784 0.032195 -0.002976 212345.000000 1 0 0
19.875320 -3.732982 2.924936 20.433276 -0.185657 1.427157 0.042799 -0.016894 -83427.200000 1 0 0
18.769420 -2.936082 1.053836 19.026883 -0.155171 1.515381 0.057727 -0.023060 188415.000000 1 0 0
14.328220 -11.451182 0.366436 18.345619 -0.674256 1.550821 0.051365 -0.005298 105945.000000 1 0 0
10.925020 -13.847882 5.348236 18.431590 -0.902841 1.276395 0.011035 0.003722 641980.000000 1 0 0
10.552020 -12.497782 8.221636 18.306692 -0.869614 1.105032 0.044507 -0.025695 136899.000000 1 0 0
17.717220 4.852518 -4.498464 18.912509 0.267331 1.810955 0.010759 0.005950 -59535.800000 1 0 0
18.899320 -6.131682 -4.170864 20.302166 -0.313725 1.777709 0.044934 -0.026124 -108935.000000 1 0 0
17.703820 -10.177382 -0.341064 20.423532 -0.521736 1.587497 0.063363 -0.017518 286516.000000 1 0 0
17.256820 -9.001282 8.678036 21.310308 -0.480784 1.151385 0.065786 -0.016345 21995.600000 1 0 0
19.826520 0.234018 -2.303364 19.961241 0.011803 1.686446 0.053316 -0.002126 73003.700000 1 0 0
7.514320 -13.346982 11.588236 19.206617 -1.058029 0.923106 0.023566 -0.002271 361730.000000 1 0 0
16.176320 -6.594282 -3.351564 17.787380 -0.387084 1.760353 0.043031 -0.016013 315285.000000 1 0 0
14.190720 -7.249482 10.894036 19.303149 -0.472298 0.971132 0.024932 -0.048466 330524.000000 1 0 0
17.074020 1.119218 9.595436 19.617523 0.065457 1.059709 0.084766 -0.028373 328932.000000 1 0 0
16.594520 -10.337882 2.693336 19.735855 -0.557138 1.433900 0.034465 -0.012462 242242.000000 1 0 0
16.179820 -7.014782 -5.722264 18.540174 -0.409091 1.884561 0.048958 -0.019723 216662.000000 1 0 0
18.821320 -4.723382 5.889336 20.278972 -0.245881 1.276135 0.146448 -0.020633 -169184.000000 1 0 0
13.537220 -13.073882 7.952936 20.431150 -0.767988 1.170973 0.044885 -0.022109 208965.000000 1 0 0
15.530920 -14.049582 -1.577064 21.002080 -0.735362 1.645958 0.067057 -0.012719 256491.000000 1 0 0
18.599320 -6.497682 8.202436 21.340912 -0.336096 1.176290 0.076399 -0.021936 239924.000000 1 0 0
19.626120 3.340018 2.903136 20.118860 0.168567 1.425992 0.065064 -0.007385 269238.000000 1 0 0
15.622320 -10.726782 8.197736 20.647605 -0.601698 1.162517 0.048334 -0.027973 343367.000000 1 0 0
14.523620 -4.043382 10.695036 18.484271 -0.271525 0.953783 0.033403 -0.011946 -26131.200000 1 0 0
18.796520 -7.788882 1.817236 20.427388 -0.392840 1.481718 0.070069 -0.021890 163694.000000 1 0 0
18.941120 -5.370482 -1.333164 19.732852 -0.276284 1.638408 0.042943 -0.017579 154724.000000 1 0 0
14.836620 -13.157782 -6.130264 20.756509 -0.725499 1.870610 0.075563 -0.023825 339062.000000 1 0 0
13.876420 -9.586282 10.548236 19.892640 -0.604547 1.011891 0.020096 -0.007374 355385.000000 1 0 0
14.179220 2.217118 0.299336 14.354633 0.155108 1.549942 0.005379 -0.002344 -363168.000000 1 0 0
13.088120 2.661118 13.569836 19.039981 0.200589 0.777453 0.023965 -0.001532 109757.000000 1 0 0
18.368520 -3.423382 8.770336 20.640757 -0.184258 1.131941 0.069066 -0.027768 171438.000000 1 0 0
7.795020 -18.665982 5.237736 20.895337 -1.175205 1.317429 0.067649 -0.024822 336857.000000 1 0 0
12.784620 -3.022082 14.883136 19.851630 -0.232123 0.723160 0.015418 0.003657 284637.000000 1 0 0
11.683120 -13.750082 -7.091964 19.387006 -0.866490 1.945299 0.047407 -0.012952 267816.000000 1 0 0
10.936220 -17.169282 4.557036 20.860291 -1.003640 1.350565 0.044001 -0.018317 559843.000000 1 0 0
18.429720 -0.254082 -5.276364 19.171833 -0.013786 1.849609 0.047430 -0.003459 30248.700000 1 0 0
4.446120 -13.778382 11.465036 18.467778 -1.258657 0.901017 0.012081 -0.004645 277273.000000 1 0 0
9.426320 -3.185582 13.625136 16.871508 -0.325896 0.630755 0.024430 -0.005658 293536.000000 1 0 0
9.181120 -9.369682 14.058236 19.228050 -0.795562 0.750817 0.036366 -0.005566 339150.000000 1 0 0
21.070120 5.782518 -2.997264 22.053822 0.267847 1.707125 0.092627 -0.010470 493634.000000 1 0 0
14.848820 -13.603782 1.919536 20.229557 -0.741668 1.475766 0.044151 -0.004419 260140.000000 1 0 0
10.659920 0.046718 14.120436 17.692450 0.004383 0.646653 0.006416 -0.017898 84527.000000 1 0 0
19.720520 0.046418 7.512136 21.102921 0.002354 1.206838 0.107954 -0.026469 140116.000000 1 0 0
19.923220 1.232918 0.659036 19.972209 0.061805 1.537793 0.060930 -0.011684 314622.000000 1 0 0
17.845020 0.314318 3.058036 18.107875 0.017612 1.401104 0.039778 -0.011344 91067.500000 1 0 0
10.352120 -8.709782 16.342836 21.215913 -0.699452 0.691469 0.038405 0.000773 98103.700000 1 0 0
18.851020 2.975818 5.804336 19.947601 0.156568 1.275546 0.043140 -0.009572 102489.000000 1 0 0
15.533720 2.480518 7.039436 17.233778 0.158349 1.150022 0.031224 -0.009724 49115.900000 1 0 0
11.375320 -16.049882 1.910236 19.764757 -0.954223 1.473997 0.013955 0.002209 323392.000000 1 0 0
8.755320 -16.098682 6.987136 19.612324 -1.072685 1.206531 0.040506 -0.008576 329971.000000 1 0 0
6.350420 6.666518 7.004536 11.568657 0.809677 0.920433 0.000485 -0.000335 -1026660.000000 1 0 0
18.714620 2.470418 -6.410864 19.935876 0.131246 1.898188 0.035115 0.008948 364964.000000 1 0 0
14.445120 4.432418 -7.072664 16.683237 0.297725 2.008586 0.013346 -0.001673 292181.000000 1 0 0
-10.518580 -4.014882 -13.600164 17.655715 0.364627 2.450105 0.034350 -0.015331 -333246.000000 1 0 0
7.685420 -14.222982 -10.351564 19.196713 -1.075390 2.140326 0.016042 -0.002966 -62891.500000 1 0 0
2.313320 -15.536882 13.918836 20.987619 -1.422990 0.845720 0.015220 -0.017086 337673.000000 1 0 0
-9.508880 -7.974782 2.270336 12.616274 0.697878 1.389858 0.008322 0.001681 388375.000000 1 0 0
-14.067480 2.848318 -10.053264 17.523556 -0.199775 2.181812 0.037359 -0.006202 127497.000000 1 0 0
-13.115180 -5.228682 -13.186864 19.319432 0.379363 2.322070 0.072799 -0.009342 91114.200000 1 0 0
-18.065180 -1.463182 -8.809264 20.151793 0.080818 2.023219 0.072429 -0.023208 367482.000000 1 0 0
-12.497980 14.663318 4.781036 19.851214 -0.864951 1.327561 0.034211 -0.027166 418345.000000 1 0 0
-17.526280 5.844918 9.298736 20.683328 -0.321896 1.104505 0.040316 -0.027596 262242.000000 1 0 0
-13.492680 15.128618 0.148136 20.271888 -0.842494 1.563489 0.045077 -0.026627 77715.300000 1 0 0
-16.558280 5.834618 -10.324864 20.367185 -0.338783 2.102423 0.080053 -0.016109 -207094.000000 1 0 0
-18.159680 2.723218 -0.163864 18.363462 -0.148850 1.579720 0.044833 -0.004342 15430.400000 1 0 0
-9.955980 15.405418 -0.304164 18.345053 -0.997051 1.587377 0.029924 -0.010833 -44088.400000 1 0 0
-18.604580 12.163918 2.684336 22.389662 -0.579051 1.450615 0.111245 -0.026066 -299.017000 1 0 0
-8.707780 16.519418 -7.523364 20.132501 -1.085686 1.953783 0.067063 -0.026306 -160773.000000 1 0 0
-14.963680 -1.621182 -12.827664 19.775968 0.107920 2.276604 0.061167 -0.029328 45619.300000 1 0 0
-19.003880 5.162218 -4.865664 20.284739 -0.265240 1.813026 0.056379 -0.004383 -19943.900000 1 0 0
-16.667980 9.851618 -5.267164 20.065367 -0.533813 1.836409 0.044066 0.008005 72470.300000 1 0 0
-18.920680 1.058318 2.451536 19.108171 -0.055876 1.442144 0.050938 -0.014234 298894.000000 1 0 0
-13.883580 11.440518 -7.185464 19.371890 -0.689224 1.950798 0.035237 -0.017055 167771.000000 1 0 0
-13.973280 4.931718 -12.383564 19.311319 -0.339291 2.266935 0.083450 -0.032532 157422.000000 1 0 0
-14.289980 9.228418 -6.457564 18.195256 -0.573414 1.933607 0.031270 -0.009872 -71679.100000 1 0 0
-6.618480 11.945918 -15.252764 20.473301 -1.064859 2.411343 0.024152 -0.013370 -196015.000000 1 0 0
-15.355380 13.778118 3.109136 20.863627 -0.731312 1.421217 0.049371 -0.022577 102186.000000 1 0 0
-18.791580 8.347318 -4.807364 21.116627 -0.418025 1.800468 0.068342 -0.014650 191749.000000 1 0 0
-4.370680 16.035018 -11.600564 20.268146 -1.304690 2.180171 0.017522 -0.005439 144900.000000 1 0 0
-19.209380 -2.482082 -6.708064 20.497784 0.128500 1.904197 0.024081 -0.011478 -124877.000000 1 0 0
-12.273580 13.573618 -6.689964 19.484340 -0.835653 1.921279 0.060033 -0.013841 172530.000000 1 0 0
-19.591380 2.893418 4.485236 20.305452 -0.146628 1.348071 0.076269 -0.013108 -49884.900000 1 0 0
-15.281880 12.185018 0.509136 19.551719 -0.673123 1.544753 0.031631 -0.017053 118933.000000 1 0 0
-16.723180 1.876418 -8.988864 19.078401 -0.111737 2.061395 -0.008281 -0.006103 203141.000000 1 0 0
-16.841380 14.034718 -3.734164 22.238466 -0.694747 1.739510 0.048287 0.029623 147952.000000 1 0 0
-10.627380 15.762818 -8.565864 20.851419 -0.977593 1.994133 0.041742 -0.019160 -24043.500000 1 0 0
-19.426080 1.757718 -6.884064 20.684595 -0.090237 1.910079 0.067886 -0.012213 202304.000000 1 0 0
-17.136480 10.272518 -0.414064 19.983869 -0.540017 1.591518 0.039176 -0.014277 -71730.900000 1 0 0
-11.747680 6.207018 -14.527364 19.687035 -0.486078 2.400772 0.043178 -0.026288 443863.000000 1 0 0
-13.433080 12.279218 -4.627064 18.778620 -0.740552 1.819761 0.042254 -0.017660 271312.000000 1 0 0
-18.912780 7.384918 0.003036 20.303454 -0.372266 1.570647 0.057518 -0.013963 83281.400000 1 0 0
-14.442280 8.980318 -11.076164 20.295491 -0.556300 2.148074 0.033188 0.008307 620438.000000 1 0 0
-18.644680 11.372718 4.876636 22.377318 -0.547719 1.351106 0.065586 -0.026222 132285.000000 1 0 0
-8.172180 10.573918 -13.433664 18.948762 -0.912823 2.358800 0.006802 -0.058050 358971.000000 1 0 0
-21.153880 -1.838182 -5.249964 21.872989 0.086678 1.813183 0.056259 -0.021384 297447.000000 1 0 0
-10.755680 13.465118 -3.283264 17.543485 -0.896799 1.759056 0.029756 -0.002688 382668.000000 1 0 0
-18.642080 -4.733582 3.568236 19.561857 0.248664 1.387362 0.042655 -0.010965 -85744.700000 1 0 0
-11.568480 11.349618 -13.231364 20.921581 -0.775849 2.255478 0.051977 -0.013459 88488.800000 1 0 0
-14.611080 12.355818 -10.535564 21.843718 -0.701962 2.074092 0.057167 0.024001 107160.000000 1 0 0
-13.030780 9.844318 -13.720864 21.330118 -0.646991 2.269548 0.082978 -0.022321 111382.000000 1 0 0
-18.381380 -5.044182 -3.164964 19.321902 0.267825 1.735340 0.010101 -0.011402 -499802.000000 1 0 0
-9.423480 12.555618 -11.469364 19.442012 -0.926950 2.201765 0.030451 -0.019387 55318.100000 1 0 0
-15.433680 7.911018 -8.286664 19.221121 -0.473662 2.016533 0.020427 -0.000056 107029.000000 1 0 0
-14.631280 8.726118 1.907636 17.142303 -0.537769 1.459283 0.020767 -0.008341 22178.500000 1 0 0
-19.914880 5.886218 7.392536 22.043130 -0.287387 1.228802 0.073394 -0.025574 328251.000000 1 0 0
-18.719680 5.750318 3.831636 19.954298 -0.298031 1.377576 0.025663 -0.010904 57937.400000 1 0 0
-14.954580 11.967918 5.932836 20.051660 -0.674914 1.270422 0.039247 -0.028763 -132130.000000 1 0 0
18.111420 6.157318 5.767036 19.979860 0.327711 1.277988 0.047788 -0.014657 163157.000000 1 0 0
18.200920 7.371818 0.583836 19.645815 0.384830 1.541074 0.045934 -0.005801 -163643.000000 1 0 0
15.794020 5.271118 8.942136 18.899671 0.322118 1.077948 0.007676 0.007612 38145.000000 1 0 0
12.363020 12.901518 10.741136 20.848631 0.806709 1.029560 0.059412 -0.018177 148496.000000 1 0 0
14.574520 13.089518 3.920936 19.978134 0.731770 1.373253 0.031757 0.003945 142429.000000 1 0 0
5.111220 10.459718 14.437236 18.546268 1.116264 0.678613 0.011981 -0.001666 254430.000000 1 0 0
12.202120 14.410218 -5.192464 19.583355 0.868181 1.839153 0.048260 0.010602 240730.000000 1 0 0
17.962620 9.374418 -2.735764 20.445534 0.481002 1.705006 0.057160 -0.010642 -185573.000000 1 0 0
14.496720 7.447418 9.394836 18.811748 0.474572 1.047875 0.031789 -0.004866 186862.000000 1 0 0
4.497620 19.303418 -1.840464 19.905724 1.341884 1.663388 0.018470 -0.024220 596856.000000 1 0 0
-4.714580 19.002418 3.366636 19.865885 -1.327603 1.400506 0.009261 -0.017450 277369.000000 1 0 0
6.589920 12.940218 12.538136 19.185441 1.099769 0.858566 0.012340 0.004641 -366136.000000 1 0 0
0.311120 16.982618 -10.251164 19.839165 1.552478 2.113804 0.007366 0.004586 -53845.500000 1 0 0
10.652020 9.772018 15.674736 21.322645 0.742338 0.744950 0.040281 0.005949 215604.000000 1 0 0
-1.461680 12.243018 0.571836 12.343216 -1.451970 1.524452 -0.003071 -0.000868 363552.000000 1 0 0
-4.946280 19.124818 -2.547164 19.917640 -1.317711 1.699032 0.029190 -0.010022 98299.000000 1 0 0
5.670720 18.662918 6.040336 20.419286 1.275812 1.270487 0.031575 -0.011924 318599.000000 1 0 0
11.185620 17.495218 -1.479064 20.817982 1.001942 1.641904 0.073635 -0.021852 407231.000000 1 0 0
18.586720 10.660918 2.956036 21.630060 0.520764 1.433704 0.058380 -0.009735 377480.000000 1 0 0
11.432820 16.975818 6.238336 21.396369 0.978094 1.274939 0.045020 0.002287 -187352.000000 1 0 0
17.876120 8.488818 -6.245364 20.751392 0.443342 1.876497 0.030317 0.018490 446545.000000 1 0 0
0.161620 15.344118 10.936236 18.843283 1.560264 0.951603 -0.003737 -0.009198 271563.000000 1 0 0
0.785920 20.227718 -2.025864 20.344099 1.531962 1.670542 0.025713 -0.023286 348071.000000 1 0 0
14.358220 9.644518 -1.221964 17.339793 0.591484 1.641326 0.044229 -0.012297 6383.420000 1 0 0
10.093320 17.185118 1.847536 20.015414 1.039746 1.478359 0.051541 -0.031543 311863.000000 1 0 0
-0.061980 17.539218 -0.380464 17.543454 -1.567263 1.592485 0.005620 -0.015685 -27847.500000 1 0 0
-0.133180 20.975818 0.736536 20.989168 -1.564447 1.535698 0.027706 -0.015475 253213.000000 1 0 0
5.390420 18.025018 0.037936 18.813807 1.280209 1.568780 0.015187 -0.015819 -107590.000000 1 0 0
6.965220 18.564618 -1.862364 19.915515 1.211861 1.664446 0.029438 -0.026632 91954.400000 1 0 0
10.050720 9.866018 12.692536 18.959318 0.776125 0.837313 0.023286 -0.004053 183901.000000 1 0 0
12.481120 14.756818 8.302636 21.035109 0.868753 1.165051 0.044330 -0.014904 243054.000000 1 0 0
0.319420 17.682918 7.007336 19.023416 1.552735 1.193559 0.004578 -0.000895 206146.000000 1 0 0
6.981820 18.091818 -7.703464 20.866314 1.202495 1.948925 0.034616 -0.016266 64022.200000 1 0 0
-1.208380 18.441418 9.132836 20.614431 -1.505365 1.111819 0.026244 -0.013467 -13637.400000 1 0 0
16.110220 6.913518 -7.955064 19.251467 0.405371 1.996782 0.035895 0.004929 -163506.000000 1 0 0
-5.195880 19.830618 -6.644464 21.549930 -1.314544 1.884232 0.018435 -0.013364 205739.000000 1 0 0
3.472520 15.586518 9.432236 18.546294 1.351586 1.037264 0.005392 0.000364 177642.000000 1 0 0
9.001120 15.001418 7.781736 19.147274 1.030364 1.152270 0.024514 -0.000405 123352.000000 1 0 0
-2.812080 18.956018 6.733536 20.312039 -1.423523 1.232898 0.015751 -0.004723 73350.000000 1 0 0
4.792420 18.036418 8.545736 20.525819 1.311089 1.141379 0.023515 -0.003889 -80485.500000 1 0 0
14.839020 12.177118 -6.137664 20.153155 0.687185 1.880263 0.064813 -0.012692 161416.000000 1 0 0
11.576220 7.424718 15.811536 20.955667 0.570289 0.715869 0.039434 0.002809 77731.700000 1 0 0
17.157920 9.268718 4.945436 20.118665 0.495289 1.322438 0.047722 -0.012552 151531.000000 1 0 0
4.867520 15.033618 11.977136 19.828116 1.257672 0.922225 -0.001238 -0.008082 529319.000000 1 0 0
15.997320 10.399718 -3.466164 19.392851 0.576439 1.750496 0.073700 -0.031032 -53986.600000 1 0 0
15.384020 13.642918 6.519436 21.570821 0.725488 1.263761 0.055456 -0.004868 399581.000000 1 0 0
12.581520 14.728118 -8.212264 21.039330 0.863839 1.971785 0.103087 -0.036399 283213.000000 1 0 0
-8.948580 15.104018 9.711436 20.062912 -1.035937 1.065520 0.052709 -0.021922 152616.000000 1 0 0
-3.853180 17.168118 -7.991264 19.324895 -1.350017 1.997115 0.014826 0.017646 40631.000000 1 0 0
2.001820 19.829118 -4.481564 20.427570 1.470184 1.791983 0.014766 -0.021110 134104.000000 1 0 0
6.933920 16.457418 9.270736 20.121441 1.172043 1.091968 0.025100 -0.005751 474205.000000 1 0 0
13.242420 15.611718 -1.410564 20.520164 0.867327 1.639591 0.090995 -0.029780 298866.000000 1 0 0
13.280420 16.151518 4.546536 21.398880 0.882641 1.356698 0.077228 -0.032512 236773.000000 1 0 0
2.233820 18.324318 0.523736 18.467400 1.449490 1.542433 0.014183 -0.026020 -79595.100000 1 0 0
-7.292580 17.931718 1.133936 19.391081 -1.184539 1.512286 0.006438 0.012789 308612.000000 1 0 0
0.752220 19.242418 -6.089164 20.196891 1.531724 1.877051 0.028814 -0.023368 244549.000000 1 0 0
-7.156480 17.858418 -6.327564 20.252811 -1.189657 1.888545 0.047390 -0.025841 -157521.000000 1 0 0
-7.697980 18.491018 -1.781964 20.108507 -1.176310 1.659530 0.052834 -0.019682 28313.000000 1 0 0
-14.363580 -9.538082 8.930936 19.417751 0.586186 1.092872 0.053702 -0.012430 311620.000000 1 0 0
-12.950880 -13.607482 8.026536 20.428268 0.810116 1.166999 0.039208 -0.014237 126462.000000 1 0 0
-3.872680 -15.880482 12.655436 20.672383 1.331601 0.911968 0.046063 -0.014829 147144.000000 1 0 0
-2.086580 -15.003382 14.955336 21.286553 1.432609 0.791791 0.031804 -0.026553 361335.000000 1 0 0
-6.733080 -14.288082 13.241136 20.610952 1.130422 0.873129 0.013843 -0.012518 44329.900000 1 0 0
-10.215780 -10.761782 11.951636 19.053076 0.811420 0.892739 0.060529 -0.026874 44976.600000 1 0 0
-7.488280 -10.599682 13.092136 18.434522 0.955746 0.781019 0.029793 -0.018860 385078.000000 1 0 0
-15.292780 -12.331282 7.280136 20.950657 0.678599 1.215904 0.057938 -0.015110 439507.000000 1 0 0
-4.588880 -11.893482 12.886136 18.126368 1.202564 0.780011 0.035126 -0.039920 270008.000000 1 0 0
3.825020 -13.103882 13.762336 19.384127 -1.286787 0.781327 0.006915 0.009434 154523.000000 1 0 0
6.909720 -13.172482 14.919036 21.067419 -1.087697 0.783912 0.040267 -0.002677 288819.000000 1 0 0
6.926820 -9.097382 17.143536 20.606892 -0.920034 0.588216 0.015698 0.007142 482997.000000 1 0 0
-5.311480 13.484818 13.357136 19.709521 -1.195572 0.826166 0.022617 -0.011585 276286.000000 1 0 0
-13.568280 -1.918482 17.765336 22.436264 0.140464 0.657024 0.044579 -0.007626 390075.000000 1 0 0
-9.898180 9.278218 13.391136 19.062576 -0.753080 0.791916 0.016211 -0.014063 422607.000000 1 0 0
-7.563480 -8.308782 17.124836 20.481750 0.832320 0.580657 0.050285 -0.021682 174345.000000 1 0 0
-5.016880 1.681718 18.736436 19.469239 -0.323440 0.275236 0.020877 0.002866 495034.000000 1 0 0
-15.837180 -3.684082 13.973336 21.439283 0.228558 0.860889 0.061383 -0.019915 215407.000000 1 0 0
-14.410180 2.620818 12.249236 19.093605 -0.179906 0.874297 0.024398 -0.015832 142172.000000 1 0 0
-14.677780 10.666018 9.502536 20.481683 -0.628407 1.088344 0.002202 -0.003270 -226126.000000 1 0 0
-4.764380 11.204018 15.795736 19.943285 -1.168724 0.656665 0.032032 -0.011695 239002.000000 1 0 0
-13.153880 13.000318 7.444036 19.936060 -0.779527 1.188130 0.028823 -0.038198 95563.500000 1 0 0
-3.713580 -6.356582 18.579936 19.985265 1.042068 0.377248 0.041383 -0.019216 231094.000000 1 0 0
0.647720 -2.949882 18.417136 18.663125 -1.354651 0.162540 0.005938 -0.006850 80206.700000 1 0 0
-4.489280 6.234318 20.998536 22.359760 -0.946713 0.350731 0.033649 -0.010016 115069.000000 1 0 0
1.995920 -10.595782 16.609936 19.802633 -1.384609 0.575768 0.002759 -0.008308 226010.000000 1 0 0
-14.813780 -0.344382 14.245136 20.554575 0.023243 0.805099 0.006490 -0.002826 58139.600000 1 0 0
-14.121580 -6.005282 8.196236 17.397147 0.402087 1.080230 0.040090 -0.003996 -245643.000000 1 0 0
10.348920 1.024218 16.607536 19.594882 0.098647 0.559455 0.039147 0.010969 458497.000000 1 0 0
-7.417780 12.243318 11.867036 18.594323 -1.026077 0.878629 0.017697 -0.019181 96347.700000 1 0 0
-1.919080 7.424718 19.985236 21.406049 -1.317860 0.366393 0.029936 -0.015183 353003.000000 1 0 0
1.289420 -13.024682 15.332436 20.159081 -1.472120 0.706602 -0.002113 -0.028268 628251.000000 1 0 0
-3.586880 -11.569682 17.584836 21.352979 1.270169 0.603189 0.053921 -0.033824 325716.000000 1 0 0
-2.396280 8.922518 16.777136 19.152696 -1.308422 0.503359 0.018023 -0.008104 430815.000000 1 0 0
-5.820480 -9.461782 20.076236 22.944685 1.019307 0.505393 0.124133 -0.033832 215010.000000 1 0 0
-6.533880 -2.460382 19.119136 20.354027 0.360136 0.350126 0.038461 -0.016562 285528.000000 1 0 0
-10.879780 -7.734982 16.347236 21.105252 0.618037 0.684781 0.062482 -0.028698 352413.000000 1 0 0
-0.364780 6.375118 17.896736 19.001798 -1.513639 0.342719 0.012578 -0.006889 71874.300000 1 0 0
-6.317780 -11.320282 18.550836 22.631762 1.061760 0.609942 0.088547 -0.039374 365795.000000 1 0 0
0.395120 3.443818 18.867936 19.183717 1.456563 0.181694 0.013558 -0.004338 156557.000000 1 0 0
-17.885780 -1.090882 7.810836 19.547386 0.060916 1.159733 0.042256 -0.014605 115203.000000 1 0 0
-1.767680 -8.873782 17.552536 19.747410 1.374168 0.475962 0.015534 -0.013259 270894.000000 1 0 0
5.943320 3.470718 15.022636 16.524180 0.528549 0.429605 0.011846 -0.000300 416511.000000 1 0 0
-13.261280 -6.851582 10.260636 18.113155 0.476887 0.968575 0.015308 -0.012174 61782.000000 1 0 0
3.814620 8.169318 16.851936 19.112217 1.133941 0.491266 0.017028 -0.004596 95881.000000 1 0 0
6.503120 4.549318 17.916836 19.595915 0.610430 0.416983 0.034104 -0.008441 250116.000000 1 0 0
3.975620 -9.942782 17.767736 20.745045 -1.190419 0.542383 -0.019121 -0.007280 287800.000000 1 0 0
-4.449480 -0.594682 19.906636 20.406510 0.132865 0.221795 0.024047 -0.010867 765742.000000 1 0 0
-11.174480 2.185118 16.588536 20.120220 -0.193109 0.601530 0.040988 -0.017883 108697.000000 1 0 0
-16.808880 -3.937482 8.758536 19.358568 0.230101 1.101300 0.064531 -0.016253 218378.000000 1 0 0
-13.384480 -9.710682 11.759136 20.290858 0.627648 0.952646 0.073681 -0.036323 124519.000000 1 0 0
-14.632580 5.626118 12.872336 20.284542 -0.367067 0.883320 0.027398 -0.021414 442332.000000 1 0 0
1.211720 9.595618 17.146536 19.686235 1.445183 0.513580 0.011483 -0.009071 124318.000000 1 0 0
-3.870780 -10.310382 14.863036 18.498561 1.211653 0.637696 0.031187 -0.025985 646023.000000 1 0 0
-18.205380 -4.255782 7.053236 19.982384 0.229641 1.210050 0.101877 -0.004289 -193055.000000 1 0 0
-0.583480 -0.522982 20.981436 20.996062 0.730776 0.037328 0.022104 -0.015462 358207.000000 1 0 0
-1.898980 2.561018 20.234336 20.483976 -0.932761 0.156281 0.014817 -0.014827 90855.500000 1 0 0
-7.997880 2.043018 16.362836 18.327095 -0.250097 0.467224 0.002270 0.007260 581165.000000 1 0 0
2.662120 -1.916882 18.877136 19.160052 -0.624062 0.172060 0.009135 -0.002824 -45102.600000 1 0 0
-12.468480 4.286318 14.364136 19.497792 -0.331116 0.742611 0.004268 -0.011604 175382.000000 1 0 0
-13.263380 -5.793182 13.338336 19.682210 0.411806 0.826187 0.032770 -0.011926 48093.500000 1 0 0
-17.559080 -0.183582 9.941136 20.178731 0.010455 1.055659 0.075953 -0.020601 292991.000000 1 0 0
-7.412080 7.800918 14.761336 18.267191 -0.810952 0.629912 0.002194 -0.008779 81407.800000 1 0 0
-9.566180 0.719518 13.799336 16.806284 -0.075073 0.607492 0.011607 -0.008955 178442.000000 1 0 0
8.041820 -0.778882 14.903436 16.952579 -0.096553 0.496773 0.021287 -0.000963 162437.000000 1 0 0
3.968420 6.011318 18.474236 19.828810 0.987313 0.371768 0.023383 -0.008894 -163594.000000 1 0 0
2.018420 0.581118 19.707236 19.818851 0.280326 0.106180 0.024503 -0.020512 233894.000000 1 0 0
-7.173380 6.727718 17.186236 19.801168 -0.753350 0.519756 0.007172 -0.019237 684006.000000 1 0 0
7.351720 -3.182282 17.316736 19.079938 -0.408511 0.433292 0.004593 0.023437 379196.000000 1 0 0
-15.999780 2.815718 8.826236 18.488474 -0.174201 1.073113 0.025823 -0.020844 37592.600000 1 0 0
4.349320 -5.410082 19.053236 20.278347 -0.893664 0.349380 0.024188 -0.013005 81429.300000 1 0 0
-3.723380 -3.895482 20.593736 21.287092 0.807983 0.255930 0.040426 -0.020189 362452.000000 1 0 0
-9.891480 5.988818 14.298336 18.388848 -0.544419 0.680029 0.022854 -0.013498 62182.500000 1 0 0
6.343020 2.931618 19.820836 21.016513 0.432937 0.338940 0.045778 -0.017450 172337.000000 1 0 0
-7.443180 11.169818 14.720436 19.921270 -0.983002 0.739315 0.024109 -0.023619 255225.000000 1 0 0
-14.571680 4.753718 9.467836 18.015871 -0.315344 1.017461 0.026324 -0.015897 314558.000000 1 0 0
0.919320 -5.830082 20.453336 21.287883 -1.414398 0.280933 0.018864 -0.016308 171859.000000 1 0 0
-6.185180 -8.334782 13.506536 17.033835 0.932375 0.655204 0.015760 -0.011989 270044.000000 1 0 0
-12.890380 10.008318 6.593336 17.601148 -0.660195 1.186834 0.003466 -0.021120 153254.000000 1 0 0
-19.556480 2.512218 7.734936 21.180094 -0.127760 1.196950 0.050334 -0.016800 -77640.800000 1 0 0
-16.534680 9.155818 6.184636 19.886537 -0.505706 1.254555 0.044001 -0.013852 152415.000000 1 0 0
-12.343980 8.110118 13.736936 20.170554 -0.581287 0.821616 0.008053 -0.014948 161768.000000 1 0 0
-16.673880 8.840718 10.873836 21.781113 -0.487525 1.048084 0.033836 -0.010328 518059.000000 1 0 0
2.308020 10.690718 14.235136 17.951532 1.358170 0.655118 -0.002110 -0.051849 308592.000000 1 0 0
1.630720 14.838618 13.204436 19.929901 1.461339 0.846586 -0.000222 -0.014531 627180.000000 1 0 0
8.901920 5.176418 16.712736 19.630462 0.526701 0.552210 0.032653 0.001334 196972.000000 1 0 0
-0.199180 13.257018 13.583736 18.981730 -1.555773 0.773283 -0.006986 0.008328 285609.000000 1 0 0
3.699420 12.517518 14.738536 19.687519 1.283437 0.724813 0.001133 -0.004787 100257.000000 1 0 0
-3.673880 -4.440882 -13.366664 14.556323 0.879638 2.734490 -0.000636 -0.009629 127591.000000 1 0 0
5.345620 -12.341482 16.881636 21.584195 -1.162049 0.672720 -0.024723 0.023526 132350.000000 1 0 0
8.789420 -13.737482 7.293636 17.865314 -1.001616 1.150253 0.015019 -0.003631 224004.000000 1 0 0
-0.496080 15.153518 0.508636 15.170165 -1.538071 1.537261 -0.000549 -0.005995 -289114.000000 1 0 0
-14.573780 7.341818 8.544036 18.420041 -0.466658 1.088466 0.034811 -0.014581 6153.830000 1 0 0
-15.887780 -10.267382 4.521936 19.449642 0.573730 1.336155 0.037463 -0.007440 141478.000000 1 0 0
8.958920 -10.307882 11.341236 17.752135 -0.855299 0.877773 0.009560 -0.000583 72698.900000 1 0 0
-25.891530 5.826218 31.029736 40.830878 -0.221337 0.707548 0.062803 -0.025079 -167581.000000 0 0 1
-24.634180 5.395718 30.570836 39.629945 -0.215629 0.689746 0.055608 -0.023861 -17661.000000 0 0 1
-23.857680 5.024418 31.707086 39.997162 -0.207566 0.655516 0.046867 -0.010161 66671.000000 0 0 1
-22.432380 4.516018 31.415286 38.865489 -0.198662 0.629524 0.045147 -0.013751 -114698.000000 0 0 1
-22.377180 3.101218 31.186816 38.509391 -0.137711 0.626901 0.045786 -0.022643 1160210.000000 0 0 1
-21.043780 2.605818 30.889566 37.467269 -0.123201 0.601582 0.049557 -0.018957 1072880.000000 0 0 1
-20.601780 1.569918 31.898936 38.005790 -0.076056 0.574769 0.051152 -0.021688 -162820.000000 0 0 1
-21.407980 0.419818 31.733146 38.281463 -0.019608 0.593581 0.061690 -0.020322 406540.000000 0 0 1
-21.178880 -0.325882 32.900616 39.129294 0.015386 0.572004 0.056129 -0.016416 214251.000000 0 0 1
-21.959480 -1.671982 32.906510 39.596119 0.075993 0.589796 0.071511 -0.037436 -317452.000000 0 0 1
-21.295080 -2.663182 32.160112 38.663235 0.124415 0.588452 0.090270 -0.035703 156635.000000 0 0 1
-21.605580 -4.005482 32.473417 39.209281 0.183310 0.594895 0.090429 -0.039007 -1001070.000000 0 0 1
-23.000080 -4.543782 32.099357 39.749444 0.195044 0.630823 0.063942 -0.025284 26372.200000 0 0 1
-24.090180 -4.255582 32.967842 41.052714 0.174848 0.638382 0.057342 -0.016129 417656.000000 0 0 1
-23.979580 -4.570982 -33.685274 41.600623 0.188360 2.514488 0.049355 -0.017259 -1245950.000000 0 0 1
-25.211650 -4.124982 -32.899374 41.653470 0.162177 2.481336 0.044066 -0.008036 -221707.000000 0 0 1
-25.221760 -4.639982 -31.592544 40.690975 0.181933 2.459733 0.045318 -0.007712 239980.000000 0 0 1
-26.472950 -4.309282 -31.026044 41.012223 0.161365 2.428752 0.048165 -0.006201 -127568.000000 0 0 1
-26.782600 -5.043182 -29.711564 40.317718 0.186121 2.399322 0.042181 -0.014203 -700836.000000 0 0 1
-26.966290 -6.458382 -29.844304 40.737869 0.235071 2.392921 0.038730 -0.005021 450939.000000 0 0 1
-27.040720 -6.982382 -28.540724 39.931530 0.252698 2.367051 0.019419 -0.006640 -137849.000000 0 0 1
-27.072900 -8.517282 -28.369454 40.128692 0.304802 2.355990 0.025086 -0.006613 -196479.000000 0 0 1
-28.363880 -9.037482 -28.569204 41.259971 0.308456 2.335633 0.041128 -0.004623 -129594.000000 0 0 1
-28.394740 -10.323382 -28.044964 41.223215 0.348709 2.318995 0.041802 -0.006171 -276004.000000 0 0 1
-29.833370 -10.659982 -27.676894 42.067513 0.343179 2.288845 0.078618 -0.012400 -313520.000000 0 0 1
-29.953400 -11.805382 -26.835144 41.912983 0.375431 2.265631 0.087899 -0.014952 272546.000000 0 0 1
-31.205020 -11.794382 -26.128444 42.374005 0.361367 2.235232 0.089554 -0.016685 492653.000000 0 0 1
-31.251950 -12.438982 -24.739264 41.754567 0.378801 2.204946 0.089181 -0.017099 -778917.000000 0 0 1
-30.510740 -11.679482 -23.919364 40.490141 0.365591 2.202779 0.075152 -0.017284 -592657.000000 0 0 1
-30.553210 -12.116482 -22.593664 39.884601 0.377546 2.173019 0.078817 -0.017415 -386866.000000 0 0 1
-29.737350 -11.331182 -21.567264 38.442848 0.364057 2.166416 0.078216 -0.020661 -270279.000000 0 0 1
-29.843400 -11.776182 -20.217464 37.921667 0.375842 2.133101 0.085565 -0.023573 42449.300000 0 0 1
-28.877410 -12.758382 -19.958564 37.350039 0.416024 2.134553 0.088815 -0.028349 -677860.000000 0 0 1
-28.649420 -12.982982 -18.451764 36.466624 0.425485 2.101326 0.083828 -0.033176 -13367.200000 0 0 1
-28.004930 -11.865582 -17.847564 35.264765 0.400766 2.101455 0.069466 -0.033805 108123.000000 0 0 1
-28.017460 -12.143982 -16.434764 34.677887 0.409000 2.064541 0.083491 -0.038119 3321.980000 0 0 1
-27.582070 -10.842382 -15.675464 33.526825 0.374540 2.057313 0.077950 -0.030132 387990.000000 0 0 1
-26.212150 -10.509582 -15.910064 32.413859 0.381319 2.083852 0.067828 -0.035968 724621.000000 0 0 1
-25.955280 -9.198382 -15.457964 31.579035 0.340583 2.082314 0.066743 -0.042482 9411.450000 0 0 1
-24.487680 -8.701582 -15.526864 30.272884 0.341429 2.109352 0.080097 -0.042384 197625.000000 0 0 1
-23.648880 -9.360482 -14.587764 29.320488 0.376890 2.091543 0.076507 -0.039030 -771681.000000 0 0 1
-22.382580 -8.842282 -14.763564 28.233467 0.376234 2.121058 0.114745 -0.055104 -1417010.000000 0 0 1
-21.320480 -9.204982 -13.755864 26.991079 0.407569 2.105568 0.090979 -0.037475 -427388.000000 0 0 1
-20.701080 -10.472382 -13.966164 27.078760 0.468345 2.112692 0.084414 -0.033670 1567940.000000 0 0 1
-19.436880 -10.637082 -13.270064 25.827009 0.500739 2.110411 0.092660 -0.029824 1511530.000000 0 0 1
-18.407880 -11.717282 -13.772464 25.803595 0.566852 2.133816 0.086818 -0.017063 755045.000000 0 0 1
-17.680580 -11.450282 -14.988164 25.852600 0.574700 2.189224 0.104332 -0.027262 397534.000000 0 0 1
-18.514680 -11.314882 -16.120464 27.031265 0.548563 2.209760 0.098431 -0.031129 -316197.000000 0 0 1
-17.876280 -10.694082 -17.377764 27.127688 0.539115 2.266065 0.117543 -0.032884 -307655.000000 0 0 1
-18.737680 -10.880282 -18.481364 28.478799 0.526080 2.277002 0.086894 -0.020537 59591.100000 0 0 1
-18.455080 -10.250982 -19.693964 28.870830 0.507022 2.321482 0.097279 -0.024064 -183525.000000 0 0 1
-19.407580 -10.616882 -20.874064 30.415438 0.500574 2.327184 0.120266 -0.024267 71293.400000 0 0 1
-20.755980 -10.250882 -20.700264 31.054665 0.458736 2.300401 0.087283 -0.037623 326042.000000 0 0 1
-21.597180 -10.751882 -21.757664 32.487491 0.461916 2.304634 0.106203 -0.022581 182420.000000 0 0 1
-22.329380 -9.737882 -22.654964 33.266724 0.411236 2.319937 0.069064 -0.023736 -325510.000000 0 0 1
-21.555880 -8.837582 -23.418964 33.033418 0.389084 2.358801 0.083370 -0.029748 187671.000000 0 0 1
-22.387580 -8.216782 -24.392364 34.113145 0.351760 2.367482 0.072523 -0.020089 45470.500000 0 0 1
-21.583880 -7.478882 -25.475144 34.216670 0.333556 2.410618 0.076676 -0.025923 92150.700000 0 0 1
-20.851280 -8.341882 -26.355234 34.626020 0.380563 2.435865 0.078808 -0.031611 -131338.000000 0 0 1
-20.128680 -7.670082 -27.293764 34.769864 0.364066 2.473466 0.070344 -0.043895 -642214.000000 0 0 1
-18.966480 -8.517882 -27.806744 34.720263 0.422107 2.499559 0.074474 -0.037967 -298896.000000 0 0 1
-19.411280 -9.492182 -28.788924 35.995853 0.454812 2.497732 0.067151 -0.023508 346998.000000 0 0 1
-18.371780 -10.302482 -29.257484 36.050850 0.511080 2.517616 0.049885 -0.019359 43076.500000 0 0 1
-18.988580 -11.280982 -30.323014 37.514156 0.536065 2.512070 0.054790 -0.012813 -12044.800000 0 0 1
-19.352780 -10.804682 -31.538744 38.548199 0.509194 2.529007 0.044565 -0.007974 134000.000000 0 0 1
-19.526880 -11.937782 -32.389704 39.659836 0.548724 2.526444 0.034074 -0.011079 190932.000000 0 0 1
-20.351180 -11.590082 -33.673794 41.017374 0.517694 2.533894 0.030125 -0.011602 162729.000000 0 0 1
-19.622380 -10.785482 33.409606 40.218978 0.502576 0.590446 0.028286 -0.013063 389554.000000 0 0 1
-20.067880 -10.971582 32.040930 39.366440 0.500324 0.619937 0.032869 -0.018121 -227171.000000 0 0 1
-19.484680 -12.259382 31.417266 38.948553 0.561600 0.632360 0.047551 -0.022008 123497.000000 0 0 1
-18.060480 -12.276282 31.387546 38.236972 0.596993 0.607865 0.051726 -0.023234 423627.000000 0 0 1
-17.475980 -13.210082 30.518056 37.566845 0.647266 0.622597 0.058923 -0.023494 -25951.400000 0 0 1
-17.616780 -14.693582 30.826626 38.425683 0.695171 0.639758 0.060290 -0.015168 -33686.000000 0 0 1
-18.903180 -15.252482 30.472426 38.968412 0.678918 0.672964 0.048335 -0.018327 747528.000000 0 0 1
-19.076380 -16.639582 30.835976 39.895380 0.717277 0.687364 0.069514 -0.021874 -419887.000000 0 0 1
-19.265580 -16.944682 32.343905 41.284537 0.721391 0.670616 0.032037 -0.025764 -187147.000000 0 0 1
-18.120880 -16.804682 33.178402 41.371125 0.747730 0.640211 0.054912 -0.018356 175031.000000 0 0 1
-18.488780 -16.464982 -33.505554 41.659966 0.727563 2.505230 0.041133 -0.023432 -47410.400000 0 0 1
-17.271680 -16.027082 -32.681744 40.289883 0.748039 2.516938 0.050986 -0.019749 23366.000000 0 0 1
-16.719380 -14.795082 -33.174464 39.987213 0.724413 2.549235 0.048103 -0.017480 465043.000000 0 0 1
-15.555080 -14.333482 -32.461784 38.745021 0.744549 2.564095 0.054393 -0.018245 587476.000000 0 0 1
-15.801580 -13.592782 -31.145854 37.476898 0.710396 2.551822 0.056303 -0.018015 -188273.000000 0 0 1
-16.307880 -14.532782 -30.168954 37.246671 0.727905 2.514910 0.056671 -0.020856 -65841.000000 0 0 1
-16.522080 -13.980482 -28.914504 36.117607 0.702266 2.499034 0.047489 -0.019121 -253357.000000 0 0 1
-16.677980 -15.141282 -27.846474 35.816750 0.737141 2.461430 0.056569 -0.021513 -182344.000000 0 0 1
-15.491780 -15.782482 -27.484694 35.277335 0.794693 2.464031 0.074734 -0.037839 -280155.000000 0 0 1
-14.797380 -16.518682 -28.489014 36.103369 0.840308 2.480132 0.075435 -0.037678 -950783.000000 0 0 1
-13.484780 -17.053182 -27.932174 35.395715 0.901722 2.480204 0.107492 -0.034865 -513125.000000 0 0 1
-12.437880 -16.125182 -28.130154 34.727913 0.913782 2.514975 0.086415 -0.033355 -316579.000000 0 0 1
-11.298580 -16.382082 -27.340264 33.815981 0.967022 2.512397 0.102181 -0.035234 423251.000000 0 0 1
-9.970180 -15.836482 -27.929574 33.619336 1.008917 2.551267 0.087823 -0.040692 346293.000000 0 0 1
-9.913080 -14.431482 -27.838294 32.886281 0.968912 2.580176 0.077417 -0.037030 -63241.500000 0 0 1
-8.731180 -13.995482 -27.185744 31.798926 1.013019 2.596205 0.095950 -0.036700 7903.520000 0 0 1
-8.405080 -12.533482 -27.378424 31.261984 0.980069 2.637833 0.087014 -0.043918 -143463.000000 0 0 1
-7.984380 -12.179082 -28.673844 32.160064 0.990507 2.671658 0.107038 -0.042821 132919.000000 0 0 1
-7.763580 -10.820482 -28.790664 31.721575 0.948429 2.708340 0.096916 -0.038565 360512.000000 0 0 1
-6.813180 -10.525082 -30.024564 32.537228 0.996302 2.746019 0.102124 -0.027244 543778.000000 0 0 1
-5.415880 -10.750582 -29.794764 32.134635 1.104133 2.757624 0.111517 -0.030918 635196.000000 0 0 1
-4.674680 -10.442182 -30.945964 32.993098 1.149879 2.787475 0.101488 -0.027989 -483414.000000 0 0 1
-4.440180 -8.951282 -31.320684 32.875917 1.110323 2.832776 0.097481 -0.024915 -348621.000000 0 0 1
-3.124980 -8.580082 -31.769244 33.055532 1.221516 2.861707 0.088441 -0.037103 856977.000000 0 0 1
-3.024780 -7.160082 -32.024794 32.954567 1.171087 2.903486 0.073591 -0.038112 -416158.000000 0 0 1
-1.665380 -6.824982 -32.620694 33.368601 1.331461 2.929471 0.078000 -0.043157 -359049.000000 0 0 1
-1.347780 -7.366982 -33.920254 34.737193 1.389849 2.924289 0.078578 -0.049734 152573.000000 0 0 1
-0.142380 -6.781382 33.631336 34.308514 1.549804 0.199014 0.071909 -0.039803 256986.000000 0 0 1
0.469520 -7.453482 32.381843 33.231891 -1.507886 0.226668 0.056001 -0.035595 -179582.000000 0 0 1
0.011520 -7.009382 31.090786 31.871124 -1.569153 0.221742 0.049578 -0.026794 196681.000000 0 0 1
0.878720 -7.473782 30.066226 30.993669 -1.453760 0.245251 0.049337 -0.031787 53383.300000 0 0 1
0.505020 -7.098982 28.628806 29.500154 -1.499776 0.243654 0.054192 -0.020468 -51454.100000 0 0 1
0.847220 -5.755682 28.276076 28.868358 -1.424649 0.202915 0.038790 -0.019201 16778.800000 0 0 1
0.395620 -5.480282 26.997426 27.550880 -1.498732 0.200779 0.039612 -0.013762 82475.400000 0 0 1
-0.862080 -4.623682 26.771346 27.181364 1.386464 0.173912 0.044145 -0.008915 763524.000000 0 0 1
-2.138280 -5.210782 26.946136 27.528507 1.181394 0.206059 0.050229 -0.011885 94683.600000 0 0 1
-3.247580 -4.408082 26.633746 27.190704 0.935840 0.202750 0.055759 -0.018090 599031.000000 0 0 1
-4.622580 -5.007182 27.049046 27.894282 0.825316 0.246802 0.059676 -0.015892 364769.000000 0 0 1
-5.074880 -6.079982 26.270936 27.438707 0.875260 0.292796 0.062190 -0.009059 -494879.000000 0 0 1
-6.426980 -6.332682 26.554066 28.045095 0.778008 0.327546 0.059176 -0.013714 134538.000000 0 0 1
-6.674280 -7.860982 26.454056 28.392924 0.866860 0.371695 0.065838 -0.014296 293520.000000 0 0 1
-6.105780 -8.456982 27.613936 29.518308 0.945470 0.361167 0.074782 -0.018872 -65213.200000 0 0 1
-6.206880 -9.876182 27.508366 29.879332 1.009706 0.401058 0.073085 -0.020849 23114.800000 0 0 1
-5.670180 -10.493082 28.772966 31.147059 1.075374 0.392964 0.075948 -0.025169 -134517.000000 0 0 1
-5.587980 -11.901682 28.676986 31.547505 1.131835 0.429895 0.088520 -0.029179 7768.800000 0 0 1
-5.040480 -12.442582 29.859996 32.739023 1.185902 0.422513 0.089652 -0.033593 -292.585000 0 0 1
-4.994080 -13.964282 29.723296 33.217711 1.227338 0.462807 0.092276 -0.039015 145233.000000 0 0 1
-6.250680 -14.571582 29.495016 33.486683 1.165573 0.493251 0.111848 -0.037177 -61318.800000 0 0 1
-6.128980 -15.978782 29.721026 34.296140 1.204534 0.522449 0.096570 -0.037624 192082.000000 0 0 1
-6.271580 -16.524882 31.196366 35.855511 1.208066 0.515477 0.103726 -0.026776 -600060.000000 0 0 1
-7.555680 -16.332382 31.683316 36.437172 1.137498 0.516541 0.099002 -0.029064 -682912.000000 0 0 1
-7.646880 -16.594482 33.060800 37.773908 1.138990 0.504888 0.106821 -0.021527 148175.000000 0 0 1
-9.136880 -16.697182 33.501119 38.530552 1.070097 0.516670 0.110866 -0.012578 665043.000000 0 0 1
-9.716580 -18.001382 33.304076 39.084820 1.075842 0.550817 0.109411 -0.012669 432161.000000 0 0 1
-10.428780 -18.031282 32.048909 38.223280 1.046432 0.576335 0.102495 -0.022620 -213854.000000 0 0 1
-11.001980 -19.393382 31.690546 38.748387 1.054764 0.613124 0.115013 -0.023534 -82505.500000 0 0 1
-12.166680 -19.747482 32.404649 39.850375 1.018613 0.621239 0.113300 -0.021708 154942.000000 0 0 1
-12.664380 -21.048182 32.198907 40.499161 1.029139 0.651704 0.098073 -0.018795 -95339.200000 0 0 1
-11.989280 -22.137682 33.080711 41.571062 1.074442 0.650530 0.092035 -0.014089 817811.000000 0 0 1
-10.590580 -22.351982 32.803723 41.083521 1.128320 0.646056 0.083753 -0.015372 1044750.000000 0 0 1
-9.887880 -23.178882 33.748496 42.118781 1.167580 0.641382 0.076371 -0.018869 88012.200000 0 0 1
-10.346080 -24.657882 33.885436 43.165672 1.173521 0.668086 0.082112 -0.017507 -328097.000000 0 0 1
-9.967880 -25.512372 32.834361 42.759034 1.198326 0.695251 0.076519 -0.012139 -62805.700000 0 0 1
-10.119280 -26.899252 33.143637 43.868784 1.210981 0.714353 0.083089 -0.015593 -492411.000000 0 0 1
-9.224980 -27.921722 32.361531 43.726325 1.251700 0.737588 0.074813 -0.014370 196206.000000 0 0 1
-7.870680 -27.543092 32.348324 43.208605 1.292456 0.724766 0.089291 -0.024703 -51046.000000 0 0 1
-7.046680 -28.081582 33.367022 44.176793 1.324937 0.714675 0.086193 -0.024076 842209.000000 0 0 1
-5.518980 -27.690462 33.356506 43.702143 1.374065 0.702438 0.096078 -0.036638 1124790.000000 0 0 1
-5.395780 -26.414342 33.940402 43.344928 1.369294 0.671273 0.084248 -0.022740 46595.400000 0 0 1
-5.150680 -25.442622 32.921376 41.924617 1.371053 0.667694 0.092166 -0.014733 -48958.700000 0 0 1
-4.738580 -24.106282 33.573659 41.602374 1.376701 0.631720 0.089377 -0.018551 1367090.000000 0 0 1
-3.435780 -24.195382 -33.799714 41.709013 1.429738 2.515579 0.073803 -0.023596 1249670.000000 0 0 1
-2.834680 -23.001282 -33.452474 40.695975 1.448175 2.535727 0.074683 -0.025982 -126203.000000 0 0 1
35.171016 -15.161082 2.745636 38.397881 -0.406999 1.499230 0.118981 -0.043605 -156094.000000 0 0 1
35.389116 -16.426382 3.320436 39.156619 -0.434571 1.485896 0.127736 -0.040783 -168685.000000 0 0 1
35.207896 -16.470382 4.711036 39.154352 -0.437560 1.450185 0.111011 -0.050043 159614.000000 0 0 1
36.413446 -16.205182 5.698136 40.261839 -0.418716 1.428793 0.100794 -0.023464 253655.000000 0 0 1
-36.489870 -17.249182 5.538536 40.739664 0.441579 1.434425 0.100381 -0.018913 -984232.000000 0 0 1
-35.560962 -17.210682 6.547536 40.045721 0.450747 1.406557 0.096833 -0.015282 -749937.000000 0 0 1
-34.437468 -18.218182 6.392236 39.480401 0.486595 1.408171 0.059672 -0.019694 -360549.000000 0 0 1
-34.865695 -19.534082 6.585936 40.503970 0.510691 1.407471 0.071804 -0.022840 105621.000000 0 0 1
-33.817230 -20.271682 7.178736 40.075933 0.540014 1.390696 0.054786 -0.012861 184890.000000 0 0 1
-34.220021 -21.752782 7.183236 41.179998 0.566238 1.395464 0.058723 -0.004942 -529109.000000 0 0 1
-34.078520 -22.390682 5.926036 41.204442 0.581303 1.426476 0.069209 -0.007179 148996.000000 0 0 1
-34.204371 -23.819382 6.094636 42.124180 0.608295 1.425604 0.080429 -0.010859 -177571.000000 0 0 1
-33.651190 -24.680982 4.908936 42.019651 0.632815 1.453704 0.088674 -0.009911 141898.000000 0 0 1
-34.342896 -24.598682 3.678236 42.403527 0.621560 1.483944 0.090423 -0.011030 -93698.500000 0 0 1
-33.655400 -25.334172 2.687936 42.210558 0.645260 1.507074 0.090110 -0.009050 73913.400000 0 0 1
-34.257901 -25.259542 1.260636 42.582126 0.635346 1.541187 0.091071 -0.013801 335973.000000 0 0 1
-35.528874 -25.946842 1.106836 44.008687 0.630775 1.545643 0.086073 -0.013569 985695.000000 0 0 1
-36.093096 -25.662742 -0.162164 44.286727 0.618081 1.574458 0.073480 -0.015270 -220753.000000 0 0 1
-36.795760 -24.327982 -0.295064 44.111968 0.584182 1.577485 0.075344 -0.024265 -1480290.000000 0 0 1
35.699476 -24.431982 0.079136 43.259457 -0.600165 1.568967 0.050116 -0.007824 -597619.000000 0 0 1
35.112526 -23.156582 0.279236 42.061797 -0.583022 1.564158 0.071440 -0.016005 818672.000000 0 0 1
33.550926 -23.071882 0.324436 40.719548 -0.602401 1.562829 0.042879 -0.007444 779612.000000 0 0 1
32.890956 -23.193782 -0.940164 40.257303 -0.614189 1.594152 0.038155 -0.018429 139469.000000 0 0 1
31.499836 -23.017382 -0.692864 39.019477 -0.631044 1.588554 0.031301 -0.013261 161015.000000 0 0 1
30.819386 -22.907282 -2.065664 38.455755 -0.639183 1.624538 0.035892 -0.020042 -205332.000000 0 0 1
31.219016 -21.745282 -2.731264 38.143729 -0.608400 1.642462 0.059110 -0.026150 95547.500000 0 0 1
30.800216 -21.826682 -4.062764 37.967926 -0.616510 1.678007 0.061993 -0.041659 83241.900000 0 0 1
30.969426 -20.455682 -4.695464 37.411063 -0.583730 1.696638 0.060820 -0.041594 440810.000000 0 0 1
30.009736 -19.579182 -4.100564 36.065818 -0.578080 1.684739 0.071130 -0.038708 371816.000000 0 0 1
30.226196 -18.160782 -4.360264 35.530956 -0.541029 1.693824 0.074920 -0.037819 11277.100000 0 0 1
29.379496 -17.375882 -3.329364 34.295200 -0.534093 1.668029 0.085036 -0.025847 -43965.300000 0 0 1
29.768086 -17.269582 -1.953164 34.470165 -0.525687 1.627489 0.083504 -0.022701 -282957.000000 0 0 1
30.133376 -18.371682 -1.186864 35.312147 -0.547506 1.604413 0.070708 -0.019818 -122399.000000 0 0 1
29.104716 -19.521482 -1.022964 35.060223 -0.590812 1.599978 0.059357 -0.014760 71106.500000 0 0 1
28.156256 -19.305082 -0.014364 34.138851 -0.601024 1.571217 0.059438 -0.002620 -253128.000000 0 0 1
27.334456 -20.365682 0.336636 34.088808 -0.640329 1.560921 0.044153 -0.008367 -144814.000000 0 0 1
26.399456 -20.101182 1.541736 33.216950 -0.650773 1.524366 0.054842 -0.005536 -24152.800000 0 0 1
25.598956 -21.218182 1.993136 33.309014 -0.692098 1.510923 0.045824 0.002714 437159.000000 0 0 1
24.810556 -20.981282 3.184536 32.648417 -0.701969 1.473101 0.041907 0.001695 496113.000000 0 0 1
23.426356 -20.414782 2.774836 31.197070 -0.716813 1.481733 0.035497 -0.002632 -699548.000000 0 0 1
23.289656 -19.137582 2.189136 30.223293 -0.687845 1.498301 0.072932 -0.018934 -26058.800000 0 0 1
23.376956 -18.075482 3.160136 29.718539 -0.658196 1.464259 0.090344 -0.021401 -222804.000000 0 0 1
23.181056 -16.681382 2.635036 28.680538 -0.623768 1.478791 0.079615 -0.015297 -199378.000000 0 0 1
21.835556 -16.442282 2.347236 27.434461 -0.645422 1.485134 0.074948 -0.008818 -591353.000000 0 0 1
21.764756 -15.213582 1.632936 26.604965 -0.610055 1.509381 0.093588 -0.027093 654215.000000 0 0 1
20.325156 -14.950282 1.086936 25.254788 -0.634192 1.527744 0.080611 -0.016635 1316880.000000 0 0 1
19.322956 -14.683982 2.128836 24.362428 -0.649822 1.483303 0.075226 -0.019197 1291450.000000 0 1 0
18.444956 -13.590282 1.861536 22.986463 -0.635001 1.489724 0.090359 -0.026505 245167.000000 0 1 0
19.025256 -12.231282 2.393736 22.744111 -0.571366 1.465355 0.116662 -0.026839 -343496.000000 0 1 0
19.970856 -11.672382 1.517636 23.181519 -0.528923 1.505282 0.118791 -0.027297 103502.000000 0 1 0
20.452956 -10.498782 2.058636 23.082154 -0.474242 1.481490 0.112552 -0.028074 -284379.000000 0 1 0
21.367756 -9.727582 1.096636 23.503392 -0.427208 1.524121 0.120820 -0.033510 -139905.000000 0 1 0
20.670456 -9.163082 0.002336 22.610392 -0.417263 1.570693 0.110733 -0.027612 874141.000000 0 1 0
21.570356 -8.560682 -0.943264 23.226177 -0.377807 1.611420 0.106087 -0.017482 -170016.000000 0 1 0
20.920856 -8.288782 -2.281364 22.618372 -0.377224 1.671831 0.112087 -0.022807 -376926.000000 0 1 0
21.736256 -7.693682 -3.284964 23.290525 -0.340195 1.712311 0.103515 -0.025707 758297.000000 0 1 0
22.695556 -8.572282 -3.928564 24.576531 -0.361142 1.731335 0.097704 -0.022840 -156423.000000 0 1 0
22.143456 -9.736182 -4.782764 24.657670 -0.414244 1.766000 0.073112 -0.019881 -659862.000000 0 1 0
21.565756 -9.362582 -5.989464 24.261357 -0.409588 1.820248 0.073589 -0.030843 121716.000000 0 1 0
20.179656 -9.101282 -5.882064 22.905251 -0.423696 1.830506 0.064620 -0.027390 -316690.000000 0 1 0
19.446456 -9.138682 -7.252664 22.677771 -0.439312 1.896329 0.068690 -0.025916 -319697.000000 0 1 0
19.566456 -10.314782 -7.991164 23.518070 -0.485144 1.917488 0.074017 -0.019687 1908670.000000 0 1 0
20.872156 -10.569282 -8.608164 24.929041 -0.468740 1.923362 0.077491 -0.017638 1054550.000000 0 1 0
20.891056 -11.909982 -9.298864 25.782800 -0.518144 1.939773 0.074467 -0.016547 -308155.000000 0 0 1
19.825856 -12.108382 -10.193064 25.368800 -0.548277 1.984273 0.087178 -0.023972 148239.000000 0 0 1
19.805456 -13.421282 -10.712664 26.213509 -0.595572 1.991792 0.082580 -0.015556 -842745.000000 0 0 1
18.640256 -13.696882 -11.622764 25.887301 -0.633703 2.036415 0.095903 -0.013538 -623220.000000 0 0 1
18.607956 -15.020382 -12.119364 26.809455 -0.679117 2.039865 0.091542 -0.012312 446361.000000 0 0 1
17.480156 -15.148382 -12.973364 26.520511 -0.714055 2.081948 0.100441 -0.015421 5062.370000 0 0 1
17.289856 -16.653982 -13.334164 27.460775 -0.766667 2.077813 0.093331 -0.014264 -146474.000000 0 0 1
16.424256 -17.345382 -12.452364 26.938445 -0.812668 2.051330 0.090320 -0.013948 304282.000000 0 0 1
16.520056 -18.741582 -12.730364 28.039638 -0.848316 2.042061 0.091455 -0.021287 -275295.000000 0 0 1
15.626256 -19.693582 -11.880464 27.805799 -0.900050 2.012263 0.086224 -0.020012 -468811.000000 0 0 1
14.297856 -19.527482 -12.263464 27.131970 -0.938790 2.039795 0.082884 -0.019514 -1052600.000000 0 0 1
13.450456 -20.336782 -11.516864 26.965490 -0.986459 2.012075 0.073107 -0.018903 297597.000000 0 0 1
11.956156 -20.155082 -11.939164 26.300582 -1.035386 2.041990 0.069722 -0.023153 722416.000000 0 0 1
11.034856 -20.814282 -11.069664 26.029596 -1.083314 2.010059 0.062718 -0.025154 152039.000000 0 0 1
9.720156 -20.711282 -11.592764 25.648213 -1.131995 2.039793 0.049440 -0.017732 -181030.000000 0 0 1
8.644756 -21.078182 -10.607764 25.130583 -1.181589 2.006563 0.037116 -0.023986 -621067.000000 0 0 1
8.568656 -22.479682 -10.486464 26.243550 -1.206624 1.981858 0.059501 -0.017899 271517.000000 0 0 1
7.613856 -23.029282 -9.561364 26.071792 -1.251493 1.946290 0.055737 -0.027582 320899.000000 0 0 1
7.673356 -24.542982 -9.720664 27.490538 -1.267775 1.932214 0.058500 -0.022593 1618120.000000 0 0 1
8.998756 -25.016282 -9.328864 28.174806 -1.225492 1.908272 0.054360 -0.015150 1069220.000000 0 0 1
9.133356 -26.386812 -9.625564 29.535293 -1.237570 1.902760 0.044645 -0.013361 -63400.700000 0 0 1
10.520756 -27.011502 -9.448664 30.489093 -1.199382 1.885887 0.039985 -0.010565 -175702.000000 0 0 1
10.999756 -27.147692 -8.125464 30.397615 -1.185831 1.841393 0.049236 -0.011300 505655.000000 0 0 1
12.402256 -27.459532 -8.152264 31.213799 -1.146566 1.835036 0.067114 -0.003236 498622.000000 0 0 1
12.892156 -27.885762 -6.756764 31.455958 -1.137744 1.787284 0.062012 -0.009125 -182284.000000 0 0 1
12.405956 -29.041972 -6.088264 32.162258 -1.167086 1.761244 0.082429 -0.021679 -375717.000000 0 0 1
11.064656 -29.011972 -5.681364 31.565789 -1.206442 1.751767 0.075491 -0.018107 -287128.000000 0 0 1
10.598856 -30.155612 -4.729764 32.312031 -1.232811 1.717702 0.085443 -0.015204 179852.000000 0 0 1
10.605256 -31.566712 -5.017164 33.676412 -1.246681 1.720335 0.108026 -0.023267 -156055.000000 0 0 1
9.746056 -31.914082 -6.093464 33.920857 -1.274407 1.751414 0.103912 -0.025852 310388.000000 0 0 1
9.567556 -33.503482 -6.247964 35.398566 -1.292631 1.748229 0.107405 -0.025052 -100745.000000 0 0 1
8.974856 33.903332 -5.230064 35.458956 1.312013 1.718833 0.110877 -0.023510 -95867.700000 0 0 1
9.586656 32.603588 -5.181364 34.376511 1.284819 1.722097 0.105739 -0.022096 655160.000000 0 0 1
8.983656 31.785429 -3.956164 33.266662 1.295346 1.690001 0.073760 -0.009190 380332.000000 0 0 1
7.680756 31.287999 -4.137564 32.481569 1.330071 1.698525 0.073248 -0.011470 -539805.000000 0 0 1
7.397056 30.210309 -3.240964 31.271122 1.330669 1.674624 0.056312 -0.008738 189140.000000 0 0 1
5.934756 29.680259 -3.319264 30.449247 1.373443 1.680023 0.052859 -0.010003 412098.000000 0 0 1
5.661256 29.009819 -4.542064 29.904010 1.378069 1.723275 0.060587 -0.017316 -38884.000000 0 0 1
5.300756 29.903359 -5.576464 30.877271 1.395356 1.752394 0.065395 -0.025359 -802043.000000 0 0 1
5.283956 29.348199 -7.055164 30.643308 1.392661 1.803116 0.074522 -0.035973 243095.000000 0 0 1
4.528756 28.168529 -7.396364 29.473410 1.411387 1.824458 0.071354 -0.031965 130730.000000 0 0 1
4.962456 27.008069 -6.739564 28.275139 1.389083 1.811470 0.071386 -0.025775 -418145.000000 0 0 1
4.178056 25.744399 -7.181564 27.051897 1.409909 1.839491 0.069950 -0.031709 -16715.400000 0 0 1
2.842756 25.659409 -6.716864 26.675885 1.460458 1.825331 0.070597 -0.037502 -592779.000000 0 0 1
1.914456 26.205979 -7.588164 27.349565 1.497872 1.851936 0.073655 -0.040461 -606906.000000 0 0 1
1.518656 25.372269 -8.892864 26.928450 1.511013 1.907355 0.070272 -0.029842 -166620.000000 0 0 1
2.498056 25.288519 -9.937664 27.285649 1.472334 1.943579 0.059425 -0.026178 303027.000000 0 0 1
1.978656 24.672749 -11.097364 27.125839 1.490772 1.992271 0.068815 -0.020007 -809421.000000 0 0 1
1.830156 23.111179 -11.066264 25.689264 1.491772 2.016146 0.069712 -0.015417 349729.000000 0 0 1
0.609156 22.853589 -10.367464 25.102628 1.544148 1.996545 0.070256 -0.015585 202884.000000 0 0 1
0.653956 21.459689 -10.066664 23.712521 1.540332 2.009238 0.040503 -0.012376 -230054.000000 0 1 0
-0.588244 20.964689 -9.314664 22.948359 -1.542745 1.988756 0.046643 -0.010339 311684.000000 0 1 0
-1.756844 20.857189 -10.138664 23.257286 -1.486763 2.021873 0.056406 -0.015292 -134913.000000 0 1 0
-2.779944 20.363689 -9.321664 22.567706 -1.435120 1.996600 0.046635 -0.008726 176065.000000 0 1 0
-4.119044 20.096889 -10.096564 22.864647 -1.368637 2.028155 0.056229 -0.015713 880284.000000 0 1 0
-5.074244 19.427389 -9.243464 22.104593 -1.315314 2.002225 0.052631 -0.025508 549016.000000 0 1 0
-5.979344 18.730389 -10.109964 22.108628 -1.261790 2.045737 0.056170 -0.035633 -788831.000000 0 1 0
-6.956444 17.859389 -9.347964 21.324501 -1.199364 2.024578 0.060420 -0.031733 -560081.000000 0 1 0
-7.960344 18.482489 -8.609964 21.888375 -1.164111 1.975077 0.080764 -0.027287 33404.100000 0 1 0
-9.138544 18.858289 -9.319464 22.934700 -1.119552 1.989250 0.080820 -0.027675 -226861.000000 0 1 0
-10.211944 19.219589 -8.290364 23.289623 -1.082400 1.934746 0.091106 -0.028639 -265203.000000 0 1 0
-10.541444 18.112889 -7.472364 22.249383 -1.043728 1.913299 0.082599 -0.024036 230925.000000 0 1 0
-11.655744 18.414289 -6.610964 22.773829 -1.006484 1.865324 0.095327 -0.022385 399444.000000 0 1 0
-12.163944 17.094589 -5.969064 21.813213 -0.952349 1.847976 0.078109 -0.026125 -123077.000000 0 1 0
-13.042744 17.425789 -4.903464 22.311774 -0.928273 1.792375 0.079856 -0.021894 -94148.800000 0 1 0
-13.464444 16.250689 -4.217564 21.521246 -0.878890 1.768045 0.072625 -0.021415 853172.000000 0 1 0
-14.700044 16.546789 -3.248464 22.370518 -0.844431 1.716523 0.061644 -0.020064 477149.000000 0 1 0
-15.910544 16.490689 -3.957264 23.253993 -0.803301 1.741804 0.098304 -0.036680 -8278.620000 0 1 0
-16.928744 17.026289 -3.093464 24.208396 -0.788271 1.698931 0.092924 -0.025322 -407504.000000 0 1 0
-18.293844 17.134089 -3.729464 25.340692 -0.752674 1.718506 0.087416 -0.032860 -883733.000000 0 0 1
-18.296344 18.132389 -4.686064 26.182035 -0.780897 1.750746 0.087074 -0.033427 644494.000000 0 0 1
-19.636444 18.284489 -5.167364 27.324241 -0.749761 1.761055 0.062373 -0.036452 708257.000000 0 0 1
-19.656544 19.263789 -6.413364 28.259592 -0.775307 1.799736 0.059088 -0.025362 -104801.000000 0 0 1
-19.663944 20.609889 -6.069664 29.125231 -0.808882 1.780734 0.068471 -0.025479 153724.000000 0 0 1
-19.646044 21.278989 -7.306464 29.868828 -0.825278 1.817922 0.060419 -0.015229 4891.370000 0 0 1
-19.513944 22.795889 -7.171664 30.852542 -0.862812 1.805392 0.065165 -0.013570 617797.000000 0 0 1
-18.203644 23.227009 -6.795064 30.282660 -0.906057 1.797111 0.071959 -0.011145 552882.000000 0 0 1
-18.064744 23.508709 -5.409064 30.137226 -0.915605 1.751255 0.065801 -0.013564 -283001.000000 0 0 1
-16.719244 24.172959 -5.084764 29.828173 -0.965696 1.742101 0.064197 -0.005688 -595200.000000 0 0 1
-16.707344 24.769029 -3.812164 30.119309 -0.977373 1.697705 0.053859 -0.011794 1019880.000000 0 0 1
-15.494944 25.448399 -3.359264 29.983312 -1.023875 1.683070 0.064368 -0.009241 1147840.000000 0 0 1
-15.005644 26.635409 -4.205164 30.859323 -1.057745 1.707490 0.069682 -0.005676 107052.000000 0 0 1
-15.798344 27.793719 -4.046264 32.225002 -1.053926 1.696692 0.069724 -0.008227 201636.000000 0 0 1
-15.231244 28.743729 -4.958264 32.905579 -1.083517 1.722054 0.067970 -0.005043 236319.000000 0 0 1
-15.719644 30.150119 -4.580164 34.309107 -1.090192 1.704693 0.077539 -0.003888 482461.000000 0 0 1
-17.106644 30.292199 -4.864764 35.127205 -1.056721 1.709733 0.083686 -0.011924 81795.800000 0 0 1
-17.423344 31.620749 -4.616164 36.397166 -1.067178 1.697966 0.093580 -0.013436 -153306.000000 0 0 1
12.598920 -8.293082 18.961916 24.229367 -0.582144 0.671964 0.066033 -0.012732 -323356.000000 0 1 0
13.180620 -9.485882 19.510316 25.384309 -0.623815 0.694150 0.063010 -0.012574 88715.500000 0 0 1
13.646420 -10.227382 18.399716 25.087321 -0.643152 0.747447 0.060460 -0.023701 -277950.000000 0 0 1
14.069820 -11.707382 18.791916 26.232780 -0.694005 0.772236 0.093314 -0.035738 161844.000000 0 0 1
15.297920 -11.748482 19.524716 27.445723 -0.654909 0.779317 0.082784 -0.034454 671983.000000 0 0 1
15.429820 -12.924282 20.315916 28.598127 -0.697261 0.780740 0.085699 -0.037767 -371670.000000 0 0 1
15.941520 -14.137982 19.573716 28.933457 -0.725511 0.827786 0.083126 -0.032388 -842264.000000 0 0 1
15.122620 -14.685482 18.597016 28.110603 -0.770734 0.847891 0.091419 -0.043898 161379.000000 0 0 1
15.783120 -15.776382 17.948816 28.638455 -0.785185 0.893436 0.101465 -0.049160 20403.200000 0 0 1
15.152020 -16.063082 16.573816 27.609739 -0.814576 0.926934 0.092396 -0.046188 -210516.000000 0 0 1
13.804720 -16.476082 16.606116 27.162376 -0.873390 0.913012 0.119397 -0.047690 -292819.000000 0 0 1
13.219220 -16.237882 15.356116 25.965879 -0.887518 0.938007 0.135163 -0.043907 -476592.000000 0 0 1
12.815420 -17.534082 14.652216 26.198596 -0.939641 0.977286 0.100429 -0.038421 -160034.000000 0 0 1
13.831820 -18.317082 14.050716 26.912030 -0.924019 1.021487 0.105739 -0.043723 -29291.700000 0 0 1
13.264620 -19.411682 13.387716 27.055396 -0.971345 1.053162 0.107226 -0.045141 -413536.000000 0 0 1
14.242920 -20.476182 12.918816 28.089689 -0.963040 1.092899 0.115675 -0.040817 -319672.000000 0 0 1
14.961420 -21.081782 13.970116 29.384516 -0.953600 1.075350 0.092080 -0.036774 -441711.000000 0 0 1
15.421520 -22.296782 13.469816 30.272194 -0.965698 1.109670 0.086369 -0.033888 382351.000000 0 0 1
16.356720 -22.902582 14.621116 31.715100 -0.950612 1.091658 0.083482 -0.032036 1448030.000000 0 0 1
17.679520 -22.339982 14.752916 32.082530 -0.901331 1.092978 0.052354 -0.026833 610440.000000 0 0 1
18.398820 -23.034282 15.731216 33.415055 -0.896813 1.080619 0.052407 -0.024135 -995267.000000 0 0 1
19.771020 -22.481282 15.941316 33.917943 -0.849455 1.081509 0.028484 -0.020186 245275.000000 0 0 1
20.804420 -22.707782 14.915216 34.218868 -0.829113 1.119784 0.024216 -0.022865 1799130.000000 0 0 1
22.115420 -22.362182 15.426716 35.030594 -0.790946 1.114776 0.025005 -0.022655 664582.000000 0 0 1
23.272220 -22.984282 14.676216 35.850589 -0.779173 1.149031 0.019639 -0.018980 -627348.000000 0 0 1
23.347020 -24.329882 15.014316 36.911464 -0.806010 1.151886 0.022411 -0.017739 400497.000000 0 0 1
24.547520 -24.889182 14.482116 37.838919 -0.792309 1.178046 0.028572 -0.023309 256000.000000 0 0 1
24.958620 -26.164752 15.260516 39.248061 -0.808986 1.171444 0.040695 -0.018905 -559649.000000 0 0 1
25.524420 -25.808172 16.465216 39.858012 -0.790926 1.144944 0.048674 -0.015724 -85099.200000 0 0 1
25.775120 -26.963032 17.270716 41.105225 -0.807919 1.137176 0.056297 -0.003709 -56776.800000 0 0 1
26.244520 -26.573192 18.691116 41.764425 -0.791621 1.106787 0.048646 -0.005751 649024.000000 0 0 1
25.212620 -25.976222 19.499316 41.117680 -0.800314 1.076705 0.047448 -0.001419 719444.000000 0 0 1
25.727020 -25.651402 20.818216 41.872092 -0.783926 1.050444 0.055628 -0.002156 -250710.000000 0 0 1
24.597220 -25.308302 21.780216 41.471812 -0.799646 1.017868 0.048692 0.001128 -704492.000000 0 0 1
23.891320 -26.467502 21.898816 41.843542 -0.836510 1.020019 0.047725 -0.003121 -466795.000000 0 0 1
22.957220 -26.464122 22.962316 41.888562 -0.856239 0.990614 0.041750 0.003513 264124.000000 0 0 1
22.207120 -27.791332 23.221356 42.482298 -0.896625 0.992483 0.059262 0.007415 78206.800000 0 0 1
23.129820 -28.720572 23.741486 43.857929 -0.892808 0.998782 0.050728 0.004717 297500.000000 0 0 1
22.807920 -30.020032 23.349126 44.346197 -0.921080 1.016295 0.055006 -0.000531 -514614.000000 0 0 1
23.667220 -31.168062 23.868696 45.839939 -0.921343 1.023130 0.035466 0.007545 -396341.000000 0 0 1
23.645020 -31.439422 25.251116 46.745514 -0.925964 1.000142 0.037729 0.004160 1138780.000000 0 0 1
24.857720 -32.056742 25.757746 48.052080 -0.911218 1.005059 0.031646 0.002620 438428.000000 0 0 1
24.621620 -32.505682 27.274736 49.058687 -0.922541 0.981277 0.029061 -0.015317 181202.000000 0 0 1
23.926620 -33.735142 27.464836 49.647358 -0.953890 0.984598 0.026596 -0.007275 1617670.000000 0 0 1
22.502020 -33.689722 27.172046 48.781742 -0.981927 0.980012 0.033370 -0.009910 671343.000000 0 0 1
21.796320 33.073765 27.457076 48.195897 0.988105 0.964659 0.062503 -0.030697 -531582.000000 0 0 1
21.451120 33.118451 28.834596 48.871425 0.996033 0.939726 0.053320 -0.023718 436025.000000 0 0 1
20.748820 31.927129 29.250406 48.015012 0.994505 0.915754 0.067404 -0.038483 80594.300000 0 0 1
20.412120 32.045080 30.693706 48.843069 1.003628 0.891283 0.062399 -0.037959 -533177.000000 0 0 1
21.555620 32.146482 31.495146 49.899752 0.980114 0.887738 0.050323 -0.027692 -108025.000000 0 0 1
21.319820 32.577006 32.808278 50.913448 0.991304 0.870567 0.047974 -0.028016 -230095.000000 0 0 1
22.644520 32.658856 33.610135 52.048212 0.964537 0.868791 0.035374 -0.015124 235795.000000 0 0 1
23.096320 31.355479 33.879270 51.617933 0.935929 0.854830 0.033123 -0.011425 -1007270.000000 0 0 1
24.414920 31.382549 -33.757084 52.158350 0.909629 2.274707 0.019202 -0.007948 -1024630.000000 0 0 1
24.879920 29.992779 -33.350924 51.291923 0.878307 2.278667 0.025770 -0.002363 -286276.000000 0 0 1
25.143620 29.096259 33.567634 51.044882 0.858143 0.853154 0.036255 -0.005163 106797.000000 0 0 1
24.571820 27.847259 33.743699 50.178495 0.847803 0.833251 0.044850 -0.017590 -378733.000000 0 0 1
24.731420 26.805899 32.694412 48.980853 0.825628 0.839959 0.072825 -0.023028 197077.000000 0 0 1
25.990720 26.146229 32.623874 49.228650 0.788381 0.846377 0.064820 -0.022372 476821.000000 0 0 1
26.040520 25.273969 31.516726 48.064397 0.770461 0.855662 0.090763 -0.038000 -78802.200000 0 0 1
27.400220 24.531289 31.338806 48.318495 0.730210 0.865068 0.063197 -0.025723 199106.000000 0 0 1
27.737220 23.595119 32.285197 48.666384 0.704881 0.845445 0.082237 -0.028979 92719.600000 0 0 1
28.317720 24.142319 33.440354 50.030012 0.705974 0.838733 0.084310 -0.030613 -1433500.000000 0 0 1
28.065320 23.383019 -33.257454 49.401276 0.694638 2.309338 0.072427 -0.027389 988686.000000 0 0 1
26.783820 23.676839 -32.585294 48.371140 0.723903 2.309935 0.072063 -0.026621 1495690.000000 0 0 1
25.664320 23.171449 -33.253164 47.972350 0.734396 2.336679 0.068599 -0.024397 -1134490.000000 0 0 1
25.416420 21.681689 -33.118204 47.041530 0.706267 2.351839 0.054534 -0.022082 -802565.000000 0 0 1
25.036920 21.319489 -31.779844 45.731023 0.705377 2.339118 0.035303 -0.027897 481704.000000 0 0 1
24.886920 19.937789 -31.678924 44.949177 0.675433 2.352898 0.039641 -0.016390 -285930.000000 0 0 1
24.897420 19.370689 -30.235154 43.695191 0.661194 2.334991 0.039278 -0.008680 -969445.000000 0 0 1
23.733620 19.537189 -29.517304 42.617576 0.688720 2.335896 0.033934 -0.012107 -516398.000000 0 0 1
23.794720 18.861489 -28.269784 41.486446 0.670259 2.320500 0.043419 -0.010945 -206277.000000 0 0 1
22.583220 19.203989 -27.394664 40.364126 0.704706 2.316772 0.068467 -0.020107 -34322.400000 0 0 1
22.462020 18.428289 -26.196654 39.120441 0.687069 2.304522 0.076763 -0.013780 38684.400000 0 0 1
23.150120 19.121989 -25.178614 39.185982 0.690395 2.268607 0.069854 -0.018524 64882.400000 0 0 1
23.292420 18.282189 -23.895064 38.049302 0.665465 2.249780 0.083540 -0.022987 -575360.000000 0 0 1
24.276120 17.320589 -23.963764 38.256958 0.619717 2.247709 0.079498 -0.021050 -397030.000000 0 0 1
24.089420 16.248889 -23.083864 37.110529 0.593423 2.242129 0.089518 -0.025785 142591.000000 0 0 1
25.258720 15.211589 -23.132364 37.476682 0.542058 2.236035 0.108377 -0.024123 160820.000000 0 0 1
26.529620 15.698789 -22.701264 38.283418 0.534328 2.205550 0.119873 -0.028878 411449.000000 0 0 1
27.442820 14.605989 -22.609764 38.440145 0.489101 2.199604 0.124713 -0.033399 45258.700000 0 0 1
27.239720 13.625689 -21.403264 37.225817 0.463819 2.183349 0.118119 -0.030279 56835.200000 0 0 1
26.090520 12.785689 -21.649064 36.233563 0.455657 2.211159 0.110997 -0.029200 689435.000000 0 0 1
25.606420 12.276189 -20.376764 34.951482 0.447047 2.193214 0.083998 -0.034950 781634.000000 0 0 1
24.137220 11.708489 -20.351764 33.673260 0.451641 2.219796 0.086315 -0.031378 1036940.000000 0 0 1
23.202520 12.795289 -20.260964 33.355405 0.503964 2.223614 0.113158 -0.034573 -374397.000000 0 0 1
21.958920 12.359289 -20.769364 32.654444 0.512645 2.260145 0.095752 -0.032325 111458.000000 0 0 1
20.919320 13.495189 -20.553164 32.282668 0.572927 2.260959 0.102204 -0.033769 -491862.000000 0 0 1
21.386620 14.685489 -21.218864 33.515538 0.601722 2.256355 0.089554 -0.033020 629335.000000 0 0 1
20.473820 15.785889 -21.283864 33.486930 0.656824 2.259565 0.076841 -0.034651 648911.000000 0 0 1
19.131420 15.709389 -22.088664 33.176878 0.687493 2.299342 0.065496 -0.020518 244654.000000 0 0 1
18.206820 14.850389 -21.467364 31.825620 0.684211 2.311125 0.058025 -0.026802 -536348.000000 0 0 1
17.047520 14.905789 -22.259964 31.753842 0.718471 2.347618 0.070677 -0.038255 -222475.000000 0 0 1
15.917220 13.971689 -21.760264 30.365690 0.720398 2.369722 0.056682 -0.027201 -514171.000000 0 0 1
14.812120 13.938789 -22.580864 30.390528 0.755032 2.408372 0.053931 -0.022321 -1069400.000000 0 0 1
13.656120 13.605889 -21.869064 29.152458 0.783556 2.419103 0.067052 -0.028260 -954257.000000 0 0 1
12.372220 13.821189 -22.633564 29.263891 0.840660 2.455030 0.058229 -0.027670 -851149.000000 0 0 1
12.114920 15.180589 -22.808064 29.957126 0.897243 2.436200 0.053038 -0.026191 14722.500000 0 0 1
11.687520 15.418389 -24.145564 30.940800 0.922179 2.466069 0.051817 -0.030578 -432364.000000 0 0 1
11.223720 16.903689 -24.359364 31.703079 0.984656 2.447070 0.054807 -0.030146 907883.000000 0 0 1
12.326420 17.860989 -24.257164 32.547897 0.966725 2.411745 0.055038 -0.027315 1412180.000000 0 0 1
13.463720 17.710889 -25.124354 33.558613 0.920803 2.416851 0.061417 -0.032219 264830.000000 0 0 1
13.214720 17.448389 -26.671004 34.502429 0.922601 2.454381 0.061465 -0.033899 -984280.000000 0 0 1
14.372220 17.481689 -27.437824 35.566900 0.882706 2.451902 0.043003 -0.032632 -409609.000000 0 0 1
14.045820 16.982889 -28.719834 36.201277 0.879773 2.487068 0.059771 -0.037981 -216399.000000 0 0 1
15.058220 17.309089 -29.859764 37.655811 0.854828 2.486458 0.050770 -0.031501 503902.000000 0 0 1
16.278720 16.575389 -29.688684 37.698252 0.794428 2.477595 0.028287 -0.023729 445853.000000 0 0 1
17.237720 17.012589 -30.653804 39.066903 0.778825 2.472926 0.026033 -0.011905 970005.000000 0 0 1
18.452620 16.012389 -30.768854 39.288907 0.714713 2.470501 0.037603 -0.015357 20949.100000 0 0 1
19.159720 15.757889 -29.592444 38.615006 0.688280 2.443930 0.045553 -0.008892 965036.000000 0 0 1
20.476720 15.194589 -29.750214 39.182226 0.638389 2.433000 0.059668 -0.003440 1738460.000000 0 0 1
21.654220 16.081589 -30.289024 40.557956 0.638783 2.414046 0.058998 -0.011489 -151322.000000 0 0 1
21.659020 16.239689 -31.727884 41.707305 0.643366 2.435229 0.064348 -0.009106 427676.000000 0 0 1
22.601920 17.174189 -32.282674 42.988029 0.649779 2.420325 0.056453 0.001885 160188.000000 0 0 1
22.469320 17.313889 -33.783894 44.113406 0.656528 2.443146 0.046886 0.006517 65284.400000 0 0 1
23.306320 18.338389 33.751091 44.929024 0.666666 0.720904 0.056408 -0.000645 261712.000000 0 0 1
23.272920 18.325889 32.305186 43.830264 0.667032 0.742098 0.073819 -0.017425 -465875.000000 0 0 1
24.065620 19.482589 31.742816 44.343339 0.680544 0.772967 0.080858 -0.019507 483825.000000 0 0 1
25.494120 19.384489 31.804416 45.135678 0.650093 0.788880 0.070054 -0.016525 785049.000000 0 0 1
26.122720 20.616689 31.374086 45.735956 0.668136 0.814843 0.077048 -0.026723 -105743.000000 0 0 1
27.623220 20.412489 31.159246 46.374676 0.636399 0.834022 0.057459 -0.026872 -310233.000000 0 0 1
28.261920 19.887589 32.319441 47.315944 0.613197 0.818858 0.057865 -0.024381 -333507.000000 0 0 1
29.646420 19.873789 32.096118 48.000401 0.590556 0.838386 0.062577 -0.019894 -157854.000000 0 0 1
30.515320 19.128989 33.144970 48.945807 0.559939 0.826877 0.039947 -0.013077 -86564.100000 0 0 1
30.637420 19.594289 -33.584384 49.502511 0.568997 2.316431 0.035677 -0.011098 117684.000000 0 0 1
29.491920 19.520189 -32.750154 48.201491 0.584683 2.317799 0.041166 -0.019305 -147645.000000 0 0 1
29.863220 20.051589 -31.326294 47.699212 0.591305 2.287293 0.058714 -0.017746 -249610.000000 0 0 1
30.652020 19.143589 -30.642594 47.381346 0.558273 2.274076 0.063712 -0.026056 -373061.000000 0 0 1
31.124420 19.672189 -29.448394 47.147985 0.563653 2.245409 0.046582 -0.021382 -749035.000000 0 0 1
32.446720 19.081189 -28.984304 47.507592 0.531607 2.226981 0.096944 -0.013628 -476965.000000 0 0 1
33.515020 19.617389 -29.747214 48.918251 0.529564 2.224462 0.051034 -0.008105 811903.000000 0 0 1
34.757020 19.090089 -29.187574 49.238161 0.502263 2.205307 0.076604 -0.009977 2419520.000000 0 0 1
36.062920 20.017889 -29.374914 50.637295 0.506737 2.189653 0.063118 -0.010667 1357090.000000 0 0 1
36.689420 19.780689 -30.614174 51.716698 0.494466 2.204284 0.050710 -0.006078 -174655.000000 0 0 1
-36.129416 20.715689 -30.916924 51.868398 -0.520612 2.209387 0.052265 -0.014574 -32988.400000 0 0 1
-35.229016 20.259289 -32.066624 51.766695 -0.521890 2.238832 0.052325 -0.016992 -764542.000000 0 0 1
-34.152016 19.467589 -31.709544 50.505865 -0.518089 2.249570 0.068999 -0.013514 -341893.000000 0 0 1
-33.697416 18.829289 -32.878824 50.705769 -0.509556 2.276308 0.073672 -0.007194 -468182.000000 0 0 1
-32.772816 17.627689 -32.743094 49.567157 -0.493487 2.292388 0.050705 -0.001977 -504853.000000 0 0 1
-33.301716 16.477489 -32.179764 49.153323 -0.459474 2.284557 0.058547 0.001803 -446279.000000 0 0 1
-32.657316 15.315089 -32.660854 48.659877 -0.438512 2.306632 0.046137 -0.001823 -53232.600000 0 0 1
-33.311716 13.972189 -32.296374 48.455632 -0.397150 2.300320 0.046258 -0.006633 -195609.000000 0 0 1
-32.674616 12.885889 -32.932654 48.148067 -0.375644 2.324011 0.052486 -0.015432 587443.000000 0 0 1
-33.592316 11.786489 -32.876044 48.458222 -0.337448 2.316435 0.058074 -0.018867 484347.000000 0 0 1
-32.891916 10.395889 -33.015974 47.749421 -0.306127 2.334280 0.066698 -0.018207 278290.000000 0 0 1
-32.237016 10.116989 33.760848 47.763726 -0.304097 0.785789 0.045706 -0.024612 419524.000000 0 0 1
-32.734616 8.878289 33.296337 47.529203 -0.264849 0.794636 0.091383 -0.033199 35337.800000 0 0 1
-31.927916 8.284889 32.084893 46.015992 -0.253888 0.799235 0.105016 -0.032007 426537.000000 0 0 1
-30.728416 7.686589 32.571132 45.433444 -0.245116 0.771454 0.054235 -0.015197 -214960.000000 0 0 1
-29.779816 7.726689 31.553576 44.070027 -0.253863 0.772759 0.061291 -0.025316 -409261.000000 0 0 1
21.203820 -4.326582 -31.142104 37.922974 -0.201284 2.534296 0.067900 -0.032643 410699.000000 0 0 1
22.525120 -4.425982 -31.680684 39.123345 -0.194019 2.514546 0.054199 -0.035420 760919.000000 0 0 1
23.420720 -3.393582 -31.248244 39.198205 -0.143895 2.493415 0.056064 -0.032849 193257.000000 0 0 1
23.273120 -1.961482 -31.898334 39.534659 -0.084082 2.509588 0.055232 -0.025187 -496917.000000 0 0 1
24.238620 -1.023882 -31.428534 39.702793 -0.042217 2.484211 0.057645 -0.023893 341195.000000 0 0 1
23.983020 0.313118 -31.852654 39.873235 0.013055 2.496174 0.046707 -0.025225 -53964.900000 0 0 1
25.081620 1.328618 -31.344734 40.166469 0.052922 2.466055 0.052094 -0.018795 -126562.000000 0 0 1
26.227620 1.120018 -32.095954 41.464355 0.042678 2.456027 0.060410 -0.023489 -1309140.000000 0 0 1
27.375220 1.381618 -31.332324 41.629630 0.050427 2.422866 0.056479 -0.011978 71304.800000 0 0 1
28.689920 1.084618 -32.106414 43.070985 0.037787 2.411976 0.045767 -0.022276 94362.600000 0 0 1
28.950420 1.935518 -33.213324 44.102131 0.066757 2.423558 0.043342 -0.015173 -311223.000000 0 0 1
29.763520 1.272818 33.897358 45.127797 0.042738 0.721007 0.032822 -0.011343 -251989.000000 0 0 1
30.649320 2.257518 33.088073 45.158585 0.073524 0.748503 0.053306 -0.009935 -165930.000000 0 0 1
29.970520 3.071918 32.163758 44.070127 0.102141 0.752721 0.063027 -0.006055 623140.000000 0 0 1
29.104920 4.099718 32.742651 43.999832 0.139939 0.731529 0.039760 -0.008426 653072.000000 0 0 1
28.479220 4.960518 31.594046 42.823550 0.172450 0.741031 0.043144 -0.012890 -96175.900000 0 0 1
28.591620 6.333818 31.874866 43.285160 0.218006 0.743074 0.060909 -0.023169 49329.300000 0 0 1
27.931620 7.062518 30.879566 42.232714 0.247659 0.750751 0.053890 -0.024262 -328782.000000 0 0 1
28.102120 8.632118 30.993576 42.718197 0.298021 0.758984 0.053405 -0.019140 1051250.000000 0 0 1
29.483620 9.005818 30.810366 43.585172 0.296451 0.785690 0.058454 -0.025090 844280.000000 0 0 1
29.685120 10.374318 31.106346 44.231635 0.336210 0.790823 0.055894 -0.026236 -214584.000000 0 0 1
30.992420 10.945218 30.538756 44.865839 0.339485 0.822122 0.062455 -0.021949 -551074.000000 0 0 1
32.131220 10.513818 31.274736 46.055019 0.316234 0.824297 0.084621 -0.029120 38507.100000 0 0 1
33.355020 10.746218 30.619536 46.535949 0.311676 0.852669 0.077027 -0.028675 -104047.000000 0 0 1
33.901520 12.154918 30.776326 47.373382 0.344259 0.863667 0.078185 -0.018184 -963062.000000 0 0 1
34.242720 12.365118 32.149193 48.569853 0.346531 0.847424 0.086726 -0.028148 71642.300000 0 0 1
34.749820 13.676918 32.367321 49.419141 0.374962 0.856673 0.089598 -0.015562 -361185.000000 0 0 1
33.842620 14.884618 32.149093 48.994275 0.414355 0.855050 0.074868 -0.012166 -1008060.000000 0 0 1
33.500620 15.246718 30.808056 47.998857 0.427101 0.873888 0.075615 -0.023274 369353.000000 0 0 1
32.537120 16.289818 30.744966 47.636911 0.464170 0.869247 0.069660 -0.017904 -841116.000000 0 0 1
31.099420 15.921018 30.973466 46.690559 0.473153 0.845473 0.052838 -0.010438 -1757000.000000 0 0 1
30.583720 15.164118 29.922666 45.394717 0.460301 0.851087 0.051031 -0.007389 -1116290.000000 0 0 1
29.366520 14.662018 30.312256 44.678855 0.463069 0.825149 0.042459 -0.011921 -1213850.000000 0 0 1
28.626720 14.072518 29.113406 43.186980 0.456894 0.831017 0.053967 -0.005920 -242325.000000 0 0 1
28.989820 12.752418 28.808936 42.813416 0.414417 0.832681 0.044122 -0.006532 -264555.000000 0 0 1
28.184020 12.256518 27.791836 41.436063 0.410205 0.835622 0.057747 -0.012995 -252644.000000 0 0 1
28.014720 10.698918 27.712196 40.832061 0.364809 0.824823 0.052703 0.000538 -23637.500000 0 0 1
29.184720 9.959118 27.439986 41.278139 0.328853 0.843626 0.051448 -0.002789 -52997.200000 0 0 1
28.856420 8.567418 27.352676 40.672626 0.288609 0.833204 0.060581 -0.000275 -550737.000000 0 0 1
29.952020 7.621418 26.960186 41.012939 0.249166 0.853489 0.045622 -0.011189 -671741.000000 0 0 1
30.298320 7.796418 25.584336 40.414485 0.251858 0.885311 0.055973 -0.008102 -123615.000000 0 0 1
31.473520 7.118218 25.238346 40.966152 0.222423 0.907042 0.079666 -0.010660 -19544.600000 0 0 1
32.028020 7.505618 23.828626 40.619352 0.230191 0.943902 0.082332 -0.005060 -69037.200000 0 0 1
32.374220 8.846218 23.520576 40.982474 0.266737 0.959514 0.069184 -0.008790 670539.000000 0 0 1
31.248620 9.693618 23.212946 40.115874 0.300797 0.953727 0.074556 -0.008215 691181.000000 0 0 1
30.776520 9.569418 21.721016 38.866058 0.301456 0.977776 0.068387 0.008429 697422.000000 0 0 1
31.843020 10.039518 20.865016 39.371547 0.305417 1.012253 0.075419 -0.003120 867652.000000 0 0 1
31.394520 10.029118 19.564216 38.326983 0.309208 1.035082 0.074967 -0.008707 -663456.000000 0 0 1
32.214220 10.872018 18.527516 38.719835 0.325488 1.071848 0.096020 -0.030550 746741.000000 0 0 1
33.475920 10.375818 18.093316 39.441893 0.300559 1.094227 0.092947 -0.020953 668320.000000 0 0 1
34.530420 10.441218 19.047316 40.794230 0.293636 1.085001 0.100303 -0.014214 162407.000000 0 0 1
35.876420 9.841218 18.519916 41.556640 0.267723 1.108891 0.128847 -0.026720 326139.000000 0 0 1
35.908720 8.389818 18.371016 41.198537 0.229526 1.108601 0.109811 -0.012473 271755.000000 0 0 1
36.816820 7.970718 17.353616 41.474794 0.213206 1.139098 0.131542 -0.015035 -130735.000000 0 0 1
36.773020 6.412518 17.079816 41.049915 0.172645 1.141672 0.132088 -0.016932 380682.000000 0 0 1
35.492020 5.876618 16.708516 39.666014 0.164087 1.135995 0.096942 -0.017751 728104.000000 0 0 1
35.522420 4.824818 15.803516 39.177446 0.134998 1.155585 0.111133 -0.014815 -25037.500000 0 0 1
34.347920 3.828618 16.059016 38.109447 0.111008 1.135817 0.076508 -0.012251 198753.000000 0 0 1
34.449320 3.104318 17.288216 38.668784 0.089870 1.107293 0.079102 0.000664 -35288.900000 0 0 1
33.245820 2.453718 17.611616 37.702444 0.073672 1.084764 0.053557 0.003925 -33683.500000 0 0 1
33.311120 1.634418 18.936616 38.352281 0.049026 1.054394 0.053410 -0.007863 255033.000000 0 0 1
33.963820 0.370418 18.728316 38.786958 0.010906 1.066889 0.067360 -0.008250 144363.000000 0 0 1
33.808720 -0.377582 19.912116 39.238559 -0.011168 1.038558 0.075478 -0.013235 -158132.000000 0 0 1
34.420220 -1.722282 19.779116 39.735768 -0.049995 1.049775 0.081313 -0.011742 -262119.000000 0 0 1
34.180320 -2.506182 20.931916 40.158689 -0.073191 1.022505 0.098386 -0.010454 31558.500000 0 0 1
34.893420 -3.698782 20.828616 40.805183 -0.105608 1.035099 0.077911 -0.013166 -471324.000000 0 0 1
34.535320 -4.560282 22.031216 41.217217 -0.131287 1.006863 0.083966 -0.013866 -138145.000000 0 0 1
34.911720 -3.891182 23.215826 42.106342 -0.111000 0.986801 0.080779 -0.024026 69790.900000 0 0 1
34.444120 -4.574582 24.325036 42.414992 -0.132039 0.960023 0.097527 -0.024854 -88002.100000 0 0 1
34.782720 -3.961482 25.679176 43.416023 -0.113404 0.937918 0.081252 -0.020677 170814.000000 0 0 1
33.743520 -4.136082 26.631606 43.185353 -0.121966 0.906276 0.090158 -0.012750 246357.000000 0 0 1
34.118420 -3.534982 27.847816 44.182163 -0.103241 0.888863 0.087084 -0.011435 249454.000000 0 0 1
33.241420 -4.064982 29.030966 44.320572 -0.121683 0.856584 0.092726 -0.012464 281799.000000 0 0 1
33.530420 -5.337382 29.428096 44.930942 -0.157856 0.856663 0.102904 -0.018720 40628.300000 0 0 1
32.660320 -5.713382 30.478606 45.036481 -0.173181 0.827452 0.110529 -0.026293 129590.000000 0 0 1
32.821620 -7.164582 30.832446 45.598571 -0.214917 0.828243 0.106013 -0.026262 -271567.000000 0 0 1
34.039220 -7.491682 31.422786 46.927447 -0.216636 0.837121 0.108742 -0.021904 -468772.000000 0 0 1
34.426220 -8.886482 31.247606 47.334417 -0.252617 0.849784 0.090006 -0.020594 -142412.000000 0 0 1
35.624320 -9.315082 32.074974 48.833051 -0.255755 0.854190 0.081208 -0.017468 -164869.000000 0 0 1
35.325620 -9.398782 33.442722 49.544446 -0.260037 0.829826 0.061425 -0.025978 -316898.000000 0 0 1
36.461420 -9.831382 -33.908604 50.753174 -0.263374 2.302459 0.055931 -0.026722 -211939.000000 0 0 1
36.245320 -10.056582 -32.422034 49.659303 -0.270651 2.282189 0.066387 -0.025712 -27729.100000 0 0 1
35.835720 -8.971182 -31.561694 48.588286 -0.245300 2.277821 0.072860 -0.027369 243411.000000 0 0 1
36.800020 -7.970182 -31.460954 49.066862 -0.213287 2.266838 0.072756 -0.018207 -58794.100000 0 0 1
36.196020 -6.721282 -30.714214 47.944660 -0.183600 2.266099 0.081734 -0.027413 -9901.900000 0 0 1
36.108720 -6.977082 -29.303814 47.023748 -0.190872 2.243586 0.074971 -0.015826 121683.000000 0 0 1
35.611520 -5.840882 -28.639304 46.070663 -0.162569 2.241629 0.080969 -0.026493 -109706.000000 0 0 1
36.105620 -5.657782 -27.161284 45.534181 -0.155437 2.209934 0.085337 -0.021674 -70150.300000 0 0 1
-36.337016 -5.460582 -27.131164 45.675997 0.149160 2.206808 0.081391 -0.018794 -367365.000000 0 0 1
-36.037216 -4.747082 -25.955234 44.664190 0.130973 2.190900 0.081129 -0.012966 326059.000000 0 0 1
-34.563316 -4.883382 -25.478794 43.216191 0.140359 2.201318 0.099756 -0.013315 -230183.000000 0 0 1
-34.323216 -3.955382 -24.439764 42.320565 0.114733 2.186449 0.111674 -0.018833 92891.900000 0 0 1
-33.067916 -4.091382 -23.816664 40.956806 0.123101 2.191376 0.110732 -0.013895 -52607.800000 0 0 1
-31.930216 -3.333282 -24.524864 40.399485 0.104016 2.223150 0.111703 -0.012988 -596838.000000 0 0 1
-31.551416 -3.806882 -25.813474 40.942882 0.120076 2.252962 0.105313 -0.011777 16841.200000 0 0 1
-30.587616 -2.966782 -26.412094 40.521633 0.096690 2.280755 0.106450 -0.012991 227800.000000 0 0 1
-29.950116 -3.541082 -27.706354 40.953519 0.117686 2.313839 0.101214 -0.011702 -272607.000000 0 0 1
-30.893716 -3.623082 -28.723974 42.339285 0.116742 2.316411 0.110099 -0.010832 -469284.000000 0 0 1
-30.459416 -4.423782 -29.764794 42.816922 0.144227 2.339445 0.090007 -0.007129 -1009060.000000 0 0 1
-31.597016 -4.959382 -30.673984 44.315462 0.155687 2.335292 0.075009 -0.008956 -252345.000000 0 0 1
-32.608716 -5.766682 -30.097604 44.748729 0.175035 2.308501 0.067831 -0.010090 548291.000000 0 0 1
-33.492116 -5.144582 -29.174704 44.714113 0.152414 2.281638 0.087268 -0.010944 -850889.000000 0 0 1
-34.588016 -4.193282 -29.710394 45.788885 0.120646 2.276876 0.113839 -0.009168 -803834.000000 0 0 1
-34.249216 -3.060782 -30.488694 45.955823 0.089131 2.296196 0.115077 -0.007806 -302898.000000 0 0 1
-33.958516 -1.939282 -29.710854 45.162777 0.057045 2.288772 0.120492 0.000644 -18870.000000 0 0 1
-33.740516 -0.663282 -30.540094 45.514390 0.019656 2.306351 0.118574 -0.005781 462067.000000 0 0 1
-34.952216 -0.130882 -31.068604 46.764652 0.003745 2.297435 0.128126 -0.003558 265703.000000 0 0 1
-34.706616 1.099818 -31.718054 47.029711 -0.031678 2.310983 0.141185 -0.003843 3168.240000 0 0 1
-35.952716 1.881218 -32.175244 48.284398 -0.052277 2.300125 0.102743 -0.006602 -106653.000000 0 0 1
-36.445516 1.522018 -33.444454 49.488622 -0.041737 2.312847 0.098226 -0.007961 -1055860.000000 0 0 1
36.050420 1.843518 -33.481414 49.234505 0.051093 2.318613 0.070465 -0.002694 -1134860.000000 0 0 1
35.292220 1.416318 33.272589 48.524344 0.040110 0.815247 0.047621 -0.006271 -144222.000000 0 0 1
35.497720 2.132318 32.050932 47.873762 0.059997 0.837276 0.072307 -0.015642 457138.000000 0 0 1
36.369820 1.334518 31.231976 47.958118 0.036677 0.861586 0.052807 -0.009990 67001.400000 0 0 1
36.553620 1.780618 29.795386 47.192190 0.048674 0.887487 0.078263 -0.015924 -443963.000000 0 0 1
-36.306616 2.766018 29.620836 46.938418 -0.076038 0.887881 0.109007 -0.024292 -202993.000000 0 0 1
-36.095316 3.084018 28.311476 45.977414 -0.085234 0.907434 0.122703 -0.027144 -92693.000000 0 0 1
-34.883616 4.011518 28.114566 44.982082 -0.114494 0.895643 0.111372 -0.027156 -376240.000000 0 0 1
-34.858116 4.488718 26.765016 44.176950 -0.128066 0.919951 0.119062 -0.023160 535023.000000 0 0 1
-34.005416 5.644218 26.619866 43.552758 -0.164480 0.913208 0.122465 -0.023335 99493.900000 0 0 1
-33.216816 5.806018 25.304486 42.159028 -0.173043 0.927026 0.121916 -0.019106 150316.000000 0 0 1
-32.198016 4.805018 25.161616 41.144955 -0.148140 0.912796 0.115468 -0.019980 621405.000000 0 0 1
-31.377416 5.089618 24.036366 39.852143 -0.160806 0.923366 0.111290 -0.024891 18443.000000 0 0 1
-31.898816 4.471318 22.705116 39.408748 -0.139265 0.956793 0.141364 -0.034441 90127.500000 0 0 1
-31.659416 3.070518 22.669516 39.059616 -0.096684 0.951598 0.147223 -0.034791 -62320.800000 0 0 1
-32.426716 2.563818 21.599016 39.045903 -0.078901 0.984632 0.169011 -0.031835 -227784.000000 0 0 1
-32.002816 1.118418 21.100916 38.349442 -0.034933 0.988160 0.157763 -0.032727 468196.000000 0 0 1
-30.761616 0.947318 20.410316 36.929059 -0.030786 0.985208 0.151217 -0.028523 445911.000000 0 0 1
-30.722416 1.391018 19.062616 36.182662 -0.045246 1.015913 0.176155 -0.027001 -102481.000000 0 0 1
-29.451416 1.072718 18.238716 34.658150 -0.036407 1.016616 0.168056 -0.028461 -219013.000000 0 0 1
-29.276416 -0.326082 17.984316 34.360594 0.011138 1.019961 0.169948 -0.023610 439641.000000 0 0 1
-28.185316 -0.782182 17.174916 33.015172 0.027744 1.023696 0.173981 -0.027605 155333.000000 0 0 1
-28.114116 -0.206982 15.740516 32.221269 0.007362 1.060411 0.188394 -0.029746 -273505.000000 0 0 1
-27.621816 1.123718 15.638816 31.761612 -0.040660 1.055973 0.207736 -0.028033 238305.000000 0 0 1
-27.701016 1.640618 14.313416 31.223577 -0.059157 1.094583 0.197285 -0.025057 121833.000000 0 0 1
-26.846416 2.942318 13.998216 30.419357 -0.109162 1.092604 0.186048 -0.019084 -67074.200000 0 0 1
-25.474716 2.653918 13.997516 29.187923 -0.103804 1.070637 0.172319 -0.022299 -477244.000000 0 0 1
-24.806216 3.582518 13.196116 28.325258 -0.143428 1.086170 0.165184 -0.027312 -362062.000000 0 0 1
-23.296516 3.274818 13.111616 26.932630 -0.139656 1.062339 0.120675 -0.027731 -452909.000000 0 0 1
-22.645616 3.673418 14.282016 27.023950 -0.160812 1.013970 0.096314 -0.012600 -741785.000000 0 0 1
-21.295116 3.786718 13.963916 25.745138 -0.175981 0.997517 0.050129 -0.010838 -628604.000000 0 0 1
-20.512716 4.618418 15.040916 25.852087 -0.221456 0.949848 0.032004 -0.011554 -336194.000000 0 0 1
-20.925916 5.934418 15.097916 26.477506 -0.276336 0.964027 0.028752 -0.004964 291353.000000 0 0 1
-20.534316 6.510918 16.344316 27.040466 -0.307047 0.921735 0.026442 0.004416 -130366.000000 0 0 1
-20.822016 8.020518 16.512316 27.758631 -0.367678 0.933713 0.023223 -0.001426 -163258.000000 0 0 1
-19.801016 8.833018 15.925116 26.901891 -0.419597 0.937295 0.028136 -0.008166 676535.000000 0 0 1
-19.920616 10.210918 16.290916 27.685514 -0.473661 0.941684 0.038157 -0.007277 -242427.000000 0 0 1
-19.675216 10.569218 17.801416 28.560688 -0.492951 0.897861 0.045822 -0.004688 -86456.100000 0 0 1
-20.655116 10.139818 18.747016 29.679965 -0.456350 0.887131 0.064532 -0.014303 497859.000000 0 0 1
-20.425716 10.779918 19.989416 30.544938 -0.485610 0.857372 0.072812 -0.012473 -258390.000000 0 0 1
-12.374780 -33.456753 -19.847764 40.821848 1.216527 2.078537 0.125278 -0.042816 233025.000000 0 0 1
-13.531680 -33.791053 -19.111164 41.111778 1.189901 2.054271 0.154857 -0.036841 -99045.600000 0 0 1
-14.696480 -33.119653 -19.489664 41.142982 1.153161 2.064290 0.128467 -0.053935 458177.000000 0 0 1
-16.018880 -33.640153 -18.824564 41.744804 1.126383 2.038619 0.114154 -0.045621 -316127.000000 0 0 1
-16.503780 33.223718 -19.518864 41.918686 -1.109755 2.055150 0.092666 -0.044925 111959.000000 0 0 1
-17.304380 32.420518 -18.706964 41.236902 -1.080516 2.041649 0.101343 -0.040885 470929.000000 0 0 1
-18.726380 32.921718 -18.287864 42.059039 -1.053622 2.020628 0.102172 -0.037084 -515787.000000 0 0 1
-18.735680 34.003718 -17.343964 42.521661 -1.067194 1.990933 0.103479 -0.034853 -1096520.000000 0 0 1
-19.912180 -33.763053 -16.705764 42.608934 1.037938 1.973679 0.068958 -0.025898 -931344.000000 0 0 1
-19.968780 33.641918 -15.310464 42.011202 -1.035119 1.943825 0.069227 -0.023162 -198622.000000 0 0 1
-20.190580 32.295618 -15.334264 41.058569 -1.012067 1.953546 0.078940 -0.032158 55857.200000 0 0 1
-20.332280 31.708318 -14.043364 40.199939 -1.000612 1.927661 0.077645 -0.023455 9021.550000 0 0 1
-20.514880 30.176718 -13.986964 39.078508 -0.973740 1.936835 0.064184 -0.023541 -168490.000000 0 0 1
-19.384680 29.466618 -13.543864 37.782055 -0.988921 1.937429 0.080000 -0.034252 -241055.000000 0 0 1
-19.491980 28.052918 -13.632064 36.779569 -0.963549 1.950497 0.080592 -0.038069 -19488.500000 0 0 1
-18.169480 27.410618 -13.162864 35.422210 -0.985432 1.951527 0.095625 -0.033667 444372.000000 0 0 1
-17.085980 27.623118 -14.064664 35.394662 -1.016857 1.979442 0.113224 -0.045685 -51042.200000 0 0 1
-15.906380 26.945418 -13.684864 34.151779 -1.037526 1.983085 0.129315 -0.052227 582432.000000 0 0 1
-14.657980 27.504018 -14.442464 34.349849 -1.081146 2.004740 0.118529 -0.049171 157559.000000 0 0 1
-14.792680 27.467918 -15.862364 34.998921 -1.076791 2.041176 0.094790 -0.044742 -350161.000000 0 0 1
-13.709580 28.122118 -16.474464 35.358366 -1.117197 2.055480 0.116961 -0.049560 -76444.300000 0 0 1
-13.751480 28.228918 -17.994164 36.190675 -1.117488 2.091170 0.133868 -0.055291 18407.800000 0 0 1
-13.436880 27.042418 -18.652464 35.493049 -1.109647 2.124128 0.113933 -0.051961 566372.000000 0 0 1
-14.140480 26.930818 -19.916564 36.357828 -1.087297 2.150520 0.090214 -0.053477 265897.000000 0 0 1
-13.500880 25.713518 -20.595464 35.603819 -1.087310 2.187639 0.068234 -0.038603 -115750.000000 0 0 1
-12.210080 26.043418 -21.052864 35.645038 -1.132390 2.202630 0.056642 -0.034608 -91456.400000 0 0 1
-11.474180 24.864918 -21.366964 34.734250 -1.138453 2.233379 0.051534 -0.033440 -35588.200000 0 0 1
-10.152380 25.169418 -22.083264 34.989155 -1.187395 2.253826 0.068620 -0.031153 -413782.000000 0 0 1
-10.248980 25.712918 -23.398064 36.244519 -1.191504 2.272555 0.065536 -0.031514 -1375940.000000 0 0 1
-9.097280 25.916618 -24.086164 36.531834 -1.233212 2.290710 0.057836 -0.033495 -1635730.000000 0 0 1
-9.350880 26.610618 -25.417344 37.968478 -1.232878 2.304241 0.053602 -0.027244 449549.000000 0 0 1
-10.318480 25.913818 -26.234524 38.291608 -1.191856 2.325571 0.056859 -0.031788 230832.000000 0 0 1
-10.744280 26.809518 -27.285604 39.732782 -1.189632 2.327774 0.064440 -0.028634 50548.400000 0 0 1
-12.141580 26.355318 -27.758654 40.156738 -1.139090 2.334024 0.060980 -0.029367 -135834.000000 0 0 1
-12.520880 26.882018 -28.987094 41.468867 -1.134904 2.344807 0.067662 -0.023245 -918587.000000 0 0 1
-13.627080 26.232718 -29.478254 41.747099 -1.091695 2.354793 0.063986 -0.024952 -744273.000000 0 0 1
-13.955780 26.640118 -30.958774 43.161388 -1.088241 2.370686 0.058709 -0.027270 26247.600000 0 0 1
-13.107580 26.093818 -31.961014 43.292059 -1.105290 2.401291 0.064165 -0.026936 46927.900000 0 0 1
-13.136580 24.668618 -32.052294 42.525992 -1.081471 2.424486 0.056403 -0.031479 -317719.000000 0 0 1
-12.250580 24.081418 -33.121774 42.743927 -1.100201 2.457335 0.050583 -0.022506 -409149.000000 0 0 1
-12.743980 24.353018 33.652921 43.451094 -1.088681 0.684870 0.058608 -0.020324 -95627.700000 0 0 1
-12.240880 23.489818 32.653375 42.045851 -1.090400 0.681524 0.054619 -0.018941 -577907.000000 0 0 1
-12.846980 23.653018 31.257436 41.249696 -1.073233 0.710920 0.064849 -0.006533 -20293.400000 0 0 1
-14.165180 23.135218 31.165716 41.318186 -1.021398 0.716231 0.079854 -0.021182 415334.000000 0 0 1
-14.702680 23.185918 29.782976 40.506558 -1.005665 0.744742 0.091104 -0.016245 -80624.900000 0 0 1
-15.856880 22.208818 29.642476 40.290800 -0.950743 0.744077 0.091316 -0.020778 -561680.000000 0 0 1
-15.559680 20.851418 29.770996 39.537292 -0.929721 0.718209 0.064586 -0.022564 46761.100000 0 0 1
-16.671180 20.020618 30.103256 39.811548 -0.876432 0.713396 0.072930 -0.026882 210029.000000 0 0 1
-16.254980 18.578018 30.212356 39.014786 -0.851990 0.685058 0.045002 -0.027602 -201081.000000 0 0 1
-15.885780 18.025518 28.971296 37.637923 -0.848413 0.692368 0.059325 -0.029538 105345.000000 0 0 1
-15.370280 16.728618 29.179526 36.980223 -0.827690 0.661523 0.038144 -0.037564 -51602.800000 0 0 1
-14.963180 16.042718 27.841686 35.446086 -0.820201 0.667348 0.037584 -0.029131 -155930.000000 0 0 1
-14.044280 16.750918 27.061546 34.787387 -0.873064 0.679459 0.030366 -0.022513 -324335.000000 0 0 1
-13.578380 15.878818 26.047226 33.391125 -0.863334 0.676028 0.012298 -0.016948 406717.000000 0 0 1
-12.308980 16.494418 25.352596 32.654723 -0.929699 0.681889 0.014038 -0.012560 92464.100000 0 0 1
-12.533280 17.542718 24.399316 32.560047 -0.950442 0.723696 0.020074 -0.008862 -172238.000000 0 0 1
-12.874480 18.840418 24.877666 33.758137 -0.971337 0.742267 0.030426 -0.007645 -290268.000000 0 0 1
-11.822180 19.663118 25.633506 34.401726 -1.029468 0.730078 0.021542 -0.009315 -248161.000000 0 0 1
-11.633280 19.317518 27.008716 35.184804 -1.028750 0.695670 0.022928 -0.013967 513390.000000 0 0 1
-12.620480 19.881418 27.900286 36.509906 -1.005190 0.701021 0.049674 -0.015178 438120.000000 0 0 1
-12.194080 19.672918 29.390716 37.410339 -1.015916 0.667081 0.038845 -0.021780 -501346.000000 0 0 1
-11.070980 20.330118 29.838086 37.764953 -1.072139 0.659824 0.029301 -0.021938 -859726.000000 0 0 1
-11.007080 20.114318 31.257446 38.765571 -1.070085 0.632893 0.019851 -0.020016 -535433.000000 0 0 1
-9.807580 20.749618 31.942406 39.332589 -1.129256 0.623036 0.013438 -0.019346 -1539780.000000 0 0 1
-8.641880 20.088418 31.669686 38.486304 -1.164536 0.604332 0.025761 -0.023926 -1106210.000000 0 0 1
-7.597280 20.802418 32.314878 39.175382 -1.220635 0.600811 0.032684 -0.018491 478859.000000 0 0 1
-6.450280 19.903918 32.904169 38.993030 -1.257405 0.566383 0.042929 -0.016332 105149.000000 0 0 1
-6.842780 19.099918 -34.005524 39.598058 -1.226780 2.603656 0.036344 -0.026221 -19836.000000 0 0 1
-5.778880 18.449018 -33.368974 38.564882 -1.267242 2.616482 0.036357 -0.028200 141677.000000 0 0 1
-4.882780 17.440418 33.884484 38.420931 -1.297816 0.490860 0.031796 -0.025625 114749.000000 0 0 1
-5.378080 16.108318 33.990675 37.996942 -1.248563 0.463343 0.031430 -0.020807 106713.000000 0 0 1
-5.345280 15.563918 32.689293 36.597779 -1.239977 0.466375 0.038265 -0.014992 -207934.000000 0 0 1
-5.941980 14.152918 32.593379 36.026942 -1.173303 0.440134 0.038930 -0.024682 -499283.000000 0 0 1
-5.268480 13.207318 33.380682 36.283054 -1.191233 0.402697 0.050398 -0.021714 -352532.000000 0 0 1
-5.852080 11.909918 33.273985 35.822493 -1.114083 0.379480 0.052937 -0.016225 378096.000000 0 0 1
-4.893880 10.749018 33.728983 35.737036 -1.143555 0.336820 0.072382 -0.031204 225702.000000 0 0 1
-4.702080 10.756318 -32.893694 34.925679 -1.158683 2.798800 0.084838 -0.041094 -379392.000000 0 0 1
-4.101680 9.557518 -32.557254 34.178132 -1.165410 2.832387 0.086907 -0.040617 -111333.000000 0 0 1
-4.154380 9.282718 -30.960834 32.588357 -1.149991 2.824219 0.092123 -0.043344 -419426.000000 0 0 1
-5.364880 8.767718 -30.520834 32.205219 -1.021680 2.816742 0.105394 -0.039866 -645437.000000 0 0 1
-5.431080 8.845718 -29.079554 30.876590 -1.020162 2.798740 0.124491 -0.037854 -946926.000000 0 0 1
-6.528280 7.981218 -28.539654 30.345183 -0.885202 2.794896 0.111903 -0.039105 -663541.000000 0 0 1
-6.126680 6.614718 -28.441474 29.836356 -0.823683 2.834607 0.100631 -0.024711 674734.000000 0 0 1
-7.226580 5.842118 -27.911474 29.417753 -0.679855 2.820202 0.114370 -0.045591 327416.000000 0 0 1
-6.940980 5.114318 -26.593034 27.955731 -0.635018 2.828077 0.100866 -0.044382 -246238.000000 0 0 1
-6.976480 5.882318 -25.458604 27.044657 -0.700512 2.797418 0.068406 -0.031151 4417.280000 0 0 1
-5.787480 6.604718 -25.232774 26.717225 -0.851251 2.806678 0.063641 -0.030030 -271617.000000 0 0 1
-6.023980 7.680218 -24.175164 26.071299 -0.905671 2.757853 0.026570 -0.014008 140661.000000 0 0 1
-6.287380 7.151618 -22.914964 24.814761 -0.849618 2.747749 0.016272 -0.008983 -135044.000000 0 1 0
-7.597380 7.504818 -22.529164 24.932022 -0.779269 2.698952 0.032245 -0.000217 3558.150000 0 1 0
-7.703780 7.778818 -21.018464 23.698820 -0.790245 2.661385 0.026307 0.002268 -5815.610000 0 1 0
-6.800980 8.792618 -20.631264 23.435284 -0.912432 2.647397 0.009022 0.003570 -126042.000000 0 1 0
-6.801280 8.948618 -19.193264 22.242225 -0.920902 2.611816 0.015471 0.000180 -640196.000000 0 1 0
-8.038080 9.384618 -18.390264 22.155893 -0.862531 2.549975 0.019668 0.004626 -728579.000000 0 1 0
-7.832680 9.378318 -17.015764 20.948507 -0.874963 2.518823 0.012784 0.003270 -30322.100000 0 1 0
-8.938180 9.673218 -16.180264 20.862961 -0.824872 2.458382 0.019883 -0.004746 -134683.000000 0 1 0
-9.575080 11.064118 -16.252664 21.868835 -0.857420 2.408619 0.048055 -0.018629 -466616.000000 0 1 0
-8.721280 12.143118 -15.926064 21.843891 -0.947955 2.387781 0.029947 -0.017461 -37782.500000 0 1 0
-9.277680 13.444418 -16.117464 22.947775 -0.966761 2.349496 0.063644 -0.023953 340758.000000 0 1 0
-8.139280 14.443518 -15.770664 22.881804 -1.057629 2.331212 0.064055 -0.024736 385618.000000 0 1 0
-7.610680 14.564218 -14.474264 21.898475 -1.089264 2.292909 0.060288 -0.022449 194292.000000 0 1 0
-8.459280 15.241818 -13.584064 22.099756 -1.064119 2.232764 0.056260 -0.031619 -963013.000000 0 1 0
-7.670580 15.881518 -12.409164 21.564966 -1.120851 2.183928 0.043458 -0.032074 295979.000000 0 1 0
-7.016580 17.129318 -12.659364 22.425553 -1.182021 2.170631 0.046673 -0.033674 531165.000000 0 1 0
-6.200680 17.257818 -13.831364 22.969270 -1.225863 2.217010 0.060735 -0.023059 -388578.000000 0 1 0
-6.107480 18.717418 -14.355964 24.366714 -1.255390 2.200819 0.082514 -0.013668 569480.000000 0 1 0
-5.289680 19.567818 -13.532164 24.372109 -1.306781 2.159438 0.072850 -0.021701 306972.000000 0 1 0
-5.660380 20.939618 -13.820064 25.719675 -1.306787 2.138070 0.076307 -0.018851 -2206.230000 0 0 1
-5.014380 21.932018 -12.823464 25.895920 -1.346027 2.088853 0.071747 -0.018716 -281689.000000 0 0 1
-5.200780 23.362618 -12.944564 27.210692 -1.351757 2.066574 0.063445 -0.020035 634862.000000 0 0 1
-6.551980 23.824118 -12.828464 27.840376 -1.302417 2.049677 0.072896 -0.016693 475209.000000 0 0 1
-7.342980 23.756118 -11.537664 27.411497 -1.271013 2.005240 0.057434 -0.024102 -474608.000000 0 0 1
-7.734280 22.465718 -11.181764 26.259463 -1.239235 2.010663 0.067142 -0.021868 261998.000000 0 0 1
-8.479580 22.436718 -9.917764 25.955185 -1.209457 1.962876 0.076411 -0.022713 331435.000000 0 0 1
-7.699880 22.628618 -8.593664 25.400661 -1.242814 1.915932 0.071514 -0.018657 -183563.000000 0 0 1
-7.548280 24.052218 -8.418364 26.577332 -1.266701 1.893097 0.056285 -0.013745 -270044.000000 0 0 1
-6.969780 24.325418 -7.179664 26.303068 -1.291750 1.847264 0.057345 -0.016507 -391591.000000 0 0 1
-7.057680 25.866418 -6.964064 27.701636 -1.304429 1.824918 0.057823 -0.013246 295211.000000 0 0 1
-6.233380 26.755318 -7.739164 28.541141 -1.341902 1.845392 0.049865 -0.021088 155141.000000 0 0 1
-6.486180 26.788518 -9.130664 29.035569 -1.333243 1.890689 0.047315 -0.019330 -51956.200000 0 0 1
-5.731980 27.977518 -9.755264 30.178838 -1.368715 1.899957 0.042181 -0.015982 317884.000000 0 0 1
-6.434380 29.220618 -9.681364 31.447966 -1.354055 1.883732 0.036507 -0.019005 316807.000000 0 0 1
-7.189480 29.501218 -10.879264 32.254750 -1.331755 1.914835 0.046991 -0.018100 759104.000000 0 0 1
-8.342480 30.559518 -10.679764 33.429605 -1.304299 1.895967 0.061903 -0.026070 -229064.000000 0 0 1
-9.345880 30.171018 -9.822464 33.077433 -1.270406 1.872297 0.080460 -0.023384 -574713.000000 0 0 1
-10.403080 31.109918 -9.975864 34.286571 -1.248088 1.866022 0.087392 -0.032966 247678.000000 0 0 1
-11.727280 30.631018 -9.338064 34.102607 -1.205156 1.848162 0.100090 -0.023267 190011.000000 0 0 1
-12.400680 29.451518 -9.764964 33.414418 -1.172273 1.867363 0.106559 -0.028507 -504490.000000 0 0 1
-13.536680 29.303418 -8.974364 33.503302 -1.138050 1.841973 0.113456 -0.017332 -536652.000000 0 0 1
-14.593180 28.392218 -9.589664 33.332276 -1.096023 1.862620 0.116701 -0.020700 -291989.000000 0 0 1
-14.449680 27.004018 -9.381464 32.031580 -1.079469 1.868036 0.101820 -0.016344 65322.400000 0 0 1
-15.490980 26.252718 -10.004564 32.082191 -1.037709 1.887927 0.128039 -0.028592 150970.000000 0 0 1
-15.605780 24.855418 -9.358864 30.804553 -1.010141 1.879490 0.107518 -0.019900 -468840.000000 0 0 1
-14.580480 23.980518 -9.702764 29.695105 -1.024505 1.903655 0.114285 -0.023244 -310073.000000 0 0 1
-14.685880 22.781818 -8.933064 28.539200 -0.998204 1.889157 0.102788 -0.021413 203549.000000 0 0 1
-13.555680 21.788418 -9.283164 27.288619 -1.014249 1.917909 0.110867 -0.021104 91849.600000 0 0 1
-13.764680 21.347618 -10.655664 27.545061 -0.998094 1.968004 0.114389 -0.019608 377494.000000 0 0 1
-13.174980 20.049518 -10.859064 26.334057 -0.989431 1.995837 0.108365 -0.024067 -48252.600000 0 0 1
-13.343180 19.490218 -12.281864 26.622420 -0.970475 2.050296 0.106529 -0.021246 1322630.000000 0 0 1
-14.751780 19.300618 -12.572064 27.352983 -0.918195 2.048367 0.117190 -0.014524 923939.000000 0 0 1
-14.915080 18.457918 -13.702464 27.402771 -0.891161 2.094441 0.121327 -0.019452 252543.000000 0 0 1
-16.399280 18.294818 -14.110864 28.332900 -0.839980 2.092131 0.110868 -0.005867 409814.000000 0 0 1
-16.965280 19.517118 -14.561064 29.677655 -0.855232 2.083621 0.083483 -0.007392 229606.000000 0 0 1
-18.280080 19.345818 -15.079964 30.591295 -0.813715 2.086273 0.076336 -0.006096 536141.000000 0 0 1
-19.020280 20.572118 -15.701064 32.117075 -0.824573 2.081590 0.059195 -0.008294 197769.000000 0 0 1
-19.620580 21.511918 -14.830864 32.675439 -0.831347 2.041916 0.063663 -0.020574 317887.000000 0 0 1
-19.949980 22.672718 -15.557364 33.971833 -0.849191 2.046483 0.065857 -0.023201 -33160.800000 0 0 1
-20.440980 23.899818 -14.758764 34.739834 -0.863246 2.009578 0.074332 -0.016908 -807945.000000 0 0 1
-21.672680 23.716718 -14.172464 35.114762 -0.830401 1.986249 0.088465 -0.017369 -717260.000000 0 0 1
-22.077280 24.771018 -13.361364 35.770598 -0.842834 1.953607 0.080880 -0.030050 -187326.000000 0 0 1
-26.266980 -0.430282 3.575336 26.512684 0.016380 1.435530 0.190460 -0.045717 -30421.700000 0 0 1
-26.724270 0.044218 4.828836 27.157066 -0.001655 1.392034 0.183688 -0.039019 -417065.000000 0 0 1
-28.035700 -0.334182 5.092436 28.496404 0.011919 1.391127 0.168765 -0.039599 -491129.000000 0 0 1
-28.520640 0.353318 6.390336 29.229918 -0.012388 1.350393 0.178196 -0.033711 -202670.000000 0 0 1
-28.812950 1.705618 6.289836 29.540773 -0.059127 1.356233 0.193672 -0.036357 -117567.000000 0 0 1
-29.285410 2.186518 7.513636 30.312882 -0.074524 1.320316 0.203225 -0.036479 -225213.000000 0 0 1
-28.242290 2.473318 8.618736 29.631518 -0.087352 1.275667 0.220066 -0.032283 270110.000000 0 0 1
-27.498190 1.302418 9.104836 28.995599 -0.047328 1.251385 0.204076 -0.039159 856156.000000 0 0 1
-26.648780 1.777518 10.146636 28.570461 -0.066603 1.207728 0.210816 -0.045450 52306.100000 0 0 1
-25.837630 0.600818 10.830636 28.022255 -0.023249 1.173961 0.199931 -0.038081 584370.000000 0 0 1
-24.674980 0.084118 10.167436 26.687796 -0.003409 1.179944 0.177339 -0.032557 588295.000000 0 0 1
-24.918480 -0.868782 9.148236 26.558909 0.034851 1.219143 0.150493 -0.038745 -298123.000000 0 0 1
-23.675980 -1.335482 8.362336 25.144864 0.056347 1.231773 0.134099 -0.037182 -105087.000000 0 0 1
-22.812480 -2.210182 9.037036 24.636602 0.096583 1.195215 0.144669 -0.042767 346229.000000 0 1 0
-21.560580 -2.269682 8.369336 23.239102 0.104884 1.202378 0.155138 -0.040493 507194.000000 0 1 0
-20.308280 -2.503382 9.258836 22.459279 0.122650 1.145874 0.119795 -0.033552 9668.460000 0 1 0
-19.726280 -1.336682 9.762536 22.050395 0.067658 1.112147 0.103316 -0.032185 946509.000000 0 1 0
-20.449980 -0.747782 10.898236 23.184745 0.036550 1.081437 0.118557 -0.027741 -83636.200000 0 1 0
-20.252680 0.796418 10.972336 23.047722 -0.039304 1.074616 0.091919 -0.019494 -288948.000000 0 1 0
-20.681680 1.582018 9.845336 22.960081 -0.076345 1.127630 0.100785 -0.020177 631923.000000 0 1 0
-22.071280 1.802718 9.745636 24.194392 -0.081496 1.156216 0.119579 -0.017260 -450855.000000 0 1 0
-22.501480 3.109518 9.055336 24.453728 -0.137322 1.191459 0.117459 -0.034192 -182982.000000 0 1 0
-22.206180 4.197618 9.918536 24.680190 -0.186825 1.157225 0.098968 -0.033723 588703.000000 0 1 0
-22.482180 5.441518 9.321036 24.938730 -0.237470 1.187740 0.082089 -0.023186 -291095.000000 0 1 0
-22.450780 6.620618 10.386236 25.607499 -0.286767 1.153168 0.078118 -0.021190 -374880.000000 0 0 1
-23.474880 6.510818 11.317636 26.861676 -0.270552 1.135885 0.088991 -0.021937 -200622.000000 0 0 1
-23.491780 7.617018 12.200036 27.544937 -0.313546 1.111950 0.097619 -0.019132 168774.000000 0 0 1
-24.286880 7.500018 13.542236 28.800954 -0.299519 1.081278 0.122115 -0.021817 2251280.000000 0 0 1
-25.745470 7.479918 13.372236 29.959891 -0.282749 1.108128 0.152043 -0.027138 2071340.000000 0 0 1
-26.522730 7.018518 14.468936 31.017171 -0.258693 1.085488 0.168706 -0.028272 1457050.000000 0 0 1
-28.078070 6.964818 14.172436 32.214044 -0.243144 1.115258 0.180014 -0.026403 1185160.000000 0 0 1
-28.341250 5.881718 13.300436 31.854711 -0.204627 1.140066 0.196682 -0.017605 54541.200000 0 0 1
-29.742380 5.712518 13.220336 33.045715 -0.189756 1.159212 0.196169 -0.029486 -262020.000000 0 0 1
-30.212840 4.631018 12.295936 32.946199 -0.152096 1.188327 0.201451 -0.027454 -351346.000000 0 0 1
-31.059710 3.646618 12.859636 33.813808 -0.116872 1.180668 0.189714 -0.033987 279037.000000 0 0 1
-31.251840 2.747318 11.823536 33.526426 -0.087684 1.210381 0.189610 -0.022467 -188186.000000 0 0 1
-32.479630 1.871518 12.145236 34.726585 -0.057558 1.213504 0.153359 -0.016069 -186062.000000 0 0 1
-32.243150 0.849918 13.097736 34.812264 -0.026354 1.185063 0.155940 -0.014868 -56550.200000 0 0 1
-33.451460 0.314018 13.576736 36.102999 -0.009387 1.185261 0.120790 -0.010982 -86050.400000 0 0 1
-33.232610 -0.796282 14.652036 36.327986 0.023956 1.155647 0.103641 -0.013461 51978.500000 0 0 1
-33.000490 -2.106282 14.136736 35.962704 0.063739 1.166802 0.101058 -0.008873 188300.000000 0 0 1
-33.122040 -2.989282 15.244436 36.584124 0.090007 1.140989 0.100036 -0.006022 -5113.430000 0 0 1
-32.896940 -4.515782 14.842436 36.371676 0.136418 1.150450 0.082986 -0.006314 -307973.000000 0 0 1
-33.866650 -4.939682 13.928536 36.950704 0.144836 1.184296 0.052129 -0.006759 32908.500000 0 0 1
-33.728260 -6.327582 13.570336 36.902409 0.185449 1.194223 0.051824 -0.011411 -518480.000000 0 0 1
-34.752363 -6.816782 12.468936 37.545567 0.193694 1.232266 0.050717 -0.007347 840509.000000 0 0 1
-36.084382 -7.073282 12.860236 38.955097 0.193566 1.234355 0.057061 -0.006683 450950.000000 0 0 1
-36.835820 -5.977282 13.446236 39.666192 0.160866 1.224959 0.061886 -0.014770 -759027.000000 0 0 1
35.546676 -5.900082 12.976436 38.298368 -0.164482 1.225129 0.092233 -0.018586 -372623.000000 0 0 1
34.650896 -6.833182 13.512536 37.814886 -0.194703 1.205385 0.084664 -0.019655 -164551.000000 0 0 1
33.351456 -6.523582 13.036336 36.398115 -0.193162 1.204500 0.101505 -0.025199 320250.000000 0 0 1
32.229876 -7.481182 13.510836 35.738994 -0.228080 1.183116 0.091440 -0.029793 -74084.400000 0 0 1
31.808086 -7.251082 14.830536 35.836815 -0.224133 1.144133 0.087661 -0.021476 350594.000000 0 0 1
30.711616 -8.148082 15.045136 35.156091 -0.259335 1.128570 0.089200 -0.018337 294936.000000 0 0 1
30.141436 -8.161882 16.456336 35.297783 -0.264444 1.085789 0.092432 -0.016462 254733.000000 0 0 1
31.088246 -8.544382 17.447736 36.659364 -0.268220 1.074761 0.073480 -0.007592 404970.000000 0 0 1
30.452346 -8.465482 18.702036 36.725684 -0.271145 1.036500 0.084839 -0.014314 -247883.000000 0 0 1
31.446796 -8.910782 19.763536 38.195554 -0.276122 1.026951 0.077594 -0.019222 -5606.840000 0 0 1
32.500016 -8.017882 20.006836 38.997576 -0.241874 1.032088 0.070746 -0.014687 82111.400000 0 0 1
33.742356 -8.478282 19.482736 39.874865 -0.246169 1.060315 0.029608 -0.000587 805234.000000 0 0 1
35.014906 -7.794582 20.106136 41.122449 -0.219036 1.059930 0.024129 -0.008252 685289.000000 0 0 1
35.198026 -8.091982 21.483936 42.023097 -0.225972 1.034168 0.021200 -0.006636 -586900.000000 0 0 1
36.509066 -7.969582 21.937936 43.332426 -0.214919 1.039942 0.014889 -0.003362 -536601.000000 0 0 1
36.874496 -8.668082 23.305636 44.474900 -0.230878 1.019235 0.025619 -0.002559 -121735.000000 0 0 1
36.549276 -7.934982 24.463736 44.691027 -0.213786 0.991546 0.041958 -0.004799 -24535.300000 0 0 1
36.473716 -8.783682 25.594036 45.415192 -0.236322 0.972111 0.043475 -0.005100 53820.900000 0 0 1
35.971986 -8.145182 26.915636 45.659382 -0.222676 0.940372 0.059606 -0.008160 1302650.000000 0 0 1
-36.707920 -7.577682 27.610436 46.553505 0.203572 0.935905 0.038365 -0.015606 757563.000000 0 0 1
36.786446 -6.922382 28.848836 47.259045 -0.186002 0.914180 0.045438 -0.018613 -294021.000000 0 0 1
-35.923381 -6.430082 29.754336 47.086683 0.177119 0.886787 0.055583 -0.012352 -93164.500000 0 0 1
-35.410978 -7.446782 30.572636 47.371700 0.207276 0.869279 0.053137 -0.007157 260135.000000 0 0 1
-34.062040 -7.153382 30.937736 46.567552 0.207002 0.844156 0.048734 -0.016369 672885.000000 0 0 1
-33.478370 -7.904782 32.168636 47.096793 0.231869 0.818890 0.042188 -0.012326 87335.100000 0 0 1
-33.351340 -9.324382 31.927836 47.102470 0.272620 0.825979 0.051733 -0.019198 266825.000000 0 0 1
-32.721430 -9.929082 33.038536 47.548118 0.294612 0.802593 0.053688 -0.018835 -211509.000000 0 0 1
-33.065670 -11.400382 33.146536 48.187136 0.332017 0.812244 0.056276 -0.016856 260673.000000 0 0 1
-34.465253 -11.650682 33.248736 49.285601 0.325982 0.830355 0.056393 -0.022882 513649.000000 0 0 1
-34.695687 -13.049882 33.228136 49.781514 0.359756 0.839978 0.054894 -0.029811 1213980.000000 0 0 1
-36.250510 -13.242482 33.456136 51.076177 0.350244 0.856582 0.043971 -0.028002 1218250.000000 0 0 1
-36.649590 -14.629182 33.588336 51.820669 0.379785 0.865624 0.042557 -0.038677 970404.000000 0 0 1
35.774206 -14.750982 33.867936 51.423947 -0.391095 0.851836 0.030581 -0.034439 1106220.000000 0 0 1
35.338396 -16.275482 -33.989044 51.661868 -0.431602 2.288841 0.027041 -0.015058 49511.400000 0 0 1
35.803916 -16.822082 -32.748744 51.355458 -0.439229 2.262289 0.029158 -0.021782 190281.000000 0 0 1
35.712456 -18.206582 -32.847444 51.824837 -0.471465 2.257274 0.028412 -0.030329 -213386.000000 0 0 1
36.121286 -19.016782 -31.585944 51.614505 -0.484599 2.229331 0.027588 -0.022291 367637.000000 0 0 1
35.070466 -19.067682 -30.622844 50.311755 -0.497991 2.225169 0.021816 -0.021362 4418.720000 0 0 1
35.437486 -19.746082 -29.434544 50.121009 -0.508361 2.198478 0.014509 -0.017288 -492479.000000 0 0 1
34.356946 -19.664982 -28.314744 48.670689 -0.519858 2.191689 0.002365 -0.011974 273807.000000 0 0 1
33.091266 -20.209582 -28.560644 48.157756 -0.548266 2.205656 0.014481 -0.008244 -94562.600000 0 0 1
32.279506 -19.529982 -29.486644 47.883702 -0.544108 2.234194 0.015808 -0.006272 -958829.000000 0 0 1
30.916916 -20.265982 -29.640144 47.382527 -0.580231 2.246633 0.022800 -0.001074 206957.000000 0 0 1
30.051096 -19.413082 -30.385544 46.938443 -0.573560 2.274897 0.023008 0.004707 -198049.000000 0 0 1
28.797256 -20.022582 -30.535944 46.504082 -0.607561 2.287137 0.028177 0.004722 174717.000000 0 0 1
27.873756 -19.361182 -31.632444 46.394107 -0.607094 2.321044 0.030933 0.015083 616469.000000 0 0 1
28.322656 -19.638782 -32.953144 47.684005 -0.606279 2.333769 0.021640 0.008431 -149834.000000 0 0 1
27.367756 -19.167982 -33.854744 47.566262 -0.610985 2.362766 0.068431 -0.003869 -179747.000000 0 0 1
27.672256 -19.449082 32.674636 47.028208 -0.612627 0.802671 0.069064 -0.006748 81264.300000 0 0 1
28.831186 -18.858682 32.101736 47.089368 -0.579257 0.820686 0.050977 -0.013288 125268.000000 0 0 1
28.884376 -18.833982 30.684136 46.157797 -0.577813 0.843616 0.051658 -0.011834 328523.000000 0 0 1
27.717656 -18.070182 29.953236 44.631785 -0.577736 0.835079 0.064767 -0.010975 273224.000000 0 0 1
27.696056 -16.712782 30.424136 44.407394 -0.542942 0.816036 0.074529 -0.020468 535739.000000 0 0 1
26.949856 -15.812682 29.575136 43.023532 -0.530616 0.812869 0.099479 -0.021450 224894.000000 0 0 1
26.748956 -14.374982 30.174236 42.809243 -0.493121 0.788580 0.110576 -0.030576 423418.000000 0 0 1
27.987156 -13.668582 30.263036 43.427668 -0.454315 0.799785 0.106759 -0.020523 689773.000000 0 0 1
27.836256 -12.403782 30.906536 43.404204 -0.419187 0.778364 0.125616 -0.030769 -441796.000000 0 0 1
29.163086 -11.667982 30.877136 44.045714 -0.380588 0.793963 0.115225 -0.023926 -534224.000000 0 0 1
29.610396 -11.228182 29.577736 43.332321 -0.362445 0.819510 0.108925 -0.029029 553728.000000 0 0 1
30.990376 -10.872582 29.605336 44.216426 -0.337421 0.837187 0.092235 -0.025267 502252.000000 0 0 1
31.484026 -10.123682 28.355636 43.563458 -0.311108 0.862022 0.104748 -0.024545 124942.000000 0 0 1
30.955376 -8.782882 28.302936 42.853594 -0.276462 0.849370 0.108562 -0.021032 323280.000000 0 0 1
31.454976 -8.196382 27.098936 42.319600 -0.254907 0.875855 0.111306 -0.018954 189127.000000 0 0 1
31.020236 -6.748582 26.864736 41.587407 -0.214216 0.868487 0.109200 -0.024386 1417400.000000 0 0 1
29.627696 -6.642382 26.466736 40.279147 -0.220548 0.853854 0.129275 -0.016790 1038990.000000 0 0 1
29.152706 -5.285482 26.466136 39.727483 -0.179355 0.841705 0.135144 -0.017736 -389973.000000 0 0 1
27.674856 -5.054882 26.238936 38.469874 -0.180661 0.820214 0.113596 -0.010732 -792735.000000 0 0 1
27.208756 -5.404882 24.980036 37.330033 -0.196092 0.837709 0.127076 -0.019587 923204.000000 0 0 1
25.797556 -5.108882 24.851936 36.183329 -0.195508 0.813672 0.110710 -0.014905 720511.000000 0 0 1
25.270656 -5.368182 23.412136 34.864761 -0.209316 0.834548 0.100523 -0.018172 -326894.000000 0 0 1
25.413156 -4.287882 22.479536 34.198596 -0.167153 0.853535 0.119398 -0.015005 174262.000000 0 0 1
25.294556 -4.699982 21.141036 33.299366 -0.183715 0.882946 0.109505 -0.009533 81338.900000 0 0 1
25.767456 -3.699982 20.072136 32.871603 -0.142616 0.913950 0.130424 -0.008733 -168102.000000 0 0 1
24.834256 -2.672382 20.003336 32.000240 -0.107196 0.895537 0.111207 0.001780 -285766.000000 0 0 1
25.132256 -1.674882 19.062436 31.588162 -0.066544 0.922953 0.131104 -0.004264 -89439.000000 0 0 1
23.934656 -0.813182 18.599336 30.322670 -0.033962 0.910462 0.093011 0.000901 375606.000000 0 0 1
22.935956 -1.556582 17.899836 29.135634 -0.067763 0.909219 0.109125 -0.001983 865528.000000 0 0 1
21.736456 -0.818882 17.591536 27.975100 -0.037655 0.890751 0.111570 -0.001092 543232.000000 0 0 1
20.681256 -1.711082 16.967736 26.805712 -0.082548 0.885388 0.081914 -0.006253 -752369.000000 0 0 1
21.000856 -2.187382 15.698536 26.310922 -0.103783 0.931470 0.111617 -0.013245 425378.000000 0 0 1
20.015056 -3.113582 15.232036 25.343870 -0.154325 0.926026 0.102324 -0.021199 267013.000000 0 0 1
20.254956 -3.451182 13.730236 24.712209 -0.168766 0.981705 0.113239 -0.035777 241859.000000 0 1 0
19.189256 -4.276482 13.262136 23.714976 -0.219275 0.977339 0.094143 -0.030524 892175.000000 0 1 0
19.302756 -4.550882 11.850536 23.102859 -0.231535 1.032182 0.088878 -0.033421 191183.000000 0 1 0
18.382856 -5.785082 11.499536 22.441833 -0.304888 1.032801 0.060749 -0.030045 326998.000000 0 1 0
18.784556 -7.012682 12.095036 23.416386 -0.357298 1.028014 0.104903 -0.033894 1314250.000000 0 1 0
17.604256 -7.795482 12.365236 22.881836 -0.416865 0.999890 0.069130 -0.009683 595194.000000 0 1 0
17.909156 -9.221082 12.762436 23.846299 -0.475481 1.006057 0.099097 -0.033486 -508752.000000 0 1 0
18.551356 -9.947182 11.742636 24.103708 -0.492184 1.061949 0.087316 -0.041233 414847.000000 0 1 0
18.182056 -11.320182 11.565236 24.341084 -0.556873 1.075682 0.088780 -0.034433 -72141.800000 0 1 0
18.837356 -11.911582 10.277936 24.543181 -0.563859 1.138706 0.089407 -0.039028 57069.600000 0 1 0
18.332556 -11.364482 9.070436 23.398865 -0.554929 1.172722 0.089928 -0.039277 359904.000000 0 1 0
19.138256 -11.751582 7.990536 23.837390 -0.550676 1.228968 0.112354 -0.052462 -248212.000000 0 1 0
18.672556 -11.115682 6.688436 22.736708 -0.536953 1.272210 0.096857 -0.039277 -117688.000000 0 1 0
19.060156 -9.739582 6.656036 22.415437 -0.472402 1.269310 0.090563 -0.031600 749368.000000 0 1 0
19.511656 -9.402082 5.346536 22.308951 -0.449039 1.328782 0.073729 -0.035916 -219011.000000 0 1 0
20.161456 -7.989982 5.285036 22.321642 -0.377313 1.331759 0.102219 -0.032656 -25363.000000 0 1 0
20.719256 -7.683582 4.010336 22.459025 -0.355121 1.391271 0.098458 -0.035376 685867.000000 0 1 0
21.408856 -6.447982 3.989136 22.711864 -0.292542 1.394239 0.129325 -0.030588 -142154.000000 0 1 0
21.938956 -6.086482 2.604736 22.916101 -0.270622 1.456886 0.115734 -0.029161 -69659.100000 0 1 0
20.892856 -5.635082 1.781836 21.712681 -0.263445 1.488640 0.086028 -0.042348 504075.000000 0 1 0
21.376456 -5.066282 0.576036 21.976167 -0.232709 1.544581 0.078841 -0.027885 -300019.000000 0 1 0
-26.447740 -15.289282 0.084236 30.549176 0.524156 1.568039 0.126315 -0.018216 140662.000000 0 0 1
-25.367090 -14.704582 -0.665764 29.328437 0.525338 1.593499 0.121107 -0.012070 893458.000000 0 0 1
-24.045880 -15.063582 -0.292764 28.376074 0.559643 1.581114 0.119001 -0.012687 589298.000000 0 0 1
-23.478280 -14.595482 1.056936 27.665409 0.556193 1.532583 0.143544 -0.026141 -479369.000000 0 0 1
-23.896680 -15.375182 2.205736 28.501102 0.571723 1.493328 0.121396 -0.007187 152459.000000 0 0 1
-23.153980 -14.999582 3.339536 27.789328 0.574840 1.450332 0.124574 0.001552 151078.000000 0 0 1
-23.609880 -15.679082 4.642036 28.719480 0.586217 1.408450 0.118958 0.003731 -209157.000000 0 0 1
-23.410380 -17.060782 4.439636 29.305742 0.629775 1.418717 0.138706 -0.010383 299830.000000 0 0 1
-23.824580 -17.826282 5.572536 30.272762 0.642368 1.385663 0.131248 -0.012564 86729.300000 0 0 1
-23.740780 -19.369782 5.365236 31.106251 0.684353 1.397449 0.110587 -0.005789 49655.400000 0 0 1
-24.356380 -20.064982 6.424536 32.204214 0.689090 1.369955 0.098488 -0.012934 48155.300000 0 0 1
-24.519780 -21.401482 6.103736 33.113421 0.717597 1.385408 0.117946 -0.027068 81578.900000 0 0 1
-25.340270 -22.154682 7.189436 34.418704 0.718426 1.360365 0.111026 -0.017042 266832.000000 0 0 1
-24.571580 -22.443882 8.348236 34.310107 0.740174 1.325012 0.108738 -0.012843 -66209.600000 0 0 1
-25.383600 -22.912482 9.378136 35.457840 0.734277 1.303124 0.116527 -0.015152 -185826.000000 0 0 1
-24.563580 -23.336582 10.618536 35.506602 0.759788 1.267091 0.081438 -0.020089 -114103.000000 0 0 1
-23.894380 -22.255682 11.165236 34.509698 0.749905 1.241329 0.094342 -0.015183 -445913.000000 0 0 1
-23.151480 -22.639282 12.275636 34.629747 0.774213 1.208436 0.089597 -0.017943 -465343.000000 0 0 1
-23.427880 -21.934982 13.593036 34.853689 0.752500 1.170162 0.070668 -0.010354 -218387.000000 0 0 1
-24.627780 -22.363482 14.194436 36.168147 0.737250 1.167495 0.065369 -0.009971 -61874.500000 0 0 1
-24.994280 -21.634982 15.345236 36.445339 0.713480 1.136196 0.066787 -0.005189 6282.030000 0 0 1
-26.352310 -22.072182 15.958736 37.898637 0.697240 1.136150 0.040158 0.001641 48806.100000 0 0 1
-27.479470 -21.816982 15.155336 38.220232 0.671033 1.163066 0.043632 -0.002515 -161.984000 0 0 1
-27.853950 -22.825982 14.207336 38.713258 0.686512 1.195026 0.034593 -0.015235 -423795.000000 0 0 1
-29.066740 -23.610882 14.710836 40.233789 0.682195 1.196483 0.043568 -0.017062 -632132.000000 0 0 1
-28.729530 -24.445982 15.763936 40.883904 0.705017 1.174962 0.050712 -0.011510 -329550.000000 0 0 1
-29.685400 -25.412452 16.127736 42.274337 0.708001 1.179376 0.040369 -0.011513 -468285.000000 0 0 1
-29.544140 -26.836022 15.497636 42.815943 0.737402 1.200427 0.053668 -0.011099 -138308.000000 0 0 1
-29.854860 -26.967812 14.114436 42.635582 0.734634 1.233382 0.053385 -0.021509 1285930.000000 0 0 1
-31.273380 -27.074492 13.809836 43.609219 0.713559 1.248577 0.076197 -0.029752 1175980.000000 0 0 1
-31.526440 -27.257502 12.283636 43.448539 0.712905 1.284171 0.095674 -0.036263 -235677.000000 0 0 1
-30.938590 -28.428772 11.797936 43.641525 0.743147 1.297053 0.087286 -0.039366 110961.000000 0 0 1
-31.650850 -28.831402 10.647036 44.117858 0.738816 1.327058 0.079459 -0.025954 173884.000000 0 0 1
-31.152150 -30.137202 10.013636 44.485731 0.768840 1.343753 0.075432 -0.034041 -222831.000000 0 0 1
-31.466210 -31.308212 10.735936 45.668225 0.782881 1.333490 0.079887 -0.024533 -87081.000000 0 0 1
-30.702620 -32.435732 10.363836 45.849064 0.812841 1.342783 0.077164 -0.033948 -230323.000000 0 0 1
-31.074810 -33.725902 11.160436 47.197835 0.826287 1.332075 0.070242 -0.027741 -627756.000000 0 0 1
-32.328270 33.786060 10.987936 48.034879 -0.807444 1.340004 0.064909 -0.021506 -791375.000000 0 0 1
-32.365820 32.519059 11.568136 47.316565 -0.787760 1.323809 0.081968 -0.027271 -381283.000000 0 0 1
-33.715640 32.120708 12.241736 48.149189 -0.761177 1.313728 0.086936 -0.021710 1588050.000000 0 0 1
-34.873509 31.958199 11.359336 48.646918 -0.741804 1.335115 0.047349 -0.020108 1219470.000000 0 0 1
-35.357273 33.144511 10.771636 49.645982 -0.753107 1.352088 0.066212 -0.019418 -834168.000000 0 0 1
-36.775960 33.006877 10.169236 50.451348 -0.731439 1.367841 0.063802 -0.011276 103223.000000 0 0 1
-36.837630 32.223678 9.009636 49.764947 -0.718688 1.388749 0.051577 -0.018135 664228.000000 0 0 1
35.622746 31.986639 8.689336 48.658295 0.731669 1.391255 0.044647 -0.013450 423706.000000 0 0 1
35.403236 31.680899 7.211536 48.052833 0.729967 1.420152 0.049555 -0.022790 -26613.300000 0 0 1
35.747536 30.333759 6.855836 47.381703 0.703655 1.425593 0.068246 -0.025222 7263.160000 0 0 1
35.380826 30.063849 5.519836 46.755817 0.704332 1.452464 0.093176 -0.033444 81574.200000 0 0 1
35.559966 28.530459 5.229236 45.889467 0.676154 1.456595 0.105872 -0.034544 115930.000000 0 0 1
34.762666 27.634169 6.027736 44.815442 0.671647 1.435886 0.100921 -0.026887 31425.200000 0 0 1
35.343466 27.238669 7.251736 45.207227 0.656608 1.409689 0.076310 -0.026509 -27604.800000 0 0 1
34.518526 26.232919 8.090236 44.103816 0.649849 1.386316 0.084564 -0.013352 4339.240000 0 0 1
34.441146 24.971319 7.444336 43.187700 0.627337 1.397559 0.084124 -0.022744 485817.000000 0 0 1
33.339726 24.178649 7.913736 41.937711 0.627453 1.380956 0.076041 -0.024253 -15594.700000 0 0 1
33.192466 22.863089 7.086436 40.922833 0.603172 1.396753 0.073752 -0.023479 447352.000000 0 0 1
34.096666 21.783189 7.387736 41.129899 0.568508 1.390197 0.088400 -0.018644 1435620.000000 0 0 1
35.469326 22.080289 7.008936 42.364342 0.556812 1.404588 0.083434 -0.021060 1784410.000000 0 0 1
36.502426 20.853289 6.985936 42.615608 0.519038 1.406124 0.065107 -0.014090 814656.000000 0 0 1
36.156956 20.019489 5.907236 41.749262 0.505666 1.428827 0.072326 -0.020022 -15686.800000 0 0 1
36.768886 18.795689 6.120336 41.745508 0.472555 1.423655 0.083487 -0.025802 -367839.000000 0 0 1
36.316336 17.611889 5.239636 40.700230 0.451542 1.441701 0.079207 -0.027124 -277628.000000 0 0 1
36.862906 17.604289 3.925236 41.038912 0.445536 1.475003 0.078512 -0.026720 181816.000000 0 0 1
36.374036 16.455589 3.238236 40.054252 0.424847 1.489862 0.069550 -0.029548 -670077.000000 0 0 1
-36.651250 16.034189 1.970336 40.053609 -0.412394 1.521584 0.077154 -0.018164 571254.000000 0 0 1
-35.372804 15.419289 2.012936 38.639897 -0.411073 1.518678 0.085517 -0.045081 792846.000000 0 0 1
-34.304734 16.252989 2.476736 38.040881 -0.442455 1.505643 0.103302 -0.045454 -193280.000000 0 0 1
-33.041680 15.457689 2.851336 36.589929 -0.437577 1.492790 0.098873 -0.042469 -125621.000000 0 0 1
-33.088900 14.632889 4.037736 36.404671 -0.416373 1.459655 0.111480 -0.039311 -265440.000000 0 0 1
-31.791970 14.123889 4.101236 35.029041 -0.418070 1.453446 0.118657 -0.043556 -425890.000000 0 0 1
-31.369360 13.296889 5.388336 34.494611 -0.400923 1.413946 0.128766 -0.028714 -149808.000000 0 0 1
-31.808310 11.974889 5.461836 34.423803 -0.360059 1.411458 0.141726 -0.031165 223466.000000 0 0 1
-31.435510 11.391389 6.705336 34.101562 -0.347655 1.372878 0.141557 -0.014074 -5391.690000 0 0 1
-31.389510 9.858889 6.702036 33.577021 -0.304326 1.369845 0.159813 -0.021807 716213.000000 0 0 1
-32.731260 9.360789 6.728536 34.702060 -0.278554 1.375666 0.149542 -0.008813 641054.000000 0 0 1
-32.725040 7.977489 6.559336 34.316082 -0.239110 1.378468 0.159460 -0.019864 81741.500000 0 0 1
-34.197751 7.560289 6.367436 35.597589 -0.217576 1.390956 0.148578 -0.019167 191868.000000 0 0 1
-34.975471 7.557589 7.557236 36.572018 -0.212811 1.362657 0.147080 -0.015331 -221329.000000 0 0 1
-36.150620 6.809589 7.385436 37.520428 -0.186186 1.372665 0.119172 -0.013999 42611.600000 0 0 1
-36.722070 6.209989 8.695336 38.245042 -0.167523 1.341432 0.109233 -0.015609 -145406.000000 0 0 1
36.392206 6.959689 9.613636 38.278609 0.188960 1.316929 0.119508 -0.015148 -54338.800000 0 0 1
-36.634470 7.688289 10.519636 38.882604 -0.206863 1.296833 0.130556 -0.021488 -307311.000000 0 0 1
36.436286 8.518289 11.530736 39.155103 0.229661 1.271876 0.111289 -0.019491 -127237.000000 0 0 1
35.785536 7.867189 12.669136 38.768599 0.216400 1.237893 0.096867 -0.021517 1099190.000000 0 0 1
34.969486 8.830289 13.361936 38.462713 0.247344 1.216000 0.109361 -0.015895 -167629.000000 0 0 1
34.396486 8.326389 14.729636 38.332873 0.237502 1.176395 0.099757 -0.021191 -604341.000000 0 0 1
33.097506 7.835189 14.520736 36.982251 0.232451 1.167295 0.091328 -0.019168 -51716.200000 0 0 1
32.651366 7.216989 15.723136 36.951504 0.217534 1.131274 0.084078 -0.016103 -620646.000000 0 0 1
31.158116 6.919689 15.837436 35.630530 0.218536 1.110191 0.061173 -0.001129 -485196.000000 0 0 1
30.376486 8.105989 16.029136 35.289817 0.260774 1.099306 0.050019 -0.004138 1180560.000000 0 0 1
28.962726 7.919489 16.185436 34.110499 0.266913 1.076400 0.060457 -0.000591 907702.000000 0 0 1
28.379956 7.376389 17.492436 34.144082 0.254289 1.032921 0.058378 -0.006484 -500814.000000 0 0 1
28.621656 8.305789 18.563636 35.111165 0.282435 1.013716 0.082639 -0.014606 283406.000000 0 0 1
27.895656 8.014589 19.750736 35.106877 0.279771 0.973283 0.085224 0.000679 -300157.000000 0 0 1
28.184156 6.704689 20.528036 35.506334 0.233548 0.954335 0.079953 0.003865 -133168.000000 0 0 1
27.500856 6.676689 21.745536 35.689544 0.238173 0.915622 0.065940 0.013200 50553.800000 0 0 1
27.859356 5.463789 22.443236 36.189716 0.193662 0.901856 0.064170 0.011404 -31208.600000 0 0 1
26.921156 5.191889 23.689236 36.233745 0.190516 0.858215 0.072477 0.015575 245748.000000 0 0 1
25.641356 4.706689 23.400136 35.031392 0.181538 0.839310 0.044477 0.014871 -855614.000000 0 0 1
24.754556 5.769589 23.387936 34.540871 0.228984 0.826969 0.056547 0.020675 -60817.500000 0 0 1
23.221856 5.473089 23.255136 33.316822 0.231463 0.798196 0.068672 0.013072 82528.000000 0 0 1
22.797456 5.252189 21.908036 32.051077 0.226434 0.818201 0.065008 0.011660 -477246.000000 0 0 1
21.422356 5.328989 21.751436 30.990973 0.243810 0.792786 0.056541 0.000001 -1251860.000000 0 0 1
20.629456 4.088489 22.313236 30.662203 0.195652 0.755817 0.075329 -0.001828 -854490.000000 0 0 1
19.495756 3.721389 21.566336 29.309385 0.188613 0.743924 0.069398 -0.015364 -63764.300000 0 0 1
18.336056 4.379489 22.029036 28.994298 0.234453 0.707835 0.089691 -0.020965 250539.000000 0 0 1
17.092756 4.116989 21.071236 27.442829 0.236360 0.695360 0.116059 -0.025831 124152.000000 0 0 1
16.282056 3.073189 21.449236 27.103866 0.186552 0.657747 0.099199 -0.025241 -760150.000000 0 0 1
15.419856 2.888689 20.372236 25.712730 0.185189 0.656224 0.105430 -0.028204 -71040.700000 0 0 1
14.298156 1.803489 20.509636 25.066611 0.125472 0.612514 0.108123 -0.030672 275161.000000 0 0 1
14.858256 0.515389 20.858336 25.614519 0.034673 0.619245 0.082189 -0.026272 563750.000000 0 0 1
13.879456 -0.320511 21.452536 25.552951 -0.023088 0.574374 0.091763 -0.032532 95734.500000 0 0 1
14.327956 -1.796511 21.527536 25.922048 -0.124734 0.590842 0.064774 -0.021771 -34952.800000 0 0 1
13.909056 -2.412911 20.352136 24.768799 -0.171768 0.606436 0.053625 -0.014911 125635.000000 0 1 0
14.090756 -3.819811 20.326136 25.025830 -0.264724 0.622872 0.033071 -0.008147 -270692.000000 0 0 1
13.658056 -4.358411 18.959136 23.769457 -0.308895 0.647447 0.028884 -0.006956 -601006.000000 0 1 0
12.276256 -4.324211 18.790436 22.857947 -0.338671 0.605790 0.032217 -0.009342 -739717.000000 0 1 0
11.994256 -5.140011 17.665436 21.962457 -0.404865 0.636221 0.033558 -0.006098 -1477910.000000 0 1 0
10.543956 -5.276811 17.400436 21.018918 -0.464014 0.595539 0.044032 -0.005263 -1519610.000000 0 1 0
9.880956 -6.058611 18.337636 21.693523 -0.550040 0.563661 0.044774 0.004249 -873223.000000 0 1 0
8.536756 -6.276411 18.029936 20.912870 -0.633976 0.531307 0.039292 -0.010119 -521063.000000 0 1 0
7.853656 -7.120111 19.120836 21.862805 -0.736449 0.506221 0.033439 -0.010313 -408270.000000 0 1 0
8.066356 -8.532011 19.023736 22.355398 -0.813445 0.552970 0.037595 -0.008531 -472892.000000 0 1 0
9.234356 -9.030811 19.600236 23.473349 -0.774255 0.582664 0.055449 -0.013610 -649613.000000 0 1 0
9.479856 -10.479211 19.078836 23.742020 -0.835427 0.637495 0.066453 -0.025085 35936.400000 0 1 0
9.799556 -10.578111 17.699636 22.829911 -0.823586 0.683634 0.069292 -0.012450 25727.500000 0 1 0
10.101356 -11.879211 17.251536 23.254430 -0.866105 0.734956 0.063743 -0.019319 139298.000000 0 1 0
10.048856 -11.997011 15.717336 22.179775 -0.873537 0.783236 0.063596 -0.018035 296581.000000 0 1 0
10.462856 -13.272811 15.181236 22.718028 -0.903235 0.838947 0.053367 -0.014432 -6399.180000 0 1 0
10.201656 -13.386211 13.808336 21.770038 -0.919595 0.883717 0.048845 -0.009331 -291309.000000 0 1 0
10.886356 -14.556311 13.038936 22.369908 -0.928654 0.948530 0.064561 -0.020383 655883.000000 0 1 0
12.275656 -14.395211 12.752936 22.815591 -0.864702 0.977669 0.049922 -0.018703 288338.000000 0 1 0
12.455856 -13.607911 11.579336 21.780831 -0.829571 1.010273 0.025144 -0.015190 -1249660.000000 0 1 0
13.857756 -13.269411 11.127836 22.179797 -0.763713 1.045221 0.046555 -0.024065 -638148.000000 0 1 0
14.514056 -14.347411 10.521136 22.960843 -0.779624 1.094804 0.065674 -0.023934 817536.000000 0 1 0
15.807556 -14.042911 9.950936 23.368853 -0.726351 1.130928 0.063602 -0.033170 1079870.000000 0 1 0
16.670956 -15.252311 9.516436 24.517673 -0.740988 1.172177 0.069086 -0.037793 152333.000000 0 1 0
17.295556 -16.111111 10.474836 25.853942 -0.749958 1.153649 0.084008 -0.032186 68233.500000 0 0 1
16.448356 -17.003511 11.168436 26.161073 -0.801992 1.129723 0.119368 -0.027584 -177413.000000 0 0 1
17.039456 -17.535511 12.468936 27.446522 -0.799744 1.099211 0.109915 -0.033547 -853551.000000 0 0 1
18.063656 -18.399811 12.246236 28.545034 -0.794617 1.127395 0.142553 -0.040348 -983906.000000 0 0 1
18.616156 -18.962611 13.416036 29.767967 -0.794617 1.103262 0.111644 -0.042564 404552.000000 0 0 1
19.961656 -19.725011 13.233336 31.026842 -0.779435 1.130163 0.053447 -0.039765 1360480.000000 0 0 1
21.009956 -18.869011 12.694136 30.961248 -0.731764 1.148341 0.051632 -0.041905 417831.000000 0 0 1
22.189956 -19.579011 12.377136 32.076865 -0.722970 1.174658 0.035022 -0.037875 322971.000000 0 0 1
23.007056 -18.891511 11.251736 31.824760 -0.687486 1.209430 0.046610 -0.031951 -793012.000000 0 0 1
22.513256 -18.957011 9.924236 31.059707 -0.699853 1.245572 0.039138 -0.024853 104950.000000 0 0 1
21.284856 -18.341511 9.545936 29.674585 -0.711257 1.243285 0.054779 -0.030330 395369.000000 0 0 1
21.039356 -16.834311 9.810336 28.675620 -0.674823 1.221630 0.109471 -0.048586 -400497.000000 0 0 1
21.888256 -16.053311 9.031836 28.607317 -0.632806 1.249583 0.106882 -0.039605 -160282.000000 0 0 1
21.443856 -14.735211 9.063036 27.551842 -0.602052 1.235610 0.121615 -0.049675 85183.000000 0 0 1
-35.301558 24.822218 8.169936 43.921411 -0.612836 1.383694 0.102893 -0.022883 -437004.000000 0 0 1
-34.509479 23.865118 8.792736 42.869105 -0.605034 1.364224 0.112218 -0.027159 -421885.000000 0 0 1
-33.642680 24.598218 9.595136 42.766446 -0.631335 1.344509 0.118706 -0.019300 -647311.000000 0 0 1
-32.617960 23.763518 10.439836 41.684845 -0.629625 1.317655 0.127043 -0.033753 203081.000000 0 0 1
-31.664290 23.222418 9.520336 40.404761 -0.632789 1.332936 0.133273 -0.028027 -313583.000000 0 0 1
-30.863490 22.329218 10.220336 39.441149 -0.626313 1.308676 0.131387 -0.025132 -252797.000000 0 0 1
-30.103280 21.497818 9.159836 38.108611 -0.620150 1.328058 0.116676 -0.029589 176341.000000 0 0 1
-31.012320 20.696618 8.418436 38.222821 -0.588488 1.348729 0.131748 -0.040102 496562.000000 0 0 1
-30.335190 19.963218 7.405136 37.061973 -0.582040 1.369638 0.126309 -0.038292 197472.000000 0 0 1
-31.344360 19.216118 6.504936 37.336876 -0.549970 1.395680 0.121796 -0.034838 -199606.000000 0 0 1
-32.136320 18.224018 7.086936 37.617583 -0.515865 1.381269 0.125193 -0.034824 421181.000000 0 0 1
-33.030060 17.651718 6.119436 37.947536 -0.490798 1.408829 0.079363 -0.030225 -21895.200000 0 0 1
-33.692390 16.397718 6.605236 38.048540 -0.452942 1.396312 0.094732 -0.023048 -638946.000000 0 0 1
-34.663686 16.635318 7.581236 39.189030 -0.447444 1.376116 0.068506 -0.020554 350415.000000 0 0 1
-35.552133 15.503518 7.695536 39.541554 -0.411217 1.374927 0.081192 -0.019920 643070.000000 0 0 1
-36.583360 15.684718 8.867636 40.779744 -0.405033 1.351593 0.091015 -0.018363 209583.000000 0 0 1
36.365316 16.743918 8.654036 40.959582 0.431499 1.357910 0.096563 -0.024751 -67608.100000 0 0 1
35.608486 17.199418 9.777936 40.735639 0.449967 1.328396 0.118923 -0.022509 196186.000000 0 0 1
34.735466 18.418718 9.374136 40.418760 0.487559 1.336740 0.092113 -0.022404 -517427.000000 0 0 1
33.592626 17.962418 8.731836 39.081427 0.491031 1.345468 0.087526 -0.030877 -581117.000000 0 0 1
32.650356 18.951418 8.414936 38.678329 0.525909 1.351480 0.085677 -0.033367 665884.000000 0 0 1
31.132576 18.674818 8.659636 37.322586 0.540308 1.336641 0.079760 -0.028127 48779.000000 0 0 1
30.488936 19.895118 8.770236 37.447403 0.578156 1.334399 0.076410 -0.021088 -418070.000000 0 0 1
29.108966 19.923018 8.505436 36.284997 0.600199 1.334188 0.072737 -0.024903 -141470.000000 0 0 1
28.719556 19.910418 6.970736 35.634657 0.606195 1.373910 0.060013 -0.022338 -707243.000000 0 0 1
29.063266 18.673318 6.352736 35.124400 0.571089 1.388932 0.053849 -0.022996 10132.200000 0 0 1
28.926466 18.582618 4.954336 34.736142 0.571020 1.427681 0.048564 -0.028033 -64913.400000 0 0 1
27.544756 18.842118 4.320136 33.651190 0.599944 1.442061 0.071566 -0.030170 -13553.600000 0 0 1
26.473356 17.924918 4.694636 32.313787 0.595186 1.424998 0.073182 -0.034330 2507820.000000 0 0 1
25.125756 18.176818 4.200136 31.294432 0.626281 1.436177 0.080255 -0.036069 1530480.000000 0 0 1
24.499456 19.519218 4.698536 31.674902 0.672738 1.421911 0.078617 -0.039489 -753308.000000 0 0 1
25.094456 20.647118 4.028436 32.745435 0.688475 1.447461 0.077662 -0.042833 221884.000000 0 0 1
24.628056 21.894218 4.498836 33.258645 0.726702 1.435112 0.072737 -0.040885 -435630.000000 0 0 1
25.570456 23.051818 4.178836 34.679925 0.733644 1.450006 0.055688 -0.029500 -308826.000000 0 0 1
26.837556 22.947118 4.788736 35.633645 0.707411 1.436000 0.060497 -0.030540 -446530.000000 0 0 1
27.581156 24.063318 4.400336 36.866331 0.717387 1.451152 0.060345 -0.023301 -246796.000000 0 0 1
28.885736 24.145318 5.264336 38.014410 0.696246 1.431867 0.059985 -0.025682 755338.000000 0 0 1
29.892546 23.136418 4.999136 38.129378 0.658676 1.439308 0.053587 -0.026978 1266940.000000 0 0 1
30.644576 23.186318 3.750136 38.610347 0.647725 1.473515 0.066078 -0.036226 59936.400000 0 0 1
31.571546 24.364718 3.414736 40.025772 0.657264 1.485379 0.082131 -0.041574 -1400600.000000 0 0 1
30.902046 25.567818 3.173836 40.233357 0.691216 1.491829 0.076179 -0.040397 -422368.000000 0 0 1
31.622516 26.580918 2.516336 41.386721 0.698994 1.509958 0.107544 -0.038581 -417443.000000 0 0 1
30.863486 27.913618 2.786436 41.707182 0.735253 1.503937 0.089974 -0.030480 1535990.000000 0 0 1
29.534146 27.951818 2.210436 40.724144 0.757880 1.516491 0.122829 -0.032406 594381.000000 0 0 1
28.551756 27.521118 3.115436 39.778394 0.767020 1.492396 0.104604 -0.030495 -214063.000000 0 0 1
27.128856 27.867818 2.564136 38.976466 0.798834 1.504962 0.062363 -0.014013 362691.000000 0 0 1
26.911856 29.294618 2.675336 39.869538 0.827766 1.503644 0.055480 -0.011021 75899.400000 0 0 1
25.663856 29.740118 2.180936 39.342910 0.858839 1.515334 0.057861 -0.001705 173499.000000 0 0 1
25.356256 31.154518 2.716536 40.260691 0.887645 1.503271 0.058536 -0.005352 -178374.000000 0 0 1
25.176256 31.406718 4.147036 40.465092 0.895068 1.468132 0.034281 -0.011078 -307796.000000 0 0 1
26.364956 31.512818 4.894336 41.377809 0.874108 1.452235 0.044728 -0.018174 -132659.000000 0 0 1
26.211456 31.201318 6.386936 41.247492 0.872092 1.415327 0.033954 -0.020172 15619.700000 0 0 1
25.697456 29.958518 6.866036 40.062632 0.861810 1.398564 0.038001 -0.029827 577390.000000 0 0 1
26.533556 28.789618 6.600436 39.704376 0.826155 1.403781 0.071457 -0.041661 645551.000000 0 0 1
25.832356 27.510818 7.130636 38.405751 0.816853 1.384047 0.080176 -0.043603 142089.000000 0 0 1
24.732556 27.125118 6.343836 37.252055 0.831503 1.399667 0.046656 -0.046953 -153929.000000 0 0 1
23.944356 26.055818 6.849936 36.043855 0.827602 1.379589 0.054301 -0.043074 18073.800000 0 0 1
22.746956 25.855718 5.873036 34.934721 0.849274 1.401880 0.063767 -0.034166 -225035.000000 0 0 1
22.963056 25.483518 4.532936 34.601433 0.837377 1.439414 0.062816 -0.040205 -19609.400000 0 0 1
23.281856 26.636618 3.714136 35.571745 0.852502 1.466193 0.055715 -0.034973 -111817.000000 0 0 1
23.479156 26.273118 2.260136 35.308012 0.841497 1.506741 0.057974 -0.024503 176502.000000 0 0 1
24.628856 25.496018 1.938036 35.501880 0.802696 1.516180 0.051687 -0.013049 311495.000000 0 0 1
24.579656 25.087518 0.629136 35.127466 0.795623 1.552885 0.069915 -0.011166 462326.000000 0 0 1
25.988456 24.624718 0.126936 35.802132 0.758460 1.567251 0.086217 -0.022990 -534930.000000 0 0 1
26.980256 25.637018 0.125236 37.218364 0.759875 1.567431 0.085292 -0.018169 127771.000000 0 0 1
28.069656 25.294718 -0.706064 37.791889 0.733445 1.589480 0.074523 -0.009486 525426.000000 0 0 1
29.040206 24.120518 -0.271064 37.751906 0.693117 1.577977 0.063481 -0.021288 -481672.000000 0 0 1
28.462356 22.840518 -0.413064 36.496104 0.676252 1.582115 0.061482 -0.020500 263541.000000 0 0 1
28.996916 22.039718 0.646936 36.427858 0.649916 1.553036 0.058018 -0.019177 -165681.000000 0 0 1
27.889056 21.277718 1.367336 35.105702 0.651732 1.531837 0.062941 -0.026062 -213577.000000 0 0 1
27.429956 20.231518 0.556936 34.088517 0.635498 1.554458 0.073941 -0.032895 1299110.000000 0 0 1
26.045156 19.929518 0.881736 32.807214 0.653153 1.543917 0.081798 -0.032040 924442.000000 0 0 1
25.666556 18.574318 0.331836 31.684184 0.626441 1.560323 0.082708 -0.028241 29674.000000 0 0 1
24.319356 18.268118 0.694936 30.424302 0.644253 1.547953 0.086482 -0.031712 536147.000000 0 0 1
23.936256 17.132418 -0.031964 29.435779 0.621220 1.571882 0.100997 -0.041330 1434900.000000 0 0 1
22.437556 16.638518 0.227136 27.934491 0.638070 1.562665 0.106965 -0.029576 867738.000000 0 0 1
21.975956 15.568818 -0.543564 26.937450 0.616373 1.590976 0.122656 -0.032886 350552.000000 0 0 1
20.605056 15.258718 -0.367864 25.642389 0.637414 1.585143 0.139153 -0.035454 503873.000000 0 0 1
19.573156 16.169718 -1.092464 25.411842 0.690464 1.613800 0.157884 -0.042464 -366838.000000 0 0 1
19.269356 17.397118 -0.485664 25.965432 0.734381 1.589502 0.111565 -0.034127 120158.000000 0 0 1
18.029556 17.937618 -0.897064 25.448531 0.782842 1.606054 0.092588 -0.039813 225934.000000 0 0 1
17.855656 19.403018 -0.542364 26.374149 0.826905 1.591362 0.075167 -0.032936 23906.000000 0 0 1
17.561456 19.726618 0.850836 26.424763 0.843399 1.538592 0.080666 -0.031002 -32279.600000 0 0 1
17.890556 21.056018 1.193536 27.655965 0.866497 1.527626 0.084373 -0.037700 -16573.600000 0 0 1
16.968656 22.219218 0.662036 27.965465 0.918589 1.547121 0.073798 -0.042338 1567760.000000 0 0 1
15.691656 22.195518 1.367436 27.216520 0.955405 1.520532 0.060164 -0.035014 878330.000000 0 0 1
14.693056 22.996218 0.817636 27.301657 1.002240 1.540844 0.036757 -0.034322 -92389.200000 0 0 1
13.250256 22.792818 1.289636 26.395928 1.044214 1.521919 0.031941 -0.039525 4871.800000 0 0 1
13.019256 23.107918 2.671036 26.657294 1.057715 1.470429 0.034339 -0.018926 -281537.000000 0 0 1
11.648756 23.133518 2.984936 26.072265 1.104317 1.456058 0.027997 -0.025805 46859.900000 0 0 1
11.411956 23.558518 4.459836 26.554221 1.119699 1.402044 0.045250 -0.024602 -203919.000000 0 0 1
12.013056 22.702218 5.346936 26.235357 1.084095 1.365552 0.050454 -0.034576 -156092.000000 0 0 1
11.242256 22.624318 6.527836 26.093308 1.109624 1.317938 0.043240 -0.017241 -498570.000000 0 0 1
11.667656 21.466018 7.517936 25.562541 1.072926 1.272283 0.048532 -0.021649 6799.090000 0 0 1
12.834856 21.592618 8.284936 26.450233 1.034498 1.252207 0.065033 -0.019685 808614.000000 0 0 1
14.069356 21.556618 7.513036 26.815672 0.992546 1.286822 0.070737 -0.018710 868448.000000 0 0 1
15.351556 21.463218 8.393436 27.690969 0.949909 1.262841 0.082356 -0.024629 131261.000000 0 0 1
15.541556 20.257118 9.161536 27.126086 0.916369 1.226283 0.089693 -0.026854 364063.000000 0 0 1
16.834756 20.128118 9.753336 27.994244 0.874263 1.214927 0.085430 -0.026155 527987.000000 0 0 1
17.149056 21.082318 11.007336 29.320909 0.887918 1.185958 0.064417 -0.021566 -975190.000000 0 0 1
16.338856 20.944318 12.074836 29.179176 0.908302 1.144154 0.075633 -0.020013 -723322.000000 0 0 1
16.789856 21.663318 13.181336 30.412928 0.911464 1.122521 0.078325 -0.020222 -199552.000000 0 0 1
17.878656 21.000818 14.071036 30.962473 0.865530 1.099037 0.067848 -0.010142 239032.000000 0 0 1
19.146756 21.356318 13.540536 31.718081 0.839897 1.129731 0.066477 -0.011704 -494847.000000 0 0 1
20.137056 21.014418 14.454136 32.496597 0.806715 1.109857 0.062967 -0.007827 -497638.000000 0 0 1
21.590456 21.390018 14.166236 33.531521 0.780735 1.134622 0.058452 -0.011513 -123874.000000 0 0 1
22.191456 20.635818 13.123936 33.023255 0.749091 1.162098 0.063280 -0.017067 -37098.200000 0 0 1
23.509356 21.092818 12.928436 34.128306 0.731271 1.182277 0.064090 -0.016128 48204.200000 0 0 1
24.248856 20.587218 11.608236 33.861360 0.703912 1.220883 0.067552 -0.020063 455798.000000 0 0 1
23.774556 21.090318 10.362636 33.427762 0.725640 1.255602 0.075876 -0.023642 621124.000000 0 0 1
24.754256 20.707818 9.412536 33.618191 0.696625 1.287019 0.084602 -0.035065 78044.500000 0 0 1
24.445756 21.412718 8.037136 33.476783 0.719355 1.328347 0.078194 -0.041421 88042.700000 0 0 1
24.670756 22.826018 8.068236 34.565441 0.746578 1.335204 0.067146 -0.030034 574303.000000 0 0 1
26.051256 23.138018 7.890836 35.725357 0.726242 1.348085 0.068862 -0.033726 110157.000000 0 0 1
26.504356 24.288618 8.820536 37.016479 0.741803 1.330195 0.103874 -0.040689 -305075.000000 0 0 1
27.836956 24.679118 8.584336 38.179128 0.725340 1.344014 0.092779 -0.037335 -1957.540000 0 0 1
28.250256 25.780918 9.385136 39.380369 0.739728 1.330161 0.104197 -0.030484 548407.000000 0 0 1
29.708666 26.218918 9.041036 40.642057 0.723081 1.346464 0.099217 -0.033884 536863.000000 0 0 1
29.737106 26.881518 7.806936 40.839438 0.735005 1.378451 0.105031 -0.038414 -504952.000000 0 0 1
30.965576 27.479718 7.546036 42.082591 0.725826 1.390506 0.105960 -0.031712 -607256.000000 0 0 1
31.035656 28.535218 6.335936 42.633493 0.743449 1.421630 0.121634 -0.026841 130145.000000 0 0 1
30.540916 29.808218 6.667336 43.194106 0.773258 1.415819 0.126008 -0.028290 46599.400000 0 0 1
30.682486 30.576118 5.499136 43.664109 0.783662 1.444519 0.129551 -0.022623 117676.000000 0 0 1
30.675636 32.113418 5.773136 44.783874 0.808293 1.441526 0.082547 -0.020388 102486.000000 0 0 1
29.453996 32.674418 6.198736 44.424991 0.837187 1.430807 0.073819 -0.025102 -69743.600000 0 0 1
29.583026 -34.020853 6.451136 45.543288 -0.855058 1.428670 0.049053 -0.008201 147934.000000 0 0 1
28.261956 -33.346553 6.913736 44.255288 -0.867742 1.413930 0.056992 -0.019508 456078.000000 0 0 1
27.281656 -33.444653 5.893536 43.561076 -0.886540 1.435087 0.045209 -0.013368 533577.000000 0 0 1
26.111056 -32.618953 6.136036 42.230727 -0.895758 1.424982 0.036909 -0.015994 815380.000000 0 0 1
25.044456 -32.844453 5.059836 41.612316 -0.919332 1.448900 0.047027 -0.011398 -411150.000000 0 0 1
25.241856 -32.074553 3.885836 41.000341 -0.904048 1.475878 0.026573 -0.007488 -594811.000000 0 0 1
24.233356 -32.124553 2.936936 40.346847 -0.924513 1.497940 0.040298 -0.007216 -380096.000000 0 0 1
24.659756 -31.282353 1.692336 39.869201 -0.903233 1.528336 0.041685 0.004352 122609.000000 0 0 1
24.797756 -29.924053 1.988436 38.914413 -0.878805 1.519676 0.054052 0.003177 94147.700000 0 0 1
25.479756 -29.376253 0.869436 38.896506 -0.856310 1.548442 0.046056 0.008213 -334767.000000 0 0 1
25.786056 -27.858553 0.951736 37.972694 -0.824013 1.545730 0.049721 -0.009759 284441.000000 0 0 1
24.707656 -26.918453 1.052236 36.553777 -0.828195 1.542006 0.048005 -0.008890 -26422.400000 0 0 1
23.859156 -26.851353 -0.066364 35.920174 -0.844335 1.572644 0.061229 -0.011316 -615331.000000 0 0 1
22.773256 -25.802853 0.130336 34.415482 -0.847686 1.567009 0.055291 -0.005641 -511306.000000 0 0 1
23.151956 -24.476553 0.275536 33.692590 -0.813202 1.562618 0.056713 -0.018720 -596402.000000 0 0 1
23.231956 -24.003353 1.624936 33.444359 -0.801728 1.522191 0.043235 -0.009772 -421252.000000 0 0 1
21.938956 -23.820753 2.412436 32.474081 -0.826498 1.496440 0.043765 -0.014651 -546142.000000 0 0 1
21.969756 -22.977853 3.526036 31.985698 -0.807823 1.460334 0.047489 -0.018814 -1054390.000000 0 0 1
20.857556 -23.108053 4.324736 31.428062 -0.836541 1.432751 0.051632 -0.019763 -733932.000000 0 0 1
21.000856 -22.245653 5.605736 31.101918 -0.814174 1.389568 0.047907 -0.021144 -254397.000000 0 0 1
21.089656 -20.820353 5.520236 30.145210 -0.778973 1.386636 0.073030 -0.021439 -288048.000000 0 0 1
20.052156 -20.123153 4.889236 28.825941 -0.787165 1.400360 0.056603 -0.012168 -711782.000000 0 0 1
20.110356 -18.594753 5.159236 27.871293 -0.746260 1.384613 0.063449 -0.007496 114179.000000 0 0 1
19.741556 -18.217953 6.480136 27.633585 -0.745282 1.334090 0.083477 -0.021654 98028.700000 0 0 1
18.404256 -18.452753 6.893236 26.958068 -0.786714 1.312222 0.059826 -0.012008 180187.000000 0 0 1
19.324820 -26.366702 -12.150564 34.875319 -0.938313 1.926660 0.101449 -0.024838 81414.200000 0 0 1
19.609920 -25.068932 -12.526764 34.204095 -0.906979 1.945757 0.092270 -0.021605 1158770.000000 0 0 1
18.441220 -24.496982 -13.225264 33.392939 -0.925508 1.978007 0.102097 -0.020107 1467400.000000 0 0 1
18.483720 -22.955682 -13.519864 32.425268 -0.892898 2.000889 0.094859 -0.029348 -77950.100000 0 0 1
18.528220 -22.085582 -12.346964 31.361049 -0.872765 1.975454 0.102155 -0.027529 -300914.000000 0 0 1
19.684520 -22.102882 -11.542564 31.768672 -0.843207 1.942638 0.086675 -0.028506 -917645.000000 0 0 1
19.496120 -22.872282 -10.182564 31.732075 -0.864916 1.897467 0.091755 -0.026640 447568.000000 0 0 1
18.542020 -22.317582 -9.287164 30.465265 -0.877540 1.880571 0.081912 -0.021579 -33633.100000 0 0 1
17.195320 -22.283782 -9.680364 29.765003 -0.913581 1.902047 0.093822 -0.010210 -514081.000000 0 0 1
16.274720 -21.761582 -8.523664 28.479568 -0.928663 1.874745 0.082056 -0.013483 -453066.000000 0 0 1
16.360520 -20.342882 -8.310064 27.396289 -0.893477 1.878980 0.073092 -0.022472 532359.000000 0 0 1
15.554020 -19.737582 -7.256864 26.156486 -0.903390 1.851925 0.072134 -0.026852 129457.000000 0 0 1
14.070320 -19.583282 -7.630864 25.292468 -0.947771 1.877277 0.071761 -0.020635 -379533.000000 0 0 1
13.402720 -20.830482 -7.628464 25.917858 -0.999062 1.869553 0.059290 -0.018439 -987581.000000 0 0 1
12.073220 -20.665982 -8.016264 25.240958 -1.042070 1.893983 0.059192 -0.027992 -517977.000000 0 0 1
11.316320 -22.029382 -7.902964 25.996339 -1.096255 1.879688 0.059776 -0.022223 -49275.700000 0 0 1
11.358020 -22.580182 -6.591764 26.121267 -1.104745 1.825907 0.060217 -0.018444 442705.000000 0 0 1
10.539320 -23.749582 -6.498564 26.783414 -1.153136 1.815876 0.047581 -0.012900 482401.000000 0 0 1
10.887820 -24.416582 -5.069764 27.210597 -1.151341 1.758207 0.061491 -0.011145 326403.000000 0 0 1
10.109220 -25.523232 -4.705764 27.852754 -1.193675 1.740562 0.055506 -0.002213 -209781.000000 0 0 1
10.707020 -26.037872 -3.529964 28.373786 -1.180664 1.695529 0.050885 -0.005533 539896.000000 0 0 1
9.778820 -26.962052 -2.655264 28.803264 -1.222863 1.663114 0.053034 -0.006633 640235.000000 0 0 1
9.065720 -26.170842 -1.690464 27.748116 -1.237327 1.631756 0.047556 0.000055 -22780.200000 0 0 1
8.492820 -26.979522 -0.640164 28.291914 -1.265829 1.593425 0.055296 -0.006889 267126.000000 0 0 1
7.768420 -26.172762 0.444636 27.304936 -1.282266 1.554512 0.065989 -0.007302 540906.000000 0 0 1
6.430320 -25.774862 0.154136 26.565321 -1.326307 1.564994 0.065016 -0.014105 522847.000000 0 0 1
5.807020 -25.384492 1.446036 26.080355 -1.345904 1.515322 0.071520 -0.012208 661052.000000 0 0 1
4.380120 -24.766582 1.377736 25.188632 -1.395750 1.516072 0.064664 -0.019485 1034560.000000 0 0 1
3.455020 -25.763552 0.872236 26.008817 -1.437487 1.537254 0.064586 -0.026647 -279785.000000 0 0 1
2.148620 -25.278582 0.924936 25.386587 -1.486002 1.534354 0.061627 -0.027997 303707.000000 0 0 1
1.020920 -26.085752 0.163036 26.106231 -1.531679 1.564551 0.065389 -0.027930 993731.000000 0 0 1
0.451420 -27.214092 0.813236 27.229982 -1.554210 1.540926 0.066742 -0.022064 -194806.000000 0 0 1
1.342920 -28.298452 0.844836 28.342893 -1.523376 1.540984 0.053632 -0.025810 -206615.000000 0 0 1
0.890620 -29.516292 1.708136 29.579088 -1.540632 1.513016 0.075468 -0.024329 280346.000000 0 0 1
1.227720 -29.322342 3.094836 29.510762 -1.528951 1.465732 0.059978 -0.023071 -221756.000000 0 0 1
0.516420 -30.270742 3.772836 30.509323 -1.553738 1.446817 0.080098 -0.023210 -254220.000000 0 0 1
0.755120 -30.207362 5.315436 30.680756 -1.545804 1.396668 0.070308 -0.024233 -418711.000000 0 0 1
2.048920 -30.332062 5.849436 30.958811 -1.503349 1.380711 0.047179 -0.009611 -304497.000000 0 0 1
2.023220 -30.285622 7.224836 31.201131 -1.504091 1.337119 0.056122 -0.009403 209741.000000 0 0 1
3.415620 -30.780762 7.657936 31.902441 -1.460282 1.328387 0.057572 -0.009646 118924.000000 0 0 1
3.766020 -32.093322 7.280536 33.123563 -1.453985 1.349188 0.052360 -0.013505 -536526.000000 0 0 1
5.046820 -32.458092 7.701036 33.738762 -1.416544 1.340512 0.034819 -0.008313 -289595.000000 0 0 1
5.223920 -33.991172 7.486136 35.195615 -1.418305 1.356458 0.034672 -0.006288 -57930.400000 0 0 1
5.306820 33.645234 6.148936 34.611754 1.414356 1.392194 0.028166 -0.009115 -65129.000000 0 0 1
5.143620 32.221402 5.959736 33.169173 1.412498 1.390138 0.023816 -0.016052 -486013.000000 0 0 1
5.432020 31.812489 4.591836 32.597949 1.401676 1.429464 0.034961 -0.019415 226927.000000 0 0 1
6.810120 31.895159 4.278536 32.893537 1.360439 1.440354 0.035184 -0.016538 -201408.000000 0 0 1
7.474020 30.671419 4.411336 31.875646 1.331774 1.431959 0.031842 -0.018482 752634.000000 0 0 1
8.935020 30.666349 3.796836 32.166373 1.287283 1.452483 0.017390 -0.011948 588071.000000 0 0 1
9.903120 31.345629 4.514236 33.181299 1.264787 1.434326 0.021192 -0.009560 -135814.000000 0 0 1
11.152020 31.324909 3.806936 33.468048 1.228776 1.456801 0.028347 -0.012890 822903.000000 0 0 1
12.342720 31.879229 4.632836 34.497698 1.201398 1.436095 0.045017 -0.024010 154949.000000 0 0 1
12.647120 31.008199 5.687736 33.967756 1.183529 1.402559 0.047915 -0.018041 -758779.000000 0 0 1
13.897520 31.254999 6.236236 34.769335 1.152401 1.390460 0.065262 -0.016975 -632104.000000 0 0 1
14.381320 30.095619 7.119036 34.106441 1.125022 1.360520 0.059812 -0.011846 -239081.000000 0 0 1
13.933720 30.021549 8.434836 34.155357 1.136259 1.321260 0.054250 -0.010910 80294.000000 0 0 1
14.497220 28.888419 9.094636 33.577114 1.105682 1.296512 0.057660 -0.015995 154604.000000 0 0 1
14.132220 28.796779 10.576936 33.776408 1.114570 1.252293 0.050041 -0.012580 103803.000000 0 0 1
14.908320 29.647299 11.400236 35.088257 1.104867 1.239888 0.050850 -0.008224 123933.000000 0 0 1
14.451020 29.621819 12.724336 35.329773 1.116915 1.202358 0.045768 -0.007772 -241231.000000 0 0 1
15.079520 30.681799 13.646236 36.810114 1.113987 1.191012 0.048895 -0.007375 822171.000000 0 0 1
16.337920 30.183009 14.140136 37.119875 1.074661 1.179993 0.054263 -0.011770 1210800.000000 0 0 1
17.029320 31.144699 15.009536 38.539281 1.070428 1.170750 0.051797 -0.005271 367451.000000 0 0 1
18.352320 30.722289 15.662536 39.063816 1.032319 1.158246 0.069153 -0.012682 594968.000000 0 0 1
19.482220 30.401099 14.851036 39.042759 1.000888 1.180591 0.050464 -0.009979 421411.000000 0 0 1
19.789920 29.038479 14.822536 38.138980 0.972590 1.171635 0.043784 -0.015463 584393.000000 0 0 1
21.182920 28.652279 14.177836 38.349449 0.934172 1.192109 0.064912 -0.017847 1721750.000000 0 0 1
22.334820 29.113009 14.918136 39.610129 0.916393 1.184647 0.078031 -0.018534 608036.000000 0 0 1
23.530820 28.710899 14.285436 39.775481 0.884231 1.203437 0.068303 -0.011083 1460670.000000 0 0 1
24.884020 28.979589 15.114636 41.078988 0.861288 1.194003 0.082182 -0.011559 1348420.000000 0 0 1
25.121220 27.893919 15.970736 40.794740 0.837651 1.168546 0.085632 -0.005481 277494.000000 0 0 1
26.018720 28.138269 17.055936 41.948074 0.824515 1.152071 0.077127 -0.011632 59568.100000 0 0 1
26.731720 26.846599 17.581036 41.766225 0.787542 1.136316 0.047474 -0.007303 669137.000000 0 0 1
25.866320 25.859969 18.235236 40.869651 0.785275 1.108304 0.045338 -0.005501 637183.000000 0 0 1
25.901020 25.996479 19.652436 41.628092 0.787238 1.079130 0.068790 -0.006964 -15232.700000 0 0 1
25.380320 24.727239 20.375736 40.875024 0.772365 1.048942 0.080107 -0.003346 -185960.000000 0 0 1
26.126220 23.565499 20.072036 40.506774 0.733912 1.052360 0.060049 -0.008714 -256601.000000 0 0 1
25.448620 22.376289 20.233136 39.467840 0.721245 1.032529 0.063665 -0.011547 -813318.000000 0 0 1
26.269820 21.162489 19.936236 39.184281 0.678135 1.037028 0.039374 -0.019761 -580945.000000 0 0 1
25.574220 19.991789 20.232736 38.250176 0.663493 1.013424 0.034370 -0.007026 5505.010000 0 0 1
26.355920 18.833789 20.020536 38.081071 0.620454 1.017218 0.035022 -0.016964 365114.000000 0 0 1
27.168720 18.432889 21.312336 39.142387 0.596123 0.995025 0.060182 -0.015737 650327.000000 0 0 1
26.299220 17.923689 22.348536 38.889133 0.598222 0.958592 0.035221 -0.005727 261804.000000 0 0 1
27.086520 17.525389 23.412036 39.861539 0.574274 0.943035 0.071002 -0.003476 -88465.400000 0 0 1
26.349620 16.895689 24.666636 39.852349 0.570172 0.903390 0.044072 0.010723 94527.700000 0 0 1
26.045520 15.545489 24.397436 38.926421 0.538106 0.893411 0.054742 0.002777 412109.000000 0 0 1
24.854820 15.106689 25.039936 38.379324 0.546133 0.860006 0.057474 0.000785 134240.000000 0 0 1
24.350420 13.834089 24.374036 37.127060 0.516652 0.854623 0.071605 0.009507 -345849.000000 0 0 1
23.184020 13.314889 24.956236 36.573197 0.521318 0.819805 0.057879 0.003674 117887.000000 0 0 1
22.660120 12.208089 24.202236 35.330818 0.494163 0.816168 0.075433 0.002307 676999.000000 0 0 1
21.352720 11.572989 24.803036 34.714022 0.496674 0.774893 0.071864 -0.004788 949817.000000 0 0 1
20.201920 12.414089 24.654936 34.206623 0.551013 0.765891 0.073057 -0.015182 313569.000000 0 0 1
19.038220 11.660189 24.916036 33.454786 0.549532 0.730610 0.081609 -0.014399 118038.000000 0 0 1
17.741520 12.511389 24.979336 33.094767 0.614210 0.715475 0.069788 -0.023798 19583.700000 0 0 1
17.576420 13.149989 26.237136 34.208772 0.642323 0.696689 0.089279 -0.021751 407998.000000 0 0 1
16.336320 13.848089 26.270236 33.893513 0.703150 0.683952 0.098921 -0.027678 -42346.300000 0 0 1
15.939920 14.085489 27.678936 34.908531 0.723714 0.655245 0.082986 -0.020277 -554485.000000 0 0 1
15.535520 12.868789 28.261736 34.722958 0.691788 0.619927 0.082829 -0.016741 -11837.400000 0 0 1
15.520020 12.891189 29.685736 35.892850 0.693133 0.596930 0.064390 -0.019230 289394.000000 0 0 1
16.948520 12.749789 30.312536 36.995396 0.644950 0.610503 0.069501 0.001357 660698.000000 0 0 1
17.784120 13.848689 29.956836 37.489640 0.661624 0.645050 0.088588 -0.013145 -176973.000000 0 0 1
19.158520 13.586489 30.014736 38.112018 0.616848 0.663990 0.077700 -0.003150 -464330.000000 0 0 1
20.077620 14.807689 29.786036 38.853397 0.635467 0.697226 0.089254 -0.009489 -297317.000000 0 0 1
19.976420 15.308689 28.443036 37.979200 0.653876 0.724379 0.089156 -0.020951 272841.000000 0 0 1
20.373120 14.499789 27.377036 37.078430 0.618543 0.740169 0.083258 -0.013114 -550576.000000 0 0 1
20.109120 15.245089 26.069836 36.282583 0.648677 0.769121 0.069393 -0.014203 210074.000000 0 0 1
21.038920 16.314389 25.700036 37.003882 0.659584 0.803040 0.063367 -0.011397 848106.000000 0 0 1
20.943620 16.705189 24.332036 36.190421 0.673292 0.833440 0.049380 -0.008989 237320.000000 0 0 1
22.071220 17.751989 24.035136 37.147808 0.677360 0.867135 0.048291 -0.013428 211149.000000 0 0 1
21.995120 18.318889 22.743236 36.559839 0.694460 0.899397 0.046958 -0.018693 189867.000000 0 0 1
23.089220 19.141489 22.353136 37.405499 0.692189 0.930305 0.049358 -0.014754 112121.000000 0 0 1
23.356220 20.499889 22.993436 38.658202 0.720360 0.933794 0.054877 -0.024569 -65663.300000 0 0 1
22.402720 21.474489 22.590636 38.384533 0.764246 0.941551 0.054891 -0.017591 275504.000000 0 0 1
22.423520 22.771589 23.269136 39.532420 0.793099 0.941459 0.070578 -0.017294 -85849.800000 0 0 1
21.390420 23.699219 22.615836 39.123894 0.836558 0.954451 0.073766 -0.027811 21022.600000 0 0 1
21.915520 24.315019 21.422136 39.120558 0.837255 0.991312 0.083907 -0.021681 560006.000000 0 0 1
21.325220 25.621949 21.195536 39.503165 0.876667 1.004449 0.077998 -0.019082 248442.000000 0 0 1
21.967020 26.245579 19.883436 39.581958 0.873910 1.044498 0.078831 -0.020979 -102366.000000 0 0 1
21.629420 25.717249 18.645636 38.430046 0.871523 1.064223 0.068136 -0.014896 -145493.000000 0 0 1
21.895320 26.537629 17.495636 38.597255 0.880956 1.100347 0.066143 -0.024641 -89843.400000 0 0 1
22.008520 25.750099 16.133036 37.519561 0.863582 1.126315 0.057042 -0.010375 641391.000000 0 0 1
20.716920 25.493829 15.550236 36.344683 0.888405 1.128679 0.047532 -0.013153 278854.000000 0 0 1
20.857220 24.976779 14.181136 35.496024 0.875037 1.159810 0.051397 -0.000777 -1122590.000000 0 0 1
19.552520 24.747879 13.443436 34.285340 0.902141 1.167878 0.057380 -0.007281 -54514.100000 0 0 1
18.624420 25.837709 13.384736 34.548624 0.946231 1.172968 0.054818 -0.009096 430769.000000 0 0 1
17.929520 26.087189 14.630736 34.872160 0.968650 1.137843 0.052545 -0.017775 -1544690.000000 0 0 1
16.539920 26.731139 14.501236 34.618039 1.016703 1.138571 0.048949 -0.012910 -175197.000000 0 0 1
15.485320 25.966469 13.915636 33.282091 1.033059 1.139431 0.059192 -0.025969 527838.000000 0 0 1
15.042420 24.777819 14.625536 32.467230 1.025178 1.103504 0.080155 -0.043739 -513312.000000 0 0 1
14.252920 25.019459 15.947636 32.915743 1.052974 1.065006 0.089657 -0.044526 -481356.000000 0 0 1
14.874020 25.899479 16.847236 34.290653 1.049490 1.057207 0.077527 -0.040725 48728.800000 0 0 1
13.961420 26.197659 17.898336 34.663944 1.081156 1.028226 0.075634 -0.029886 230098.000000 0 0 1
14.372820 27.481289 18.711036 36.220189 1.088915 1.027931 0.083668 -0.034759 -324907.000000 0 0 1
14.119320 28.681029 17.966736 36.670973 1.113338 1.058770 0.069409 -0.025481 -122178.000000 0 0 1
14.667420 29.805739 18.548936 38.047054 1.113488 1.061542 0.061377 -0.020005 -251311.000000 0 0 1
14.494220 31.103489 17.723736 38.621759 1.134717 1.094033 0.041629 -0.017289 96985.200000 0 0 1
13.158920 31.575299 17.758636 38.542520 1.175937 1.091951 0.046251 -0.020226 123997.000000 0 0 1
13.121820 32.881723 17.053536 39.296475 1.191100 1.121900 0.045941 -0.006042 206612.000000 0 0 1
11.881320 33.718820 17.479236 39.795079 1.232016 1.116054 0.057767 -0.011802 -17862.800000 0 0 1
11.839120 -32.978732 16.988836 38.940751 -1.226133 1.119343 0.054377 -0.007420 -292378.000000 0 0 1
12.780920 -32.087402 17.526436 38.731502 -1.191743 1.101217 0.055899 -0.007840 -537455.000000 0 0 1
12.845020 -31.869252 19.073736 39.299506 -1.187660 1.064041 0.063986 -0.022013 -421710.000000 0 0 1
13.433020 -32.943592 19.773336 40.702716 -1.183620 1.063519 0.079266 -0.018652 227006.000000 0 0 1
13.017920 -32.910952 21.073636 41.190959 -1.194132 1.033741 0.073165 -0.023114 132677.000000 0 0 1
14.149520 -33.529202 21.970336 42.510140 -1.171464 1.027657 0.087714 -0.027437 268695.000000 0 0 1
15.270020 -32.689922 21.995336 42.256352 -1.133799 1.023335 0.093675 -0.021428 -1111550.000000 0 0 1
16.325620 -33.215622 22.705936 43.420766 -1.113968 1.020514 0.088841 -0.022569 594401.000000 0 0 1
17.654120 -32.428952 22.260836 43.114379 -1.072267 1.028248 0.097119 -0.015894 1078430.000000 0 0 1
17.838220 -31.176082 22.913336 42.604825 -1.051087 1.002958 0.093845 -0.013882 35715.500000 0 0 1
18.820820 -30.322442 22.373936 42.122046 -1.015303 1.010816 0.084770 -0.014203 16479.200000 0 0 1
-4.866580 13.248418 18.907716 23.594616 -1.218764 0.641236 0.028840 0.004375 -454262.000000 0 1 0
-4.672980 14.200118 17.909816 23.328986 -1.252878 0.695542 0.035992 -0.011278 697390.000000 0 1 0
-5.872280 14.997618 17.890416 24.072374 -1.197598 0.732967 0.033405 -0.011997 346803.000000 0 1 0
-5.751080 16.448918 17.495416 24.692740 -1.234449 0.783391 0.043325 -0.012585 -37814.700000 0 1 0
-5.140080 17.138318 18.579416 25.794128 -1.279415 0.766567 0.048104 -0.005712 335123.000000 0 0 1
-4.784880 18.496018 18.355416 26.493755 -1.317648 0.805403 0.047235 -0.006655 -158751.000000 0 0 1
-4.227080 19.211318 19.599716 27.768540 -1.354217 0.787210 0.050379 -0.007103 210167.000000 0 0 1
-5.194580 19.382818 20.624716 28.775965 -1.308950 0.771689 0.037666 -0.004187 20505.800000 0 0 1
-4.611180 20.037618 21.651616 29.859028 -1.344608 0.759576 0.035117 0.000381 -395426.000000 0 0 1
-5.567380 20.394218 22.808016 31.098640 -1.304301 0.747473 0.016836 0.001940 9419.330000 0 0 1
-6.081880 19.256818 23.485426 30.973852 -1.264881 0.710196 0.013548 -0.005601 -47990.700000 0 0 1
-6.807980 19.515118 24.671246 32.184760 -1.235140 0.697344 0.001207 -0.006323 251667.000000 0 0 1
-6.049380 20.305418 25.772416 33.363489 -1.281249 0.688069 -0.006368 -0.013324 -478773.000000 0 0 1
-5.542280 21.584618 25.558956 33.909775 -1.319456 0.717071 -0.000877 -0.006176 -271006.000000 0 0 1
-4.585280 21.975318 26.484056 34.718073 -1.365092 0.703115 0.015047 0.000508 -426290.000000 0 0 1
-3.117380 21.599918 26.263016 34.147042 -1.427462 0.693340 0.030987 -0.001184 -709235.000000 0 0 1
-2.804780 20.270918 26.561266 33.530251 -1.433305 0.656459 0.046560 0.000195 -387333.000000 0 0 1
-1.440380 20.140318 26.272076 33.135013 -1.499401 0.655276 0.053923 0.003857 -265559.000000 0 0 1
-0.810580 18.877018 26.891826 32.865927 -1.527883 0.612474 0.053443 0.009845 -365014.000000 0 0 1
-1.329380 17.702918 26.278946 31.713460 -1.495843 0.594128 0.063146 0.000202 -129406.000000 0 0 1
-0.822280 16.453818 26.719506 31.390066 -1.520863 0.552512 0.057663 -0.001349 625293.000000 0 0 1
0.729920 16.219718 26.543796 31.115673 1.525825 0.548959 0.060927 -0.001729 935815.000000 0 0 1
1.246420 16.032818 25.227206 29.916830 1.493211 0.567505 0.061398 -0.001371 -36877.300000 0 0 1
0.962220 14.721318 24.788146 28.846061 1.505527 0.536848 0.072749 -0.002004 -316399.000000 0 0 1
1.219320 14.373018 23.301676 27.405081 1.486165 0.554301 0.069097 -0.016652 224981.000000 0 0 1
2.572820 14.376918 22.876516 27.141300 1.393716 0.568207 0.060118 -0.021773 37299.700000 0 0 1
2.726720 13.876718 21.584616 25.804921 1.376772 0.580017 0.053034 -0.021827 778773.000000 0 0 1
4.238020 13.762518 21.180416 25.612062 1.272072 0.597099 0.047226 -0.017963 691242.000000 0 0 1
4.767120 14.896018 20.552116 25.826464 1.261069 0.650506 0.034150 -0.005585 -542665.000000 0 0 1
6.137420 14.752718 20.320016 25.849829 1.176557 0.666356 0.044047 -0.002805 -597585.000000 0 0 1
6.648620 15.737718 19.251316 25.738941 1.171076 0.725835 0.047245 -0.010775 -195449.000000 0 0 1
6.156420 15.412318 17.939916 24.439346 1.190766 0.746517 0.042268 -0.017599 470183.000000 0 1 0
6.618020 16.377518 16.987416 24.507011 1.186768 0.804925 0.042000 -0.006373 -56304.200000 0 1 0
6.523920 15.905918 15.513916 23.156885 1.181565 0.836657 0.033028 -0.005213 169249.000000 0 1 0
7.569420 15.091218 15.005516 22.587751 1.105887 0.844211 0.033769 -0.010215 131738.000000 0 1 0
7.819420 13.841618 15.644916 22.304643 1.056570 0.793409 0.039386 -0.011969 -98406.900000 0 1 0
8.951320 13.038018 14.974216 21.779421 0.969151 0.812701 0.044279 -0.013975 -584591.000000 0 1 0
10.234120 13.568818 15.074016 22.717306 0.924588 0.845245 0.040709 -0.015065 -1151940.000000 0 1 0
11.006020 12.895718 14.162316 22.090795 0.864295 0.874871 0.041860 -0.012827 -358937.000000 0 1 0
12.470820 13.389518 14.164616 23.139509 0.820909 0.912032 0.044291 -0.009112 2417.350000 0 1 0
13.258120 13.130318 15.373716 24.177141 0.780555 0.881651 0.042595 -0.013056 1163110.000000 0 1 0
14.577520 13.666618 15.418016 25.238775 0.753158 0.913617 0.051941 -0.013455 500199.000000 0 0 1
15.611220 13.077818 14.451216 24.971527 0.697321 0.953653 0.059330 -0.019541 -863706.000000 0 1 0
16.929520 13.412718 14.819216 26.193870 0.670009 0.969452 0.065283 -0.022511 467957.000000 0 0 1
17.877120 13.136818 13.794116 26.123649 0.633728 1.014515 0.063028 -0.021043 501214.000000 0 0 1
19.331820 13.633218 13.990916 27.483261 0.614222 1.036692 0.065347 -0.030803 450761.000000 0 0 1
20.063420 12.970618 15.022216 28.221352 0.573897 1.009482 0.049516 -0.026985 313336.000000 0 0 1
21.370120 13.505518 15.131716 29.462686 0.563604 1.031434 0.065439 -0.027395 188740.000000 0 0 1
22.135920 13.067518 16.400816 30.491732 0.533280 1.002879 0.077507 -0.025249 -208723.000000 0 0 1
22.609020 11.765618 16.282616 30.244357 0.479830 1.002296 0.083939 -0.023242 515392.000000 0 0 1
23.549920 11.463918 17.315216 31.398039 0.453026 0.986666 0.070387 -0.020217 82656.300000 0 0 1
23.730820 9.974218 17.466416 31.108078 0.397889 0.974629 0.082774 -0.016150 -212261.000000 0 0 1
22.581420 9.376418 18.018316 30.372643 0.393564 0.935717 0.073892 -0.010746 352108.000000 0 0 1
22.391820 8.059118 17.609516 29.604696 0.345479 0.933753 0.075385 -0.001064 -69977.700000 0 0 1
21.077920 7.470918 18.178616 28.819358 0.340627 0.888241 0.092209 -0.002901 -98721.100000 0 0 1
20.945520 6.173218 17.593816 28.042214 0.286613 0.892581 0.104637 -0.011259 117148.000000 0 0 1
20.015120 5.447918 18.332116 27.683051 0.265752 0.847026 0.100373 -0.010616 -552169.000000 0 0 1
19.968920 4.049818 17.715316 26.999837 0.200092 0.855122 0.108380 -0.002404 -113750.000000 0 0 1
19.185120 4.090418 16.501416 25.633905 0.210063 0.871429 0.101570 -0.013531 681438.000000 0 0 1
19.099720 2.862918 15.842016 24.979293 0.148785 0.883815 0.084872 -0.013787 318488.000000 0 1 0
18.103920 1.769818 16.437016 24.516518 0.097449 0.835986 0.089190 -0.009063 212822.000000 0 1 0
18.517520 1.220318 17.663716 25.620199 0.065806 0.810074 0.096518 -0.016010 -88638.400000 0 0 1
17.480120 0.543418 18.318816 25.326447 0.031078 0.762216 0.078066 -0.020064 -352850.000000 0 0 1
18.013020 -0.212982 19.570316 26.599089 -0.011823 0.744021 0.089529 -0.022124 198985.000000 0 0 1
18.556320 -1.448282 19.225516 26.759204 -0.077890 0.769205 0.089702 -0.018750 19782.000000 0 0 1
17.648220 -2.399382 19.730516 26.580255 -0.135128 0.734300 0.062652 -0.011845 11884.500000 0 0 1
17.724720 -3.762582 19.079516 26.312557 -0.209174 0.759601 0.047961 -0.009909 -247454.000000 0 0 1
17.264320 -3.811382 17.763816 25.062652 -0.217281 0.783034 0.041815 -0.010206 279209.000000 0 0 1
17.217820 -5.165382 17.361016 24.990786 -0.291459 0.802798 0.058266 -0.015190 -210326.000000 0 1 0
16.908820 -5.256382 15.804316 23.734240 -0.301396 0.842115 0.042870 -0.008314 225157.000000 0 1 0
15.533620 -4.979282 15.542216 22.531025 -0.310201 0.809564 0.025159 -0.011755 524753.000000 0 1 0
15.167920 -4.748282 14.195516 21.310201 -0.303384 0.841779 0.023055 -0.013979 181247.000000 0 1 0
15.773520 -3.461882 13.552816 21.082395 -0.216049 0.872583 0.027517 -0.006648 -171754.000000 0 1 0
14.971220 -2.314782 13.754516 20.461729 -0.153401 0.833611 0.015493 -0.000747 63605.100000 0 1 0
15.501720 -1.131582 13.164016 20.368483 -0.072868 0.868079 0.023491 -0.006663 -274364.000000 0 1 0
14.613320 0.123818 13.291716 19.754345 0.008473 0.832741 0.023177 0.001718 -572567.000000 0 1 0
14.996020 1.366918 12.761716 19.738553 0.090901 0.867759 0.029571 0.000872 47990.000000 0 1 0
16.056320 2.032518 13.436516 21.035125 0.125917 0.877903 0.053771 -0.012302 -47243.900000 0 1 0
16.182420 3.478018 12.902416 20.986654 0.211705 0.908675 0.054669 -0.013541 -33975.600000 0 1 0
15.023220 4.274818 13.055016 20.356931 0.277220 0.874598 0.040516 -0.009543 338908.000000 0 1 0
15.223820 5.548818 12.451416 20.435064 0.349518 0.915598 0.053074 -0.012821 68773.600000 0 1 0
14.073920 6.532018 12.770416 20.095422 0.434536 0.882155 0.042209 -0.011270 -159034.000000 0 1 0
14.398120 7.724618 12.197316 20.389951 0.492421 0.929540 0.040064 -0.018619 235104.000000 0 1 0
13.400220 8.709318 12.384416 20.218602 0.576332 0.911544 0.028728 -0.010869 -293709.000000 0 1 0
13.559020 9.623918 13.653116 21.514516 0.617259 0.883305 0.042082 -0.012166 -131734.000000 0 1 0
13.187520 9.060518 14.895116 21.860195 0.601983 0.821149 0.051764 -0.009843 548990.000000 0 1 0
13.804820 9.754218 15.946316 23.237961 0.615129 0.814519 0.068022 -0.016230 -147955.000000 0 1 0
13.286320 9.193518 17.289916 23.664071 0.605305 0.751538 0.063736 -0.014475 -584532.000000 0 1 0
12.017120 9.674718 17.597116 23.402347 0.677830 0.719799 0.052773 -0.012643 -481510.000000 0 1 0
11.374020 9.057318 18.702316 23.689237 0.672491 0.660826 0.063946 -0.005871 174624.000000 0 1 0
11.990620 9.401918 20.123516 25.241373 0.664974 0.648082 0.092869 -0.011441 -602921.000000 0 0 1
13.171920 8.663618 20.265616 25.675921 0.581793 0.661153 0.109790 -0.017517 -317022.000000 0 0 1
13.801420 9.112018 21.471616 27.102368 0.583528 0.656323 0.106282 -0.011316 79.368900 0 0 1
15.340520 8.934318 21.436516 27.833034 0.527378 0.691669 0.095957 -0.014266 -71238.600000 0 0 1
15.988520 9.895818 20.654816 27.931727 0.554224 0.738506 0.086221 -0.008011 -215297.000000 0 0 1
17.156420 9.286918 20.153916 28.049419 0.496146 0.769132 0.079354 -0.018168 -302539.000000 0 0 1
18.105720 10.220018 19.394616 28.432675 0.513880 0.820133 0.083299 -0.012551 -410066.000000 0 0 1
18.877320 11.073618 20.195716 29.779946 0.530515 0.825534 0.079758 -0.017361 44475.500000 0 0 1
19.782320 11.692218 19.311316 30.016247 0.533808 0.871914 0.083774 -0.015561 -293046.000000 0 0 1
20.843620 12.602818 19.916316 31.463426 0.543822 0.885375 0.074719 -0.016124 -609480.000000 0 0 1
20.250920 13.834518 20.368516 31.880560 0.599331 0.877728 0.065434 -0.013925 209749.000000 0 0 1
20.946920 14.643518 21.276916 33.255274 0.610106 0.876551 0.055614 -0.012263 -402982.000000 0 0 1
22.264720 15.285118 20.802416 34.089487 0.601620 0.914446 0.041476 -0.004634 661414.000000 0 0 1
23.404620 14.408618 20.776716 34.453685 0.551834 0.923498 0.024444 0.004764 213447.000000 0 0 1
24.621920 15.101918 20.858316 35.628306 0.550180 0.945371 0.029404 0.001569 -92876.500000 0 0 1
25.808820 14.109918 20.772316 36.009361 0.500313 0.955918 0.026495 -0.005631 -119045.000000 0 0 1
26.142520 13.595418 19.519216 35.344965 0.479559 0.985737 0.038903 -0.017414 148467.000000 0 0 1
27.407220 12.986818 19.659416 36.142852 0.442507 0.995675 0.062840 -0.017660 16479.500000 0 0 1
27.801820 11.951218 18.567616 35.503932 0.405990 1.020460 0.078644 -0.019664 -36185.300000 0 0 1
28.187420 12.622018 17.349016 35.423641 0.421014 1.058984 0.092421 -0.031315 298502.000000 0 0 1
28.455320 11.758218 16.265016 34.821138 0.391848 1.084786 0.112112 -0.031597 108821.000000 0 0 1
27.202020 11.296318 15.466916 33.268336 0.393605 1.087259 0.096736 -0.033197 47925.800000 0 0 1
26.520820 12.336818 14.850916 32.803973 0.435401 1.100986 0.108194 -0.032864 1348390.000000 0 0 1
25.382220 11.875018 14.013116 31.331144 0.437597 1.107099 0.099063 -0.031485 1697650.000000 0 0 1
24.899420 12.947118 12.943916 30.905565 0.479501 1.138649 0.083434 -0.032598 8276.360000 0 0 1
24.410820 14.138018 13.480316 31.264846 0.524963 1.125012 0.074502 -0.030980 236020.000000 0 0 1
24.211520 15.162218 12.478116 31.173610 0.559490 1.158976 0.058382 -0.030294 155824.000000 0 0 1
23.386420 16.429918 12.949316 31.377566 0.612429 1.145387 0.058341 -0.023189 -1422800.000000 0 0 1
22.050820 16.176918 13.052616 30.303500 0.632935 1.125495 0.071668 -0.028466 -1245790.000000 0 0 1
21.265920 17.281018 13.485816 30.540795 0.682386 1.113452 0.062207 -0.018305 -922575.000000 0 0 1
20.625220 17.880818 12.239216 29.915243 0.714246 1.149296 0.068743 -0.014672 -710700.000000 0 0 1
19.523820 17.198818 11.687116 28.523106 0.722170 1.148625 0.082443 -0.013413 235644.000000 0 0 1
18.323320 17.290518 12.441816 28.098129 0.756406 1.112079 0.080110 -0.008317 38318.300000 0 0 1
17.053520 16.739518 11.696616 26.605353 0.776107 1.115605 0.080757 -0.009592 480958.000000 0 0 1
17.050720 15.310918 11.425316 25.606427 0.731689 1.108294 0.079957 -0.019067 409122.000000 0 0 1
15.963820 14.989518 10.554116 24.308817 0.753932 1.121682 0.079484 -0.027950 337341.000000 0 1 0
15.954720 13.506518 10.075416 23.205455 0.702490 1.121665 0.082123 -0.030097 -32575.900000 0 1 0
15.976520 12.532218 11.066316 23.125074 0.665165 1.071803 0.079031 -0.018751 472610.000000 0 1 0
16.355520 11.316818 10.454616 22.469366 0.605287 1.086842 0.072610 -0.010942 -162375.000000 0 1 0
16.722320 10.147818 11.425016 22.652708 0.545436 1.042161 0.076367 -0.018053 -888900.000000 0 1 0
17.425820 9.148718 10.663116 22.384376 0.483454 1.074281 0.075498 -0.013476 563664.000000 0 1 0
18.102520 8.165418 11.448516 22.922561 0.423739 1.047840 0.090069 -0.009995 369791.000000 0 1 0
19.318220 8.658518 12.272316 24.469845 0.421360 1.045432 0.079105 -0.026240 -1113050.000000 0 1 0
18.941620 9.376118 13.385416 25.017312 0.459640 1.006234 0.074020 -0.029540 5256.100000 0 0 1
19.947020 9.746418 14.297316 26.406240 0.454498 0.998651 0.079622 -0.018224 -469054.000000 0 0 1
19.250320 9.847418 15.690916 26.716124 0.472841 0.943053 0.065428 -0.017505 513021.000000 0 0 1
18.720420 8.639418 16.259116 26.257428 0.432374 0.903048 0.078201 -0.016395 791521.000000 0 0 1
17.479620 8.192218 15.708416 24.887826 0.438273 0.887737 0.077099 -0.025515 -7954.870000 0 1 0
16.902320 6.846018 16.214316 24.402058 0.384839 0.844018 0.074500 -0.014144 -430848.000000 0 1 0
16.353720 7.020418 17.515416 24.970387 0.405495 0.793370 0.096342 -0.009880 206551.000000 0 1 0
15.714620 5.848018 18.005216 24.603585 0.356260 0.749818 0.089655 0.010582 563374.000000 0 1 0
14.248220 5.623418 17.531416 23.280574 0.375908 0.718112 0.070637 -0.008599 210279.000000 0 1 0
13.659720 4.314218 17.776516 22.829913 0.305920 0.678285 0.059822 -0.004257 560557.000000 0 1 0
13.393020 3.664118 16.529316 21.587427 0.267049 0.698680 0.060997 -0.002704 -31493.400000 0 1 0
13.154720 2.166618 16.693316 21.363700 0.163237 0.673911 0.045884 -0.007093 -17162.000000 0 1 0
14.302120 1.400518 17.021816 22.276766 0.097613 0.701142 0.035743 -0.000078 140153.000000 0 1 0
14.067020 0.005418 17.032916 22.090751 0.000385 0.690319 0.034709 0.007702 -532784.000000 0 1 0
13.118520 -0.725582 17.951716 22.246036 -0.055253 0.631806 0.033149 -0.005979 -903895.000000 0 1 0
11.767120 -0.486782 17.772316 21.320349 -0.041344 0.585231 0.027819 0.005563 -1021390.000000 0 1 0
10.984420 -1.418282 18.442116 21.512337 -0.128407 0.540831 0.029482 -0.009288 -322741.000000 0 1 0
-26.432470 14.320718 28.640656 41.521628 -0.496514 0.809616 0.060419 -0.014754 -588823.000000 0 0 1
-25.429100 14.290418 29.601556 41.558480 -0.511988 0.778045 0.062616 -0.019611 -282336.000000 0 0 1
-24.899980 12.987018 29.701846 40.876292 -0.480752 0.757396 0.062321 -0.011953 4798.020000 0 0 1
-23.713380 12.890318 30.707426 40.883134 -0.497907 0.721066 0.045968 -0.016992 -39179.300000 0 0 1
-24.003980 13.226718 32.040891 42.163441 -0.503627 0.707605 0.051605 -0.026210 915082.000000 0 0 1
-22.809180 13.293918 32.863928 42.154771 -0.527700 0.676767 0.040079 -0.018093 778818.000000 0 0 1
-23.196880 13.376518 -33.696134 43.040166 -0.523075 2.470109 0.053421 -0.023526 92961.900000 0 0 1
-23.904980 12.238718 -33.227074 42.723211 -0.473181 2.461841 0.038577 -0.014472 449854.000000 0 0 1
-24.519680 12.484218 -31.933994 42.152703 -0.470942 2.430392 0.033418 -0.016258 113362.000000 0 0 1
-25.234160 11.308318 -31.234484 41.716111 -0.421302 2.416954 0.019510 -0.021427 -116990.000000 0 0 1
-24.449880 10.384318 -30.518414 40.459910 -0.401632 2.425365 0.034853 -0.026414 150207.000000 0 0 1
-23.954980 9.286018 -31.310704 40.502239 -0.369810 2.454449 0.028367 -0.023724 36950.400000 0 0 1
-23.335480 8.116118 -30.512734 39.261214 -0.334715 2.460956 0.035333 -0.011176 -246180.000000 0 0 1
-24.153880 7.469418 -29.557944 38.895683 -0.299915 2.434000 0.045713 -0.012379 82919.700000 0 0 1
-23.406380 6.566118 -28.760324 37.658051 -0.273497 2.439857 0.044682 -0.002214 -302939.000000 0 0 1
-24.144580 5.814618 -27.633514 37.153487 -0.236325 2.409484 0.052031 -0.009664 -166448.000000 0 0 1
-24.942780 4.758218 -28.180174 37.932903 -0.188501 2.408181 0.070212 -0.021719 317374.000000 0 0 1
-25.364360 3.899618 -27.115764 37.333931 -0.152550 2.383725 0.107829 -0.021369 -639481.000000 0 0 1
-26.170310 2.675818 -27.587764 38.119940 -0.101892 2.379959 0.124936 -0.023134 646303.000000 0 0 1
-27.518170 2.862418 -28.018834 39.376366 -0.103646 2.362519 0.129393 -0.024054 715604.000000 0 0 1
-27.650470 3.646418 -29.209474 40.386114 -0.131119 2.379301 0.131213 -0.021104 -798339.000000 0 0 1
-28.949720 3.461318 -30.019934 41.848100 -0.118998 2.370794 0.139180 -0.024771 -256589.000000 0 0 1
-30.169080 3.773318 -29.332514 42.246984 -0.124426 2.338257 0.126918 -0.022082 612742.000000 0 0 1
-31.240280 3.432318 -30.200374 43.586678 -0.109429 2.336273 0.110754 -0.027129 48081.600000 0 0 1
-31.740180 4.593818 -31.097774 44.672293 -0.143734 2.340791 0.101155 -0.037640 248395.000000 0 0 1
-30.691710 5.045418 -32.018504 44.638794 -0.162933 2.370687 0.116061 -0.040405 1036380.000000 0 0 1
-30.906570 6.366818 -32.455694 45.267257 -0.203160 2.370256 0.096253 -0.032463 -752088.000000 0 0 1
-30.573980 7.572618 -31.504344 44.549259 -0.242796 2.356298 0.065114 -0.034791 191266.000000 0 0 1
-29.159660 7.763218 -31.392624 43.543658 -0.260196 2.375963 0.049805 -0.034573 787978.000000 0 0 1
-28.610070 7.300918 -30.152084 42.201750 -0.249855 2.366669 0.041918 -0.035861 -305213.000000 0 0 1
-28.945710 8.162018 -28.875874 41.692790 -0.274841 2.335865 0.027074 -0.029653 385673.000000 0 0 1
-30.316350 8.346018 -28.500634 42.438464 -0.268643 2.307129 0.045751 -0.035616 804623.000000 0 0 1
-30.769050 7.203118 -27.726094 42.039929 -0.229961 2.290974 0.058726 -0.018985 728857.000000 0 0 1
-32.114360 7.573318 -26.962854 42.610829 -0.231592 2.255922 0.041857 -0.017158 644600.000000 0 0 1
-31.961180 8.541518 -25.935024 42.036889 -0.261144 2.235669 0.018973 -0.006078 -38712.700000 0 0 1
-31.635250 7.927018 -24.709564 40.916857 -0.245520 2.219178 0.028793 -0.003999 67797.700000 0 0 1
-31.153160 8.906918 -23.600264 40.085222 -0.278478 2.200311 0.020260 -0.003900 316408.000000 0 0 1
-32.161520 9.754118 -23.053764 40.755150 -0.294468 2.172036 0.033399 -0.004243 92574.600000 0 0 1
-31.536940 10.764618 -22.303464 40.098630 -0.328933 2.160621 0.035503 -0.004821 -662894.000000 0 0 1
-32.394430 11.621218 -21.430364 40.542722 -0.344441 2.127732 0.027542 -0.004866 -723231.000000 0 0 1
-32.846710 11.016618 -20.253664 40.130825 -0.323605 2.099820 0.021734 -0.009849 176176.000000 0 0 1
-33.400380 11.936218 -19.312064 40.385820 -0.343223 2.069388 0.016198 -0.008360 187345.000000 0 0 1
-32.351220 12.547518 -18.341564 39.248626 -0.369991 2.057050 0.011643 -0.005039 -76848.200000 0 0 1
-31.885430 11.712518 -17.309764 38.124686 -0.352031 2.042080 0.030859 -0.000883 130937.000000 0 0 1
-32.792000 11.320518 -16.284464 38.323011 -0.332412 2.009677 0.026139 0.011611 -310155.000000 0 0 1
-33.196610 12.384018 -15.277464 38.584708 -0.357061 1.977894 0.023583 0.006442 -421232.000000 0 0 1
-33.898720 13.478518 -15.880764 39.786836 -0.378446 1.981382 0.007396 -0.000594 442245.000000 0 0 1
-34.590758 14.164018 -14.793964 40.199519 -0.388647 1.947668 0.001203 -0.004513 344906.000000 0 0 1
-35.301854 15.476218 -15.247164 41.451299 -0.413163 1.947474 -0.007850 0.006015 295098.000000 0 0 1
-35.942769 15.235218 -16.503764 42.383590 -0.400917 1.970766 -0.005746 -0.003462 212955.000000 0 0 1
-36.728750 16.315118 -16.946564 43.616169 -0.418025 1.969841 -0.011236 -0.005931 -177101.000000 0 0 1
36.524956 16.179418 -18.383964 43.975176 0.416991 2.002098 -0.008529 -0.006613 -203159.000000 0 0 1
35.442606 15.307318 -18.548164 42.831375 0.407692 2.018671 0.033676 -0.013776 -494369.000000 0 0 1
34.262296 16.050818 -18.695964 42.202758 0.438106 2.029742 0.082334 -0.022412 -841423.000000 0 0 1
33.038526 15.134118 -18.863764 40.944198 0.429549 2.049601 0.102431 -0.026712 -451331.000000 0 0 1
32.897216 14.432618 -20.091064 41.160395 0.413433 2.080727 0.105432 -0.024369 313591.000000 0 0 1
31.985966 13.329218 -20.031264 40.025262 0.394837 2.094933 0.071644 -0.021890 131230.000000 0 0 1
32.534656 11.941518 -19.597164 39.813974 0.351774 2.085433 0.076503 -0.009879 -228733.000000 0 0 1
32.612306 11.882718 -18.179164 39.182183 0.349413 2.053262 0.101700 -0.018186 103610.000000 0 0 1
33.118696 10.606718 -17.786864 39.060505 0.309942 2.043581 0.093854 -0.024695 -117918.000000 0 0 1
33.045876 10.358418 -16.263764 38.260120 0.303755 2.009851 0.082439 -0.018004 -41172.200000 0 0 1
31.727186 10.322918 -15.734864 36.888520 0.314562 2.011473 0.091618 -0.018143 226152.000000 0 0 1
31.714156 10.060918 -14.340464 36.230632 0.307195 1.977747 0.081538 -0.013040 -193069.000000 0 0 1
31.087636 11.113418 -13.410464 35.634109 0.343329 1.956637 0.101372 -0.020852 -685367.000000 0 0 1
29.699896 11.123718 -13.564864 34.493861 0.358365 1.974965 0.090806 -0.026221 -565740.000000 0 0 1
29.175416 12.224518 -12.857464 34.146129 0.396778 1.956857 0.106927 -0.031230 178872.000000 0 0 1
27.635056 12.266918 -12.740564 32.809992 0.417761 1.969597 0.110501 -0.032968 21541.300000 0 0 1
26.945556 11.200518 -12.128364 31.600820 0.393943 1.964703 0.107803 -0.038225 19661.300000 0 0 1
25.593756 11.032918 -12.489264 30.540913 0.407008 1.992084 0.097641 -0.029601 -27694.600000 0 0 1
25.286556 10.413718 -13.861664 30.659438 0.390661 2.039934 0.080444 -0.037096 -951727.000000 0 0 1
25.621556 9.055318 -14.077264 30.604449 0.339723 2.048763 0.082628 -0.034699 295265.000000 0 0 1
26.954656 8.859018 -14.509464 31.867856 0.317542 2.043507 0.095140 -0.038042 -119468.000000 0 0 1
27.784456 7.903118 -13.648364 31.948601 0.277125 2.012187 0.092877 -0.032221 -240362.000000 0 0 1
27.365656 6.529718 -13.733364 31.306894 0.234230 2.024913 0.094981 -0.037772 606350.000000 0 0 1
26.483456 6.132618 -12.684164 29.997841 0.227553 2.007369 0.104949 -0.037740 70923.200000 0 0 1
26.111356 4.634718 -12.822664 29.456820 0.175669 2.021172 0.106251 -0.033239 -2589.180000 0 0 1
25.318456 4.149318 -11.741164 28.215173 0.162441 1.999981 0.118405 -0.033173 655905.000000 0 0 1
24.864156 2.816318 -11.947264 27.728956 0.112787 2.016241 0.102042 -0.030791 -258527.000000 0 0 1
23.995856 2.349818 -10.767564 26.405742 0.097615 1.990811 0.092883 -0.021322 -274104.000000 0 0 1
24.732256 1.780018 -9.689764 26.622255 0.071848 1.943326 0.101719 -0.021346 998018.000000 0 0 1
24.040456 1.888618 -8.403664 25.536875 0.078399 1.906125 0.113812 -0.011465 -136339.000000 0 0 1
24.894956 1.472618 -7.188964 25.953972 0.059084 1.851455 0.142240 -0.009779 -405818.000000 0 0 1
24.880056 0.104718 -6.824364 25.799227 0.004209 1.838501 0.113514 -0.011487 1064420.000000 0 0 1
25.740256 -0.718582 -7.671964 26.868870 -0.027909 1.860359 0.106997 -0.015010 104636.000000 0 0 1
25.826356 -2.136482 -7.153664 26.883826 -0.082537 1.840137 0.119319 -0.025856 363527.000000 0 0 1
26.977556 -2.313182 -6.308664 27.801773 -0.085535 1.799706 0.139525 -0.030773 1038340.000000 0 0 1
27.031956 -3.664182 -5.800564 27.889055 -0.134729 1.780313 0.152462 -0.040246 81960.300000 0 0 1
28.307456 -4.004782 -4.951464 29.014950 -0.140542 1.742288 0.158669 -0.041366 476564.000000 0 0 1
29.401156 -4.283482 -5.834164 30.278931 -0.144673 1.764690 0.160867 -0.033627 788120.000000 0 0 1
30.581116 -4.525482 -5.043964 31.322934 -0.146917 1.732532 0.197537 -0.045908 748438.000000 0 0 1
31.812756 -4.925482 -5.913964 32.730518 -0.153608 1.752481 0.191191 -0.045575 67320.100000 0 0 1
31.579896 -6.080582 -6.734664 32.857556 -0.190218 1.777225 0.153226 -0.037485 57153.200000 0 0 1
32.469026 -6.175682 -7.819164 33.963451 -0.187957 1.803103 0.156252 -0.048044 -787387.000000 0 0 1
31.922346 -7.105182 -8.928664 33.900455 -0.219007 1.837319 0.125016 -0.041062 1086920.000000 0 0 1
30.657826 -6.579182 -9.405364 32.736047 -0.211394 1.862213 0.112722 -0.028773 711907.000000 0 0 1
29.558386 -7.151282 -8.758164 31.647187 -0.237376 1.851200 0.107845 -0.019901 -1426090.000000 0 0 1
28.330456 -6.267582 -8.764064 30.310166 -0.217724 1.864131 0.097511 -0.019415 -702983.000000 0 0 1
27.420956 -6.465082 -9.823964 29.836494 -0.231543 1.906316 0.064474 -0.012691 -36639.800000 0 0 1
26.353256 -5.573682 -9.777664 28.655937 -0.208427 1.918999 0.078911 -0.008911 125881.000000 0 0 1
24.952556 -6.224082 -9.571964 27.440695 -0.244448 1.927112 0.092063 -0.009078 -531201.000000 0 0 1
24.872156 -6.894482 -8.318264 27.117366 -0.270407 1.882573 0.082180 -0.012700 1224280.000000 0 0 1
23.518656 -7.258282 -8.018164 25.886305 -0.299344 1.885722 0.072500 -0.018569 -194527.000000 0 0 1
22.653556 -6.221382 -7.367364 24.620464 -0.268024 1.874690 0.088654 -0.018525 -1087080.000000 0 1 0
22.315556 -5.297982 -8.352564 24.409383 -0.233097 1.920039 0.090096 -0.015751 99739.800000 0 1 0
21.842256 -4.076982 -7.832764 23.559671 -0.184532 1.909712 0.076651 -0.014541 -267651.000000 0 1 0
21.779056 -3.132882 -9.026864 23.782904 -0.142868 1.960109 0.081829 -0.005646 -460284.000000 0 1 0
22.978256 -2.875582 -9.701164 25.107405 -0.124496 1.967507 0.077141 -0.002768 288343.000000 0 0 1
22.770456 -1.975282 -10.754364 25.259686 -0.086531 2.010589 0.076463 -0.003097 -300935.000000 0 0 1
24.040356 -1.760482 -11.588064 26.745490 -0.073100 2.018916 0.074612 -0.002038 -269293.000000 0 0 1
25.126756 -1.235882 -10.859164 27.400779 -0.049146 1.978289 0.072976 -0.010981 1327140.000000 0 0 1
26.339056 -1.187382 -11.645164 28.823005 -0.045050 1.986707 0.073299 -0.008869 878468.000000 0 0 1
27.519856 -0.445082 -10.933364 29.615520 -0.016172 1.948919 0.077064 -0.007788 19989.000000 0 0 1
28.712356 -0.692382 -11.635364 30.988070 -0.024110 1.955710 0.082970 -0.013145 586924.000000 0 0 1
29.834496 0.181718 -11.454064 31.958188 0.006091 1.937358 0.099221 -0.017695 526545.000000 0 0 1
29.755566 1.548718 -12.180364 32.189338 0.052001 1.958861 0.108422 -0.021618 -439915.000000 0 0 1
30.093506 1.346818 -13.533564 33.024088 0.044725 1.993041 0.095776 -0.024720 487124.000000 0 0 1
30.031706 2.549018 -14.213164 33.322888 0.084675 2.011448 0.099969 -0.027063 -237561.000000 0 0 1
30.330746 2.377018 -15.708664 34.239838 0.078210 2.047422 0.100165 -0.024151 96107.400000 0 0 1
29.310196 1.849418 -16.582464 33.726637 0.063015 2.084806 0.086995 -0.014050 421747.000000 0 0 1
29.585616 1.798918 -17.973064 34.663754 0.060729 2.115889 0.055198 -0.010731 -496676.000000 0 0 1
28.451056 1.137918 -18.772464 34.105173 0.039974 2.153674 0.031222 -0.004356 -182581.000000 0 0 1
28.261856 -0.210582 -18.606664 33.837624 -0.007451 2.153018 0.051746 -0.007336 135947.000000 0 0 1
27.646256 -0.870582 -19.685264 33.949713 -0.031480 2.189324 0.022847 -0.007633 -287833.000000 0 0 1
27.541256 -2.403182 -19.569164 33.871053 -0.087037 2.186772 0.040222 -0.016618 -27711.500000 0 0 1
26.312156 -2.900382 -19.066664 32.623296 -0.109787 2.194998 0.044842 -0.013362 376493.000000 0 0 1
26.093056 -4.309982 -19.206264 32.684922 -0.163699 2.198909 0.048519 -0.016709 -77246.200000 0 0 1
26.870856 -5.177782 -18.164964 32.845369 -0.190358 2.156811 0.045236 -0.010255 -213504.000000 0 0 1
28.235356 -5.238882 -18.466364 34.142171 -0.183457 2.142264 0.062626 -0.016567 -575676.000000 0 0 1
28.994666 -5.363682 -17.311564 34.192835 -0.182921 2.101676 0.061708 -0.012914 638500.000000 0 0 1
30.552196 -5.222882 -17.468664 35.579058 -0.169313 2.084013 0.093772 -0.020976 947485.000000 0 0 1
31.223376 -6.230782 -18.195864 36.671669 -0.196968 2.089993 0.077893 -0.023714 -899536.000000 0 0 1
32.528306 -5.927882 -18.477864 37.876931 -0.180260 2.080409 0.102814 -0.022397 -1345500.000000 0 0 1
33.352566 -6.950182 -19.223164 39.118138 -0.205445 2.084508 0.104386 -0.019872 -424093.000000 0 0 1
33.698166 -7.991782 -18.357464 39.197340 -0.232856 2.058201 0.101928 -0.021485 178219.000000 0 0 1
34.661516 -8.846982 -18.971064 40.491864 -0.249904 2.058406 0.083970 -0.017222 -50148.000000 0 0 1
35.545376 -9.588582 -17.969864 40.967434 -0.263484 2.024879 0.074123 -0.014277 -586008.000000 0 0 1
34.774996 -10.328082 -17.019464 40.070335 -0.288700 2.009471 0.066939 -0.017643 128469.000000 0 0 1
35.489446 -11.097682 -16.084064 40.513657 -0.303070 1.979046 0.078781 -0.020812 -448002.000000 0 0 1
36.597016 -10.475782 -15.169364 40.977960 -0.278792 1.950003 0.079794 -0.024487 -88909.100000 0 0 1
-36.740200 -11.264682 -14.103164 40.934516 0.297504 1.922534 0.067415 -0.023134 642973.000000 0 0 1
-36.005817 -12.443782 -14.509464 40.765072 0.332754 1.934704 0.060574 -0.017207 447803.000000 0 0 1
-34.520186 -12.285882 -14.985564 39.587287 0.341925 1.959020 0.066521 -0.021161 258820.000000 0 0 1
-34.423045 -11.684182 -16.248664 39.818152 0.327227 1.991137 0.079488 -0.029419 239049.000000 0 0 1
-33.077070 -11.743682 -16.700764 38.870582 0.341158 2.014902 0.078971 -0.022366 211645.000000 0 0 1
-32.757240 -10.864582 -17.962764 38.906771 0.320252 2.050693 0.106502 -0.018873 188403.000000 0 0 1
-32.911770 -9.457582 -17.771164 38.580367 0.279822 2.049498 0.112308 -0.019336 194693.000000 0 0 1
-34.268315 -9.111782 -17.965464 39.750470 0.259882 2.039753 0.109360 -0.025495 -291701.000000 0 0 1
-34.616274 -7.768282 -17.484764 39.551860 0.220754 2.028704 0.119092 -0.027533 437253.000000 0 0 1
-35.853837 -7.209082 -17.958364 40.742746 0.198423 2.027258 0.120416 -0.026145 690514.000000 0 0 1
-36.284490 -6.125782 -17.168164 40.605853 0.167249 2.007329 0.120368 -0.028944 -198889.000000 0 0 1
25.260020 27.719918 -27.559494 46.540178 0.831796 2.204540 0.044970 0.012053 139871.000000 0 0 1
25.574220 26.760018 -26.555724 45.555963 0.808052 2.193121 0.036482 0.006489 340620.000000 0 0 1
26.928120 26.368518 -26.766684 46.226375 0.774899 2.188341 0.036623 -0.002642 132677.000000 0 0 1
27.408720 25.300818 -25.732824 45.316085 0.745429 2.174690 0.029264 -0.004093 -441161.000000 0 0 1
27.658020 25.736718 -24.420464 44.985596 0.749431 2.144624 0.033583 -0.003612 283362.000000 0 0 1
28.090720 24.727618 -23.517064 44.199502 0.721811 2.131835 0.039342 -0.004259 94514.100000 0 0 1
28.829820 25.308118 -22.298164 44.371922 0.720439 2.097317 0.037069 -0.008445 59640.200000 0 0 1
27.931020 26.053718 -21.528264 43.845231 0.750637 2.084040 0.033363 -0.006021 80723.200000 0 0 1
28.592820 26.606418 -20.392464 44.060225 0.749428 2.051983 0.020984 -0.006557 292103.000000 0 0 1
27.725220 27.683618 -19.699164 43.853479 0.784647 2.036671 0.030828 -0.005675 -23282.300000 0 0 1
26.789720 27.160018 -18.778364 42.520379 0.792262 2.028213 0.041309 -0.006826 228353.000000 0 0 1
26.077020 28.196418 -18.072764 42.446128 0.824429 2.010621 0.045491 -0.009509 -75714.800000 0 0 1
24.918620 27.737918 -17.210264 41.067297 0.838888 2.003222 0.053266 -0.007321 -546916.000000 0 0 1
23.895720 27.112418 -17.924164 40.340604 0.848377 2.031212 0.058090 -0.008825 442395.000000 0 0 1
22.652120 27.139718 -17.197564 39.312073 0.875282 2.023571 0.042415 -0.007393 709264.000000 0 0 1
21.636820 26.072818 -17.601264 38.180470 0.878111 2.049920 0.035299 -0.013482 -227529.000000 0 0 1
21.027720 26.264018 -18.860064 38.570269 0.895672 2.081716 0.032505 -0.014356 -25094.000000 0 0 1
20.181520 25.195818 -19.268764 37.595322 0.895454 2.108926 0.039270 -0.011287 189199.000000 0 0 1
19.403820 25.525118 -20.555664 38.086418 0.920808 2.140890 0.034700 -0.008961 465117.000000 0 0 1
18.459220 26.576018 -20.307264 38.202258 0.963716 2.131252 0.025810 -0.007558 -402852.000000 0 0 1
17.524220 26.737118 -21.332264 38.432243 0.990616 2.159233 0.022675 -0.007797 -3994.610000 0 0 1
16.397020 27.713918 -20.888964 38.383230 1.036537 2.146257 0.032892 -0.009130 -58409.400000 0 0 1
15.832120 27.337018 -19.669164 37.213500 1.045852 2.127687 0.041943 -0.010670 -314330.000000 0 0 1
14.893720 28.294318 -19.226264 37.310060 1.086264 2.112166 0.046812 -0.016350 -106280.000000 0 0 1
14.369620 28.059218 -17.813264 36.209365 1.097502 2.085127 0.056342 -0.020913 -235909.000000 0 0 1
13.520620 26.960818 -17.724964 34.983814 1.105956 2.102105 0.056571 -0.019315 -332889.000000 0 0 1
12.723220 27.080018 -16.558764 34.196497 1.131568 2.076272 0.081363 -0.020004 264783.000000 0 0 1
11.724320 25.942318 -16.297064 32.803321 1.146332 2.090717 0.104484 -0.023024 144654.000000 0 0 1
12.484020 24.879218 -15.911964 32.062702 1.105722 2.090101 0.080463 -0.015838 89612.400000 0 0 1
11.609920 23.764118 -15.894964 30.857308 1.116352 2.111934 0.108622 -0.016633 768768.000000 0 0 1
12.451220 22.497518 -16.160364 30.369863 1.065309 2.131897 0.088381 -0.014997 568640.000000 0 0 1
13.236520 22.476118 -17.339964 31.321809 1.038568 2.157485 0.080865 -0.012399 -280435.000000 0 0 1
14.008720 21.319418 -17.577964 30.979778 0.989455 2.174143 0.077112 -0.010820 -31326.000000 0 0 1
13.281520 19.938718 -17.728764 29.803697 0.983174 2.207877 0.088901 -0.012473 50425.400000 0 0 1
12.806420 19.384818 -16.516364 28.505541 0.986976 2.188800 0.098625 -0.015611 -186797.000000 0 0 1
12.279720 18.064418 -16.667464 27.475791 0.973774 2.222603 0.087017 -0.019264 -25542.900000 0 0 1
13.290720 16.905318 -16.811064 27.295511 0.904536 2.234313 0.079719 -0.024095 -211379.000000 0 0 1
13.954820 16.698418 -15.609664 26.781258 0.874665 2.193038 0.080521 -0.027541 59804.500000 0 0 1
15.059520 15.824018 -15.824664 26.974223 0.810147 2.197723 0.081951 -0.030211 -653728.000000 0 0 1
15.485320 15.086318 -14.510464 26.037390 0.772348 2.161919 0.108570 -0.027635 -917932.000000 0 0 1
16.218620 15.834518 -13.549764 26.407796 0.773415 2.109586 0.091747 -0.027998 722169.000000 0 0 1
17.482620 16.343218 -13.967464 27.709797 0.751727 2.099092 0.069206 -0.030252 363941.000000 0 0 1
18.570920 15.325918 -14.531464 28.123412 0.689957 2.113792 0.062096 -0.033279 -415757.000000 0 0 1
19.192520 14.349218 -13.683764 27.595258 0.641993 2.089637 0.081123 -0.033681 530492.000000 0 0 1
20.219720 14.919618 -12.885464 28.239463 0.635696 2.044621 0.078422 -0.035874 -211543.000000 0 0 1
21.111020 13.857318 -12.191564 28.041660 0.580863 2.020575 0.092389 -0.040847 -219126.000000 0 0 1
20.397320 13.006818 -11.317764 26.708047 0.567661 2.008387 0.152963 -0.037366 181463.000000 0 0 1
21.174120 11.935118 -10.853164 26.619196 0.513274 1.990751 0.163832 -0.015977 -329466.000000 0 0 1
21.117020 10.678218 -11.766264 26.427218 0.468172 2.032231 0.119105 -0.024219 -399300.000000 0 0 1
21.974720 10.659718 -12.893464 27.618098 0.451649 2.056520 0.103208 -0.017432 313084.000000 0 0 1
21.778520 9.466918 -13.657064 27.394194 0.410050 2.092708 0.095488 -0.026248 -275833.000000 0 0 1
22.326820 8.154018 -13.051664 27.116800 0.350162 2.072948 0.098481 -0.009359 -133027.000000 0 0 1
21.605020 7.791118 -11.841364 25.839820 0.346101 2.046833 0.096611 -0.023902 677977.000000 0 0 1
22.093820 6.678718 -11.108164 25.615102 0.293555 2.019343 0.102158 -0.007724 -660952.000000 0 0 1
21.771620 5.282518 -11.774864 25.309205 0.238033 2.054702 0.090472 -0.014344 502838.000000 0 0 1
20.430020 4.780718 -11.798764 24.071806 0.229868 2.083057 0.041043 -0.019596 682875.000000 0 1 0
19.556520 5.430218 -12.701964 23.943363 0.270845 2.129987 0.004935 -0.032088 -344896.000000 0 1 0
18.671520 4.295718 -13.306264 23.326713 0.226133 2.177826 0.006399 -0.030169 -19217.300000 0 1 0
19.463720 3.559618 -14.232264 24.373441 0.180886 2.194352 0.031424 -0.034430 602435.000000 0 1 0
19.197120 2.177718 -14.206064 23.980912 0.112957 2.204819 0.053290 -0.023222 37838.100000 0 1 0
20.383120 1.388618 -14.824764 25.242295 0.068021 2.198513 0.084235 -0.015192 1295810.000000 0 0 1
21.556820 1.159218 -13.980464 25.719519 0.053723 2.145486 0.104645 -0.007112 1247750.000000 0 0 1
22.583320 0.432618 -14.619364 26.905749 0.019154 2.145224 0.068677 -0.014271 -664208.000000 0 0 1
22.541320 -1.109082 -14.743664 26.957686 -0.049163 2.149476 0.061268 -0.012332 -489192.000000 0 0 1
21.532220 -1.588782 -15.624864 26.651400 -0.073653 2.197241 0.049479 -0.012223 507841.000000 0 0 1
22.116720 -2.262082 -16.737364 27.828146 -0.101925 2.216117 0.041340 -0.011777 211977.000000 0 0 1
21.047820 -2.920682 -17.662664 27.631700 -0.137884 2.264277 0.034973 -0.015899 217474.000000 0 0 1
20.314620 -3.938982 -17.016964 26.791350 -0.191522 2.259020 0.051447 -0.010293 379173.000000 0 0 1
19.303320 -4.568682 -17.797264 26.650209 -0.232402 2.302058 0.049036 -0.014276 12607.300000 0 0 1
18.715320 -5.730682 -16.995264 25.921862 -0.297138 2.285819 0.058936 -0.012798 253962.000000 0 0 1
19.689720 -6.716982 -16.578364 26.601599 -0.328761 2.243636 0.064285 -0.010554 908809.000000 0 0 1
19.044120 -7.794782 -15.904764 26.007665 -0.388499 2.228804 0.073579 -0.006818 578372.000000 0 0 1
20.112720 -8.806082 -15.333164 26.780114 -0.412693 2.180419 0.100896 -0.009130 470933.000000 0 0 1
20.672620 -9.616482 -16.343264 28.052384 -0.435405 2.192718 0.088133 -0.005827 375956.000000 0 0 1
21.567220 -10.586382 -15.863764 28.790198 -0.456305 2.154374 0.085162 -0.009812 -137235.000000 0 0 1
22.260220 -11.484982 -16.949764 30.244284 -0.476320 2.165700 0.082705 -0.009401 535214.000000 0 0 1
23.351420 -10.963982 -17.719964 31.296883 -0.438968 2.172672 0.079798 -0.009189 448336.000000 0 0 1
23.694720 -11.742082 -18.850764 32.475646 -0.460087 2.190088 0.081784 -0.016863 -708165.000000 0 0 1
22.847720 -11.667582 -20.136164 32.613125 -0.472145 2.236262 0.098915 -0.012248 98626.200000 0 0 1
21.591420 -12.324382 -20.042664 31.934123 -0.518672 2.249296 0.110145 -0.029162 130133.000000 0 0 1
21.563620 -13.752882 -19.882164 32.394937 -0.567738 2.231589 0.106272 -0.019955 -763421.000000 0 0 1
20.119020 -14.214482 -19.652464 31.512630 -0.615088 2.244184 0.111875 -0.023092 151790.000000 0 0 1
19.230020 -13.857782 -20.694564 31.465803 -0.624440 2.288537 0.103230 -0.010436 -479724.000000 0 0 1
17.908820 -14.293882 -20.551164 30.779721 -0.673610 2.301891 0.088395 -0.011209 196441.000000 0 0 1
16.946020 -13.651282 -21.602364 30.662473 -0.678131 2.352545 0.065289 -0.010624 108511.000000 0 0 1
17.097320 -14.196682 -22.923164 31.927035 -0.692972 2.371701 0.057316 -0.008902 318525.000000 0 0 1
16.140420 -13.641482 -23.801564 31.829509 -0.701686 2.415513 0.062479 -0.011547 -172812.000000 0 0 1
16.111320 -14.347682 -25.190624 33.166220 -0.727561 2.433381 0.051589 -0.016988 -544550.000000 0 0 1
15.562020 -15.634682 -25.210534 33.499116 -0.787727 2.422757 0.047812 -0.019712 33088.700000 0 0 1
15.477620 -16.115682 -26.538274 34.692246 -0.805592 2.441780 0.053333 -0.015840 -239091.000000 0 0 1
16.528320 -17.176682 -26.991174 36.010377 -0.804632 2.418161 0.058099 -0.017814 239018.000000 0 0 1
17.840320 -16.642082 -26.996594 36.387526 -0.750663 2.406724 0.065578 -0.016391 -563484.000000 0 0 1
18.791020 -17.622382 -27.115954 37.402216 -0.753316 2.381805 0.075933 -0.012392 -1314440.000000 0 0 1
20.223920 -17.197282 -26.982204 37.852250 -0.704694 2.364321 0.084969 -0.007885 -903607.000000 0 0 1
20.624720 -17.107582 -25.637794 37.085643 -0.692454 2.334101 0.102977 -0.009171 -276523.000000 0 0 1
22.008220 -16.944982 -25.467734 37.684210 -0.656140 2.312873 0.097506 -0.006642 -469772.000000 0 0 1
22.446620 -16.402682 -24.094464 36.789155 -0.631061 2.284891 0.112524 -0.007744 13280.700000 0 0 1
22.166320 -15.037282 -23.778264 35.817195 -0.596071 2.296789 0.112777 -0.012163 -86530.900000 0 0 1
20.785720 -14.750482 -23.850064 34.906281 -0.617170 2.323014 0.128957 -0.014023 -210615.000000 0 0 1
20.456120 -13.318382 -23.465764 33.859626 -0.577128 2.336481 0.126682 -0.005699 24794.400000 0 0 1
21.095720 -12.310582 -24.245764 34.415649 -0.528242 2.352512 0.129226 -0.015760 419838.000000 0 0 1
20.792520 -11.076882 -23.549764 33.310923 -0.489491 2.355999 0.121642 -0.016441 99172.500000 0 0 1
21.137620 -9.802682 -24.307864 33.671410 -0.434234 2.377361 0.123243 -0.021753 -115387.000000 0 0 1
20.770720 -8.618082 -23.629164 32.619497 -0.393298 2.380942 0.118688 -0.025599 105054.000000 0 0 1
20.922620 -7.481382 -24.398264 33.000036 -0.343406 2.402887 0.096990 -0.022124 -476267.000000 0 0 1
20.317720 -6.231382 -23.722964 31.849944 -0.297589 2.411084 0.092729 -0.027544 -132902.000000 0 0 1
18.919620 -6.328682 -23.489064 30.817858 -0.322803 2.437486 0.103279 -0.022222 306609.000000 0 0 1
18.378920 -5.459682 -22.500264 29.561034 -0.288759 2.435875 0.088270 -0.020637 123224.000000 0 0 1
18.825820 -5.708882 -21.027264 28.794942 -0.294433 2.389472 0.074270 -0.021547 -253286.000000 0 0 1
18.193220 -6.771682 -20.280464 28.073941 -0.356322 2.378055 0.085325 -0.015907 253363.000000 0 0 1
18.494620 -8.093582 -20.610664 28.850590 -0.412510 2.366553 0.095578 -0.018254 -199171.000000 0 0 1
18.041520 -9.086082 -19.509464 28.083314 -0.466540 2.338798 0.080928 -0.013511 774643.000000 0 0 1
16.633320 -9.199582 -19.271064 27.067943 -0.505206 2.363070 0.067147 -0.010628 359699.000000 0 0 1
16.355220 -10.385682 -18.571364 26.837496 -0.565763 2.335043 0.074109 -0.008127 -382484.000000 0 0 1
14.857120 -10.613582 -18.279164 25.836215 -0.620310 2.356753 0.078789 -0.011077 245914.000000 0 0 1
14.107720 -9.780082 -17.371864 24.422519 -0.606177 2.362150 0.086782 -0.010817 579763.000000 0 1 0
14.269120 -8.351682 -17.649964 24.184285 -0.529539 2.388842 0.077320 -0.019571 -1228130.000000 0 1 0
13.047520 -7.569182 -17.210464 22.885156 -0.525677 2.421942 0.071907 -0.002943 -94853.100000 0 1 0
11.806120 -7.740682 -17.877364 22.779438 -0.580337 2.473174 0.058990 -0.013258 296405.000000 0 1 0
10.890020 -6.824582 -17.356864 21.596949 -0.559808 2.504237 0.047178 -0.013758 -608363.000000 0 1 0
9.449620 -6.829682 -17.851464 21.321694 -0.625830 2.563020 0.043059 -0.008879 -304098.000000 0 1 0
9.347720 -6.482782 -19.260664 22.369165 -0.606360 2.608100 0.043302 -0.011524 363401.000000 0 1 0
7.979220 -6.241882 -19.567364 22.034309 -0.663834 2.663862 0.041455 -0.015190 457776.000000 0 1 0
7.764920 -5.837482 -21.047064 23.180791 -0.644637 2.709169 0.048031 -0.021447 12039.500000 0 1 0
7.796220 -6.926382 -21.977264 24.326035 -0.726385 2.698538 0.046438 -0.013752 448087.000000 0 1 0
6.760020 -6.795482 -22.969164 24.888932 -0.788014 2.746255 0.039481 -0.019923 277672.000000 0 1 0
6.902420 -7.885282 -24.082364 26.263689 -0.851765 2.731152 0.030282 -0.017331 -246652.000000 0 0 1
6.531720 -9.180782 -23.657064 26.203183 -0.952423 2.697106 0.051335 -0.023918 139296.000000 0 0 1
6.465320 -10.063482 -24.743164 27.482689 -0.999744 2.691296 0.049385 -0.012597 -339082.000000 0 0 1
5.635020 -11.294282 -24.373864 27.448124 -1.108008 2.663768 0.056637 -0.020841 -202567.000000 0 0 1
6.195820 -12.187882 -23.458764 27.152279 -1.100484 2.613898 0.050145 -0.020318 135555.000000 0 0 1
5.452920 -13.408482 -23.624764 27.706519 -1.184547 2.591888 0.079094 -0.028608 -431637.000000 0 0 1
6.011320 -14.574982 -22.742964 27.673245 -1.179611 2.535429 0.083049 -0.023726 179797.000000 0 0 1
7.199220 -15.259382 -23.161964 28.655786 -1.129971 2.512025 0.043198 -0.014230 914741.000000 0 0 1
8.413720 -14.528082 -23.340364 28.751147 -1.045860 2.518035 0.053444 -0.015033 285603.000000 0 0 1
8.994720 -13.767882 -22.114764 27.559433 -0.992096 2.502168 0.047606 -0.013156 -722738.000000 0 0 1
9.449120 -14.539882 -20.986064 27.223316 -0.994508 2.451027 0.034788 -0.002589 859372.000000 0 0 1
8.368720 -15.014682 -20.153564 26.488532 -1.062313 2.435405 0.025663 -0.006016 322775.000000 0 0 1
8.787020 -15.411382 -18.730264 25.798163 -1.052604 2.383329 0.036727 -0.007273 289726.000000 0 0 1
9.685120 -16.522982 -18.671664 26.747739 -1.040615 2.343488 0.052176 -0.007576 -38230.300000 0 0 1
10.133920 -16.891682 -17.399164 26.282241 -1.030424 2.294297 0.064705 -0.017242 -541047.000000 0 0 1
9.165420 -17.624882 -16.420964 25.773813 -1.091256 2.261550 0.045639 -0.015873 -284063.000000 0 0 1
8.855720 -19.004782 -16.646964 26.771756 -1.134739 2.241849 0.051196 -0.011797 554101.000000 0 0 1
8.142920 -19.210782 -17.898664 27.490425 -1.169881 2.279812 0.054792 -0.010249 588883.000000 0 0 1
6.590520 -18.999682 -17.974364 26.972220 -1.236908 2.300170 0.050743 -0.002536 448593.000000 0 0 1
6.270220 -17.656582 -17.873564 25.894688 -1.229567 2.332618 0.049652 -0.008829 344086.000000 0 0 1
4.851820 -17.471182 -17.889264 25.471712 -1.299918 2.349446 0.053965 -0.005355 799943.000000 0 0 1
4.452220 -15.961882 -17.761564 24.291503 -1.298782 2.390853 0.036438 -0.002907 72042.400000 0 1 0
4.760320 -15.635182 -16.399964 23.153367 -1.275251 2.357910 0.017918 -0.004804 276950.000000 0 1 0
4.988720 -14.288582 -16.219864 22.184114 -1.234888 2.390799 0.015432 -0.002245 -169344.000000 0 1 0
10.572120 29.418818 -17.918164 36.031891 1.225802 2.091264 0.097885 -0.035485 -1117680.000000 0 0 1
9.518020 29.269818 -18.762764 36.046585 1.256400 2.118250 0.122990 -0.039594 -1152020.000000 0 0 1
8.593420 28.330118 -18.279564 34.793461 1.276286 2.123950 0.108573 -0.041270 -378815.000000 0 0 1
7.577720 27.861318 -19.310664 34.735812 1.305240 2.160277 0.113744 -0.036360 -431021.000000 0 0 1
6.702020 28.932118 -19.573264 35.568205 1.343165 2.153523 0.122660 -0.047880 -586427.000000 0 0 1
6.159920 28.570818 -20.844864 35.899089 1.358445 2.190325 0.096547 -0.039246 -84038.000000 0 0 1
5.091620 29.522718 -21.358664 36.792771 1.400012 2.190154 0.090774 -0.045173 -264469.000000 0 0 1
3.789820 29.520118 -20.828364 36.326586 1.443114 2.181403 0.077415 -0.033783 -396703.000000 0 0 1
3.045320 30.553018 -21.394664 37.423155 1.471451 2.179368 0.068304 -0.042248 -1410970.000000 0 0 1
1.677020 30.568418 -20.688164 36.949164 1.515990 2.165072 0.078530 -0.032710 -165042.000000 0 0 1
0.886720 29.420718 -20.956664 36.132350 1.540666 2.189522 0.088882 -0.043072 225046.000000 0 0 1
0.329220 29.248418 -22.267164 36.761460 1.559541 2.221467 0.119749 -0.065261 -805687.000000 0 0 1
-0.372780 27.931118 -22.506164 35.872186 -1.557451 2.249004 0.129899 -0.064732 -622374.000000 0 0 1
-1.603280 27.909518 -21.861264 35.488401 -1.513414 2.234466 0.129849 -0.055463 -1137130.000000 0 0 1
-2.245480 26.758218 -22.162264 34.816812 -1.487075 2.260799 0.147652 -0.064903 -379752.000000 0 0 1
-3.316080 26.289418 -21.160164 33.909916 -1.445322 2.244662 0.104980 -0.052954 -872793.000000 0 0 1
-4.565580 26.870518 -21.257264 34.565019 -1.402493 2.233174 0.099448 -0.050968 -505100.000000 0 0 1
-5.385680 26.248118 -20.239264 33.579712 -1.368422 2.217706 0.085499 -0.046201 874900.000000 0 0 1
-6.829180 26.829118 -20.137664 34.233971 -1.321546 2.199672 0.084395 -0.054296 649290.000000 0 0 1
-7.774980 26.176218 -19.293564 33.434807 -1.282072 2.185909 0.081043 -0.045154 -404082.000000 0 0 1
-8.667380 27.106418 -18.755464 34.082969 -1.261317 2.153506 0.095012 -0.050895 -489850.000000 0 0 1
-9.889180 26.359118 -18.232564 33.541398 -1.211876 2.145497 0.103527 -0.047130 -450348.000000 0 0 1
-9.692380 25.688618 -16.991164 32.288496 -1.210009 2.124957 0.113612 -0.051917 459047.000000 0 0 1
-10.938780 25.102418 -16.586564 32.014097 -1.159842 2.115427 0.075800 -0.036583 617614.000000 0 0 1
-10.801380 24.395818 -15.241764 30.726814 -1.153983 2.089830 0.084479 -0.025444 372844.000000 0 0 1
-9.981280 23.174518 -15.306464 29.512236 -1.164107 2.116065 0.086001 -0.026934 402493.000000 0 0 1
-9.966580 22.643918 -14.001964 28.427711 -1.156169 2.085810 0.089504 -0.024968 -46926.400000 0 0 1
-9.298280 21.248518 -13.917264 27.048988 -1.158305 2.111245 0.088603 -0.019714 31640.600000 0 0 1
-10.014780 20.189618 -14.590564 26.847738 -1.110325 2.145345 0.088800 -0.017541 196355.000000 0 0 1
-10.343980 20.338918 -16.001164 27.869459 -1.100308 2.182358 0.093221 -0.017584 -129299.000000 0 0 1
-9.100980 20.206618 -16.871364 27.852795 -1.147613 2.221483 0.095365 -0.022848 -99402.600000 0 0 1
-8.577280 18.863818 -16.926464 26.756654 -1.144045 2.255712 0.093822 -0.021051 154523.000000 0 0 1
-7.706280 18.709018 -18.062464 27.123177 -1.180072 2.299552 0.081912 -0.023692 140558.000000 0 0 1
-7.176480 17.265018 -18.053264 25.990442 -1.176858 2.338676 0.062612 -0.012852 408789.000000 0 0 1
-8.111380 16.223018 -18.448664 25.871490 -1.107155 2.364690 0.078347 -0.022706 49920.300000 0 0 1
-7.738180 15.441518 -19.587864 26.115213 -1.106247 2.418943 0.072873 -0.032195 313056.000000 0 0 1
-6.446380 14.564218 -19.529464 25.200639 -1.154099 2.457447 0.037787 -0.017770 245286.000000 0 0 1
-6.543780 13.462318 -18.567764 23.849883 -1.118346 2.463111 0.030824 -0.014804 -74536.500000 0 1 0
-5.377280 12.687018 -18.373964 22.966892 -1.169908 2.498124 0.024415 -0.009402 553471.000000 0 1 0
-4.373180 13.259018 -17.313564 22.241532 -1.252205 2.462963 0.016425 -0.000037 386883.000000 0 1 0
-3.862780 14.558318 -17.550064 23.127266 -1.311441 2.432338 0.026766 -0.010516 -600497.000000 0 1 0
-3.149480 15.023318 -16.459064 22.506001 -1.364149 2.391050 0.028344 -0.002589 -330092.000000 0 1 0
-2.603980 16.430118 -16.703164 23.573824 -1.413615 2.358233 0.051782 -0.004014 137898.000000 0 1 0
-3.559980 17.460718 -16.764464 24.466250 -1.369668 2.325685 0.058435 -0.016780 13348.200000 0 1 0
-2.838080 18.688418 -16.832364 25.310870 -1.420085 2.298324 0.069861 -0.016799 500703.000000 0 0 1
-3.690580 19.863118 -17.349664 26.630334 -1.387091 2.280356 0.084016 -0.016029 282916.000000 0 0 1
-3.629380 19.847518 -18.802864 27.579776 -1.389931 2.320966 0.085481 -0.017455 -482097.000000 0 0 1
-4.277380 20.951518 -19.333264 28.827716 -1.369408 2.305879 0.106111 -0.024598 -419372.000000 0 0 1
-3.482780 22.250518 -19.473764 29.773189 -1.415530 2.283749 0.103865 -0.035709 -1573880.000000 0 0 1
-2.563480 22.160118 -20.523564 30.312686 -1.455628 2.314559 0.119682 -0.026286 -534241.000000 0 0 1
-1.555480 23.140818 -20.336664 30.846343 -1.503679 2.290669 0.109133 -0.034321 -228292.000000 0 0 1
-0.357380 22.506218 -19.648064 29.878152 -1.554919 2.288433 0.125386 -0.031644 -1111840.000000 0 0 1
-0.722680 22.097518 -18.333364 28.721678 -1.538104 2.263098 0.109108 -0.019669 -546814.000000 0 0 1
0.411920 21.629718 -17.638164 27.912707 1.551754 2.254804 0.105785 -0.013658 173614.000000 0 0 1
0.390620 21.830318 -16.120564 27.140154 1.552905 2.206787 0.100748 -0.012097 342403.000000 0 0 1
-0.641780 21.126418 -15.420764 26.163665 -1.540428 2.201108 0.083246 -0.005363 151611.000000 0 0 1
-0.394480 21.044118 -14.031164 25.295930 -1.552053 2.158775 0.082024 -0.005020 284271.000000 0 0 1
-1.292780 20.020118 -13.295764 24.067691 -1.506312 2.156075 0.058979 -0.005760 320344.000000 0 1 0
-0.937280 18.708218 -13.602864 23.149813 -1.520738 2.198888 0.047632 -0.003409 132776.000000 0 1 0
-1.791880 17.838218 -12.857364 22.061837 -1.470680 2.192951 0.035531 -0.004037 298023.000000 0 1 0
-1.513780 16.353618 -12.997964 20.944675 -1.478494 2.240286 0.022118 -0.003134 64419.200000 0 1 0
-0.443780 15.982118 -12.092764 20.046446 -1.543036 2.218350 0.015963 -0.004525 786026.000000 0 1 0
-0.032680 14.589318 -12.041364 18.916758 -1.568556 2.260806 0.015181 -0.004909 503828.000000 0 1 0
0.751920 14.120118 -13.302564 19.413947 1.517595 2.325684 0.010744 0.000721 -685653.000000 0 1 0
-0.096180 13.964918 -14.338564 20.015559 -1.563909 2.369383 0.020403 -0.010377 -667194.000000 0 1 0
0.515020 13.083918 -15.237764 20.090884 1.531454 2.431715 0.018579 -0.008719 -456841.000000 0 1 0
-0.191080 12.769018 -16.526164 20.885364 -1.555833 2.483695 0.025671 -0.009034 -438434.000000 0 1 0
-0.149980 13.914718 -17.364264 22.252181 -1.560018 2.466005 0.028518 -0.015813 -115751.000000 0 1 0
-0.336680 13.582418 -18.719464 23.130365 -1.546013 2.513760 0.037649 -0.021427 -26106.500000 0 1 0
-0.978880 14.672918 -19.623764 24.522334 -1.504182 2.498492 0.051223 -0.013420 399887.000000 0 1 0
-0.119480 15.818718 -19.663764 25.237071 -1.563243 2.464124 0.057354 -0.022710 421740.000000 0 0 1
-0.890980 16.977918 -19.930964 26.197078 -1.518366 2.435355 0.093474 -0.032271 -112446.000000 0 0 1
-0.049680 18.176018 -20.295864 27.245040 -1.568063 2.411238 0.112679 -0.037608 -199355.000000 0 0 1
0.556720 18.003918 -21.538064 28.077379 1.539884 2.445100 0.126859 -0.052324 -180231.000000 0 0 1
1.446820 19.055518 -21.816564 29.002906 1.495015 2.422221 0.134002 -0.048381 -30422.400000 0 0 1
2.128620 19.081318 -23.169264 30.090572 1.459700 2.449613 0.139515 -0.061725 306229.000000 0 0 1
3.192420 18.131918 -23.321964 29.713162 1.396516 2.473337 0.114684 -0.055001 239921.000000 0 0 1
3.729020 18.256518 -24.603964 30.863588 1.369311 2.493413 0.123609 -0.064251 -118328.000000 0 0 1
4.701920 17.157618 -25.016874 30.697490 1.303320 2.523437 0.091035 -0.048788 -991094.000000 0 0 1
5.914120 17.162618 -24.305764 30.336487 1.238946 2.500104 0.079215 -0.040288 89838.200000 0 0 1
6.799620 16.093518 -24.670064 30.229923 1.171039 2.525393 0.066912 -0.032101 426924.000000 0 0 1
7.377620 16.064918 -26.100524 31.523773 1.140287 2.546262 0.067551 -0.039523 -1496740.000000 0 0 1
8.411620 16.989618 -26.314334 32.432186 1.111074 2.517280 0.052907 -0.034479 -34506.900000 0 0 1
8.646220 17.143418 -27.724294 33.723736 1.103678 2.535887 0.073109 -0.042754 67883.900000 0 0 1
9.302920 15.987318 -28.507574 33.982649 1.043797 2.566030 0.073742 -0.038046 28790.500000 0 0 1
10.679220 15.730618 -28.219524 34.027043 0.974385 2.548697 0.067700 -0.034121 561223.000000 0 0 1
11.160120 14.433618 -28.472844 33.816867 0.912610 2.571724 0.064517 -0.026407 -9011.810000 0 0 1
10.813520 13.522018 -27.228294 32.266968 0.896240 2.575204 0.059872 -0.026598 763979.000000 0 0 1
9.437320 13.100518 -27.287664 31.706517 0.946525 2.607307 0.067347 -0.026982 623660.000000 0 0 1
9.052520 12.533018 -26.014244 30.261619 0.945264 2.605370 0.053590 -0.022773 -639972.000000 0 0 1
7.667520 11.944318 -26.112154 29.720400 1.000109 2.643706 0.070473 -0.028303 212458.000000 0 0 1
6.616020 12.934618 -26.246974 29.999662 1.097993 2.636044 0.097183 -0.031495 926110.000000 0 0 1
5.304620 12.396018 -26.071654 29.351855 1.166447 2.664308 0.107935 -0.039483 156556.000000 0 0 1
4.180220 13.302518 -26.468904 29.917121 1.266325 2.656734 0.127063 -0.042934 -780259.000000 0 0 1
4.044920 13.298118 -27.881384 31.154019 1.275516 2.679122 0.130806 -0.050474 182219.000000 0 0 1
4.081020 14.601618 -28.485364 32.268839 1.298260 2.652483 0.144683 -0.059829 -40347.300000 0 0 1
3.932420 14.333118 -29.967524 33.450780 1.303026 2.681180 0.167408 -0.060127 -154723.000000 0 0 1
5.058720 13.666118 -30.508364 33.809965 1.216271 2.695984 0.154535 -0.052961 33191.200000 0 0 1
4.953620 13.257218 -31.836094 34.840050 1.213206 2.723287 0.155411 -0.056375 -1073980.000000 0 0 1
6.008420 12.278018 -32.326804 35.098050 1.115694 2.741546 0.157354 -0.047563 1263830.000000 0 0 1
7.402320 12.736418 -32.376014 35.569889 1.044320 2.714583 0.149093 -0.044174 2207570.000000 0 0 1
8.050520 12.927618 -31.055864 34.589028 1.013825 2.685665 0.122956 -0.035576 -246299.000000 0 0 1
8.187520 11.660718 -30.184434 33.378255 0.958632 2.700567 0.121082 -0.032362 -324217.000000 0 0 1
9.220520 10.769718 -30.547214 33.676952 0.862741 2.707058 0.087659 -0.024305 453.714000 0 0 1
9.057020 9.631518 -29.717414 32.525689 0.816129 2.722995 0.079082 -0.022162 324854.000000 0 0 1
10.094420 8.530018 -30.094724 32.868693 0.701598 2.727805 0.063086 -0.021658 272625.000000 0 0 1
11.295020 8.623718 -29.358904 32.617346 0.652084 2.690798 0.055592 -0.021511 -233140.000000 0 0 1
11.984420 7.387918 -29.534844 32.718721 0.552435 2.696776 0.046115 -0.016901 -367969.000000 0 0 1
13.109520 7.265018 -28.492824 32.194426 0.506046 2.657341 0.042950 -0.006016 164404.000000 0 0 1
13.898720 6.093118 -28.366484 32.170762 0.413161 2.650350 0.080957 -0.022027 282305.000000 0 0 1
14.924320 5.989718 -29.333834 33.452741 0.381661 2.640116 0.070543 -0.022554 -339041.000000 0 0 1
15.857520 4.754818 -29.202974 33.569077 0.291316 2.625870 0.086616 -0.029546 263773.000000 0 0 1
16.738320 4.855918 -28.083734 33.052192 0.282357 2.586171 0.076518 -0.035570 548308.000000 0 0 1
17.627420 3.746018 -28.100034 33.382189 0.209396 2.571345 0.072818 -0.030258 318721.000000 0 0 1
18.570120 3.609518 -26.855094 32.849263 0.191979 2.527897 0.070914 -0.029430 15889.500000 0 0 1
19.327120 4.750118 -26.587634 33.211496 0.240998 2.499017 0.089774 -0.033745 -27885.900000 0 0 1
19.794220 4.769518 -25.233494 32.423582 0.236448 2.462663 0.091821 -0.028680 -29599.300000 0 0 1
20.887120 5.841018 -25.059614 33.141719 0.272681 2.428183 0.078607 -0.022341 -230118.000000 0 0 1
20.413020 7.170618 -25.376844 33.348064 0.337812 2.435602 0.089606 -0.020104 593442.000000 0 0 1
21.394920 8.068918 -25.924594 34.567827 0.360647 2.418803 0.098643 -0.031702 -205683.000000 0 0 1
21.630120 7.909318 -27.456054 35.836494 0.350559 2.443622 0.097186 -0.032410 68030.900000 0 0 1
20.553120 8.248618 -28.315884 35.948014 0.381654 2.477846 0.088052 -0.018307 -155293.000000 0 0 1
19.497620 7.327618 -28.313654 35.149882 0.359490 2.507335 0.077609 -0.021153 -965689.000000 0 0 1
18.182920 7.999018 -28.695404 34.900274 0.414439 2.536082 0.081135 -0.012129 -721887.000000 0 0 1
18.008520 8.098618 -30.103834 36.001878 0.422613 2.561066 0.061293 -0.006652 -57590.600000 0 0 1
16.913420 8.927918 -30.370724 35.890840 0.485686 2.579604 0.032659 -0.003167 -264829.000000 0 0 1
16.424620 8.949418 -31.858984 36.943945 0.498902 2.610709 0.021808 -0.002012 -61618.300000 0 0 1
15.875220 7.736018 -32.186724 36.713129 0.453437 2.639773 0.044234 -0.003672 -17053.500000 0 0 1
14.749020 7.789018 -33.027204 36.999981 0.485877 2.673937 0.032571 0.002048 -22899.900000 0 0 1
14.027320 6.502818 -33.365854 36.774075 0.434091 2.707662 0.047470 0.003151 1247.440000 0 0 1
13.275920 5.942618 -32.297664 35.421799 0.420876 2.718447 0.057192 -0.013571 549710.000000 0 0 1
12.473320 4.818818 -32.723534 35.350169 0.368667 2.753670 0.066448 -0.017083 284719.000000 0 0 1
12.201520 3.720518 -31.715024 34.184238 0.295967 2.759181 0.080758 -0.021381 370322.000000 0 0 1
13.216220 2.728518 -31.436364 34.210500 0.203592 2.736104 0.099854 -0.028864 455661.000000 0 0 1
12.850320 1.825618 -30.436314 33.088258 0.141124 2.738500 0.104014 -0.030046 -648.827000 0 0 1
12.014520 0.565618 -30.872454 33.132719 0.047043 2.770086 0.099106 -0.020073 112276.000000 0 0 1
12.626820 -0.523682 -31.525344 33.964072 -0.041450 2.760333 0.082719 -0.017067 35314.200000 0 0 1
13.643120 -1.188082 -30.782614 33.691477 -0.086864 2.723000 0.082894 -0.019647 230642.000000 0 0 1
14.292520 -2.370282 -31.474904 34.649155 -0.164345 2.710211 0.085058 -0.019685 122865.000000 0 0 1
13.455520 -3.528382 -31.523014 34.455782 -0.256452 2.726015 0.084476 -0.016931 -101509.000000 0 0 1
14.140920 -4.601882 -31.982694 35.270890 -0.314621 2.706363 0.099323 -0.012456 -228886.000000 0 0 1
13.366620 -5.965182 -31.844774 35.047676 -0.419752 2.710747 0.088796 -0.018790 33166.400000 0 0 1
13.538420 -6.591382 -30.623044 34.124859 -0.453084 2.684597 0.083066 -0.008289 1810.220000 0 0 1
13.058620 -7.895582 -30.640554 34.230269 -0.543814 2.679520 0.069982 -0.019684 -142290.000000 0 0 1
13.168020 -8.582382 -29.256554 33.211444 -0.577611 2.648594 0.047406 -0.016363 271967.000000 0 0 1
14.507620 -8.755282 -28.791664 33.407872 -0.542986 2.609649 0.062302 -0.012107 526834.000000 0 0 1
14.562220 -9.483982 -27.572894 32.592463 -0.577270 2.579215 0.062418 -0.017200 -14106.900000 0 0 1
14.736220 -11.014882 -27.663604 33.222866 -0.641880 2.554704 0.051026 -0.016216 186686.000000 0 0 1
13.545920 -11.665582 -28.121384 33.322515 -0.710953 2.575337 0.028349 -0.019600 447606.000000 0 0 1
13.694920 -12.983582 -28.565504 34.236125 -0.758741 2.557780 0.032314 -0.023612 27981.800000 0 0 1
-10.134380 -2.878782 -17.529264 20.451605 0.276770 2.600428 0.032881 -0.005627 407841.000000 0 1 0
-10.859280 -2.608982 -18.734964 21.811227 0.235785 2.604031 0.045912 -0.004849 -5639.440000 0 1 0
-12.014080 -3.354682 -19.004564 22.732476 0.272294 2.560766 0.063723 -0.009990 -72488.000000 0 1 0
-12.744380 -2.928482 -20.315764 24.160412 0.225865 2.569685 0.074727 -0.020046 -5528.170000 0 1 0
-13.670280 -1.885982 -20.140164 24.414334 0.137097 2.540878 0.085534 -0.010892 448453.000000 0 1 0
-14.576580 -1.702682 -21.259764 25.833184 0.116282 2.537404 0.094136 -0.013110 527688.000000 0 0 1
-15.479380 -0.485582 -21.011564 26.102353 0.031359 2.506418 0.092864 -0.012611 214654.000000 0 0 1
-14.803580 0.805118 -21.154064 25.831930 -0.054333 2.530308 0.094494 -0.015131 348881.000000 0 0 1
-15.640480 1.914018 -20.844064 26.129736 -0.121770 2.494292 0.103933 -0.005557 -101938.000000 0 0 1
-15.185680 3.196018 -21.438864 26.465908 -0.207435 2.515044 0.123905 -0.023417 377372.000000 0 0 1
-13.935980 3.709818 -20.966364 25.447254 -0.260171 2.539081 0.118022 -0.026436 573698.000000 0 0 1
-13.527380 4.823218 -21.701264 26.023034 -0.342500 2.556979 0.123661 -0.033919 -76416.800000 0 0 1
-12.225380 5.371618 -21.068964 24.944247 -0.413989 2.576693 0.100218 -0.026674 -86572.800000 0 1 0
-12.407680 6.154218 -19.904564 24.249053 -0.460443 2.533674 0.105252 -0.027236 577448.000000 0 1 0
-11.175380 6.278918 -19.200764 23.086430 -0.511898 2.552942 0.077350 -0.017288 176419.000000 0 1 0
-11.251080 7.036418 -17.860064 22.250390 -0.558886 2.502581 0.078027 -0.017021 -323443.000000 0 1 0
-11.632380 8.368318 -17.875064 22.909800 -0.623627 2.465840 0.074216 -0.022376 215763.000000 0 1 0
-12.874080 8.368718 -17.183264 23.044347 -0.576406 2.412322 0.107828 -0.018524 92261.100000 0 1 0
-13.609780 9.753318 -17.164864 23.978863 -0.621807 2.368613 0.123067 -0.020987 43332.000000 0 1 0
-13.058580 10.734418 -16.264764 23.458406 -0.688024 2.336917 0.084578 -0.010722 124774.000000 0 1 0
-13.807180 11.919918 -16.294664 24.458919 -0.712172 2.299905 0.105097 -0.022708 122240.000000 0 1 0
-13.105980 13.172118 -15.598064 24.260482 -0.787915 2.269129 0.102587 -0.012666 125505.000000 0 1 0
-13.012080 13.033818 -14.161264 23.232220 -0.786233 2.226293 0.113427 -0.019320 -13833.700000 0 1 0
-12.610880 14.256518 -13.653864 23.424573 -0.846572 2.193073 0.099767 -0.016768 -1259070.000000 0 1 0
-12.983280 14.511218 -12.156064 22.954540 -0.840914 2.128891 0.078589 -0.016991 961503.000000 0 1 0
-14.313780 14.953518 -11.871764 23.862749 -0.807253 2.091513 0.064179 -0.015403 745089.000000 0 1 0
-15.401080 14.222418 -12.391864 24.352181 -0.745631 2.104657 0.069740 -0.010573 -37074.700000 0 1 0
-16.716680 14.299718 -11.520964 24.832679 -0.707630 2.053238 0.048060 -0.012649 967674.000000 0 1 0
-17.831380 13.608718 -12.067664 25.471235 -0.651889 2.064370 0.051795 -0.010683 -210198.000000 0 0 1
-18.955380 13.812018 -11.259364 26.016371 -0.629703 2.018371 0.101581 -0.018640 769815.000000 0 0 1
-20.317980 13.436718 -12.012264 27.159900 -0.584293 2.028935 0.084141 -0.028068 905185.000000 0 0 1
-20.546380 12.078418 -12.090364 26.724873 -0.531446 2.040252 0.096432 -0.028767 858525.000000 0 0 1
-21.874880 11.826218 -12.568664 27.862899 -0.495621 2.038782 0.119512 -0.028114 425059.000000 0 0 1
-22.431180 10.524818 -11.961764 27.513877 -0.438709 2.020561 0.107324 -0.023878 -110646.000000 0 0 1
-21.717780 9.343618 -12.300964 26.651058 -0.406291 2.050545 0.105618 -0.021114 613938.000000 0 0 1
-22.247880 8.315718 -11.458764 26.370866 -0.357697 2.020306 0.101523 -0.017720 24331.700000 0 0 1
-21.338280 7.072018 -11.425264 25.216508 -0.320031 2.041021 0.125423 -0.025261 -147812.000000 0 0 1
-21.122980 6.443118 -12.672464 25.461449 -0.296064 2.091755 0.125111 -0.025914 431827.000000 0 0 1
-19.952680 5.672718 -12.469364 24.202773 -0.277000 2.112042 0.130233 -0.030092 57824.200000 0 1 0
-19.808380 4.445718 -13.390064 24.319337 -0.220778 2.153871 0.137823 -0.043943 -30703.700000 0 1 0
-20.697180 3.379218 -13.043264 24.696540 -0.161842 2.127207 0.122889 -0.036514 479169.000000 0 1 0
-20.478880 2.149418 -13.697964 24.731331 -0.104575 2.157803 0.126917 -0.037852 -404562.000000 0 1 0
-21.568180 1.095618 -13.396864 25.413830 -0.050754 2.126038 0.131157 -0.035332 -63079.900000 0 0 1
-22.677780 1.136118 -14.275264 26.820806 -0.050056 2.132048 0.108073 -0.027386 348957.000000 0 0 1
-23.374780 -0.106782 -14.171464 27.335364 0.004568 2.115810 0.095736 -0.038151 248882.000000 0 0 1
-24.742680 -0.107982 -14.920564 28.893513 0.004364 2.113436 0.098292 -0.037446 154235.000000 0 0 1
-25.856120 0.325018 -14.196364 29.498836 -0.012570 2.072878 0.115807 -0.043090 -128711.000000 0 0 1
-27.065120 -0.061282 -14.783264 30.839413 0.002264 2.070725 0.099565 -0.026381 -33904.500000 0 0 1
-28.369980 0.373318 -14.089264 31.678107 -0.013158 2.031706 0.098775 -0.029486 -23879.500000 0 0 1
-28.616470 -0.318782 -12.865464 31.377128 0.011139 1.993280 0.107008 -0.033786 53287.300000 0 0 1
-29.961050 -0.145782 -12.480364 32.456821 0.004866 1.965486 0.135544 -0.046776 -13120.500000 0 0 1
-30.404590 -0.635382 -11.080264 32.366882 0.020895 1.920196 0.136754 -0.045445 -121963.000000 0 0 1
-30.535190 -2.019182 -10.809064 32.454750 0.066030 1.910333 0.135951 -0.045459 441062.000000 0 0 1
-29.332180 -2.731982 -10.988864 31.441941 0.092871 1.927831 0.133831 -0.048968 -273551.000000 0 0 1
-29.618750 -4.179182 -10.635864 31.746772 0.140174 1.912425 0.135727 -0.047260 -229357.000000 0 0 1
-30.617330 -4.719082 -11.472264 33.034883 0.152928 1.925462 0.120528 -0.045256 203339.000000 0 0 1
-31.125960 -5.911482 -10.891364 33.502131 0.187686 1.901908 0.139007 -0.046935 -20784.000000 0 0 1
-30.455820 -7.275582 -11.355864 33.308358 0.234495 1.918704 0.132309 -0.043302 606788.000000 0 0 1
-29.073270 -7.343082 -10.993964 31.938114 0.247398 1.922212 0.108632 -0.041887 451024.000000 0 0 1
-28.494850 -8.470682 -11.595764 31.908787 0.288951 1.942715 0.114215 -0.042846 -342668.000000 0 0 1
-27.024670 -8.664982 -11.192264 30.507072 0.310276 1.946443 0.104945 -0.053232 -1600690.000000 0 0 1
-26.159740 -7.732882 -11.765364 29.707798 0.287417 1.977992 0.073454 -0.038503 539897.000000 0 0 1
-24.809880 -7.892282 -11.313864 28.387000 0.307988 1.980740 0.103331 -0.040518 520397.000000 0 0 1
-24.522480 -7.673282 -9.814564 27.505580 0.303257 1.935659 0.118496 -0.043091 -1296200.000000 0 0 1
-24.674080 -6.365582 -9.306664 27.128303 0.252481 1.920970 0.108994 -0.037158 851282.000000 0 0 1
-25.994490 -5.833582 -9.207964 28.187422 0.220759 1.903574 0.122190 -0.044952 13370.200000 0 0 1
-25.975180 -4.440882 -8.598964 27.719552 0.169329 1.886213 0.123638 -0.043277 -334432.000000 0 0 1
-25.837970 -4.428082 -7.194764 27.184062 0.169730 1.838656 0.124809 -0.040539 473258.000000 0 0 1
-25.903970 -3.093582 -6.738364 26.944229 0.118862 1.823565 0.151703 -0.045040 -103587.000000 0 0 1
-25.648820 -3.045582 -5.239264 26.355026 0.118188 1.770925 0.139340 -0.038036 -386879.000000 0 0 1
-24.294080 -3.140482 -4.910764 24.983606 0.128557 1.768644 0.098735 -0.028640 -261435.000000 0 1 0
-24.038080 -2.929082 -3.543164 24.473717 0.121254 1.716081 0.068972 -0.024904 361721.000000 0 1 0
-22.580280 -3.229082 -3.060964 23.014463 0.142041 1.704193 0.058807 -0.018746 352359.000000 0 1 0
-22.385980 -4.664282 -3.079964 23.073227 0.205418 1.704682 0.073521 -0.018289 2262.550000 0 1 0
-21.161280 -5.082682 -2.582664 21.915829 0.235723 1.688915 0.051333 -0.015028 -1408850.000000 0 1 0
-21.148180 -6.604382 -2.517164 22.297970 0.302694 1.683925 0.059841 -0.014636 -340027.000000 0 1 0
-22.020680 -7.046982 -1.520364 23.170710 0.309718 1.636459 0.081799 -0.013011 590506.000000 0 1 0
-22.570180 -8.342282 -1.881664 24.136018 0.354041 1.648836 0.083941 -0.018007 28390.500000 0 1 0
-22.969280 -9.167182 -0.643364 24.739421 0.379736 1.596805 0.104864 -0.023963 64839.500000 0 1 0
-21.872280 -9.792982 0.003536 23.964539 0.420969 1.570649 0.079665 -0.012892 466246.000000 0 1 0
-22.291280 -10.568082 1.119236 24.694902 0.442706 1.525458 0.068571 -0.010255 -272376.000000 0 1 0
-21.164380 -11.259482 1.889136 24.047365 0.488920 1.492156 0.082418 -0.010887 -333588.000000 0 1 0
-20.535780 -12.286482 1.136736 23.957631 0.539166 1.523331 0.087271 -0.010786 1120950.000000 0 1 0
-19.297780 -12.577482 1.813036 23.105940 0.577610 1.492249 0.066755 -0.010382 915666.000000 0 1 0
-18.431380 -13.798182 1.335636 23.062730 0.642620 1.512851 0.054804 -0.005137 140873.000000 0 1 0
-19.230680 -14.977282 1.392836 24.414709 0.661694 1.513716 0.071046 -0.002414 655665.000000 0 1 0
-18.675280 -16.150982 0.750436 24.701892 0.713042 1.540412 0.069178 -0.008595 196939.000000 0 1 0
-17.436080 -16.802982 1.422836 24.256577 0.766910 1.512105 0.073683 -0.009490 -75374.400000 0 1 0
-16.276380 -15.980882 1.371136 22.851458 0.776238 1.510758 0.070396 -0.015769 148725.000000 0 1 0
-15.156980 -16.535782 2.049436 22.524793 0.828876 1.479685 0.074992 -0.025081 451447.000000 0 1 0
-15.271180 -16.509982 3.589236 22.774351 0.824358 1.412537 0.072624 -0.026812 -583057.000000 0 1 0
-15.003380 -15.211182 4.055536 21.746927 0.792276 1.383210 0.061193 -0.020958 206175.000000 0 1 0
-14.324580 -15.058882 5.341436 21.459134 0.810383 1.319240 0.050829 -0.017144 83484.600000 0 1 0
-15.109980 -15.352182 6.625636 22.536638 0.793349 1.272394 0.079117 -0.023149 -499727.000000 0 1 0
-16.132580 -14.440282 7.033336 22.765098 0.730102 1.256705 0.082429 -0.015689 672852.000000 0 1 0
-16.633480 -14.713882 8.370236 23.732506 0.724238 1.210351 0.098580 -0.012496 234616.000000 0 1 0
-17.469880 -15.999282 8.617936 25.207986 0.741488 1.221887 0.084149 -0.008798 -485512.000000 0 0 1
-16.653180 -17.172582 8.578536 25.412935 0.800752 1.226467 0.079079 -0.016785 232369.000000 0 0 1
-17.233680 -18.335482 9.171136 26.782445 0.816365 1.221293 0.080597 -0.019774 -120653.000000 0 0 1
-16.863980 -18.618982 10.659936 27.289092 0.834818 1.169481 0.090594 -0.016092 342542.000000 0 0 1
-15.527380 -19.099282 10.712336 26.844669 0.888189 1.160317 0.066174 -0.017061 128518.000000 0 0 1
-15.133780 -19.309782 12.022736 27.321148 0.906051 1.115139 0.066891 -0.019868 -612867.000000 0 0 1
-13.854680 -20.118082 12.183336 27.296942 0.967716 1.108141 0.063077 -0.013049 -174819.000000 0 0 1
-12.696180 -19.330182 11.956036 26.034510 0.989651 1.093659 0.073955 -0.017236 222511.000000 0 0 1
-11.511480 -20.120082 12.180436 26.185776 1.051115 1.086987 0.068785 -0.012913 1030460.000000 0 0 1
-10.259880 -19.235082 12.450136 25.104968 1.080792 1.051899 0.077120 -0.019960 53026.900000 0 0 1
-9.747380 -18.518982 11.431136 23.846068 1.086295 1.070857 0.070781 -0.024425 -604315.000000 0 1 0
-8.686080 -17.703882 11.845636 23.004228 1.114672 1.029867 0.065059 -0.025400 209766.000000 0 1 0
-7.790680 -17.096982 10.706936 21.624985 1.143232 1.052825 0.041249 -0.023026 379041.000000 0 1 0
-6.792480 -18.009782 10.290736 21.826344 1.210138 1.079825 0.042858 -0.017481 -224380.000000 0 1 0
-6.035680 -17.413282 9.270636 20.629991 1.237142 1.104729 0.036917 -0.010387 110932.000000 0 1 0
-4.906280 -18.189282 8.560036 20.692892 1.307332 1.144314 0.027574 -0.011581 1127890.000000 0 1 0
-3.621880 -18.218482 9.192436 20.725153 1.374552 1.111252 0.033793 -0.014150 1167130.000000 0 1 0
-2.531580 -18.701682 8.390236 20.653277 1.436248 1.152458 0.037984 -0.019986 440296.000000 0 1 0
-1.229380 -18.965082 9.119036 21.079434 1.506064 1.123418 0.041516 -0.024059 -133847.000000 0 1 0
-0.287180 -19.654882 8.308136 21.340618 1.556186 1.170913 0.051470 -0.016305 -262550.000000 0 1 0
0.933720 -19.862682 8.976136 21.816713 -1.523822 1.146770 0.060392 -0.024014 -162163.000000 0 1 0
2.068420 -20.376682 8.087136 22.020202 -1.469634 1.194735 0.067449 -0.035733 -148408.000000 0 1 0
2.113920 -21.772882 7.751736 23.208112 -1.474010 1.230242 0.072875 -0.032197 -297839.000000 0 1 0
2.311220 -22.675982 8.825736 24.442494 -1.469223 1.201369 0.069276 -0.033907 -120928.000000 0 1 0
2.132620 -24.141382 8.393836 25.647824 -1.482686 1.237380 0.072345 -0.031835 -66163.700000 0 0 1
2.161220 -25.052182 9.440036 26.858834 -1.484741 1.211657 0.066100 -0.029528 -122061.000000 0 0 1
1.725720 -26.333092 8.995536 27.880630 -1.505356 1.242274 0.079212 -0.027964 -699926.000000 0 0 1
1.770920 -27.440302 10.046336 29.275163 -1.506349 1.220507 0.063475 -0.028222 71307.500000 0 0 1
0.979520 -27.387772 11.220936 29.613492 -1.535047 1.182175 0.049121 -0.031560 -337162.000000 0 0 1
-0.403680 -27.467012 10.931536 29.565151 1.556100 1.192063 0.047155 -0.028336 -646065.000000 0 0 1
-1.233280 -27.574982 12.176436 30.168961 1.526102 1.155339 0.046894 -0.032179 -463892.000000 0 0 1
-0.907280 -28.724722 12.894336 31.499154 1.539221 1.149049 0.042308 -0.031890 -233024.000000 0 0 1
-1.100280 -28.510252 14.240436 31.887852 1.532223 1.107858 0.047130 -0.033467 -444216.000000 0 0 1
-0.667580 -29.749032 15.060336 33.350626 1.548360 1.102266 0.040685 -0.020167 153346.000000 0 0 1
-0.854880 -29.350422 16.378136 33.621740 1.541678 1.061997 0.045600 -0.019401 -141992.000000 0 0 1
-0.464580 -30.296062 17.317136 34.899146 1.555463 1.051574 0.042505 -0.012087 -120140.000000 0 0 1
-0.883480 -29.896992 18.718836 35.284635 1.541254 1.011595 0.042573 -0.013437 -667673.000000 0 0 1
-2.256480 -29.955162 18.899136 35.490573 1.495610 1.009231 0.038837 -0.011316 -844380.000000 0 0 1
-2.614880 -29.674332 20.207136 35.996276 1.482904 0.974759 0.056037 -0.019320 -417084.000000 0 0 1
-4.092280 -29.817552 20.604536 36.474375 1.434404 0.970479 0.081633 -0.026841 -673057.000000 0 0 1
-4.813980 -28.814102 19.971836 35.387867 1.405255 0.971127 0.075767 -0.032247 -279812.000000 0 0 1
-6.136080 -28.625652 20.435536 35.702809 1.359636 0.961392 0.073039 -0.032713 275407.000000 0 0 1
-6.263880 -27.618342 21.625536 35.632468 1.347768 0.918635 0.095461 -0.034428 -354954.000000 0 0 1
-5.650480 -28.118302 22.821736 36.652400 1.372484 0.898667 0.088602 -0.030479 14615.900000 0 0 1
-5.432280 -27.067622 23.757036 36.422007 1.372735 0.860219 0.098461 -0.030527 -275538.000000 0 0 1
-4.261780 -27.454982 24.677736 37.160859 1.416797 0.844535 0.101212 -0.023110 -134074.000000 0 0 1
-4.543880 -28.537002 25.520836 38.552826 1.412894 0.847352 0.102503 -0.024895 222959.000000 0 0 1
-3.916480 -29.759532 25.071036 39.109147 1.439944 0.874927 0.089396 -0.024503 125149.000000 0 0 1
-4.093480 -30.992572 25.991936 40.655588 1.439477 0.877183 0.085698 -0.016325 -10463.700000 0 0 1
-3.445780 -30.874012 27.242636 41.318751 1.459649 0.850871 0.102172 -0.019773 169287.000000 0 0 1
-3.752480 -32.031792 28.021036 42.723474 1.454179 0.855462 0.097654 -0.030617 -283964.000000 0 0 1
-3.174080 -32.000462 29.454136 43.607917 1.471931 0.829247 0.126857 -0.028828 -230820.000000 0 0 1
-1.766380 -31.948022 29.435936 43.477241 1.515563 0.827060 0.112241 -0.025428 89988.100000 0 0 1
-1.181880 -31.688722 30.709436 44.143418 1.533517 0.801438 0.115429 -0.031110 -10270.000000 0 0 1
-28.803670 2.820718 -9.457164 30.447427 -0.097618 1.886627 0.139168 -0.037833 -262787.000000 0 0 1
-29.778450 2.401918 -10.372864 31.624699 -0.080485 1.904981 0.127718 -0.043397 -342395.000000 0 0 1
-30.220890 3.558018 -10.977364 32.349099 -0.117194 1.917012 0.120068 -0.048147 -478396.000000 0 0 1
-30.948370 3.359618 -12.304664 33.473772 -0.108132 1.947214 0.113342 -0.045968 -630854.000000 0 0 1
-32.169130 2.743618 -12.024564 34.452438 -0.085081 1.927321 0.130789 -0.047030 -163626.000000 0 0 1
-32.951680 2.679618 -13.224164 35.607191 -0.081141 1.951302 0.115562 -0.041216 145015.000000 0 0 1
-34.318756 1.980318 -13.051064 36.769946 -0.057640 1.933644 0.122127 -0.042097 53682.900000 0 0 1
-34.163582 0.655718 -12.755264 36.472963 -0.019191 1.928067 0.132783 -0.045192 607308.000000 0 0 1
-35.421303 -0.007482 -12.731264 37.639791 0.000211 1.915842 0.129138 -0.046475 439787.000000 0 0 1
-35.171656 -1.418682 -12.225464 37.262850 0.040314 1.905074 0.133713 -0.053808 -143199.000000 0 0 1
-34.338392 -2.101582 -13.104664 36.814047 0.061126 1.934747 0.121197 -0.048066 -111616.000000 0 0 1
-33.938930 -3.333482 -12.589264 36.351790 0.097906 1.924439 0.126589 -0.052053 -138417.000000 0 0 1
-34.509797 -4.647782 -13.227664 37.249148 0.133875 1.933831 0.125246 -0.037887 -151396.000000 0 0 1
-34.229276 -5.904382 -12.625364 36.958150 0.170814 1.919428 0.117927 -0.040573 170292.000000 0 0 1
-34.822907 -6.941282 -13.362164 37.938947 0.196752 1.930719 0.117028 -0.036336 -515089.000000 0 0 1
-34.485334 -8.292282 -12.716164 37.678920 0.235978 1.915043 0.113735 -0.036230 1635530.000000 0 0 1
-33.123990 -8.849482 -12.663364 36.549594 0.261065 1.924602 0.105782 -0.031148 2131400.000000 0 0 1
-32.467590 -9.039582 -13.937864 36.470844 0.271542 1.962934 0.103216 -0.026451 -367256.000000 0 0 1
-31.298650 -10.030782 -13.777364 35.637590 0.310144 1.967735 0.089794 -0.028509 -474980.000000 0 0 1
-31.668720 -11.370482 -13.567864 36.280609 0.344710 1.954082 0.083336 -0.027392 -413461.000000 0 0 1
-30.607250 -12.262382 -13.426264 35.601044 0.381055 1.957493 0.094970 -0.027736 -742099.000000 0 0 1
-30.980290 -13.709582 -13.664664 36.530180 0.416621 1.954185 0.095552 -0.019153 -336052.000000 0 0 1
-31.200450 -13.851982 -15.082664 37.320668 0.417826 1.986832 0.087974 -0.024306 28024.500000 0 0 1
-31.240100 -15.211982 -15.586764 38.082745 0.453143 1.992469 0.082751 -0.020115 -784342.000000 0 0 1
-30.055030 -16.132982 -15.394864 37.424321 0.492638 1.994742 0.066743 -0.011220 -669228.000000 0 0 1
-28.915730 -15.672982 -16.058764 36.601171 0.496698 2.025004 0.080299 -0.021459 -1556530.000000 0 0 1
-27.784220 -16.386082 -15.801564 35.918741 0.532858 2.026312 0.090869 -0.031167 -375034.000000 0 0 1
-26.463760 -15.686182 -16.235764 34.784866 0.535066 2.056406 0.097860 -0.035319 349695.000000 0 0 1
-26.433300 -15.542282 -17.631664 35.371704 0.531535 2.092627 0.088739 -0.039563 196632.000000 0 0 1
-25.116420 -15.339682 -18.124664 34.563620 0.548281 2.122790 0.057878 -0.034335 94701.500000 0 0 1
-25.135100 -15.001482 -19.602064 35.228662 0.538088 2.160872 0.056817 -0.025640 -49009.500000 0 0 1
-25.587470 -15.939882 -20.503864 36.458290 0.557129 2.168073 0.067212 -0.026904 704923.000000 0 0 1
-27.007680 -16.097582 -20.603864 37.590772 0.537501 2.150899 0.090328 -0.034660 526825.000000 0 0 1
-27.460070 -17.433882 -21.306464 38.883944 0.565673 2.150708 0.090541 -0.035953 71060.400000 0 0 1
-26.994080 -17.339982 -22.683064 39.292197 0.570987 2.186204 0.090563 -0.024337 97399.600000 0 0 1
-27.503170 -18.340882 -23.528264 40.575750 0.588139 2.189353 0.091218 -0.017355 -271768.000000 0 0 1
-26.649760 -18.494382 -24.793664 40.828638 0.606674 2.223406 0.094100 -0.015116 507992.000000 0 0 1
-25.373230 -19.120082 -24.645764 40.209352 0.645771 2.230568 0.086749 -0.019901 398119.000000 0 0 1
-25.385170 -20.550682 -24.416564 40.778744 0.680540 2.212745 0.080809 -0.019425 401571.000000 0 0 1
-23.908780 -20.991082 -24.092764 39.908853 0.720507 2.218924 0.079012 -0.010786 1108550.000000 0 0 1
-23.091780 -20.824082 -25.241624 40.050122 0.733807 2.252673 0.077017 -0.014507 -893177.000000 0 0 1
-21.840180 -21.408882 -25.136254 39.587434 0.775426 2.258747 0.074050 -0.015399 -549224.000000 0 0 1
-21.191080 -21.293582 -26.558124 40.097537 0.787811 2.294732 0.075298 -0.017294 -190209.000000 0 0 1
-21.709880 -22.161982 -27.567694 41.502411 0.795703 2.297277 0.117587 -0.008374 20198.600000 0 0 1
-21.766280 -21.527982 -28.840734 42.059635 0.779894 2.326376 0.102090 -0.014703 -1074240.000000 0 0 1
-20.639380 -21.736882 -29.779044 42.252426 0.811291 2.352922 0.110444 -0.018393 -844663.000000 0 0 1
-20.649880 -22.980082 -30.451424 43.379614 0.838756 2.348964 0.120805 -0.011301 45037.100000 0 0 1
-19.622580 -23.078082 -31.424584 43.648001 0.866146 2.374533 0.118528 -0.021410 62356.400000 0 0 1
-19.510080 -24.540182 -32.072234 44.849659 0.899096 2.367571 0.123987 -0.017770 1540.190000 0 0 1
-18.776080 -24.694882 -33.281494 45.497651 0.920721 2.391314 0.123415 -0.020505 84800.000000 0 0 1
-19.523780 -24.446882 33.543657 45.869433 0.896897 0.750591 0.111195 -0.008707 -85249.200000 0 0 1
-18.729080 -24.639682 32.233527 44.686604 0.920851 0.765084 0.106728 -0.007299 -259767.000000 0 0 1
-17.804380 -23.590082 32.073337 43.614067 0.924268 0.744555 0.096243 -0.014869 -353027.000000 0 0 1
-17.259980 -23.631882 30.756816 42.454145 0.939978 0.760529 0.086103 -0.014602 430390.000000 0 0 1
-16.406380 -22.380182 30.366366 41.135848 0.938215 0.740402 0.067132 -0.011062 694028.000000 0 0 1
-17.271780 -21.221982 30.223656 40.769551 0.887659 0.735748 0.071983 -0.016256 578443.000000 0 0 1
-16.636380 -19.992882 29.957016 39.672500 0.876777 0.714978 0.072743 -0.018641 -160130.000000 0 0 1
-15.831480 -19.386882 31.133326 39.947101 0.886010 0.677146 0.082617 -0.023478 133629.000000 0 0 1
-15.330680 -18.095982 30.826636 38.894418 0.867938 0.655781 0.083876 -0.023561 -22433.300000 0 0 1
-14.784780 -17.411982 31.953816 39.278660 0.866816 0.620624 0.093772 -0.022638 44932.300000 0 0 1
-14.321380 -16.023882 31.651346 38.257998 0.841444 0.596489 0.098949 -0.026062 -359414.000000 0 0 1
-13.054380 -15.958782 31.040196 37.263834 0.885172 0.586316 0.100574 -0.031940 -134538.000000 0 0 1
-12.755380 -14.611582 30.675066 36.292667 0.853121 0.563831 0.093491 -0.037172 -83473.200000 0 0 1
-11.230980 -14.501982 30.501696 35.592075 0.911833 0.541416 0.104064 -0.041503 -26726.200000 0 0 1
-10.818180 -13.243682 29.945106 34.483873 0.885862 0.518870 0.103652 -0.034315 -544158.000000 0 0 1
-9.478580 -13.054282 30.300896 34.327861 0.942774 0.489238 0.101207 -0.033949 -201822.000000 0 0 1
-9.019380 -11.596382 30.142276 33.531807 0.909755 0.453507 0.099309 -0.032093 -215626.000000 0 0 1
-9.730780 -10.794882 31.085306 34.314921 0.837194 0.437336 0.099471 -0.030640 328435.000000 0 0 1
-9.493380 -9.418682 30.873866 33.645674 0.781448 0.408752 0.081963 -0.024866 11207.100000 0 0 1
-10.195280 -8.588782 31.988206 34.654815 0.700081 0.394855 0.065504 -0.026874 -146357.000000 0 0 1
-11.556480 -8.377182 31.735016 34.797135 0.627236 0.422661 0.064715 -0.029180 -80531.600000 0 0 1
-12.354180 -7.835582 32.789634 35.905183 0.565220 0.419658 0.052713 -0.033960 104651.000000 0 0 1
-12.220280 -6.374682 33.253059 35.996357 0.480815 0.392934 0.035552 -0.021513 -406009.000000 0 0 1
-12.260480 -5.521782 32.144606 34.843724 0.423164 0.396194 0.037059 -0.025976 361240.000000 0 0 1
-12.566480 -4.202182 32.545459 35.139460 0.322707 0.386644 0.032213 -0.023315 -435942.000000 0 0 1
-12.148380 -3.008482 31.640526 34.025828 0.242761 0.376663 0.029846 -0.014467 -112723.000000 0 0 1
-10.749380 -2.822782 31.602806 33.500068 0.256801 0.338164 0.035741 -0.017534 53631.900000 0 0 1
-10.383480 -1.626282 30.944236 32.680379 0.155360 0.327421 0.024885 -0.016977 1009110.000000 0 0 1
-8.881580 -1.122182 30.989686 32.256819 0.125683 0.281221 0.038954 -0.012145 1228310.000000 0 0 1
-8.494080 -0.744782 32.312204 33.418297 0.087459 0.258003 0.036717 -0.022974 999914.000000 0 0 1
-7.082180 -0.468282 32.420196 33.188035 0.066025 0.215526 0.049460 -0.023356 1021380.000000 0 0 1
-6.850180 0.287818 33.742779 34.432295 -0.041991 0.200462 0.081661 -0.034900 -315433.000000 0 0 1
-7.430080 1.579618 33.911332 34.751686 -0.209479 0.220362 0.073331 -0.035684 -54294.500000 0 0 1
-6.890380 2.623618 33.087224 33.898748 -0.363816 0.219252 0.088516 -0.029299 -355784.000000 0 0 1
-7.607380 3.958618 33.074842 34.168524 -0.479807 0.253696 0.099413 -0.031193 33471.100000 0 0 1
-8.897380 3.903218 32.496400 33.917760 -0.413411 0.290524 0.066097 -0.020500 -59070.500000 0 0 1
-9.708980 4.947318 32.937937 34.693630 -0.471267 0.319494 0.048671 -0.010966 -15628.000000 0 0 1
-11.014180 5.003818 32.104276 34.307942 -0.426430 0.360365 0.029683 -0.004049 -60387.800000 0 0 1
-11.955780 5.939918 32.548877 35.180288 -0.461104 0.389228 0.043288 -0.006523 22019.400000 0 0 1
-13.174980 5.746418 31.847436 34.940815 -0.411286 0.423958 0.019366 -0.006152 625336.000000 0 0 1
-14.103780 7.034918 31.842506 35.529591 -0.462684 0.459611 0.041932 -0.013619 270577.000000 0 0 1
-14.579780 7.509018 33.086824 36.928218 -0.475599 0.460171 0.041138 -0.017719 142051.000000 0 0 1
-15.238780 8.751918 32.979428 37.369227 -0.521322 0.489583 0.047832 -0.005829 -304815.000000 0 0 1
-16.195080 9.095118 -33.914524 38.667774 -0.511704 2.640534 0.046266 0.008131 -500211.000000 0 0 1
-15.588680 9.483718 -32.739814 37.481239 -0.546553 2.633140 0.040296 0.003160 -742872.000000 0 0 1
-16.485380 9.965418 -31.793784 37.174212 -0.543722 2.596857 0.060725 -0.003788 -1325160.000000 0 0 1
-15.859980 10.416918 -30.433174 35.864038 -0.581144 2.584074 0.086330 -0.013282 978019.000000 0 0 1
-14.905980 11.549718 -30.444594 35.811416 -0.659209 2.587041 0.067839 -0.014022 1466520.000000 0 0 1
-13.629480 11.126618 -30.981814 35.629162 -0.684640 2.625114 0.067610 -0.021790 -285978.000000 0 0 1
-12.651780 12.251818 -30.970814 35.628162 -0.769339 2.624538 0.069572 -0.022102 -606631.000000 0 0 1
-13.009180 13.180718 -31.979354 36.954691 -0.791948 2.616678 0.064267 -0.024279 473471.000000 0 0 1
-12.066580 14.260418 -32.066814 37.111217 -0.868536 2.614103 0.063125 -0.031636 269167.000000 0 0 1
-12.285780 15.464518 -31.101964 36.843234 -0.899449 2.575812 0.070251 -0.026899 -764336.000000 0 0 1
-13.444680 16.124618 -31.445204 37.809570 -0.875784 2.552910 0.060370 -0.027060 -636754.000000 0 0 1
-13.657980 17.042018 -30.380334 37.415712 -0.895184 2.518311 0.037782 -0.015104 307460.000000 0 0 1
-15.026480 17.801918 -30.346904 38.257522 -0.869741 2.486887 0.023790 -0.020309 178056.000000 0 0 1
-15.200080 18.593118 -31.495534 39.607009 -0.885469 2.490135 0.025027 -0.027004 318833.000000 0 0 1
-16.477380 19.202818 -31.685804 40.549260 -0.861635 2.467727 0.024505 -0.023438 487455.000000 0 0 1
-16.938280 20.356418 -30.724734 40.562278 -0.876795 2.430226 0.021038 -0.038758 -423165.000000 0 0 1
-16.353580 21.604518 -31.011604 41.181481 -0.922861 2.423478 0.028646 -0.032317 297890.000000 0 0 1
-16.920280 22.735418 -30.293384 41.483542 -0.931001 2.389485 0.022532 -0.032488 873129.000000 0 0 1
-18.317880 23.298718 -30.768134 42.720640 -0.904515 2.374911 0.032060 -0.033902 951196.000000 0 0 1
-19.373480 22.391518 -30.492804 42.503211 -0.857535 2.370893 0.036842 -0.034184 1308910.000000 0 0 1
-20.510880 22.531318 -31.405214 43.756645 -0.832305 2.371325 0.059454 -0.033279 1400950.000000 0 0 1
-21.878880 21.868918 -31.047134 43.827611 -0.785170 2.358014 0.073728 -0.045437 1074830.000000 0 0 1
-22.783280 22.695518 -30.207664 44.121053 -0.783468 2.324925 0.091843 -0.036965 1004820.000000 0 0 1
-23.723680 23.509118 -30.851304 45.467511 -0.780856 2.316563 0.100088 -0.030466 896744.000000 0 0 1
-24.985780 22.729318 -31.489874 46.179251 -0.738143 2.321161 0.095470 -0.035869 456659.000000 0 0 1
-24.726380 21.836918 -32.563684 46.353407 -0.723423 2.349713 0.119932 -0.039029 -66256.100000 0 0 1
-25.953110 21.345218 -33.056314 47.137057 -0.688283 2.347989 0.122603 -0.035228 -9964.920000 0 0 1
-25.843100 20.209718 33.922549 47.191502 -0.663678 0.768682 0.129385 -0.032578 -59344.300000 0 0 1
-25.316310 19.008318 -33.580584 46.150702 -0.644034 2.385655 0.127792 -0.037882 205864.000000 0 0 1
-25.213940 18.118018 33.368687 45.579322 -0.623082 0.749395 0.115697 -0.044887 -110479.000000 0 0 1
-24.813980 16.672518 33.812303 45.132896 -0.591617 0.723985 0.085435 -0.036564 -391292.000000 0 0 1
-25.924170 15.877918 -33.900384 45.534678 -0.549542 2.410576 0.079018 -0.023972 153591.000000 0 0 1
-26.368900 15.179518 32.968156 44.862411 -0.522330 0.745318 0.093808 -0.028332 -586543.000000 0 0 1
-27.139250 13.850218 33.178277 45.046259 -0.471885 0.742859 0.058095 -0.019880 315884.000000 0 0 1
-28.494490 14.208418 33.516491 46.229539 -0.462557 0.759760 0.061369 -0.018821 712520.000000 0 0 1
-29.346380 13.035518 33.362665 46.305530 -0.418016 0.766288 0.055640 -0.010518 239932.000000 0 0 1
-29.301380 11.826118 -33.690464 46.189558 -0.383608 2.388234 0.046918 -0.012903 -712975.000000 0 0 1
-28.090950 11.135918 -33.825164 45.356938 -0.377420 2.412464 0.049185 -0.021952 -352966.000000 0 0 1
-28.369500 9.730618 -33.799674 45.187735 -0.330421 2.415815 0.051492 -0.013192 -139228.000000 0 0 1
-27.126110 8.784718 -33.704714 44.147535 -0.313189 2.439444 0.043806 -0.019005 767862.000000 0 0 1
-26.255910 8.672018 33.176719 43.188787 -0.319007 0.694804 0.036783 -0.015918 749033.000000 0 0 1
-25.390190 9.798818 33.044142 42.808806 -0.368318 0.688971 0.026033 -0.016074 -125245.000000 0 0 1
-24.068480 9.595218 32.240888 41.362238 -0.379353 0.676967 0.032408 -0.007332 133534.000000 0 0 1
-24.198480 9.373618 30.844046 40.308638 -0.369566 0.699449 0.030483 -0.009508 562669.000000 0 0 1
-22.949680 9.056618 30.207846 39.002873 -0.375868 0.684867 0.034221 -0.008564 716755.000000 0 0 1
-23.038480 8.864818 28.646216 37.814841 -0.367320 0.711262 0.047603 -0.018479 43718.500000 0 0 1
-23.462880 10.093118 28.043386 37.931639 -0.406245 0.738746 0.042251 -0.013877 260950.000000 0 0 1
-23.336880 10.024218 26.636916 36.805165 -0.405713 0.761607 0.042747 -0.022860 -923799.000000 0 0 1
-23.508780 11.434118 25.998906 36.869294 -0.452690 0.788142 0.053785 -0.023908 -79604.000000 0 0 1
-24.774980 11.994718 26.207406 38.006591 -0.450885 0.809930 0.067554 -0.022189 244543.000000 0 0 1
-25.809120 11.375618 25.407646 37.961346 -0.415143 0.837526 0.067556 -0.020492 758798.000000 0 0 1
-27.274890 11.850418 25.724536 39.320526 -0.409874 0.857637 0.077193 -0.013672 821258.000000 0 0 1
-27.485330 13.229118 25.378286 39.680100 -0.448589 0.876855 0.074646 -0.012354 155292.000000 0 0 1
-28.793950 13.756918 25.551236 40.880435 -0.445707 0.895635 0.078598 -0.016679 422047.000000 0 0 1
-28.894710 15.274818 25.106396 41.213534 -0.486294 0.915772 0.084197 -0.017224 55325.100000 0 0 1
-28.282640 16.205118 25.970206 41.676914 -0.520308 0.898056 0.082962 -0.015183 -244738.000000 0 0 1
-27.833480 17.339418 25.292996 41.413689 -0.557138 0.913802 0.059720 -0.012595 -262755.000000 0 0 1
-23.285680 -9.062482 31.820296 40.458407 0.371150 0.665685 0.035024 -0.009400 -698950.000000 0 0 1
-22.433880 -8.683382 30.802856 39.083193 0.369307 0.663022 0.036232 -0.019115 -506544.000000 0 0 1
-22.703180 -9.208582 29.545396 38.381802 0.385331 0.692306 0.038927 -0.012800 -126370.000000 0 0 1
-21.644580 -8.895482 28.442166 36.831701 0.389936 0.688469 0.061765 -0.023438 -491199.000000 0 0 1
-21.348280 -7.534382 28.446446 36.355415 0.339280 0.672199 0.066968 -0.025126 737260.000000 0 0 1
-20.138280 -7.111682 29.141696 36.129832 0.339472 0.632448 0.057909 -0.023834 926408.000000 0 0 1
-18.833480 -7.429082 28.332386 34.822626 0.375723 0.620445 0.068496 -0.021783 -437053.000000 0 0 1
-18.416980 -8.821082 28.260466 34.866181 0.446678 0.625721 0.062106 -0.028059 95484.500000 0 0 1
-17.995480 -9.390382 29.488886 35.799594 0.480950 0.602853 0.069427 -0.030778 -108123.000000 0 0 1
-16.626480 -8.895082 30.104036 35.522039 0.491250 0.559586 0.077056 -0.031645 581614.000000 0 0 1
-15.545080 -9.562682 29.433516 34.632734 0.551491 0.555047 0.069179 -0.029811 -128185.000000 0 0 1
-14.311880 -9.078482 29.931486 34.396840 0.565282 0.515226 0.064526 -0.033377 454437.000000 0 0 1
-13.136480 -9.977282 29.409356 33.719778 0.649559 0.511177 0.076225 -0.035809 174171.000000 0 0 1
-12.765380 -9.804882 28.059306 32.348343 0.654975 0.520821 0.067860 -0.031494 151528.000000 0 0 1
-11.578280 -10.584882 27.880796 31.991172 0.740606 0.512512 0.088228 -0.034000 420841.000000 0 0 1
-10.880280 -10.411282 26.485796 30.467567 0.763374 0.516989 0.076167 -0.032459 105677.000000 0 0 1
-11.729280 -10.869682 25.468696 30.072919 0.747379 0.560672 0.064620 -0.031028 -271959.000000 0 0 1
-11.126880 -10.779082 24.222986 28.753245 0.769523 0.568994 0.048060 -0.024634 -691143.000000 0 0 1
-12.077980 -10.930282 23.075776 28.246063 0.735557 0.614684 0.043133 -0.027501 -1217780.000000 0 0 1
-12.446880 -12.282382 22.876216 28.794148 0.778746 0.652655 0.048984 -0.024273 -365722.000000 0 0 1
-13.653580 -12.457482 22.203216 28.889304 0.739622 0.694206 0.041064 -0.017358 -1140540.000000 0 0 1
-14.865080 -12.336582 23.098636 30.111606 0.692711 0.696487 0.042846 -0.017976 -1082990.000000 0 0 1
-16.024180 -12.855182 22.424416 30.411913 0.676103 0.741648 0.025525 -0.004958 387975.000000 0 0 1
-17.123280 -12.728882 23.292836 31.587772 0.639242 0.741583 0.023948 -0.002704 -183767.000000 0 0 1
-18.448780 -13.433182 22.951916 32.366623 0.629359 0.782543 0.059926 -0.011664 -118429.000000 0 0 1
-18.324480 -14.826182 23.035256 32.957931 0.680260 0.796897 0.044316 -0.009296 878037.000000 0 0 1
-19.574280 -15.522482 22.838616 33.848224 0.670461 0.830189 0.062998 -0.011163 822177.000000 0 0 1
-20.510880 -15.692482 24.069786 35.303042 0.653083 0.820569 0.059103 -0.011064 -405189.000000 0 0 1
-19.954780 -16.500782 25.085606 36.052138 0.690935 0.801243 0.062036 -0.005008 -81669.200000 0 0 1
-20.864580 -16.586782 26.143676 37.335557 0.671668 0.795069 0.054784 -0.009554 68386.500000 0 0 1
-20.291280 -17.482482 27.341756 38.274598 0.711176 0.775090 0.058236 -0.011176 141391.000000 0 0 1
-20.403180 -18.873182 27.076836 38.802600 0.746463 0.798461 0.072295 -0.005193 164651.000000 0 0 1
-20.143280 -19.695282 28.197686 39.859319 0.774153 0.784941 0.065922 -0.011873 -330366.000000 0 0 1
-20.230480 -21.196182 27.945226 40.490568 0.808705 0.809077 0.072648 -0.007009 -110630.000000 0 0 1
-21.514580 -21.764982 27.847406 41.377163 0.791184 0.832520 0.080238 -0.006719 -164557.000000 0 0 1
-21.423580 -23.180182 27.702736 41.996811 0.824760 0.850458 0.098692 -0.000080 -633979.000000 0 0 1
-22.695880 -23.818082 27.214076 42.696720 0.809520 0.879702 0.100720 -0.000903 -870929.000000 0 0 1
-23.743080 -23.859782 28.146506 43.877657 0.787850 0.874374 0.096484 -0.003173 -841443.000000 0 0 1
-24.848880 -24.407882 27.529676 44.397011 0.776445 0.901952 0.082370 0.000135 -774006.000000 0 0 1
-25.622300 -25.369412 28.447126 45.927642 0.780439 0.902831 0.054492 0.000283 -405129.000000 0 0 1
-26.295460 -24.760882 29.511166 46.641842 0.755351 0.885737 0.041025 0.000954 40709.300000 0 0 1
-26.878810 -25.766052 30.330456 48.023915 0.764264 0.887220 0.031152 0.006776 27913.500000 0 0 1
-28.046840 -25.223692 31.179086 48.938689 0.732451 0.880060 0.025688 0.001984 -588579.000000 0 0 1
-29.129830 -24.796482 30.438686 48.886870 0.705214 0.898691 0.030758 -0.000416 -248248.000000 0 0 1
-29.915780 -23.805982 31.139216 49.308513 0.672154 0.887287 0.038665 -0.011758 -109536.000000 0 0 1
-31.193070 -23.359582 30.416226 49.435053 0.642778 0.908060 0.048410 -0.020360 -606522.000000 0 0 1
-32.301790 -24.186682 30.676126 50.689505 0.642715 0.920808 0.046153 -0.019312 -477527.000000 0 0 1
-33.218850 -23.969782 29.639936 50.562518 0.625057 0.944431 0.052522 -0.021940 -783381.000000 0 0 1
-34.479486 -24.815082 29.761036 51.868511 0.623829 0.959684 0.045306 -0.016112 -490390.000000 0 0 1
-34.295383 -26.185372 29.814886 52.447825 0.652101 0.966154 0.051407 -0.024034 -1265500.000000 0 0 1
-35.362171 -26.734022 30.438416 53.774420 0.647334 0.969103 0.047603 -0.019190 -936700.000000 0 0 1
-35.112588 -28.221872 30.775076 54.557064 0.677026 0.971466 0.052629 -0.021872 -11895.100000 0 0 1
-34.173395 -28.460492 31.781186 54.661360 0.694439 0.950324 0.057984 -0.014160 -398036.000000 0 0 1
-33.856340 -29.781332 31.927186 55.249658 0.721451 0.954678 0.065033 -0.029997 144730.000000 0 0 1
-32.856670 -30.006782 33.098281 55.456866 0.740095 0.931253 0.057753 -0.029325 445836.000000 0 0 1
-33.469130 -29.727272 -33.658104 56.006797 0.726257 2.215504 0.049230 -0.020274 238585.000000 0 0 1
-32.501010 -29.974562 -32.657864 54.966591 0.744981 2.206993 0.046072 -0.016469 413590.000000 0 0 1
-32.999460 -29.578432 -31.228964 54.213432 0.730784 2.184669 0.037871 -0.014333 72978.600000 0 0 1
-33.242320 -28.169452 -31.057954 53.508564 0.702981 2.190052 0.040386 -0.015736 -151146.000000 0 0 1
-32.100040 -27.350582 -31.003664 52.342087 0.705678 2.204741 0.043379 -0.004957 -145562.000000 0 0 1
-32.488550 -25.953632 -30.515694 51.578140 0.674042 2.203888 0.032797 0.005074 -67237.400000 0 0 1
-32.898450 -25.786612 -29.190514 50.983757 0.664800 2.180403 0.029698 -0.004701 -110169.000000 0 0 1
-32.886010 -24.433982 -28.754354 50.053192 0.639000 2.182760 0.044222 -0.010789 834617.000000 0 0 1
-31.461550 -23.826982 -28.393634 48.618439 0.648180 2.194456 0.046815 -0.010722 638391.000000 0 0 1
-31.468740 -22.415482 -28.327014 47.907778 0.618940 2.203444 0.049589 -0.004864 317801.000000 0 0 1
-30.308230 -21.916182 -27.654774 46.515528 0.626068 2.207475 0.067421 -0.009793 410297.000000 0 0 1
-29.988980 -20.376182 -27.799974 45.687704 0.596804 2.224938 0.083229 -0.019589 -73551.600000 0 0 1
-29.353930 -20.102882 -29.014714 45.908961 0.600482 2.254935 0.075298 -0.006097 233906.000000 0 0 1
-29.202310 -18.697782 -29.124024 45.283449 0.569515 2.269400 0.081264 -0.013638 -158376.000000 0 0 1
-28.630120 -18.161782 -30.487294 45.596153 0.565301 2.303171 0.090337 -0.010667 78333.100000 0 0 1
-29.431820 -18.193382 -31.644324 46.889172 0.553661 2.311591 0.088940 -0.014746 -6890.360000 0 0 1
-30.530170 -17.299382 -31.659324 47.261747 0.515523 2.304833 0.086831 -0.021663 -217418.000000 0 0 1
-31.036930 -17.048182 -33.096224 48.469491 0.502296 2.322420 0.089217 -0.034948 805570.000000 0 0 1
-32.104410 -17.911582 -33.585804 49.794820 0.508901 2.311062 0.090914 -0.028301 1035780.000000 0 0 1
-33.356760 -17.276382 -33.523924 50.348786 0.477887 2.299407 0.087240 -0.029564 639371.000000 0 0 1
-34.551973 -17.704882 33.569605 51.324653 0.473529 0.857852 0.084354 -0.033123 724125.000000 0 0 1
-34.938781 -19.049582 33.772409 52.193683 0.499172 0.867075 0.064486 -0.026620 44636.500000 0 0 1
-35.833648 -19.448482 32.759541 52.301829 0.497255 0.893927 0.069852 -0.032061 -311217.000000 0 0 1
-36.140620 -20.904982 33.079962 53.267688 0.524412 0.900761 0.052575 -0.027006 657003.000000 0 0 1
-34.963302 -21.727982 33.053322 52.792611 0.556043 0.894258 0.055135 -0.022948 290537.000000 0 0 1
-35.320781 -23.008282 33.516258 53.854230 0.577365 0.899053 0.047720 -0.021307 -649234.000000 0 0 1
-34.076420 -23.901382 33.522907 53.444024 0.611669 0.892776 0.047227 -0.016816 849248.000000 0 0 1
-33.060400 -23.505182 -33.550664 52.641530 0.618055 2.261840 0.033278 -0.015241 864922.000000 0 0 1
-32.313840 -22.319082 -33.872364 51.861958 0.604455 2.282501 0.042575 -0.017213 -1675630.000000 0 0 1
-31.076290 -22.096582 -33.036224 50.451827 0.618099 2.284724 0.043651 -0.008004 -296150.000000 0 0 1
-29.978590 -22.954182 -33.394924 50.406659 0.653465 2.294961 0.043902 -0.004651 573850.000000 0 0 1
-28.944860 -22.985082 -32.399214 49.151073 0.671132 2.290519 0.046177 -0.001352 183894.000000 0 0 1
-29.132920 -23.719782 -31.031424 48.726834 0.683335 2.261195 0.045202 0.014879 -663562.000000 0 0 1
-28.779210 -25.098082 -31.059744 49.222600 0.717180 2.253645 0.040748 0.004990 103075.000000 0 0 1
-28.469030 -25.524372 -29.731574 48.434964 0.730915 2.231719 0.037617 0.004405 -214580.000000 0 0 1
-27.929270 -26.964862 -29.545784 48.786282 0.767831 2.221337 0.037352 -0.000605 -97923.900000 0 0 1
-28.825160 -27.970942 -29.944644 50.099353 0.770359 2.211432 0.034380 0.006904 49746.500000 0 0 1
-28.464220 -29.205072 -29.340854 50.239763 0.798244 2.194464 0.029274 -0.002362 -53270.900000 0 0 1
-29.186410 -30.455482 -29.829764 51.664279 0.806673 2.186309 0.025047 0.014381 -308197.000000 0 0 1
-28.748720 -30.786532 -31.126704 52.375292 0.819613 2.207193 0.043150 -0.006894 296975.000000 0 0 1
-29.019450 -32.166552 -31.378544 53.492323 0.836788 2.197649 0.051146 0.000047 -63945.300000 0 0 1
-28.424730 -32.644362 -32.721604 54.261616 0.854385 2.218095 0.055123 -0.016065 -247470.000000 0 0 1
-27.040690 -32.697322 -32.923624 53.705482 0.879807 2.230699 0.032928 -0.011921 -696723.000000 0 0 1
-26.664170 -32.805522 33.752032 54.096025 0.888302 0.897037 0.058549 -0.021477 11640.800000 0 0 1
-25.194730 -33.279672 33.672351 53.629639 0.922792 0.891985 0.050979 -0.018728 -65327.700000 0 0 1
-24.951880 -33.737962 32.377479 53.001392 0.933998 0.913625 0.066257 -0.015926 304.312000 0 0 1
-23.853280 33.457337 32.499624 52.388910 -0.951434 0.901603 0.047826 -0.009387 -438093.000000 0 0 1
-23.890480 32.433446 31.378166 51.061461 -0.935926 0.909022 0.052737 -0.020717 -115725.000000 0 0 1
-25.026080 31.595659 31.362576 51.070554 -0.900907 0.909548 0.088726 -0.048447 62878.100000 0 0 1
-24.924080 30.679039 30.293316 49.800584 -0.888532 0.916889 0.078241 -0.038767 248406.000000 0 0 1
-26.328000 30.225249 29.793036 49.943511 -0.854202 0.931620 0.100114 -0.041757 239866.000000 0 0 1
-27.100620 29.547709 30.770016 50.540128 -0.828569 0.916220 0.099790 -0.040336 -320970.000000 0 0 1
-28.340970 29.201149 30.228326 50.691906 -0.800346 0.931894 0.094156 -0.045262 -221579.000000 0 0 1
-29.026300 28.067249 31.065376 50.944618 -0.768602 0.915004 0.079723 -0.052616 -133962.000000 0 0 1
-28.314790 26.861949 31.022146 49.856446 -0.759074 0.899209 0.086465 -0.048385 328625.000000 0 0 1
-29.087010 25.755339 31.497126 50.014604 -0.724723 0.889554 0.073100 -0.036029 483326.000000 0 0 1
-30.107400 25.122799 30.549296 49.707847 -0.695391 0.908947 0.062807 -0.032297 194533.000000 0 0 1
-29.405140 24.544009 29.450196 48.315470 -0.695535 0.915317 0.053890 -0.017314 112800.000000 0 0 1
-30.238670 23.666589 28.698796 47.938559 -0.664078 0.928972 0.042060 -0.005367 204812.000000 0 0 1
-29.617290 23.219539 27.355616 46.525913 -0.664900 0.942255 0.040127 -0.013622 -349861.000000 0 0 1
-28.540560 22.327489 27.453676 45.461903 -0.663859 0.922432 0.029861 -0.009526 -567944.000000 0 0 1
-27.890680 22.280589 26.216466 44.290154 -0.674042 0.937351 0.039863 -0.013001 -609013.000000 0 0 1
-26.518940 21.614589 26.225306 43.106975 -0.683858 0.916782 0.050033 -0.011521 -535484.000000 0 0 1
-26.548150 20.310889 26.773386 42.826985 -0.653069 0.895470 0.050348 -0.015646 421044.000000 0 0 1
-25.232030 19.951489 27.181906 42.113813 -0.669057 0.869198 0.059902 -0.013533 235937.000000 0 0 1
-25.224090 18.794989 28.286006 42.303717 -0.640371 0.838416 0.070024 -0.019530 -301141.000000 0 0 1
-23.970980 18.299589 28.690886 41.625110 -0.652026 0.810317 0.079645 -0.026620 -140796.000000 0 0 1
-24.079580 17.081889 29.344886 41.626187 -0.617002 0.788427 0.073926 -0.025560 183138.000000 0 0 1
-22.783380 16.202689 29.431296 40.593235 -0.618178 0.759719 0.076342 -0.030849 -71634.600000 0 0 1
-21.755780 16.840089 30.131156 40.801827 -0.658717 0.739989 0.107099 -0.031742 -622994.000000 0 0 1
-20.599180 16.084789 29.896606 39.709617 -0.662952 0.718368 0.084662 -0.028169 -113237.000000 0 0 1
-19.319680 16.483489 30.676946 39.824998 -0.706347 0.691495 0.065054 -0.028193 -23104.100000 0 0 1
-19.354380 16.159789 32.070825 40.795448 -0.695687 0.666262 0.056755 -0.025827 255494.000000 0 0 1
-18.237380 16.725989 32.721545 41.025117 -0.742197 0.647494 0.059571 -0.028398 -682787.000000 0 0 1
-18.284680 16.457889 -33.820134 41.820965 -0.732866 2.512715 0.038507 -0.031751 904486.000000 0 0 1
-19.362680 16.967889 -32.999934 41.854729 -0.719577 2.479065 0.064771 -0.029790 1813260.000000 0 0 1
-20.727680 16.627289 -33.321194 42.619308 -0.676068 2.468397 0.078514 -0.029657 618604.000000 0 0 1
-21.746080 17.351289 -32.406814 42.710196 -0.673462 2.432205 0.082172 -0.041660 -213101.000000 0 0 1
-22.034580 16.701889 -31.174464 41.669210 -0.648592 2.416053 0.076856 -0.043415 385184.000000 0 0 1
-22.784280 17.568589 -30.294424 41.779551 -0.656859 2.381978 0.074078 -0.039980 10838.400000 0 0 1
-23.037580 17.270289 -28.760394 40.695863 -0.643282 2.355641 0.072608 -0.039504 198010.000000 0 0 1
-23.764280 16.121989 -28.392384 40.383004 -0.596090 2.350512 0.068714 -0.040119 541945.000000 0 0 1
-25.155910 16.087189 -28.738734 41.443121 -0.568958 2.337063 0.093691 -0.040750 629902.000000 0 0 1
-25.967960 14.964689 -28.043884 41.045539 -0.522792 2.322985 0.096874 -0.037642 -91361.400000 0 0 1
-25.664140 13.618289 -28.390234 40.621562 -0.487854 2.344649 0.056560 -0.025371 11778.900000 0 0 1
-26.475410 12.719789 -27.639654 40.332256 -0.447876 2.325811 0.037080 -0.015286 34655.000000 0 0 1
-26.025440 11.260189 -27.634144 39.594966 -0.408342 2.343286 0.036051 -0.018440 56034.300000 0 0 1
-25.003280 11.020889 -26.677294 38.187721 -0.415158 2.344212 0.037859 -0.013179 440057.000000 0 0 1
-24.122480 10.000689 -27.199004 37.705353 -0.393012 2.376555 0.031852 -0.005549 445393.000000 0 0 1
-23.203980 9.387089 -26.113214 36.172394 -0.384420 2.377355 0.063160 -0.013882 389154.000000 0 0 1
-23.835080 8.273789 -25.454604 35.839971 -0.334113 2.360620 0.066506 -0.022743 195255.000000 0 0 1
-22.813080 7.703989 -24.684464 34.483486 -0.325676 2.368615 0.101169 -0.023979 -208757.000000 0 0 1
-23.300880 6.745989 -23.561064 33.816610 -0.281811 2.341626 0.098983 -0.016162 99937.100000 0 0 1
-24.086280 5.745489 -24.180664 34.610173 -0.234162 2.344316 0.102047 -0.029438 210340.000000 0 0 1
-24.369780 4.627589 -23.403164 34.102916 -0.187656 2.327119 0.095790 -0.023659 -238765.000000 0 0 1
35.725676 24.605418 -10.333564 44.592971 0.603123 1.804653 0.043093 -0.002268 185351.000000 0 0 1
36.433706 23.980718 -9.265564 44.590811 0.582119 1.780112 0.065101 -0.013345 -62064.000000 0 0 1
-36.331650 23.191218 -9.737564 44.188704 -0.568120 1.792983 0.087213 -0.018013 -33200.200000 0 0 1
-35.481694 22.755818 -8.539964 43.008242 -0.570263 1.770691 0.073305 -0.013595 204837.000000 0 0 1
-36.081015 21.636618 -7.887964 42.804239 -0.540175 1.756136 0.076503 -0.021142 614033.000000 0 0 1
-35.141968 21.223618 -6.904864 41.630242 -0.543311 1.737428 0.091789 -0.025416 303957.000000 0 0 1
-35.845191 20.425718 -5.792064 41.660961 -0.517941 1.710277 0.088617 -0.009149 -37227.200000 0 0 1
-36.214030 19.139718 -6.310164 41.443973 -0.486200 1.723649 0.076411 -0.002338 270870.000000 0 0 1
-36.655040 18.202718 -5.342064 41.273097 -0.460920 1.700593 0.082141 -0.015388 -261640.000000 0 0 1
36.588046 16.978918 -6.070164 40.789896 0.434482 1.720167 0.076822 -0.007264 -659686.000000 0 0 1
35.503086 17.389018 -6.813964 40.115797 0.455445 1.741481 0.075599 -0.013277 -653122.000000 0 0 1
34.858266 16.347418 -7.503664 39.225524 0.438515 1.763278 0.079647 -0.007709 29005.400000 0 0 1
33.715126 16.627018 -8.488364 38.538549 0.458162 1.792874 0.069483 -0.022124 -123130.000000 0 0 1
33.338236 15.422918 -9.119564 37.847996 0.433299 1.814143 0.085910 -0.031808 198914.000000 0 0 1
32.537376 15.716718 -10.259864 37.562759 0.449984 1.847451 0.088915 -0.029130 -403308.000000 0 0 1
31.898396 14.463018 -10.959464 36.698725 0.425685 1.874057 0.084516 -0.036062 212287.000000 0 0 1
30.602956 14.044318 -10.572264 35.292443 0.430247 1.875030 0.074618 -0.024863 375484.000000 0 0 1
30.503376 13.626718 -9.236764 34.662100 0.420130 1.840536 0.089045 -0.023930 -662097.000000 0 0 1
29.363406 12.640318 -8.963564 33.201396 0.406502 1.844164 0.088518 -0.018095 -36316.300000 0 0 1
29.744146 11.371218 -9.513664 33.234449 0.365156 1.861117 0.095080 -0.018156 632170.000000 0 0 1
28.703656 10.408218 -9.442864 31.959326 0.347864 1.870739 0.116914 -0.020847 -64634.700000 0 0 1
29.241316 8.999118 -9.822464 32.132841 0.298555 1.881452 0.129173 -0.021403 -551096.000000 0 0 1
30.303206 8.605118 -9.028164 32.769499 0.276684 1.849911 0.123379 -0.024266 -169335.000000 0 0 1
30.448856 7.212418 -9.087164 32.584173 0.232583 1.853427 0.133278 -0.026044 187979.000000 0 0 1
31.606056 6.661318 -8.169964 33.317627 0.207721 1.818537 0.148616 -0.024540 940581.000000 0 0 1
32.888326 6.930218 -8.737364 34.727675 0.207681 1.825126 0.137175 -0.020533 1508560.000000 0 0 1
34.002936 6.569918 -7.842964 35.508810 0.190864 1.793507 0.137322 -0.018596 1797240.000000 0 0 1
35.416356 6.999118 -8.362264 37.057164 0.195110 1.798415 0.127952 -0.016472 568834.000000 0 0 1
35.821226 6.158018 -9.408964 37.544774 0.170246 1.824103 0.136976 -0.018561 -523025.000000 0 0 1
-36.639010 6.291618 -9.602264 38.395377 -0.170060 1.823569 0.119944 -0.015678 -1707280.000000 0 0 1
-36.082309 5.299418 -10.732264 38.015764 -0.145828 1.856998 0.122103 -0.025529 737199.000000 0 0 1
-34.657145 5.096318 -10.794264 36.655235 -0.146003 1.869709 0.120165 -0.027407 1119680.000000 0 0 1
-34.026490 6.133618 -11.484764 36.432446 -0.178345 1.891500 0.097892 -0.025790 -628523.000000 0 0 1
-33.421360 7.290918 -10.599064 35.811799 -0.214786 1.871263 0.093365 -0.023246 -423485.000000 0 0 1
-34.368431 8.138318 -9.878164 36.674233 -0.232514 1.843513 0.098465 -0.014351 559820.000000 0 0 1
-34.586719 9.337418 -10.625664 37.367543 -0.263685 1.859130 0.101664 -0.016334 -412969.000000 0 0 1
-35.354723 10.413318 -9.908464 38.165053 -0.286439 1.833426 0.103781 -0.013187 -410132.000000 0 0 1
-34.687359 11.065318 -8.842864 37.467991 -0.308797 1.809055 0.074907 -0.006013 73387.600000 0 0 1
-35.478793 11.897418 -7.976564 38.261193 -0.323554 1.780813 0.086242 -0.009035 -68518.300000 0 0 1
-34.581646 12.715418 -7.064364 37.516361 -0.352349 1.760228 0.101719 -0.005221 -27499.400000 0 0 1
-33.812500 13.673918 -7.784364 37.294202 -0.384297 1.781071 0.074403 -0.007664 -66356.100000 0 0 1
-33.216620 14.605118 -6.868864 36.930131 -0.414250 1.757882 0.084422 -0.010545 554468.000000 0 0 1
-32.249340 15.640418 -7.535064 36.625398 -0.451563 1.778009 0.066552 -0.006996 350605.000000 0 0 1
-33.022260 16.476318 -8.351964 37.837733 -0.462804 1.793360 0.049361 -0.007743 -245355.000000 0 0 1
-32.331370 17.652018 -8.764464 37.864588 -0.499745 1.804383 0.050161 -0.005659 -44328.800000 0 0 1
-33.205770 18.688718 -9.447664 39.257479 -0.512629 1.813841 0.026173 -0.009855 -5651.660000 0 0 1
-33.037650 18.531818 -10.827664 39.397372 -0.511196 1.849211 0.009466 -0.004742 -248334.000000 0 0 1
-34.033950 19.242318 -11.502064 40.753822 -0.514579 1.856917 0.010800 -0.013213 -444165.000000 0 0 1
-33.807480 19.360218 -13.000064 41.070250 -0.520075 1.892868 -0.006290 0.008229 451988.000000 0 0 1
-32.686810 20.173518 -13.401664 40.681728 -0.552953 1.906493 0.000194 0.000338 603960.000000 0 0 1
-32.502330 20.218118 -14.801764 41.039809 -0.556476 1.939781 -0.010490 0.004104 271758.000000 0 0 1
-31.494150 21.366018 -15.199464 40.980628 -0.596090 1.950768 0.006384 -0.004577 -699434.000000 0 0 1
-30.223890 21.133718 -14.689664 39.697655 -0.610215 1.949847 0.012067 -0.004689 283223.000000 0 0 1
-29.364870 22.332318 -14.677064 39.704461 -0.650195 1.949437 0.032457 -0.004152 437071.000000 0 0 1
-28.791860 22.840718 -16.008164 40.086543 -0.670645 1.981593 0.024772 -0.010277 -613899.000000 0 0 1
-29.748130 23.442018 -16.930664 41.486466 -0.667391 1.991169 0.033891 0.002960 787536.000000 0 0 1
-29.123800 24.140818 -18.018664 41.900442 -0.692118 2.015328 0.027009 0.003858 -4959.270000 0 0 1
-28.289740 25.350018 -17.707064 41.910296 -0.730648 2.006997 0.033281 -0.001676 318311.000000 0 0 1
-29.174530 26.377818 -17.253164 42.948971 -0.735097 1.984183 0.043327 -0.004444 530108.000000 0 0 1
-28.402540 27.542518 -17.195064 43.138901 -0.770027 1.980784 0.047918 -0.008340 346915.000000 0 0 1
-29.209550 28.800218 -16.756664 44.310678 -0.778342 1.958608 0.046741 -0.008640 18917.500000 0 0 1
-29.388630 29.060618 -15.330464 44.082130 -0.779786 1.925988 0.047915 -0.010072 484096.000000 0 0 1
-28.229330 29.578118 -14.676164 43.441339 -0.808726 1.915416 0.047656 -0.006740 146738.000000 0 0 1
-28.415870 30.033118 -13.208764 43.404162 -0.813061 1.880021 0.055092 -0.010062 -369891.000000 0 0 1
-29.388820 31.013418 -12.958164 44.648055 -0.812288 1.865263 0.050641 -0.014307 -105358.000000 0 0 1
-29.115170 31.978718 -11.948664 44.867606 -0.832235 1.840358 0.053446 -0.017008 -106402.000000 0 0 1
-28.073810 33.066818 -12.317064 45.091721 -0.866882 1.847468 0.044614 -0.023703 -534111.000000 0 0 1
-28.492030 -34.016853 -13.202164 46.295132 0.873554 1.859984 0.035875 -0.026342 8097.310000 0 0 1
-27.614390 -32.882953 -13.327964 44.960847 0.872267 1.871754 0.049685 -0.020748 161579.000000 0 0 1
-27.903190 -32.168153 -14.647764 45.032600 0.856278 1.902094 0.041431 -0.020911 105338.000000 0 0 1
-27.407270 -32.788853 -15.833164 45.573638 0.874562 1.925614 0.040349 -0.021498 -87505.500000 0 0 1
-27.838890 -32.032653 -16.951164 45.699416 0.855330 1.950804 0.044623 -0.006047 19469.100000 0 0 1
-27.055600 -32.386953 -18.230964 45.970515 0.874848 1.978584 0.041623 -0.006499 -116388.000000 0 0 1
-27.301900 -33.699853 -18.729264 47.242557 0.889898 1.978442 0.043502 -0.003855 -28975.200000 0 0 1
-26.672770 33.309618 -18.024864 46.323461 -0.895597 1.970460 0.033596 -0.014145 -629591.000000 0 0 1
-27.050490 31.899018 -18.600964 45.774144 -0.867462 1.989267 0.042037 -0.024122 841255.000000 0 0 1
-28.422360 31.499018 -18.613464 46.330117 -0.836698 1.984231 0.043622 -0.019089 574101.000000 0 0 1
-29.232460 32.204118 -19.546964 47.683600 -0.833730 1.993174 0.044411 -0.018114 -525778.000000 0 0 1
-30.707290 31.762718 -19.624264 48.341697 -0.802292 1.988813 0.050476 -0.021292 -77998.000000 0 0 1
-30.873650 30.477718 -20.210764 47.859675 -0.778945 2.006769 0.050132 -0.022858 -356522.000000 0 0 1
-32.247790 30.278818 -20.304164 48.672229 -0.753918 2.001116 0.063636 -0.021730 -721296.000000 0 0 1
-32.511920 28.923418 -21.049064 48.338930 -0.727053 2.021332 0.069860 -0.023773 432630.000000 0 0 1
-33.858960 28.435718 -21.048964 48.970176 -0.698559 2.015103 0.078072 -0.028236 787352.000000 0 0 1
-33.865130 27.199618 -21.737764 48.571562 -0.676674 2.034810 0.068549 -0.021054 -262471.000000 0 0 1
-35.271306 26.643618 -21.945664 49.351389 -0.646942 2.031615 0.080161 -0.020298 417350.000000 0 0 1
-36.255860 27.420618 -22.671864 50.797550 -0.647526 2.033443 0.066710 -0.022532 511951.000000 0 0 1
36.553256 26.597518 -23.170564 50.798066 0.629035 2.044439 0.080592 -0.028026 617659.000000 0 0 1
35.657376 27.168318 -24.367264 51.022833 0.651091 2.068690 0.086900 -0.030093 459129.000000 0 0 1
36.313676 27.251818 -25.620824 52.132248 0.643793 2.084560 0.097643 -0.034111 -261483.000000 0 0 1
35.460096 27.434318 -26.752384 52.208718 0.658477 2.108788 0.105198 -0.029098 -467091.000000 0 0 1
36.179756 27.771918 -28.017254 53.527756 0.654676 2.121651 0.099804 -0.025162 -400023.000000 0 0 1
-36.867240 26.702118 -28.422904 53.666171 -0.626835 2.128954 0.077131 -0.003381 -436295.000000 0 0 1
-36.132540 27.034318 -29.586014 53.960606 -0.642347 2.151113 0.044833 0.003871 -1034590.000000 0 0 1
-35.542524 25.766218 -30.246224 53.310441 -0.627269 2.174093 0.043555 -0.000325 130005.000000 0 0 1
-34.551647 25.106218 -29.509994 51.913180 -0.628375 2.175416 0.050400 -0.003824 -417142.000000 0 0 1
-33.302860 25.764118 -29.485644 51.403049 -0.658454 2.181711 0.050555 0.007787 -439362.000000 0 0 1
-32.245830 25.178918 -28.513814 49.867916 -0.662950 2.179478 0.036831 -0.010296 -243649.000000 0 0 1
-31.924270 23.902218 -28.890804 49.245849 -0.642679 2.197731 0.058762 -0.008540 120985.000000 0 0 1
-32.685720 22.870418 -28.261284 48.888777 -0.610529 2.187162 0.048580 -0.012607 -117660.000000 0 0 1
-32.549670 21.580418 -29.036164 48.665124 -0.585460 2.210120 0.039513 -0.011383 -413341.000000 0 0 1
-31.268560 21.026518 -28.975624 47.533400 -0.591995 2.226333 0.062762 -0.010545 -336953.000000 0 0 1
-31.194090 19.756018 -29.714324 47.395280 -0.564564 2.248424 0.058695 -0.018881 -186546.000000 0 0 1
-29.807350 19.104218 -29.655244 46.183144 -0.569968 2.268060 0.084742 -0.026414 -357422.000000 0 0 1
-28.780800 19.702918 -30.432594 46.289115 -0.600306 2.288221 0.108313 -0.031092 426239.000000 0 0 1
-27.585940 18.947518 -30.506494 45.283978 -0.601849 2.309961 0.109454 -0.040442 198993.000000 0 0 1
-27.651890 17.729818 -31.452294 45.477690 -0.570149 2.334496 0.106795 -0.035362 -368309.000000 0 0 1
-28.236710 16.570118 -30.787714 44.941784 -0.530679 2.325479 0.078468 -0.029013 375258.000000 0 0 1
-28.210230 15.442018 -31.588014 45.078550 -0.500838 2.347220 0.046479 -0.020287 -85948.000000 0 0 1
-28.700470 14.196718 -30.873394 44.479549 -0.459359 2.337970 0.052143 -0.017971 299048.000000 0 0 1
-30.100550 14.132518 -30.616494 45.201116 -0.438960 2.314936 0.047438 -0.015366 384066.000000 0 0 1
-30.585360 12.790718 -30.369664 44.959795 -0.396095 2.312418 0.035026 -0.013048 -208536.000000 0 0 1
-30.059040 11.840418 -29.235234 43.571095 -0.375241 2.306323 0.021154 -0.022000 -221287.000000 0 0 1
-30.510370 12.426718 -28.027784 43.253470 -0.386779 2.275738 0.013587 -0.018694 331310.000000 0 0 1
-30.686290 11.453118 -27.000144 42.447969 -0.357220 2.260199 0.023522 -0.015344 -17962.000000 0 0 1
-30.502920 12.200918 -25.661054 41.686691 -0.380499 2.233905 0.020187 -0.015552 -113779.000000 0 0 1
-29.180950 12.125518 -25.190574 40.411892 -0.393821 2.243810 0.020718 -0.014773 -296850.000000 0 0 1
-29.022310 12.941318 -24.063364 39.859976 -0.419447 2.218927 0.024535 -0.010951 -90970.000000 0 0 1
-27.580450 13.210318 -23.598864 38.627712 -0.446686 2.228032 0.038074 -0.008986 -660920.000000 0 0 1
-26.768830 13.985818 -24.448064 38.857190 -0.481459 2.251291 0.057784 -0.015681 48147.400000 0 0 1
-25.426570 14.134918 -24.023664 37.728541 -0.507370 2.261073 0.048459 -0.016830 329880.000000 0 0 1
-25.221390 14.964818 -22.711864 37.093032 -0.535507 2.229756 0.045958 -0.017563 -1295840.000000 0 0 1
-25.412170 16.342318 -22.937664 37.933971 -0.571502 2.220152 0.067519 -0.022627 65947.400000 0 0 1
-25.587630 17.079518 -21.735964 37.668141 -0.588573 2.185894 0.062680 -0.016397 521243.000000 0 0 1
-27.091180 17.129718 -21.303164 38.486154 -0.563831 2.157391 0.056292 -0.010428 339312.000000 0 0 1
-27.640420 15.829018 -21.128264 38.222430 -0.520086 2.156483 0.052053 -0.014286 74576.900000 0 0 1
-28.798150 15.946518 -20.306664 38.677972 -0.505706 2.123534 0.039396 -0.009870 -278534.000000 0 0 1
-29.761840 14.726918 -20.381064 38.961994 -0.459499 2.121282 0.021958 -0.015512 387174.000000 0 0 1
-30.562480 14.461018 -21.530464 40.084250 -0.441948 2.137828 0.017574 -0.013383 276562.000000 0 0 1
-31.576860 15.414018 -21.709164 41.303485 -0.454117 2.124218 0.004229 -0.010643 -636647.000000 0 0 1
-32.065130 15.562118 -23.205764 42.530690 -0.451842 2.147930 0.006455 -0.004546 -74788.200000 0 0 1
-33.081820 14.660718 -23.575164 43.187172 -0.417156 2.148240 0.015748 -0.008097 59196.500000 0 0 1
-33.577360 15.048018 -24.860264 44.406246 -0.421322 2.164986 0.033924 -0.017481 136071.000000 0 0 1
-34.874256 14.322918 -25.314944 45.411519 -0.389698 2.162115 0.026826 -0.016459 87556.000000 0 0 1
-34.817677 13.006918 -25.669854 45.170698 -0.357518 2.175217 0.031778 -0.019295 -21535.400000 0 0 1
-34.523821 12.087518 -24.628364 44.097150 -0.336783 2.163376 0.026199 -0.015773 -334135.000000 0 0 1
-34.585872 10.601718 -25.036804 43.993415 -0.297440 2.176211 0.031905 -0.022089 447180.000000 0 0 1
-35.894841 10.086918 -25.312134 45.065393 -0.273948 2.167206 0.040724 -0.015973 375261.000000 0 0 1
-35.859021 8.859818 -25.989504 45.164367 -0.242223 2.183942 0.027315 -0.001071 -290037.000000 0 0 1
36.638496 8.286218 -26.488664 45.964009 0.222420 2.184980 0.040866 -0.004370 -68968.400000 0 0 1
35.850106 7.767818 -25.386274 44.609775 0.213377 2.176176 0.024423 0.002488 -629243.000000 0 0 1
34.753426 7.189918 -25.987074 43.986629 0.204006 2.202840 0.029256 0.004972 -649107.000000 0 0 1
33.686686 6.572418 -25.062344 42.498360 0.192684 2.201515 0.032185 0.002365 137385.000000 0 0 1
34.234406 5.433718 -24.385364 42.381197 0.157408 2.183867 0.029188 0.000357 312347.000000 0 0 1
33.244176 4.713518 -23.679764 41.086783 0.140846 2.185034 0.024838 0.000608 -170254.000000 0 0 1
33.821736 3.754818 -22.625664 40.864767 0.110565 2.157563 0.018910 0.000935 -11219.200000 0 0 1
34.512806 2.720318 -23.271764 41.714613 0.078658 2.162626 0.018384 -0.005122 228873.000000 0 0 1
35.842166 2.543218 -22.813664 42.562802 0.070837 2.136488 0.052652 0.000457 250887.000000 0 0 1
36.677086 1.342118 -23.298064 43.471942 0.036576 2.136409 0.077099 -0.005999 -107791.000000 0 0 1
36.175026 0.134718 -22.796264 42.758862 0.003724 2.133099 0.056065 -0.009682 -13864.800000 0 0 1
36.766556 -0.978682 -23.414064 43.599952 -0.026613 2.137697 0.079451 -0.025907 124783.000000 0 0 1
-23.366380 28.912118 27.289456 46.115211 -0.891084 0.937547 0.062265 -0.033238 -675093.000000 0 0 1
-24.607380 29.535718 26.966676 46.958315 -0.876172 0.959086 0.058240 -0.035805 868038.000000 0 0 1
-25.106710 29.246018 25.673646 46.312121 -0.861408 0.983201 0.050416 -0.026903 -126349.000000 0 0 1
-25.632100 27.761018 25.431356 45.545938 -0.825250 0.978380 0.057480 -0.026508 -466305.000000 0 0 1
-26.854240 27.398118 26.040986 46.367445 -0.795423 0.974451 0.058526 -0.024920 30233.200000 0 0 1
-26.863430 27.205018 27.448776 47.065828 -0.791716 0.948134 0.060726 -0.026997 -1184380.000000 0 0 1
-26.268400 25.823618 27.863506 46.187260 -0.776860 0.923198 0.057485 -0.024256 1129190.000000 0 0 1
-24.862180 25.831418 28.174256 45.598013 -0.804515 0.904748 0.068686 -0.029369 691368.000000 0 0 1
-24.610980 26.415318 29.435386 46.582306 -0.820744 0.886793 0.061168 -0.031272 727676.000000 0 0 1
-23.169780 25.945518 29.918686 45.881765 -0.841853 0.860469 0.073209 -0.025897 581359.000000 0 0 1
-22.054680 26.494718 29.238806 45.202729 -0.876598 0.867366 0.082901 -0.032086 924790.000000 0 0 1
-20.824480 26.160318 29.928766 44.874851 -0.898479 0.840704 0.092333 -0.031580 797917.000000 0 0 1
-20.307580 24.765318 29.518026 43.554938 -0.883978 0.826140 0.113480 -0.031604 -836949.000000 0 0 1
-19.612980 24.844718 28.267356 42.437865 -0.902538 0.841845 0.109865 -0.026389 14222.100000 0 0 1
-20.114980 23.990718 27.271126 41.519649 -0.873047 0.854197 0.116321 -0.029742 -244939.000000 0 0 1
-20.078080 22.453118 27.495846 40.783493 -0.841182 0.830928 0.110295 -0.021866 278610.000000 0 0 1
-20.923580 21.997818 28.556616 41.679497 -0.810421 0.815990 0.089643 -0.018196 203967.000000 0 0 1
-20.981280 20.626118 28.520896 40.976729 -0.776862 0.800948 0.091397 -0.020763 268134.000000 0 0 1
-21.472580 20.131218 29.909526 41.963286 -0.753168 0.777379 0.090364 -0.025777 -270996.000000 0 0 1
-20.512680 20.401818 30.865676 42.304777 -0.782689 0.753056 0.089374 -0.034122 -340323.000000 0 0 1
-20.957580 20.031118 32.113334 43.263519 -0.762799 0.734341 0.077536 -0.030253 -263764.000000 0 0 1
-19.982780 20.399818 33.253798 43.832398 -0.795725 0.709546 0.076943 -0.031245 -443651.000000 0 0 1
-20.067980 21.757818 33.676744 44.835806 -0.825778 0.721050 0.063600 -0.029945 92079.500000 0 0 1
-19.204880 22.625518 32.972388 44.361242 -0.866991 0.732851 0.091272 -0.022811 1110580.000000 0 0 1
-17.687480 22.592318 33.437892 44.060780 -0.906571 0.709168 0.082272 -0.021431 1108030.000000 0 0 1
-16.922480 21.433618 33.109908 42.918951 -0.902472 0.689676 0.082793 -0.035368 251745.000000 0 0 1
-15.611980 21.529518 33.657361 42.896060 -0.943394 0.668704 0.062868 -0.026579 -193148.000000 0 0 1
-14.711480 20.348518 33.215697 41.638592 -0.944816 0.647301 0.048567 -0.031020 1033630.000000 0 0 1
-13.308780 20.309318 33.569184 41.430449 -0.990701 0.626211 0.032319 -0.028179 1427130.000000 0 0 1
-13.091380 20.226018 -33.062814 40.909971 -0.996354 2.511860 0.036242 -0.031254 -1241270.000000 0 0 1
-11.652480 20.140118 -32.580824 40.036418 -1.046283 2.521423 0.030055 -0.022494 -400310.000000 0 0 1
-10.861180 21.291118 -32.570784 40.399665 -1.099080 2.508521 0.033933 -0.023972 1510830.000000 0 0 1
-9.462580 21.019618 -32.209984 39.608684 -1.147794 2.520435 0.034021 -0.024209 1363400.000000 0 0 1
-8.543980 22.223818 -32.381524 40.192795 -1.203765 2.507577 0.044396 -0.029501 -238287.000000 0 0 1
-8.575380 23.260918 -31.451764 40.047733 -1.217595 2.474069 0.040102 -0.026066 -67048.500000 0 0 1
-7.954680 22.895118 -30.246854 38.759974 -1.236404 2.466043 0.033767 -0.026949 -203069.000000 0 0 1
-7.668780 23.969618 -29.180124 38.533523 -1.261150 2.429913 0.038891 -0.025056 323114.000000 0 0 1
-6.577980 24.822418 -29.520984 39.126855 -1.311749 2.425679 0.052362 -0.027648 165488.000000 0 0 1
-6.364480 25.902118 -28.571644 39.086637 -1.329857 2.390557 0.065721 -0.026122 210826.000000 0 0 1
-5.035280 26.606618 -28.933634 39.628542 -1.383759 2.389295 0.071729 -0.033452 76109.700000 0 0 1
-3.858680 26.074418 -28.344974 38.706618 -1.423875 2.392494 0.080755 -0.032701 734478.000000 0 0 1
-2.681680 26.310018 -29.135644 39.348370 -1.469221 2.404541 0.095036 -0.033483 732027.000000 0 0 1
-1.917480 27.641818 -28.838004 39.992216 -1.501538 2.376171 0.103747 -0.042185 -540415.000000 0 0 1
-1.078580 27.494518 -27.741424 39.072989 -1.531588 2.360280 0.121305 -0.056783 -2870.240000 0 0 1
-0.178880 28.585018 -27.626774 39.753917 -1.564539 2.339139 0.128371 -0.051469 -573209.000000 0 0 1
0.438820 28.796918 -26.210904 38.941835 1.555559 2.309160 0.133660 -0.064950 525486.000000 0 0 1
1.362820 27.794918 -25.749764 37.913917 1.521804 2.317419 0.166455 -0.076808 661279.000000 0 0 1
2.607020 27.772718 -26.409404 38.413241 1.477201 2.328848 0.154779 -0.076773 -846893.000000 0 0 1
3.880220 27.947818 -25.593874 38.094396 1.432840 2.307505 0.148849 -0.078422 -344952.000000 0 0 1
4.271820 26.821218 -24.794464 36.774878 1.412853 2.310708 0.157790 -0.070415 850000.000000 0 0 1
5.540320 27.053118 -24.156664 36.689382 1.368795 2.289501 0.118463 -0.060831 957317.000000 0 0 1
6.262820 25.695218 -23.726064 35.530174 1.331723 2.302008 0.118713 -0.054744 357196.000000 0 0 1
7.397520 25.958818 -22.937864 35.422156 1.293184 2.275170 0.111367 -0.057144 -499421.000000 0 0 1
8.214020 24.845218 -22.616264 34.586853 1.251501 2.283521 0.090958 -0.039676 828601.000000 0 0 1
9.649320 25.317718 -22.221364 35.041194 1.206663 2.257705 0.075833 -0.026248 231150.000000 0 0 1
9.705920 25.644418 -20.810564 34.422676 1.208977 2.220009 0.092854 -0.033887 406680.000000 0 0 1
10.970820 26.242018 -20.516664 35.070442 1.174816 2.195692 0.109170 -0.035509 1130720.000000 0 0 1
12.134220 25.306818 -20.030764 34.480514 1.123696 2.190667 0.075887 -0.012572 430945.000000 0 0 1
12.545720 24.343218 -20.944664 34.477040 1.094930 2.223701 0.069810 -0.026173 -237663.000000 0 0 1
12.404920 22.999718 -20.424164 33.166482 1.076166 2.234207 0.048691 -0.014669 28856.700000 0 0 1
12.600120 21.989718 -21.607664 33.304683 1.050466 2.276786 0.050790 -0.019761 -18313.300000 0 0 1
11.516720 22.078518 -22.491964 33.555689 1.089998 2.305393 0.056721 -0.034890 -73309.400000 0 0 1
11.713620 21.220418 -23.616864 33.841857 1.066421 2.343201 0.048530 -0.035530 -142190.000000 0 0 1
10.670820 21.421818 -24.697464 34.390775 1.108647 2.371925 0.065288 -0.033469 738625.000000 0 0 1
9.354020 20.879418 -24.504464 33.524865 1.149605 2.390486 0.063606 -0.037930 422799.000000 0 0 1
8.716620 20.395418 -25.640484 33.902610 1.166910 2.428433 0.069222 -0.035840 -660420.000000 0 0 1
7.227620 20.054618 -25.510994 33.245105 1.224890 2.445512 0.095806 -0.049752 -222687.000000 0 0 1
6.347920 21.131118 -25.278244 33.553090 1.278967 2.423984 0.119517 -0.056328 -100506.000000 0 0 1
6.476720 21.828018 -24.063564 33.128015 1.282355 2.383838 0.125632 -0.059981 -856426.000000 0 0 1
5.115720 21.982118 -23.334664 32.463682 1.342144 2.372861 0.148442 -0.062636 669632.000000 0 0 1
4.199020 22.794618 -24.070164 33.415553 1.388628 2.375072 0.155111 -0.060224 -298577.000000 0 0 1
2.915520 22.930018 -23.537564 32.989436 1.444326 2.365260 0.168928 -0.055799 -341245.000000 0 0 1
2.107920 23.773718 -24.532264 34.226671 1.482362 2.369939 0.149934 -0.050559 481003.000000 0 0 1
0.739220 24.044118 -24.190164 34.114954 1.540062 2.358986 0.162164 -0.070133 518674.000000 0 0 1
0.233120 24.917818 -25.163884 35.414306 1.561441 2.361086 0.152331 -0.061399 1437540.000000 0 0 1
-1.347080 24.741718 -25.315564 35.423792 -1.516404 2.366918 0.154788 -0.056557 1430660.000000 0 0 1
-1.700980 23.469618 -25.861954 34.965082 -1.498447 2.403348 0.163396 -0.060101 -276408.000000 0 0 1
-2.961980 23.607418 -26.480674 35.599292 -1.445980 2.409615 0.143234 -0.049223 -218566.000000 0 0 1
-3.262380 22.264518 -27.125394 35.243991 -1.425303 2.449083 0.115139 -0.047999 -359039.000000 0 0 1
-2.607480 22.004018 -28.358224 35.988396 -1.452846 2.478322 0.143092 -0.062664 85604.800000 0 0 1
-2.960880 20.687118 -28.820524 35.599807 -1.428635 2.514215 0.100416 -0.049821 -928497.000000 0 0 1
-4.294380 20.557518 -29.536204 36.241421 -1.364862 2.523499 0.081294 -0.039213 -769492.000000 0 0 1
-4.358680 20.961818 -30.891264 37.585451 -1.365783 2.535525 0.079355 -0.039810 -51376.200000 0 0 1
-4.128780 22.317818 -31.213614 38.593024 -1.387865 2.512886 0.099166 -0.039721 -328683.000000 0 0 1
-3.642280 22.565318 -32.649624 39.855461 -1.410766 2.530812 0.086730 -0.033008 -1366650.000000 0 0 1
-2.505880 21.866518 -32.857494 39.547933 -1.456695 2.551389 0.082781 -0.036452 -1016600.000000 0 0 1
-1.945480 22.066618 33.880194 40.479477 -1.482860 0.579070 0.078872 -0.021966 697752.000000 0 0 1
-0.728980 21.154718 33.490847 39.619317 -1.536351 0.563640 0.084723 -0.014744 749096.000000 0 0 1
-1.200480 19.850918 33.241415 38.736181 -1.510395 0.539143 0.075125 -0.007439 386671.000000 0 0 1
-0.135880 19.064218 32.744392 37.890079 -1.563669 0.527249 0.082905 -0.005985 309120.000000 0 0 1
-0.652280 17.670218 32.198730 36.734456 -1.533899 0.502198 0.064463 -0.000459 229593.000000 0 0 1
-1.506280 17.900518 31.094186 35.910246 -1.486847 0.523877 0.052789 0.000570 58081.400000 0 0 1
-2.052180 16.645418 30.694896 34.977964 -1.448127 0.500069 0.044938 0.000152 533883.000000 0 0 1
-3.138880 16.866018 29.555556 34.173762 -1.386795 0.525923 0.056895 0.004071 894987.000000 0 0 1
-4.418980 17.274918 30.043396 34.936454 -1.320363 0.535636 0.039652 -0.002253 293818.000000 0 0 1
-4.943680 18.271718 29.162996 34.767455 -1.306558 0.575718 0.043507 0.000447 981322.000000 0 0 1
-6.504880 18.420518 29.333986 35.243604 -1.231334 0.587515 0.026463 -0.008754 1266680.000000 0 0 1
-7.194980 17.458218 28.529916 34.212764 -1.179881 0.584665 0.018119 -0.009488 1011830.000000 0 0 1
-8.621680 17.699618 28.445006 34.593759 -1.117513 0.605429 0.016059 -0.003002 885577.000000 0 0 1
-9.310180 16.624318 27.534586 33.484337 -1.060282 0.605333 0.014381 -0.009080 -109996.000000 0 0 1
-9.555280 15.379618 28.163686 33.481774 -1.014866 0.571363 0.016631 -0.018034 -140504.000000 0 0 1
-10.357680 15.388418 29.302816 34.680541 -0.978365 0.564352 0.021806 -0.018977 -1106030.000000 0 0 1
-10.881180 13.999418 29.750396 34.633363 -0.910076 0.537464 0.032176 -0.020702 -663209.000000 0 0 1
-9.986380 12.944618 29.967036 34.136698 -0.913696 0.499434 0.043508 -0.017677 -140470.000000 0 0 1
-9.146980 13.137118 31.098546 34.976716 -0.962578 0.475375 0.039089 -0.017853 -315335.000000 0 0 1
-9.862680 12.880118 32.456143 36.284585 -0.917304 0.463511 0.063212 -0.026211 -159517.000000 0 0 1
-10.110180 11.476418 32.619804 36.027427 -0.848605 0.438438 0.076487 -0.027075 342122.000000 0 0 1
-10.323380 11.090518 33.992938 37.216818 -0.821207 0.419296 0.074560 -0.027297 -332743.000000 0 0 1
-10.706280 9.557418 33.979480 36.885955 -0.728763 0.399633 0.066142 -0.017433 -296504.000000 0 0 1
-9.629780 8.625318 33.897218 36.278784 -0.730430 0.364355 0.087913 -0.019369 316150.000000 0 0 1
-9.266880 8.020618 -32.892894 35.101964 -0.713432 2.784929 0.106766 -0.035718 -69012.400000 0 0 1
-8.476180 8.872518 -31.901154 34.179685 -0.808240 2.774394 0.113538 -0.040424 -444506.000000 0 0 1
-9.234180 9.943018 -31.306524 34.120846 -0.822344 2.732593 0.097456 -0.029812 397121.000000 0 0 1
-8.432680 10.834118 -30.520954 33.466653 -0.909400 2.718884 0.097259 -0.037381 99375.300000 0 0 1
-7.732480 12.013518 -31.287104 34.394749 -0.998899 2.713231 0.067620 -0.038716 -69842.800000 0 0 1
-8.514180 13.047918 -31.859134 35.464685 -0.992643 2.686759 0.060390 -0.031389 -166825.000000 0 0 1
-7.690480 14.165318 -32.212894 36.020415 -1.073413 2.677651 0.035337 -0.026908 68962.600000 0 0 1
-8.341580 15.514618 -32.659674 37.107137 -1.077477 2.646965 0.031278 -0.019731 -645740.000000 0 0 1
-9.070080 15.438218 -33.832884 38.278832 -1.039613 2.654834 0.045628 -0.021883 -301517.000000 0 0 1
-9.480780 16.752818 33.978371 39.052167 -1.055812 0.515439 0.053217 -0.015986 -956217.000000 0 0 1
-10.017580 16.942618 32.519964 38.012527 -1.036824 0.544268 0.030647 -0.024972 198651.000000 0 0 1
-11.207380 16.319718 32.125315 37.735585 -0.969026 0.552287 0.028588 -0.026350 -147485.000000 0 0 1
-12.382580 16.640118 32.839386 38.841306 -0.931056 0.563341 0.030267 -0.029086 -1145320.000000 0 0 1
-13.570580 15.979318 32.144977 38.377060 -0.866733 0.577905 0.039193 -0.036743 -759412.000000 0 0 1
-13.493080 14.564218 32.145323 37.782290 -0.823556 0.553283 0.039551 -0.035506 79210.900000 0 0 1
-14.532980 13.990718 32.886524 38.580709 -0.766390 0.550222 0.044266 -0.026600 -350928.000000 0 0 1
-14.537180 12.420018 32.897964 38.050788 -0.707021 0.526482 0.045294 -0.027820 -86719.400000 0 0 1
-14.610580 11.804918 31.642116 36.797400 -0.679582 0.535721 0.030629 -0.025643 692983.000000 0 0 1
-13.352380 11.351918 31.113136 35.709653 -0.704598 0.512990 0.044024 -0.025012 491895.000000 0 0 1
-13.479180 11.008018 29.601726 34.338417 -0.684822 0.531479 0.037080 -0.012419 -4875.350000 0 0 1
-14.082180 9.743818 29.338956 33.970930 -0.605286 0.528332 0.024488 -0.011080 73254.900000 0 0 1
-14.389180 9.637018 27.971056 32.898337 -0.590128 0.554380 0.008741 0.004757 61267.100000 0 0 1
-15.162380 8.308918 27.675526 32.632355 -0.501303 0.558406 0.020239 0.000010 332356.000000 0 0 1
-14.491680 7.133718 28.098326 32.410101 -0.457439 0.521723 0.003318 0.002651 408874.000000 0 0 1
-15.394480 6.039218 27.968706 32.491701 -0.373849 0.533966 0.010338 0.006120 692237.000000 0 0 1
-14.617280 4.679318 28.191526 32.098645 -0.309814 0.498548 0.010061 0.007756 1298010.000000 0 0 1
-13.641380 4.311018 27.149926 30.688607 -0.306093 0.484966 0.008872 0.001314 580568.000000 0 0 1
-14.171580 4.058718 25.868186 29.773644 -0.278932 0.517965 0.007723 0.003173 -199852.000000 0 0 1
-13.066080 3.715818 24.819666 28.293914 -0.277072 0.500779 0.008115 0.002738 -48104.500000 0 0 1
-12.462680 2.456918 25.112506 28.142366 -0.194646 0.468297 0.007435 0.001023 -108497.000000 0 0 1
-11.742480 2.074418 23.960566 26.763739 -0.174855 0.461777 0.014133 -0.006390 -765255.000000 0 0 1
-10.770580 0.965418 24.298406 26.596051 -0.089396 0.418721 0.023702 0.002327 432323.000000 0 0 1
-9.444680 1.498618 24.511256 26.310634 -0.157361 0.371978 0.023171 -0.005300 1124630.000000 0 0 1
-8.541880 0.589018 25.168246 26.584793 -0.068847 0.327915 0.031377 0.001801 309082.000000 0 0 1
-7.071080 0.912818 24.876096 25.877665 -0.128382 0.279128 0.041189 -0.007978 -605353.000000 0 0 1
-6.772880 0.870018 23.472746 24.445830 -0.127756 0.283100 0.046030 -0.005707 74735.000000 0 1 0
-5.462980 1.068918 22.974916 23.639659 -0.193225 0.237708 0.049859 -0.010034 -17398.400000 0 1 0
-4.908680 2.508018 23.157426 23.804446 -0.472358 0.233686 0.063766 -0.016513 -228841.000000 0 1 0
-4.509080 2.760318 24.513516 25.077153 -0.549319 0.212419 0.055301 -0.018301 -100773.000000 0 0 1
-3.985080 4.024618 24.766206 25.405577 -0.790334 0.224824 0.052081 -0.023093 -2913.190000 0 0 1
3.973220 -23.409982 12.602736 26.882014 -1.402675 1.082846 0.092450 -0.029926 304367.000000 0 0 1
3.951520 -24.737682 13.064036 28.253079 -1.412398 1.090104 0.099179 -0.029924 657727.000000 0 0 1
2.605820 -25.260922 12.984036 28.521740 -1.468004 1.098163 0.067835 -0.025060 1033590.000000 0 0 1
2.384720 -26.493492 13.804036 29.969041 -1.481027 1.092114 0.056456 -0.018525 -250528.000000 0 0 1
2.127920 -26.167972 15.170036 30.321952 -1.489657 1.046853 0.068844 -0.020633 65496.800000 0 0 1
1.975120 -27.372172 15.934836 31.734144 -1.498763 1.044730 0.058725 -0.018981 -154538.000000 0 0 1
1.815120 -27.142412 17.480636 32.335396 -1.504022 0.999642 0.046882 -0.017454 -395311.000000 0 0 1
3.083520 -26.839422 17.960636 32.441441 -1.456410 0.984076 0.063402 -0.022981 -293134.000000 0 0 1
3.197520 -27.106432 19.310136 33.434475 -1.453377 0.955070 0.056779 -0.022533 -69944.900000 0 0 1
3.988920 -26.124852 20.189536 33.257131 -1.419280 0.918423 0.052502 -0.023791 -24105.400000 0 0 1
3.265520 -25.002582 20.626836 32.576972 -1.440924 0.885151 0.061063 -0.022326 400111.000000 0 0 1
4.115120 -24.295082 21.540536 32.728885 -1.403008 0.852437 0.075498 -0.024564 263272.000000 0 0 1
3.421820 -23.219182 22.409136 32.450095 -1.424479 0.808516 0.081001 -0.026130 124665.000000 0 0 1
2.595520 -22.216882 21.780136 31.220200 -1.454497 0.798713 0.095737 -0.025449 354055.000000 0 0 1
3.257620 -21.390782 20.847336 30.046448 -1.419667 0.803993 0.087423 -0.020996 -745977.000000 0 0 1
2.408620 -20.400582 20.122036 28.755548 -1.453274 0.795732 0.063656 -0.023790 -564887.000000 0 0 1
1.927920 -19.332382 20.873536 28.516002 -1.471400 0.749553 0.053601 -0.025930 -169997.000000 0 0 1
1.265120 -18.432082 20.055936 27.268714 -1.502267 0.744403 0.055535 -0.026608 -208570.000000 0 0 1
0.921920 -17.077082 20.697436 26.848846 -1.516863 0.690563 0.056443 -0.027317 537268.000000 0 0 1
2.114520 -16.310982 20.810336 26.525260 -1.441877 0.668830 0.022102 -0.015487 567026.000000 0 0 1
1.696820 -15.019582 21.159836 26.003955 -1.458299 0.620279 0.032385 -0.015542 303309.000000 0 0 1
2.723020 -13.962682 20.721436 25.134622 -1.378193 0.601623 0.000530 -0.012122 -528752.000000 0 0 1
3.062820 -13.821882 19.356336 23.981097 -1.352728 0.631488 -0.016322 -0.007686 380217.000000 0 1 0
2.088820 -13.241782 18.434236 22.793179 -1.414341 0.628754 -0.001979 -0.005919 951241.000000 0 1 0
1.249020 -11.993382 18.867736 22.391800 -1.467028 0.568670 -0.002290 -0.009840 -39889.400000 0 1 0
2.072920 -10.848882 18.845836 21.844010 -1.382000 0.530120 0.001119 -0.006380 -113898.000000 0 1 0
1.635120 -9.880782 19.814536 22.201786 -1.406798 0.467994 0.007741 -0.014347 -693413.000000 0 1 0
0.259920 -9.280282 19.702936 21.780654 -1.542796 0.440339 0.023099 -0.023115 -787909.000000 0 1 0
-0.018680 -8.472082 20.819236 22.477035 1.568591 0.386472 0.032601 -0.031306 91993.900000 0 1 0
-1.352580 -7.963282 20.784336 22.298698 1.402550 0.370663 0.037888 -0.028765 472775.000000 0 1 0
-1.794380 -7.257482 22.072636 23.304336 1.328412 0.326573 0.053587 -0.029436 -132309.000000 0 1 0
-1.974980 -8.231782 23.100336 24.602607 1.335326 0.351264 0.059992 -0.024726 53767.600000 0 1 0
-2.014880 -7.556982 24.375136 25.599120 1.310233 0.310482 0.059190 -0.014444 -19876.100000 0 0 1
-2.230880 -8.531682 25.591836 27.068588 1.315041 0.331841 0.066390 -0.014127 593062.000000 0 0 1
-1.083580 -9.346682 25.823336 27.484164 1.455380 0.349420 0.054639 -0.012568 551581.000000 0 0 1
-1.349680 -10.095682 27.018736 28.874842 1.437896 0.360505 0.060579 -0.020622 -7082.850000 0 0 1
-0.212080 -11.062182 27.381736 29.532631 1.551627 0.384012 0.048585 -0.021148 -797269.000000 0 0 1
0.908820 -10.447882 27.884836 29.791748 -1.484029 0.359730 0.034356 -0.020324 -1338420.000000 0 0 1
1.928720 -11.374482 28.105836 30.381521 -1.402828 0.389507 0.036674 -0.029002 -3409.500000 0 0 1
2.995920 -10.726182 29.047336 31.109070 -1.298428 0.366114 0.039453 -0.032496 314891.000000 0 0 1
2.483920 -10.598582 30.355036 32.247915 -1.340588 0.344329 0.048277 -0.040071 327922.000000 0 0 1
3.563720 -10.402482 31.271236 33.148181 -1.240744 0.338129 0.056239 -0.036482 25241.500000 0 0 1
3.147220 -9.795082 32.612836 34.197159 -1.259909 0.305586 0.052674 -0.046311 -489660.000000 0 0 1
2.195020 -10.568882 33.309436 35.014824 -1.366020 0.313386 0.061336 -0.049510 -21208.300000 0 0 1
2.120920 -10.375582 -33.303444 34.946679 -1.369160 2.833715 0.059678 -0.053246 -578783.000000 0 0 1
3.334420 -10.792682 -32.461644 34.370899 -1.271147 2.806718 0.058071 -0.033176 -133280.000000 0 0 1
4.474820 -9.953882 -32.542944 34.324146 -1.148312 2.818023 0.040920 -0.043489 204194.000000 0 0 1
4.630520 -8.976782 -31.495544 33.075574 -1.094563 2.831252 0.059234 -0.035144 -754619.000000 0 0 1
3.613620 -7.858882 -31.288244 32.461893 -1.139812 2.871872 0.042130 -0.026401 -402244.000000 0 0 1
3.799620 -6.762682 -32.103944 33.027779 -1.058900 2.904515 0.054864 -0.029595 100277.000000 0 0 1
2.846720 -5.811182 -31.680944 32.335056 -1.115286 2.940109 0.048531 -0.013840 114311.000000 0 0 1
2.959820 -4.432682 -32.361144 32.797147 -0.982060 2.978354 0.050551 -0.016805 58515.500000 0 0 1
2.362220 -4.426082 -33.653344 34.025253 -1.080550 2.993604 0.052389 -0.027001 59071.900000 0 0 1
2.324820 -3.092382 33.843136 34.063550 -0.926151 0.113822 0.063839 -0.008435 65981.700000 0 0 1
1.827620 -3.201482 32.394136 32.603216 -1.052074 0.113311 0.063660 -0.016502 -445792.000000 0 0 1
0.462320 -3.411282 32.251936 32.435134 -1.436090 0.106334 0.066717 -0.020937 -934490.000000 0 0 1
0.157920 -3.746682 30.887736 31.114543 -1.528672 0.120816 0.058224 -0.019146 -228828.000000 0 0 1
-1.344080 -3.932482 30.699836 30.979846 1.241455 0.134552 0.062816 -0.021552 -431288.000000 0 0 1
-2.069980 -2.767482 30.325236 30.521528 0.928599 0.113474 0.063056 -0.016703 -360823.000000 0 0 1
-3.420980 -3.158482 30.275336 30.631276 0.745523 0.152596 0.047774 -0.016585 -339886.000000 0 0 1
-4.452980 -2.089282 29.914936 30.316621 0.438695 0.162966 0.061175 -0.024457 -250691.000000 0 0 1
-4.485880 -1.835682 28.496336 28.905605 0.388424 0.168478 0.059920 -0.023739 -715531.000000 0 0 1
-5.437280 -0.982582 27.976636 28.517041 0.178783 0.194989 0.053051 -0.023675 -478292.000000 0 0 1
-5.541480 0.479818 28.503136 29.040781 -0.086371 0.192722 0.056306 -0.019436 -118606.000000 0 0 1
-6.778480 0.753418 29.121936 29.909908 -0.110694 0.230049 0.050024 -0.015625 -226770.000000 0 0 1
-6.970080 2.132718 29.220936 30.116334 -0.296936 0.244458 0.059213 -0.017350 -525875.000000 0 0 1
-8.409480 2.525518 29.520536 30.798695 -0.291748 0.289105 0.037986 -0.014883 -130448.000000 0 0 1
-9.379680 2.328018 28.500036 30.094021 -0.243282 0.326929 0.015342 -0.010871 -276487.000000 0 0 1
-10.691580 2.424918 28.946136 30.952688 -0.223033 0.362048 0.002833 -0.001913 -682825.000000 0 0 1
-11.648480 1.596718 28.096236 30.457102 -0.136226 0.396326 -0.003174 -0.000710 -474610.000000 0 0 1
-11.723780 0.223718 28.488036 30.806903 -0.019080 0.390473 0.004091 -0.005899 411896.000000 0 0 1
-12.495080 -0.496182 27.485036 30.196033 0.039689 0.426981 0.009265 -0.004852 -338070.000000 0 0 1
-12.555880 -2.030482 27.791236 30.563471 0.160328 0.429208 0.018639 -0.007707 701122.000000 0 0 1
-11.297480 -2.648982 28.117536 30.417856 0.230315 0.391400 0.032330 -0.014773 1799940.000000 0 0 1
-10.205880 -2.636982 27.123836 29.100105 0.252849 0.370664 0.025385 -0.013635 711287.000000 0 0 1
-10.330380 -3.345182 25.770836 27.965031 0.313164 0.398774 0.036614 -0.011490 -708920.000000 0 0 1
-10.850780 -2.490782 24.802536 27.186563 0.225640 0.421910 0.022451 -0.010615 107346.000000 0 0 1
-10.693880 -2.950282 23.465636 25.955718 0.269189 0.441611 0.031880 -0.008759 -244477.000000 0 0 1
-9.450380 -2.383482 22.802836 24.798387 0.247058 0.403916 0.041384 -0.012960 678628.000000 0 1 0
-8.147280 -2.838582 23.201036 24.753258 0.335256 0.356018 0.043058 -0.016074 1049370.000000 0 1 0
-7.148480 -2.442682 22.264136 23.510832 0.329267 0.327114 0.043615 -0.012079 551523.000000 0 1 0
-5.685980 -2.639982 22.755436 23.603172 0.434679 0.268824 0.045579 -0.012681 408993.000000 0 1 0
-5.060680 -3.894182 22.551336 23.437958 0.655863 0.275933 0.049204 -0.018565 -125742.000000 0 1 0
-5.441280 -4.874282 23.488536 24.598322 0.730488 0.301529 0.052813 -0.017024 -173227.000000 0 1 0
-5.456480 -6.256282 22.798936 24.263258 0.853577 0.349195 0.060016 -0.020312 364136.000000 0 1 0
-6.522080 -6.474382 21.871836 23.724088 0.781728 0.397775 0.066687 -0.025392 350265.000000 0 1 0
-6.206380 -5.973482 20.577936 22.308139 0.766279 0.396442 0.065657 -0.030916 -811506.000000 0 1 0
-7.394780 -6.070882 19.635936 21.842810 0.687397 0.453394 0.061587 -0.025589 -545115.000000 0 1 0
-8.342580 -5.172082 20.172436 22.433819 0.554968 0.452864 0.064921 -0.014614 -394613.000000 0 1 0
-9.325580 -4.888282 19.187136 21.886250 0.482804 0.501889 0.063881 -0.009339 289048.000000 0 1 0
-9.943680 -3.505282 19.391436 22.072416 0.338912 0.498005 0.052467 -0.010982 210599.000000 0 1 0
-9.002380 -2.503482 19.030236 21.200475 0.271238 0.456428 0.046948 -0.009186 167788.000000 0 1 0
-9.531080 -1.251982 18.855836 21.164864 0.130610 0.471467 0.040875 -0.009054 -102751.000000 0 1 0
-8.400880 -0.292782 18.340236 20.174854 0.034837 0.429764 0.022789 -0.006363 -123146.000000 0 1 0
-7.470080 0.050718 19.305936 20.700817 -0.006789 0.369198 0.033823 0.000952 -310553.000000 0 1 0
-7.874380 0.918918 20.395536 21.882142 -0.116172 0.370730 0.048836 0.000445 -560978.000000 0 1 0
-7.730780 2.461018 20.079236 21.656345 -0.308197 0.383994 0.036604 -0.009354 -239822.000000 0 1 0
-8.687180 2.856918 19.140136 21.212588 -0.317725 0.445719 0.026801 -0.015587 5434.460000 0 1 0
-8.453480 4.171318 18.704536 20.945665 -0.458389 0.466823 0.018849 -0.013785 -283438.000000 0 1 0
-9.394480 4.605418 17.573736 20.452440 -0.455798 0.536997 0.018306 -0.008604 -172115.000000 0 1 0
-10.719380 4.807018 18.077136 21.559113 -0.421557 0.576287 0.016516 0.001245 100571.000000 0 1 0
-11.536980 5.118618 16.982136 21.158806 -0.417578 0.639149 0.021071 0.004578 -284586.000000 0 1 0
-11.885180 6.630118 16.767136 21.595203 -0.508848 0.681817 0.036981 -0.002735 407519.000000 0 1 0
-10.738080 7.464718 16.489536 21.045977 -0.607472 0.670517 0.030311 -0.002318 910857.000000 0 1 0
-11.091780 8.813118 16.711136 21.908005 -0.671417 0.703185 0.038044 -0.005526 -9531.510000 0 1 0
-9.836380 9.697118 16.775436 21.730249 -0.778269 0.688838 0.026675 -0.000847 -342788.000000 0 1 0
-9.073080 9.475118 17.944136 22.228150 -0.807070 0.631283 0.027742 0.002752 545600.000000 0 1 0
-7.922980 10.362618 18.013936 22.240938 -0.918033 0.626738 0.022195 -0.009542 885269.000000 0 1 0
-8.120280 11.919818 18.079836 23.127937 -0.972771 0.673359 0.007691 -0.003458 -620333.000000 0 1 0
-8.234880 12.390218 16.757436 22.408534 -0.984207 0.726032 0.013252 -0.008829 -287201.000000 0 1 0
-8.878280 13.628618 16.577936 23.224794 -0.993407 0.775882 0.025755 -0.010981 -359165.000000 0 1 0
-8.743580 14.224418 15.138636 22.538025 -1.019647 0.834304 0.033255 -0.014765 20678.300000 0 1 0
-7.505580 14.795618 14.809736 22.238982 -1.101339 0.842049 0.037776 -0.009514 -462492.000000 0 1 0
-7.394280 15.182418 13.439636 21.582516 -1.117579 0.898596 0.029394 -0.019174 207930.000000 0 1 0
-6.313380 16.318418 13.265936 21.957563 -1.201645 0.922082 0.002116 -0.012507 295061.000000 0 1 0
-5.023380 15.844018 13.528836 21.431207 -1.263770 0.887609 0.009059 -0.021511 -998326.000000 0 1 0
-4.110880 16.913518 13.545836 22.055750 -1.332367 0.909471 0.015382 -0.025275 436873.000000 0 1 0
-2.625480 16.438318 13.518936 21.444651 -1.412417 0.888714 0.024836 -0.034715 40048.900000 0 1 0
-1.966480 16.072818 14.665136 21.846481 -1.449053 0.834860 0.027340 -0.026792 -515309.000000 0 1 0
-2.369480 14.851018 15.268936 21.431462 -1.412580 0.777807 0.025943 -0.018773 -786711.000000 0 1 0
-1.478980 14.293518 16.367136 21.780155 -1.467691 0.720509 0.015348 -0.005283 286400.000000 0 1 0
-0.250680 13.858518 15.761036 20.988845 -1.552710 0.721336 0.004221 -0.023941 661117.000000 0 1 0
0.809020 13.585118 16.689536 21.534868 1.511315 0.684080 0.009983 -0.001767 913814.000000 0 1 0
1.765420 14.673318 17.247636 22.713518 1.451057 0.708474 0.016646 -0.006921 26057.800000 0 1 0
1.059320 15.469818 18.145636 23.868421 1.502426 0.707120 0.018118 -0.010920 -44541.300000 0 1 0
1.898120 16.493618 18.680336 24.991943 1.456218 0.726575 0.028495 -0.010117 -145129.000000 0 1 0
1.111520 17.766218 19.091936 26.103180 1.508314 0.750420 0.035472 -0.010174 222789.000000 0 0 1
0.486620 18.481618 18.058836 25.844314 1.544472 0.797141 0.028001 -0.006436 684824.000000 0 0 1
-0.767180 17.885418 17.626936 25.123408 -1.527928 0.793136 0.044157 -0.005582 417020.000000 0 0 1
-1.442780 18.872018 16.619536 25.188165 -1.494494 0.850223 0.029996 -0.004547 -221998.000000 0 0 1
-1.961880 20.026118 17.241536 26.498395 -1.473142 0.862339 0.032714 -0.002933 105320.000000 0 0 1
-2.577380 20.958618 16.335936 26.697741 -1.448436 0.912355 0.034404 -0.012857 -222159.000000 0 0 1
-3.198980 22.240318 16.931736 28.134479 -1.427939 0.925025 0.031221 -0.009754 460511.000000 0 0 1
-4.370580 21.944618 17.709636 28.535932 -1.374205 0.901278 0.037118 -0.007148 750970.000000 0 0 1
-5.079880 23.045618 18.265736 29.841964 -1.353839 0.912105 0.039915 -0.010973 -17502.200000 0 0 1
-6.050280 22.724018 19.402336 30.486678 -1.310583 0.880948 0.032311 -0.009558 -166789.000000 0 0 1
-7.354180 22.502918 18.920236 30.305785 -1.254928 0.896547 0.025862 -0.010124 -584751.000000 0 0 1
-8.156180 21.884718 19.884436 30.673359 -1.214054 0.865494 0.007473 -0.003511 -392404.000000 0 0 1
-9.633880 22.244318 19.734936 31.258423 -1.162090 0.887506 0.011019 -0.005592 -384905.000000 0 0 1
-9.906080 23.620118 19.984836 32.487445 -1.173686 0.908213 0.015326 -0.005828 -13080.500000 0 0 1
-11.047480 23.960518 19.228036 32.647674 -1.138775 0.941030 0.018474 -0.004520 409508.000000 0 0 1
-11.771780 25.364418 19.259336 33.953652 -1.136274 0.967665 0.028669 -0.012207 514155.000000 0 0 1
-12.550980 25.611118 20.435136 35.086340 -1.115132 0.949089 0.032588 -0.003194 216656.000000 0 0 1
-13.005380 26.932918 20.505736 36.263028 -1.120938 0.969791 0.034540 -0.012094 -558279.000000 0 0 1
-13.930280 27.109018 21.714636 37.422947 -1.096121 0.951762 0.055761 -0.020840 -1018040.000000 0 0 1
-15.130680 26.421718 21.695536 37.386374 -1.050722 0.951692 0.065785 -0.019240 -379572.000000 0 0 1
-15.886480 26.741418 22.839936 38.589459 -1.034743 0.937420 0.071873 -0.020411 265967.000000 0 0 1
-17.364680 26.313418 23.034036 39.044780 -0.987481 0.939813 0.087056 -0.024196 386988.000000 0 0 1
-17.630080 24.914918 22.953736 38.189617 -0.954980 0.925986 0.087592 -0.022172 321257.000000 0 0 1
-19.030280 24.674118 23.069336 38.770580 -0.913824 0.933504 0.099631 -0.017463 456328.000000 0 0 1
28.146520 24.496818 23.511406 44.103366 0.716180 1.008539 0.080868 -0.019919 51380.400000 0 0 1
27.975220 23.655518 24.593736 44.125370 0.701927 0.979593 0.086989 -0.029980 79369.300000 0 0 1
27.557120 22.369318 24.189896 42.952675 0.681861 0.972573 0.085457 -0.026175 -149375.000000 0 0 1
27.004220 21.328618 25.252516 42.682870 0.668506 0.937716 0.109543 -0.027234 496999.000000 0 0 1
25.702820 21.557218 25.785926 42.311495 0.697903 0.915454 0.087772 -0.023045 467805.000000 0 0 1
25.403920 20.590318 26.803956 42.282058 0.681121 0.884169 0.086368 -0.023013 -591735.000000 0 0 1
24.077020 20.705918 27.520626 42.021694 0.710263 0.856727 0.090164 -0.027258 -764785.000000 0 0 1
23.899420 21.948618 28.193656 42.986118 0.742875 0.855451 0.098765 -0.037294 404210.000000 0 0 1
22.691720 22.010018 28.963206 42.874495 0.770149 0.829107 0.112242 -0.036658 268069.000000 0 0 1
22.497420 23.317318 29.808196 44.026807 0.803292 0.827054 0.109293 -0.043590 -242978.000000 0 0 1
22.302520 24.413018 28.916416 43.926722 0.830545 0.852255 0.114728 -0.040389 58355.600000 0 0 1
21.999320 25.648018 29.494146 44.851929 0.861826 0.853182 0.113732 -0.039886 628429.000000 0 0 1
20.560620 25.914818 30.064166 44.700905 0.900097 0.833130 0.118641 -0.038715 268038.000000 0 0 1
19.502120 25.987118 29.137426 43.642325 0.927005 0.839760 0.113202 -0.045349 797516.000000 0 0 1
18.251320 26.442818 29.667946 43.732371 0.966665 0.825217 0.099303 -0.041999 557874.000000 0 0 1
17.319320 25.441118 30.307156 43.194132 0.973099 0.793086 0.079745 -0.034586 -761600.000000 0 0 1
17.649820 25.073418 31.574296 44.012823 0.957441 0.770750 0.075532 -0.035267 -492182.000000 0 0 1
16.522520 24.655518 32.276261 43.847979 0.980397 0.743514 0.056448 -0.023946 -373966.000000 0 0 1
16.870020 24.188218 33.687089 44.771502 0.961785 0.719064 0.062166 -0.023986 -487519.000000 0 0 1
17.275420 25.201018 -33.496354 45.338033 0.969865 2.402104 0.073694 -0.028171 -9508.260000 0 0 1
17.554920 24.765818 -32.168624 44.230548 0.954164 2.385168 0.035970 -0.006027 -65058.500000 0 0 1
17.985220 25.878518 -31.193164 44.341621 0.963443 2.351070 0.044107 0.004943 495282.000000 0 0 1
16.880320 26.696918 -30.764524 44.092251 1.006969 2.343021 0.050117 -0.013361 769128.000000 0 0 1
17.312420 27.968618 -30.278004 44.707058 1.016527 2.314819 0.062136 -0.011942 -74937.100000 0 0 1
16.856720 28.249818 -28.853944 43.757872 1.032805 2.290817 0.079985 -0.012437 -212764.000000 0 0 1
17.537420 27.450718 -27.931884 42.910292 1.002286 2.279614 0.055181 -0.004868 28143.600000 0 0 1
17.215320 27.950018 -26.656934 42.286675 1.018744 2.252847 0.042217 0.000169 10297.300000 0 0 1
17.890020 27.193218 -25.442904 41.314226 0.988898 2.234247 0.035004 -0.001564 733917.000000 0 0 1
19.308620 27.129018 -25.521814 41.954373 0.952239 2.224742 0.048866 -0.001940 -36614.500000 0 0 1
19.934520 26.691718 -24.312864 41.242554 0.929319 2.201247 0.044172 -0.002355 431471.000000 0 0 1
21.468420 26.833618 -24.544164 42.229754 0.896021 2.191006 0.040732 -0.002511 34095.300000 0 0 1
22.088120 26.382418 -23.395864 41.608695 0.873763 2.167940 0.037348 -0.002393 386388.000000 0 0 1
23.523720 26.427618 -23.547064 42.499984 0.843467 2.158016 0.040609 0.001652 1007820.000000 0 0 1
24.164520 26.347718 -22.161664 42.062639 0.828592 2.125713 0.048434 -0.006279 -132452.000000 0 0 1
24.085120 25.013018 -21.592464 40.889835 0.804295 2.127116 0.063515 -0.007794 -150931.000000 0 0 1
24.320920 24.934918 -20.191864 40.261255 0.797863 2.096152 0.052990 -0.008308 -193950.000000 0 0 1
23.813120 23.674818 -19.399364 38.780111 0.782486 2.094672 0.057736 -0.023768 -238959.000000 0 0 1
24.473320 22.445018 -19.742064 38.632516 0.742195 2.107170 0.060780 -0.017182 385798.000000 0 0 1
24.217320 21.535218 -18.684664 37.408032 0.726843 2.093798 0.070611 -0.025220 -1207360.000000 0 0 1
24.454420 20.034618 -19.093464 36.931896 0.686377 2.114129 0.092576 -0.030407 354277.000000 0 0 1
23.545820 19.459818 -20.049164 36.538461 0.690672 2.151621 0.067333 -0.028978 510545.000000 0 0 1
22.190420 19.609118 -19.661164 35.545656 0.723722 2.156906 0.060481 -0.029735 -488708.000000 0 0 1
21.181020 19.398718 -20.852564 35.493314 0.741505 2.198771 0.073763 -0.029546 203123.000000 0 0 1
21.319020 20.244818 -21.985964 36.711523 0.759559 2.212904 0.069022 -0.025059 -112147.000000 0 0 1
21.269520 21.675218 -21.759264 37.358709 0.794845 2.192525 0.058057 -0.016866 -95577.800000 0 0 1
20.662620 22.428418 -22.968464 38.177587 0.826354 2.216326 0.062390 -0.009932 179797.000000 0 0 1
19.255620 22.337618 -22.995964 37.397359 0.859362 2.233067 0.071513 -0.020039 -557678.000000 0 0 1
18.831520 22.861918 -24.211064 38.255314 0.881766 2.256065 0.061114 -0.014238 459201.000000 0 0 1
17.292420 22.939518 -24.432564 37.712060 0.924851 2.275583 0.053489 -0.012438 564420.000000 0 0 1
16.623320 23.971218 -23.714664 37.594406 0.964466 2.253384 0.045172 -0.018530 -486181.000000 0 0 1
15.241720 23.876818 -23.903564 37.064712 1.002656 2.271708 0.039511 -0.017843 -283586.000000 0 0 1
14.499020 25.030018 -23.200164 37.080601 1.045762 2.246785 0.040520 -0.014625 -249440.000000 0 0 1
14.798620 26.240518 -23.816664 38.403091 1.057298 2.239763 0.024965 -0.004621 -350978.000000 0 0 1
13.895720 27.264018 -23.548064 38.612550 1.099441 2.226674 0.057768 -0.012826 -330111.000000 0 0 1
14.092720 28.628518 -24.262264 40.085587 1.113359 2.220891 0.053413 -0.017746 -1788.980000 0 0 1
13.999420 28.539718 -25.675254 40.862182 1.114758 2.250211 0.049756 -0.022338 218189.000000 0 0 1
13.372120 29.661018 -26.353964 41.870288 1.147251 2.251602 0.082868 -0.035450 -259727.000000 0 0 1
14.107620 30.981318 -26.383254 43.069051 1.143495 2.230117 0.096220 -0.036751 -1442870.000000 0 0 1
15.243420 30.882318 -27.124904 43.838794 1.112284 2.237937 0.077795 -0.015597 -1379210.000000 0 0 1
15.879420 32.125318 -27.194554 44.985951 1.111722 2.219950 0.084941 -0.029605 -1103610.000000 0 0 1
17.295520 32.064818 -27.699464 45.766231 1.076134 2.220861 0.075311 -0.011659 -743284.000000 0 0 1
18.253620 31.623118 -26.733044 45.253419 1.047292 2.202773 0.037917 -0.006969 454517.000000 0 0 1
19.459220 31.180318 -27.349804 45.813593 1.012854 2.210528 0.037848 -0.010241 -232506.000000 0 0 1
20.208220 30.415918 -26.265224 44.981799 0.984367 2.194330 0.013238 -0.005052 -451526.000000 0 0 1
20.744120 31.055118 -25.095924 44.994936 0.981887 2.162469 0.017508 -0.015521 995888.000000 0 0 1
21.773420 32.060318 -25.246474 46.252895 0.974208 2.148182 0.026838 -0.025464 342649.000000 0 0 1
23.232420 31.597518 -25.420114 46.736824 0.936795 2.145873 0.012895 -0.012380 -289519.000000 0 0 1
23.637220 31.082118 -26.710924 47.310567 0.920624 2.170729 0.022769 -0.004689 718991.000000 0 0 1
24.709520 31.813618 -27.306594 48.665355 0.910427 2.166522 0.014462 0.007639 -340831.000000 0 0 1
25.039520 31.467418 -28.758654 49.439217 0.898665 2.191610 0.018115 0.008120 -221529.000000 0 0 1
24.052520 31.860018 -29.713884 49.764439 0.924139 2.210666 0.031428 -0.005924 353102.000000 0 0 1
22.976320 30.971318 -29.889644 48.790621 0.932526 2.230155 0.020031 -0.003187 428234.000000 0 0 1
21.736720 31.523718 -30.686614 49.070338 0.967128 2.246389 0.039908 -0.004925 491266.000000 0 0 1
21.044920 32.606218 -30.056254 49.085971 0.997643 2.229786 0.057695 -0.007223 181476.000000 0 0 1
20.226820 33.339118 -30.924904 49.769175 1.025465 2.241282 0.073413 -0.017468 402245.000000 0 0 1
18.678420 33.164018 -30.723464 48.914893 1.057865 2.249906 0.069921 -0.027138 554695.000000 0 0 1
18.190320 31.824818 -31.055104 48.042963 1.051539 2.273657 0.085699 -0.032427 193592.000000 0 0 1
18.401620 31.185818 -32.313114 48.531559 1.037715 2.299384 0.088293 -0.037728 -706931.000000 0 0 1
17.726020 31.819018 -33.543024 49.515615 1.062527 2.315050 0.105236 -0.045578 -467136.000000 0 0 1
18.234020 33.108518 -33.831174 50.726737 1.067389 2.300877 0.095194 -0.038787 145601.000000 0 0 1
17.766420 33.663818 32.975619 50.361590 1.085188 0.856909 0.081865 -0.034713 -316853.000000 0 0 1
16.298820 -33.952553 32.930349 50.028345 -1.123238 0.852326 0.090021 -0.040055 -956803.000000 0 0 1
15.362620 33.049518 32.790539 49.025505 1.135673 0.838140 0.087324 -0.043037 747548.000000 0 0 1
13.992120 33.473418 32.856765 48.947075 1.174864 0.834874 0.069033 -0.040418 866212.000000 0 0 1
13.476720 -33.956953 31.563616 48.280001 -1.192985 0.858251 0.070086 -0.044840 -1019870.000000 0 0 1
14.188220 -32.798953 31.134626 47.396644 -1.162522 0.854103 0.080376 -0.030870 -90414.700000 0 0 1
13.561320 -32.149953 30.065986 46.059661 -1.171627 0.859572 0.081439 -0.031207 -295119.000000 0 0 1
14.084220 -30.768153 29.618176 44.969777 -1.141514 0.851808 0.066905 -0.019828 -331359.000000 0 0 1
13.832020 -29.775553 30.552736 44.848389 -1.135915 0.821335 0.069270 -0.020958 341742.000000 0 0 1
14.344220 -28.497453 30.163046 43.905248 -1.104472 0.813439 0.073591 -0.022791 -417764.000000 0 0 1
13.903220 -27.362353 31.117536 43.706967 -1.100678 0.778513 0.082204 -0.024184 542286.000000 0 0 1
12.481920 -27.216153 31.204426 43.246197 -1.140796 0.764753 0.082091 -0.024994 881822.000000 0 0 1
11.841320 -26.281853 30.310416 41.829104 -1.147484 0.760306 0.060146 -0.020887 -213472.000000 0 0 1
11.972520 -24.780353 30.545246 41.114708 -1.120723 0.733363 0.060886 -0.024466 -207671.000000 0 0 1
11.085020 -24.361553 31.534606 41.361749 -1.143775 0.703767 0.066319 -0.030858 66272.000000 0 0 1
11.776820 -23.406753 32.293560 41.586579 -1.104642 0.681644 0.065232 -0.033526 627525.000000 0 0 1
10.842920 -22.641353 33.319387 41.717878 -1.124172 0.645692 0.064175 -0.030908 -207864.000000 0 0 1
10.533020 -23.320453 -33.446534 42.112453 -1.146559 2.488518 0.068292 -0.025000 -9139.300000 0 0 1
11.491920 -23.578053 -32.440744 41.717990 -1.117280 2.461668 0.081975 -0.022178 -220443.000000 0 0 1
12.035220 -22.345853 -31.720454 40.624757 -1.076757 2.466767 0.082444 -0.029027 -32576.100000 0 0 1
12.448020 -21.357553 -32.621404 40.929871 -1.043091 2.493120 0.060653 -0.024431 -84534.800000 0 0 1
13.424720 -20.494253 -32.087644 40.371456 -0.990881 2.489491 0.074111 -0.030559 -168766.000000 0 0 1
13.750920 -19.319653 -33.061714 40.686776 -0.952223 2.519381 0.052745 -0.027113 -342042.000000 0 0 1
14.333820 -19.823253 33.761065 41.692077 -0.944747 0.627033 0.090411 -0.014991 292159.000000 0 0 1
14.251820 -19.028053 32.617365 40.361785 -0.927942 0.629835 0.050175 -0.011219 -314208.000000 0 0 1
15.196520 -17.821053 32.388074 39.968881 -0.864720 0.626077 0.071415 -0.022942 -436371.000000 0 0 1
14.885120 -16.752253 33.227041 40.077937 -0.844346 0.593371 0.051914 -0.013481 92978.200000 0 0 1
15.497620 -15.492853 33.013379 39.624335 -0.785244 0.586001 0.089755 -0.020772 54874.400000 0 0 1
16.926720 -15.345253 33.601716 40.633311 -0.736433 0.597135 0.101927 -0.017585 103382.000000 0 0 1
17.920720 -16.074153 32.927304 40.788944 -0.731133 0.631301 0.111213 -0.012939 -509717.000000 0 0 1
19.179620 -15.686653 33.408183 41.593697 -0.685549 0.638144 0.138553 -0.018069 -59844.300000 0 0 1
20.364520 -16.329453 32.623548 41.781103 -0.675873 0.674818 0.158916 -0.035312 -9901.060000 0 0 1
20.483820 -15.752053 31.340866 40.619748 -0.655550 0.689495 0.140787 -0.025812 38074.200000 0 0 1
21.375620 -16.542953 30.613566 40.838424 -0.658633 0.723299 0.133407 -0.030885 -679700.000000 0 0 1
21.661320 -15.934553 29.270346 39.747653 -0.634236 0.743056 0.125563 -0.015339 -959931.000000 0 0 1
22.524420 -14.902953 29.356316 39.890360 -0.584511 0.743764 0.119670 -0.015021 -460678.000000 0 0 1
22.669920 -14.181453 28.134876 38.815076 -0.559004 0.759988 0.101313 -0.021602 431636.000000 0 0 1
23.576120 -12.891153 28.191876 38.946080 -0.500374 0.761402 0.087136 -0.013027 196619.000000 0 0 1
22.816220 -11.752853 28.512676 38.362510 -0.475662 0.732891 0.101813 -0.017269 -140606.000000 0 0 1
23.535320 -10.592153 28.771216 38.650846 -0.422898 0.731179 0.081356 -0.017272 -554151.000000 0 0 1
22.642020 -9.373153 28.723686 37.756684 -0.392493 0.706317 0.087370 -0.023013 -71639.900000 0 0 1
21.712620 -9.203453 29.772326 37.980690 -0.400918 0.669905 0.101819 -0.031516 -348007.000000 0 0 1
20.911020 -8.092253 29.533636 37.080871 -0.369237 0.649369 0.087993 -0.027461 94825.100000 0 0 1
19.712920 -7.938453 30.533676 37.201124 -0.382834 0.608034 0.065805 -0.010037 178375.000000 0 0 1
19.974820 -7.597353 31.870386 38.372317 -0.363450 0.590690 0.070734 -0.013586 129888.000000 0 0 1
20.248020 -8.739053 32.747281 39.480853 -0.407448 0.592679 0.088770 -0.020072 -474996.000000 0 0 1
20.237620 -8.405553 -33.767384 40.254824 -0.393663 2.565946 0.083826 -0.029826 -55399.100000 0 0 1
18.929920 -8.204453 -33.292074 39.166531 -0.408974 2.586807 0.077448 -0.029036 73488.700000 0 0 1
18.996420 -7.289553 -32.193354 38.084296 -0.366405 2.577957 0.082578 -0.035992 308071.000000 0 0 1
17.723920 -7.316753 -31.299574 36.706070 -0.391507 2.591945 0.089194 -0.031020 312872.000000 0 0 1
17.897920 -6.482153 -30.174714 35.677265 -0.347478 2.578801 0.094932 -0.026619 545475.000000 0 0 1
16.697420 -6.414753 -29.413244 34.425163 -0.366791 2.595213 0.097900 -0.020671 123279.000000 0 0 1
16.565320 -5.136653 -28.595544 33.443986 -0.300683 2.596401 0.092266 -0.021082 -71364.400000 0 0 1
17.249420 -5.126353 -27.326434 32.719352 -0.288877 2.559250 0.085010 -0.021509 355135.000000 0 0 1
16.817720 -6.059253 -26.331614 31.826155 -0.345812 2.545183 0.101709 -0.025497 624204.000000 0 0 1
15.363220 -5.862653 -25.769774 30.569274 -0.364547 2.573625 0.082133 -0.018030 761359.000000 0 0 1
15.252720 -4.694453 -25.016474 29.673344 -0.298577 2.573748 0.098561 -0.011809 -237805.000000 0 0 1
13.927820 -4.512253 -24.565364 28.597233 -0.313304 2.604133 0.045287 -0.016473 18430.200000 0 0 1
13.713620 -3.259753 -23.633764 27.518070 -0.233371 2.603807 0.068702 -0.012804 36871.700000 0 0 1
13.964720 -2.087853 -24.393564 28.185431 -0.148410 2.616878 0.061264 -0.014463 196142.000000 0 0 1
13.896320 -0.954853 -23.543564 27.355418 -0.068605 2.607350 0.064910 -0.020809 -184002.000000 0 0 1
14.235720 0.401147 -24.214464 28.091937 0.028171 2.609943 0.060586 -0.020839 -731863.000000 0 0 1
13.365020 0.845147 -25.215584 28.551072 0.063152 2.653384 0.063528 -0.024863 -54214.700000 0 0 1
13.877920 2.017147 -25.895754 29.449204 0.144339 2.645263 0.075942 -0.015962 243258.000000 0 0 1
12.937920 2.713147 -26.937384 30.006226 0.206710 2.685378 0.083650 -0.030266 497241.000000 0 0 1
11.702520 3.200147 -26.433404 29.084614 0.266932 2.711303 0.081369 -0.034420 394424.000000 0 0 1
10.846720 3.629147 -27.490834 29.775292 0.322876 2.747321 0.070358 -0.033320 786861.000000 0 0 1
9.572920 4.428147 -27.043124 29.027226 0.433258 2.769715 0.053076 -0.029581 368662.000000 0 0 1
9.869220 5.705147 -26.620744 28.958837 0.524142 2.736997 0.061723 -0.030795 181313.000000 0 0 1
8.723720 6.541147 -26.616414 28.763230 0.643381 2.752787 0.068101 -0.035406 -118139.000000 0 0 1
8.429620 5.002618 -31.116524 32.623960 0.535595 2.836415 0.067598 -0.027357 -35802.300000 0 0 1
8.250420 4.066718 -30.113464 31.486955 0.457960 2.845141 0.053525 -0.022145 219543.000000 0 0 1
7.780220 2.848118 -30.650084 31.750138 0.350920 2.877588 0.046346 -0.016094 -83038.700000 0 0 1
7.568220 1.804318 -29.512884 30.521203 0.234038 2.883832 0.043759 -0.011032 37148.400000 0 0 1
8.795220 1.286818 -29.017554 30.348480 0.145278 2.844341 0.060150 -0.019843 392492.000000 0 0 1
8.648520 0.372018 -27.941194 29.251421 0.042989 2.841158 0.039205 -0.013040 -210353.000000 0 0 1
9.980020 -0.050882 -27.290764 29.058376 -0.005098 2.791003 0.051535 -0.020939 154257.000000 0 0 1
10.861420 -0.870482 -28.062674 30.103851 -0.079973 2.771228 0.078736 -0.019945 -412362.000000 0 0 1
11.860120 -1.279382 -27.202784 29.703379 -0.107457 2.728328 0.075817 -0.019184 -511845.000000 0 0 1
12.512620 -2.625782 -27.612194 30.428501 -0.206849 2.707959 0.073163 -0.017419 676137.000000 0 0 1
11.581620 -3.696982 -27.303724 29.888040 -0.308987 2.722684 0.068098 -0.006884 913203.000000 0 0 1
12.051720 -5.002182 -27.775874 30.688189 -0.393421 2.702411 0.071658 -0.007120 139123.000000 0 0 1
11.272020 -6.162582 -27.112004 30.001610 -0.500318 2.699095 0.032778 -0.013011 -62818.800000 0 0 1
11.399320 -6.102282 -25.713004 28.780913 -0.491503 2.675664 0.046199 -0.008215 211831.000000 0 0 1
10.612820 -7.039082 -24.978964 28.037997 -0.585642 2.670112 0.038605 -0.011306 -14243.600000 0 0 1
10.689820 -6.763982 -23.454264 26.648194 -0.564153 2.646963 0.040840 -0.013142 -616442.000000 0 0 1
11.999420 -6.902482 -22.999464 26.844100 -0.522011 2.599787 0.040478 -0.012932 -528557.000000 0 0 1
11.934220 -6.922882 -21.592064 25.623605 -0.525649 2.573006 0.049644 -0.015504 -214148.000000 0 0 1
13.262720 -7.018582 -20.824164 25.667218 -0.486731 2.517192 0.062246 -0.011259 -154922.000000 0 0 1
13.773720 -5.728382 -20.684664 25.502648 -0.394131 2.516791 0.052344 -0.014086 -1247660.000000 0 0 1
14.951820 -5.769582 -19.982764 25.615540 -0.368273 2.465627 0.062151 -0.013922 -945898.000000 0 0 1
15.339620 -4.455882 -19.241664 25.008008 -0.282702 2.448729 0.058640 -0.015951 -109070.000000 0 0 1
16.018220 -3.641982 -20.157864 26.003594 -0.223564 2.457821 0.052190 -0.013981 7922.870000 0 0 1
16.480220 -2.462482 -19.627864 25.747127 -0.148323 2.437705 0.050581 -0.013533 -359817.000000 0 0 1
17.361220 -1.571082 -20.524264 26.928158 -0.090248 2.437480 0.031156 -0.011021 126371.000000 0 0 1
18.662320 -2.116382 -20.604264 27.880046 -0.112922 2.402430 0.045646 -0.016487 185523.000000 0 0 1
19.531220 -1.280982 -21.387564 28.992023 -0.065493 2.400461 0.049110 -0.013321 487045.000000 0 0 1
20.836420 -2.033182 -21.782064 30.211729 -0.097270 2.376012 0.046747 -0.017705 -777235.000000 0 0 1
21.671220 -2.264482 -20.695764 30.051361 -0.104115 2.330463 0.035956 -0.010089 399466.000000 0 0 1
22.895420 -2.940682 -21.015164 31.216742 -0.127740 2.309326 0.041590 -0.014421 705362.000000 0 0 1
24.005920 -2.086682 -21.652564 32.395555 -0.086706 2.302826 0.046853 -0.018641 -1111890.000000 0 0 1
23.841720 -1.824682 -23.079764 33.233005 -0.076384 2.338498 0.040428 -0.024387 513035.000000 0 0 1
24.847220 -1.010082 -23.705264 34.356137 -0.040629 2.332266 0.030652 -0.016479 29571.600000 0 0 1
26.059020 -1.686482 -24.331164 35.692048 -0.064628 2.320876 0.042365 -0.023592 -710998.000000 0 0 1
26.965120 -2.163382 -23.333764 35.724816 -0.080057 2.282537 0.033025 -0.014921 1011930.000000 0 0 1
28.178820 -2.836582 -23.722664 36.943970 -0.100326 2.268064 0.029337 -0.011620 840013.000000 0 0 1
29.220620 -1.952682 -24.397464 38.116845 -0.066726 2.265386 0.028326 -0.020427 -1193350.000000 0 0 1
28.885520 -1.697982 -25.767444 38.745549 -0.058716 2.298347 0.039472 -0.019036 333717.000000 0 0 1
29.646920 -0.624682 -26.336854 39.660560 -0.021068 2.297028 0.024040 -0.018124 -616807.000000 0 0 1
29.221320 -0.292882 -27.768034 40.311724 -0.010023 2.330674 0.040938 -0.022314 231903.000000 0 0 1
27.901120 0.224418 -27.859724 39.429521 0.008043 2.355436 0.038785 -0.013984 391279.000000 0 0 1
27.562720 1.504418 -27.290014 38.816384 0.054528 2.350479 0.033472 -0.006393 496187.000000 0 0 1
26.032020 1.881718 -27.338354 37.796727 0.072159 2.379365 0.030784 -0.014788 644242.000000 0 0 1
25.160820 1.290218 -26.453364 36.530973 0.051234 2.380576 0.034374 -0.017448 -507757.000000 0 0 1
23.831020 1.413518 -26.865704 35.939972 0.059245 2.415111 0.035186 -0.023907 -375307.000000 0 0 1
22.744920 1.192018 -25.796604 34.412455 0.052360 2.418299 0.043743 -0.024568 -167848.000000 0 0 1
22.712620 2.026118 -24.728164 33.637039 0.088971 2.396680 0.050518 -0.023792 824205.000000 0 0 1
21.779420 1.576918 -23.697264 32.224062 0.072278 2.397039 0.048693 -0.023372 515032.000000 0 0 1
21.949320 2.297618 -22.368164 31.422706 0.104298 2.362921 0.043416 -0.012616 -255130.000000 0 0 1
21.564820 3.684318 -22.350564 31.275604 0.169215 2.366895 0.060950 -0.014740 442135.000000 0 0 1
21.835520 4.114618 -21.043764 30.603268 0.186253 2.329018 0.057472 -0.015345 -177758.000000 0 0 1
21.410120 5.549918 -20.656564 30.263649 0.253637 2.322047 0.069309 -0.011229 396699.000000 0 0 1
22.355720 6.509718 -21.163364 31.464943 0.283353 2.308515 0.052673 -0.005758 708552.000000 0 0 1
22.045420 7.726518 -20.614164 31.155150 0.337104 2.293829 0.046808 -0.002944 -398670.000000 0 0 1
22.507420 8.080518 -19.168664 30.648269 0.344684 2.246492 0.051305 -0.018700 -688100.000000 0 0 1
23.871220 8.327518 -18.966164 31.605349 0.335652 2.214414 0.035964 -0.019510 -187169.000000 0 0 1
24.180920 8.607118 -17.626464 31.136660 0.341963 2.172563 0.057413 -0.034663 -77586.800000 0 0 1
23.896120 10.041918 -17.121464 31.064597 0.397825 2.154546 0.059451 -0.044580 -2636.450000 0 0 1
22.508020 10.229818 -16.904464 29.950310 0.426587 2.170523 0.060161 -0.057462 -7121.400000 0 0 1
22.296620 11.567218 -16.640164 30.130298 0.478565 2.155885 0.049956 -0.049897 -257735.000000 0 0 1
20.784120 11.880418 -16.513164 29.082788 0.519283 2.174625 0.050890 -0.052011 283912.000000 0 0 1
20.007020 11.793118 -17.695664 29.197517 0.532625 2.221903 0.058531 -0.055757 71236.600000 0 0 1
19.537320 10.489718 -17.875164 28.482671 0.492735 2.249238 0.062692 -0.054032 -468114.000000 0 0 1
18.695420 10.168218 -19.160364 28.636183 0.498139 2.303788 0.080071 -0.029117 89875.900000 0 0 1
19.462620 10.279318 -20.323264 29.958188 0.485919 2.316362 0.088225 -0.025360 94820.600000 0 0 1
18.758620 9.697218 -21.388464 30.056418 0.477113 2.362584 0.072991 -0.025251 125983.000000 0 0 1
19.598720 9.723618 -22.706064 31.531317 0.460551 2.374759 0.087410 -0.024071 20770.400000 0 0 1
19.518720 11.035418 -23.239764 32.293150 0.514572 2.374094 0.087261 -0.024803 261316.000000 0 0 1
20.380220 11.349018 -24.307564 33.689928 0.508098 2.376775 0.090745 -0.026248 -21499.800000 0 0 1
20.173320 12.893718 -24.573464 34.308395 0.568708 2.369213 0.115229 -0.026124 323056.000000 0 0 1
21.166820 13.539118 -25.374054 35.709727 0.569057 2.361096 0.094696 -0.024194 191788.000000 0 0 1
21.048520 14.952518 -25.403834 36.221165 0.617661 2.348091 0.100531 -0.019021 196282.000000 0 0 1
19.877320 15.616618 -26.197814 36.404836 0.665930 2.374058 0.087680 -0.011864 987568.000000 0 0 1
18.599120 15.327018 -25.622534 35.176114 0.689248 2.386791 0.080809 -0.026168 -232599.000000 0 0 1
17.569420 15.637018 -26.496894 35.430019 0.727270 2.415637 0.064323 -0.024670 -481098.000000 0 0 1
16.216120 15.043618 -26.070844 34.190085 0.747907 2.438006 0.061074 -0.032850 -254529.000000 0 0 1
16.104220 13.662218 -26.184984 33.640088 0.703543 2.462888 0.060286 -0.023221 548408.000000 0 0 1
14.771120 13.283818 -25.835934 32.590509 0.732434 2.486094 0.044935 -0.028201 449235.000000 0 0 1
14.463220 11.754918 -25.835434 31.856436 0.682464 2.516648 0.051892 -0.027336 12765.800000 0 0 1
13.086520 11.456518 -25.710184 31.040657 0.719082 2.546817 0.050785 -0.022481 -26876.200000 0 0 1
12.903820 10.098318 -25.402464 30.228625 0.664031 2.568715 0.073267 -0.024054 98851.900000 0 0 1
11.422320 9.679918 -25.222274 29.331439 0.703016 2.605881 0.063854 -0.040667 189121.000000 0 0 1
10.871220 10.141218 -24.012264 28.242106 0.750671 2.587217 0.068006 -0.041610 10349.800000 0 0 1
9.638720 9.485018 -23.759764 27.338560 0.777361 2.624163 0.054328 -0.039775 363286.000000 0 0 1
8.738620 10.109418 -22.649664 26.297740 0.857999 2.608576 0.057719 -0.041511 133738.000000 0 0 1
8.019720 11.254418 -23.094764 26.913676 0.951674 2.602364 0.062433 -0.045203 -273023.000000 0 0 1
7.573120 12.091318 -22.047564 26.261135 1.011243 2.567253 0.064453 -0.040544 303694.000000 0 0 1
8.637220 12.879818 -21.199664 26.266272 0.980075 2.510030 0.070003 -0.038426 467935.000000 0 0 1
9.509020 12.034118 -20.445464 25.558921 0.902077 2.497982 0.078236 -0.045455 991.506000 0 0 1
10.432520 12.877218 -19.746664 25.779662 0.889895 2.443358 0.091782 -0.043220 -96706.700000 0 0 1
11.509820 12.046318 -18.980764 25.255874 0.808170 2.421188 0.110554 -0.041799 -398142.000000 0 0 1
12.513220 11.431518 -19.706964 25.992782 0.740254 2.431299 0.104434 -0.043794 -654073.000000 0 0 1
12.173320 10.471318 -20.686664 26.187331 0.710378 2.481523 0.097605 -0.044522 -1264560.000000 0 0 1
13.346920 9.800718 -21.368864 27.033733 0.633381 2.482343 0.098665 -0.039806 -257428.000000 0 0 1
14.137120 8.957818 -20.547464 26.500924 0.564787 2.458064 0.122125 -0.044866 344490.000000 0 0 1
15.109920 8.234718 -21.283864 27.370114 0.498987 2.461686 0.112316 -0.040602 162945.000000 0 0 1
15.695820 7.041618 -20.446164 26.720569 0.421714 2.442124 0.139835 -0.042782 492844.000000 0 0 1
16.657020 7.337718 -19.426764 26.621375 0.414941 2.388742 0.109457 -0.032944 426610.000000 0 0 1
17.067920 6.158818 -18.794964 26.124617 0.346301 2.373785 0.092716 -0.040609 -167352.000000 0 0 1
17.827420 6.329218 -17.465564 25.747269 0.341146 2.316306 0.108877 -0.035015 499979.000000 0 0 1
19.145820 6.831718 -17.731464 26.974796 0.342743 2.288073 0.091695 -0.046418 1177340.000000 0 0 1
20.042420 6.961518 -16.612864 26.947144 0.334302 2.235084 0.076615 -0.065393 700354.000000 0 0 1
20.767020 5.664618 -16.064064 26.859099 0.266292 2.211908 0.066159 -0.062664 -731262.000000 0 0 1
21.919120 5.350618 -16.791864 28.125498 0.239425 2.210594 0.056027 -0.050795 -213164.000000 0 0 1
22.673020 4.482818 -16.000964 28.110360 0.195198 2.176353 0.091528 -0.057292 -919166.000000 0 0 1
23.946320 3.910318 -16.583564 29.389308 0.161867 2.170348 0.032376 -0.017828 -838655.000000 0 0 1
24.466820 3.085218 -15.627464 29.195231 0.125436 2.135629 0.032740 -0.010741 -209291.000000 0 0 1
25.684020 2.461518 -15.963764 30.340892 0.095547 2.124859 0.034289 -0.016054 -113070.000000 0 0 1
26.191120 1.390818 -14.992864 30.210845 0.053053 2.090098 0.066835 -0.025233 -168347.000000 0 0 1
25.611020 0.097518 -15.100164 29.731277 0.003808 2.103528 0.058752 -0.022141 -144307.000000 0 0 1
26.624420 -0.806682 -15.430464 30.783270 -0.030289 2.095852 0.062359 -0.010269 -413126.000000 0 0 1
26.111120 -2.239382 -15.682864 30.541081 -0.085554 2.110056 0.042249 -0.009487 -421995.000000 0 0 1
25.601620 -2.855382 -14.545164 29.583069 -0.111072 2.084805 0.040493 -0.008041 428348.000000 0 0 1
25.365920 -4.216382 -14.837464 29.687676 -0.164716 2.094147 0.036482 -0.003688 -1139380.000000 0 0 1
24.943320 -5.139882 -13.653164 28.896306 -0.203218 2.062908 0.042713 -0.004199 365089.000000 0 0 1
23.600920 -5.135382 -13.176064 27.513347 -0.214253 2.070194 0.052665 0.003918 814817.000000 0 0 1
22.642020 -5.532782 -14.147964 27.266053 -0.239663 2.116343 0.053642 -0.002944 -783194.000000 0 0 1
21.195520 -5.581782 -13.634064 25.812673 -0.257501 2.127267 0.070512 -0.010100 -419045.000000 0 0 1
20.918820 -6.555782 -12.649564 25.309816 -0.303697 2.094151 0.080716 -0.013292 449613.000000 0 0 1
20.903520 -6.029882 -11.344164 24.535825 -0.280839 2.051441 0.095007 -0.011012 -357359.000000 0 1 0
20.544520 -7.128482 -10.294864 24.059859 -0.333979 2.012948 0.087991 -0.022369 -907656.000000 0 1 0
19.268020 -7.683582 -10.285864 23.153683 -0.379449 2.031126 0.096893 -0.022882 116476.000000 0 1 0
19.152220 -8.767682 -11.173164 23.843645 -0.429313 2.058503 0.089774 -0.024298 77085.400000 0 1 0
17.748320 -9.479582 -11.092964 22.976492 -0.490563 2.074641 0.108128 -0.030117 639662.000000 0 1 0
16.754920 -8.569282 -11.548164 22.079856 -0.472765 2.121184 0.095386 -0.021910 -779674.000000 0 1 0
15.629120 -9.245082 -11.986864 21.758351 -0.534168 2.154249 0.097116 -0.018561 -833953.000000 0 1 0
14.455220 -8.284482 -12.193464 20.646225 -0.520415 2.202587 0.068143 -0.011434 -565800.000000 0 1 0
14.638220 -7.295682 -13.255764 21.052785 -0.462366 2.251891 0.070443 -0.016866 1154060.000000 0 1 0
15.628220 -6.243782 -12.990064 21.259535 -0.380092 2.228149 0.072099 -0.021754 611700.000000 0 1 0
15.582120 -5.098182 -14.005264 21.562499 -0.316204 2.277749 0.058891 -0.015477 954188.000000 0 1 0
14.399620 -4.250682 -13.882564 20.448544 -0.287042 2.317063 0.058167 -0.023313 1142250.000000 0 1 0
14.059120 -3.474282 -15.025964 20.868855 -0.242266 2.374625 0.056107 -0.021453 -357992.000000 0 1 0
14.961820 -2.290182 -15.410464 21.600542 -0.151889 2.365177 0.056059 -0.017787 -481564.000000 0 1 0
16.036320 -2.640882 -16.260964 22.990363 -0.163216 2.356460 0.044094 -0.011528 447499.000000 0 1 0
17.086220 -1.677182 -16.261364 23.647068 -0.097846 2.329070 0.052031 -0.007316 586244.000000 0 1 0
18.274320 -1.858482 -15.285264 23.896528 -0.101351 2.264831 0.064240 -0.004902 -298604.000000 0 1 0
17.859220 -1.797482 -13.905164 22.705424 -0.100309 2.229909 0.059953 -0.002138 577006.000000 0 1 0
18.910220 -2.285482 -13.067064 23.099091 -0.120276 2.172073 0.061041 0.002014 496104.000000 0 1 0
18.402920 -2.584082 -11.589464 21.901156 -0.139505 2.128420 0.059030 0.006717 -14659.800000 0 1 0
18.166920 -1.429282 -10.813664 21.189978 -0.078513 2.106353 0.055257 0.001901 649977.000000 0 1 0
17.616820 -1.744382 -9.556164 20.117542 -0.098696 2.065779 0.049990 -0.003215 -1020770.000000 0 1 0
17.390020 -0.538282 -8.674564 19.440952 -0.030944 2.033312 0.030811 -0.002964 -79335.800000 0 1 0
18.531920 -0.088682 -7.952364 20.166309 -0.004785 1.976145 0.030115 0.003955 849927.000000 0 1 0
19.645920 0.516118 -8.571964 21.440782 0.026265 1.982092 0.042609 0.003841 -94130.000000 0 1 0
19.360620 1.823318 -9.399364 21.598753 0.093900 2.021035 0.046628 0.000108 -748522.000000 0 1 0
19.174220 2.971418 -8.654664 21.245782 0.153746 1.990357 0.037373 0.002929 500631.000000 0 1 0
18.711120 3.975018 -9.522364 21.367784 0.209329 2.032687 0.039825 -0.001650 -527515.000000 0 1 0
18.650520 5.390318 -8.949564 21.377374 0.281350 2.002751 0.045360 0.004204 -364602.000000 0 1 0
18.378220 6.344118 -9.874164 21.806098 0.332390 2.040718 0.062443 0.004440 351670.000000 0 1 0
18.601620 7.624818 -9.327764 22.162250 0.389012 2.005217 0.067841 -0.000776 -114756.000000 0 1 0
-27.553560 -29.553362 6.315036 40.895960 0.820402 1.415759 0.095483 -0.011756 182301.000000 0 0 1
-27.524430 -28.342182 6.905736 40.106891 0.800035 1.397751 0.070233 -0.012399 -826288.000000 0 0 1
-26.506110 -27.531112 6.439936 38.755758 0.804364 1.403855 0.105864 -0.017474 -800202.000000 0 0 1
-26.226150 -26.192152 7.188236 37.755933 0.784750 1.379240 0.087847 -0.013155 280151.000000 0 0 1
-27.249780 -25.185542 7.102336 37.779693 0.746051 1.381678 0.085216 -0.018672 1745530.000000 0 0 1
-28.518120 -25.460952 7.806936 39.019117 0.728822 1.369357 0.070550 -0.018853 1575920.000000 0 0 1
-28.467250 -25.468912 9.380636 39.332507 0.729865 1.329980 0.041271 -0.015809 -455284.000000 0 0 1
-27.700040 -26.482582 9.986536 39.602402 0.762932 1.315874 0.054751 -0.020001 -231560.000000 0 0 1
-27.972450 -26.648702 11.347636 40.266364 0.761168 1.285112 0.034216 -0.021055 -468586.000000 0 0 1
-26.955480 -27.580162 12.060836 40.407017 0.796852 1.267693 0.025468 -0.029442 516814.000000 0 0 1
-25.815200 -26.856102 12.524036 39.300461 0.805158 1.246466 0.057682 -0.027093 122396.000000 0 0 1
-26.020150 -26.169982 13.790436 39.396602 0.788269 1.213181 0.053341 -0.026999 -861367.000000 0 0 1
-24.665280 -25.648502 14.244336 38.329138 0.804937 1.190030 0.068712 -0.023455 67669.300000 0 0 1
-23.833480 -26.691812 14.779536 38.715918 0.841910 1.179115 0.070689 -0.024455 -466203.000000 0 0 1
-22.626680 -26.243662 15.289336 37.874269 0.859275 1.155253 0.095278 -0.024411 -583572.000000 0 0 1
-21.797680 -27.354642 15.948136 38.441622 0.897976 1.143000 0.098548 -0.026385 -519416.000000 0 0 1
-22.469680 -27.933662 17.023536 39.685977 0.893382 1.127460 0.099004 -0.024131 123855.000000 0 0 1
-21.900480 -29.164922 17.424836 40.420893 0.926708 1.125102 0.093595 -0.013167 -411921.000000 0 0 1
-22.881080 -29.941062 18.269636 41.878283 0.918266 1.119363 0.082417 -0.023583 190298.000000 0 0 1
-24.011780 -30.485182 17.572136 42.599200 0.903629 1.145600 0.064018 -0.017986 668442.000000 0 0 1
-24.809680 -31.306782 18.397036 43.978242 0.900664 1.139200 0.078295 -0.012052 90808.000000 0 0 1
-25.872150 -32.095522 17.593036 44.821932 0.892348 1.167438 0.081370 -0.024972 -183640.000000 0 0 1
-25.231230 -33.066062 16.791336 44.854525 0.918992 1.187100 0.079318 -0.019846 74440.700000 0 0 1
-26.014630 -34.015952 16.101336 45.750399 0.917905 1.211155 0.080391 -0.014652 -545000.000000 0 0 1
-25.284210 33.341481 14.919636 44.424556 -0.921978 1.228297 0.080099 -0.024314 1285430.000000 0 0 1
-24.131780 32.501035 15.270536 43.264874 -0.932117 1.210069 0.066874 -0.024794 1560990.000000 0 0 1
-22.909380 33.186738 15.055436 43.044923 -0.966598 1.213480 0.066286 -0.023882 884762.000000 0 0 1
-21.582480 32.321166 15.152636 41.714070 -0.982044 1.199043 0.060935 -0.026249 926861.000000 0 0 1
-21.466780 31.462539 13.990936 40.576598 -0.972051 1.218767 0.051337 -0.009745 -204851.000000 0 0 1
-20.250780 30.776949 13.946436 39.393118 -0.988828 1.208917 0.044808 -0.013649 -337802.000000 0 0 1
-20.212280 29.909449 12.655636 38.252798 -0.976509 1.233601 0.037366 -0.014488 -13802.300000 0 0 1
-20.012780 30.615519 11.499236 38.341281 -0.991838 1.266190 0.030867 -0.008300 -71831.900000 0 0 1
-20.281080 29.805539 10.381936 37.516356 -0.973314 1.290406 0.040239 -0.015223 130831.000000 0 0 1
-19.835680 30.530319 9.086036 37.524800 -0.994629 1.326231 0.029049 -0.010737 103484.000000 0 0 1
-18.437680 30.639599 8.904036 36.851254 -1.029084 1.326760 0.041632 -0.016102 -296757.000000 0 0 1
-18.099280 31.230509 7.668636 36.901716 -1.045558 1.361458 0.058598 -0.020478 256528.000000 0 0 1
-17.481380 30.218629 6.660236 35.540441 -1.046338 1.382283 0.059474 -0.021773 109896.000000 0 0 1
-18.405480 29.151719 6.408436 35.066401 -1.007630 1.387012 0.045975 -0.015443 341100.000000 0 0 1
-18.150780 27.897879 7.014236 34.013850 -0.993989 1.363089 0.036588 -0.011682 -510085.000000 0 0 1
-19.331780 27.005849 6.660636 33.873259 -0.949521 1.372873 0.030996 -0.002918 -182957.000000 0 0 1
-19.055180 26.373929 5.433736 32.988021 -0.945128 1.405324 0.039971 -0.010520 288621.000000 0 0 1
-20.084780 25.540649 4.945636 32.866129 -0.904413 1.419744 0.039305 -0.009996 -644555.000000 0 0 1
-19.687780 24.792449 3.620336 31.865044 -0.899661 1.456936 0.047209 -0.017670 -1148870.000000 0 0 1
-19.427880 25.500129 2.440136 32.150480 -0.919739 1.494826 0.054065 -0.015963 1283390.000000 0 0 1
-18.250880 26.375079 2.384736 32.162500 -0.965477 1.496582 0.051811 -0.012977 1554120.000000 0 0 1
-16.873080 25.606889 2.599636 30.776155 -0.988171 1.486226 0.053779 -0.015977 -233849.000000 0 0 1
-16.628980 24.504089 1.746836 29.665212 -0.974564 1.511877 0.066779 -0.024918 77666.500000 0 0 1
-16.393080 24.808029 0.402836 29.737748 -0.986868 1.557250 0.062137 -0.021873 -307540.000000 0 0 1
-16.112180 23.629609 -0.460764 28.603725 -0.972346 1.586906 0.065763 -0.021186 607200.000000 0 0 1
-17.233280 22.713789 -0.539564 28.516544 -0.921741 1.589719 0.068542 -0.027628 831466.000000 0 0 1
-17.110680 21.643089 -1.500464 27.630600 -0.901823 1.625127 0.073751 -0.025468 -44159.300000 0 0 1
-16.114380 20.451889 -1.300964 26.070012 -0.903467 1.620720 0.076795 -0.032470 11125.700000 0 0 1
-16.470680 19.503289 -0.305864 25.529496 -0.869499 1.582777 0.093038 -0.036613 344462.000000 0 0 1
-15.445780 18.572989 0.046936 24.156371 -0.877067 1.568853 0.108815 -0.039989 142214.000000 0 1 0
-16.028780 17.343789 0.802836 23.629925 -0.824782 1.536814 0.097821 -0.036465 59608.800000 0 1 0
-16.831480 16.507689 0.026536 23.575479 -0.775686 1.569671 0.098992 -0.025477 325994.000000 0 1 0
-17.352780 15.440889 0.866336 23.244151 -0.727163 1.533517 0.118481 -0.046191 95194.500000 0 1 0
-17.962980 14.305689 -0.005864 22.963480 -0.672541 1.571052 0.107998 -0.038868 536639.000000 0 1 0
-19.154280 14.630589 -0.762264 24.114760 -0.652293 1.602411 0.132980 -0.045796 1194530.000000 0 1 0
-20.040180 13.529989 -0.748664 24.191526 -0.593848 1.601749 0.145759 -0.043308 424919.000000 0 1 0
-21.469580 13.694489 -1.357364 25.501458 -0.567790 1.624048 0.174891 -0.038673 -542293.000000 0 0 1
-22.159780 12.486789 -1.611364 25.486707 -0.513140 1.634062 0.147368 -0.045679 612421.000000 0 0 1
-23.179780 12.171289 -0.677464 26.189720 -0.483511 1.596667 0.151294 -0.039758 620728.000000 0 0 1
-24.496580 13.046689 -0.677464 27.762519 -0.489380 1.595201 0.138164 -0.040017 -275228.000000 0 0 1
-24.275180 14.296089 -0.134764 28.172339 -0.532231 1.575580 0.139195 -0.041103 667118.000000 0 0 1
-25.437400 15.127889 -0.011364 29.595852 -0.536521 1.571180 0.142777 -0.028908 338588.000000 0 0 1
-25.113430 16.380889 0.893236 29.996929 -0.577974 1.541014 0.127105 -0.027889 -27021.500000 0 0 1
-24.995980 16.016889 2.270936 29.774098 -0.569865 1.494450 0.142105 -0.034029 60401.700000 0 0 1
-24.938680 17.156289 3.107436 30.429134 -0.602585 1.468498 0.116613 -0.034688 -128594.000000 0 0 1
-26.268770 17.906789 3.343836 31.966899 -0.598322 1.466002 0.135008 -0.035303 -1354960.000000 0 0 1
-27.070690 17.198489 4.272236 32.355251 -0.565984 1.438368 0.137311 -0.037401 76523.800000 0 0 1
-28.341940 17.807389 4.370336 33.756014 -0.560973 1.440964 0.132419 -0.041283 -1361.210000 0 0 1
-29.338160 17.765989 3.209036 34.447872 -0.544497 1.477505 0.081735 -0.036623 -2067780.000000 0 0 1
-30.523360 18.429289 3.445536 35.821585 -0.543192 1.474461 0.071949 -0.035299 -712832.000000 0 0 1
-31.038140 18.840389 2.234536 36.377459 -0.545556 1.509331 0.069904 -0.033083 -517538.000000 0 0 1
-32.178160 19.851989 2.354636 37.882447 -0.552782 1.508600 0.086885 -0.036228 -1030630.000000 0 0 1
-33.443880 19.294289 2.597436 38.697666 -0.523273 1.503625 0.079932 -0.028851 -223797.000000 0 0 1
-34.392881 20.332389 2.731936 40.046720 -0.533909 1.502525 0.092874 -0.026298 -71066.100000 0 0 1
-34.587947 20.794789 4.188036 40.574487 -0.541312 1.467394 0.097400 -0.035973 -512975.000000 0 0 1
-33.393070 21.382289 4.654836 39.924515 -0.569541 1.453940 0.104098 -0.033838 765171.000000 0 0 1
-33.741740 21.829489 5.955436 40.626332 -0.574234 1.423676 0.102608 -0.033739 -642035.000000 0 0 1
-32.667500 22.779089 6.365336 40.330757 -0.608912 1.412305 0.103872 -0.028214 -835656.000000 0 0 1
-32.775300 24.050189 5.702236 41.050547 -0.633046 1.431438 0.088281 -0.026419 116346.000000 0 0 1
-31.773250 24.892039 6.201536 40.836406 -0.664554 1.418344 0.090577 -0.030500 -422015.000000 0 0 1
-31.904990 26.385639 5.839636 41.811861 -0.690993 1.430674 0.084693 -0.032788 -96010.000000 0 0 1
-33.075800 26.924899 6.421536 43.129976 -0.683241 1.421353 0.095890 -0.025098 213047.000000 0 0 1
-33.287910 28.298489 6.236236 44.133662 -0.704560 1.429018 0.078072 -0.027104 -72263.400000 0 0 1
-34.349921 28.718189 7.273236 45.360241 -0.696338 1.409757 0.075949 -0.028618 -504115.000000 0 0 1
-33.837570 28.831899 8.584736 45.276454 -0.705693 1.380034 0.085793 -0.028551 -119365.000000 0 0 1
-34.677528 29.355149 9.568736 46.430770 -0.702469 1.363223 0.087336 -0.025353 -108887.000000 0 0 1
-35.984730 28.613149 9.966136 47.041864 -0.671775 1.357322 0.081261 -0.017320 169401.000000 0 0 1
-35.677800 27.263309 10.471636 46.106926 -0.652498 1.341681 0.097354 -0.025659 785154.000000 0 0 1
-36.748990 26.786679 11.313936 46.861707 -0.629866 1.326955 0.090651 -0.025611 560544.000000 0 0 1
-36.290440 25.527929 12.106036 45.991600 -0.613027 1.304435 0.110125 -0.020686 158400.000000 0 0 1
-35.295173 25.984339 13.018536 45.721083 -0.634611 1.282063 0.115630 -0.027066 161098.000000 0 0 1
-34.450860 24.920089 13.426736 44.588674 -0.626227 1.264925 0.101995 -0.025280 -482780.000000 0 0 1
-33.349290 25.360349 14.347836 44.285244 -0.650153 1.240856 0.120723 -0.026183 -342528.000000 0 0 1
-33.936530 25.888349 15.498636 45.410378 -0.651672 1.222495 0.124557 -0.020489 740746.000000 0 0 1
-32.847480 26.350609 16.325336 45.164457 -0.676088 1.200958 0.134578 -0.015788 672644.000000 0 0 1
-33.192520 27.581749 17.206536 46.460318 -0.693338 1.191412 0.139446 -0.012918 -102401.000000 0 0 1
-33.074810 28.718399 16.438636 46.785877 -0.715015 1.211774 0.137801 -0.010985 2670.380000 0 0 1
-33.467700 29.851249 17.178736 48.023879 -0.728345 1.204979 0.127406 -0.009127 54047.400000 0 0 1
-33.142970 31.232789 16.454836 48.422156 -0.755735 1.224070 0.108824 -0.001054 -732233.000000 0 0 1
-31.800440 31.436319 16.219236 47.566519 -0.779640 1.222837 0.101823 -0.000673 -1132370.000000 0 0 1
-31.568430 32.618293 15.500136 47.966374 -0.801753 1.241744 0.095182 0.004237 732055.000000 0 0 1
-30.139940 32.777873 14.819636 46.930018 -0.827300 1.249516 0.104894 -0.002966 1163230.000000 0 0 1
-29.758250 31.885939 13.771736 45.737591 -0.819900 1.264947 0.098640 -0.010386 95449.300000 0 0 1
-29.209470 30.664989 14.223336 44.674803 -0.809703 1.246782 0.109396 -0.017823 -281347.000000 0 0 1
-30.131260 29.494709 13.918636 44.402242 -0.774723 1.251955 0.126151 -0.014922 -16039.300000 0 0 1
-30.193910 29.206209 12.533536 43.837933 -0.768772 1.280844 0.130073 -0.027138 335034.000000 0 0 1
-31.145890 28.164269 12.223836 43.734594 -0.735169 1.287523 0.122477 -0.029797 587323.000000 0 0 1
-31.203120 27.956809 10.758136 43.254542 -0.730580 1.319441 0.120113 -0.021079 -75581.300000 0 0 1
-30.033010 27.330709 10.303236 41.893986 -0.738325 1.322311 0.114596 -0.017244 -333966.000000 0 0 1
-30.048580 27.181109 8.927336 41.490085 -0.735335 1.353933 0.105138 -0.019917 279486.000000 0 0 1
-28.702530 26.722679 8.307336 40.086764 -0.749692 1.362050 0.109440 -0.022844 291798.000000 0 0 1
-28.681960 27.004709 6.943436 40.001506 -0.755288 1.396333 0.098459 -0.027190 -327608.000000 0 0 1
-27.626880 26.297089 6.338536 38.664692 -0.760743 1.406117 0.083835 -0.021663 -79780.300000 0 0 1
-27.436940 26.747499 4.871136 38.625670 -0.772675 1.444348 0.077685 -0.016759 32556.800000 0 0 1
-26.797530 28.002629 4.579436 39.028529 -0.807385 1.453190 0.059388 -0.017717 244093.000000 0 0 1
-26.494910 28.275339 3.240236 38.884112 -0.817894 1.487369 0.046511 -0.015416 -34340.300000 0 0 1
-25.439980 29.399529 2.990936 38.993212 -0.857476 1.494017 0.041395 -0.008297 761112.000000 0 0 1
-24.134680 29.050289 3.452736 37.925235 -0.877561 1.479630 0.033357 -0.006474 580584.000000 0 0 1
-23.185180 30.090919 3.183736 38.120233 -0.914301 1.487181 0.026142 -0.005612 1410620.000000 0 0 1
-21.700480 29.652169 3.490436 36.909960 -0.939023 1.476089 0.027191 -0.007544 1206690.000000 0 0 1
-20.697880 30.621789 3.334336 37.110834 -0.976415 1.480827 0.035525 -0.016590 -142662.000000 0 0 1
-19.386880 30.088199 3.261136 35.941423 -0.998414 1.479937 0.048353 -0.018303 650307.000000 0 0 1
-18.347180 31.180699 2.851236 36.290282 -1.038939 1.492148 0.050945 -0.019435 30474.200000 0 0 1
-18.240480 32.326813 3.717336 37.303573 -1.057077 1.470980 0.062167 -0.023635 137783.000000 0 0 1
-17.278480 33.218550 3.169936 37.577473 -1.091163 1.486339 0.080999 -0.022774 170691.000000 0 0 1
-17.135880 -33.495222 3.893836 37.824995 1.097918 1.467670 0.083993 -0.023363 -119874.000000 0 0 1
-18.214280 -32.638122 3.643236 37.553697 1.061780 1.473629 0.078997 -0.024778 -239734.000000 0 0 1
-18.153880 -31.559552 4.533636 36.689543 1.048792 1.446912 0.068114 -0.029109 547226.000000 0 0 1
-19.389980 -30.597042 4.423836 36.492748 1.005950 1.449272 0.078207 -0.024737 415489.000000 0 0 1
-19.322880 -29.570152 3.439836 35.490845 0.991993 1.473722 0.089657 -0.027180 261647.000000 0 0 1
-20.380980 -28.605112 3.513436 35.298456 0.951734 1.471096 0.101325 -0.032029 341952.000000 0 0 1
-20.276380 -27.581032 2.373136 34.314380 0.936863 1.501582 0.100764 -0.022669 -239043.000000 0 0 1
-19.285480 -26.617382 2.521036 32.966201 0.943787 1.494248 0.101558 -0.028110 -729215.000000 0 0 1
-19.539080 -25.498512 1.724136 32.170210 0.916955 1.517176 0.087804 -0.027987 -251389.000000 0 0 1
-18.436180 -24.432882 1.715436 30.656177 0.924380 1.514810 0.069167 -0.024644 239141.000000 0 0 1
-17.199780 -24.954282 1.250936 30.333372 0.967321 1.529545 0.067947 -0.028424 -706187.000000 0 0 1
-16.204180 -23.986182 1.378236 28.979508 0.976660 1.523219 0.078967 -0.029092 -245596.000000 0 0 1
-14.868980 -24.396482 0.709336 28.579329 1.023441 1.545974 0.103210 -0.031130 -277100.000000 0 0 1
-14.828280 -24.666082 -0.668664 28.787855 1.029524 1.594026 0.092122 -0.022917 -51306.600000 0 0 1
-15.072580 -23.545182 -1.473664 27.995177 1.001373 1.623461 0.091411 -0.022643 -209500.000000 0 0 1
-15.342680 -23.825482 -2.951964 28.491499 0.998678 1.674591 0.053925 -0.010561 817452.000000 0 0 1
-14.170980 -24.277982 -3.667264 28.349355 1.042451 1.700520 0.081967 -0.011524 642870.000000 0 0 1
-14.344380 -24.084282 -5.073564 28.487803 1.033625 1.749848 0.065367 -0.008622 -328421.000000 0 0 1
-13.218880 -24.635082 -5.922664 28.578034 1.078309 1.779555 0.095737 -0.018676 -294803.000000 0 0 1
-13.198480 -26.034622 -5.958964 29.791117 1.101597 1.772180 0.071719 -0.022006 -695542.000000 0 0 1
-12.135180 -26.571572 -6.658864 29.960833 1.142386 1.794920 0.084665 -0.024789 -419777.000000 0 0 1
24.233120 12.725118 28.314226 39.381063 0.483535 0.768462 0.060277 -0.007113 129030.000000 0 0 1
24.994020 11.572818 28.752656 39.816408 0.433631 0.763919 0.058564 -0.008187 587396.000000 0 0 1
24.471720 10.754718 29.865996 40.081252 0.414067 0.730057 0.071150 -0.003192 -22340.400000 0 0 1
24.244120 11.438918 31.212456 41.144181 0.440852 0.709617 0.077907 -0.028766 69010.700000 0 0 1
23.138520 12.310118 31.259746 40.793404 0.488933 0.697743 0.073287 -0.014457 -87569.400000 0 0 1
23.168520 12.894718 32.506549 41.949133 0.507867 0.684233 0.075797 -0.017194 -328896.000000 0 0 1
22.035820 13.850918 32.975166 42.009366 0.561158 0.668184 0.060951 -0.010312 -20769.400000 0 0 1
20.825020 13.220318 33.320924 41.457716 0.565636 0.637254 0.049146 0.002303 -521508.000000 0 0 1
20.179320 13.973618 -33.778744 41.754886 0.605656 2.513206 0.053521 0.004817 -205532.000000 0 0 1
18.905620 13.222918 -33.283114 40.497330 0.610335 2.535464 0.048773 0.009942 36122.000000 0 0 1
17.894620 13.087518 33.796521 40.419121 0.631468 0.580567 0.029683 0.014579 132219.000000 0 0 1
16.793220 12.431918 -33.614454 39.578989 0.637260 2.585455 0.029795 0.005872 616104.000000 0 0 1
15.537420 11.991818 33.622917 38.932193 0.657309 0.528375 0.034553 0.005475 474771.000000 0 0 1
15.680720 10.856418 32.811820 37.952105 0.605568 0.526525 0.024765 0.016414 20310.700000 0 0 1
14.447020 10.517218 32.203109 36.828908 0.629262 0.506603 0.038473 0.010904 257911.000000 0 0 1
14.690720 9.397718 31.150156 35.699672 0.569103 0.510375 0.043455 0.014581 141166.000000 0 0 1
14.911020 8.151218 31.623966 35.900642 0.500273 0.493089 0.031726 0.014681 -13164.200000 0 0 1
15.532920 7.336718 30.638736 35.125933 0.441270 0.511004 0.034711 -0.003263 215098.000000 0 0 1
15.936520 5.906918 31.191326 35.521306 0.354954 0.498916 0.063273 -0.011747 -163.124000 0 0 1
14.848520 5.054818 31.500706 35.189831 0.328120 0.461995 0.062489 -0.005736 49309.000000 0 0 1
15.266220 3.814118 32.077563 35.729190 0.244828 0.456055 0.081144 -0.013657 283161.000000 0 0 1
14.056220 2.897518 32.339439 35.380959 0.203290 0.417674 0.065385 -0.011617 263549.000000 0 0 1
14.516520 1.710318 32.954125 36.050367 0.117278 0.417480 0.086720 -0.016112 943476.000000 0 0 1
13.406020 0.774818 33.091348 35.712169 0.057732 0.385494 0.092264 -0.017406 962793.000000 0 0 1
13.835820 -0.653082 33.450444 36.204815 -0.047167 0.392587 0.075564 -0.014744 -117211.000000 0 0 1
14.466120 -1.311782 32.391789 35.499540 -0.090432 0.421548 0.082556 -0.010321 -154944.000000 0 0 1
14.921320 -2.568782 32.851292 36.172528 -0.170484 0.431873 0.096182 -0.013860 -164270.000000 0 0 1
14.972020 -3.682282 31.752346 35.297763 -0.241158 0.452042 0.090571 -0.017181 -1012030.000000 0 0 1
15.252720 -5.026982 32.210289 35.991926 -0.318368 0.462520 0.093915 -0.014150 88910.800000 0 0 1
16.458420 -5.395082 32.845570 37.132438 -0.316763 0.485264 0.075043 -0.010239 821901.000000 0 0 1
17.836520 -4.972282 32.210527 37.153507 -0.271868 0.521731 0.078641 -0.013867 62794.500000 0 0 1
17.956320 -3.588082 32.203398 37.045412 -0.197225 0.517022 0.080715 -0.016202 28620.400000 0 0 1
18.991920 -3.158582 31.319646 36.763975 -0.164803 0.551172 0.098494 -0.027894 231857.000000 0 0 1
19.000220 -1.588582 31.241636 36.600161 -0.083415 0.547953 0.101340 -0.030816 -111584.000000 0 0 1
19.245220 -0.849482 32.445676 37.733566 -0.044111 0.535796 0.084411 -0.026749 184299.000000 0 0 1
19.011720 0.562118 32.403294 37.573061 0.029558 0.530790 0.086954 -0.018258 230823.000000 0 0 1
20.217320 1.403218 31.886216 37.781474 0.069296 0.566165 0.082905 -0.012892 98929.900000 0 0 1
20.399620 1.202518 30.501906 36.714531 0.058880 0.590279 0.080960 -0.023795 178992.000000 0 0 1
21.449320 1.991518 29.944206 36.887599 0.092582 0.623621 0.078562 -0.018418 109245.000000 0 0 1
21.219320 3.539718 29.837166 36.783768 0.165294 0.624680 0.067304 -0.002032 -264491.000000 0 0 1
21.034320 4.214318 31.063176 37.750814 0.197736 0.604392 0.067106 -0.011793 -2857.750000 0 0 1
20.309920 5.350118 30.805446 37.283939 0.257572 0.598398 0.057351 -0.003949 -548805.000000 0 0 1
19.782420 5.966818 32.093696 38.170045 0.292944 0.572021 0.064181 -0.002700 -71759.700000 0 0 1
18.937120 5.120318 32.868510 38.277553 0.264071 0.538090 0.068493 -0.007491 359384.000000 0 0 1
18.920720 5.562618 -33.846154 39.172676 0.285940 2.614006 0.070750 -0.011462 -100066.000000 0 0 1
17.745320 4.941718 -33.063304 37.848369 0.271599 2.633292 0.074611 -0.014954 -111198.000000 0 0 1
17.840220 3.526218 -32.975524 37.657574 0.195140 2.637613 0.075164 -0.017755 -293820.000000 0 0 1
16.643820 2.992018 -32.532984 36.665569 0.177868 2.662232 0.086393 -0.023504 -520548.000000 0 0 1
16.751320 1.432018 -32.546364 36.632270 0.085280 2.664778 0.096888 -0.027451 -82788.200000 0 0 1
17.773220 0.955818 -31.701094 36.356022 0.053727 2.629993 0.075199 -0.022603 211121.000000 0 0 1
17.904720 -0.447382 -31.832134 36.524840 -0.024982 2.629090 0.083197 -0.024139 -108441.000000 0 0 1
19.255820 -0.969782 -31.263264 36.730352 -0.050321 2.588980 0.100109 -0.026377 23979.400000 0 0 1
19.350720 -1.214882 -29.867664 35.609039 -0.062700 2.565810 0.113507 -0.028854 202775.000000 0 0 1
19.565220 -0.047682 -29.110054 35.074141 -0.002437 2.549828 0.117968 -0.028765 -452508.000000 0 0 1
19.156220 -0.230082 -27.662314 33.648437 -0.012010 2.535883 0.086839 -0.025775 498842.000000 0 0 1
17.719320 -0.244782 -27.606924 32.805129 -0.013814 2.570929 0.082323 -0.028509 686594.000000 0 0 1
17.210020 -0.686482 -26.336304 31.468349 -0.039867 2.562417 0.086673 -0.021692 -152943.000000 0 0 1
17.604320 -2.002182 -25.569414 31.108130 -0.113246 2.535628 0.084199 -0.014804 -48992.500000 0 0 1
18.905220 -1.996882 -24.974864 31.386920 -0.105236 2.490974 0.078245 -0.022177 434167.000000 0 0 1
19.605920 -3.196682 -25.235694 32.116213 -0.161625 2.474723 0.073929 -0.016902 353830.000000 0 0 1
20.463720 -3.441582 -26.501314 33.658996 -0.166620 2.477290 0.084178 -0.028560 -520780.000000 0 0 1
21.623420 -2.697482 -26.619444 34.401214 -0.124107 2.455605 0.069935 -0.020800 -790420.000000 0 0 1
22.188220 -2.864982 -27.913514 35.772748 -0.128411 2.465943 0.059644 -0.027020 248664.000000 0 0 1
23.601020 -2.228382 -28.034374 36.713757 -0.094140 2.439656 0.036689 -0.025161 -40142.400000 0 0 1
24.627320 -2.951382 -27.425874 36.978293 -0.119273 2.406360 0.031646 -0.028007 -1378040.000000 0 0 1
25.805220 -2.498682 -27.984474 38.148179 -0.096528 2.394361 0.007521 -0.026026 -906175.000000 0 0 1
27.007720 -3.412082 -27.694494 38.833546 -0.125671 2.364791 0.026008 -0.024461 -356242.000000 0 0 1
26.946020 -4.566982 -28.531054 39.509067 -0.167891 2.377686 0.043117 -0.035030 737965.000000 0 0 1
28.022320 -5.490082 -28.282274 40.190527 -0.193468 2.351395 0.042369 -0.036274 193577.000000 0 0 1
27.761220 -6.592082 -27.218944 39.433638 -0.233139 2.332626 0.040684 -0.029509 -237401.000000 0 0 1
27.914920 -6.086582 -25.884524 38.552534 -0.214680 2.306905 0.034413 -0.017404 341072.000000 0 0 1
27.571320 -7.127382 -24.996764 37.892156 -0.252969 2.291192 0.015817 -0.009272 -304300.000000 0 0 1
27.619720 -6.694182 -23.536364 36.900155 -0.237784 2.262486 0.008121 -0.004439 418645.000000 0 0 1
28.938920 -6.671282 -22.974264 37.547089 -0.226571 2.229230 0.015627 -0.006591 847352.000000 0 0 1
29.012220 -5.938482 -21.753264 36.744782 -0.201900 2.204346 0.021108 -0.012710 583834.000000 0 0 1
30.497520 -5.564282 -21.409564 37.675316 -0.180465 2.175192 0.042400 -0.012635 627706.000000 0 0 1
30.988120 -4.427882 -22.152864 38.348652 -0.141929 2.186668 0.047739 -0.018650 616937.000000 0 0 1
32.273020 -4.011582 -21.683064 39.087030 -0.123667 2.158844 0.062873 -0.013382 719726.000000 0 0 1
32.817620 -2.719582 -22.333064 39.788919 -0.082681 2.166738 0.069385 -0.018646 184466.000000 0 0 1
32.021020 -1.640182 -21.872364 38.812836 -0.051177 2.169454 0.048194 -0.018059 499490.000000 0 0 1
32.591820 -0.395682 -22.168264 39.418463 -0.012140 2.168061 0.031021 -0.017800 -322864.000000 0 0 1
31.583720 0.635818 -21.681964 38.315052 0.020128 2.172304 0.031979 -0.013354 -1039160.000000 0 0 1
30.579020 0.643418 -22.618664 38.040694 0.021038 2.207554 0.019676 -0.012411 -151881.000000 0 0 1
29.511720 1.508718 -22.157864 36.934927 0.051078 2.214193 0.016477 -0.007570 -469251.000000 0 0 1
28.447620 1.643118 -23.170564 36.726584 0.057695 2.253501 0.010726 -0.006432 -466869.000000 0 0 1
27.309420 2.441118 -22.767964 35.639075 0.089150 2.263797 0.019275 -0.011247 432003.000000 0 0 1
26.589620 2.677618 -23.916864 35.863546 0.100363 2.300817 0.045349 -0.013847 -1102260.000000 0 0 1
25.449420 3.630018 -23.704864 34.968137 0.141681 2.315697 0.047128 -0.008428 -839390.000000 0 0 1
25.887120 4.931918 -23.525764 35.326030 0.188260 2.299578 0.026660 -0.009526 679726.000000 0 0 1
24.782920 5.853718 -23.394564 34.579832 0.231949 2.313847 0.049791 -0.015237 612512.000000 0 0 1
25.187120 7.204818 -22.701864 34.665185 0.278612 2.284833 0.053536 -0.015728 72377.800000 0 0 1
26.015020 7.982418 -23.563564 35.996414 0.297719 2.284461 0.052236 -0.014597 322029.000000 0 0 1
26.342020 9.244818 -22.974864 36.155402 0.337524 2.259384 0.070600 -0.013848 -212828.000000 0 0 1
27.241420 10.138218 -23.852564 37.600841 0.356280 2.257980 0.094011 -0.010825 -377957.000000 0 0 1
26.742520 10.509018 -25.120854 38.166204 0.374432 2.289217 0.093971 -0.014681 473437.000000 0 0 1
25.569520 11.318718 -25.202054 37.643821 0.416737 2.304314 0.098675 -0.019976 421357.000000 0 0 1
25.205620 11.640518 -26.681344 38.506091 0.432642 2.336317 0.093826 -0.019542 -174597.000000 0 0 1
24.804320 10.634318 -27.599454 38.601462 0.405024 2.367399 0.083020 -0.017483 -112658.000000 0 0 1
25.765820 9.681718 -27.912644 39.201133 0.359435 2.363191 0.070284 -0.024164 54452.000000 0 0 1
26.758520 9.977818 -29.108684 40.778557 0.356914 2.365739 0.076475 -0.016660 -411578.000000 0 0 1
27.792920 10.876018 -28.750044 41.440309 0.373004 2.337507 0.074321 -0.010501 181069.000000 0 0 1
28.567820 11.328418 -29.817504 42.819820 0.377524 2.341093 0.072181 -0.004701 -49724.300000 0 0 1
29.490720 10.325118 -30.562264 43.707695 0.336776 2.345133 0.059285 -0.010980 -1177680.000000 0 0 1
28.867320 9.263718 -31.253884 43.542438 0.310525 2.371405 0.059147 -0.007056 -672940.000000 0 0 1
29.672120 8.284218 -31.799254 44.274773 0.272259 2.372044 0.054094 -0.007360 -713895.000000 0 0 1
28.852720 7.252418 -32.595554 44.131023 0.246258 2.401800 0.053935 -0.011723 587848.000000 0 0 1
27.888220 6.584918 -31.753894 42.771764 0.231871 2.407447 0.059595 -0.013857 718791.000000 0 0 1
26.913720 5.832618 -32.484024 42.586143 0.213415 2.438404 0.050342 -0.015868 -31740.000000 0 0 1
25.557020 5.807118 -31.776224 41.189954 0.223428 2.451922 0.069461 -0.010212 -612907.000000 0 0 1
24.986720 7.126218 -31.722394 41.005237 0.277824 2.455328 0.088936 -0.015552 -208695.000000 0 0 1
23.991220 7.208318 -30.743424 39.657239 0.291876 2.457873 0.075443 -0.015734 -474133.000000 0 0 1
22.557520 7.139718 -31.265174 39.208780 0.306535 2.493775 0.077409 -0.022706 -502808.000000 0 0 1
22.141020 8.360718 -31.856324 39.685662 0.361059 2.502632 0.074177 -0.017144 -275220.000000 0 0 1
20.758620 8.456418 -32.094574 39.147069 0.386843 2.531939 0.067630 -0.011775 -51827.600000 0 0 1
20.299620 9.502118 -33.121684 39.992634 0.437798 2.546675 0.069837 -0.007378 -42513.100000 0 0 1
20.737620 9.019518 33.655838 40.547700 0.410256 0.591634 0.059231 -0.005618 23740.000000 0 0 1
20.710620 10.005118 32.619267 39.913015 0.450029 0.614158 0.058781 -0.001284 -166977.000000 0 0 1
19.518320 10.023718 31.641286 38.504684 0.474432 0.606318 0.058832 -0.000802 14783.500000 0 0 1
19.377620 8.989518 30.691076 37.393124 0.434363 0.608042 0.053885 -0.004869 414688.000000 0 0 1
20.370320 8.969118 29.639186 37.065838 0.414761 0.644107 0.073126 -0.005498 114907.000000 0 0 1
20.034020 9.812618 28.365576 36.086775 0.455453 0.666423 0.076820 -0.007376 967338.000000 0 0 1
18.894620 9.342818 27.593436 34.723085 0.459214 0.652331 0.064542 0.000670 147809.000000 0 0 1
17.688420 9.907418 27.922726 34.506749 0.510570 0.628014 0.064644 -0.015797 -1741500.000000 0 0 1
16.508920 9.289618 27.228476 33.169735 0.512544 0.607841 0.081894 -0.017789 -910564.000000 0 0 1
16.496820 9.526518 25.805926 32.075620 0.523693 0.635906 0.084348 -0.020114 1099270.000000 0 0 1
15.218220 9.183318 25.223326 30.856826 0.542947 0.613859 0.093207 -0.021234 965871.000000 0 0 1
15.171820 7.696418 24.799066 30.073454 0.469458 0.601272 0.090497 -0.020338 -45877.300000 0 0 1
15.130620 6.814018 25.904806 30.764029 0.423142 0.569726 0.075783 -0.017799 124124.000000 0 0 1
14.780820 5.504518 25.439566 29.932321 0.356498 0.554995 0.083996 -0.021271 -84540.500000 0 0 1
14.780820 4.481418 26.616696 30.773434 0.294382 0.525796 0.076269 -0.017496 224372.000000 0 0 1
16.121420 4.123018 26.908276 31.637869 0.250381 0.553845 0.064675 -0.013707 263930.000000 0 0 1
16.188120 3.932418 28.291096 32.831467 0.238304 0.532173 0.062396 -0.012692 733059.000000 0 0 1
17.229320 2.793118 28.727066 33.613915 0.160716 0.545981 0.082053 -0.018048 632601.000000 0 0 1
16.821820 1.473618 28.495936 33.123459 0.087379 0.534949 0.083077 -0.020985 410200.000000 0 0 1
15.762120 1.097718 29.387456 33.365730 0.069531 0.493316 0.067916 -0.013273 471400.000000 0 0 1
15.206720 -0.301782 29.364716 33.069955 -0.019843 0.477911 0.072108 -0.021377 -178659.000000 0 0 1
14.660020 -0.788382 28.121136 31.722799 -0.053726 0.481147 0.072291 -0.021481 369843.000000 0 0 1
15.491620 -0.953782 26.962826 31.110994 -0.061490 0.522317 0.082355 -0.021187 -841379.000000 0 0 1
16.523120 -2.152882 26.963586 31.696740 -0.129565 0.553531 0.075971 -0.018661 2082580.000000 0 0 1
17.788820 -1.856682 27.648516 32.929163 -0.103997 0.574183 0.079513 -0.025540 1291260.000000 0 0 1
18.605020 -0.837282 27.180776 32.949088 -0.044973 0.600713 0.082045 -0.023222 -1302570.000000 0 0 1
20.051020 -0.842482 27.691656 34.199137 -0.041992 0.627125 0.090108 -0.018022 -34296.500000 0 0 1
20.894520 -1.666582 26.899296 34.101768 -0.079593 0.661951 0.062127 -0.016625 -1221970.000000 0 0 1
22.203620 -1.322082 27.186306 35.126114 -0.059473 0.685721 0.057703 -0.013228 -604580.000000 0 0 1
23.241520 -2.082482 26.315956 35.171501 -0.089363 0.725424 0.059193 -0.011911 -22776.900000 0 0 1
23.281520 -1.668582 24.924536 34.147413 -0.071547 0.752606 0.070106 0.000602 340128.000000 0 0 1
22.262520 -2.212782 24.083326 32.871306 -0.099070 0.748582 0.086238 -0.001313 -240593.000000 0 0 1
22.437120 -1.620882 22.723316 31.975001 -0.072116 0.780362 0.083352 -0.015877 -188326.000000 0 0 1
21.859620 -0.323282 22.684116 31.504232 -0.014788 0.766945 0.068138 -0.007726 123609.000000 0 0 1
22.048020 0.254418 21.421416 30.741779 0.011539 0.799845 0.054984 0.003189 -109297.000000 0 0 1
-30.594220 -27.101053 -10.101564 42.101247 0.724927 1.813095 0.041312 0.012848 113189.000000 0 0 1
-30.936980 -25.900753 -9.494364 41.449834 0.697022 1.801905 0.044678 0.011816 -94877.300000 0 0 1
-31.578040 -26.081753 -8.228864 41.774929 0.690363 1.769074 0.056930 0.004789 -315029.000000 0 0 1
-31.846090 -24.818053 -7.362364 41.040390 0.661999 1.751166 0.085804 -0.005013 1454740.000000 0 0 1
-30.661820 -24.084053 -6.888264 39.593396 0.665820 1.745661 0.076009 -0.012654 901822.000000 0 0 1
-29.778870 -24.808853 -6.032664 39.225672 0.694602 1.725203 0.078123 -0.010340 220357.000000 0 0 1
-28.547640 -23.987653 -5.612064 37.707698 0.698817 1.720182 0.072228 -0.016437 -185030.000000 0 0 1
-28.858650 -22.969053 -4.613164 37.170961 0.672246 1.695224 0.098464 -0.026452 409796.000000 0 0 1
-29.752690 -21.907253 -5.029364 37.288669 0.634683 1.706085 0.102484 -0.031747 493114.000000 0 0 1
-29.920040 -20.809353 -3.989064 36.662660 0.607699 1.679817 0.104220 -0.032898 255216.000000 0 0 1
-28.768900 -19.967353 -3.959864 35.242380 0.606729 1.683395 0.117843 -0.038548 565080.000000 0 0 1
-28.959340 -18.915253 -3.010064 34.720177 0.578598 1.657600 0.116082 -0.030985 -542447.000000 0 0 1
-27.845470 -17.879253 -3.106464 33.236847 0.570793 1.664397 0.118554 -0.029047 -174688.000000 0 0 1
-27.838510 -17.083753 -4.319764 32.946891 0.550413 1.702288 0.146285 -0.034757 -350401.000000 0 0 1
-26.842580 -16.126953 -4.222364 31.597960 0.541006 1.704825 0.151275 -0.038163 -341008.000000 0 0 1
-27.038830 -14.920553 -5.214264 31.319479 0.504239 1.738061 0.151181 -0.045961 424268.000000 0 0 1
-28.218340 -14.155153 -4.978464 31.959790 0.464950 1.727206 0.128534 -0.035853 338679.000000 0 0 1
-28.525680 -13.170953 -5.956664 31.979216 0.432560 1.758157 0.147677 -0.048607 157163.000000 0 0 1
-29.884120 -12.482053 -5.659164 32.876867 0.395656 1.743790 0.134641 -0.036677 231080.000000 0 0 1
-31.022450 -13.280353 -5.927164 34.262099 0.404484 1.744666 0.134472 -0.033048 56728.600000 0 0 1
-32.176120 -12.496153 -5.684864 34.982484 0.370438 1.734026 0.097256 -0.034485 -42933.600000 0 0 1
-33.382130 -12.937653 -6.546564 36.395150 0.369738 1.751655 0.064625 -0.023959 -12152.100000 0 0 1
-34.036580 -14.137053 -6.094764 37.356274 0.393668 1.734681 0.043972 -0.020927 478333.000000 0 0 1
-34.192946 -15.097253 -7.161964 38.057566 0.415789 1.760113 0.049317 -0.027660 -189928.000000 0 0 1
-34.959723 -16.376553 -6.689264 39.180607 0.438083 1.742366 0.032206 -0.021308 1681110.000000 0 0 1
-36.409530 -16.341653 -6.649664 40.458887 0.421880 1.735902 0.034711 -0.024484 1468590.000000 0 0 1
36.808156 -15.791253 -5.495664 40.427792 -0.405267 1.707156 0.064263 -0.015665 58665.700000 0 0 1
35.265676 -15.833453 -5.446164 39.038786 -0.422002 1.710759 0.075310 -0.020050 -843712.000000 0 0 1
34.666126 -15.102553 -6.519864 38.371031 -0.410863 1.741541 0.104476 -0.024366 893795.000000 0 0 1
33.234836 -15.160553 -6.451764 37.094770 -0.427969 1.745612 0.092414 -0.027901 1016260.000000 0 0 1
32.470906 -14.435753 -5.285064 35.926071 -0.418333 1.718442 0.125575 -0.036566 -754839.000000 0 0 1
32.595526 -15.176553 -4.118464 36.190577 -0.435753 1.684843 0.102817 -0.036065 158274.000000 0 0 1
31.988626 -14.421853 -3.107564 35.226680 -0.423555 1.659127 0.116117 -0.034290 -1476740.000000 0 0 1
31.981726 -15.059853 -1.663664 35.389232 -0.440089 1.617824 0.116132 -0.033405 -542383.000000 0 0 1
33.198336 -15.243153 -0.981764 36.543770 -0.430440 1.597665 0.133238 -0.029145 462367.000000 0 0 1
34.275396 -15.889453 -1.689564 37.817088 -0.434091 1.615488 0.118609 -0.031976 -296202.000000 0 0 1
34.020626 -17.399553 -2.092564 38.269129 -0.472759 1.625504 0.105783 -0.033229 -905706.000000 0 0 1
34.170406 -18.396453 -1.035964 38.821635 -0.493873 1.597485 0.113107 -0.037176 328640.000000 0 0 1
33.989016 -19.716853 -1.511564 39.322924 -0.525655 1.609246 0.088889 -0.034668 -616157.000000 0 0 1
35.226916 -20.268953 -2.179764 40.700337 -0.522122 1.624378 0.076023 -0.042176 -706837.000000 0 0 1
35.422456 -19.747653 -3.471164 40.703430 -0.508575 1.656179 0.052186 -0.036584 -75107.300000 0 0 1
36.268876 -20.500553 -4.321764 41.885340 -0.514467 1.674161 0.069577 -0.033230 -391680.000000 0 0 1
36.357396 -19.879653 -5.715164 41.829702 -0.500371 1.707854 0.085278 -0.029439 -124909.000000 0 0 1
35.152266 -19.837453 -6.467864 40.878352 -0.513778 1.729686 0.067420 -0.035843 218327.000000 0 0 1
35.277576 -18.940853 -7.583364 40.752555 -0.492737 1.757970 0.062009 -0.034147 54400.600000 0 0 1
34.175836 -19.033953 -8.672064 40.068489 -0.508157 1.788954 0.055060 -0.036233 -1956.300000 0 0 1
34.156286 -20.273653 -9.338564 40.802962 -0.535667 1.801713 0.062217 -0.035482 198033.000000 0 0 1
32.932466 -20.447453 -10.019664 40.037974 -0.555639 1.823739 0.070858 -0.044481 -277099.000000 0 0 1
32.821696 -21.761553 -10.878664 40.855529 -0.585476 1.840319 0.073556 -0.042863 -153704.000000 0 0 1
32.493876 -22.796553 -10.019464 40.938057 -0.611775 1.818055 0.066962 -0.047402 188121.000000 0 0 1
32.221666 -24.059153 -10.663164 41.602664 -0.641371 1.829999 0.047856 -0.039535 -308236.000000 0 0 1
31.597226 -25.192953 -9.774664 41.576600 -0.673102 1.808118 0.044902 -0.033106 -833846.000000 0 0 1
30.382446 -24.730453 -9.312764 40.266809 -0.683202 1.804186 0.053900 -0.033954 -934479.000000 0 0 1
29.627816 -25.887953 -8.929764 40.345189 -0.718134 1.793979 0.032370 -0.025640 1001430.000000 0 0 1
28.156056 -25.496353 -8.481264 38.919910 -0.735866 1.790475 0.036932 -0.027772 637212.000000 0 0 1
27.410756 -25.118053 -9.601564 38.398648 -0.741779 1.823528 0.043810 -0.025056 -199269.000000 0 0 1
26.077056 -24.857153 -9.165464 37.173871 -0.761452 1.819922 0.056890 -0.030990 135512.000000 0 0 1
25.263856 -24.514753 -10.429664 36.715303 -0.770351 1.858831 0.086699 -0.030200 -376084.000000 0 0 1
24.926556 -25.507653 -11.355164 37.428777 -0.796920 1.879035 0.084651 -0.029206 518936.000000 0 0 1
23.832056 -25.111153 -12.181664 36.700543 -0.811527 1.909135 0.094991 -0.021810 -82916.100000 0 0 1
23.115256 -26.288653 -12.749064 37.255161 -0.849544 1.920064 0.098643 -0.022999 -636476.000000 0 0 1
23.704156 -26.926953 -13.876364 38.464286 -0.848965 1.939879 0.095996 -0.019712 38090.900000 0 0 1
23.419856 -28.302953 -13.902364 39.278780 -0.879528 1.932578 0.108323 -0.017302 53307.900000 0 0 1
24.441056 -29.238153 -14.645964 40.825716 -0.874527 1.937718 0.097836 -0.017908 -22210.300000 0 0 1
24.335756 -29.202553 -16.076364 41.273086 -0.876052 1.970898 0.090083 -0.013807 114775.000000 0 0 1
24.722956 -30.418653 -16.571164 42.557285 -0.888325 1.970760 0.089686 -0.009935 -404147.000000 0 0 1
24.602056 -30.632353 -18.086064 43.251681 -0.894144 2.002214 0.087553 -0.003804 184507.000000 0 0 1
23.251856 -30.520253 -18.501464 42.596230 -0.919754 2.020107 0.097489 -0.006269 241951.000000 0 0 1
23.239256 -30.712153 -19.906064 43.353786 -0.923034 2.047839 0.086513 -0.010828 -537231.000000 0 0 1
21.883756 -30.433653 -20.522864 42.735161 -0.947390 2.071717 0.070378 -0.007948 -633491.000000 0 0 1
21.891256 -30.506353 -21.919264 43.477797 -0.948358 2.099192 0.060511 -0.008577 255710.000000 0 0 1
20.587556 -30.230053 -22.466764 42.923875 -0.972916 2.121644 0.060012 -0.006643 268746.000000 0 0 1
20.408856 -30.322153 -23.997664 43.724619 -0.978375 2.151768 0.063273 -0.012208 -556687.000000 0 0 1
20.640156 -29.105853 -24.711864 43.403260 -0.953962 2.176517 0.077906 -0.018782 325182.000000 0 0 1
20.489656 -29.294253 -26.095164 44.259879 -0.960444 2.201347 0.074991 -0.022434 -532164.000000 0 0 1
20.909756 -28.046053 -26.904714 44.132331 -0.930149 2.226399 0.076819 -0.030964 25752.600000 0 0 1
20.076356 -26.892753 -26.839774 42.972709 -0.929517 2.245386 0.088443 -0.032052 504646.000000 0 0 1
18.874956 -27.118153 -27.591614 43.045968 -0.962742 2.266571 0.121409 -0.036575 554981.000000 0 0 1
18.033156 -25.779253 -27.839454 42.009521 -0.960391 2.295207 0.121412 -0.032278 295235.000000 0 0 1
17.300856 -25.323553 -26.728504 40.681874 -0.971440 2.287646 0.103398 -0.015373 -26723.200000 0 0 1
16.681856 -24.049253 -26.994544 39.816533 -0.964342 2.315798 0.091745 -0.013376 501330.000000 0 0 1
15.478056 -23.734153 -26.061604 38.497889 -0.992916 2.314423 0.093131 -0.014557 251927.000000 0 0 1
14.352656 -24.592353 -26.183844 38.683023 -1.042506 2.314315 0.118772 -0.023084 175010.000000 0 0 1
13.278956 -24.256753 -25.293184 37.476205 -1.069926 2.311643 0.071198 -0.020077 425839.000000 0 0 1
13.393756 -24.448453 -23.744564 36.618628 -1.069616 2.276315 0.062617 -0.015901 -1020530.000000 0 0 1
14.370456 -23.725653 -23.107864 36.102493 -1.026202 2.265376 0.052652 -0.017141 -733456.000000 0 0 1
14.455156 -24.278753 -21.823764 35.702746 -1.033779 2.228452 0.060712 -0.025207 399682.000000 0 0 1
15.598956 -23.593853 -21.029164 35.245185 -0.986626 2.210121 0.056894 -0.030084 286415.000000 0 0 1
15.290656 -22.214553 -20.766164 34.037099 -0.967954 2.226988 0.046262 -0.034422 -443759.000000 0 0 1
16.379956 -21.515153 -20.277664 33.799237 -0.920089 2.214228 0.056484 -0.035922 -1074520.000000 0 0 1
16.000656 -20.141853 -19.682564 32.390100 -0.899480 2.223923 0.075146 -0.027532 32345.600000 0 0 1
15.238656 -20.264153 -18.481764 31.375598 -0.926016 2.200678 0.090316 -0.035438 687016.000000 0 0 1
13.836756 -20.336153 -18.753364 30.930626 -0.973345 2.222201 0.051267 -0.024781 -587568.000000 0 0 1
13.035356 -20.246553 -17.479064 29.755018 -0.998770 2.198679 0.070576 -0.025079 -610546.000000 0 0 1
13.297856 -19.061453 -16.711164 28.625775 -0.961662 2.194173 0.101046 -0.028930 147041.000000 0 0 1
12.795156 -19.081953 -15.403064 27.660285 -0.980119 2.161404 0.103203 -0.028198 -47170.200000 0 0 1
13.189356 -17.819853 -14.613164 26.552794 -0.933629 2.153572 0.098071 -0.026335 -283455.000000 0 0 1
12.100956 -16.940153 -14.590164 25.421936 -0.950514 2.182081 0.071894 -0.029417 184335.000000 0 0 1
12.481156 -15.680053 -14.093464 24.500389 -0.898506 2.183687 0.068846 -0.029868 -229373.000000 0 1 0
11.234356 -14.837953 -13.802264 23.170630 -0.922743 2.208907 0.072952 -0.029188 -236411.000000 0 1 0
10.548956 -14.483553 -15.008164 23.373035 -0.941302 2.268050 0.077300 -0.021599 340459.000000 0 1 0
9.339256 -13.839453 -14.621964 22.193558 -0.977165 2.290070 0.070626 -0.022910 348762.000000 0 1 0
8.534356 -13.308953 -15.873164 22.403589 -1.000597 2.358181 0.050960 -0.014072 -42739.400000 0 1 0
8.962656 -12.125453 -16.553064 22.391064 -0.934269 2.402783 0.050645 -0.011793 105892.000000 0 1 0
10.210756 -12.165453 -17.218364 23.424984 -0.872533 2.396526 0.066001 -0.015145 110097.000000 0 1 0
10.362456 -10.941853 -18.183864 23.616892 -0.812588 2.449562 0.059323 -0.010649 262327.000000 0 1 0
9.547656 -11.106853 -19.346664 24.265476 -0.860745 2.493591 0.062132 -0.012037 625325.000000 0 1 0
9.680056 -9.882353 -20.025164 24.338685 -0.795739 2.537066 0.055269 -0.016526 4361.130000 0 1 0
9.469456 -9.955053 -21.549764 25.557113 -0.810392 2.574005 0.051384 -0.011526 143455.000000 0 0 1
10.536456 -10.514153 -22.291764 26.804609 -0.784339 2.552849 0.026616 -0.006726 62632.700000 0 0 1
10.180156 -10.534053 -23.672364 27.838511 -0.802481 2.587439 0.032846 -0.006020 530905.000000 0 0 1
11.286856 -11.286953 -24.485264 29.228695 -0.785402 2.563879 0.052241 -0.009509 386017.000000 0 0 1
11.162956 -12.704453 -24.376764 29.668862 -0.849894 2.535057 0.044415 -0.011362 -173034.000000 0 0 1
12.286256 -13.349853 -24.919864 30.824833 -0.826863 2.512284 0.027915 -0.019817 -385043.000000 0 0 1
12.498156 -14.868953 -24.677364 31.404808 -0.871812 2.474757 0.025568 -0.016030 -483588.000000 0 0 1
11.435956 -15.594253 -25.273054 31.822776 -0.938040 2.488455 0.033903 -0.021071 -5766.680000 0 0 1
11.351256 -16.978153 -24.868964 32.180337 -0.981470 2.454038 0.025087 -0.018433 -491683.000000 0 0 1
10.058956 -17.642353 -25.279234 32.426454 -1.052607 2.464802 0.030952 -0.018447 -475646.000000 0 0 1
10.177956 -18.334253 -26.490714 33.785997 -1.064020 2.471999 0.042057 -0.022120 -388626.000000 0 0 1
8.923256 -18.767953 -26.940914 34.024600 -1.126979 2.484558 0.041627 -0.018567 -260780.000000 0 0 1
9.108856 -19.809553 -28.080674 35.551567 -1.139805 2.481373 0.047069 -0.023892 -141001.000000 0 0 1
9.669256 -21.038453 -27.632054 36.050540 -1.139988 2.444140 0.044123 -0.025682 -90265.300000 0 0 1
9.435656 -22.021353 -28.592974 37.303214 -1.165984 2.444173 0.048716 -0.021981 -274500.000000 0 0 1
10.282956 -23.294753 -28.586714 38.282959 -1.155094 2.413916 0.047160 -0.019661 -341526.000000 0 0 1
9.993156 -24.187053 -29.645444 39.544014 -1.178996 2.418378 0.059680 -0.013302 -183891.000000 0 0 1
10.558456 -25.492453 -29.519264 40.407093 -1.178126 2.389918 0.075936 -0.013271 211571.000000 0 0 1
9.983356 -26.439153 -28.413404 40.075152 -1.209750 2.358880 0.067702 -0.016746 250841.000000 0 0 1
10.725256 -26.215353 -27.228804 39.289740 -1.182452 2.336474 0.072151 -0.018438 -316987.000000 0 0 1
10.126256 -26.625453 -26.029114 38.587182 -1.207368 2.311156 0.060150 -0.015626 -108866.000000 0 0 1
9.212556 -25.665153 -25.315404 37.208077 -1.226169 2.319069 0.042023 -0.017052 -120458.000000 0 0 1
9.954056 -24.594653 -24.833564 36.341245 -1.186224 2.323129 0.044797 -0.013594 -129580.000000 0 0 1
9.065056 -23.524053 -24.573964 35.205625 -1.202980 2.343414 0.033108 -0.012924 48680.400000 0 0 1
9.792856 -22.183053 -24.400764 34.400366 -1.155070 2.359325 0.033060 -0.008138 -192188.000000 0 0 1
10.347156 -21.907553 -23.170764 33.524451 -1.129545 2.333889 0.021986 -0.010587 -171324.000000 0 0 1
11.339156 -20.897453 -23.303964 33.291962 -1.073645 2.346177 0.028916 -0.009829 88527.700000 0 0 1
12.015256 -20.802053 -21.873464 32.489079 -1.047011 2.309400 0.022749 -0.013155 162511.000000 0 0 1
11.124956 -20.333953 -20.855764 31.180077 -1.070173 2.303499 0.025079 -0.014216 134655.000000 0 0 1
10.761256 -18.967253 -20.885064 30.195153 -1.054723 2.334594 0.045311 -0.016918 -35029.000000 0 0 1
11.880256 -17.925353 -20.621864 29.794631 -0.985501 2.335237 0.041445 -0.014290 298574.000000 0 0 1
12.867256 -17.781153 -21.610864 30.802031 -0.944376 2.348444 0.045210 -0.016620 386945.000000 0 0 1
14.176156 -17.424653 -21.154864 30.856283 -0.887836 2.326215 0.048615 -0.022330 389091.000000 0 0 1
15.146256 -17.352053 -22.351464 32.095027 -0.853168 2.341186 0.041862 -0.013187 313098.000000 0 0 1
16.459656 -17.693253 -21.892264 32.607403 -0.821502 2.306878 0.060249 -0.013133 26545.200000 0 0 1
17.436856 -17.308553 -22.785064 33.508046 -0.781706 2.318542 0.078853 -0.009862 244758.000000 0 0 1
18.885256 -17.479153 -22.193064 33.980962 -0.746750 2.282471 0.094084 -0.015845 560458.000000 0 0 1
19.234356 -18.846053 -22.057464 34.808992 -0.775202 2.257086 0.103496 -0.021303 838733.000000 0 0 1
20.653056 -18.952153 -21.869764 35.553051 -0.742478 2.233348 0.084424 -0.026607 720535.000000 0 0 1
21.029656 -20.420553 -21.624464 36.426129 -0.770704 2.206387 0.096598 -0.029358 -117585.000000 0 0 1
20.553756 -21.017753 -20.425264 35.796568 -0.796559 2.178024 0.105416 -0.033261 239419.000000 0 0 1
21.027056 -22.344353 -20.358464 36.822198 -0.815761 2.156620 0.104233 -0.023445 111354.000000 0 0 1
-16.473180 12.670418 28.120036 34.966292 -0.655648 0.636461 0.045323 -0.032538 250061.000000 0 0 1
-17.719280 13.363118 28.124576 35.826492 -0.646156 0.668065 0.053625 -0.030729 192855.000000 0 0 1
-18.291680 13.344118 26.854846 35.125970 -0.630264 0.700485 0.050457 -0.027207 246340.000000 0 0 1
-19.657280 14.077418 26.735506 36.046770 -0.621478 0.735211 0.069883 -0.032167 224869.000000 0 0 1
-19.558280 15.487618 26.888856 36.679738 -0.669764 0.747970 0.070730 -0.031206 -154193.000000 0 0 1
-20.427380 16.198518 26.047216 36.852778 -0.670446 0.785845 0.075151 -0.029229 -940586.000000 0 0 1
-20.529380 17.678218 26.257026 37.728056 -0.710913 0.801047 0.083839 -0.024436 664154.000000 0 0 1
-19.438180 18.568418 25.931546 37.350690 -0.762518 0.803388 0.067409 -0.025489 782100.000000 0 0 1
-18.238880 18.429318 26.689416 37.210501 -0.790592 0.770942 0.065063 -0.013480 690123.000000 0 0 1
-17.019280 19.216418 26.086516 36.598264 -0.845959 0.777342 0.077277 -0.011140 547679.000000 0 0 1
-17.226880 20.622718 26.067806 37.437847 -0.874878 0.800573 0.091354 -0.019870 434533.000000 0 0 1
-16.038180 21.315218 25.675646 37.024323 -0.925743 0.804488 0.123296 -0.023112 440802.000000 0 0 1
-16.243580 22.818918 25.433826 37.834328 -0.952163 0.833563 0.109167 -0.025470 37493.200000 0 0 1
-16.339980 23.604618 26.606346 39.141673 -0.965300 0.823382 0.111804 -0.021759 66162.200000 0 0 1
-16.260380 24.963918 26.289706 39.733434 -0.993469 0.847776 0.107246 -0.021364 18272.600000 0 0 1
-15.561180 25.820918 27.395546 40.735562 -1.028425 0.833186 0.071213 -0.011243 711929.000000 0 0 1
-14.134480 25.841618 27.381676 40.216028 -1.070286 0.821854 0.070674 -0.016715 615751.000000 0 0 1
-13.565480 26.597718 28.461616 41.249538 -1.099162 0.809326 0.083359 -0.016595 278990.000000 0 0 1
-12.028480 26.649218 28.433366 40.783838 -1.146809 0.799351 0.102950 -0.019872 -38172.700000 0 0 1
-11.425580 27.598918 27.616426 40.680599 -1.178291 0.824588 0.093833 -0.017867 -736703.000000 0 0 1
-10.045280 27.439818 27.601706 40.195838 -1.219865 0.813883 0.075101 -0.009215 -601601.000000 0 0 1
-9.270780 28.235418 26.530956 39.838145 -1.253548 0.842005 0.068324 -0.017567 1167370.000000 0 0 1
-7.841980 27.996018 26.490936 39.332472 -1.297685 0.831845 0.059770 -0.010368 1249230.000000 0 0 1
-7.274580 28.700818 25.413156 39.019033 -1.322562 0.861498 0.066806 -0.014747 -815734.000000 0 0 1
-5.769780 28.489918 25.416796 38.613201 -1.370979 0.852316 0.047703 -0.006659 -1585710.000000 0 0 1
-5.064180 29.242618 26.329806 39.674114 -1.399319 0.845106 0.068307 -0.011819 881295.000000 0 0 1
-3.635980 29.012618 26.243226 39.289429 -1.446122 0.839351 0.049939 -0.009470 1416540.000000 0 0 1
-2.944680 29.923718 25.164946 39.209368 -1.472706 0.873941 0.038353 -0.003368 -637493.000000 0 0 1
-3.264680 29.513818 23.817496 38.065689 -1.460629 0.894775 0.034138 0.009899 -128207.000000 0 0 1
-2.972980 30.492618 22.839416 38.213574 -1.473605 0.930194 0.024559 0.006222 -135345.000000 0 0 1
-3.376880 30.208718 21.345816 37.143153 -1.459474 0.958570 0.019381 0.006182 465213.000000 0 0 1
-4.759380 29.992218 21.111216 36.984703 -1.413421 0.963305 0.016480 0.009594 46655.600000 0 0 1
-5.097480 28.640518 21.258116 36.030141 -1.394659 0.939726 0.020965 0.008278 -846302.000000 0 0 1
-6.553780 28.348218 20.934316 35.844373 -1.343600 0.947107 0.030540 0.005776 -868503.000000 0 0 1
-6.779280 28.538118 19.585916 35.270255 -1.337568 0.982061 0.012682 0.003668 311765.000000 0 0 1
-7.762280 27.668018 18.994216 34.446370 -1.297277 0.986738 0.010938 0.001400 -473045.000000 0 0 1
-7.219480 26.260318 18.529516 32.940372 -1.302505 0.973369 0.005275 -0.005006 512969.000000 0 0 1
-6.206980 26.303818 17.515916 32.205974 -1.339063 0.995752 0.001840 -0.005849 -449547.000000 0 0 1
-4.960180 26.723618 17.941916 32.567890 -1.387274 0.987344 0.011877 0.001317 -1345800.000000 0 0 1
-4.002480 26.853718 16.717416 31.884385 -1.422838 1.018888 0.017510 -0.004898 -72735.500000 0 0 1
-3.499680 25.616418 16.246216 30.535032 -1.435018 1.009774 0.028244 -0.008229 -144237.000000 0 0 1
-2.987080 25.833718 14.948416 29.995979 -1.455680 1.049105 0.039404 -0.024677 -214352.000000 0 0 1
-2.236580 24.622418 14.334516 28.578735 -1.480210 1.045372 0.035096 -0.029005 -49075.400000 0 0 1
-1.151880 24.211118 15.128716 28.572418 -1.523256 1.012801 0.042289 -0.028683 -551692.000000 0 0 1
-0.483980 23.129618 14.591416 27.351835 -1.549875 1.008097 0.035856 -0.032439 -50053.200000 0 0 1
0.817020 22.820918 15.391316 27.538236 1.535010 0.977729 0.031133 -0.028152 777796.000000 0 0 1
1.794120 23.869518 15.570316 28.555341 1.495774 0.994087 0.042631 -0.033792 131548.000000 0 0 1
2.990320 23.232618 15.949716 28.338842 1.442788 0.973001 0.044399 -0.034764 -706765.000000 0 0 1
4.123820 24.256518 16.004416 29.351761 1.402398 0.994094 0.062271 -0.040540 -608573.000000 0 0 1
5.377420 23.660018 15.848016 28.980557 1.347314 0.992199 0.074594 -0.037139 -771995.000000 0 0 1
6.411120 24.603718 15.737216 29.901595 1.315890 1.016553 0.090302 -0.040244 64057.100000 0 0 1
7.824420 23.942518 15.750816 29.707809 1.254937 1.011970 0.100637 -0.036500 218871.000000 0 0 1
8.311120 23.306018 14.608516 28.734194 1.228247 1.037469 0.079998 -0.028852 -53336.700000 0 0 1
8.905320 24.253418 13.730816 29.258645 1.218901 1.082309 0.086449 -0.035755 -732641.000000 0 0 1
9.408920 23.619318 12.467116 28.316584 1.191707 1.114890 0.070303 -0.024254 507336.000000 0 0 1
10.603520 22.842418 12.738316 28.221895 1.136194 1.102504 0.071823 -0.023269 869811.000000 0 0 1
11.223720 22.412818 11.529716 27.590590 1.106531 1.139679 0.075874 -0.017200 -81236.800000 0 0 1
12.361420 21.403318 11.764616 27.373580 1.047050 1.126547 0.090579 -0.018403 -52702.800000 0 0 1
12.029220 20.195918 12.417116 26.584996 1.033599 1.084819 0.076651 -0.005624 -320026.000000 0 0 1
13.174120 19.389318 12.560316 26.594447 0.973994 1.078908 0.085897 -0.008027 -32926.500000 0 0 1
13.662720 19.306418 14.033416 27.501717 0.954936 1.035293 0.067921 -0.004256 219011.000000 0 0 1
14.784120 18.399418 14.105216 27.496652 0.893919 1.032144 0.085662 -0.003792 685530.000000 0 0 1
15.228020 18.209418 15.400216 28.295621 0.874326 0.995288 0.064481 -0.005325 528121.000000 0 0 1
16.467620 17.235218 15.500616 28.434211 0.808170 0.994241 0.047392 -0.009238 631733.000000 0 0 1
16.870920 16.911818 16.835016 29.224224 0.786609 0.956891 0.060632 -0.015708 806438.000000 0 0 1
17.895220 15.892218 16.928416 29.315060 0.726185 0.955176 0.046631 -0.016833 717801.000000 0 0 1
18.482320 15.619418 18.350616 30.369515 0.701643 0.921979 0.058242 -0.017541 62230.400000 0 0 1
19.195720 16.753118 18.866316 31.703005 0.717556 0.933412 0.069334 -0.013817 -209691.000000 0 0 1
18.412920 17.676118 19.503116 32.122458 0.764985 0.918329 0.056785 -0.006846 -659222.000000 0 0 1
19.175120 18.632418 20.415416 33.639879 0.771045 0.918665 0.046308 -0.010606 -441985.000000 0 0 1
18.308820 19.510618 21.037116 34.035824 0.817165 0.904489 0.056716 -0.016388 67914.700000 0 0 1
19.075020 20.418218 21.846716 35.468846 0.819396 0.907216 0.055591 -0.019025 376660.000000 0 0 1
18.262020 21.559818 22.521116 36.132088 0.868023 0.897841 0.071143 -0.016415 351617.000000 0 0 1
17.318320 21.104318 23.502416 36.023326 0.883617 0.860020 0.067019 -0.017719 -3753.070000 0 0 1
16.730320 22.166318 24.096326 36.767950 0.924254 0.856134 0.069884 -0.027735 -107759.000000 0 0 1
15.926720 21.756818 25.380516 37.029584 0.938893 0.815627 0.086539 -0.029502 400398.000000 0 0 1
14.706020 21.066018 25.269316 36.035850 0.961352 0.793679 0.084823 -0.031380 -196014.000000 0 0 1
14.093420 20.798918 26.516506 36.528681 0.975260 0.758441 0.085638 -0.035174 697234.000000 0 0 1
12.878520 19.791318 26.466896 35.468988 0.993918 0.728463 0.100329 -0.033242 485172.000000 0 0 1
13.133020 18.395218 26.246166 34.636996 0.950778 0.710939 0.095546 -0.041771 64251.900000 0 0 1
13.852820 18.011718 25.087276 33.848102 0.915183 0.735981 0.097517 -0.040921 169051.000000 0 0 1
12.929820 17.930318 23.828416 32.503384 0.946039 0.747919 0.100310 -0.036078 -158588.000000 0 0 1
12.700120 19.128018 23.044926 32.530643 0.984674 0.783558 0.096157 -0.032004 521164.000000 0 0 1
13.779820 19.663218 22.236016 32.725617 0.959539 0.823759 0.088253 -0.025782 533339.000000 0 0 1
14.379720 18.689418 21.189816 31.702981 0.914992 0.838760 0.093838 -0.026698 -267126.000000 0 0 1
13.459020 18.325718 20.200216 30.414238 0.937332 0.844414 0.069230 -0.014092 -6664.990000 0 0 1
14.039420 17.373618 19.321816 29.534395 0.891143 0.857653 0.065076 -0.012377 25411.100000 0 0 1
13.019120 16.657418 18.422816 28.042240 0.907388 0.854008 0.059746 -0.001231 -29671.500000 0 0 1
12.312120 17.534718 17.538116 27.688267 0.958624 0.884840 0.065309 -0.005603 -58000.100000 0 0 1
11.423420 16.793218 16.764316 26.335318 0.973456 0.880752 0.054099 -0.000199 -326271.000000 0 0 1
11.021320 17.456618 15.436216 25.777505 1.007640 0.928763 0.054142 -0.000775 -386495.000000 0 0 1
10.163220 18.543018 15.625816 26.292597 1.069422 0.934395 0.060151 -0.003236 -11887.600000 0 0 1
9.699020 18.956718 14.335516 25.669732 1.097880 0.978268 0.053944 0.002201 -190440.000000 0 0 1
8.675820 20.117518 14.476516 26.259358 1.163638 0.986887 0.061380 0.000276 104590.000000 0 0 1
7.382820 19.649518 14.785216 25.675128 1.211390 0.957144 0.031790 0.001946 -633049.000000 0 0 1
6.467720 20.692918 14.814816 26.258466 1.267859 0.971342 0.044604 -0.009023 806392.000000 0 0 1
5.134920 20.397318 15.625816 26.202750 1.324176 0.931859 0.034042 -0.006545 753363.000000 0 0 1
4.092120 19.780918 14.918716 25.111715 1.366802 0.934658 0.023186 -0.000762 -1000660.000000 0 0 1
3.101220 19.389418 15.815916 25.213296 1.412196 0.892735 0.015828 -0.003257 -88451.600000 0 0 1
1.991420 18.701318 14.965216 24.034615 1.464711 0.898668 0.012862 -0.007290 -64082.500000 0 1 0
1.199120 19.601218 14.219516 24.245417 1.509697 0.944087 0.016539 -0.018373 -68868.300000 0 1 0
0.408820 18.873418 13.269216 23.074772 1.549139 0.958127 0.013177 -0.023977 -130041.000000 0 1 0
-0.620780 19.715918 12.558416 23.384110 -1.539321 1.003861 0.022780 -0.027862 1138510.000000 0 1 0
-1.771480 20.270818 13.290016 24.303677 -1.483627 0.992221 0.033377 -0.030099 478881.000000 0 1 0
-2.835880 20.479318 12.453116 24.135550 -1.433196 1.028662 0.033645 -0.032975 -202942.000000 0 1 0
-4.012780 21.349018 12.975616 25.303153 -1.385003 1.032346 0.029961 -0.025492 201475.000000 0 0 1
-4.775180 20.712818 13.944916 25.422113 -1.344213 0.990185 0.040271 -0.027771 -283202.000000 0 0 1
-5.893680 21.516618 14.283916 26.490197 -1.303441 1.001291 0.041176 -0.017077 -146796.000000 0 0 1
-6.723680 20.958018 15.450116 26.891494 -1.260353 0.958760 0.041448 -0.014754 -437215.000000 0 0 1
-7.710680 20.022418 15.078816 26.224463 -1.203198 0.958204 0.044704 -0.014523 -89338.900000 0 0 1
-8.399380 19.360918 16.135816 26.566130 -1.161469 0.918034 0.033625 0.004276 380966.000000 0 0 1
-9.615280 20.126918 16.749416 27.894253 -1.125121 0.926719 0.030574 0.007873 485798.000000 0 0 1
-10.705180 20.248118 15.822216 27.837559 -1.084453 0.966265 0.027241 -0.001943 251892.000000 0 0 1
-11.795880 19.487018 16.302316 28.011643 -1.026474 0.949631 0.018842 0.004948 -269222.000000 0 0 1
-13.038080 19.452818 15.407416 28.031984 -0.980323 0.988867 0.017606 0.001526 -103732.000000 0 0 1
-13.947380 20.531418 15.396116 29.208028 -0.974086 1.015589 -0.000906 0.008591 -41797.800000 0 0 1
-14.790180 20.472518 14.284616 29.015921 -0.945168 1.056063 0.007664 -0.006007 -588660.000000 0 0 1
-15.725880 21.672318 14.241216 30.328285 -0.943081 1.081994 0.013820 -0.006387 441780.000000 0 0 1
-16.915580 21.483118 15.027216 31.200616 -0.903792 1.068280 0.022995 -0.004277 811755.000000 0 0 1
-17.817680 22.597418 14.938416 32.423283 -0.903118 1.091978 0.030590 -0.009374 588549.000000 0 0 1
-19.219880 22.361118 15.544916 33.332683 -0.860800 1.085629 0.035684 -0.012095 -534720.000000 0 0 1
-19.985180 21.358818 14.908616 32.830981 -0.818611 1.099432 0.042521 -0.018299 574353.000000 0 0 1
-21.197080 21.084318 15.611416 33.728044 -0.782731 1.089576 0.047222 -0.017027 1239410.000000 0 0 1
-22.361180 22.129918 15.853416 35.229056 -0.780200 1.104020 0.049034 -0.011223 54471.900000 0 0 1
-23.069280 22.388418 14.644916 35.325720 -0.770421 1.143328 0.059128 -0.010767 195496.000000 0 0 1
-23.752980 23.615018 14.537616 36.513222 -0.782486 1.161301 0.083995 -0.016031 -451198.000000 0 0 1
-22.906980 24.724718 13.942316 36.475054 -0.823542 1.178574 0.063660 -0.016235 -673186.000000 0 0 1
-21.821380 25.051318 14.764616 36.355674 -0.854198 1.152597 0.037527 -0.019485 -216191.000000 0 0 1
-21.188280 26.146718 14.068316 36.476178 -0.889770 1.174846 0.028474 -0.007152 -880775.000000 0 0 1
-19.746080 26.397618 14.410116 35.977678 -0.928560 1.158702 0.016682 -0.009219 -736628.000000 0 0 1
-18.749680 25.516218 13.918916 34.588496 -0.937085 1.156643 0.021149 0.000868 1142590.000000 0 0 1
-17.445180 26.154818 13.995816 34.413539 -0.982565 1.151963 -0.000393 0.000014 1030220.000000 0 0 1
-16.511980 25.508318 12.925516 33.021034 -0.996309 1.168608 0.017375 -0.008351 508681.000000 0 0 1
-15.182980 26.017218 12.949816 32.788965 -1.042542 1.164789 0.012800 -0.000915 749302.000000 0 0 1
-14.297480 25.570018 11.920116 31.628040 -1.060955 1.184366 0.020855 -0.004423 358292.000000 0 0 1
-12.961880 26.342518 12.011516 31.720894 -1.113528 1.182445 0.016414 -0.000530 300493.000000 0 0 1
-11.853880 25.558518 11.511416 30.434602 -1.136531 1.182908 0.012318 -0.000937 1755180.000000 0 0 1
-10.545780 26.082418 11.858716 30.530888 -1.186567 1.171883 0.026916 -0.007268 1339250.000000 0 0 1
-9.965380 27.265618 11.017316 31.050024 -1.220387 1.208070 0.038910 -0.013830 694582.000000 0 0 1
-8.645380 27.734718 11.384516 31.201993 -1.268625 1.197309 0.051375 -0.016961 1139220.000000 0 0 1
-8.423180 29.003318 10.815016 32.079697 -1.288150 1.226930 0.061148 -0.022987 -182219.000000 0 0 1
-7.165580 29.639118 11.439716 32.568235 -1.333587 1.211886 0.047515 -0.022060 -90234.400000 0 0 1
-5.971480 28.979918 11.117916 31.608579 -1.367585 1.211370 0.051846 -0.024485 -181330.000000 0 0 1
-4.859780 29.729818 11.601116 32.281038 -1.408765 1.203194 0.059020 -0.027174 648640.000000 0 0 1
-3.481680 29.257418 11.050216 31.467854 -1.452352 1.211988 0.063045 -0.031556 267422.000000 0 0 1
-3.192280 29.928818 9.854616 31.670779 -1.464536 1.254385 0.084183 -0.039797 -444222.000000 0 0 1
-1.998880 29.572918 9.239116 31.046969 -1.503307 1.268634 0.077853 -0.043092 -387316.000000 0 0 1
-1.672480 30.337818 7.907816 31.396082 -1.515724 1.316181 0.075211 -0.046144 448385.000000 0 0 1
-2.523580 30.014318 6.779616 30.873790 -1.486914 1.349401 0.076589 -0.039645 452520.000000 0 0 1
-2.323880 30.852018 5.702016 31.460458 -1.495615 1.388545 0.086809 -0.037463 91488.100000 0 0 1
11.324220 -33.999253 -26.406994 44.514229 -1.249280 2.205856 0.137819 -0.052303 -270812.000000 0 0 1
11.830820 -33.584853 -25.181904 43.612372 -1.232104 2.186340 0.119884 -0.046089 700114.000000 0 0 1
13.161420 -33.053053 -25.287494 43.648421 -1.191851 2.188721 0.125996 -0.046722 709133.000000 0 0 1
13.961020 -33.046553 -23.969664 43.145447 -1.171075 2.159827 0.111726 -0.041439 -698893.000000 0 0 1
13.379020 -32.234853 -22.917864 41.752993 -1.177385 2.151834 0.115249 -0.043066 255478.000000 0 0 1
13.951420 -32.316853 -21.618064 41.308133 -1.163258 2.121558 0.085119 -0.029171 -13322.300000 0 0 1
15.412620 -31.813253 -21.510764 41.380490 -1.119648 2.117447 0.059731 -0.019655 140586.000000 0 0 1
16.327620 -32.721153 -22.083964 42.719627 -1.107955 2.114082 0.067809 -0.020836 -30845.500000 0 0 1
17.675820 -32.531253 -21.683964 42.905843 -1.073074 2.100624 0.051129 -0.020678 139502.000000 0 0 1
18.626120 -33.598353 -22.280364 44.409417 -1.064600 2.096363 0.030395 -0.015275 -526624.000000 0 0 1
19.945020 -33.371953 -21.865264 44.604718 -1.032101 2.083116 0.032069 -0.005208 -153417.000000 0 0 1
20.736320 33.560218 -22.073064 45.205125 1.017331 2.080922 0.023182 -0.006794 1212770.000000 0 0 1
22.293220 33.626218 -21.755864 45.836970 0.985356 2.065346 0.043360 -0.001688 1300270.000000 0 0 1
23.041620 -33.919653 -22.818864 46.927175 -0.974098 2.078602 0.036772 -0.005579 11691.300000 0 0 1
24.423820 33.882018 -22.639964 47.508758 0.946214 2.067515 0.034346 -0.008384 141566.000000 0 0 1
25.275420 -33.452853 -23.666464 48.146047 -0.923750 2.084672 0.052496 -0.022291 -474389.000000 0 0 1
25.362120 -32.026753 -23.732364 47.245901 -0.901011 2.097071 0.065350 -0.028730 808352.000000 0 0 1
24.103520 -31.327053 -23.940964 46.211835 -0.914985 2.115389 0.048235 -0.026367 659346.000000 0 0 1
24.132020 -29.798053 -23.622364 45.036590 -0.890077 2.122942 0.063067 -0.032559 -555045.000000 0 0 1
24.936720 -29.181753 -24.633564 45.609508 -0.863678 2.141349 0.068308 -0.037720 142272.000000 0 0 1
25.073620 -27.820953 -24.230864 44.607473 -0.837291 2.145042 0.086927 -0.029059 145211.000000 0 0 1
25.634920 -26.884553 -25.330964 44.962052 -0.809187 2.169274 0.072687 -0.025571 238538.000000 0 0 1
24.825520 -26.785753 -26.512274 45.129632 -0.823361 2.198724 0.065268 -0.025039 -452495.000000 0 0 1
25.489420 -26.155353 -27.581934 45.766540 -0.798292 2.217634 0.052047 -0.018616 -916561.000000 0 0 1
24.636420 -25.819953 -28.865284 45.900194 -0.808850 2.250896 0.048840 -0.014493 593994.000000 0 0 1
23.820920 -24.642653 -28.775374 44.751746 -0.802352 2.269205 0.059988 -0.015134 -198891.000000 0 0 1
22.772120 -24.797453 -27.864244 43.702394 -0.827949 2.262163 0.066334 -0.015046 -1092840.000000 0 0 1
21.957520 -23.497153 -27.575364 42.363305 -0.819257 2.279600 0.077170 -0.013844 384186.000000 0 0 1
21.225020 -23.004753 -28.689714 42.459626 -0.825615 2.312702 0.081711 -0.015892 397973.000000 0 0 1
20.566720 -21.754753 -28.426694 41.283607 -0.813462 2.330313 0.077502 -0.004964 30883.000000 0 0 1
19.657020 -21.325553 -29.597934 41.439298 -0.826089 2.366345 0.101876 -0.021609 212054.000000 0 0 1
18.503620 -22.162553 -29.713334 41.430001 -0.875131 2.370563 0.104455 -0.029679 -247519.000000 0 0 1
17.655420 -21.623053 -30.644584 41.453116 -0.886070 2.402765 0.079564 -0.037489 -227824.000000 0 0 1
16.276820 -22.364553 -30.579604 41.233728 -0.941658 2.406273 0.090315 -0.041596 241921.000000 0 0 1
16.391520 -23.693853 -31.023014 42.338021 -0.965592 2.393145 0.086146 -0.020307 60032.300000 0 0 1
15.313320 -24.438653 -30.502094 41.977652 -1.011046 2.384196 0.100659 -0.032056 -8377.390000 0 0 1
15.367220 -25.930353 -30.900904 43.167124 -1.035810 2.368628 0.127263 -0.031605 -223219.000000 0 0 1
14.326920 -26.643653 -30.299244 42.815758 -1.077427 2.356985 0.131932 -0.034897 -161329.000000 0 0 1
14.454120 -28.009353 -30.485554 43.849909 -1.094394 2.339529 0.191987 -0.042600 4354.180000 0 0 1
13.677720 -28.875653 -29.488004 43.479027 -1.128428 2.316123 0.163711 -0.048853 -640282.000000 0 0 1
14.186320 -29.032153 -28.204174 42.890477 -1.116277 2.288406 0.173112 -0.057858 -262906.000000 0 0 1
14.177220 -27.819853 -27.390624 41.535336 -1.099492 2.290888 0.148559 -0.046780 -394054.000000 0 0 1
15.361620 -27.904653 -26.451684 41.404597 -1.067566 2.263810 0.110874 -0.031247 -716122.000000 0 0 1
15.254220 -29.051453 -25.606674 41.621869 -1.087290 2.233463 0.110412 -0.039955 45437.700000 0 0 1
16.059120 -28.990653 -24.432564 41.174064 -1.064932 2.206069 0.112418 -0.038835 -478841.000000 0 0 1
15.411920 -28.064353 -23.293164 39.594276 -1.068596 2.199747 0.086995 -0.028876 110655.000000 0 0 1
14.304820 -28.519453 -22.603264 39.101083 -1.105885 2.187161 0.085953 -0.031024 -653154.000000 0 0 1
13.139620 -28.712353 -23.376164 39.287325 -1.141616 2.208068 0.093434 -0.028452 -316168.000000 0 0 1
11.857120 -28.438553 -22.494164 38.148788 -1.175774 2.201413 0.060226 -0.021929 526821.000000 0 0 1
11.691320 -27.057953 -22.174364 36.885258 -1.162940 2.215763 0.041959 -0.023347 594691.000000 0 0 1
10.405320 -26.844953 -21.583164 35.982707 -1.201018 2.214073 0.041969 -0.025140 420766.000000 0 0 1
10.042220 -25.359853 -21.339564 34.631566 -1.193753 2.234690 0.033661 -0.022795 -187993.000000 0 0 1
10.528120 -24.856453 -20.135664 33.676840 -1.170149 2.211685 0.029279 -0.016965 118041.000000 0 0 1
10.237420 -23.472353 -20.113064 32.562118 -1.159521 2.236589 0.030376 -0.017522 -869788.000000 0 0 1
10.696920 -22.789253 -18.808564 31.425090 -1.131940 2.212449 0.028989 -0.016476 15699.500000 0 0 1
9.816720 -23.108853 -17.741164 30.743064 -1.169092 2.185943 0.037394 -0.014900 333533.000000 0 0 1
10.066720 -22.341953 -16.572164 29.582738 -1.147465 2.165420 0.047902 -0.014635 -129820.000000 0 0 1
9.327820 -22.829753 -15.305364 29.025162 -1.182914 2.126232 0.050711 -0.011067 84301.500000 0 0 1
9.789320 -24.087753 -14.881864 29.958647 -1.184783 2.090643 0.048850 -0.007272 356322.000000 0 0 1
8.989520 -24.619253 -13.818264 29.628762 -1.220696 2.055990 0.042595 -0.009994 245620.000000 0 0 1
9.351220 -26.097053 -13.512564 30.839762 -1.226725 2.024340 0.053761 -0.013387 286980.000000 0 0 1
10.709620 -26.263753 -13.141264 31.259775 -1.183608 2.004670 0.045328 -0.012453 60939.000000 0 0 1
11.022120 -27.654753 -13.081864 32.517806 -1.191531 1.984822 0.039377 -0.015372 -498379.000000 0 0 1
12.432820 -28.003153 -12.514064 33.096124 -1.152960 1.958553 0.045061 -0.016687 153019.000000 0 0 1
13.517420 -27.531553 -13.269364 33.418305 -1.114391 1.979117 0.064616 -0.017097 -121916.000000 0 0 1
13.667020 -28.012353 -14.582964 34.411368 -1.116881 2.008415 0.070377 -0.018795 -1042680.000000 0 0 1
14.966720 -27.505853 -15.230464 34.821570 -1.072472 2.023486 0.059121 -0.017658 22138.900000 0 0 1
16.156320 -28.195253 -14.954164 35.771861 -1.050455 2.002086 0.088728 -0.009226 -606668.000000 0 0 1
17.266620 -27.627253 -15.585264 36.115118 -1.012208 2.017000 0.106608 -0.011291 593743.000000 0 0 1
18.564120 -28.446053 -15.219464 37.221454 -0.992590 1.992033 0.093297 -0.014190 653747.000000 0 0 1
18.699520 -29.694253 -15.838964 38.500565 -1.008799 1.994781 0.090901 -0.005563 344580.000000 0 0 1
20.056920 -30.139353 -15.848964 39.520252 -0.983621 1.983442 0.097693 0.000513 747802.000000 0 0 1
20.347020 -31.172553 -16.960764 40.907173 -0.992510 1.998317 0.085541 -0.005095 -49417.300000 0 0 1
19.894220 -32.501853 -16.716164 41.612265 -1.021531 1.984182 0.078825 0.000612 96234.100000 0 0 1
20.367720 -33.390653 -17.717464 42.938192 -1.023069 1.996133 0.065950 -0.002574 2588.540000 0 0 1
20.278520 33.182918 -17.342064 42.580179 1.022245 1.990270 0.046911 -0.001778 -243852.000000 0 0 1
21.208520 32.782018 -16.362464 42.334292 0.996564 1.967637 0.064317 -0.005003 -98973.800000 0 0 1
20.845920 31.543318 -15.777964 40.969226 0.986820 1.966131 0.049610 -0.007622 -313766.000000 0 0 1
21.748420 31.018118 -14.615864 40.604691 0.959298 1.939016 0.059580 -0.007301 150394.000000 0 0 1
22.910720 30.327218 -15.113164 40.902921 0.923816 1.949255 0.066591 -0.004359 976927.000000 0 0 1
23.861820 30.212018 -14.028364 40.974962 0.902298 1.920228 0.073685 -0.010609 496187.000000 0 0 1
23.644120 28.859018 -13.263764 39.595641 0.884399 1.912381 0.072348 -0.004075 -775809.000000 0 0 1
24.002520 27.741918 -14.045964 39.281345 0.857539 1.936465 0.068825 0.001795 41305.700000 0 0 1
23.648220 26.502818 -13.504764 38.000215 0.842257 1.934124 0.039163 -0.001355 816938.000000 0 0 1
22.147820 26.222918 -13.135564 36.752012 0.869447 1.936290 0.034923 -0.005080 393872.000000 0 0 1
21.243220 26.003218 -14.220664 36.464627 0.885808 1.971412 0.040636 -0.014910 819187.000000 0 0 1
19.863120 26.141118 -13.852964 35.634340 0.921026 1.970074 0.046384 -0.014452 584398.000000 0 0 1
19.363820 27.655718 -13.783764 36.466264 0.959953 1.958417 0.036732 -0.009521 -330199.000000 0 0 1
19.433120 28.262218 -15.101364 37.475997 0.968441 1.985546 0.041331 -0.013484 -157499.000000 0 0 1
18.510020 27.730518 -16.013164 36.986807 0.982220 2.018551 0.036355 -0.011198 -682606.000000 0 0 1
18.586620 28.465318 -17.355564 38.170046 0.992345 2.042821 0.035139 -0.007761 35503.000000 0 0 1
17.910120 29.714818 -17.513464 38.864691 1.028369 2.038263 0.037759 -0.010977 17643.800000 0 0 1
18.163420 30.223218 -18.793464 39.956815 1.029660 2.060477 0.027340 -0.006977 -284864.000000 0 0 1
17.224020 31.378018 -19.199664 40.618641 1.068783 2.063127 0.023287 -0.005207 -60246.600000 0 0 1
17.467920 32.635518 -18.637464 41.443460 1.079354 2.037235 0.041452 -0.015068 -373521.000000 0 0 1
16.399720 33.492118 -18.918664 41.816129 1.115456 2.040279 0.055305 -0.014173 -368848.000000 0 0 1
16.326720 -33.355953 -17.991864 41.266071 -1.115609 2.021942 0.055524 -0.018106 202228.000000 0 0 1
15.290220 -32.429753 -18.301464 40.254482 -1.130218 2.042769 0.052219 -0.012786 111304.000000 0 0 1
14.904420 -31.634953 -17.226764 38.982989 -1.130504 2.028517 0.058151 -0.013586 -259706.000000 0 0 1
13.786520 -30.665453 -17.548164 37.925931 -1.148293 2.051830 0.063378 -0.015445 -282577.000000 0 0 1
12.524620 -31.222153 -17.833564 38.075254 -1.189303 2.058249 0.051003 -0.013180 129797.000000 0 0 1
11.544020 -30.204753 -18.045564 37.030176 -1.205735 2.079815 0.030242 -0.009344 -66042.400000 0 0 1
10.142820 -30.745453 -18.283964 37.181488 -1.252142 2.084894 0.054007 -0.014452 -1125860.000000 0 0 1
9.552820 -31.348653 -17.105264 36.967344 -1.275007 2.051849 0.057392 -0.006661 520794.000000 0 0 1
8.500920 -32.308553 -17.288764 37.616614 -1.313511 2.048346 0.069824 -0.000183 167029.000000 0 0 1
7.163820 -31.605653 -17.649364 36.901730 -1.347900 2.069492 0.066015 0.004830 -749011.000000 0 0 1
6.982420 -31.084453 -18.949264 37.068478 -1.349837 2.107372 0.054340 0.003175 -99068.900000 0 0 1
6.903120 -32.123053 -19.908564 38.417373 -1.359119 2.115562 0.062471 -0.012755 -1068520.000000 0 0 1
6.863920 -31.608553 -21.308464 38.733251 -1.356962 2.153321 0.062680 -0.009389 816063.000000 0 0 1
8.047220 -31.324153 -22.109764 39.176549 -1.319333 2.170457 0.071234 -0.014333 1631560.000000 0 0 1
9.070320 -32.379853 -22.201364 40.294245 -1.297674 2.154336 0.077294 -0.020333 800916.000000 0 0 1
8.926320 -33.402453 -23.335364 41.712616 -1.309663 2.164496 0.086875 -0.035059 212871.000000 0 0 1
7.937120 33.641818 -23.123464 41.586830 1.339103 2.160396 0.087505 -0.043921 -326764.000000 0 0 1
7.867820 32.723818 -24.252464 41.484128 1.334844 2.195208 0.100150 -0.050974 -251212.000000 0 0 1
6.755720 31.680618 -23.895364 40.252823 1.360699 2.206361 0.106532 -0.059328 1043720.000000 0 0 1
5.433220 32.216318 -23.790464 40.415309 1.403720 2.200184 0.099083 -0.055311 615673.000000 0 0 1
5.219720 32.967418 -22.561064 40.287687 1.413770 2.165181 0.075170 -0.047998 -1007290.000000 0 0 1
3.932720 33.857018 -22.668564 40.934432 1.455158 2.157690 0.067960 -0.030205 429092.000000 0 0 1
2.707620 33.170718 -22.682364 40.275518 1.489350 2.169025 0.067014 -0.037795 183062.000000 0 0 1
1.661820 -33.973253 -22.983864 41.051207 -1.521920 2.165041 0.060695 -0.027834 515368.000000 0 0 1
0.237420 33.593118 -22.631064 40.505790 1.563729 2.163628 0.053118 -0.031781 132908.000000 0 0 1
0.014020 33.565118 -21.257164 39.730144 1.570379 2.135350 0.035288 -0.026263 829562.000000 0 0 1
-1.311780 33.136218 -20.881864 39.189054 -1.531229 2.132761 0.037964 -0.031328 977735.000000 0 0 1
-1.714280 33.458118 -19.401164 38.714204 -1.519605 2.095710 0.043229 -0.024041 269751.000000 0 0 1
-0.973180 32.685418 -18.458464 37.549947 -1.541031 2.084689 0.036525 -0.028698 254792.000000 0 0 1
-1.593380 32.755718 -17.196864 37.029827 -1.522190 2.053760 0.006762 -0.013280 113735.000000 0 0 1
-1.075480 31.663518 -16.222564 35.593632 -1.536843 2.044035 0.009807 -0.002912 121041.000000 0 0 1
0.157920 31.929418 -15.610364 35.541471 1.565850 2.025522 0.002376 -0.001952 -197439.000000 0 0 1
0.687720 30.743618 -14.937764 34.187422 1.548431 2.022987 0.006996 0.000163 635411.000000 0 0 1
1.908320 31.060218 -14.042664 34.140522 1.509434 1.994698 0.023789 -0.004769 -18958.300000 0 0 1
3.036420 31.608918 -14.680264 34.983620 1.475028 2.003837 0.049336 -0.010650 -242977.000000 0 0 1
3.882020 32.146718 -13.673964 35.149095 1.450619 1.970372 0.068632 -0.016888 -514586.000000 0 0 1
5.222720 32.532818 -14.283764 35.912212 1.411618 1.979850 0.090215 -0.027679 -507275.000000 0 0 1
6.113820 31.465118 -14.480964 35.172870 1.378883 1.995124 0.098511 -0.019895 -449684.000000 0 0 1
7.150720 31.777818 -15.396864 36.028127 1.349461 2.012363 0.098338 -0.011069 -69350.700000 0 0 1
8.228220 30.685518 -15.411364 35.310264 1.308813 2.022452 0.096630 -0.025532 -381946.000000 0 0 1
8.868720 30.642318 -14.144064 34.894991 1.289067 1.988139 0.085981 -0.030562 -421464.000000 0 0 1
9.867020 29.645418 -14.104564 34.280426 1.249495 1.994837 0.082956 -0.032932 27784.900000 0 0 1
9.382620 28.217618 -13.930964 32.838077 1.249788 2.008910 0.102708 -0.038690 -209915.000000 0 0 1
8.777620 27.639518 -15.066564 32.680130 1.263295 2.049953 0.107420 -0.040638 -174824.000000 0 0 1
8.214920 26.411918 -14.768964 31.355966 1.269250 2.061231 0.098492 -0.027625 -321113.000000 0 0 1
7.587120 25.613318 -15.920164 31.097557 1.282813 2.108241 0.106940 -0.025637 129415.000000 0 0 1
8.459320 25.027518 -16.887464 31.354795 1.244851 2.139562 0.103439 -0.021473 -307534.000000 0 0 1
7.781720 24.127618 -17.737464 30.940503 1.258806 2.181295 0.085751 -0.017140 -454314.000000 0 0 1
8.677120 23.284718 -18.577464 31.025678 1.214085 2.212770 0.093330 -0.013242 -384313.000000 0 0 1
7.992920 22.266418 -19.291764 30.526256 1.226155 2.254893 0.100407 -0.019373 113349.000000 0 0 1
8.939520 21.430218 -19.938264 30.605615 1.175597 2.280301 0.084845 -0.015981 -137223.000000 0 0 1
8.312820 20.630218 -20.998364 30.588236 1.187755 2.327440 0.067348 -0.030028 -237329.000000 0 0 1
7.401620 19.656018 -20.564464 29.394561 1.210661 2.345635 0.090266 -0.025242 -26030.500000 0 0 1
6.782620 18.915018 -21.600064 29.501604 1.226495 2.392293 0.084775 -0.021345 212798.000000 0 0 1
25.242420 -12.100582 -9.467564 29.550611 -0.447012 1.896932 0.074766 -0.019901 -430596.000000 0 0 1
25.833020 -11.754482 -8.248164 29.555795 -0.427019 1.853623 0.079725 -0.023621 274049.000000 0 0 1
24.932220 -11.899582 -7.179864 28.544108 -0.445305 1.825063 0.065517 -0.017673 -561288.000000 0 0 1
25.348220 -11.358982 -5.786064 28.373179 -0.421287 1.776164 0.043787 -0.014911 -441211.000000 0 0 1
25.308520 -9.935982 -5.492264 27.738239 -0.374106 1.770117 0.051010 -0.021314 740032.000000 0 0 1
26.259920 -9.172782 -6.257364 28.511014 -0.336058 1.792069 0.040673 -0.021390 -559451.000000 0 0 1
26.401120 -7.704982 -5.675664 28.082006 -0.283957 1.774309 0.079169 -0.022702 72386.800000 0 0 1
27.147020 -7.615082 -4.446564 28.543337 -0.273484 1.727216 0.130990 -0.035331 1530990.000000 0 0 1
28.555020 -7.919782 -4.504464 29.973360 -0.270551 1.721650 0.150850 -0.039142 229218.000000 0 0 1
29.175020 -7.890982 -3.179864 30.390145 -0.264150 1.675623 0.159556 -0.040180 -685909.000000 0 0 1
29.186920 -6.611982 -2.597064 30.038964 -0.222779 1.657361 0.178850 -0.037482 759907.000000 0 0 1
30.098020 -6.642082 -1.477364 30.857587 -0.217200 1.618691 0.198737 -0.033583 524037.000000 0 0 1
30.359220 -5.225282 -0.982564 30.821279 -0.170445 1.602681 0.199671 -0.038464 -120228.000000 0 0 1
29.308520 -4.749682 -0.186964 29.691477 -0.160661 1.577093 0.184825 -0.036825 57549.500000 0 0 1
29.544120 -3.398482 0.123636 29.739200 -0.114527 1.566639 0.181620 -0.035362 -87084.400000 0 0 1
30.187920 -3.057282 1.483336 30.378574 -0.100931 1.521949 0.166438 -0.032143 -45291.400000 0 0 1
29.337720 -3.326782 2.591436 29.639245 -0.112914 1.483252 0.163030 -0.036495 518822.000000 0 0 1
30.003220 -3.159082 3.842536 30.412795 -0.104905 1.444112 0.149791 -0.038175 31065.900000 0 0 1
29.527920 -4.190582 4.877936 30.220081 -0.140978 1.408673 0.146841 -0.045289 -359269.000000 0 0 1
29.975620 -5.514482 4.679036 30.835705 -0.181931 1.418467 0.141904 -0.046776 218162.000000 0 0 1
29.805320 -6.340382 5.821936 31.023418 -0.209602 1.382014 0.136419 -0.051082 -227109.000000 0 0 1
30.737320 -7.551682 5.635836 32.149236 -0.240913 1.394583 0.116274 -0.047414 -392419.000000 0 0 1
32.096920 -7.236382 5.557936 33.368670 -0.221747 1.403455 0.112017 -0.046277 -619968.000000 0 0 1
32.873520 -8.389282 5.677536 34.398878 -0.249866 1.404988 0.103443 -0.033798 358951.000000 0 0 1
34.409720 -8.203582 5.829636 35.851252 -0.234040 1.407465 0.115599 -0.026912 356878.000000 0 0 1
35.111620 -7.855282 4.664936 36.280752 -0.220099 1.441861 0.125593 -0.032969 -1118930.000000 0 0 1
36.400720 -7.502482 5.037236 37.505645 -0.203262 1.436083 0.132500 -0.030220 -774329.000000 0 0 1
-36.532316 -7.360382 3.810936 37.460760 0.198814 1.468889 0.119043 -0.024022 -244669.000000 0 0 1
-36.241916 -8.523982 3.100136 37.359678 0.230998 1.487720 0.139215 -0.031097 284343.000000 0 0 1
-35.191416 -8.300982 2.169136 36.222192 0.231647 1.510876 0.151802 -0.042883 -116792.000000 0 0 1
-34.809816 -9.537482 1.335236 36.117443 0.267425 1.533819 0.144088 -0.032356 -155677.000000 0 0 1
-34.064916 -10.520282 2.029636 35.710142 0.299538 1.513929 0.132774 -0.032374 279872.000000 0 0 1
-34.166116 -11.702482 1.310536 36.138470 0.329993 1.534524 0.126848 -0.035012 -586116.000000 0 0 1
-33.757316 -12.912782 2.156636 36.207007 0.365345 1.511197 0.110369 -0.046093 1654140.000000 0 0 1
-32.366616 -12.981882 2.585536 34.968730 0.381445 1.496790 0.099559 -0.033388 1668230.000000 0 0 1
-31.406516 -13.358682 1.607736 34.167359 0.402165 1.523724 0.092685 -0.022875 -1425780.000000 0 0 1
-30.089716 -13.643382 2.230336 33.113551 0.425697 1.503391 0.097700 -0.021540 -1471790.000000 0 0 1
-29.416416 -12.526082 2.740536 32.089543 0.402565 1.485289 0.106514 -0.022102 166095.000000 0 0 1
-28.048216 -12.850782 2.922536 30.990099 0.429625 1.476351 0.107045 -0.014325 -79792.300000 0 0 1
-27.264116 -11.714982 3.572836 29.888760 0.405832 1.450972 0.106333 -0.009455 -36582.100000 0 0 1
-25.943816 -12.084782 3.966636 28.893905 0.435920 1.433079 0.108280 0.002997 580269.000000 0 0 1
-25.343516 -10.935082 4.543036 27.973362 0.407342 1.407668 0.103945 -0.001807 -204187.000000 0 0 1
-23.856216 -11.143982 4.892336 26.781380 0.437009 1.387088 0.113821 0.002430 -28232.700000 0 0 1
-23.705916 -11.605582 6.208936 27.114772 0.455265 1.339759 0.093085 0.015684 421809.000000 0 0 1
-22.386916 -12.089482 6.476136 26.253950 0.495152 1.321551 0.096819 0.004980 373045.000000 0 0 1
-22.027516 -12.079782 7.980436 26.359437 0.501610 1.263215 0.113830 -0.007729 -240745.000000 0 0 1
-21.743516 -10.814082 8.592936 25.759724 0.461523 1.230697 0.108835 -0.005746 5983.260000 0 0 1
-22.881416 -10.098582 8.981036 26.574415 0.415633 1.226050 0.114341 -0.009542 -698050.000000 0 0 1
-23.330016 -10.344782 10.450336 27.577412 0.417361 1.182140 0.110588 -0.008038 -250230.000000 0 0 1
-23.919616 -11.603082 10.717536 28.664352 0.451646 1.187588 0.102155 -0.015303 563755.000000 0 0 1
-25.257016 -11.880582 10.349136 29.768602 0.439678 1.215730 0.086827 -0.011744 507715.000000 0 0 1
-26.456416 -11.301682 11.163336 30.859196 0.403717 1.200651 0.075968 -0.011401 142664.000000 0 0 1
-26.615216 -11.876382 12.463536 31.697916 0.419710 1.166690 0.097138 -0.018666 -123250.000000 0 0 1
-27.868316 -11.567082 13.006136 32.857267 0.393423 1.163817 0.074871 -0.021646 -297091.000000 0 0 1
-28.158716 -12.052282 14.427736 33.857500 0.404419 1.130584 0.079054 -0.016146 -183462.000000 0 0 1
-28.063816 -13.448582 14.603136 34.375772 0.446881 1.132045 0.061623 -0.007782 357173.000000 0 0 1
-28.352816 -13.736282 15.940936 35.308371 0.451152 1.102376 0.103480 -0.021681 -532484.000000 0 0 1
-27.997716 -15.250082 16.221036 35.770925 0.498757 1.100142 0.068468 0.012675 -281711.000000 0 0 1
-28.785816 -16.241482 15.643836 36.566905 0.513694 1.128723 0.043616 0.011034 -111348.000000 0 0 1
-28.094516 -17.475882 15.758136 36.647334 0.556467 1.126310 0.033979 0.004505 -112178.000000 0 0 1
-28.907116 -18.679682 16.244936 38.058505 0.573697 1.129799 0.016356 0.016566 -223304.000000 0 0 1
-29.324816 -18.538282 17.570936 38.888951 0.563739 1.101988 0.037923 0.012696 -21798.700000 0 0 1
-29.894216 -19.656682 18.248736 40.162988 0.581658 1.099135 0.046316 0.006623 48139.800000 0 0 1
-28.985716 -20.895782 18.525136 40.249051 0.624615 1.092505 0.036344 0.009075 -933473.000000 0 0 1
-27.934916 -20.655682 19.368936 39.776531 0.636697 1.062209 0.056524 0.010614 -591575.000000 0 0 1
-27.271616 -21.893382 19.630236 40.104954 0.676440 1.059313 0.063379 0.003123 459694.000000 0 0 1
-25.814916 -21.750682 20.162136 39.319381 0.700160 1.032378 0.083581 0.003612 1398650.000000 0 0 1
-24.724216 -21.433882 19.240736 37.959242 0.714235 1.039236 0.082531 0.001323 1221560.000000 0 0 1
-23.505416 -21.603082 19.953236 37.647435 0.743251 1.012193 0.085180 0.005936 864133.000000 0 0 1
-22.186616 -21.233482 19.168236 36.201215 0.763450 1.012795 0.080447 0.004214 620671.000000 0 0 1
-21.884316 -22.125382 18.181236 36.041825 0.790876 1.042053 0.071500 -0.001797 291949.000000 0 0 1
-20.663816 -21.786382 17.543836 34.776801 0.811836 1.042029 0.082535 -0.008978 35728.300000 0 0 1
-20.364016 -22.759182 16.384336 34.657178 0.840884 1.078382 0.089588 -0.011683 -522927.000000 0 0 1
-20.175216 -24.132882 16.693936 35.610712 0.874483 1.082876 0.094690 -0.017593 -269434.000000 0 0 1
-19.070016 -24.580282 17.408736 35.649963 0.910971 1.060628 0.089857 -0.016426 -272811.000000 0 0 1
-17.715816 -24.604482 16.629136 34.579746 0.946758 1.069124 0.084478 -0.018640 375629.000000 0 0 1
-17.140916 -23.304882 16.412436 33.261037 0.936635 1.054752 0.079426 -0.020686 -62108.500000 0 0 1
-15.878016 -23.414882 15.802236 32.404918 0.974909 1.061401 0.082901 -0.023697 -513756.000000 0 0 1
-15.163616 -22.146982 15.470236 30.979868 0.970426 1.047932 0.080216 -0.015388 -328283.000000 0 0 1
-15.807516 -21.198182 14.601336 30.206613 0.930052 1.066282 0.086035 -0.012473 562458.000000 0 0 1
-16.939016 -20.411082 15.021536 30.482603 0.878092 1.055503 0.089612 -0.017278 354763.000000 0 0 1
-16.697316 -19.263882 16.044836 30.121990 0.856648 1.009054 0.078259 -0.020196 -357645.000000 0 0 1
-15.887616 -18.204182 15.537836 28.726867 0.853245 0.999311 0.063885 -0.023222 211236.000000 0 0 1
-15.844916 -17.179182 16.510636 28.614450 0.825779 0.955741 0.049453 -0.015929 -117550.000000 0 0 1
-15.335816 -15.847682 15.809936 27.134670 0.801811 0.948814 0.064043 -0.019626 48266.900000 0 0 1
-16.182416 -15.311582 14.829736 26.762589 0.757754 0.983489 0.078815 -0.031615 -206702.000000 0 0 1
-16.007516 -15.806082 13.562736 26.268243 0.779067 1.028252 0.095213 -0.038351 -284290.000000 0 0 1
-16.829416 -15.131782 12.466536 25.838239 0.732333 1.067308 0.084854 -0.028266 141157.000000 0 0 1
-18.207716 -15.473982 12.503036 26.968332 0.704412 1.088721 0.074216 -0.021793 390984.000000 0 0 1
-19.020616 -14.562182 11.786036 26.697408 0.653411 1.113563 0.094893 -0.026915 127135.000000 0 0 1
-20.564916 -14.666382 12.038736 27.981238 0.619514 1.126034 0.087613 -0.026073 732904.000000 0 0 1
-21.169316 -15.815882 11.443336 28.796388 0.641651 1.162128 0.084403 -0.022228 103429.000000 0 0 1
-21.036016 -15.890082 9.976536 28.187585 0.646932 1.209023 0.098054 -0.013831 -745785.000000 0 0 1
-21.888616 -17.013282 9.365036 29.262043 0.660724 1.245024 0.082157 0.004384 259566.000000 0 0 1
-21.174116 -18.247682 9.420936 29.497035 0.711300 1.245715 0.082166 0.010054 115088.000000 0 0 1
-21.856316 -19.262982 8.729036 30.413107 0.722413 1.279686 0.087983 -0.009259 157439.000000 0 0 1
-21.154616 -20.668182 8.837636 30.867383 0.773768 1.280423 0.096641 -0.008355 295134.000000 0 0 1
-20.046816 -20.817682 7.984436 29.983361 0.804260 1.301249 0.119872 -0.009186 -258865.000000 0 0 1
-19.519916 -22.160782 8.203936 30.650154 0.848673 1.299829 0.118804 -0.020451 739229.000000 0 0 1
-18.170216 -22.371182 7.419436 29.760285 0.888651 1.318832 0.119186 -0.033832 -103738.000000 0 0 1
-17.095616 -21.765282 8.020036 28.815075 0.904988 1.288744 0.099607 -0.032409 -904943.000000 0 0 1
-15.893716 -22.052282 7.322536 28.151960 0.946293 1.307663 0.115015 -0.033631 425274.000000 0 0 1
-14.672916 -21.720782 8.263536 27.484047 0.976687 1.265405 0.038574 -0.013697 162383.000000 0 0 1
-13.469716 -22.063082 7.601536 26.944316 1.022685 1.284793 0.051202 -0.008213 -34856.000000 0 0 1
-12.383716 -21.675382 8.448836 26.354533 1.051727 1.244451 0.056189 -0.007408 68425.100000 0 0 1
-10.994916 -21.995782 7.902136 25.829176 1.107257 1.259872 0.056659 -0.004527 -392874.000000 0 0 1
-10.766116 -23.380082 7.978936 26.948115 1.139260 1.270205 0.052596 0.003063 -134238.000000 0 0 1
-9.622516 -23.778582 7.231536 26.651621 1.186269 1.296016 0.077247 -0.006858 350854.000000 0 0 1
-9.338416 -25.289732 7.297136 27.928923 1.217070 1.306453 0.078855 -0.003975 174219.000000 0 0 1
-10.253516 -25.941592 6.423836 28.624578 1.194388 1.344452 0.074051 -0.011610 -36714.100000 0 0 1
-10.204416 -27.382092 6.465536 29.928452 1.214072 1.353047 0.098824 -0.011828 -432976.000000 0 0 1
-9.092616 -28.134352 5.774536 30.125781 1.258206 1.377922 0.103288 -0.016234 737562.000000 0 0 1
-7.734916 -27.847302 6.224036 29.564164 1.299864 1.358683 0.100073 -0.014555 1951690.000000 0 0 1
-6.725916 -28.818862 5.797436 30.155845 1.341515 1.377343 0.101001 -0.012981 1082370.000000 0 0 1
-6.810916 -30.215742 6.426836 31.633587 1.349092 1.366207 0.113972 -0.019730 -367261.000000 0 0 1
-6.935916 -30.101962 7.837836 31.869526 1.344335 1.322312 0.114857 -0.024079 139240.000000 0 0 1
-6.823916 -31.315832 8.556836 33.173281 1.356244 1.309903 0.143190 -0.029809 -228172.000000 0 0 1
-7.082916 -31.383612 10.072136 33.712709 1.348827 1.267399 0.117851 -0.028216 -80488.200000 0 0 1
-6.019916 -30.747662 10.762736 33.128456 1.377457 1.239913 0.099989 -0.024330 284998.000000 0 0 1
-6.161916 -30.826552 12.191136 33.717493 1.373507 1.200848 0.079062 -0.025975 -368053.000000 0 0 1
-5.029916 -30.159802 12.971636 33.214109 1.405542 1.169572 0.076899 -0.031192 -117402.000000 0 0 1
-5.075916 -28.773602 12.704636 31.860522 1.396184 1.160634 0.077144 -0.025417 6908.750000 0 0 1
-4.541916 -28.087662 13.818736 31.630732 1.410479 1.118673 0.053927 -0.026880 -3101.350000 0 0 1
-5.639916 -27.577142 14.852536 31.826172 1.369064 1.085267 0.063177 -0.026943 783516.000000 0 0 1
-6.346916 -28.578792 15.604436 33.174224 1.352258 1.081077 0.058920 -0.031117 583466.000000 0 0 1
-5.549916 -29.182472 16.636636 34.046966 1.382861 1.060268 0.041709 -0.027464 345831.000000 0 0 1
-6.236916 -30.483422 17.106436 35.507299 1.368981 1.068120 0.040474 -0.025945 130867.000000 0 0 1
-6.187916 -31.376952 16.026236 35.772107 1.376083 1.106259 0.046175 -0.022303 109401.000000 0 0 1
-6.691916 -32.666312 16.341536 37.133751 1.368735 1.115117 0.047097 -0.021789 -78874.200000 0 0 1
-6.202916 -33.878112 15.406636 37.730188 1.389707 1.150165 0.041707 -0.018394 -239798.000000 0 0 1
-6.692916 33.961362 14.111536 37.380539 -1.376215 1.183690 0.045423 -0.025191 403211.000000 0 0 1
-5.876916 33.000082 13.388536 36.094272 -1.394556 1.190783 0.047149 -0.023902 -101388.000000 0 0 1
-4.647916 33.567438 12.718436 36.195782 -1.433206 1.211753 0.075914 -0.034076 -743339.000000 0 0 1
-4.878916 -33.839422 11.507436 36.073971 1.427605 1.246127 0.076834 -0.034893 389366.000000 0 0 1
-3.675916 -33.503192 10.803536 35.393398 1.461515 1.260604 0.092847 -0.040658 41686.000000 0 0 1
-3.912916 -33.338402 9.269636 34.823643 1.453961 1.301360 0.090203 -0.040226 -1124120.000000 0 0 1
-3.942916 33.602400 8.397936 34.859622 -1.453990 1.327496 0.109192 -0.044011 48185.900000 0 0 1
-4.865916 32.560070 8.598936 34.026123 -1.422450 1.315310 0.102161 -0.044026 566437.000000 0 0 1
-6.351916 32.878307 8.984836 34.670697 -1.379953 1.308657 0.112473 -0.037781 411341.000000 0 0 1
-7.168916 33.362680 7.922036 35.031706 -1.359137 1.342684 0.126355 -0.030284 -636540.000000 0 0 1
-8.533916 33.390794 8.208236 35.428068 -1.320576 1.336984 0.110347 -0.024755 -195393.000000 0 0 1
-9.410116 33.591969 6.959636 35.572563 -1.297667 1.373880 0.109958 -0.027722 -130291.000000 0 0 1
-9.494716 -33.121892 6.555536 35.073985 1.291623 1.382785 0.140196 -0.024616 227100.000000 0 0 1
-10.261316 -33.043442 5.332936 35.008626 1.269698 1.417869 0.132513 -0.021330 519387.000000 0 0 1
-10.685816 -31.587892 4.968436 33.714491 1.244593 1.422890 0.127050 -0.027065 46124.400000 0 0 1
-11.625916 -31.019822 5.834436 33.636764 1.212210 1.396460 0.134575 -0.026891 -453500.000000 0 0 1
-12.476916 -30.141772 5.140636 33.024627 1.178330 1.414500 0.129733 -0.023755 160045.000000 0 0 1
-13.701716 -29.638582 5.948236 33.189819 1.137767 1.390604 0.109492 -0.023554 87099.800000 0 0 1
-14.742216 -30.582732 6.091836 34.492708 1.121617 1.393253 0.118282 -0.012430 327877.000000 0 0 1
-15.755916 -30.010302 6.936736 34.597477 1.087336 1.368930 0.112832 -0.016649 212274.000000 0 0 1
34.123136 -12.597682 -12.839564 38.573882 -0.353661 1.910127 0.077856 -0.020312 376578.000000 0 0 1
33.055916 -12.707882 -11.863764 37.348798 -0.367018 1.894044 0.093997 -0.024187 741567.000000 0 0 1
32.863096 -14.050282 -11.460464 37.533129 -0.404020 1.881095 0.079650 -0.027803 -392584.000000 0 0 1
33.704416 -14.609582 -10.287664 38.147917 -0.409016 1.843855 0.067546 -0.019176 -358403.000000 0 0 1
35.030246 -14.644582 -10.745464 39.459434 -0.395974 1.846596 0.077806 -0.022679 -980891.000000 0 0 1
35.889126 -15.163982 -9.769164 40.167304 -0.399771 1.816472 0.063472 -0.017075 117337.000000 0 0 1
-36.507050 -15.149082 -10.365864 40.862091 0.393339 1.827278 0.026447 -0.018378 28432.200000 0 0 1
-35.849163 -13.922982 -10.460364 39.855127 0.370446 1.836367 0.028149 -0.008155 1491310.000000 0 0 1
-34.530695 -14.145682 -11.077864 38.925419 0.388802 1.859377 0.035878 -0.012610 1856490.000000 0 0 1
-33.646050 -12.858482 -11.201064 37.720831 0.365041 1.872290 0.054525 -0.020277 141116.000000 0 0 1
-33.013300 -12.321982 -10.016864 36.633957 0.357229 1.847755 0.064495 -0.020110 366202.000000 0 0 1
-32.375000 -11.120582 -10.208864 35.721546 0.330866 1.860627 0.080103 -0.031017 -447359.000000 0 0 1
-32.982810 -9.843882 -9.488164 35.704244 0.290039 1.839771 0.077961 -0.039524 120488.000000 0 0 1
-32.516220 -9.709482 -8.138164 34.897110 0.290176 1.806168 0.093512 -0.037552 71464.400000 0 0 1
-33.183130 -8.704382 -7.498564 35.115735 0.256534 1.785992 0.128937 -0.046249 -510953.000000 0 0 1
-32.748470 -8.410682 -6.066964 34.351272 0.251393 1.748343 0.119797 -0.041767 -1016720.000000 0 0 1
-31.511060 -7.750582 -6.036364 33.006910 0.241176 1.754713 0.118784 -0.049203 -69976.700000 0 0 1
-30.976420 -7.729682 -4.718164 32.273017 0.244540 1.717517 0.122554 -0.038382 -272291.000000 0 0 1
-30.403050 -9.070282 -4.084664 31.989060 0.289928 1.698835 0.123405 -0.034743 -268583.000000 0 0 1
-31.338680 -10.081482 -3.692264 33.126756 0.311239 1.682487 0.132764 -0.033765 390927.000000 0 0 1
-31.936600 -9.860282 -2.432964 33.512548 0.299461 1.643459 0.119795 -0.036047 -19743.900000 0 0 1
-32.497030 -11.188082 -1.842564 34.418384 0.331570 1.624356 0.117819 -0.027660 678127.000000 0 0 1
-33.721620 -11.602282 -2.481364 35.747976 0.331374 1.640265 0.129311 -0.038248 553790.000000 0 0 1
-34.059170 -12.906482 -2.198264 36.488857 0.362223 1.631078 0.121620 -0.046896 377283.000000 0 0 1
-35.589538 -13.152282 -2.447164 38.020867 0.353988 1.635205 0.088319 -0.031775 752768.000000 0 0 1
-36.346170 -12.356782 -1.551764 38.420595 0.327716 1.611196 0.112706 -0.043007 -259168.000000 0 0 1
36.150996 -12.696482 -1.350064 38.339507 -0.337750 1.606017 0.138503 -0.036357 -48350.000000 0 0 1
35.397786 -11.859182 -0.259364 37.332435 -0.323273 1.577744 0.142054 -0.039936 288496.000000 0 0 1
35.919536 -12.161582 1.035336 37.936645 -0.326464 1.543502 0.142003 -0.038150 187229.000000 0 0 1
35.596786 -11.177982 1.973936 37.362747 -0.304266 1.517940 0.144919 -0.039233 -224524.000000 0 0 1
36.025166 -11.514382 3.455036 37.978031 -0.309359 1.479696 0.136330 -0.040469 138363.000000 0 0 1
35.058606 -12.169782 4.261636 37.354665 -0.334113 1.456462 0.127063 -0.039426 -29960.200000 0 0 1
35.561776 -12.429782 5.595836 38.084810 -0.336253 1.423332 0.119915 -0.032660 287345.000000 0 0 1
34.457786 -12.539782 6.698736 37.275437 -0.349019 1.390106 0.111585 -0.031378 177123.000000 0 0 1
33.859006 -11.283982 6.900736 36.350800 -0.321688 1.379800 0.101316 -0.031102 -112236.000000 0 0 1
33.310266 -11.336682 8.196336 36.128577 -0.328040 1.341938 0.085885 -0.019707 -595550.000000 0 0 1
32.619576 -10.083282 8.688936 35.230767 -0.299800 1.321596 0.082705 -0.035794 -336162.000000 0 0 1
31.253656 -9.911782 8.373636 33.840098 -0.307106 1.320752 0.111526 -0.036406 41312.500000 0 0 1
30.681906 -9.058382 9.335036 33.325314 -0.287080 1.286879 0.119113 -0.033198 86762.400000 0 0 1
29.127506 -9.105282 9.379836 31.926464 -0.302977 1.272602 0.118601 -0.041532 467257.000000 0 0 1
28.447956 -8.498882 8.306636 30.830462 -0.290311 1.297996 0.137164 -0.042576 124015.000000 0 0 1
27.869256 -9.410482 7.408536 30.333793 -0.325644 1.324067 0.145000 -0.054161 -346172.000000 0 0 1
26.911756 -8.819082 6.351036 29.023344 -0.316675 1.350186 0.146172 -0.053751 -350850.000000 0 0 1
25.742456 -8.369782 7.002236 27.959946 -0.314354 1.317664 0.156616 -0.049986 296616.000000 0 0 1
24.696656 -7.863182 6.184036 26.645764 -0.308242 1.336577 0.152741 -0.044348 140007.000000 0 0 1
24.915756 -6.528382 5.416836 26.320273 -0.256258 1.363510 0.139998 -0.047121 -460498.000000 0 0 1
25.669556 -6.619982 4.184336 26.837640 -0.252393 1.414245 0.127130 -0.046393 649571.000000 0 0 1
26.202156 -5.389182 3.727336 27.009059 -0.202848 1.432351 0.141410 -0.047033 -3398.140000 0 0 1
26.710156 -5.409882 2.264636 27.346441 -0.199837 1.487889 0.153582 -0.047287 -88658.000000 0 0 1
25.668756 -5.651382 1.338136 26.317556 -0.216708 1.519929 0.133659 -0.044683 84101.600000 0 0 1
26.117856 -5.339082 0.045236 26.658024 -0.201644 1.569099 0.152651 -0.040031 -110017.000000 0 0 1
25.174256 -5.703582 -1.131164 25.837058 -0.222803 1.614591 0.113478 -0.033852 -362037.000000 0 0 1
24.007556 -4.958782 -1.220564 24.544695 -0.203686 1.620545 0.093935 -0.031272 -414361.000000 0 1 0
23.476056 -5.059882 -2.535264 24.148606 -0.212286 1.675976 0.075372 -0.028619 -196230.000000 0 1 0
22.247056 -4.194882 -2.859664 22.818988 -0.186371 1.696446 0.062491 -0.022082 -542461.000000 0 1 0
22.459356 -2.828182 -2.902964 22.822105 -0.125265 1.698342 0.073881 -0.019371 385158.000000 0 1 0
22.999656 -2.333882 -4.157464 23.488629 -0.101128 1.748733 0.095880 -0.016333 -80569.800000 0 1 0
22.116856 -1.314682 -4.874164 22.685704 -0.059373 1.787341 0.067549 -0.007835 -164820.000000 0 1 0
22.148656 -0.049882 -4.278864 22.558239 -0.002252 1.761633 0.079213 -0.003660 -12350.200000 0 1 0
21.160056 0.785418 -4.775964 21.706558 0.037101 1.792635 0.075585 0.004284 -1082180.000000 0 1 0
21.224756 2.280918 -4.292664 21.774293 0.107054 1.769240 0.096208 0.003980 -309556.000000 0 1 0
22.276556 3.126818 -4.726064 22.986031 0.139453 1.777879 0.120587 -0.001348 621664.000000 0 1 0
23.394756 3.013418 -3.840164 23.898581 0.128102 1.732182 0.160767 -0.002957 583202.000000 0 1 0
24.547256 4.059518 -4.095864 25.215542 0.163892 1.733953 0.159430 -0.011425 139886.000000 0 0 1
24.166456 5.411918 -3.988664 25.084176 0.220309 1.730485 0.149820 -0.003480 649838.000000 0 0 1
25.214556 6.326818 -3.658764 26.252410 0.245844 1.710620 0.141760 -0.012630 332025.000000 0 0 1
24.595956 7.744618 -3.428764 26.013392 0.305046 1.702989 0.124882 -0.021462 152902.000000 0 0 1
23.805056 7.917918 -2.266064 25.189465 0.321104 1.660879 0.143875 -0.024775 969144.000000 0 0 1
22.657656 8.734718 -2.533164 24.414782 0.367952 1.674739 0.126041 -0.023092 -195542.000000 0 1 0
21.742756 8.897218 -1.332564 23.530483 0.388415 1.627458 0.110862 -0.022880 -201045.000000 0 1 0
22.374756 9.545018 -0.198564 24.326457 0.403223 1.578959 0.092804 -0.016896 1197630.000000 0 1 0
21.402056 9.710918 0.852036 23.517566 0.425958 1.534559 0.087258 -0.020089 690693.000000 0 1 0
22.039956 10.211618 2.192136 24.389388 0.433878 1.480794 0.111067 -0.017114 -186128.000000 0 1 0
22.781256 11.409418 2.065236 25.562192 0.464307 1.489916 0.107507 -0.025156 371084.000000 0 0 1
22.097556 12.647218 1.895736 25.531312 0.519830 1.496477 0.103355 -0.021879 -341193.000000 0 0 1
21.094056 13.147918 2.969536 25.032880 0.557376 1.451891 0.087323 -0.014210 119874.000000 0 0 1
19.784056 12.609518 2.782736 23.625250 0.567436 1.452736 0.136495 -0.022876 1035860.000000 0 1 0
18.775956 13.395018 3.477336 23.324984 0.619672 1.421156 0.116193 -0.019883 568623.000000 0 1 0
18.602056 13.357918 4.954736 23.431173 0.622763 1.357729 0.084570 -0.017576 -604603.000000 0 1 0
18.167956 12.166918 5.579236 22.566267 0.590094 1.320968 0.066808 -0.010317 280210.000000 0 1 0
18.173356 12.204418 7.016436 22.988020 0.591380 1.260625 0.047371 -0.015468 -161361.000000 0 1 0
18.217756 10.776718 7.588736 22.485844 0.534183 1.226548 0.028300 -0.018725 199579.000000 0 1 0
19.375256 10.034218 7.178736 22.969987 0.477856 1.252944 0.027043 -0.022761 778900.000000 0 1 0
19.440056 8.708718 7.619236 22.623225 0.421171 1.227293 0.032103 -0.014623 20731.000000 0 1 0
20.413256 7.818618 6.797736 22.891942 0.365780 1.269301 0.049315 -0.017517 33449.300000 0 1 0
19.995856 7.654918 5.450536 22.093899 0.365613 1.321524 0.039314 -0.022616 524113.000000 0 1 0
21.026956 7.116518 4.657136 22.681857 0.326346 1.364001 0.060452 -0.019919 -182786.000000 0 1 0
20.615456 6.693318 3.232136 21.914475 0.313938 1.422768 0.063830 -0.014290 -703068.000000 0 1 0
21.714256 6.243018 2.512036 22.733115 0.279957 1.460069 0.071927 -0.020248 88506.800000 0 1 0
21.401656 5.982718 1.159936 22.252399 0.272586 1.518646 0.075909 -0.009547 -76032.700000 0 1 0
22.556656 5.229418 0.471436 23.159702 0.227810 1.550439 0.116946 -0.013257 50113.100000 0 1 0
22.664356 3.858618 0.862736 23.006657 0.168634 1.533288 0.118583 -0.018114 1754800.000000 0 1 0
23.866256 3.259518 0.258536 24.089198 0.135735 1.560064 0.139078 -0.024802 1182440.000000 0 1 0
23.806156 1.756518 0.122536 23.871184 0.073651 1.565663 0.152361 -0.027641 -83471.800000 0 1 0
22.854156 1.448218 -0.899964 22.917673 0.063283 1.610076 0.130758 -0.020350 886594.000000 0 1 0
22.868656 0.098218 -1.319064 22.906877 0.004295 1.628412 0.122428 -0.022812 -765611.000000 0 1 0
22.402856 -0.936482 -0.285964 22.424244 -0.041778 1.583549 0.114796 -0.023800 -585094.000000 0 1 0
23.147356 -1.194982 0.893536 23.195398 -0.051579 1.532265 0.112069 -0.033104 630735.000000 0 1 0
24.394256 -1.857482 0.611836 24.472521 -0.075998 1.545793 0.124921 -0.039435 -126291.000000 0 1 0
25.244556 -1.815682 1.854736 25.377635 -0.071800 1.497646 0.142654 -0.039734 -939278.000000 0 0 1
25.793556 -0.531482 2.211936 25.893680 -0.020602 1.485268 0.151967 -0.039546 652083.000000 0 0 1
26.377256 -0.478082 3.528336 26.616486 -0.018123 1.437843 0.144330 -0.047088 -237643.000000 0 0 1
26.295056 0.952418 4.030236 26.619164 0.036205 1.418808 0.135284 -0.039307 -34552.100000 0 0 1
26.836256 2.023918 3.273436 27.110814 0.075275 1.449758 0.160531 -0.031800 787620.000000 0 0 1
28.193756 2.000218 2.807036 28.403665 0.070827 1.471808 0.155384 -0.034894 667497.000000 0 0 1
28.661956 3.006218 1.739236 28.871612 0.104503 1.510519 0.183709 -0.040789 72823.300000 0 0 1
28.148056 2.729418 0.389336 28.282757 0.096664 1.557030 0.192714 -0.032474 318899.000000 0 0 1
28.396656 3.740518 -0.582064 28.647868 0.130970 1.591116 0.186226 -0.036308 -815994.000000 0 0 1
29.715826 3.676218 -1.313864 29.971172 0.123087 1.614648 0.171924 -0.025471 -39105.000000 0 0 1
30.863226 3.780218 -0.441964 31.097011 0.121876 1.585009 0.161051 -0.027403 678245.000000 0 0 1
32.077936 3.603218 -1.159964 32.300506 0.111858 1.606716 0.145884 -0.024665 789735.000000 0 0 1
33.394856 3.796318 -0.338164 33.611647 0.113194 1.580857 0.107076 -0.032255 419499.000000 0 0 1
33.517396 3.083118 0.887736 33.670603 0.091727 1.544428 0.120207 -0.036065 170060.000000 0 0 1
32.772066 3.634818 1.985936 33.032774 0.110461 1.510640 0.121521 -0.026903 75940.900000 0 0 1
32.737636 2.782418 3.252236 33.016234 0.084788 1.472132 0.124801 -0.026252 45425.100000 0 0 1
31.743996 1.749018 3.170536 31.949846 0.055042 1.471398 0.135607 -0.033425 471991.000000 0 0 1
31.852566 0.672418 4.115136 32.124328 0.021107 1.442343 0.135910 -0.035634 -130393.000000 0 0 1
33.087586 -0.250382 4.053636 33.335911 -0.007567 1.448895 0.129134 -0.027051 -75864.300000 0 0 1
34.305266 0.359418 4.402436 34.588465 0.010477 1.443170 0.117713 -0.032437 40937.600000 0 0 1
35.396246 -0.460782 4.011836 35.625853 -0.013017 1.457947 0.101916 -0.028280 1072310.000000 0 0 1
36.822186 0.104818 4.464636 37.092012 0.002847 1.450137 0.103146 -0.042755 1326270.000000 0 0 1
-36.433650 1.190618 3.803336 36.650972 -0.032667 1.466837 0.095538 -0.040803 106762.000000 0 0 1
-36.002941 0.933618 2.461836 36.099086 -0.025926 1.502547 0.119857 -0.036412 -206546.000000 0 0 1
-35.479363 2.205818 1.780036 35.592406 -0.062092 1.520764 0.127856 -0.036915 340063.000000 0 0 1
-34.289077 2.808918 2.290636 34.480108 -0.081736 1.504314 0.144970 -0.056203 309190.000000 0 0 1
-33.671610 3.548618 1.276236 33.882131 -0.105001 1.533120 0.163271 -0.024827 -399325.000000 0 0 1
-32.556540 4.365018 1.933236 32.904697 -0.133280 1.512010 0.168073 -0.032174 -377315.000000 0 0 1
-31.429190 3.609118 2.357736 31.723471 -0.114333 1.496406 0.158532 -0.045192 491453.000000 0 0 1
-30.642840 4.323018 3.318336 31.123680 -0.140153 1.463976 0.167574 -0.037221 -185621.000000 0 0 1
-31.002410 4.001418 4.801436 31.626169 -0.128358 1.418389 0.177437 -0.040773 889420.000000 0 0 1
-32.210170 4.710718 5.252336 32.973822 -0.145220 1.410827 0.166318 -0.023261 2790480.000000 0 0 1
-33.471840 3.960118 5.151536 34.096700 -0.117764 1.419129 0.154845 -0.025748 1276240.000000 0 0 1
-33.642940 2.988018 6.334336 34.364218 -0.088583 1.385407 0.125740 -0.028586 -688728.000000 0 0 1
-33.982500 3.660518 7.568336 35.006991 -0.107304 1.352881 0.127353 -0.028241 321921.000000 0 0 1
-33.995190 2.826818 8.750636 35.217005 -0.082963 1.319688 0.106688 -0.027119 -360759.000000 0 0 1
-35.226592 1.936918 8.931136 36.392714 -0.054929 1.322854 0.093335 -0.027229 -745681.000000 0 0 1
-35.115588 0.744618 8.195936 36.067054 -0.021202 1.341552 0.090781 -0.034720 -22015.700000 0 0 1
-36.087712 -0.218282 8.509936 37.078155 0.006049 1.339219 0.088790 -0.029647 -253200.000000 0 0 1
-35.844273 -0.939482 9.872336 37.190826 0.026204 1.302125 0.087892 -0.024255 -210766.000000 0 0 1
-34.698170 -1.769082 9.868736 36.117649 0.050941 1.294038 0.082045 -0.029199 127178.000000 0 0 1
-34.646024 -2.544582 11.038336 36.450881 0.073314 1.263138 0.077481 -0.017403 653810.000000 0 0 1
-33.358870 -3.461182 11.074436 35.319076 0.103386 1.251863 0.079858 -0.010414 421729.000000 0 0 1
-33.228490 -4.434882 10.062936 35.000906 0.132682 1.279175 0.076402 -0.015660 -399493.000000 0 0 1
-31.957800 -5.008082 10.008936 33.860902 0.155445 1.270724 0.068881 -0.017735 -321159.000000 0 0 1
-31.727720 -5.908882 8.768236 33.443162 0.184128 1.305512 0.079680 -0.017537 369668.000000 0 0 1
-32.551910 -7.070082 8.867636 34.470971 0.213872 1.310622 0.068113 -0.013525 173872.000000 0 0 1
-32.930780 -7.612382 7.619036 34.647285 0.227173 1.349081 0.095524 -0.020855 347114.000000 0 0 1
-33.916120 -8.834282 7.693036 35.882176 0.254812 1.354722 0.100992 -0.026062 -305884.000000 0 0 1
-35.170863 -8.432282 8.096036 37.062633 0.235310 1.350579 0.105703 -0.031738 -703419.000000 0 0 1
-36.091135 -9.523782 8.221136 38.221192 0.258000 1.354009 0.104836 -0.031290 520214.000000 0 0 1
8.091820 -24.121382 10.743336 27.617710 -1.247131 1.171249 0.107168 -0.035813 -215651.000000 0 0 1
7.476620 -24.812282 9.693136 27.667780 -1.278122 1.212862 0.102908 -0.035899 -139630.000000 0 0 1
6.116920 -25.130602 9.951436 27.712722 -1.332034 1.203501 0.098515 -0.036020 659915.000000 0 0 1
5.454320 -25.951852 8.810436 27.944087 -1.363641 1.250036 0.076907 -0.028452 -233016.000000 0 0 1
5.217920 -25.152782 7.662036 26.806640 -1.366249 1.280928 0.089692 -0.025773 -387253.000000 0 0 1
5.180920 -26.024582 6.535836 27.328336 -1.374288 1.329296 0.078807 -0.017631 -183769.000000 0 0 1
4.442920 -25.381822 5.344236 26.316103 -1.397509 1.366295 0.083346 -0.024876 1833510.000000 0 0 1
2.994720 -25.401752 5.245736 26.110057 -1.453444 1.368511 0.075430 -0.029738 1176010.000000 0 0 1
2.276420 -26.601662 5.086136 27.179023 -1.485430 1.382552 0.068381 -0.025269 979450.000000 0 0 1
0.707520 -26.485682 4.998636 26.962535 -1.544089 1.384326 0.073869 -0.032133 775530.000000 0 0 1
0.101820 -26.060452 6.220836 26.792841 -1.566889 1.336475 0.066844 -0.034101 669795.000000 0 0 1
-1.315880 -26.323132 6.299236 27.098325 1.520848 1.336192 0.052191 -0.028905 1472580.000000 0 0 1
-1.804880 -27.827372 6.335836 28.596556 1.506027 1.347383 0.058702 -0.018567 -506180.000000 0 0 1
-1.422880 -28.431872 7.546136 29.450638 1.520793 1.311676 0.049980 -0.028662 -468365.000000 0 0 1
-2.192480 -29.516112 7.778736 30.602558 1.496652 1.313791 0.067620 -0.025440 -564487.000000 0 0 1
-2.028880 -30.182762 9.206636 31.620842 1.503677 1.275360 0.069785 -0.026114 93791.300000 0 0 1
-0.770680 -30.812602 9.361136 32.212439 1.545790 1.275936 0.057215 -0.026117 25982.700000 0 0 1
-0.571880 -31.225472 10.705036 33.014466 1.552484 1.240574 0.055292 -0.019425 -186213.000000 0 0 1
0.906120 -31.388872 11.093236 33.303787 -1.541937 1.231215 0.039535 -0.019616 -363568.000000 0 0 1
1.492420 -32.549622 10.543636 34.247240 -1.524978 1.257845 0.052312 -0.021857 -735841.000000 0 0 1
2.838920 -32.678412 10.866436 34.554558 -1.484139 1.250896 0.057483 -0.017981 -476255.000000 0 0 1
3.240320 -33.337332 12.213936 35.651895 -1.473903 1.221125 0.064370 -0.017346 -362449.000000 0 0 1
2.813120 -32.610052 13.338336 35.344594 -1.484744 1.183831 0.044473 -0.013097 191337.000000 0 0 1
3.408120 -33.043162 14.566236 36.271767 -1.468018 1.157548 0.054023 -0.014963 -217484.000000 0 0 1
3.001320 -32.045312 15.721136 35.819884 -1.477410 1.116429 0.057664 -0.018818 -44392.800000 0 0 1
3.500420 -30.765482 15.619536 34.680509 -1.457506 1.103601 0.055228 -0.022415 -268082.000000 0 0 1
4.848420 -30.650942 16.001536 34.914704 -1.413914 1.094711 0.053211 -0.017476 -282916.000000 0 0 1
5.548420 -29.401672 15.413136 33.657214 -1.384279 1.095115 0.065851 -0.017470 -178880.000000 0 0 1
5.855520 -29.368542 14.038336 33.073755 -1.373996 1.132436 0.058217 -0.016191 -295784.000000 0 0 1
4.763620 -29.320692 13.139336 32.481336 -1.409737 1.154343 0.051102 -0.010800 -400686.000000 0 0 1
5.075520 -29.436942 11.590636 32.041181 -1.400055 1.200661 0.046085 -0.015647 109656.000000 0 0 1
5.473920 -30.707782 10.966536 33.063524 -1.394391 1.232712 0.045676 -0.014025 859125.000000 0 0 1
6.851120 -30.996952 11.278736 33.689149 -1.353268 1.229416 0.049748 -0.011919 467120.000000 0 0 1
7.213320 -32.331572 10.759936 34.830141 -1.351287 1.256733 0.037541 -0.004424 -393959.000000 0 0 1
6.787120 -33.413692 11.553036 36.000173 -1.370399 1.244100 0.031352 -0.014625 70719.000000 0 0 1
7.052820 33.434534 10.888536 35.863220 1.362900 1.262314 0.044977 -0.015374 -261.644000 0 0 1
6.870620 32.238793 11.855336 35.029904 1.360821 1.225543 0.054680 -0.015851 -231192.000000 0 0 1
5.549720 32.155888 12.310436 34.876172 1.399892 1.210047 0.051657 -0.013912 -382840.000000 0 0 1
5.228820 30.862819 12.849936 33.837480 1.402969 1.181265 0.069110 -0.008961 364617.000000 0 0 1
3.901720 30.872229 13.651736 33.980698 1.445080 1.157370 0.081799 -0.020884 310383.000000 0 0 1
4.013120 31.499149 14.966136 35.103942 1.444075 1.130356 0.098352 -0.023413 496129.000000 0 0 1
2.789220 31.465759 15.694536 35.273109 1.482384 1.109685 0.101429 -0.022260 634323.000000 0 0 1
3.178120 31.710759 17.204736 36.217063 1.470908 1.075781 0.096501 -0.023456 149165.000000 0 0 1
3.609120 33.006636 17.588036 37.573964 1.461884 1.083667 0.088858 -0.019620 174669.000000 0 0 1
4.057520 32.925841 18.930636 38.196118 1.448182 1.052252 0.083020 -0.021432 -40984.900000 0 0 1
4.513020 -33.786072 19.567836 39.303514 -1.438006 1.049661 0.067556 -0.026519 121800.000000 0 0 1
3.475620 -32.840322 19.602136 38.403260 -1.465355 1.035113 0.054429 -0.024227 -285630.000000 0 0 1
3.736520 -32.019952 20.685836 38.303299 -1.454628 1.000295 0.048064 -0.028673 -220329.000000 0 0 1
2.505720 -31.196622 21.046336 37.715462 -1.490648 0.978787 0.050304 -0.026124 -660165.000000 0 0 1
1.555820 -31.984072 21.664936 38.662267 -1.522191 0.975971 0.059465 -0.020891 60741.700000 0 0 1
0.417520 -31.244362 22.155836 38.304902 -1.557434 0.954021 0.054523 -0.020340 440341.000000 0 0 1
-0.619380 -32.102832 22.896536 39.436364 1.551505 0.951338 0.057644 -0.015888 -587535.000000 0 0 1
-1.437780 -32.727252 21.913336 39.412365 1.526892 0.981229 0.051868 -0.018006 77047.200000 0 0 1
-2.251280 -33.766222 22.445836 40.608393 1.504222 0.985149 0.054409 -0.018276 -655142.000000 0 0 1
-3.592080 -33.407052 23.026436 40.732676 1.463683 0.969992 0.065201 -0.012336 -1297390.000000 0 0 1
-4.575280 -33.084982 22.104436 40.051908 1.433379 0.986162 0.057266 -0.022725 -630780.000000 0 0 1
-5.777880 -32.755862 22.778036 40.313389 1.396200 0.970334 0.058092 -0.023484 505483.000000 0 0 1
-6.932880 -32.251162 21.853036 39.569653 1.359053 0.985715 0.049312 -0.018827 231738.000000 0 0 1
-7.644180 -33.267642 21.213436 40.189294 1.344939 1.014743 0.026579 -0.008353 364531.000000 0 0 1
-8.750880 -32.679742 20.496036 39.555416 1.309158 1.026098 0.035611 -0.021661 1023750.000000 0 0 1
-9.971080 -33.651262 20.316936 40.553764 1.282732 1.046057 0.057849 -0.019590 566426.000000 0 0 1
-10.464780 34.011253 21.589436 41.621878 -1.272303 1.025462 0.072144 -0.028524 -650691.000000 0 0 1
-11.804380 33.627695 21.555236 41.650852 -1.233203 1.026844 0.069182 -0.028583 -144816.000000 0 0 1
-12.313680 33.086552 22.975036 42.121240 -1.214513 0.993870 0.067902 -0.027658 -35336.000000 0 0 1
-12.363580 -34.005792 24.026836 43.434328 1.222081 0.984624 0.073173 -0.028927 367197.000000 0 0 1
-11.152680 -33.449802 24.564836 42.973279 1.248972 0.962305 0.062729 -0.025179 240576.000000 0 0 1
-11.290180 -32.037222 25.190836 42.289833 1.231978 0.932695 0.051900 -0.024843 -373187.000000 0 0 1
-12.012880 -32.132312 26.414436 43.295695 1.213028 0.914617 0.069080 -0.017295 271349.000000 0 0 1
-12.900480 -31.010852 26.382136 42.709629 1.176574 0.904970 0.060936 -0.017344 -477849.000000 0 0 1
-13.744780 -30.973072 27.606136 43.707538 1.153139 0.887168 0.056779 -0.016312 -913075.000000 0 0 1
-13.033580 -30.459182 28.735636 43.856274 1.166469 0.856319 0.051057 -0.011797 686825.000000 0 0 1
-13.898580 -30.116382 29.842236 44.617553 1.138424 0.838142 0.067950 -0.017316 55786.500000 0 0 1
-13.159380 -29.664882 31.121136 44.963314 1.153276 0.806339 0.055527 -0.014480 -798163.000000 0 0 1
-13.980580 -29.326672 32.225236 45.759984 1.125946 0.789468 0.062015 -0.012885 -134387.000000 0 0 1
-13.474880 -28.870052 33.462536 46.203827 1.134107 0.760869 0.060064 -0.007797 -725092.000000 0 0 1
-12.684780 -29.876042 -33.731144 46.811020 1.169281 2.375437 0.065246 -0.005691 -152866.000000 0 0 1
-11.344680 -30.041392 33.905136 46.698450 1.209718 0.758245 0.045047 -0.010699 -316440.000000 0 0 1
-10.799880 -31.124492 -33.434344 46.938542 1.236806 2.363567 0.054362 -0.009793 188250.000000 0 0 1
-9.288080 -31.328312 -33.719344 46.954507 1.282576 2.371905 0.062355 -0.016070 314789.000000 0 0 1
-8.396980 -30.460052 -33.025744 45.705840 1.301806 2.378311 0.080190 -0.022623 -307158.000000 0 0 1
-7.195080 -31.173912 -32.870644 45.870047 1.343964 2.369717 0.099623 -0.031366 -303330.000000 0 0 1
-6.279380 -30.411102 -31.868644 44.495800 1.367175 2.369163 0.107906 -0.032822 -301488.000000 0 0 1
-6.689680 -30.524682 -30.526744 43.685125 1.355051 2.344501 0.121320 -0.035995 114779.000000 0 0 1
-5.949780 -29.716642 -29.600144 42.363277 1.373192 2.344406 0.111007 -0.034343 34507.300000 0 0 1
-6.436080 -29.750262 -28.139044 41.452467 1.357743 2.316960 0.111600 -0.034868 -110570.000000 0 0 1
-6.047280 -30.848972 -27.410344 41.707980 1.377222 2.287890 0.103469 -0.030863 101794.000000 0 0 1
-6.950480 -30.974112 -26.334344 41.245636 1.350056 2.263313 0.113801 -0.022039 99842.900000 0 0 1
-6.721580 -32.252782 -25.554044 41.694493 1.365334 2.230506 0.110278 -0.029329 -85555.100000 0 0 1
-5.776780 -32.055752 -24.547644 40.786386 1.392500 2.216623 0.080878 -0.028494 -390776.000000 0 0 1
-5.526180 -33.308852 -24.010544 41.430961 1.406387 2.188950 0.081903 -0.036340 484238.000000 0 0 1
-4.373880 -33.254282 -22.918244 40.622949 1.440019 2.170224 0.095358 -0.045317 446268.000000 0 0 1
-4.706180 -32.784602 -21.627944 39.556873 1.428222 2.149281 0.098838 -0.033366 80279.700000 0 0 1
-4.851880 -31.389862 -21.531744 38.372909 1.417442 2.166533 0.061748 -0.012752 -737064.000000 0 0 1
-5.426380 -30.921182 -20.156844 37.307686 1.397075 2.141574 0.093570 -0.025584 336028.000000 0 0 1
-6.846380 -30.951752 -20.024744 37.494990 1.353106 2.134197 0.107793 -0.041285 615897.000000 0 0 1
-7.548080 -29.732112 -20.226544 36.743504 1.322179 2.153735 0.108439 -0.032820 49388.400000 0 0 1
-7.561080 -29.095192 -21.661044 37.052678 1.316546 2.195185 0.122790 -0.043758 -90827.900000 0 0 1
-6.279480 -28.701732 -22.146244 36.792355 1.355406 2.216706 0.110806 -0.014286 123739.000000 0 0 1
-6.543080 -27.883942 -23.252644 36.891890 1.340312 2.252725 0.150452 -0.029951 -1199920.000000 0 0 1
-5.359580 -27.775542 -24.251444 37.260413 1.380179 2.279518 0.140007 -0.028124 996191.000000 0 0 1
-4.290880 -26.878522 -23.849744 36.189458 1.412492 2.290318 0.114979 -0.025020 704675.000000 0 0 1
-3.674380 -27.184852 -22.614344 35.551734 1.436448 2.260225 0.070245 -0.019852 -2359320.000000 0 0 1
-2.196680 -26.846492 -22.546544 35.127001 1.489154 2.267715 0.071261 -0.017713 -821595.000000 0 0 1
-1.793080 -25.473912 -22.637644 34.126211 1.500523 2.296084 0.074404 -0.013333 -837.036000 0 0 1
-2.212180 -24.535082 -21.688744 32.821725 1.480876 2.292686 0.075374 -0.016329 -868137.000000 0 0 1
-2.040480 -23.109682 -22.245944 32.141919 1.482729 2.335213 0.084093 -0.022649 -347568.000000 0 0 1
-2.864480 -22.576382 -23.276044 32.552611 1.444591 2.367461 0.098461 -0.029684 592428.000000 0 0 1
-4.203180 -22.387282 -22.761644 32.201701 1.385208 2.355826 0.099789 -0.024785 -73809.600000 0 0 1
-5.244580 -22.595482 -23.838844 33.261869 1.342727 2.369858 0.072725 -0.019748 -641201.000000 0 0 1
-5.356780 -21.487982 -24.721744 33.190256 1.326484 2.411106 0.093554 -0.015116 120409.000000 0 0 1
-5.830480 -21.839082 -26.009344 34.459048 1.309906 2.426130 0.111098 -0.023872 7185.680000 0 0 1
-5.566380 -20.784782 -27.097144 34.601257 1.309126 2.470473 0.119000 -0.027643 25994.900000 0 0 1
-6.009080 -21.104382 -28.344644 35.845820 1.293406 2.482810 0.123782 -0.027444 1345590.000000 0 0 1
-4.850580 -21.497582 -29.155944 36.547821 1.348879 2.494347 0.110903 -0.027637 1374690.000000 0 0 1
-5.360680 -21.991682 -30.488444 37.972572 1.331700 2.502952 0.112844 -0.027711 16487.700000 0 0 1
-6.010080 -21.067682 -31.312544 38.215752 1.292903 2.531094 0.117566 -0.029295 244923.000000 0 0 1
-6.748180 -21.845882 -32.303644 39.576583 1.271195 2.525654 0.111113 -0.025073 371941.000000 0 0 1
-7.072580 -21.067682 -33.547544 40.240605 1.246911 2.556524 0.099118 -0.008428 -542007.000000 0 0 1
-5.987580 -21.121682 33.619536 40.152830 1.294563 0.578490 0.086237 -0.016415 -627882.000000 0 0 1
-6.196480 -20.516282 32.393536 38.841413 1.277481 0.584488 0.078045 -0.013709 -4314.290000 0 0 1
-4.898880 -20.371582 31.571036 37.891037 1.334801 0.585916 0.078177 -0.017285 -291914.000000 0 0 1
-4.464980 -21.703082 31.378736 38.413342 1.367897 0.614831 0.080452 -0.018666 435273.000000 0 0 1
-3.298680 -21.941382 30.577136 37.779184 1.421573 0.627727 0.075851 -0.011957 1904440.000000 0 0 1
-1.876480 -21.639382 31.222536 38.034600 1.484297 0.607814 0.049232 -0.019951 734711.000000 0 0 1
-1.466880 -20.311482 31.138136 37.206069 1.498702 0.579183 0.044349 -0.019818 -280940.000000 0 0 1
-0.304380 -19.965682 31.846136 37.588528 1.555552 0.560047 0.059929 -0.022925 -240990.000000 0 0 1
-0.514480 -19.589782 33.335636 38.668965 1.544540 0.531442 0.041783 -0.022953 437108.000000 0 0 1
-1.457080 -18.479382 33.373936 38.176305 1.492110 0.506999 0.043754 -0.023906 220789.000000 0 0 1
-2.330880 -18.553382 -33.568344 38.425183 1.445820 2.633353 0.059344 -0.027508 148135.000000 0 0 1
-3.329080 -17.367782 -33.625244 37.991837 1.381412 2.657430 0.068700 -0.027976 136019.000000 0 0 1
-2.738480 -16.103882 -33.417744 37.196504 1.402357 2.686934 0.059747 -0.027219 -193336.000000 0 0 1
-3.723080 -15.110982 -33.279944 36.739050 1.329225 2.704170 0.081622 -0.030835 346907.000000 0 0 1
-3.155580 -13.674382 -33.684444 36.490933 1.344001 2.746838 0.082590 -0.040458 -145199.000000 0 0 1
-2.329280 -13.100382 -32.734444 35.335384 1.394833 2.755514 0.076189 -0.038194 -413487.000000 0 0 1
-2.158280 -11.685982 -32.914744 34.994296 1.388165 2.795115 0.080777 -0.040788 -169760.000000 0 0 1
-1.488480 -11.050982 33.827836 35.618285 1.436910 0.318417 0.074399 -0.040263 -517288.000000 0 0 1
-2.185980 -11.287282 32.641636 34.607190 1.379497 0.338650 0.083847 -0.037606 -133861.000000 0 0 1
-1.557280 -10.791782 31.465236 33.300882 1.427483 0.333578 0.075608 -0.031811 9000.100000 0 0 1
-0.463980 -11.678782 30.841136 32.981584 1.531089 0.362250 0.056304 -0.035055 -394976.000000 0 0 1
-0.932380 -12.785082 30.078936 32.696636 1.497998 0.402870 0.073934 -0.034225 3851.530000 0 0 1
-0.092580 -13.945082 30.086836 33.161598 1.564158 0.434027 0.056591 -0.034176 -244900.000000 0 0 1
-0.721980 -15.210182 30.653436 34.227241 1.523365 0.461050 0.054726 -0.028592 398801.000000 0 0 1
-1.730580 -15.808082 29.821636 33.796750 1.461756 0.489896 0.061343 -0.032242 532233.000000 0 0 1
-2.234080 -16.959182 30.455736 34.930743 1.439818 0.511749 0.061073 -0.025951 -193944.000000 0 0 1
-2.513980 -18.132482 29.483536 34.704263 1.433029 0.555636 0.066760 -0.015752 -1109570.000000 0 0 1
-3.573780 -17.952882 28.647836 33.996711 1.374301 0.568583 0.087142 -0.023645 -953719.000000 0 0 1
-3.778280 -19.165382 27.943636 34.094487 1.376151 0.610094 0.089995 -0.025267 632373.000000 0 0 1
-4.779380 -18.951782 26.750436 33.130022 1.323761 0.631000 0.069852 -0.030919 131117.000000 0 0 1
-5.328280 -20.078882 26.112736 33.368054 1.311407 0.672018 0.089525 -0.024874 -115552.000000 0 0 1
-4.418780 -20.915182 25.388136 33.189274 1.362587 0.699833 0.089423 -0.022601 83186.000000 0 0 1
-30.266500 -33.668553 -0.420564 45.274821 0.838559 1.580086 0.047482 -0.005379 47725.400000 0 0 1
-29.592870 -32.427753 -0.381264 43.902648 0.831075 1.579481 0.071547 -0.009239 -8740.180000 0 0 1
-29.952980 -31.824253 0.816636 43.710765 0.815680 1.552113 0.039685 -0.001597 126033.000000 0 0 1
-29.302390 -30.421053 1.090236 42.252327 0.804127 1.544990 0.061134 -0.010921 443938.000000 0 0 1
-27.940600 -30.563753 1.471436 41.436521 0.830205 1.535278 0.063814 -0.010128 -214288.000000 0 0 1
-27.398460 -29.426353 2.083736 40.260748 0.821070 1.519017 0.074199 -0.016144 1527770.000000 0 0 1
-25.816880 -29.494053 2.249636 39.261576 0.851782 1.513466 0.086219 -0.014033 1523140.000000 0 0 1
-25.387320 -30.365053 3.302836 39.717266 0.874445 1.487541 0.075196 -0.008940 -389746.000000 0 0 1
-24.011680 -30.205253 3.514236 38.746199 0.899142 1.479973 0.081990 -0.010608 -199384.000000 0 0 1
-23.412780 -30.977753 4.686536 39.111930 0.923598 1.450684 0.080429 -0.021042 51161.200000 0 0 1
-23.847080 -30.394953 5.943736 39.087906 0.905533 1.418143 0.064038 -0.010731 281724.000000 0 0 1
-23.200180 -31.023353 7.038536 39.373059 0.928686 1.391065 0.060369 -0.010499 11785.100000 0 0 1
-23.728280 -30.535053 8.430836 39.579032 0.910186 1.356139 0.062824 -0.000910 -130070.000000 0 0 1
-23.314380 -29.228853 8.719936 38.391711 0.897490 1.341666 0.083320 -0.013554 174203.000000 0 0 1
-23.948580 -28.739453 9.880136 38.692477 0.876078 1.312586 0.062084 -0.015867 63708.800000 0 0 1
-23.287080 -27.396153 10.321336 37.408118 0.866295 1.291258 0.092957 -0.020149 456567.000000 0 0 1
-21.980380 -27.524253 10.852136 36.857706 0.896920 1.271934 0.089550 -0.019547 -132377.000000 0 0 1
-21.552080 -26.334653 11.488036 35.916307 0.884941 1.245219 0.103803 -0.023454 630650.000000 0 0 1
-20.118980 -26.560853 12.065736 35.437752 0.922533 1.223372 0.094483 -0.021240 393919.000000 0 0 1
-19.944180 -27.465753 13.162236 36.405801 0.942737 1.200875 0.089329 -0.011387 -150078.000000 0 0 1
-18.579380 -27.622853 13.500036 35.923062 0.978691 1.185532 0.095255 -0.017716 268802.000000 0 0 1
-18.220780 -28.662453 14.598136 36.968076 1.004538 1.164854 0.103857 -0.022559 65912.500000 0 0 1
-18.194280 -30.058653 14.193836 37.894847 1.026494 1.186876 0.107662 -0.020371 -16470.300000 0 0 1
-17.832780 -30.936553 15.251636 38.828994 1.047887 1.167133 0.110848 -0.017961 95077.800000 0 0 1
-17.713380 -32.387453 14.825536 39.780743 1.070320 1.188900 0.097758 -0.023520 80748.400000 0 0 1
-17.586880 -33.381253 15.876136 40.934803 1.085901 1.172510 0.103717 -0.017682 160860.000000 0 0 1
-17.723780 33.411018 15.276436 40.789680 -1.083065 1.186920 0.074985 -0.016151 -278703.000000 0 0 1
-17.536180 32.199518 16.209236 40.088226 -1.072101 1.154540 0.083023 -0.016185 -339664.000000 0 0 1
-18.494980 32.089618 17.228936 40.849040 -1.047945 1.135399 0.083225 -0.023125 -21889.900000 0 0 1
-18.249980 30.972918 18.048336 40.225935 -1.038338 1.105515 0.049044 -0.020567 -280441.000000 0 0 1
-19.025480 30.940718 19.326836 41.143936 -1.019492 1.081803 0.058018 -0.033736 -228717.000000 0 0 1
-18.582380 31.995518 20.152636 42.132490 -1.044629 1.072060 0.063419 -0.028416 445966.000000 0 0 1
-19.414480 32.082618 21.333336 43.143106 -1.026606 1.053562 0.065856 -0.025221 369453.000000 0 0 1
-19.102780 33.264318 22.274636 44.357530 -1.049509 1.044700 0.050178 -0.007107 973714.000000 0 0 1
-17.778080 33.349818 22.864736 44.170880 -1.081037 1.026703 0.047095 -0.019955 862439.000000 0 0 1
-17.707880 33.760618 24.240536 45.176896 -1.087731 1.004430 0.037924 -0.018101 -441383.000000 0 0 1
-18.134580 32.745418 25.298736 45.179104 -1.065036 0.976452 0.032229 -0.026919 -1326280.000000 0 0 1
-19.499580 32.782318 25.147836 45.687281 -1.034194 0.987912 0.007119 -0.026653 -1224520.000000 0 0 1
-20.193680 31.622018 25.606336 45.424896 -1.002480 0.971929 0.019302 -0.025184 -487377.000000 0 0 1
-21.703580 31.832918 25.533436 46.220519 -0.972392 0.985524 0.086116 -0.036377 -562076.000000 0 0 1
-22.076480 31.688918 24.148836 45.549147 -0.962314 1.011994 0.075248 -0.024124 -169336.000000 0 0 1
-23.445180 31.909218 23.950036 46.276115 -0.937129 1.026815 0.065443 -0.028638 -720113.000000 0 0 1
-23.922680 31.530418 22.585436 45.569329 -0.921739 1.052239 0.056999 -0.026711 -234489.000000 0 0 1
-23.669380 32.526218 21.582336 45.650757 -0.941720 1.078364 0.057503 -0.026520 208925.000000 0 0 1
-23.840580 31.909518 20.254436 44.685935 -0.929134 1.100375 0.047862 -0.012925 -106439.000000 0 0 1
-23.376480 32.864018 19.148336 44.644846 -0.952521 1.127518 0.058293 -0.007461 179355.000000 0 0 1
-22.000780 33.188718 19.247036 44.226391 -0.985406 1.120543 0.055625 -0.008282 30147.000000 0 0 1
-21.708080 -33.892753 18.292536 44.210591 1.001133 1.144217 0.076830 -0.009073 290597.000000 0 0 1
-20.344180 -33.197353 18.524736 43.117465 1.021000 1.126709 0.070785 -0.015227 320051.000000 0 0 1
-20.501280 -32.194653 19.534536 42.876524 1.003763 1.097750 0.071558 -0.023544 105815.000000 0 0 1
-19.266680 -31.636153 19.884636 42.041050 1.023779 1.078125 0.071874 -0.029328 -109072.000000 0 0 1
-19.598180 -30.506853 20.899936 41.851691 0.999769 1.047912 0.057946 -0.017517 94685.400000 0 0 1
-20.270780 -29.370753 20.409436 41.110713 0.966699 1.051291 0.094869 -0.027744 231131.000000 0 0 1
-20.468480 -28.539553 21.518836 41.188895 0.948622 1.021083 0.106935 -0.021414 -283561.000000 0 0 1
-21.284180 -27.283953 21.264736 40.615507 0.908309 1.019770 0.105163 -0.029860 -143373.000000 0 0 1
-20.502180 -26.260653 20.621036 39.181481 0.907923 1.016558 0.097211 -0.017041 816532.000000 0 0 1
-21.298180 -25.177753 20.192236 38.668568 0.868680 1.021383 0.096211 -0.005429 258083.000000 0 0 1
-22.357580 -25.307153 19.019536 38.756369 0.847201 1.057851 0.098725 -0.019525 345620.000000 0 0 1
-23.666380 -25.534553 19.505036 39.906859 0.823350 1.060124 0.091989 -0.020220 -160498.000000 0 0 1
-24.588580 -25.541653 18.435636 39.960568 0.804408 1.091285 0.075716 -0.016775 89522.800000 0 0 1
-26.029770 -25.657553 19.059536 41.220442 0.778197 1.090118 0.060610 -0.016750 742526.000000 0 0 1
-26.605060 -26.940653 19.338636 42.516007 0.791666 1.098586 0.051746 -0.019936 93795.000000 0 0 1
-26.894830 -27.690153 18.150636 42.655856 0.799968 1.131267 0.048610 -0.024142 -327069.000000 0 0 1
-28.004560 -28.764053 18.344336 44.137748 0.798776 1.142177 0.081152 -0.028381 473391.000000 0 0 1
-29.269610 -28.154553 18.579736 44.660895 0.765983 1.141734 0.063888 -0.033619 -475371.000000 0 0 1
-30.311060 -28.979253 18.177436 45.705324 0.762939 1.161777 0.070475 -0.021512 -1212000.000000 0 0 1
-31.657060 -28.388353 18.487336 46.366471 0.731015 1.160673 0.062877 -0.020239 -856448.000000 0 0 1
-31.853000 -27.237353 17.689536 45.490732 0.707445 1.171402 0.072101 -0.012091 -59858.900000 0 0 1
-33.190500 -26.789453 17.830336 46.229914 0.679081 1.174843 0.059983 0.001123 45635.400000 0 0 1
-33.587680 -25.599553 17.023836 45.533288 0.651245 1.187611 0.059756 -0.009266 -255573.000000 0 0 1
-33.713950 -25.767953 15.627936 45.220020 0.652598 1.217921 0.074855 -0.025247 -132181.000000 0 0 1
-34.170339 -24.612153 14.991736 44.700361 0.624206 1.228785 0.070025 -0.030444 161338.000000 0 0 1
-33.098680 -23.525953 14.640236 43.166302 0.617926 1.224774 0.062725 -0.020820 44096.300000 0 0 1
-32.393630 -22.966853 15.727336 42.710335 0.616736 1.193689 0.059173 -0.014156 -107474.000000 0 0 1
-32.247420 -21.544053 15.736336 41.853012 0.588985 1.185331 0.042966 -0.010401 725195.000000 0 0 1
-33.527510 -20.662253 16.100136 42.546880 0.552302 1.182719 0.047652 -0.016490 860733.000000 0 0 1
-33.930180 -20.538753 17.446236 43.329766 0.544325 1.156399 0.054170 -0.010037 -98179.400000 0 0 1
-34.796001 -19.449153 17.524636 43.544737 0.509687 1.156603 0.062878 -0.017941 -383783.000000 0 0 1
-35.331216 -19.078853 18.894936 44.376977 0.495133 1.130970 0.050640 -0.011647 -939140.000000 0 0 1
-36.208120 -19.956753 19.447136 45.689069 0.503739 1.131126 0.052980 -0.008591 -468232.000000 0 0 1
-36.380490 -19.591753 20.834036 46.275630 0.493990 1.103789 0.053756 -0.000668 -212764.000000 0 0 1
36.033316 -19.727053 21.440836 46.338601 -0.500896 1.089759 0.046637 -0.004330 26619.200000 0 0 1
35.501116 -21.017553 21.764736 46.645155 -0.534535 1.085351 0.060711 -0.009759 -170488.000000 0 0 1
36.096826 -21.710253 22.822236 47.907937 -0.541481 1.074267 0.047914 -0.000538 -405942.000000 0 0 1
35.398976 -23.018953 23.355536 48.253920 -0.576566 1.065561 0.061845 -0.000510 -421433.000000 0 0 1
34.322896 -22.834453 24.210736 47.808296 -0.587044 1.039777 0.073389 -0.012482 -311592.000000 0 0 1
33.939496 -24.010753 24.872236 48.446195 -0.615714 1.031655 0.077075 -0.022720 291442.000000 0 0 1
32.760496 -23.899453 25.893836 48.113664 -0.630265 1.002520 0.092739 -0.022559 403804.000000 0 0 1
31.461986 -24.059653 25.416336 47.060744 -0.652856 1.000270 0.083881 -0.012744 -152255.000000 0 0 1
30.484796 -24.480553 26.356836 47.151915 -0.676593 0.977645 0.054000 -0.011030 -613555.000000 0 0 1
29.178446 -24.842753 25.723936 46.154794 -0.705311 0.979617 0.049658 -0.017740 -1231600.000000 0 0 1
28.475056 -23.771453 25.201136 44.844264 -0.695613 0.974031 0.057236 -0.013612 -849479.000000 0 0 1
27.154356 -24.193553 25.014336 44.140730 -0.727800 0.968307 0.051544 -0.012533 -467670.000000 0 0 1
26.176756 -23.061653 24.689136 42.738926 -0.722217 0.954921 0.035804 -0.003359 -672493.000000 0 0 1
26.298256 -22.481553 23.411636 41.774672 -0.707314 0.975896 0.047835 -0.005918 856260.000000 0 0 1
27.471256 -21.639153 23.191136 41.961311 -0.667197 0.985221 0.053473 0.006711 1128390.000000 0 0 1
27.681056 -21.076853 21.741836 41.026601 -0.650769 1.012261 0.061959 -0.004821 -71287.100000 0 0 1
26.720956 -20.075853 21.492036 39.736092 -0.644342 0.999326 0.061745 -0.011467 -103271.000000 0 0 1
26.857756 -19.421053 20.228336 38.829138 -0.626067 1.022824 0.066042 -0.017736 -123056.000000 0 0 1
26.068156 -18.103053 20.115136 37.575098 -0.606992 1.005896 0.063284 -0.011378 -212117.000000 0 0 1
26.272456 -16.977253 20.971236 37.659817 -0.573699 0.980196 0.070983 -0.029197 -148059.000000 0 0 1
25.842856 -17.168753 22.335136 38.229277 -0.586398 0.946851 0.071362 -0.015820 69676.900000 0 0 1
26.115056 -15.938853 23.201836 38.397505 -0.547982 0.921967 0.082354 -0.016705 782931.000000 0 0 1
25.017056 -15.010053 23.035036 37.172136 -0.540414 0.902454 0.073560 -0.016428 531135.000000 0 0 1
25.033756 -13.970353 23.952236 37.357319 -0.509011 0.874780 0.076087 -0.015623 -973318.000000 0 0 1
23.767256 -13.183053 23.931536 36.213171 -0.506424 0.848843 0.073824 -0.018528 -720402.000000 0 0 1
22.649856 -14.006453 24.216236 35.994761 -0.553832 0.832848 0.079335 -0.015885 -33730.600000 0 0 1
21.433056 -13.288953 24.155736 34.920936 -0.555011 0.806919 0.078202 -0.017078 897222.000000 0 0 1
20.149956 -14.111153 24.572036 34.769675 -0.610932 0.785961 0.083593 -0.014871 776704.000000 0 0 1
19.851756 -15.157553 23.645036 34.393769 -0.652109 0.812783 0.076646 -0.011888 702211.000000 0 0 1
18.442556 -15.422053 23.704636 33.762070 -0.696440 0.792442 0.087862 -0.010747 763425.000000 0 0 1
17.959556 -16.561853 22.826736 33.435019 -0.744932 0.819318 0.078757 -0.014982 -19799.800000 0 0 1
18.480156 -17.802553 23.250236 34.626876 -0.766725 0.834632 0.064092 -0.005979 -74430.300000 0 0 1
17.919256 -18.820653 22.445936 34.338561 -0.809928 0.858378 0.070675 -0.017667 100138.000000 0 0 1
18.525856 -20.248253 22.499936 35.488677 -0.829790 0.884077 0.057279 -0.013287 -213666.000000 0 0 1
18.151956 -20.897153 23.702836 36.441857 -0.855584 0.862647 0.055969 -0.018936 85887.800000 0 0 1
18.708656 -22.168453 23.937836 37.609495 -0.869836 0.880865 0.052219 -0.017830 -87964.200000 0 0 1
18.084856 -23.305753 22.990636 37.400394 -0.910873 0.908770 0.052297 -0.007416 238319.000000 0 0 1
18.739956 -23.446253 21.749636 37.066958 -0.896499 0.943737 0.053160 -0.007231 -286762.000000 0 0 1
19.924756 -24.205253 21.852836 38.215659 -0.882093 0.962062 0.055386 -0.006476 -118502.000000 0 0 1
20.728256 -24.236853 20.545136 37.936635 -0.863270 0.998499 0.050894 -0.012538 -479100.000000 0 0 1
20.025256 -24.900253 19.547036 37.458245 -0.893488 1.021795 0.049324 -0.026273 -206305.000000 0 0 1
20.791556 -25.285853 18.428336 37.566830 -0.882629 1.058078 0.050831 -0.000194 251033.000000 0 0 1
19.937456 -26.038953 17.343236 37.098748 -0.917337 1.084349 0.044187 -0.009479 311115.000000 0 0 1
19.549656 -27.293653 17.823936 38.010857 -0.949233 1.082732 0.071731 -0.018975 -497066.000000 0 0 1
18.742256 -27.969853 16.901836 37.673026 -0.980429 1.105547 0.074770 -0.021157 -308559.000000 0 0 1
17.995056 -29.082653 17.627036 38.475124 -1.016700 1.094894 0.069472 -0.011528 -110445.000000 0 0 1
17.017956 -28.628853 18.529036 38.112298 -1.034480 1.063095 0.084256 -0.013184 84873.100000 0 0 1
16.196356 -29.647553 19.124736 38.820805 -1.070801 1.055674 0.105211 -0.018423 221612.000000 0 0 1
15.023556 -29.003253 19.867436 38.231021 -1.092856 1.024334 0.092922 -0.015634 -133355.000000 0 0 1
14.061556 -28.338353 19.070236 36.938645 -1.110191 1.028309 0.082503 -0.016673 503556.000000 0 0 1
12.801556 -28.189953 19.747036 36.721911 -1.144523 1.003036 0.056634 -0.009437 806979.000000 0 0 1
11.708756 -27.744953 18.742936 35.470763 -1.171458 1.014075 0.067659 -0.018017 -20944.000000 0 0 1
11.575256 -28.798653 17.773036 35.766322 -1.188621 1.050749 0.063845 -0.025839 71382.700000 0 0 1
10.707456 -28.362353 16.736836 34.629386 -1.209815 1.066361 0.076819 -0.026614 109472.000000 0 0 1
10.413356 -29.391153 15.659536 34.892678 -1.230294 1.105384 0.080491 -0.019790 169779.000000 0 0 1
9.393256 -30.364753 15.862536 35.522831 -1.270786 1.107896 0.069001 -0.021134 178906.000000 0 0 1
9.299256 -31.220853 14.735636 35.754116 -1.281310 1.145997 0.062504 -0.013681 537733.000000 0 0 1
8.007956 -32.118653 14.628936 36.190344 -1.326454 1.154668 0.059138 -0.014587 314809.000000 0 0 1
8.028856 -33.149853 15.596336 37.504946 -1.333173 1.141922 0.072315 -0.016525 -169993.000000 0 0 1
7.037056 33.945018 15.457336 37.956734 1.366384 1.151371 0.054640 -0.006510 -137846.000000 0 0 1
7.327356 32.828918 16.490136 37.461348 1.351198 1.114985 0.077468 -0.017651 -178660.000000 0 0 1
8.513056 32.127818 16.274836 37.007284 1.311774 1.115449 0.069153 -0.021622 -489443.000000 0 0 1
8.786456 31.249018 17.356836 36.809818 1.296698 1.079774 0.096109 -0.024299 542179.000000 0 0 1
10.136456 30.465518 17.192936 36.421046 1.249599 1.079170 0.064507 -0.033103 324860.000000 0 0 1
10.139756 29.466218 16.208336 35.125244 1.239374 1.091174 0.087707 -0.028625 18573.400000 0 0 1
11.343556 28.748218 16.459936 35.015222 1.194969 1.081416 0.079040 -0.035252 363804.000000 0 0 1
12.036856 28.065518 15.230336 34.125098 1.165640 1.108160 0.072328 -0.035837 -304365.000000 0 0 1
11.175856 27.245918 14.530736 32.838728 1.181541 1.112425 0.086980 -0.040796 -545750.000000 0 0 1
11.842356 26.520918 13.550536 32.050234 1.150833 1.134274 0.079125 -0.036411 -301467.000000 0 0 1
-9.441180 -9.206782 19.392716 23.451613 0.772829 0.597180 0.066862 -0.022957 33510.600000 0 1 0
-9.544280 -9.282182 18.020916 22.405481 0.771477 0.636286 0.059530 -0.026753 -5132.650000 0 1 0
-9.618180 -10.651682 17.589716 22.701670 0.836341 0.684365 0.072168 -0.036764 -78990.700000 0 1 0
-10.015680 -10.772182 16.127416 21.827672 0.821774 0.739431 0.079057 -0.035684 210482.000000 0 1 0
-11.390580 -10.400282 15.952416 22.189879 0.739984 0.768571 0.074313 -0.043432 739408.000000 0 1 0
-11.924580 -10.701382 14.671716 21.724972 0.731389 0.829372 0.093206 -0.047199 180946.000000 0 1 0
-12.061080 -12.172882 14.353716 22.353475 0.790012 0.873530 0.079252 -0.045888 -1099210.000000 0 1 0
-10.815680 -12.652982 13.910316 21.692712 0.863526 0.874678 0.094559 -0.047618 -181320.000000 0 1 0
-10.641380 -14.026982 13.730316 22.327489 0.921791 0.908472 0.103212 -0.047409 66850.300000 0 1 0
-10.264180 -14.755982 15.033316 23.432733 0.963033 0.874277 0.105868 -0.049100 185117.000000 0 1 0
-11.348680 -14.605582 15.925316 24.407606 0.910232 0.859952 0.088723 -0.029201 152748.000000 0 1 0
-10.890480 -14.669982 17.260916 25.134640 0.932200 0.813804 0.107639 -0.033212 -124836.000000 0 0 1
-12.019980 -14.439582 18.294116 26.223198 0.876590 0.798711 0.061859 -0.018517 -501476.000000 0 0 1
-12.537280 -13.178082 18.450616 25.908887 0.810312 0.778262 0.064889 -0.023466 -520650.000000 0 0 1
-13.747680 -13.032682 17.769816 25.973368 0.758706 0.817352 0.082006 -0.032057 -468900.000000 0 0 1
-14.995680 -13.293782 18.644716 27.371892 0.725310 0.821447 0.039381 -0.020134 -522243.000000 0 0 1
-15.270680 -14.664082 18.968816 28.426131 0.765137 0.840216 0.041141 -0.014906 -218795.000000 0 0 1
-16.426880 -14.682782 19.763616 29.597753 0.729394 0.839627 0.043260 -0.012666 -234335.000000 0 0 1
-16.794780 -16.125082 20.154516 30.794275 0.765058 0.857290 0.035778 -0.012358 -169740.000000 0 0 1
-17.669480 -16.805582 19.283816 31.088642 0.760345 0.901690 0.055398 -0.006422 -144987.000000 0 0 1
-17.884480 -18.135482 19.634416 32.159922 0.792366 0.914074 0.033923 -0.010934 73414.400000 0 0 1
-19.242580 -18.674282 19.111316 32.927922 0.770411 0.951578 0.060590 -0.004773 97475.700000 0 0 1
-19.430680 -18.611782 17.696416 32.204237 0.763876 0.989024 0.076510 -0.014170 228876.000000 0 0 1
-19.997780 -17.410082 17.132316 31.567996 0.716333 0.997134 0.077026 -0.021955 -374423.000000 0 0 1
-19.862180 -17.358482 15.572716 30.632214 0.718233 1.037497 0.082457 -0.023104 -364933.000000 0 0 1
-20.604680 -18.242082 14.794116 31.244075 0.724655 1.077534 0.087828 -0.018753 -214445.000000 0 0 1
-20.134680 -18.168482 13.499216 30.294024 0.734111 1.108945 0.098873 -0.025486 27124.900000 0 0 1
-20.350780 -19.396582 12.599416 30.807903 0.761396 1.149475 0.081957 -0.011067 -224595.000000 0 0 1
-19.332380 -20.317682 12.838416 30.844352 0.810243 1.141499 0.085299 -0.013275 -270030.000000 0 0 1
-19.360980 -21.525782 12.037016 31.354371 0.838295 1.176778 0.085066 -0.018372 10973.400000 0 0 1
-18.369080 -22.596782 12.612416 31.735007 0.888235 1.162083 0.094579 -0.020786 219222.000000 0 0 1
-18.311180 -23.781682 11.876216 32.278665 0.914636 1.194017 0.103549 -0.024906 659663.000000 0 0 1
-17.271880 -23.790182 10.860816 31.340835 0.942827 1.216918 0.097211 -0.025135 440589.000000 0 0 1
-17.132780 -25.028482 9.985816 31.932328 0.970528 1.252743 0.098615 -0.026853 293120.000000 0 0 1
-18.354880 -25.241832 9.276916 32.559374 0.942073 1.281870 0.105371 -0.024970 133266.000000 0 0 1
-18.242580 -26.195202 8.246016 32.969336 0.962484 1.318001 0.127385 -0.029589 -76476.300000 0 0 1
-19.455680 -26.304952 7.309216 33.524597 0.933971 1.351006 0.105341 -0.037985 53732.600000 0 0 1
-19.652380 -25.215502 6.421416 32.607854 0.908758 1.372572 0.118885 -0.039166 -54183.100000 0 0 1
-20.888780 -25.158622 5.738916 33.199888 0.877861 1.397064 0.117048 -0.039040 117154.000000 0 0 1
-20.951680 -23.886582 4.824316 32.137450 0.850760 1.420112 0.127234 -0.037939 -380035.000000 0 0 1
-21.985980 -23.943182 3.897516 32.739119 0.827986 1.451466 0.120249 -0.037180 -270494.000000 0 0 1
-22.062880 -22.699382 3.202716 31.816505 0.799617 1.469963 0.122023 -0.035369 16838.400000 0 0 1
-22.738980 -22.730882 1.811016 32.203012 0.785220 1.514529 0.103987 -0.026580 233735.000000 0 0 1
-22.057880 -23.445182 0.727516 32.198694 0.815877 1.548200 0.083035 -0.034660 308789.000000 0 0 1
-22.596880 -23.163582 -0.547884 32.364652 0.797782 1.587726 0.092782 -0.030684 -191577.000000 0 0 1
-21.942080 -23.921582 -1.742784 32.507449 0.828532 1.624434 0.080927 -0.028985 185834.000000 0 0 1
-20.554580 -23.607182 -1.869784 31.357390 0.854412 1.630460 0.075944 -0.025235 495299.000000 0 0 1
-19.924080 -24.104582 -3.044784 31.420862 0.880064 1.667852 0.063493 -0.011967 -58241.700000 0 0 1
-19.601580 -25.618462 -3.093884 32.405241 0.917679 1.666417 0.077282 -0.017437 -476629.000000 0 0 1
-20.649980 -26.534632 -3.261584 33.780857 0.909473 1.667498 0.113085 -0.027251 -51872.500000 0 0 1
-20.020780 -27.772212 -3.579184 34.422928 0.946186 1.674961 0.115502 -0.015220 -134612.000000 0 0 1
-21.014380 -28.764912 -4.216284 35.872014 0.939856 1.688606 0.111610 -0.008650 86270.600000 0 0 1
-21.386880 -28.270002 -5.460884 35.866599 0.923134 1.723646 0.093604 -0.007297 107137.000000 0 0 1
-22.324780 -29.153852 -6.099384 37.222915 0.917286 1.735400 0.079613 -0.021775 215256.000000 0 0 1
-23.062780 -28.503722 -7.288684 37.382869 0.890522 1.767027 0.075390 0.004147 61847.800000 0 0 1
-22.158780 -28.134662 -8.350784 36.773718 0.903664 1.799880 0.097114 -0.002908 477745.000000 0 0 1
-22.696080 -28.032452 -9.677784 37.344209 0.890207 1.832939 0.093099 -0.001559 300965.000000 0 0 1
-23.713680 -26.899002 -10.067684 37.245848 0.848251 1.844505 0.080922 0.005847 206918.000000 0 0 1
-23.211380 -25.582642 -10.370284 36.066363 0.833957 1.862447 0.079177 0.004100 54959.500000 0 0 1
-22.780380 -24.881982 -9.216684 34.971503 0.829463 1.837495 0.071362 -0.007382 -58701.600000 0 0 1
-22.406280 -23.377782 -9.460784 33.735271 0.806614 1.855051 0.069366 -0.018399 287839.000000 0 0 1
-23.508980 -22.614382 -9.953984 34.105193 0.766005 1.866969 0.070187 -0.017470 151440.000000 0 0 1
-23.180780 -21.360182 -10.467084 33.213940 0.744546 1.891402 0.090644 -0.016476 -391605.000000 0 0 1
-24.375280 -20.443082 -10.653884 33.549652 0.697886 1.893947 0.103287 -0.018325 -512119.000000 0 0 1
-25.400610 -20.737382 -11.608384 34.784833 0.684669 1.911043 0.081002 -0.006411 1195950.000000 0 0 1
-26.532630 -19.858382 -11.632684 35.123427 0.642509 1.908366 0.076642 -0.007859 494175.000000 0 0 1
-26.274250 -18.319782 -11.802684 34.135817 0.608880 1.923841 0.087645 -0.015857 -1362670.000000 0 0 1
-25.632710 -17.928782 -13.019384 33.881874 0.610356 1.965200 0.097617 -0.012615 639499.000000 0 0 1
-25.214730 -16.514582 -13.027484 32.836403 0.579853 1.978758 0.121379 -0.028763 531336.000000 0 0 1
-23.979180 -16.178282 -12.108684 31.358541 0.593530 1.967236 0.103167 -0.028225 -236910.000000 0 0 1
-24.237780 -16.469482 -10.756784 31.215737 0.596832 1.922604 0.142431 -0.029357 644882.000000 0 0 1
-23.039980 -16.457882 -9.963684 30.016288 0.620271 1.909159 0.116147 -0.028625 522408.000000 0 0 1
-23.409880 -16.828482 -8.502684 30.058542 0.623273 1.857582 0.112007 -0.039110 144933.000000 0 0 1
-24.017080 -18.103182 -8.430484 31.234891 0.645905 1.844092 0.125511 -0.027976 111377.000000 0 0 1
-24.814480 -18.229882 -7.278684 31.639631 0.633603 1.802925 0.130753 -0.025756 -80727.700000 0 0 1
-25.483890 -19.595482 -7.083884 32.917973 0.655510 1.787691 0.128209 -0.027427 -240293.000000 0 0 1
-26.506260 -19.694982 -8.040584 33.987132 0.639026 1.809638 0.094869 -0.029293 -248644.000000 0 0 1
-27.277190 -20.877582 -7.917584 35.250626 0.653276 1.797337 0.079131 -0.012684 -69533.100000 0 0 1
-26.637210 -22.095782 -8.594784 35.659989 0.692477 1.814213 0.064901 -0.010797 -316393.000000 0 0 1
-27.256370 -23.357082 -8.354884 36.854675 0.708509 1.799482 0.063620 0.001078 -17068.300000 0 0 1
-26.624190 -24.369082 -9.174684 37.240764 0.741203 1.819720 0.043341 0.009102 292661.000000 0 0 1
-27.042720 -25.766062 -8.774084 38.369040 0.761228 1.801514 0.050210 0.010948 -202167.000000 0 0 1
-26.595230 -26.141322 -7.486884 38.035883 0.776791 1.768927 0.069161 -0.000115 152022.000000 0 0 1
-27.036950 -27.451322 -7.074184 39.174173 0.793003 1.752375 0.080165 -0.004324 89639.400000 0 0 1
-26.596600 -27.779372 -5.637884 38.869762 0.807146 1.716355 0.107485 -0.012995 -12929.800000 0 0 1
-27.234180 -26.918632 -4.706084 38.580572 0.779571 1.693082 0.086238 -0.013255 196135.000000 0 0 1
-26.768860 -27.077292 -3.361284 38.223682 0.791126 1.658847 0.089552 -0.029066 217315.000000 0 0 1
-27.338750 -28.362092 -2.674384 39.483767 0.803768 1.638582 0.087802 -0.023940 306836.000000 0 0 1
-26.699890 -29.531942 -3.230384 39.943148 0.835720 1.651759 0.122779 -0.019268 181665.000000 0 0 1
-27.068490 -30.722892 -2.551084 41.025690 0.848548 1.633019 0.116437 -0.019923 230232.000000 0 0 1
-26.186480 -31.088502 -1.307484 40.668614 0.870778 1.602952 0.116433 -0.028194 723678.000000 0 0 1
-24.821580 -31.303132 -1.665384 39.984627 0.900374 1.612459 0.124728 -0.034968 346777.000000 0 0 1
-24.011280 -31.843542 -0.626484 39.886655 0.924715 1.586504 0.138694 -0.019090 532532.000000 0 0 1
-22.673180 -31.085622 -0.422384 38.478142 0.940624 1.581774 0.115810 -0.023312 218680.000000 0 0 1
-22.789980 -29.755692 0.106216 37.480604 0.917195 1.567962 0.110644 -0.024694 -259736.000000 0 0 1
-22.903780 -28.811702 -0.931684 36.818003 0.899144 1.596104 0.103906 -0.027837 -278651.000000 0 0 1
-23.452280 -27.447952 -0.546784 36.106765 0.863738 1.585940 0.098604 -0.022106 648650.000000 0 0 1
-24.828280 -27.593362 -0.145284 37.119513 0.838096 1.574710 0.091819 -0.023107 523103.000000 0 0 1
-25.502690 -26.394872 0.055116 36.702582 0.802588 1.569295 0.104574 -0.034761 -106317.000000 0 0 1
-25.177190 -25.608462 1.343116 35.937281 0.793890 1.533414 0.114860 -0.030383 -296585.000000 0 0 1
-25.582510 -26.161962 2.626216 36.685284 0.796596 1.499147 0.087943 -0.022451 -149282.000000 0 0 1
-25.363590 -25.273592 3.744316 36.001195 0.783621 1.466603 0.107161 -0.030273 -63332.600000 0 0 1
-26.247900 -24.018182 3.932916 35.795155 0.741069 1.460701 0.112275 -0.029091 -228012.000000 0 0 1
-26.142660 -23.013482 2.972416 34.955604 0.721826 1.485659 0.108454 -0.028366 325822.000000 0 0 1
-27.209660 -22.075182 3.117616 35.176679 0.681593 1.482053 0.090702 -0.022481 356724.000000 0 0 1
-27.043790 -20.922082 2.145416 34.259348 0.658458 1.508133 0.076781 -0.015926 158950.000000 0 0 1
-25.773340 -20.336282 2.344616 32.913928 0.668024 1.499501 0.085817 -0.017089 73683.000000 0 0 1
-25.578750 -19.367582 1.342916 32.111978 0.648077 1.528964 0.071864 -0.016054 328654.000000 0 0 1
-24.291580 -18.532282 1.567616 30.593851 0.651712 1.519534 0.114744 -0.012771 530970.000000 0 0 1
-23.044680 -19.162582 1.309816 29.999624 0.693679 1.527121 0.119701 -0.025260 -454604.000000 0 0 1
-22.007480 -18.414182 1.843616 28.754307 0.696736 1.506636 0.120924 -0.018972 -1255460.000000 0 0 1
-20.757980 -19.260282 1.822716 28.375597 0.747990 1.506517 0.101040 -0.035222 -1050610.000000 0 0 1
-20.264080 -19.381982 0.490616 28.045229 0.763153 1.553302 0.081552 -0.023320 259882.000000 0 0 1
-19.408480 -20.524782 0.349316 28.250271 0.813345 1.558431 0.082185 -0.019638 140522.000000 0 0 1
-19.144680 -20.863182 -1.131784 28.338526 0.828326 1.610745 0.084036 -0.022072 126102.000000 0 0 1
-18.341580 -19.865682 -1.750884 27.094731 0.825267 1.635462 0.080688 -0.023351 111637.000000 0 0 1
-18.299680 -20.282482 -3.105484 27.493661 0.836745 1.683991 0.080361 -0.017292 436905.000000 0 0 1
-17.564380 -19.220082 -4.026084 26.346316 0.830379 1.724211 0.084852 -0.006964 1328380.000000 0 0 1
-16.146780 -19.030582 -3.875484 25.256701 0.867194 1.724849 0.108603 -0.023025 764627.000000 0 0 1
-15.640580 -18.386482 -4.983984 24.648135 0.865921 1.774406 0.115294 -0.014226 -344646.000000 0 1 0
-14.134280 -18.062582 -4.969784 23.467712 0.906807 1.784183 0.133970 -0.029150 159437.000000 0 1 0
-13.345280 -19.235882 -5.183584 23.978849 0.964264 1.788690 0.105574 -0.022707 957703.000000 0 1 0
-12.086980 -18.972482 -5.833584 23.239640 1.003558 1.824529 0.099159 -0.026329 1463320.000000 0 1 0
-10.943780 -20.047082 -5.811384 23.567435 1.071103 1.819952 0.091129 -0.031797 949612.000000 0 1 0
-11.243480 -21.156682 -6.648384 24.864071 1.082315 1.841479 0.087512 -0.027306 -494873.000000 0 1 0
-10.078880 -21.904582 -6.718084 25.030525 1.139553 1.842524 0.090626 -0.024102 -119564.000000 0 0 1
-10.227180 -23.113982 -7.768484 26.442404 1.154224 1.868985 0.093219 -0.017155 -81003.200000 0 0 1
-10.455580 -22.888782 -9.169984 26.782534 1.142302 1.920252 0.086233 -0.018337 70230.700000 0 0 1
-10.689280 -23.999582 -10.004084 28.112672 1.151779 1.934627 0.101980 -0.019490 -24078.300000 0 0 1
-11.530480 -23.643682 -11.230284 28.602359 1.117056 1.974291 0.122473 -0.029599 -192115.000000 0 0 1
-10.752980 -23.064282 -12.241384 28.238965 1.134538 2.019161 0.104219 -0.016720 -273632.000000 0 0 1
-11.598180 -22.478482 -13.228284 28.544482 1.094456 2.052655 0.112031 -0.029377 -359004.000000 0 0 1
-11.098380 -21.315382 -14.092484 27.858888 1.090746 2.101166 0.083894 -0.016385 -547019.000000 0 0 1
-10.956580 -20.147082 -13.308784 26.515567 1.072703 2.096618 0.080978 -0.017781 -142701.000000 0 0 1
-10.874780 -18.965982 -14.128184 26.030269 1.050178 2.144516 0.070446 -0.004913 -390358.000000 0 0 1
-10.486480 -17.659382 -13.368484 24.505844 1.034934 2.147809 0.087351 -0.006802 -589919.000000 0 1 0
-11.475880 -17.177282 -12.514884 24.153202 0.981813 2.115478 0.092110 -0.016841 -423890.000000 0 1 0
-11.077580 -16.131582 -11.595684 22.746442 0.969051 2.105726 0.089705 -0.021825 71914.300000 0 1 0
-10.783880 -14.743982 -12.187784 21.959489 0.939300 2.159174 0.096602 -0.014080 -61537.100000 0 1 0
-11.916780 -14.092782 -12.704684 22.405918 0.868865 2.173684 0.091921 -0.004260 -273638.000000 0 1 0
-11.833280 -13.792282 -14.069984 22.982994 0.861697 2.229625 0.099349 -0.014421 -245193.000000 0 1 0
-13.081780 -13.081082 -14.601584 23.568070 0.785371 2.238965 0.107413 -0.014629 -160263.000000 0 1 0
-13.245080 -11.716382 -14.206084 22.683002 0.724232 2.247578 0.105969 -0.008003 -100122.000000 0 1 0
-14.245780 -11.079482 -14.971884 23.448976 0.661018 2.263328 0.107486 -0.024720 -239923.000000 0 1 0
-14.399680 -9.637782 -14.467884 22.573376 0.589827 2.266502 0.094805 -0.029746 -236155.000000 0 1 0
-13.302180 -8.762782 -14.447184 21.504778 0.582500 2.307450 0.088431 -0.026624 -120421.000000 0 1 0
-12.987980 -8.117482 -15.664284 21.907783 0.558599 2.367435 0.092224 -0.025736 -217106.000000 0 1 0
-11.897480 -7.039282 -15.421484 20.710473 0.534266 2.410765 0.067614 -0.025659 -247827.000000 0 1 0
-10.659080 -7.660082 -15.224984 20.102064 0.623129 2.430094 0.052200 -0.033090 -355820.000000 0 1 0
-9.580080 -6.755282 -15.366184 19.326960 0.614166 2.489911 0.026582 -0.011393 125552.000000 0 1 0
11.629120 22.231818 15.610216 29.549433 1.088852 1.014229 0.092583 -0.023191 -79481.100000 0 0 1
12.595220 22.342918 16.638516 30.572631 1.057478 0.995326 0.105698 -0.025300 -120897.000000 0 0 1
13.059720 21.049318 16.958016 30.020066 1.015487 0.970497 0.088994 -0.012328 -38793.500000 0 0 1
14.098120 21.037518 18.101216 31.128575 0.980392 0.950227 0.094753 -0.026698 71957.100000 0 0 1
15.381220 21.472518 17.684316 31.786569 0.949200 0.980815 0.088048 -0.019194 236173.000000 0 0 1
16.333320 21.286418 18.742916 32.728975 0.916307 0.961037 0.081847 -0.028800 815665.000000 0 0 1
17.808220 21.558918 18.324416 33.432078 0.880386 0.990695 0.058632 -0.010505 -709969.000000 0 0 1
18.116720 22.946018 18.181816 34.428385 0.902468 1.014428 0.063152 -0.011494 -451341.000000 0 0 1
19.358720 23.245418 17.625016 35.010722 0.876375 1.043247 0.055227 -0.008245 -188456.000000 0 0 1
20.670120 22.819218 18.328116 35.831416 0.834775 1.033856 0.053490 -0.009630 -567628.000000 0 0 1
20.937220 21.459218 18.153916 35.048964 0.797710 1.026333 0.060627 -0.005739 -864890.000000 0 0 1
22.035720 21.098918 18.901116 35.888570 0.763683 1.016128 0.078989 -0.013305 -847219.000000 0 0 1
22.382420 19.636518 18.615116 35.115354 0.720142 1.012062 0.067251 -0.014410 -73317.900000 0 0 1
22.905720 19.314318 17.319816 34.607671 0.700539 1.046664 0.047566 -0.012149 166665.000000 0 0 1
22.366820 18.153618 16.773216 33.334205 0.681793 1.043518 0.038985 -0.004432 -160807.000000 0 0 1
23.053220 16.815518 17.193516 33.314105 0.630200 1.028501 0.047459 -0.010495 113371.000000 0 0 1
24.341420 16.702518 16.635616 33.885433 0.601388 1.057631 0.066147 -0.023435 -131171.000000 0 0 1
25.052620 15.611618 17.137016 34.132590 0.557270 1.044803 0.057076 -0.014270 311446.000000 0 0 1
26.386120 15.425818 16.308816 34.643335 0.529033 1.080640 0.149405 -0.037237 87232.300000 0 0 1
27.221420 16.549318 16.366716 35.815570 0.546246 1.096208 0.126925 -0.042343 207747.000000 0 0 1
28.385420 16.596018 17.176716 37.097162 0.529069 1.089397 0.123374 -0.048272 41319.900000 0 0 1
29.551020 15.778118 16.586516 37.380801 0.490420 1.111054 0.126103 -0.052622 -711203.000000 0 0 1
30.154520 16.440218 15.476516 37.670922 0.499150 1.147427 0.170816 -0.055482 281364.000000 0 0 1
31.124420 15.699618 14.738816 37.847592 0.467173 1.170789 0.167233 -0.040302 185814.000000 0 0 1
30.562320 15.040818 13.503316 36.641795 0.457337 1.193377 0.131664 -0.040028 -757693.000000 0 0 1
30.508020 15.993818 12.432016 36.620985 0.482859 1.224435 0.149195 -0.036573 -42845.800000 0 0 1
29.669520 15.591918 11.360816 35.390062 0.483854 1.243993 0.129930 -0.030580 952322.000000 0 0 1
28.157220 15.876918 11.727416 34.386594 0.513427 1.222767 0.114515 -0.037777 96010.900000 0 0 1
27.681720 17.220218 11.364416 34.524824 0.556496 1.235376 0.109894 -0.028324 354399.000000 0 0 1
28.189220 18.337018 12.085816 35.734371 0.576725 1.225779 0.099543 -0.036479 -468123.000000 0 0 1
27.786120 18.597918 13.553816 36.078483 0.589840 1.185670 0.108270 -0.035547 -1129010.000000 0 0 1
26.553120 19.195618 13.647116 35.493432 0.625939 1.176134 0.100919 -0.023798 -742328.000000 0 0 1
26.010220 19.251318 14.959216 35.650006 0.637164 1.137777 0.095871 -0.025586 42249.200000 0 0 1
26.717820 20.195118 16.034716 37.132153 0.647245 1.124277 0.096885 -0.034690 -6540.260000 0 0 1
26.544920 21.579518 15.922816 37.733863 0.682584 1.135172 0.082043 -0.026672 592412.000000 0 0 1
25.234120 22.043518 16.262016 37.244203 0.718014 1.118945 0.063465 -0.016129 445866.000000 0 0 1
25.131920 23.525318 15.869016 37.906195 0.752391 1.138850 0.064177 -0.006745 -187119.000000 0 0 1
25.031620 23.754318 14.473016 37.420821 0.759222 1.173677 0.080844 -0.015205 139219.000000 0 0 1
25.203920 25.124818 14.040116 38.257273 0.783826 1.195023 0.081980 -0.018214 -296351.000000 0 0 1
25.031620 25.306118 12.533816 37.736960 0.790851 1.232229 0.083113 -0.019343 -299653.000000 0 0 1
23.638720 25.328918 12.359216 36.784418 0.819901 1.228140 0.074219 -0.011083 -235677.000000 0 0 1
23.249120 25.414118 11.037516 36.169403 0.829858 1.260688 0.056898 -0.032567 -178576.000000 0 0 1
22.620920 24.147318 10.413216 34.687664 0.818024 1.265895 0.069562 -0.038627 293974.000000 0 0 1
21.222220 23.920518 10.669016 33.710558 0.845100 1.248771 0.075696 -0.033612 853016.000000 0 0 1
20.678720 22.694218 10.137116 32.332617 0.831834 1.251892 0.081540 -0.020651 302108.000000 0 0 1
20.647920 22.613518 8.589716 31.803947 0.830802 1.297317 0.089028 -0.017082 -897979.000000 0 0 1
19.486020 23.210518 8.134116 31.378288 0.872410 1.308574 0.088745 -0.026793 -508706.000000 0 0 1
19.719920 23.742318 6.858016 31.616535 0.877685 1.352146 0.077994 -0.032673 280027.000000 0 0 1
18.409620 24.039618 6.062116 30.879874 0.917258 1.373200 0.064150 -0.027330 -812440.000000 0 0 1
17.893520 22.814118 5.646816 29.538933 0.905691 1.378447 0.072477 -0.015357 171848.000000 0 0 1
16.867820 22.791018 4.676816 28.737196 0.933656 1.407325 0.091852 -0.032253 14039.700000 0 0 1
15.534020 23.499718 4.940716 28.599881 0.986706 1.397172 0.059609 -0.019213 -906598.000000 0 0 1
15.647120 24.896918 4.929216 29.815869 1.009701 1.404712 0.076146 -0.027153 430261.000000 0 0 1
14.428020 25.483018 5.388716 29.775665 1.055614 1.388816 0.075857 -0.025586 272471.000000 0 0 1
14.248920 26.944518 4.976216 30.883677 1.084356 1.408963 0.073947 -0.023059 -324850.000000 0 0 1
13.991620 27.135818 3.584216 30.740277 1.094735 1.453934 0.058142 -0.022042 292084.000000 0 0 1
13.915820 28.498618 3.211816 31.876904 1.116554 1.469868 0.063472 -0.021592 -204148.000000 0 0 1
13.606820 28.603618 1.735816 31.722635 1.126775 1.516050 0.063211 -0.022892 88573.600000 0 0 1
14.712520 28.152918 0.956816 31.779876 1.089238 1.540684 0.078214 -0.022468 223115.000000 0 0 1
14.605820 26.832118 0.440416 30.553011 1.072308 1.556381 0.062074 -0.013651 -25591.300000 0 0 1
15.707820 26.510618 -0.573684 30.820084 1.035902 1.589411 0.070058 -0.019778 2824.640000 0 0 1
15.432720 27.139318 -1.783684 31.271280 1.053749 1.627866 0.072858 -0.011758 -584001.000000 0 0 1
16.376420 26.854218 -2.780084 31.576337 1.023183 1.658954 0.071865 -0.011404 -266697.000000 0 0 1
16.042120 27.399318 -4.176784 32.023706 1.041112 1.701597 0.088441 -0.015556 -554651.000000 0 0 1
15.020320 26.660418 -4.767884 30.969673 1.057728 1.725364 0.101456 -0.016244 -597665.000000 0 0 1
14.804520 26.954818 -6.159684 31.363637 1.068541 1.768477 0.090371 -0.007314 -233921.000000 0 0 1
13.449920 26.459618 -6.652584 30.418228 1.100516 1.791282 0.090868 -0.017374 -235917.000000 0 0 1
13.315320 25.091618 -6.961684 29.246403 1.082916 1.811139 0.109883 -0.023550 -86558.400000 0 0 1
12.077420 24.882718 -7.618084 28.688830 1.118918 1.839562 0.100295 -0.017358 212535.000000 0 0 1
11.893420 23.433218 -8.164184 27.517686 1.101131 1.872020 0.102038 -0.025840 136849.000000 0 0 1
12.512920 23.205718 -9.436784 28.002347 1.076269 1.914525 0.103465 -0.027787 267978.000000 0 0 1
12.262320 21.814218 -9.719684 26.845798 1.058692 1.941269 0.100960 -0.027378 237735.000000 0 0 1
12.895120 21.337618 -11.098984 27.290392 1.027194 1.989635 0.100972 -0.023248 505301.000000 0 0 1
12.339020 20.086018 -11.601184 26.273314 1.019922 2.028130 0.106536 -0.028623 -8567.400000 0 0 1
12.482720 20.092918 -12.990384 26.986918 1.014898 2.073000 0.107591 -0.021770 376293.000000 0 0 1
13.811520 19.449518 -13.478384 27.399064 0.953310 2.085100 0.088329 -0.023095 1004230.000000 0 0 1
14.980620 20.256318 -13.258284 28.469624 0.934015 2.055221 0.076408 -0.020753 241560.000000 0 0 1
16.145520 19.658818 -13.783384 28.933175 0.883210 2.067337 0.079942 -0.017596 870196.000000 0 0 1
17.436320 20.552818 -13.646484 30.210431 0.867251 2.039482 0.071253 -0.014084 281468.000000 0 0 1
17.525520 21.731618 -14.464984 31.442692 0.892133 2.048840 0.065367 -0.016170 203033.000000 0 0 1
16.507820 22.738918 -14.357784 31.554912 0.942851 2.043179 0.062473 -0.014043 596957.000000 0 0 1
17.097320 24.130518 -14.824284 33.081107 0.954365 2.035457 0.049137 -0.020185 134534.000000 0 0 1
17.310820 24.219518 -16.188784 33.886963 0.950242 2.068864 0.040281 -0.018288 377953.000000 0 0 1
16.090020 24.344018 -16.950084 33.746486 0.986766 2.097026 0.070859 -0.018150 878151.000000 0 0 1
16.268620 24.335618 -18.472484 34.613913 0.981518 2.133733 0.050931 -0.015130 93674.600000 0 0 1
16.591320 23.004318 -18.927584 34.098739 0.945966 2.159257 0.055300 -0.011389 -48102.000000 0 0 1
16.735420 22.930618 -20.348484 34.927759 0.940330 2.192705 0.055071 -0.006299 -168447.000000 0 0 1
17.038320 21.507618 -20.820384 34.443728 0.900830 2.219903 0.065400 -0.006498 979544.000000 0 0 1
15.858920 20.668518 -21.008384 33.467076 0.916316 2.249434 0.072592 -0.005552 1234210.000000 0 0 1
16.277220 19.492618 -21.595684 33.335921 0.875049 2.275516 0.065121 -0.014526 -43616.500000 0 0 1
15.123520 18.482118 -21.630784 32.221117 0.885009 2.306789 0.067026 -0.010582 -861667.000000 0 0 1
14.747120 18.045118 -20.341384 30.933408 0.885634 2.288407 0.069756 -0.015917 476711.000000 0 0 1
13.723120 17.058318 -20.506484 29.997102 0.893328 2.323501 0.067601 -0.015979 613937.000000 0 0 1
12.268320 17.578718 -20.698484 29.798494 0.961476 2.338681 0.072733 -0.012195 -126280.000000 0 0 1
11.387820 17.059618 -19.693384 28.434880 0.982196 2.335854 0.079180 -0.015657 -584388.000000 0 0 1
10.074820 17.101218 -20.129884 28.269522 1.038409 2.363239 0.063730 -0.014405 -400297.000000 0 0 1
8.968420 16.668818 -19.136284 26.916156 1.077185 2.361657 0.072516 -0.024907 -200680.000000 0 0 1
8.734120 15.237218 -18.931484 25.823609 1.050309 2.393676 0.085275 -0.035749 -289644.000000 0 0 1
7.491520 14.871018 -18.388584 24.807460 1.104140 2.405730 0.079804 -0.039135 -120726.000000 0 1 0
7.258120 15.323518 -16.929984 23.960695 1.128443 2.355440 0.083479 -0.038249 -147286.000000 0 1 0
7.156820 16.662018 -16.791484 24.714305 1.165096 2.317773 0.090016 -0.026263 -557220.000000 0 1 0
6.298120 16.906218 -15.721184 23.929943 1.214190 2.287585 0.070620 -0.025848 -468971.000000 0 1 0
6.114220 18.362618 -15.298084 24.669836 1.249372 2.239683 0.071573 -0.015139 -130030.000000 0 1 0
7.311520 19.048518 -14.993984 25.320425 1.204301 2.204545 0.072358 -0.014655 -129310.000000 0 0 1
7.748920 19.877218 -16.092384 26.722919 1.199080 2.217043 0.094182 -0.007004 -254274.000000 0 0 1
8.946320 20.779318 -15.771484 27.578187 1.164243 2.179595 0.089253 -0.009367 -386109.000000 0 0 1
8.881820 21.957218 -14.894184 27.979329 1.186412 2.132145 0.096036 -0.013148 -153491.000000 0 0 1
8.449920 21.762218 -13.537984 26.986521 1.200431 2.096310 0.074901 -0.010964 32640.400000 0 0 1
8.219920 23.035418 -12.692984 27.555570 1.228042 2.049504 0.087778 -0.016668 466383.000000 0 0 1
6.929920 23.561818 -13.052284 27.812680 1.284746 2.059286 0.073212 -0.005128 665059.000000 0 0 1
6.360820 24.493918 -12.104284 28.052197 1.316719 2.016942 0.060714 -0.011390 203234.000000 0 0 1
5.866820 24.030118 -10.742284 26.967811 1.331336 1.980500 0.057769 -0.019076 -489496.000000 0 0 1
6.884520 23.770318 -9.814084 26.622188 1.288883 1.948345 0.055362 -0.020863 -149767.000000 0 0 1
6.367820 22.966018 -8.766684 25.393737 1.300320 1.923280 0.051360 -0.026860 -172425.000000 0 0 1
7.286720 22.903918 -7.578884 25.201691 1.262779 1.876253 0.048114 -0.029088 -322963.000000 0 0 1
7.383520 24.225818 -6.943084 26.260485 1.274961 1.838371 0.041825 -0.026127 -93721.600000 0 0 1
8.357420 24.226918 -5.937884 26.306815 1.238615 1.798475 0.051037 -0.024564 -133046.000000 0 0 1
8.528220 25.670118 -5.432784 27.589865 1.250045 1.769004 0.038200 -0.017586 224443.000000 0 0 1
9.092520 26.632618 -6.356884 28.851001 1.241799 1.792954 0.064292 -0.020880 235873.000000 0 0 1
9.459020 27.849718 -5.707984 29.960990 1.243376 1.762482 0.058210 -0.019693 268023.000000 0 0 1
9.854620 28.962318 -6.717784 31.321846 1.242828 1.786952 0.070502 -0.010752 -378526.000000 0 0 1
11.049920 28.806918 -7.393484 31.727005 1.204520 1.805993 0.086773 -0.014024 -930956.000000 0 0 1
11.401320 29.966118 -8.089384 33.066546 1.207235 1.817944 0.097232 -0.013902 401894.000000 0 0 1
12.785620 29.944018 -8.822684 33.733604 1.167246 1.835414 0.100999 -0.014250 862516.000000 0 0 1
13.822220 29.978118 -7.841284 33.929737 1.138769 1.804008 0.079978 -0.009304 237162.000000 0 0 1
15.003420 30.590918 -8.398084 35.091804 1.114815 1.812459 0.075565 -0.012076 552101.000000 0 0 1
16.105020 30.799618 -7.358884 35.526628 1.089000 1.779444 0.068977 -0.012514 -81955.700000 0 0 1
16.861820 29.627318 -7.066684 34.814321 1.053384 1.775199 0.063023 -0.009463 -1173950.000000 0 0 1
18.025120 30.020618 -6.467384 35.608560 1.030065 1.753434 0.059182 -0.000749 -211101.000000 0 0 1
19.161020 28.925618 -6.324184 35.267994 0.985737 1.751089 0.058385 -0.002662 303602.000000 0 0 1
18.898320 27.916618 -5.339084 34.131948 0.975704 1.727866 0.076091 -0.008148 761576.000000 0 0 1
19.947320 26.908218 -5.106284 33.882472 0.932880 1.722078 0.078571 -0.008373 703533.000000 0 0 1
20.049920 25.793618 -6.147284 33.243031 0.910038 1.756786 0.079964 -0.003058 -111124.000000 0 0 1
20.510220 26.151218 -7.425384 34.054246 0.905706 1.790608 0.066299 0.003905 214022.000000 0 0 1
20.483320 25.090918 -8.307084 33.438424 0.886157 1.821855 0.060017 -0.004826 -711534.000000 0 0 1
21.132520 25.497518 -9.664984 34.498098 0.878735 1.854757 0.059514 -0.007367 242328.000000 0 0 1
22.530220 25.634118 -9.726884 35.487055 0.849753 1.848447 0.060126 -0.007755 153335.000000 0 0 1
23.321820 24.425118 -9.577384 35.102991 0.808501 1.847137 0.074840 -0.010597 -648375.000000 0 0 1
24.771220 24.829618 -9.353784 36.298988 0.786576 1.831424 0.044825 -0.011856 -260250.000000 0 0 1
25.515720 25.118618 -10.570484 37.332721 0.777556 1.857866 0.048542 -0.011144 404769.000000 0 0 1
26.893620 25.257218 -10.264384 38.295580 0.754030 1.842144 0.043076 -0.000844 374370.000000 0 0 1
27.844720 25.342618 -11.482184 39.362638 0.738390 1.866803 0.053733 -0.004535 39908.600000 0 0 1
27.556720 26.399718 -12.339284 40.107055 0.763958 1.883528 0.057204 -0.004003 -208972.000000 0 0 1
28.239020 26.211218 -13.556384 40.844164 0.748174 1.909119 0.056093 -0.008429 139813.000000 0 0 1
28.011820 27.334618 -14.576484 41.765025 0.773163 1.927313 0.055907 -0.008710 194663.000000 0 0 1
28.619020 28.566718 -14.221884 42.864527 0.784484 1.908993 0.060246 -0.006673 99950.600000 0 0 1
28.143020 29.615918 -15.074784 43.547460 0.810893 1.924281 0.057139 -0.006919 157387.000000 0 0 1
28.653120 31.103818 -14.766184 44.793850 0.826386 1.906727 0.056137 -0.010646 186291.000000 0 0 1
30.058820 31.241018 -14.789784 45.806895 0.804681 1.899559 0.056000 -0.011646 -72688.300000 0 0 1
30.351620 32.621618 -14.750984 46.935939 0.821430 1.890494 0.053148 -0.019495 -202161.000000 0 0 1
16.033820 -31.691653 -27.830384 45.121775 -1.102414 2.235447 0.105443 -0.057183 -602145.000000 0 0 1
17.123520 -32.509353 -27.577124 45.940949 -1.085997 2.214639 0.088612 -0.039274 -455094.000000 0 0 1
17.425120 -32.400053 -26.203694 45.166712 -1.077359 2.189715 0.093530 -0.045602 7938.700000 0 0 1
18.719420 -33.218953 -25.870464 46.078156 -1.057635 2.166930 0.042891 -0.038220 1104160.000000 0 0 1
19.992820 -32.651153 -26.214984 46.400820 -1.021370 2.171191 0.061964 -0.042756 823049.000000 0 0 1
20.334820 -33.015153 -27.504274 47.539356 -1.018750 2.187756 0.067706 -0.036587 -751957.000000 0 0 1
21.798420 -32.690953 -27.857334 48.165347 -0.982699 2.187524 0.065066 -0.035657 -131187.000000 0 0 1
22.088320 -31.333653 -28.097254 47.530489 -0.956763 2.203270 0.076323 -0.049545 -734321.000000 0 0 1
23.430620 -31.168653 -27.797964 47.887428 -0.926185 2.190121 0.041874 -0.039096 -846966.000000 0 0 1
24.128020 -29.896653 -28.390954 47.770467 -0.891773 2.207216 0.027077 -0.023675 32835.700000 0 0 1
24.308320 -29.988253 -29.801094 48.767766 -0.889628 2.228223 0.025969 -0.023454 -555683.000000 0 0 1
25.091220 -28.940053 -30.187194 48.768460 -0.856511 2.238253 0.028273 -0.024773 -370672.000000 0 0 1
25.466320 -28.924253 -31.687154 49.892100 -0.848889 2.258952 0.033962 -0.021072 64183.100000 0 0 1
26.375620 -29.960753 -31.957814 51.133374 -0.848950 2.245914 0.039620 -0.029948 -367276.000000 0 0 1
26.516520 -30.218453 -33.314744 52.212575 -0.850555 2.262772 0.039899 -0.032624 373630.000000 0 0 1
27.798920 -31.032853 -33.683244 53.575917 -0.840312 2.250678 0.032799 -0.031834 533450.000000 0 0 1
28.996620 -30.303353 -33.542434 53.704675 -0.807431 2.245380 0.037428 -0.029573 629276.000000 0 0 1
30.142420 -31.042553 33.954161 55.000824 -0.800109 0.905440 0.043783 -0.020815 1682360.000000 0 0 1
31.463120 -30.199853 -34.000244 55.298966 -0.764914 2.232985 0.046536 -0.027724 422251.000000 0 0 1
31.442620 -29.043453 33.171768 54.152809 -0.745754 0.911503 0.052359 -0.026749 -307074.000000 0 0 1
32.739520 -28.789053 32.692898 54.493223 -0.721281 0.927365 0.058901 -0.027050 -151839.000000 0 0 1
32.799420 -27.586553 31.753566 53.339562 -0.699286 0.933145 0.060542 -0.026802 233965.000000 0 0 1
34.145720 -27.210853 31.485116 53.830040 -0.672850 0.946041 0.046703 -0.030919 489143.000000 0 0 1
34.145420 -26.262853 30.438346 52.745996 -0.655643 0.955655 0.073385 -0.026777 -282304.000000 0 0 1
34.692920 -26.807153 29.109446 52.626818 -0.657870 0.984680 0.070299 -0.024262 -127453.000000 0 0 1
33.915620 -27.750553 28.370766 52.204050 -0.685754 0.996244 0.071894 -0.030005 -44764.900000 0 0 1
32.761020 -27.275353 27.757986 50.869786 -0.694279 0.993611 0.076759 -0.029505 -283809.000000 0 0 1
32.006420 -28.273853 26.840376 50.440336 -0.723557 1.009692 0.061404 -0.027875 1118720.000000 0 0 1
30.673720 -27.923053 26.404466 49.170823 -0.738490 1.003926 0.056896 -0.011802 1097070.000000 0 0 1
30.173720 -28.950353 25.541656 48.999516 -0.764710 1.022466 0.037550 -0.001413 269383.000000 0 0 1
28.846920 -28.571053 24.814666 47.583795 -0.780594 1.022195 0.034566 0.002471 496864.000000 0 0 1
27.786020 -28.493053 25.757196 47.406225 -0.797960 0.996398 0.037587 -0.001107 -13891.700000 0 0 1
26.559420 -28.219453 25.120736 46.182158 -0.815693 0.995660 0.037940 0.006573 287147.000000 0 0 1
25.330220 -28.050553 26.043606 45.899052 -0.836315 0.967439 0.042645 0.004471 72399.400000 0 0 1
25.393020 -26.917353 26.929186 45.766040 -0.814530 0.941706 0.033252 -0.004928 -195747.000000 0 0 1
24.280020 -26.828153 27.779816 45.617840 -0.835215 0.916037 0.046119 -0.014452 -295103.000000 0 0 1
24.113120 -25.486953 28.533956 45.224042 -0.813089 0.888024 0.045660 -0.003365 -710045.000000 0 0 1
23.064820 -25.520253 29.459786 45.289604 -0.835894 0.862586 0.063569 0.001865 -252818.000000 0 0 1
22.927420 -24.360853 30.322786 45.150738 -0.815702 0.834444 0.060093 -0.002324 -359428.000000 0 0 1
22.279920 -23.094053 29.650996 43.691094 -0.803339 0.824872 0.057827 -0.007026 -239381.000000 0 0 1
22.931720 -22.665153 28.434896 42.989723 -0.779552 0.848066 0.072568 -0.012934 236207.000000 0 0 1
22.666920 -21.335153 28.041776 41.896530 -0.755141 0.837516 0.081232 -0.011459 -86551.000000 0 0 1
23.593920 -20.303953 28.723586 42.355259 -0.710592 0.825542 0.087506 -0.014400 -159370.000000 0 0 1
23.361320 -20.121453 30.105616 43.092601 -0.711026 0.797321 0.100800 -0.011929 -303904.000000 0 0 1
24.160920 -19.161753 30.699866 43.513269 -0.670513 0.787627 0.108379 -0.013069 -596226.000000 0 0 1
23.657720 -18.731753 32.095908 44.053531 -0.669710 0.754570 0.146057 -0.027946 -245192.000000 0 0 1
23.645620 -19.827453 32.996475 45.177546 -0.697795 0.751928 0.090540 -0.020672 276163.000000 0 0 1
23.002420 -19.420053 -33.843114 45.294660 -0.701153 2.414600 0.102388 -0.024912 -17279.100000 0 0 1
22.991720 -20.567553 -32.893554 45.095780 -0.729803 2.388263 0.062781 -0.016050 22286.200000 0 0 1
24.144620 -20.710353 -32.098354 45.190550 -0.708983 2.360705 0.049990 0.003640 -95579.800000 0 0 1
23.953720 -21.836253 -31.231704 45.011354 -0.739188 2.337636 0.050965 0.005788 320196.000000 0 0 1
25.090020 -22.055653 -30.175774 45.017089 -0.721125 2.305434 0.029210 0.010982 -45834.700000 0 0 1
26.141920 -22.778153 -30.730194 46.331297 -0.716746 2.295977 0.029186 0.012267 -807802.000000 0 0 1
27.120420 -23.060953 -29.742884 46.389265 -0.704678 2.266804 0.028385 0.010566 -390319.000000 0 0 1
28.214120 -23.953753 -30.314794 47.841463 -0.703913 2.257060 0.021489 0.011409 -405927.000000 0 0 1
29.227920 -23.232053 -31.005114 48.531605 -0.671598 2.263818 0.024190 0.014441 129548.000000 0 0 1
29.122020 -23.303853 -32.397324 49.403930 -0.674872 2.285991 0.025707 0.009122 -17277.500000 0 0 1
29.591920 -24.610053 -33.071544 50.745084 -0.693743 2.280645 0.022529 -0.001087 -166207.000000 0 0 1
28.755820 -25.718453 -32.822744 50.652429 -0.729698 2.275751 0.043161 -0.010160 -341887.000000 0 0 1
29.111120 -26.904753 -33.424434 51.850900 -0.746030 2.271330 0.044411 -0.018139 -117614.000000 0 0 1
28.826820 -27.255353 33.065840 51.644841 -0.757385 0.875967 0.045003 -0.013368 -159521.000000 0 0 1
29.392120 -26.386553 32.087279 50.889492 -0.731566 0.888562 0.025721 -0.018262 -252764.000000 0 0 1
28.887220 -26.504253 30.799046 49.855071 -0.742404 0.904891 0.033290 -0.015642 -606660.000000 0 0 1
29.700620 -25.768053 29.716316 49.286700 -0.714620 0.923631 0.043473 -0.020708 -188297.000000 0 0 1
29.853820 -24.356853 29.716376 48.657680 -0.684343 0.913823 0.037753 -0.025086 86341.100000 0 0 1
30.281020 -23.762053 30.928586 49.377655 -0.665353 0.893911 0.034561 -0.015312 -1380600.000000 0 0 1
30.789620 -22.316253 30.714426 48.881406 -0.627176 0.891371 0.037566 -0.004643 1011310.000000 0 0 1
32.121120 -22.238953 30.183956 49.370118 -0.605571 0.912992 0.043773 -0.009876 1298460.000000 0 0 1
33.184320 -22.674753 31.054836 50.791204 -0.599428 0.912941 0.036820 -0.013215 -420079.000000 0 0 1
34.577020 -22.174653 30.656026 51.255024 -0.570243 0.929658 0.045569 -0.025678 -244010.000000 0 0 1
35.118520 -22.734053 29.488636 51.183271 -0.574512 0.956800 0.059962 -0.031117 -173700.000000 0 0 1
36.321020 -22.072853 29.180206 51.554939 -0.546073 0.969148 0.054124 -0.034242 -81347.000000 0 0 1
36.832420 -22.358353 27.748396 51.249357 -0.545572 0.998649 0.070401 -0.031152 -120102.000000 0 0 1
-36.516216 -23.678753 27.587696 51.528616 0.575281 1.005832 0.068719 -0.029982 107465.000000 0 0 1
-36.277616 -23.847253 26.210366 50.712327 0.581528 1.027636 0.063011 -0.022062 -171423.000000 0 0 1
-36.099916 -25.352553 25.901226 51.154954 0.612260 1.039874 0.058998 -0.023101 807045.000000 0 0 1
36.494220 -26.098053 26.022686 51.866335 -0.620807 1.045203 0.068597 -0.022119 867702.000000 0 0 1
36.556820 -27.519053 25.779496 52.519347 -0.645275 1.057723 0.072867 -0.019336 581478.000000 0 0 1
-36.310816 -28.336653 26.763256 53.270190 0.662670 1.044417 0.075415 -0.023014 388397.000000 0 0 1
-35.834816 -29.542953 26.119466 53.283643 0.689455 1.058481 0.075415 -0.018998 204379.000000 0 0 1
-34.577016 -29.981053 26.574866 52.921234 0.714327 1.044703 0.077763 -0.028686 -497256.000000 0 0 1
-33.367316 -29.346353 25.946876 51.457036 0.721370 1.042291 0.085779 -0.022251 -1375190.000000 0 0 1
-33.127616 -29.605253 24.615856 50.792227 0.729308 1.064847 0.087159 -0.012930 110501.000000 0 0 1
-32.003616 -28.830553 24.233136 49.423447 0.733286 1.058343 0.072010 -0.012992 337575.000000 0 0 1
-31.332316 -29.134153 22.839916 48.499223 0.749061 1.080448 0.076192 -0.018160 284611.000000 0 0 1
-30.732416 -30.443953 22.824316 48.910787 0.780683 1.085295 0.091522 -0.017362 356607.000000 0 0 1
-30.327116 -30.660153 21.502516 48.188558 0.790859 1.108264 0.078235 -0.017701 -619626.000000 0 0 1
-30.135716 -32.148153 21.148616 48.876672 0.817698 1.123318 0.096394 -0.008745 1610180.000000 0 0 1
-28.977616 -32.761153 21.843116 48.888824 0.846605 1.107620 0.094474 -0.015090 2102890.000000 0 0 1
-27.689216 -32.498853 21.254916 47.693182 0.865139 1.108886 0.119111 -0.011581 506415.000000 0 0 1
-26.774216 -33.731853 21.212516 48.006951 0.899886 1.113122 0.107440 -0.004596 -261370.000000 0 0 1
-27.200816 33.374218 20.261516 47.584155 -0.886961 1.130946 0.089863 -0.005623 753901.000000 0 0 1
-28.443616 32.668118 20.444616 47.898095 -0.854416 1.129806 0.097624 -0.006298 718879.000000 0 0 1
-28.378016 31.562718 21.549616 47.601501 -0.838479 1.100995 0.098211 -0.009637 -364727.000000 0 0 1
-27.761316 30.378518 21.183316 46.284748 -0.830383 1.095419 0.089438 -0.008787 -117385.000000 0 0 1
-27.916616 29.476318 22.220916 46.281312 -0.812567 1.069997 0.084143 -0.010645 222496.000000 0 0 1
-27.030416 28.240618 21.868916 44.793139 -0.807290 1.060747 0.083260 -0.013733 -15100.800000 0 0 1
-25.665216 28.525518 21.887716 44.175565 -0.838131 1.052419 0.089121 -0.018447 -86866.400000 0 0 1
-24.770916 27.578718 21.273516 42.740454 -0.838982 1.049808 0.073517 -0.019047 741014.000000 0 0 1
-23.285216 28.001118 21.345116 42.212295 -0.877093 1.040648 0.053349 -0.012087 -112435.000000 0 0 1
-22.779916 28.038718 22.641216 42.634715 -0.888513 1.010956 0.049321 -0.016860 304447.000000 0 0 1
-21.387116 28.290918 22.596316 42.052090 -0.923485 1.003515 0.067270 -0.027485 -117921.000000 0 0 1
-20.783216 28.325418 23.993556 42.543649 -0.937789 0.971605 0.055253 -0.025786 -813263.000000 0 0 1
-20.638016 27.095018 24.587586 42.007345 -0.919855 0.945526 0.064529 -0.035865 267397.000000 0 0 1
-20.423816 27.310318 26.012416 42.890925 -0.928677 0.919173 0.067306 -0.032440 -117685.000000 0 0 1
-19.003816 27.671718 26.519696 42.780407 -0.969012 0.902177 0.074388 -0.021656 -543321.000000 0 0 1
-18.632516 29.011618 26.380866 43.414222 -0.999893 0.917692 0.041033 -0.026054 707449.000000 0 0 1
-17.306916 29.321018 26.832496 43.350135 -1.037572 0.903364 0.046708 -0.019764 316299.000000 0 0 1
-17.203916 29.575518 28.340016 44.427947 -1.043946 0.879045 0.024842 -0.012888 -608182.000000 0 0 1
-17.207716 28.307618 29.004276 44.030384 -1.024601 0.851663 0.038650 -0.016401 158296.000000 0 0 1
-17.386016 28.447518 30.352426 45.086634 -1.022211 0.832265 0.039092 -0.009478 -126236.000000 0 0 1
-17.235316 27.094618 31.143246 44.733390 -1.004244 0.800710 0.053858 -0.012441 233596.000000 0 0 1
-15.920416 26.941718 31.667746 44.521477 -1.037080 0.779463 0.054773 -0.004490 393118.000000 0 0 1
-15.693416 25.853718 32.579116 44.453310 -1.025240 0.748245 0.075816 -0.005818 -88575.600000 0 0 1
-16.180616 26.049518 -33.990654 45.779409 -1.014972 2.407573 0.063812 -0.005792 134397.000000 0 0 1
-17.563116 25.877018 -33.765774 46.024022 -0.974499 2.394482 0.065609 -0.013223 -50294.100000 0 0 1
-18.179216 26.780318 -32.840654 46.110496 -0.974422 2.363447 0.064145 -0.020433 -544964.000000 0 0 1
-19.546716 26.283918 -32.454534 46.110901 -0.931355 2.351580 0.042827 -0.019745 -1164280.000000 0 0 1
-20.456016 26.275918 -33.497714 47.233138 -0.909298 2.359158 0.040194 -0.016912 -257672.000000 0 0 1
-21.707116 25.738818 -33.117744 47.227858 -0.870169 2.347922 0.062574 -0.026855 304498.000000 0 0 1
-22.917816 25.853618 33.948260 48.436765 -0.845521 0.794169 0.060444 -0.037647 -479717.000000 0 0 1
-22.991716 24.950518 32.861497 47.233730 -0.826233 0.801373 0.070816 -0.029662 3448.650000 0 0 1
-23.135416 23.519718 33.164196 46.779146 -0.793635 0.782784 0.078261 -0.030398 -197823.000000 0 0 1
-23.683616 22.781218 31.913076 45.807662 -0.765980 0.800044 0.077863 -0.030757 194761.000000 0 0 1
-25.070816 22.873218 31.673986 46.421668 -0.739593 0.819878 0.071920 -0.029936 -267106.000000 0 0 1
-25.441116 22.561618 30.338696 45.570971 -0.725484 0.842303 0.093233 -0.027499 410008.000000 0 0 1
-26.868716 22.021518 30.081186 45.953812 -0.686577 0.857148 0.064887 -0.019734 82136.800000 0 0 1
-27.132916 20.836818 30.739166 45.992004 -0.654893 0.838796 0.077389 -0.027665 99365.000000 0 0 1
-28.302816 20.182518 30.267966 46.092658 -0.619459 0.854393 0.059801 -0.019612 124561.000000 0 0 1
-28.452616 18.838518 30.953116 46.070994 -0.584835 0.834083 0.085742 -0.028645 -298384.000000 0 0 1
-29.061516 18.840518 32.236435 47.315162 -0.575178 0.821241 0.089785 -0.029926 203355.000000 0 0 1
-29.249716 17.498118 32.785467 47.292883 -0.539119 0.804817 0.072208 -0.014865 -72533.200000 0 0 1
-30.260116 16.549118 32.116099 47.127399 -0.500457 0.821021 0.054416 -0.017587 233352.000000 0 0 1
-31.629216 16.949218 32.093950 48.142547 -0.491932 0.841099 0.060896 -0.019366 753972.000000 0 0 1
-32.440516 15.931618 31.488846 47.934861 -0.456504 0.854084 0.073897 -0.011416 -330530.000000 0 0 1
-33.899716 16.331018 31.319036 48.956867 -0.448937 0.876653 0.065885 -0.000451 -479815.000000 0 0 1
-34.573316 16.445818 32.559259 50.258177 -0.444003 0.866051 0.076241 -0.004018 880323.000000 0 0 1
-36.004616 16.417518 32.525196 51.222608 -0.427819 0.882817 0.077678 -0.009578 687531.000000 0 0 1
-36.582316 16.750518 33.917368 52.623507 -0.429392 0.870389 0.079565 -0.001324 -953668.000000 0 0 1
35.923120 17.131618 33.894886 52.276440 0.444995 0.865345 0.066820 -0.000601 -1166490.000000 0 0 1
35.542420 17.576518 -32.885064 51.513348 0.459256 2.263187 0.049774 -0.005662 54033.100000 0 0 1
34.016820 17.728618 -32.678574 50.391836 0.480441 2.276395 0.043660 -0.005263 197920.000000 0 0 1
33.444920 16.425718 -32.791654 49.635264 0.456524 2.292484 0.047279 0.006521 467417.000000 0 0 1
32.062120 16.495918 -32.435574 48.499086 0.475179 2.303373 0.038145 0.011329 386723.000000 0 0 1
31.246820 15.207618 -32.489784 47.573328 0.452946 2.322578 0.032062 0.012309 -183271.000000 0 0 1
31.034520 14.821118 -33.820874 48.235449 0.445542 2.347823 0.043393 -0.001745 28686.300000 0 0 1
30.413720 13.519918 -33.957364 47.548766 0.418299 2.366218 0.039723 -0.004594 474662.000000 0 0 1
31.367220 12.267718 -33.889314 47.779546 0.372810 2.359280 0.039497 -0.008080 272840.000000 0 0 1
31.796120 11.947118 -32.585344 47.069433 0.359420 2.335444 0.045975 0.005106 270988.000000 0 0 1
32.910220 11.075318 -32.740564 47.725149 0.324626 2.326806 0.068982 -0.005650 -660.205000 0 0 1
17.860820 -21.007282 10.056436 29.350412 -0.866174 1.221078 0.064689 -0.027608 -78033.100000 0 0 1
17.724120 -22.216282 10.772936 30.393482 -0.897399 1.208472 0.075280 -0.028471 50983.900000 0 0 1
18.914920 -22.867682 11.173836 31.710561 -0.879721 1.210694 0.061654 -0.026251 89964.400000 0 0 1
18.550620 -24.249282 11.765136 32.719591 -0.917766 1.202984 0.065891 -0.031284 119292.000000 0 0 1
18.025620 -25.151252 10.839436 32.787221 -0.948957 1.233858 0.068885 -0.029560 163777.000000 0 0 1
16.710420 -25.564922 11.198636 32.530183 -0.991862 1.219353 0.086110 -0.025608 564029.000000 0 0 1
15.924120 -26.464122 10.168236 32.516463 -1.029110 1.252751 0.090203 -0.031866 93156.600000 0 0 1
15.478820 -25.735602 9.094436 31.378716 -1.029307 1.276749 0.073373 -0.031061 15819.500000 0 0 1
14.944820 -26.533542 8.053736 31.499828 -1.057843 1.312250 0.083395 -0.026181 -92034.200000 0 0 1
14.723720 -25.840092 6.678336 30.481116 -1.052878 1.349907 0.079868 -0.024930 -39235.200000 0 0 1
13.775620 -24.831982 6.927736 29.229926 -1.064311 1.331511 0.078244 -0.029888 117525.000000 0 0 1
13.308620 -24.203282 5.702736 28.203536 -1.068054 1.367193 0.069429 -0.014901 42882.700000 0 0 1
12.825320 -22.803382 6.030336 26.848613 -1.058460 1.344259 0.086555 -0.020260 -373493.000000 0 0 1
12.202720 -22.185582 4.973236 25.803866 -1.067931 1.376851 0.084895 -0.015449 -495578.000000 0 0 1
11.684720 -20.917682 5.325036 24.544615 -1.061371 1.352104 0.098362 -0.019006 -64075.400000 0 1 0
10.710820 -20.497982 4.205336 23.506888 -1.089287 1.390930 0.076833 -0.017476 -34162.500000 0 1 0
11.373020 -20.131382 2.988536 23.314148 -1.056555 1.442257 0.057359 -0.009677 -279802.000000 0 1 0
10.506020 -19.693282 1.969336 22.407144 -1.080723 1.482794 0.044998 0.005688 -536909.000000 0 1 0
11.242520 -19.206982 0.762736 22.268457 -1.041230 1.536538 0.044615 0.005677 -410277.000000 0 1 0
11.965520 -18.055282 1.062636 21.686311 -0.985534 1.521776 0.042072 0.005538 -479896.000000 0 1 0
12.623320 -17.806082 -0.184164 21.827475 -0.954100 1.579234 0.047746 -0.003648 523716.000000 0 1 0
13.944820 -16.959782 -0.155064 21.957146 -0.882647 1.577859 0.056477 0.001710 6625.200000 0 1 0
14.988720 -17.564582 0.526836 23.096619 -0.864361 1.547984 0.062012 -0.003134 -763451.000000 0 1 0
16.139620 -16.795582 0.201836 23.294198 -0.805312 1.562132 0.065372 -0.013168 727540.000000 0 1 0
17.399420 -17.271682 1.025636 24.537782 -0.781714 1.528986 0.058927 -0.010633 431497.000000 0 1 0
17.947820 -18.497782 0.643936 25.781909 -0.800487 1.545817 0.057272 -0.014575 50852.200000 0 0 1
19.200120 -18.758182 1.252536 26.871599 -0.773756 1.524168 0.054974 -0.011390 438484.000000 0 0 1
19.667520 -20.116082 0.766936 28.143495 -0.796673 1.543542 0.038950 -0.014601 633013.000000 0 0 1
18.694020 -21.106582 1.174436 28.219382 -0.845940 1.529166 0.041538 -0.008639 586802.000000 0 0 1
18.951320 -22.338882 0.496936 29.298893 -0.867258 1.553835 0.051617 -0.006060 146907.000000 0 0 1
17.798520 -23.375882 0.594336 29.386603 -0.920036 1.550570 0.050125 -0.002778 93180.800000 0 0 1
17.664920 -23.990582 1.859036 29.850518 -0.936103 1.508478 0.034858 -0.004720 -269114.000000 0 0 1
16.580820 -24.885882 1.903436 29.964208 -0.983066 1.507230 0.035454 -0.003626 -495244.000000 0 0 1
16.572020 -25.931452 3.058836 30.926179 -1.002143 1.471727 0.038209 -0.010520 605372.000000 0 0 1
17.732320 -26.775272 3.157936 32.269536 -0.985847 1.472778 0.050760 -0.015907 1588610.000000 0 0 1
18.845620 -26.128162 3.890836 32.449605 -0.945933 1.450603 0.042063 -0.008258 859938.000000 0 0 1
20.059920 -27.078622 3.955236 33.930754 -0.933207 1.453963 0.049829 -0.008974 -238177.000000 0 0 1
20.652720 -27.306432 2.692736 34.342785 -0.923255 1.492308 0.051920 -0.004741 -286177.000000 0 0 1
21.613220 -28.339332 2.725236 35.744593 -0.919243 1.494480 0.069578 -0.005000 -555748.000000 0 0 1
21.115120 -29.771142 2.774036 36.604159 -0.953891 1.494939 0.072102 -0.004115 -278992.000000 0 0 1
20.987820 -30.233562 4.092336 37.031123 -0.963981 1.460059 0.080528 -0.016180 -10130.000000 0 0 1
20.329620 -31.494202 4.101536 37.709426 -0.997589 1.461814 0.066191 -0.020986 -95156.900000 0 0 1
19.863820 -31.950142 5.500036 38.021485 -1.014564 1.425631 0.082215 -0.026348 -575654.000000 0 0 1
20.871720 -32.364712 6.361236 39.032917 -0.998021 1.407095 0.063585 -0.032615 -703753.000000 0 0 1
20.422820 -32.980212 7.549136 39.519304 -1.016346 1.378591 0.067331 -0.035118 -188033.000000 0 0 1
21.419220 -33.810412 8.382336 40.892426 -1.006101 1.364348 0.062223 -0.031645 -383776.000000 0 0 1
22.441420 -33.080982 9.004236 40.976151 -0.974729 1.349245 0.060541 -0.030578 -200675.000000 0 0 1
23.454420 -33.985572 9.401536 42.349945 -0.966726 1.346935 0.076822 -0.034395 142135.000000 0 0 1
24.592020 -33.318972 10.225636 42.655421 -0.934969 1.328712 0.080470 -0.030261 -41453.200000 0 0 1
25.445620 -32.552572 9.429236 42.379948 -0.907328 1.346426 0.062664 -0.023578 -406844.000000 0 0 1
26.472320 -31.911242 10.117736 42.678797 -0.878289 1.331451 0.058259 -0.018029 -65859.600000 0 0 1
27.184220 -30.856302 9.242336 42.148713 -0.848582 1.349721 0.054204 -0.022556 7632.020000 0 0 1
26.377220 -29.727102 8.986936 40.745838 -0.845035 1.348407 0.039790 -0.023302 -39248.000000 0 0 1
26.979420 -28.927682 7.999936 40.357142 -0.820232 1.371246 0.044638 -0.026439 -105275.000000 0 0 1
26.660920 -27.416512 8.075136 39.085517 -0.799370 1.362696 0.039932 -0.025101 -48895.200000 0 0 1
27.244320 -26.855112 9.233136 39.353536 -0.778204 1.333968 0.039440 -0.030665 -172131.000000 0 0 1
26.823820 -25.511002 9.315036 38.171959 -0.760318 1.324279 0.038394 -0.023188 -254854.000000 0 0 1
27.512820 -24.744882 10.451236 38.451174 -0.732481 1.295528 0.036582 -0.026313 441658.000000 0 0 1
28.891320 -24.609782 10.126536 39.279721 -0.705541 1.310046 0.046827 -0.024684 -451807.000000 0 0 1
29.598320 -23.959482 11.136336 39.675374 -0.680500 1.286287 0.048378 -0.027842 -906705.000000 0 0 1
31.055220 -23.788782 10.806936 40.584760 -0.653673 1.301264 0.058382 -0.029079 -774469.000000 0 0 1
31.102520 -22.880182 9.711136 39.814264 -0.634246 1.324400 0.050597 -0.021436 -482193.000000 0 0 1
32.386420 -22.825482 9.154636 40.665590 -0.613931 1.343730 0.049291 -0.028189 -80763.400000 0 0 1
32.332120 -22.239082 7.708836 39.992111 -0.602513 1.376823 0.055941 -0.004958 -426911.000000 0 0 1
31.855920 -20.921882 7.612236 38.864778 -0.581117 1.373657 0.064675 0.005664 -197992.000000 0 0 1
32.124220 -20.315482 6.381136 38.540929 -0.563906 1.404463 0.062262 -0.001622 -184026.000000 0 0 1
31.797520 -18.821982 6.225036 37.471327 -0.534466 1.403895 0.081453 -0.005972 48310.000000 0 0 1
32.469420 -17.973982 7.141136 37.793162 -0.505577 1.380700 0.084728 -0.004810 -67563.700000 0 0 1
32.227820 -16.589482 6.993636 36.915501 -0.475383 1.380195 0.089904 -0.004530 -60362.400000 0 0 1
32.547820 -15.791882 8.306436 37.117934 -0.451730 1.345100 0.093119 -0.033460 -505294.000000 0 0 1
33.903620 -15.791482 8.609936 38.379127 -0.435895 1.344532 0.089529 -0.022605 -828540.000000 0 0 1
34.230620 -15.147082 9.834936 38.702654 -0.416600 1.313863 0.079519 -0.030259 109719.000000 0 0 1
35.741520 -15.221782 10.150236 40.152039 -0.402620 1.315228 0.060220 -0.032531 130406.000000 0 0 1
36.464220 -14.391982 9.254636 40.279235 -0.375919 1.338963 0.079693 -0.019764 300951.000000 0 0 1
-35.986916 -14.742182 9.279136 39.981150 0.388801 1.336573 0.067190 -0.030174 490431.000000 0 0 1
-35.029816 -13.857382 8.474136 38.612511 0.376697 1.349529 0.078166 -0.027246 -214751.000000 0 0 1
-35.329016 -13.770382 7.082536 38.573632 0.371661 1.386138 0.102013 -0.033404 -168613.000000 0 0 1
-34.392116 -13.029482 6.352736 37.322142 0.362142 1.399750 0.100451 -0.028244 90386.600000 0 0 1
-33.264816 -13.847982 5.673436 36.476053 0.394475 1.414624 0.074857 -0.017273 200576.000000 0 0 1
-32.339616 -14.464182 6.546336 36.026626 0.420572 1.388073 0.080406 -0.015586 814113.000000 0 0 1
-31.369916 -15.356582 5.917336 35.424724 0.455238 1.402970 0.069142 -0.004550 791910.000000 0 0 1
-30.594016 -16.061882 7.056536 35.267160 0.483448 1.369349 0.050452 -0.012566 427013.000000 0 0 1
-31.475816 -17.013082 7.742636 36.607654 0.495530 1.357684 0.069519 -0.021857 660914.000000 0 0 1
-31.250216 -16.961682 9.157936 36.717059 0.497275 1.318716 0.033996 -0.020431 -354739.000000 0 0 1
-32.300216 -17.666682 9.993836 38.148294 0.500500 1.305730 0.016766 -0.025169 209850.000000 0 0 1
-33.607916 -17.003882 9.929336 38.951453 0.468395 1.313036 0.032189 -0.017679 1512600.000000 0 0 1
-34.583416 -17.505982 10.842136 40.249521 0.468592 1.298054 0.047472 -0.031104 272779.000000 0 0 1
-35.092016 -18.937982 10.412536 41.213076 0.494875 1.315377 0.061280 -0.031658 -1117390.000000 0 0 1
-34.288016 -20.081682 10.684236 41.147234 0.529821 1.308128 0.061949 -0.025637 -359031.000000 0 0 1
-33.967716 -20.332882 12.059436 41.384318 0.539385 1.275105 0.057146 -0.042866 -1320160.000000 0 0 1
-35.071616 -21.010182 12.829036 42.848922 0.539732 1.266731 0.074974 -0.048577 -554846.000000 0 0 1
-35.475616 -22.283382 12.398636 43.689754 0.560849 1.283054 0.068816 -0.043728 -825873.000000 0 0 1
-36.569916 -22.154382 11.564236 44.293418 0.544680 1.306653 0.066018 -0.043056 -1210710.000000 0 0 1
36.641320 -23.518682 11.216836 44.961452 -0.570633 1.318656 0.072485 -0.035242 -248641.000000 0 0 1
36.054820 -24.018582 12.388936 45.059162 -0.587658 1.292260 0.115602 -0.031555 -289249.000000 0 0 1
35.585020 -25.331882 12.188136 45.349185 -0.618648 1.298689 0.077772 -0.023377 -804703.000000 0 0 1
34.743020 -25.707262 13.338736 45.231213 -0.637022 1.271444 0.083757 -0.040729 -1179610.000000 0 0 1
33.558520 -24.987682 13.298536 43.902273 -0.640036 1.263049 0.084202 -0.038150 -549140.000000 0 0 1
32.761820 -24.979382 14.489036 43.671942 -0.651424 1.232617 0.082697 -0.022246 -190874.000000 0 0 1
32.557120 -23.545282 14.977136 42.879610 -0.626127 1.213990 0.097344 -0.027798 530893.000000 0 0 1
33.621220 -22.983982 15.767036 43.672065 -0.599645 1.201421 0.094854 -0.032035 874296.000000 0 0 1
34.804920 -22.630982 15.051936 44.159989 -0.576532 1.222975 0.086012 -0.033454 1080410.000000 0 0 1
35.929120 -21.840382 15.866736 44.940597 -0.546189 1.209956 0.084108 -0.037712 890314.000000 0 0 1
35.634620 -20.469782 16.231136 44.184702 -0.521410 1.194641 0.078235 -0.025058 -221252.000000 0 0 1
34.745920 -20.359982 17.298536 43.829752 -0.530038 1.165082 0.082721 -0.023324 -214784.000000 0 0 1
34.742120 -18.967582 17.965436 43.468851 -0.499731 1.144727 0.061449 -0.011301 -389114.000000 0 0 1
34.128220 -17.928582 17.222036 42.222837 -0.483706 1.150661 0.056941 -0.019331 11819.700000 0 0 1
34.082220 -16.655482 17.847536 41.922993 -0.454555 1.131037 0.032523 -0.011507 150877.000000 0 0 1
35.407820 -15.895782 18.150936 42.846774 -0.421967 1.133354 0.026421 -0.014249 220415.000000 0 0 1
36.089020 -16.347682 19.307036 44.072959 -0.425331 1.117346 0.030459 -0.004190 289425.000000 0 0 1
-36.745716 -15.424782 19.738136 44.472076 0.397433 1.110926 0.025438 -0.006002 155933.000000 0 0 1
-36.302916 -15.596082 21.194036 44.836666 0.405769 1.078451 0.021592 0.001911 -250962.000000 0 0 1
-35.409216 -16.652682 21.417036 44.607329 0.439600 1.070001 0.040253 -0.001931 145451.000000 0 0 1
-35.008116 -16.663082 22.783436 44.970117 0.444246 1.039519 0.043455 -0.004058 189664.000000 0 0 1
-34.085616 -17.817182 23.311636 44.974588 0.481657 1.025900 0.048752 -0.006688 -516887.000000 0 0 1
-34.671216 -19.095582 23.370936 45.966674 0.503428 1.037433 0.045783 -0.006081 30769.500000 0 0 1
-33.907016 -20.150282 23.913836 46.125818 0.536203 1.025761 0.039020 -0.004535 128656.000000 0 0 1
-32.654516 -20.637882 23.101336 45.010124 0.563622 1.031832 0.039300 -0.000192 939949.000000 0 0 1
-31.522316 -19.763182 23.120936 43.804308 0.560006 1.014761 0.041161 0.005345 33049.800000 0 0 1
-30.409216 -20.332582 22.512236 42.952707 0.589362 1.019119 0.049947 0.009321 -256893.000000 0 0 1
-29.187516 -19.391982 22.450936 41.617359 0.586427 1.001000 0.065670 0.009153 119386.000000 0 0 1
-28.468316 -19.203282 23.685236 41.715722 0.593440 0.966993 0.058875 0.002116 517648.000000 0 0 1
-27.561716 -18.108182 23.537536 40.516293 0.581284 0.950913 0.082837 -0.001986 -300829.000000 0 0 1
-26.949616 -17.913882 24.917336 40.841922 0.586652 0.914619 0.072643 -0.010246 -555222.000000 0 0 1
-26.018016 -16.808582 24.896836 39.740634 0.573584 0.893763 0.071684 -0.014376 528510.000000 0 0 1
-25.559616 -16.336582 26.159236 40.056004 0.568714 0.859170 0.054227 -0.021598 -242591.000000 0 0 1
-24.584316 -17.220282 26.909836 40.312107 0.611033 0.839900 0.046330 -0.013404 -979048.000000 0 0 1
-24.992216 -18.512082 27.182636 41.306219 0.637531 0.852536 0.049226 -0.013380 -494294.000000 0 0 1
-23.994716 -19.101082 27.948036 41.493257 0.672330 0.831787 0.050023 -0.010768 -378086.000000 0 0 1
-24.520616 -20.474182 28.425036 42.760208 0.695708 0.843631 0.050129 -0.006888 591844.000000 0 0 1
-25.563816 -20.328382 29.418536 43.956820 0.671808 0.837584 0.040422 -0.013983 718891.000000 0 0 1
-25.841316 -21.575182 30.072636 45.140065 0.695668 0.841685 0.038210 -0.009901 -140184.000000 0 0 1
-27.041416 -21.434282 31.053336 46.421722 0.670241 0.838015 0.040881 -0.010604 -295185.000000 0 0 1
-26.884016 -20.472882 32.049636 46.573258 0.650837 0.811853 0.050301 -0.024509 -178396.000000 0 0 1
-27.887316 -20.512382 33.005836 47.831427 0.634186 0.809245 0.063387 -0.015449 31582.000000 0 0 1
-29.173016 -19.668282 32.753336 48.069607 0.593196 0.821159 0.050259 -0.019855 86439.300000 0 0 1
-30.023816 -20.112982 31.720236 48.084664 0.590238 0.850410 0.058309 -0.027096 -76138.600000 0 0 1
-31.245316 -19.431182 31.854036 48.667445 0.556361 0.857243 0.075198 -0.036711 -402714.000000 0 0 1
-32.376416 -19.962982 30.971136 49.050629 0.552529 0.887424 0.072013 -0.023952 -344116.000000 0 0 1
-32.422516 -19.309882 29.674536 48.006970 0.537156 0.904435 0.060152 -0.039826 -469575.000000 0 0 1
-33.541816 -19.880982 29.100936 48.653585 0.535051 0.929637 0.066034 -0.040574 -567596.000000 0 0 1
-34.389516 -18.920782 28.251336 48.360860 0.502989 0.946930 0.061697 -0.031945 64488.000000 0 0 1
-35.380116 -19.508382 27.399736 48.816750 0.503913 0.974868 0.053692 -0.028448 55195.800000 0 0 1
-35.997516 -18.469382 26.714936 48.483265 0.474052 0.987218 0.047473 -0.018871 -96978.900000 0 0 1
36.574020 -19.022882 25.971036 48.723954 -0.479614 1.008626 0.039305 -0.011987 111585.000000 0 0 1
35.500520 -19.232682 26.855336 48.491154 -0.496493 0.983852 0.046232 -0.016487 -232068.000000 0 0 1
34.466520 -19.913682 26.184936 47.646056 -0.523913 0.988945 0.073007 -0.014586 482406.000000 0 0 1
33.125420 -20.231582 26.941236 47.248710 -0.548292 0.964046 0.069409 -0.019578 579985.000000 0 0 1
32.327820 -19.079182 26.997836 46.238364 -0.533166 0.947292 0.056963 -0.029276 526933.000000 0 0 1
31.034120 -19.386482 27.527736 45.790048 -0.558371 0.925828 0.045824 -0.018961 343653.000000 0 0 1
-29.801100 -5.553382 -33.970174 45.529313 0.184235 2.413007 0.040675 -0.003832 392655.000000 0 0 1
-30.816570 -5.552382 33.055904 45.532217 0.178263 0.758324 0.047222 0.002365 679541.000000 0 0 1
-30.723090 -4.369282 32.364659 44.838265 0.141268 0.764384 0.056157 -0.003523 216120.000000 0 0 1
-31.560780 -4.474282 31.016416 44.476062 0.140829 0.799070 0.059166 -0.009000 228016.000000 0 0 1
-31.231140 -5.397982 29.997326 43.638995 0.171149 0.812897 0.048774 -0.009775 269041.000000 0 0 1
-29.904580 -5.233982 29.488736 42.323327 0.173268 0.799941 0.046759 -0.013159 556580.000000 0 0 1
-29.554450 -6.177982 28.272786 41.364035 0.206070 0.818234 0.041227 -0.020865 183113.000000 0 0 1
-30.242640 -5.877882 27.064686 41.008096 0.191964 0.849999 0.059779 -0.023226 -71612.200000 0 0 1
-29.896290 -6.781782 26.034236 40.218928 0.223069 0.866742 0.071890 -0.021984 -200651.000000 0 0 1
-30.518280 -6.382882 24.726846 39.793511 0.206177 0.900295 0.083017 -0.024964 -211665.000000 0 0 1
-29.971770 -5.263182 24.072546 38.800716 0.173832 0.901525 0.097998 -0.024828 95677.300000 0 0 1
-30.832860 -4.775682 23.025916 38.777122 0.153668 0.935021 0.101218 -0.022554 420534.000000 0 0 1
-30.279550 -3.555082 22.221116 37.726221 0.116874 0.940963 0.110705 -0.021130 -374276.000000 0 0 1
-29.124060 -3.814882 21.492016 36.396029 0.130246 0.939113 0.127051 -0.020044 -516396.000000 0 0 1
-28.561390 -2.574282 21.122616 35.616637 0.089889 0.935949 0.137975 -0.022298 -815599.000000 0 0 1
-27.148340 -2.681282 20.602716 34.186160 0.098445 0.923963 0.141930 -0.020570 -909249.000000 0 0 1
-27.038410 -3.465782 19.427416 33.474046 0.127485 0.951610 0.156731 -0.017840 -1413390.000000 0 0 1
-25.882500 -3.199282 18.777716 32.136300 0.122984 0.946761 0.130911 -0.015804 -1507560.000000 0 0 1
-25.775920 -3.985782 17.445816 31.378990 0.153417 0.981265 0.128556 -0.020064 105148.000000 0 0 1
-26.750860 -3.631282 16.473816 31.625643 0.134920 1.022891 0.138266 -0.019234 210564.000000 0 0 1
-26.588750 -4.429882 15.269516 30.979729 0.165091 1.055391 0.144877 -0.029773 -835943.000000 0 0 1
-27.867600 -4.499882 14.495116 31.732640 0.160092 1.096414 0.159906 -0.032621 -724344.000000 0 0 1
-28.278780 -3.275382 13.901016 31.680526 0.115311 1.116548 0.161326 -0.032962 424771.000000 0 0 1
-29.582030 -3.312882 13.324916 32.613265 0.111525 1.149906 0.143202 -0.029270 301311.000000 0 0 1
-29.947440 -1.991682 12.623716 32.560316 0.066408 1.172658 0.130535 -0.017426 -279896.000000 0 0 1
-29.316220 -1.828782 11.394916 31.506020 0.062301 1.200733 0.155979 -0.025599 239143.000000 0 0 1
-29.864580 -0.651082 10.795616 31.762594 0.021798 1.224002 0.154995 -0.026586 164165.000000 0 0 1
-31.103100 -0.893982 9.912116 32.656578 0.028735 1.262405 0.151850 -0.023960 -84536.700000 0 0 1
-30.805760 -1.368882 8.657316 32.028390 0.044407 1.297090 0.127258 -0.026657 851869.000000 0 0 1
-32.053520 -1.660482 7.968716 33.070920 0.051757 1.327443 0.112541 -0.027846 1069620.000000 0 0 1
-31.908270 -2.239782 6.523516 32.645223 0.070079 1.369611 0.123910 -0.030407 -691937.000000 0 0 1
-31.545970 -1.341382 5.500216 32.049959 0.042496 1.398329 0.137725 -0.039156 208857.000000 0 0 1
-32.469070 -0.343482 5.089616 32.867350 0.010578 1.415317 0.117930 -0.034588 -87423.600000 0 0 1
-32.071220 0.290918 3.748216 32.290818 -0.009071 1.454457 0.146356 -0.033635 -14594.500000 0 0 1
-32.312530 -0.632682 2.725016 32.433402 0.019578 1.486678 0.141027 -0.049454 363785.000000 0 0 1
-31.830780 -0.209382 1.452216 31.864578 0.006578 1.525206 0.146603 -0.050391 -48167.100000 0 0 1
-32.378770 -1.087282 0.248916 32.397976 0.033567 1.563113 0.132600 -0.048858 -191662.000000 0 0 1
-33.727040 -0.790882 0.022716 33.736319 0.023445 1.570123 0.115228 -0.041918 -271727.000000 0 0 1
-34.286102 -1.614382 -0.974684 34.337924 0.047051 1.599185 0.109813 -0.041888 669759.000000 0 0 1
-35.831652 -1.466982 -1.181384 35.881123 0.040918 1.603727 0.112697 -0.036410 915292.000000 0 0 1
-36.628420 -1.947182 -0.078684 36.680224 0.053110 1.572941 0.119635 -0.028229 519647.000000 0 0 1
35.822736 -1.682182 -0.267084 35.863205 -0.046924 1.578244 0.128844 -0.027299 204715.000000 0 0 1
34.964516 -2.813482 0.357116 35.079347 -0.080294 1.560616 0.151576 -0.029475 -384729.000000 0 0 1
35.001106 -2.920482 1.785516 35.168092 -0.083247 1.520004 0.129860 -0.028407 85851.300000 0 0 1
34.213316 -4.002182 2.223816 34.518311 -0.116448 1.506327 0.135944 -0.021795 -14808.100000 0 0 1
34.463176 -4.381582 3.699516 34.937017 -0.126460 1.464706 0.119041 -0.025319 129580.000000 0 0 1
33.863786 -3.437882 4.554016 34.341143 -0.101174 1.437793 0.127468 -0.034824 118685.000000 0 0 1
33.891786 -3.821182 5.870016 34.607971 -0.112272 1.400358 0.119481 -0.044072 87111.200000 0 0 1
33.285946 -2.729182 6.777116 34.078320 -0.081809 1.370593 0.127743 -0.040109 145161.000000 0 0 1
31.880176 -2.594382 6.799116 32.700220 -0.081200 1.361346 0.140944 -0.048063 71509.100000 0 0 1
31.515186 -1.385982 7.441516 32.411480 -0.043950 1.339135 0.141298 -0.048193 -303399.000000 0 0 1
30.053166 -1.356582 7.902616 31.104412 -0.045109 1.313913 0.141114 -0.048135 349619.000000 0 0 1
29.132056 -1.284082 6.779316 29.938014 -0.044049 1.342370 0.160134 -0.051294 1468550.000000 0 0 1
27.744456 -1.231382 7.130416 28.672530 -0.044354 1.319474 0.139362 -0.046473 775906.000000 0 0 1
26.843056 -2.448182 6.991316 27.846395 -0.090952 1.317014 0.153549 -0.058789 -451862.000000 0 0 1
27.144756 -3.379582 8.014916 28.504354 -0.123865 1.285771 0.142983 -0.059321 300980.000000 0 0 1
26.524856 -4.615482 7.906616 28.060385 -0.172281 1.285156 0.149946 -0.065677 -490518.000000 0 0 1
26.901856 -5.646082 9.021416 28.930504 -0.206874 1.253677 0.149279 -0.056313 -591965.000000 0 0 1
26.263656 -5.405782 10.199016 28.688360 -0.202993 1.207336 0.150879 -0.053873 -38649.000000 0 0 1
26.577956 -6.298382 11.256416 29.542584 -0.232685 1.179893 0.148360 -0.045505 -370899.000000 0 0 1
25.533556 -6.225182 12.374516 29.048993 -0.239139 1.130743 0.145832 -0.037287 -253000.000000 0 0 1
24.302256 -6.792782 12.006416 27.944508 -0.272557 1.126689 0.161993 -0.043519 -360900.000000 0 0 1
23.398556 -6.817382 13.064916 27.652507 -0.283511 1.078708 0.163393 -0.039072 -209831.000000 0 0 1
22.243156 -7.811282 12.995016 26.919223 -0.337723 1.067014 0.143649 -0.038852 -149323.000000 0 0 1
22.554456 -9.004082 13.627616 27.847601 -0.379830 1.059436 0.140115 -0.037639 -423099.000000 0 0 1
21.583356 -9.962982 13.514716 27.345014 -0.432463 1.053848 0.174372 -0.055174 -834630.000000 0 0 1
21.870856 -11.125182 14.488916 28.496187 -0.470564 1.037411 0.162059 -0.047649 -73011.700000 0 0 1
21.735956 -10.763882 15.819016 28.957800 -0.459809 0.992882 0.125720 -0.039022 161120.000000 0 0 1
22.239956 -11.763782 16.625216 30.156260 -0.486537 0.986872 0.122051 -0.043294 -118982.000000 0 0 1
22.165756 -11.375082 18.127716 30.811155 -0.474138 0.941781 0.128631 -0.043337 -201570.000000 0 0 1
20.853056 -11.569882 18.593216 30.239375 -0.506543 0.908578 0.111321 -0.044919 -206811.000000 0 0 1
20.732056 -11.972582 19.912016 31.139191 -0.523705 0.877011 0.120013 -0.033793 102476.000000 0 0 1
21.176456 -10.984582 21.053216 31.817310 -0.478509 0.847725 0.103014 -0.032813 -287656.000000 0 0 1
20.262056 -9.990982 21.454216 31.155321 -0.458103 0.811210 0.096739 -0.035417 -188473.000000 0 0 1
20.255256 -8.765782 20.710616 30.266218 -0.408430 0.817178 0.096875 -0.027763 -628599.000000 0 0 1
21.321656 -7.741282 21.235616 31.072364 -0.348272 0.818353 0.091553 -0.014631 -19898.300000 0 0 1
22.654356 -8.125582 21.180516 32.060243 -0.344383 0.849116 0.112868 -0.032905 -492335.000000 0 0 1
23.271856 -8.258282 19.918716 31.725916 -0.340999 0.892025 0.125167 -0.039552 -842656.000000 0 0 1
24.731956 -8.730282 19.967516 32.963452 -0.339341 0.920092 0.140932 -0.039546 -105983.000000 0 0 1
24.730056 -10.073682 20.452516 33.635697 -0.386823 0.917182 0.117421 -0.039983 121613.000000 0 0 1
25.910056 -10.776382 20.106016 34.521200 -0.394151 0.949087 0.110505 -0.043260 187917.000000 0 0 1
25.739756 -12.245882 20.396516 35.050171 -0.444066 0.949705 0.097145 -0.038151 503157.000000 0 0 1
24.838056 -12.852582 19.446816 34.063126 -0.477514 0.963188 0.108695 -0.047031 454731.000000 0 0 1
24.811156 -14.227282 19.743516 34.753639 -0.520648 0.966602 0.092589 -0.040817 -32168.900000 0 0 1
24.019056 -14.992382 18.660716 33.910306 -0.558014 0.988077 0.099993 -0.036350 -559245.000000 0 0 1
24.541156 -14.897582 17.347716 33.543249 -0.545583 1.027250 0.094796 -0.037245 -87406.500000 0 0 1
23.629456 -15.144382 16.317616 32.464874 -0.569959 1.044165 0.063033 -0.027389 -122029.000000 0 0 1
22.945456 -16.541082 16.290416 32.641676 -0.624607 1.048273 0.051160 -0.033083 -367563.000000 0 0 1
23.968956 -17.486682 16.192016 33.800536 -0.630288 1.071229 0.078242 -0.034999 208895.000000 0 0 1
23.499256 -18.843282 16.353616 34.274262 -0.675878 1.073399 0.055211 -0.019768 229141.000000 0 0 1
24.707156 -19.816282 16.339616 35.638625 -0.675987 1.094512 0.045338 -0.017058 28630.900000 0 0 1
25.247856 -19.898782 15.047316 35.494189 -0.667466 1.133008 0.050087 -0.030273 -122032.000000 0 0 1
26.172556 -20.968282 14.915716 36.703544 -0.675445 1.152304 0.045177 -0.027559 88467.900000 0 0 1
26.939556 -20.931782 13.566116 36.714012 -0.660553 1.192317 0.047439 -0.033838 -13991.400000 0 0 1
26.054956 -21.236482 12.516616 35.868016 -0.683860 1.214332 0.049251 -0.026304 319862.000000 0 0 1
26.693056 -20.966082 11.280416 35.767913 -0.665806 1.249941 0.061349 -0.030273 -239986.000000 0 0 1
25.658556 -21.002182 10.182116 34.686144 -0.685935 1.272858 0.033953 -0.018914 -215575.000000 0 0 1
25.164856 -22.338582 9.939416 35.086667 -0.725972 1.283582 0.020631 -0.018416 670331.000000 0 0 1
23.739356 -22.488582 9.978416 34.188626 -0.758348 1.274622 0.017107 -0.014056 1001990.000000 0 0 1
23.091556 -23.276582 8.810116 33.950513 -0.789389 1.308293 0.023456 -0.019078 -58283.100000 0 0 1
23.613656 -24.563282 8.742216 35.176496 -0.805107 1.319640 0.017718 -0.013845 -79552.700000 0 0 1
23.266956 -25.271052 7.553516 35.171479 -0.826664 1.354348 0.032782 -0.012367 263139.000000 0 0 1
21.920156 -26.086782 7.588516 34.908437 -0.871973 1.351663 0.049552 -0.013346 789364.000000 0 0 1
20.844756 -25.185852 7.417716 33.523924 -0.879429 1.347684 0.047066 -0.015988 -669413.000000 0 0 1
19.600656 -25.730022 7.768716 33.265187 -0.919798 1.335081 0.068249 -0.019110 290499.000000 0 0 1
18.473256 -24.672982 7.910516 31.821274 -0.928112 1.319570 0.071003 -0.028791 85673.900000 0 0 1
18.226156 -24.013182 6.651916 30.871891 -0.921556 1.353625 0.070396 -0.017176 -110822.000000 0 0 1
17.292356 -22.969282 6.792216 29.542303 -0.925476 1.338806 0.081108 -0.018016 -76816.300000 0 0 1
16.954656 -22.380382 5.380316 28.588278 -0.922469 1.381467 0.074827 -0.008252 79726.500000 0 0 1
16.189156 -21.163282 5.393016 27.185619 -0.917787 1.371094 0.103907 -0.009475 212518.000000 0 0 1
15.824056 -20.731082 4.127816 26.404874 -0.918837 1.413825 0.091806 -0.008903 462248.000000 0 0 1
14.887256 -19.463282 4.035416 24.834136 -0.917834 1.407578 0.096972 0.000024 340768.000000 0 1 0
15.512156 -18.254682 4.342116 24.345726 -0.866440 1.391485 0.070424 -0.005314 -93959.300000 0 1 0
14.595256 -17.189482 4.304916 22.957179 -0.866836 1.382160 0.041525 0.007878 188795.000000 0 1 0
15.361756 -15.845282 4.266616 22.478001 -0.800891 1.379825 0.025391 -0.005471 -151617.000000 0 1 0
16.033756 -15.643682 5.508816 23.068445 -0.773085 1.329663 0.052240 -0.017386 194542.000000 0 1 0
16.965956 -14.568082 5.374716 22.999136 -0.709503 1.334923 0.056775 -0.027176 931431.000000 0 1 0
18.429656 -15.047582 5.074516 24.327611 -0.684714 1.360662 0.083065 -0.037777 485191.000000 0 1 0
19.381956 -13.993882 5.287716 24.483645 -0.625343 1.353112 0.110553 -0.040806 -65508.400000 0 1 0
20.669156 -14.551282 5.370616 25.841775 -0.613412 1.361444 0.127147 -0.040943 -225220.000000 0 0 1
21.752056 -13.476582 5.147316 26.101055 -0.554674 1.372288 0.126763 -0.046391 -99899.700000 0 0 1
21.790056 -12.589582 6.287816 25.939174 -0.523912 1.325951 0.142200 -0.052689 278429.000000 0 0 1
22.787556 -11.573782 6.216616 26.303449 -0.469947 1.332197 0.146163 -0.052855 131215.000000 0 0 1
22.925056 -10.871282 7.546516 26.470604 -0.442803 1.281696 0.161981 -0.057166 -124302.000000 0 0 1
23.536256 -11.654282 8.552616 27.621095 -0.459770 1.255981 0.159878 -0.037403 293383.000000 0 0 1
23.554056 -10.967482 9.794516 27.767098 -0.435776 1.210301 0.188337 -0.054028 231488.000000 0 0 1
24.268756 -11.884282 10.843116 29.116693 -0.455369 1.189200 0.157630 -0.046854 560767.000000 0 0 1
23.353956 -12.900282 11.293216 28.971732 -0.504669 1.170381 0.153374 -0.046019 1111480.000000 0 0 1
23.902456 -13.619182 12.404616 30.177541 -0.517904 1.147186 0.140602 -0.044323 685020.000000 0 0 1
22.876856 -14.779682 12.762416 30.077713 -0.573596 1.132591 0.102941 -0.046869 -26308.100000 0 0 1
21.736256 -14.278382 13.345616 29.230848 -0.581205 1.096672 0.097919 -0.049427 -1139970.000000 0 0 1
20.712956 -15.219882 13.305516 28.943187 -0.633702 1.093126 0.069031 -0.047200 92664.000000 0 0 1
19.345256 -14.718282 13.864116 27.983575 -0.650391 1.052458 0.064693 -0.041998 -5307.660000 0 0 1
19.235456 -14.560382 15.237016 28.533737 -0.647938 1.007472 0.072297 -0.048980 48514.400000 0 0 1
18.715856 -13.297482 15.575316 27.743409 -0.617733 0.974713 0.090944 -0.053784 811122.000000 0 0 1
17.160956 -13.081282 15.633516 26.646297 -0.651308 0.943812 0.088684 -0.051719 921088.000000 0 0 1
16.434356 -13.294282 14.344316 25.545751 -0.680164 0.974581 0.090330 -0.058591 1501170.000000 0 0 1
15.020156 -13.196582 14.599716 24.756950 -0.720861 0.940082 0.093706 -0.051219 691830.000000 0 1 0
14.330556 -11.867682 14.315416 23.476325 -0.691665 0.915012 0.068711 -0.041794 -396040.000000 0 1 0
14.723056 -10.939582 15.277616 23.871497 -0.639021 0.876306 0.053884 -0.028467 174741.000000 0 1 0
14.701356 -9.629982 14.828916 22.994851 -0.579910 0.869930 0.043592 -0.025569 -540323.000000 0 1 0
15.268056 -8.496082 15.722516 23.505200 -0.507790 0.838075 0.050591 -0.023149 -191277.000000 0 1 0
16.643756 -8.498682 16.014016 24.610788 -0.472110 0.862302 0.054978 -0.032135 -177353.000000 0 1 0
16.958156 -9.266282 17.133816 25.826550 -0.500091 0.845418 0.073378 -0.026233 -1032460.000000 0 0 1
18.479656 -9.385382 17.167516 26.912946 -0.469929 0.879040 0.096826 -0.028682 -443606.000000 0 0 1
19.071056 -8.133682 17.298016 27.001543 -0.403135 0.875477 0.085580 -0.033784 351318.000000 0 0 1
20.318556 -7.933582 16.635416 27.432143 -0.372255 0.919245 0.082640 -0.020481 532358.000000 0 0 1
20.935156 -6.485582 16.734016 27.574822 -0.300418 0.918694 0.064774 -0.006123 44074.700000 0 0 1
21.300456 -6.272982 18.108416 28.652652 -0.286403 0.886668 0.102635 -0.014866 456807.000000 0 0 1
21.856556 -4.955582 18.287516 28.925768 -0.222962 0.886378 0.114747 -0.015953 128031.000000 0 0 1
-5.673480 -33.285253 -6.316964 34.351135 1.401969 1.755743 0.044098 -0.030319 -446556.000000 0 0 1
-6.450880 -32.130953 -6.239764 33.360855 1.372662 1.758943 0.040726 -0.031054 -77119.500000 0 0 1
-6.032180 -31.289853 -5.219364 32.290616 1.380349 1.733146 0.056570 -0.039825 -627032.000000 0 0 1
-6.603380 -29.850353 -5.413364 31.047588 1.353086 1.746049 0.065235 -0.043350 305456.000000 0 0 1
-7.975080 -29.666953 -5.141364 31.147450 1.308184 1.736621 0.065889 -0.041976 236422.000000 0 0 1
-8.835580 -30.141453 -6.179664 32.011919 1.285648 1.765058 0.060598 -0.036108 -736726.000000 0 0 1
-10.321180 -29.875753 -5.936164 32.160930 1.238163 1.756438 0.084404 -0.027883 -414747.000000 0 0 1
-11.186280 -30.554553 -6.812764 33.243456 1.219844 1.777194 0.073366 -0.033394 -460210.000000 0 0 1
-12.492580 -30.135553 -6.476564 33.259014 1.177813 1.766780 0.071210 -0.026112 361626.000000 0 0 1
-13.635980 -30.769953 -7.332264 34.445494 1.153646 1.785303 0.084141 -0.034246 413957.000000 0 0 1
-13.726080 -30.134453 -8.589064 34.209101 1.143383 1.824587 0.105004 -0.046182 492230.000000 0 0 1
-14.919880 -30.547253 -9.275864 35.238887 1.116456 1.837163 0.112212 -0.042340 770301.000000 0 0 1
-15.358480 -29.670953 -10.459164 35.009177 1.093147 1.874184 0.133575 -0.038013 -392184.000000 0 0 1
-15.716780 -28.339653 -10.066364 33.933535 1.064439 1.871979 0.139278 -0.039480 427353.000000 0 0 1
-14.588180 -27.480553 -9.916764 32.654832 1.082771 1.879354 0.131864 -0.042598 65518.600000 0 0 1
-14.929180 -26.064953 -9.547164 31.518416 1.050641 1.878538 0.122498 -0.034247 -84829.500000 0 0 1
-15.580780 -25.304453 -10.544064 31.531783 1.018889 1.911759 0.135678 -0.040357 128777.000000 0 0 1
-15.868280 -24.007553 -10.067364 30.487977 0.986748 1.907320 0.110717 -0.026924 -166097.000000 0 0 1
-16.669780 -23.220953 -11.125064 30.673462 0.948173 1.941953 0.118714 -0.026845 1091650.000000 0 0 1
-17.973980 -23.794653 -11.455864 31.945051 0.923862 1.937576 0.127294 -0.039382 777991.000000 0 0 1
-18.599480 -22.900153 -12.366964 31.989053 0.888661 1.967738 0.143095 -0.037434 -909905.000000 0 0 1
-20.076380 -23.268653 -12.434164 33.152673 0.858913 1.955255 0.120872 -0.028715 -684105.000000 0 0 1
-20.488680 -24.421453 -13.074764 34.454939 0.872745 1.960024 0.142268 -0.022967 -112250.000000 0 0 1
-20.196180 -25.517953 -12.229964 34.765265 0.901291 1.930276 0.145090 -0.030425 -1711300.000000 0 0 1
-20.176980 -26.902853 -12.903764 36.019178 0.927299 1.937186 0.137244 -0.028790 476221.000000 0 0 1
-19.101480 -27.117653 -13.838264 35.940662 0.957128 1.966038 0.138791 -0.036091 753842.000000 0 0 1
-17.801580 -27.037753 -13.263364 34.983613 0.988541 1.959653 0.150648 -0.037140 -540782.000000 0 0 1
-17.020480 -28.331853 -13.568564 35.728092 1.029822 1.960347 0.134450 -0.034839 -308426.000000 0 0 1
-16.904380 -28.543753 -14.968264 36.394407 1.036112 1.994653 0.121062 -0.039523 -11828.100000 0 0 1
-16.066580 -29.620453 -15.357764 37.031975 1.073795 1.998427 0.138566 -0.039368 35582.200000 0 0 1
-16.623680 -31.059053 -15.139564 38.343421 1.079365 1.976691 0.122761 -0.042529 -178326.000000 0 0 1
-16.579680 -31.515553 -13.806564 38.193417 1.086504 1.940663 0.130695 -0.042641 127735.000000 0 0 1
-16.969180 -32.881753 -13.661664 39.443679 1.094378 1.924483 0.096835 -0.032340 -842974.000000 0 0 1
-17.751480 -33.278253 -12.402164 39.703537 1.080767 1.888482 0.113079 -0.031991 -157604.000000 0 0 1
-19.077780 -32.847553 -12.235564 39.907800 1.044616 1.882411 0.117710 -0.022807 1568.070000 0 0 1
-19.499280 -31.481853 -12.354364 39.037922 1.016247 1.892803 0.120568 -0.024237 -549760.000000 0 0 1
-18.899780 -30.505453 -11.305264 37.624372 1.016123 1.875989 0.134713 -0.034590 -390771.000000 0 0 1
-19.278380 -30.772253 -9.994364 37.662645 1.011129 1.839379 0.127538 -0.033590 158164.000000 0 0 1
-18.795180 -29.759253 -9.100364 36.355035 1.007483 1.823806 0.125662 -0.034156 58917.300000 0 0 1
-19.127580 -30.026753 -7.618164 36.407508 1.003602 1.781601 0.124120 -0.027349 -324237.000000 0 0 1
-18.204080 -30.980453 -7.196664 36.646541 1.039545 1.768461 0.123550 -0.027549 -205693.000000 0 0 1
-18.328380 -31.368153 -5.822764 36.793955 1.042002 1.729718 0.119540 -0.027373 -273050.000000 0 0 1
-17.266380 -32.375353 -5.310264 37.074119 1.080850 1.714524 0.116319 -0.029132 843652.000000 0 0 1
-15.981680 -31.858153 -4.929364 35.981310 1.105829 1.708226 0.114903 -0.030045 763994.000000 0 0 1
-15.993980 -31.317953 -3.594264 35.348838 1.098628 1.672652 0.095768 -0.030455 798746.000000 0 0 1
-14.585980 -30.718653 -3.190264 34.155003 1.127491 1.664338 0.099293 -0.030104 1704700.000000 0 0 1
-13.471580 -31.625853 -3.162564 34.520717 1.168107 1.662538 0.062339 -0.026051 -243203.000000 0 0 1
-12.330980 -30.986953 -2.708364 33.460119 1.192066 1.651828 0.065869 -0.018674 535680.000000 0 0 1
-11.022280 -31.875153 -2.675964 33.833073 1.237872 1.649972 0.071621 -0.028570 428968.000000 0 0 1
-11.100080 -32.742153 -1.567164 34.608039 1.243941 1.616095 0.080139 -0.021548 300948.000000 0 0 1
-9.927780 -33.569353 -1.448964 35.036578 1.283253 1.612164 0.078807 -0.029247 717713.000000 0 0 1
-8.789480 -32.777453 -0.730364 33.943333 1.308804 1.592315 0.089460 -0.032919 -813017.000000 0 0 1
-9.112080 -32.375353 0.595336 33.638489 1.296442 1.553097 0.103734 -0.030779 -374290.000000 0 0 1
-8.006180 -32.109653 1.432936 33.123739 1.326440 1.527523 0.112906 -0.029455 525784.000000 0 0 1
-7.026780 -33.263753 1.757336 34.043225 1.362613 1.519153 0.116865 -0.030083 -134979.000000 0 0 1
-7.681180 33.888118 2.602936 34.845091 -1.347900 1.496026 0.137999 -0.036168 198658.000000 0 0 1
-6.835580 32.886818 3.180736 33.739962 -1.365863 1.476384 0.115179 -0.033916 -89148.700000 0 0 1
-6.149880 33.307018 4.481236 34.165186 -1.388211 1.439253 0.117779 -0.034203 -137216.000000 0 0 1
-5.046980 -33.914653 4.282736 34.554559 1.423066 1.446536 0.119083 -0.031795 -265871.000000 0 0 1
-4.559980 -33.426553 5.539636 34.187943 1.435215 1.408044 0.103887 -0.031491 -174254.000000 0 0 1
-3.361780 -32.482253 5.447936 33.107074 1.467668 1.405489 0.097697 -0.026919 -206313.000000 0 0 1
-3.565780 -31.232453 4.705536 31.785579 1.457119 1.422210 0.094144 -0.025090 -6075.010000 0 0 1
-3.520780 -31.371053 3.289936 31.738975 1.459034 1.466954 0.098811 -0.034325 -157859.000000 0 0 1
-3.814280 -30.096753 2.543436 30.443922 1.444734 1.487154 0.089327 -0.030021 194591.000000 0 0 1
-2.842980 -29.086253 2.764436 29.355319 1.473363 1.476485 0.074313 -0.028935 -66521.200000 0 0 1
-3.155680 -27.889453 2.053036 28.142404 1.458126 1.497780 0.074072 -0.029963 213052.000000 0 0 1
-2.723880 -26.545353 2.678036 26.818784 1.468542 1.470773 0.071463 -0.037317 -305603.000000 0 0 1
-2.972480 -25.480353 1.825636 25.718029 1.454664 1.499750 0.070322 -0.038715 -234779.000000 0 0 1
-2.964380 -24.237553 2.556636 24.551638 1.449096 1.466474 0.057260 -0.031336 111451.000000 0 1 0
-4.134180 -23.972753 3.548536 24.584069 1.400023 1.425947 0.051044 -0.025206 -29614.300000 0 1 0
-4.173280 -24.849853 4.607336 25.615601 1.404409 1.389948 0.063805 -0.022639 -461134.000000 0 0 1
-5.214780 -24.477553 5.463636 25.616320 1.360891 1.355858 0.053414 -0.013093 -287879.000000 0 0 1
-5.573580 -25.482853 6.520636 26.887903 1.355468 1.325842 0.064325 -0.017503 89327.400000 0 0 1
-4.524680 -25.791453 7.431436 27.219442 1.397130 1.294266 0.045261 -0.019619 -206543.000000 0 0 1
-5.052980 -26.655453 8.380936 28.395174 1.383453 1.271180 0.051911 -0.021168 448441.000000 0 0 1
-4.209580 -27.034953 9.683736 29.023852 1.416328 1.230626 0.052674 -0.018050 164619.000000 0 0 1
-3.989380 -25.928253 10.612836 28.298794 1.418131 1.186370 0.058352 -0.025805 -10342.800000 0 0 1
-5.159180 -25.515353 11.300936 28.378893 1.371287 1.161225 0.061706 -0.026601 351851.000000 0 0 1
-4.859680 -24.450553 12.359536 27.824525 1.374598 1.110520 0.040400 -0.022150 292123.000000 0 0 1
-4.347080 -25.053253 13.552236 28.813638 1.398993 1.081119 0.043363 -0.023306 -487413.000000 0 0 1
-3.728680 -24.072853 14.308636 28.251414 1.417126 1.039705 0.038653 -0.023877 -76610.100000 0 0 1
-2.623180 -24.708253 15.173436 29.113777 1.465026 1.022567 0.047999 -0.024531 411.158000 0 0 1
-3.213580 -25.384053 16.294536 30.334620 1.444868 1.003730 0.044189 -0.023905 -306232.000000 0 0 1
-2.314480 -26.151053 16.989736 31.271161 1.482522 0.996429 0.044740 -0.018222 -468350.000000 0 0 1
-2.776080 -26.370653 18.436736 32.295994 1.465911 0.963234 0.066221 -0.032102 127550.000000 0 0 1
-2.638480 -25.243153 19.281536 31.874065 1.466652 0.921120 0.065475 -0.028456 -48795.800000 0 0 1
-3.515280 -25.364553 20.377036 32.725240 1.433083 0.898646 0.111845 -0.031588 -61366.500000 0 0 1
-3.271280 -24.262653 21.375136 32.500370 1.436777 0.853050 0.096110 -0.033882 5614.760000 0 0 1
-2.233680 -24.684553 22.269236 33.320195 1.480553 0.838821 0.055998 -0.032128 441668.000000 0 0 1
-1.731180 -23.776053 23.240236 33.292736 1.498113 0.798116 0.042680 -0.026842 131975.000000 0 0 1
-1.066380 -22.507853 22.732736 32.008091 1.523454 0.780988 0.054622 -0.032531 -87123.900000 0 0 1
-2.018580 -21.528053 22.356236 31.101978 1.477305 0.768715 0.083622 -0.026437 -378159.000000 0 0 1
-1.355780 -20.544953 21.716836 29.925812 1.504901 0.758761 0.081266 -0.025047 -955504.000000 0 0 1
-2.219880 -19.585653 20.951436 28.766097 1.457936 0.754903 0.075292 -0.010600 -807991.000000 0 0 1
-3.005380 -18.616653 21.674836 28.729960 1.410742 0.716006 0.091504 -0.028822 506162.000000 0 0 1
-4.346980 -18.993953 21.936336 29.340575 1.345810 0.726287 0.098868 -0.035319 -86667.500000 0 0 1
-5.345480 -18.958153 20.780336 28.632291 1.295969 0.758650 0.083111 -0.043532 -935968.000000 0 0 1
-5.326380 -19.903253 19.722236 28.521508 1.309310 0.807252 0.096340 -0.047391 -300742.000000 0 0 1
-5.703580 -21.264553 19.987936 29.735999 1.308744 0.833647 0.083891 -0.033560 -46470.600000 0 0 1
-5.751780 -22.105453 18.682236 29.508642 1.316243 0.885231 0.054460 -0.032997 -156793.000000 0 0 1
-6.065780 -23.454753 18.821936 30.678729 1.317725 0.910289 0.055996 -0.034076 -212571.000000 0 0 1
-6.152080 -24.064953 17.531536 30.402711 1.320512 0.956182 0.056113 -0.035372 1301.650000 0 0 1
-6.679380 -25.512153 17.500436 31.650424 1.314732 0.984921 0.060862 -0.038147 610536.000000 0 0 1
-8.047780 -25.621253 17.878036 32.262045 1.266449 0.983454 0.062924 -0.032535 53089.300000 0 0 1
-8.614980 -26.875653 17.546036 33.232243 1.260595 1.014573 0.073965 -0.040256 505341.000000 0 0 1
-10.160280 -26.939653 17.713436 33.804467 1.210142 1.019259 0.068349 -0.029877 68942.700000 0 0 1
-10.835780 -26.095653 16.796436 32.871226 1.177227 1.034476 0.088605 -0.031061 292550.000000 0 0 1
-12.223180 -25.950553 17.097536 33.394058 1.130602 1.033293 0.069887 -0.024425 572633.000000 0 0 1
-12.607480 -24.934253 18.192636 33.341229 1.102656 0.993632 0.060918 -0.024837 -563944.000000 0 0 1
-12.600880 -23.589753 17.747036 32.096977 1.080190 0.984933 0.059295 -0.022346 161830.000000 0 0 1
-13.172180 -22.802453 18.750036 32.326801 1.046962 0.952049 0.055758 -0.014240 -215186.000000 0 0 1
-12.116380 -22.062153 19.618036 31.912578 1.068573 0.908736 0.042444 -0.015096 309679.000000 0 0 1
-11.322280 -22.924753 20.435136 32.731225 1.112050 0.896521 0.047438 -0.020319 1655850.000000 0 0 1
-9.958380 -22.926553 19.895036 31.946966 1.161024 0.898541 0.069700 -0.028728 1059450.000000 0 0 1
-8.942080 -23.820453 20.592436 32.732602 1.211679 0.890387 0.066738 -0.030040 -224256.000000 0 0 1
-8.642180 -23.320553 21.853836 33.107788 1.215904 0.849869 0.072890 -0.028880 -48091.500000 0 0 1
-7.804080 -24.237253 22.528036 33.997949 1.259292 0.846472 0.067828 -0.027460 85938.700000 0 0 1
-7.539180 -23.640753 23.976436 34.504984 1.262086 0.802559 0.075681 -0.020450 236906.000000 0 0 1
-6.566580 -24.338453 24.741336 35.321580 1.307268 0.794755 0.093841 -0.025383 -24426.200000 0 0 1
-6.509880 -23.753953 26.000336 35.814052 1.303309 0.758336 0.085106 -0.017278 -146191.000000 0 0 1
-5.450780 -24.349553 26.922136 36.707127 1.350572 0.747441 0.098186 -0.014990 836206.000000 0 0 1
-4.090880 -24.088453 26.535236 36.070869 1.402574 0.744183 0.092120 -0.007453 871716.000000 0 0 1
-3.160580 -24.329153 27.603536 36.930369 1.441611 0.726584 0.076971 -0.004233 823405.000000 0 0 1
-1.781580 -23.647653 27.366036 36.211676 1.495600 0.714037 0.077641 -0.014069 -62030.700000 0 0 1
-1.796880 -22.264553 27.114336 35.130134 1.490265 0.689089 0.082655 -0.013794 -365451.000000 0 0 1
-0.571780 -21.622853 26.873036 34.496881 1.544359 0.677729 0.085363 -0.020267 -17232.200000 0 0 1
0.364520 -21.219653 28.056536 35.179195 -1.553620 0.647603 0.060699 -0.017523 -804.477000 0 0 1
0.943020 -22.415853 28.506636 36.276550 -1.528752 0.666784 0.065174 -0.015404 -317197.000000 0 0 1
1.773420 -22.205353 29.615736 37.058259 -1.491101 0.644888 0.051505 -0.020696 -281681.000000 0 0 1
2.358620 -23.530753 30.080336 38.263377 -1.470894 0.666259 0.065513 -0.026373 -708281.000000 0 0 1
3.197920 -24.149753 29.162236 37.998333 -1.439142 0.695925 0.057492 -0.025966 132297.000000 0 0 1
3.973420 -25.232353 29.649336 39.134931 -1.414606 0.711140 0.063440 -0.019860 724369.000000 0 0 1
5.287320 -24.938853 30.495736 39.747856 -1.361879 0.696286 0.059391 -0.023094 1549620.000000 0 0 1
6.487620 -24.459053 29.859636 39.139908 -1.311523 0.703017 0.068059 -0.028630 1008420.000000 0 0 1
7.107520 -25.394853 28.982136 39.183920 -1.297899 0.738256 0.069661 -0.025468 -400985.000000 0 0 1
8.408120 -24.966953 28.274836 38.645978 -1.245956 0.750076 0.069699 -0.025189 63241.200000 0 0 1
8.169320 -23.942653 27.289136 37.211361 -1.241979 0.747553 0.076090 -0.026620 172121.000000 0 0 1
9.097520 -23.994553 26.212136 36.682142 -1.208393 0.774780 0.055058 -0.017484 80851.900000 0 0 1
9.056120 -22.783453 25.234036 35.183172 -1.192458 0.770993 0.058553 -0.010321 -535227.000000 0 0 1
7.919920 -22.775553 24.451236 34.341140 -1.236138 0.778440 0.052659 -0.011984 -735858.000000 0 0 1
7.802420 -21.537553 23.809536 33.039945 -1.223232 0.766088 0.057680 -0.007397 229185.000000 0 0 1
7.150020 -21.717253 22.423136 32.024349 -1.252741 0.795132 0.072569 -0.005500 723147.000000 0 0 1
7.978620 -22.621253 21.604336 32.281989 -1.231714 0.837613 0.059264 -0.004919 785217.000000 0 0 1
7.365220 -22.878153 20.344336 31.488861 -1.259341 0.868358 0.076485 -0.014617 -73284.100000 0 0 1
8.182920 -23.660253 19.298236 31.609962 -1.237823 0.914090 0.094819 -0.023396 -505937.000000 0 0 1
9.338420 -23.061053 18.838536 31.207510 -1.186036 0.922720 0.086186 -0.026714 -787717.000000 0 0 1
10.112620 -23.902353 18.014536 31.592896 -1.170553 0.964037 0.092711 -0.031686 286485.000000 0 0 1
11.469520 -23.301153 17.593436 31.369135 -1.113384 0.975382 0.095320 -0.034156 134678.000000 0 0 1
11.241420 -22.162353 16.745336 29.965742 -1.101381 0.977839 0.103815 -0.036436 -37893.200000 0 0 1
12.393420 -21.858953 15.989136 29.783606 -1.055016 1.004105 0.104563 -0.042994 118752.000000 0 0 1
-12.706180 22.279918 11.241836 28.003939 -1.052503 1.157710 0.017607 -0.004626 53887.700000 0 0 1
-13.627980 21.246718 10.998036 27.533646 -1.000479 1.159891 0.006963 -0.016502 93741.200000 0 0 1
-12.958580 20.141218 10.461136 26.134820 -0.999085 1.158979 0.030978 -0.019925 -134267.000000 0 0 1
-13.931880 19.377218 9.563836 25.710714 -0.947444 1.189657 0.046518 -0.025493 -431131.000000 0 0 1
-14.134780 20.149118 8.390236 26.003365 -0.959059 1.242258 0.050073 -0.029008 138353.000000 0 0 1
-14.932280 19.420218 7.459136 25.607744 -0.915306 1.275227 0.055411 -0.032052 1580500.000000 0 0 1
-16.517280 19.540218 7.617636 26.695862 -0.869039 1.281426 0.046829 -0.029791 1049740.000000 0 0 1
-16.985980 18.955118 8.795636 26.929226 -0.840131 1.238071 0.038622 -0.033929 -802225.000000 0 0 1
-18.374180 19.010818 8.765136 27.854071 -0.802426 1.250676 0.059830 -0.027221 -956023.000000 0 0 1
-19.024680 17.937818 9.594336 27.852379 -0.756002 1.219121 0.051880 -0.022835 -403201.000000 0 0 1
-18.696980 16.589418 9.184536 26.629712 -0.725742 1.218666 0.054911 -0.025661 12647.800000 0 0 1
-19.304680 15.575318 9.904036 26.708634 -0.678883 1.190907 0.061350 -0.030703 -321760.000000 0 0 1
-18.430680 14.838518 10.965936 26.079174 -0.677842 1.136815 0.051834 -0.025619 536715.000000 0 0 1
-17.325980 14.078218 10.468836 24.657298 -0.682346 1.132306 0.035772 -0.008873 819753.000000 0 1 0
-16.653480 13.158718 11.404836 24.094824 -0.668705 1.077728 0.031173 -0.006692 321960.000000 0 1 0
-17.468180 12.117318 12.175636 24.499241 -0.606471 1.050681 0.039771 -0.005908 -248919.000000 0 1 0
-18.255480 11.246318 11.397136 24.282440 -0.552139 1.082234 0.027473 -0.004861 685860.000000 0 1 0
-19.294380 10.548518 12.119636 25.108363 -0.500317 1.067069 0.044933 0.001692 430376.000000 0 0 1
-20.237580 9.780818 11.202936 25.114335 -0.450198 1.108419 0.048341 -0.003889 -367809.000000 0 0 1
-19.615980 8.707718 10.465636 23.877616 -0.417777 1.117086 0.042906 -0.010712 799358.000000 0 1 0
-18.975380 9.125718 9.185636 22.972150 -0.448271 1.159433 0.046841 -0.008351 -547079.000000 0 1 0
-19.842780 9.613218 8.037636 23.468137 -0.451146 1.221229 0.049033 -0.015016 -595050.000000 0 1 0
-20.196880 8.478018 7.290536 23.085551 -0.397431 1.249491 0.026109 -0.027062 782810.000000 0 1 0
-21.167680 8.873718 6.301536 23.801741 -0.396957 1.302851 0.047210 -0.022337 441147.000000 0 1 0
-21.551780 7.716618 5.337136 23.505540 -0.343828 1.341740 0.065704 -0.020460 -138471.000000 0 1 0
-22.105280 6.603018 5.984336 23.833915 -0.290271 1.316995 0.071704 -0.015926 393582.000000 0 1 0
-22.304980 5.573618 5.058536 23.540733 -0.244868 1.354223 0.109339 -0.012502 -46829.800000 0 1 0
-23.139880 4.360518 5.565936 24.196029 -0.186257 1.338683 0.112570 -0.020444 458391.000000 0 1 0
-24.525580 4.689618 5.677036 25.607134 -0.188933 1.347241 0.151192 -0.014366 967990.000000 0 0 1
-25.327110 3.487018 5.795236 26.214625 -0.136819 1.347886 0.178139 -0.028056 402488.000000 0 0 1
-26.353800 3.270218 4.636536 26.957644 -0.123458 1.397943 0.167929 -0.026406 -326925.000000 0 0 1
-25.861660 2.986518 3.339636 26.246865 -0.114971 1.443211 0.165871 -0.024921 374655.000000 0 0 1
-26.873490 3.120018 2.341636 27.155151 -0.115583 1.484457 0.152544 -0.025729 -30543.000000 0 0 1
-26.455710 2.952218 0.873636 26.634253 -0.111131 1.537989 0.164557 -0.028141 -344164.000000 0 0 1
-25.868070 4.115518 0.355636 26.195820 -0.157774 1.557220 0.159677 -0.036365 221267.000000 0 0 1
-25.777830 4.131518 -1.068764 26.128686 -0.158922 1.611712 0.162264 -0.028366 221109.000000 0 0 1
-27.022370 4.716518 -1.831764 27.491987 -0.172801 1.637475 0.158698 -0.031646 516524.000000 0 0 1
-28.096720 3.796118 -1.816264 28.410121 -0.134296 1.634770 0.144592 -0.030665 411357.000000 0 0 1
-29.330590 4.477918 -2.107464 29.745195 -0.151501 1.641706 0.125834 -0.016292 395860.000000 0 0 1
-30.466040 3.441318 -2.165364 30.736152 -0.112479 1.641305 0.103144 -0.012107 -559539.000000 0 0 1
-30.690440 2.878618 -3.444664 31.017015 -0.093522 1.682083 0.112887 -0.019819 562878.000000 0 0 1
-31.570950 1.757018 -3.424864 31.804743 -0.055596 1.678690 0.120806 -0.029473 -144716.000000 0 0 1
-31.964230 1.316218 -4.867864 32.359551 -0.041155 1.721800 0.123292 -0.038093 -281827.000000 0 0 1
-30.858640 0.822618 -5.598264 31.373124 -0.026651 1.750199 0.151904 -0.046923 197080.000000 0 0 1
-31.105340 0.044318 -6.748064 31.828926 -0.001425 1.784428 0.152875 -0.048847 -428030.000000 0 0 1
-31.571940 0.724418 -8.045464 32.588981 -0.022941 1.820252 0.146000 -0.046990 75719.700000 0 0 1
-32.945490 1.100018 -7.953364 33.909753 -0.033377 1.807547 0.148614 -0.048380 644270.000000 0 0 1
-33.383130 1.952618 -8.999064 34.629889 -0.058425 1.833678 0.151773 -0.046288 715514.000000 0 0 1
-34.933355 2.194918 -8.892564 36.114189 -0.062749 1.819590 0.158980 -0.041962 728526.000000 0 0 1
-35.235849 3.157818 -7.889664 36.246154 -0.089381 1.790222 0.136009 -0.033775 564635.000000 0 0 1
-36.625040 2.985418 -7.615664 37.527385 -0.081333 1.775152 0.148273 -0.025635 355004.000000 0 0 1
36.726646 3.851918 -6.430464 37.483792 0.104499 1.743202 0.152655 -0.023131 614002.000000 0 0 1
35.325266 3.757318 -6.140464 36.051313 0.105965 1.741956 0.161514 -0.031629 835786.000000 0 0 1
35.093406 4.459918 -4.962364 35.722025 0.126409 1.710163 0.166778 -0.021478 504081.000000 0 0 1
33.614666 4.136818 -4.571864 34.175444 0.122450 1.704975 0.161427 -0.025971 399885.000000 0 0 1
33.556656 2.815518 -4.089564 33.921982 0.083707 1.691648 0.163610 -0.035132 -270066.000000 0 0 1
32.526456 2.017918 -4.598064 32.911769 0.061960 1.710964 0.191347 -0.040480 -433117.000000 0 0 1
32.314716 0.654418 -3.939564 32.560548 0.020249 1.692085 0.217996 -0.027950 230827.000000 0 0 1
33.284876 -0.312682 -4.348964 33.569245 -0.009394 1.700714 0.174373 -0.038609 270857.000000 0 0 1
33.218806 -1.473182 -3.627364 33.448723 -0.044319 1.679456 0.189188 -0.032076 120646.000000 0 0 1
34.414816 -2.416982 -3.920564 34.721638 -0.070116 1.683952 0.159155 -0.037579 26999.100000 0 0 1
34.378316 -3.686982 -3.256464 34.728475 -0.106839 1.664704 0.151461 -0.035965 410817.000000 0 0 1
35.564086 -4.485882 -3.264264 35.994205 -0.125473 1.661610 0.155642 -0.037314 219837.000000 0 0 1
35.275556 -5.916582 -2.791164 35.877031 -0.166178 1.648673 0.158069 -0.034635 34962.900000 0 0 1
34.976666 -6.003082 -1.384164 35.515068 -0.169975 1.609780 0.181236 -0.027758 68591.300000 0 0 1
34.987946 -7.367282 -1.067164 35.771106 -0.207535 1.600634 0.173113 -0.036024 38731.600000 0 0 1
34.434456 -7.691782 0.359636 35.284906 -0.219767 1.560604 0.150547 -0.021338 720706.000000 0 0 1
33.013306 -7.501482 0.445036 33.857771 -0.223432 1.557652 0.141570 -0.027074 851074.000000 0 0 1
32.471746 -7.656082 1.748036 33.407866 -0.231548 1.518448 0.129420 -0.032259 -626279.000000 0 0 1
32.348086 -9.054382 2.332236 33.672241 -0.272920 1.501478 0.127502 -0.035036 93262.400000 0 0 1
31.201716 -9.795382 1.920336 32.759491 -0.304194 1.512143 0.117643 -0.040315 379089.000000 0 0 1
29.963266 -9.357782 2.435236 31.484850 -0.302710 1.493373 0.101787 -0.048211 -1627050.000000 0 0 1
28.867396 -10.374182 2.202736 30.753898 -0.345001 1.499110 0.114797 -0.046057 -1366230.000000 0 0 1
27.677156 -10.042482 2.872636 29.582570 -0.348071 1.473537 0.150483 -0.050683 497997.000000 0 0 1
26.713656 -9.132882 2.343836 28.328828 -0.329423 1.487965 0.143339 -0.044453 -271465.000000 0 0 1
26.016556 -9.602582 1.103036 27.754053 -0.353584 1.531043 0.130449 -0.040301 -511931.000000 0 0 1
26.866256 -9.517882 -0.109864 28.502594 -0.340473 1.574651 0.114683 -0.040714 1115640.000000 0 0 1
26.149156 -9.452982 -1.330264 27.837148 -0.346885 1.618602 0.099787 -0.025886 -193112.000000 0 0 1
25.503056 -10.761982 -1.854964 27.742873 -0.399317 1.637709 0.088018 -0.013878 196833.000000 0 0 1
24.213856 -10.980382 -1.309264 26.619425 -0.425740 1.620001 0.101678 -0.014727 128680.000000 0 0 1
23.761356 -12.270982 -1.619064 26.791797 -0.476702 1.631265 0.086264 -0.006695 -3015.230000 0 0 1
22.276956 -12.569682 -1.284764 25.610746 -0.513715 1.620982 0.107317 -0.014644 404569.000000 0 0 1
21.379256 -12.035782 -2.248664 24.637149 -0.512743 1.662195 0.094272 -0.012516 901714.000000 0 1 0
20.006756 -12.286282 -1.920564 23.556561 -0.550728 1.652417 0.108798 -0.018029 857587.000000 0 1 0
18.981056 -11.678782 -2.909864 22.475359 -0.551584 1.700630 0.098779 -0.016903 37452.500000 0 1 0
18.835056 -12.419082 -4.098364 22.930101 -0.582927 1.750495 0.083522 -0.022320 529913.000000 0 1 0
17.752756 -11.906382 -4.869864 21.923454 -0.590775 1.794795 0.072278 -0.025251 65559.900000 0 1 0
17.759756 -12.379882 -6.346264 22.559820 -0.608760 1.855954 0.071512 -0.032070 -435398.000000 0 1 0
17.305656 -13.680782 -6.519564 23.003353 -0.668945 1.858153 0.081325 -0.028362 178780.000000 0 1 0
17.250856 -13.965882 -7.898164 23.558839 -0.680553 1.912670 0.070627 -0.029626 68351.300000 0 1 0
16.421156 -15.282482 -8.240264 23.897920 -0.749497 1.922834 0.074338 -0.029530 174987.000000 0 1 0
15.016856 -15.098082 -8.143064 22.798411 -0.788095 1.936040 0.088916 -0.031916 584331.000000 0 1 0
14.297856 -16.087682 -8.893964 23.288297 -0.844234 1.962655 0.087543 -0.031887 -62595.500000 0 1 0
14.291556 -15.847382 -10.463664 23.767128 -0.836974 2.026682 0.092780 -0.036596 -276102.000000 0 1 0
13.340256 -14.904782 -11.031264 22.843024 -0.840733 2.074778 0.078509 -0.031612 889095.000000 0 1 0
13.534456 -13.511582 -10.715564 21.921854 -0.784552 2.081519 0.072953 -0.025549 -342749.000000 0 1 0
13.502356 -12.633882 -11.984664 22.035443 -0.752182 2.145852 0.078415 -0.015832 -809410.000000 0 1 0
14.671756 -12.757482 -12.723864 23.235974 -0.715722 2.150282 0.087422 -0.013689 -320864.000000 0 1 0
14.536156 -12.340382 -14.073864 23.699336 -0.703881 2.206633 0.106500 -0.011848 -538413.000000 0 1 0
15.849756 -12.088782 -14.819164 24.838700 -0.651587 2.210074 0.108567 -0.019447 -105788.000000 0 1 0
16.642156 -13.236782 -15.132964 26.099432 -0.671915 2.189304 0.111942 -0.018097 52010.100000 0 0 1
17.475456 -12.908282 -16.229764 27.118638 -0.636199 2.212390 0.106366 -0.012485 -673799.000000 0 0 1
18.609556 -13.906782 -16.358064 28.413033 -0.641766 2.184286 0.103434 -0.019296 -898129.000000 0 0 1
19.560656 -13.746782 -15.345964 28.409363 -0.612587 2.141439 0.086559 -0.010664 -20150.200000 0 0 1
20.613156 -14.697282 -15.380864 29.622344 -0.619401 2.116748 0.082140 -0.012372 52669.300000 0 0 1
21.528756 -14.489082 -14.159064 29.561798 -0.592382 2.070272 0.061366 -0.010463 -107923.000000 0 0 1
22.482156 -13.468582 -14.354864 29.881636 -0.539742 2.071897 0.055201 -0.010539 413840.000000 0 0 1
23.449756 -13.342782 -13.294064 30.077450 -0.517309 2.028617 0.053911 -0.007911 834975.000000 0 0 1
24.218356 -11.972682 -13.333764 30.127448 -0.459129 2.029269 0.061996 -0.017667 -506410.000000 0 0 1
23.443956 -10.849382 -12.945064 28.894685 -0.433430 2.035333 0.053601 -0.010036 398188.000000 0 0 1
24.147556 -9.608982 -12.840964 28.988400 -0.378719 2.029704 0.072880 -0.017615 379331.000000 0 0 1
25.254156 -9.347082 -11.756564 29.382940 -0.354486 1.982439 0.081276 -0.020364 831073.000000 0 0 1
26.444556 -10.096982 -12.046964 30.763500 -0.364734 1.973165 0.074707 -0.021340 494764.000000 0 0 1
27.401156 -9.872882 -11.032864 31.145164 -0.345829 1.932898 0.076814 -0.017493 -406218.000000 0 0 1
28.736156 -10.598582 -11.302064 32.647102 -0.353345 1.924302 0.085983 -0.020415 -265103.000000 0 0 1
29.370716 -10.130782 -12.449464 33.470298 -0.332149 1.951911 0.080817 -0.018647 86675.100000 0 0 1
30.643966 -10.755882 -12.569864 34.824462 -0.337561 1.940082 0.075947 -0.017293 -26912.400000 0 0 1
31.390176 -10.171982 -13.774664 35.756870 -0.313372 1.966255 0.066045 -0.016114 -260109.000000 0 0 1
30.900436 -10.706782 -15.032164 35.992195 -0.333547 2.001654 0.063453 -0.015968 645435.000000 0 0 1
31.661656 -10.235582 -16.157764 36.990552 -0.312675 2.022843 0.056109 -0.023187 -257404.000000 0 0 1
31.244266 -10.818282 -17.556864 37.436384 -0.333329 2.058930 0.026915 -0.010980 879595.000000 0 0 1
29.952076 -10.572382 -18.161464 36.588808 -0.339324 2.090205 0.039482 -0.011053 1096200.000000 0 0 1
29.741246 -9.216082 -18.512464 36.224152 -0.300492 2.107206 0.022047 -0.007630 354221.000000 0 0 1
28.271956 -8.954182 -18.999864 35.220388 -0.306721 2.140588 -0.002004 -0.012576 687460.000000 0 0 1
28.025356 -9.464682 -20.344864 35.901452 -0.325692 2.173275 -0.005718 -0.000497 400145.000000 0 0 1
26.686656 -9.227482 -20.745764 35.038704 -0.332903 2.204435 0.037463 -0.004244 176234.000000 0 0 1
26.183356 -9.718982 -22.118764 35.626766 -0.355426 2.240619 0.060024 -0.012589 -125169.000000 0 0 1
25.861656 -11.065582 -22.039864 35.735528 -0.404304 2.235403 0.068132 -0.014199 34537.500000 0 0 1
25.360056 -11.431382 -23.307464 36.291140 -0.423488 2.268208 0.086309 -0.018788 -663194.000000 0 0 1
25.533656 -12.946182 -23.611064 37.108672 -0.469251 2.260447 0.088591 -0.012544 1383120.000000 0 0 1
26.770256 -13.359382 -24.249164 38.511578 -0.462878 2.251911 0.079575 -0.006839 1260830.000000 0 0 1
27.963056 -13.206082 -23.497164 38.838767 -0.441218 2.220553 0.047584 -0.005227 710841.000000 0 0 1
29.309916 -13.759382 -24.091864 40.358514 -0.438906 2.210486 0.037326 0.002926 1130790.000000 0 0 1
29.916316 -13.027582 -25.199514 41.227653 -0.410703 2.228408 0.031290 -0.006537 -366635.000000 0 0 1
31.209846 -13.475682 -25.380084 42.424016 -0.407596 2.212109 -0.000080 -0.003887 -820484.000000 0 0 1
31.993596 -12.999482 -26.623454 43.604874 -0.385939 2.227566 0.022732 -0.010639 -16117.200000 0 0 1
31.615746 -13.752382 -27.785834 44.280199 -0.410298 2.249135 0.013285 -0.016779 332483.000000 0 0 1
32.312206 -13.315882 -28.953204 45.383691 -0.390894 2.262649 0.012609 -0.021787 -62912.900000 0 0 1
32.157776 -14.287382 -30.213214 46.379846 -0.418095 2.280264 0.022148 -0.028946 -135481.000000 0 0 1
32.655906 -15.579782 -30.021834 47.015405 -0.445152 2.263413 0.025185 -0.022333 -230099.000000 0 0 1
32.705186 -16.361382 -31.194094 48.066574 -0.463863 2.277035 0.011590 -0.017958 161040.000000 0 0 1
31.388866 -16.736382 -31.937594 47.805620 -0.489850 2.302411 0.011788 -0.012170 327791.000000 0 0 1
30.817966 -15.813582 -32.861254 47.745978 -0.474095 2.329873 0.005212 -0.017084 366276.000000 0 0 1
29.693746 -16.359382 -33.539954 47.689375 -0.503562 2.350826 0.025617 -0.015214 261013.000000 0 0 1
28.953846 -15.320082 33.600067 46.925415 -0.486672 0.772696 0.065091 -0.018260 -140394.000000 0 0 1
28.209256 -14.217482 -33.914294 46.347365 -0.466843 2.391670 0.076132 -0.028200 733796.000000 0 0 1
29.002656 -13.200482 -33.266484 46.065885 -0.427126 2.377702 0.059687 -0.028060 109218.000000 0 0 1
28.169856 -11.934382 -32.929174 44.947756 -0.400733 2.392945 0.073563 -0.030920 435651.000000 0 0 1
27.607656 -11.301982 33.925248 45.175656 -0.388565 0.721277 0.106408 -0.028224 326375.000000 0 0 1
26.553556 -10.447182 -33.693974 44.153356 -0.374837 2.438912 0.070276 -0.033475 19879.500000 0 0 1
21.594020 -29.985153 9.162136 38.070407 -0.946670 1.327748 0.057543 -0.017470 340809.000000 0 0 1
22.219820 -29.154453 8.165736 37.555050 -0.919570 1.351612 0.073265 -0.018579 808675.000000 0 0 1
23.236420 -29.880553 7.426236 38.573666 -0.909837 1.377066 0.062216 -0.020926 682605.000000 0 0 1
23.586620 -29.264253 6.076536 38.074263 -0.892415 1.410514 0.052940 -0.020656 -144641.000000 0 0 1
24.180320 -28.019353 6.007436 37.494817 -0.858811 1.409882 0.057824 -0.016489 -194481.000000 0 0 1
24.629620 -27.805553 4.694136 37.440645 -0.845893 1.445090 0.047909 -0.010075 -300354.000000 0 0 1
24.690920 -26.357553 4.313836 36.372673 -0.818035 1.451915 0.038591 -0.011648 228181.000000 0 0 1
25.748820 -25.758853 5.041636 36.768714 -0.785593 1.433245 0.027726 -0.011460 246560.000000 0 0 1
25.634820 -24.351053 4.867136 35.690430 -0.759721 1.433999 0.026901 -0.005768 196105.000000 0 0 1
26.456520 -23.514553 5.907836 35.885710 -0.726593 1.405414 0.032969 -0.009147 1112880.000000 0 0 1
27.850420 -23.393353 5.540336 36.791170 -0.698639 1.419633 0.020084 -0.007483 878253.000000 0 0 1
28.622520 -22.596353 6.435236 37.030475 -0.668281 1.396127 0.034823 -0.011660 220675.000000 0 0 1
28.238920 -21.080353 6.705036 35.871652 -0.641257 1.382773 0.048248 -0.008395 -415211.000000 0 0 1
28.349220 -20.270953 5.530336 35.287030 -0.620752 1.413423 0.047914 0.000376 128714.000000 0 0 1
27.796020 -18.962653 5.768736 34.139116 -0.598685 1.401004 0.065158 -0.007675 216620.000000 0 0 1
27.645320 -18.135853 4.447436 33.360944 -0.580595 1.437086 0.063192 -0.004650 1009800.000000 0 0 1
28.917120 -17.640853 3.972036 34.105375 -0.547776 1.454068 0.082523 -0.001284 787387.000000 0 0 1
28.841420 -17.146053 2.613836 33.654818 -0.536361 1.493052 0.073339 0.001474 80141.600000 0 0 1
29.920720 -16.084953 2.380436 34.053512 -0.493262 1.500836 0.082587 -0.020227 259916.000000 0 0 1
29.601020 -14.944653 3.089936 33.303315 -0.467536 1.477881 0.092536 -0.024776 52558.100000 0 0 1
30.798420 -14.216353 3.269136 34.078360 -0.432453 1.474719 0.088017 -0.024947 337373.000000 0 0 1
30.703320 -13.152253 4.379136 33.687571 -0.404718 1.440435 0.119526 -0.031725 129843.000000 0 0 1
30.523320 -13.714853 5.662436 33.938672 -0.422291 1.403169 0.111909 -0.026982 -9438.770000 0 0 1
30.391020 -12.723953 6.621236 33.605861 -0.396501 1.372473 0.104559 -0.036218 -491835.000000 0 0 1
29.832020 -13.171553 7.953536 33.566322 -0.415783 1.331571 0.121160 -0.031839 639928.000000 0 0 1
28.411120 -13.407753 8.073136 32.436632 -0.440932 1.319263 0.109857 -0.020890 1150210.000000 0 0 1
27.910920 -13.186053 9.438636 32.279704 -0.441352 1.274059 0.116546 -0.012774 235535.000000 0 0 1
28.365820 -14.168453 10.514036 33.405236 -0.463240 1.250611 0.108546 -0.008928 -523077.000000 0 0 1
29.589220 -13.889653 11.146036 34.535178 -0.438882 1.242169 0.098983 0.004168 -152016.000000 0 0 1
29.992420 -15.108253 11.721636 35.569669 -0.466632 1.234980 0.091742 -0.012236 278101.000000 0 0 1
30.931220 -15.173853 12.971736 36.813749 -0.456073 1.210703 0.089412 -0.009626 433733.000000 0 0 1
32.241520 -14.686053 12.748436 37.652602 -0.427419 1.225388 0.061631 -0.003959 140793.000000 0 0 1
32.998320 -14.970453 13.893036 38.807474 -0.425904 1.204672 0.047845 -0.003757 -406029.000000 0 0 1
34.527820 -14.971953 13.917036 40.124975 -0.409149 1.216594 0.049916 -0.004452 -318898.000000 0 0 1
35.042220 -13.643253 13.903836 40.092546 -0.371281 1.216646 0.052013 -0.004668 218136.000000 0 0 1
36.402920 -13.675753 13.509336 41.166746 -0.359364 1.236440 0.039453 -0.005477 -134974.000000 0 0 1
-36.786616 -12.304353 13.408436 41.041910 0.322781 1.237985 0.043716 -0.008028 -387536.000000 0 0 1
-35.689716 -12.211753 12.528336 39.747225 0.329677 1.250129 0.055601 -0.010004 -420351.000000 0 0 1
-35.077316 -10.968153 12.667036 38.873799 0.303053 1.238885 0.051683 -0.013892 -299317.000000 0 0 1
-33.943216 -10.777253 11.611736 37.458290 0.307441 1.255613 0.057130 -0.007651 404307.000000 0 0 1
-32.808416 -11.603853 11.822736 36.753485 0.339954 1.243297 0.039602 -0.008721 154279.000000 0 0 1
-32.988616 -12.963653 11.484436 37.258520 0.374434 1.257458 0.036253 -0.007325 -443654.000000 0 0 1
-31.847516 -13.958453 11.873336 36.743418 0.413073 1.241749 0.024637 -0.009236 145604.000000 0 0 1
-30.558716 -13.916053 11.363436 35.448827 0.427325 1.244477 0.040704 -0.008642 -416885.000000 0 0 1
-29.725916 -14.934353 11.889936 35.327547 0.465567 1.227532 0.048781 -0.003824 -413369.000000 0 0 1
-28.343216 -14.924753 11.261836 33.954603 0.484679 1.232720 0.061968 0.004216 -672847.000000 0 0 1
-28.366616 -15.129353 9.844036 33.622422 0.489971 1.273661 0.052290 0.004285 108862.000000 0 0 1
-27.075616 -14.907053 9.306236 32.278712 0.503282 1.278336 0.054365 0.008454 92337.900000 0 0 1
-27.014216 -14.594153 7.797636 31.679020 0.495319 1.322095 0.088363 0.007520 -112295.000000 0 0 1
-27.255716 -15.616253 6.845236 32.149629 0.520295 1.356236 0.091811 0.008108 202847.000000 0 0 1
-27.244816 -15.185353 5.520236 31.675668 0.508481 1.395628 0.105170 0.002407 -361540.000000 0 0 1
-27.461216 -16.346053 4.499636 32.273186 0.536913 1.430917 0.091604 -0.004809 -564512.000000 0 0 1
-28.792616 -16.722853 4.351036 33.579757 0.526185 1.440858 0.059509 -0.008656 -599414.000000 0 0 1
-29.030416 -17.645953 3.295636 34.132183 0.546167 1.474091 0.066910 -0.010138 637817.000000 0 0 1
-30.542016 -18.056553 3.248836 35.628763 0.533927 1.479484 0.071019 -0.020752 346527.000000 0 0 1
-31.411316 -17.000653 2.891036 35.833658 0.496083 1.490029 0.075201 -0.018099 -338059.000000 0 0 1
-32.681116 -17.450753 3.314436 37.196365 0.490453 1.481572 0.077953 -0.018836 -355471.000000 0 0 1
-33.821416 -16.593753 2.742736 37.772522 0.456122 1.498120 0.085975 -0.030108 -7196.020000 0 0 1
-34.334116 -17.074353 1.479536 38.373872 0.461485 1.532231 0.088639 -0.027868 -157532.000000 0 0 1
-35.450816 -16.270353 1.182836 39.024144 0.430276 1.540481 0.116712 -0.034223 195528.000000 0 0 1
-36.169416 -16.656653 -0.170564 39.820847 0.431566 1.575080 0.103858 -0.032934 -418278.000000 0 0 1
-35.316216 -16.414853 -1.200164 38.963097 0.435090 1.601604 0.105553 -0.028943 -404847.000000 0 0 1
-35.587616 -17.365553 -2.220864 39.660724 0.453974 1.626822 0.090648 -0.022291 431937.000000 0 0 1
-34.354916 -18.056653 -2.923864 38.921099 0.483911 1.645990 0.069857 -0.020718 185762.000000 0 0 1
-34.649916 -19.031453 -3.931664 39.727457 0.502267 1.669925 0.067190 -0.027580 -158006.000000 0 0 1
-33.502716 -19.613953 -4.510164 39.082998 0.529648 1.686454 0.057907 -0.017297 -166593.000000 0 0 1
-33.921916 -20.646853 -5.592564 40.103188 0.546762 1.710707 0.073665 -0.024428 -372417.000000 0 0 1
-34.532516 -21.798153 -5.088364 41.152710 0.563071 1.694759 0.085742 -0.032235 -139418.000000 0 0 1
-34.865216 -22.770853 -6.076264 42.083441 0.578559 1.715689 0.082131 -0.027180 -33253.600000 0 0 1
-35.524516 -23.978153 -5.419564 43.200865 0.593732 1.696578 0.084658 -0.027036 -38253.100000 0 0 1
-34.603116 -24.929453 -4.897564 42.928305 0.624312 1.685132 0.095020 -0.028004 -108803.000000 0 0 1
-35.160716 -26.240153 -4.709564 44.124841 0.641124 1.677733 0.087115 -0.013321 76288.000000 0 0 1
-34.198416 -27.291753 -4.155364 43.950409 0.673546 1.665484 0.096267 -0.015165 -987765.000000 0 0 1
-33.126116 -27.655853 -4.981464 43.439622 0.695642 1.685725 0.089480 -0.014508 289430.000000 0 0 1
-32.302216 -28.688953 -4.419364 43.428331 0.726225 1.672735 0.092400 -0.015207 252720.000000 0 0 1
-31.351816 -28.295553 -3.271564 42.358917 0.734204 1.648108 0.096901 -0.015536 -941851.000000 0 0 1
-31.975716 -28.021353 -2.029464 42.564790 0.719584 1.618494 0.086086 -0.016446 -163321.000000 0 0 1
-31.085616 -27.840253 -0.961564 41.741105 0.730378 1.593835 0.080677 -0.024836 -219677.000000 0 0 1
-31.838016 -27.792853 0.375136 42.263964 0.717665 1.561920 0.084891 -0.019496 125662.000000 0 0 1
-32.389616 -29.076053 0.731936 43.532055 0.731541 1.553982 0.076553 -0.012602 -230152.000000 0 0 1
-33.351416 -29.053953 1.723736 44.265341 0.716643 1.531845 0.077884 -0.011105 -543254.000000 0 0 1
-33.595416 -30.517253 2.252336 45.442576 0.737423 1.521212 0.050693 -0.010373 -545125.000000 0 0 1
-34.409716 -30.452953 3.387636 46.074798 0.724472 1.497205 0.052359 -0.006651 280522.000000 0 0 1
-35.033716 -31.673453 3.825136 47.383547 0.735067 1.489981 0.040835 -0.007422 -336216.000000 0 0 1
-36.161016 -32.310653 3.085736 48.591348 0.729224 1.507250 0.028692 -0.000004 -922877.000000 0 0 1
-36.817416 -33.396053 3.758536 49.849223 0.736709 1.495327 0.047343 -0.009709 -131465.000000 0 0 1
36.038820 -33.936153 2.918636 49.588078 -0.755358 1.511905 0.042990 -0.003909 -1026610.000000 0 0 1
34.887520 33.477218 3.743336 48.496142 0.764772 1.493531 0.051189 -0.009742 -333804.000000 0 0 1
34.102520 -33.834653 4.657036 48.264414 -0.781455 1.474156 0.050989 -0.012083 130608.000000 0 0 1
33.528620 -32.701053 4.090736 47.013417 -0.772903 1.483674 0.043152 -0.006060 -1029310.000000 0 0 1
32.320020 -32.906053 3.170636 46.232510 -0.794383 1.502162 0.042410 0.003666 -804036.000000 0 0 1
32.718920 -33.554553 1.950036 46.906699 -0.798006 1.529212 0.050224 0.001700 -540863.000000 0 0 1
31.815420 -33.296753 0.919736 46.062356 -0.808145 1.550828 0.045766 0.006058 -1441810.000000 0 0 1
32.232020 -33.994053 -0.373864 46.846970 -0.811998 1.578777 0.049159 0.006547 744547.000000 0 0 1
33.416720 -33.557253 -1.039664 47.369266 -0.787496 1.592746 0.024067 0.016031 -800595.000000 0 0 1
34.608620 -33.575653 -0.369564 48.220511 -0.770250 1.578460 0.017200 0.009624 -2471890.000000 0 0 1
35.775620 -33.301453 -1.267964 48.892633 -0.749596 1.596733 0.010465 0.015525 -605797.000000 0 0 1
36.383020 33.639318 -1.940264 49.589238 0.746235 1.609933 0.017650 -0.005844 343449.000000 0 0 1
-36.894116 -33.899953 -3.120264 50.200783 0.743129 1.632992 0.023517 -0.002895 -484369.000000 0 0 1
-36.096416 33.183018 -4.008764 49.194858 -0.743370 1.652374 0.022786 -0.005593 242369.000000 0 0 1
-34.889416 32.707318 -3.424464 47.945458 -0.753128 1.642281 0.041179 -0.007981 503131.000000 0 0 1
-34.181916 31.887518 -4.371364 46.950250 -0.750685 1.664038 0.059309 -0.020693 324546.000000 0 0 1
-32.938816 31.143818 -3.797364 45.489811 -0.757395 1.654371 0.065691 -0.026365 -405922.000000 0 0 1
-31.817916 31.983218 -3.704064 45.266169 -0.787989 1.652716 0.051081 -0.018340 -574946.000000 0 0 1
-30.697416 31.146418 -3.498864 43.871092 -0.792658 1.650634 0.080298 -0.024850 236256.000000 0 0 1
-30.196516 30.914818 -1.980764 43.260594 -0.797152 1.616599 0.052944 -0.017216 -475534.000000 0 0 1
-31.067216 30.186318 -1.215764 43.334325 -0.771018 1.598855 0.037434 -0.013924 -677254.000000 0 0 1
-30.579416 30.088518 0.086936 42.900200 -0.777307 1.568770 0.043207 -0.010633 313980.000000 0 0 1
-31.747516 29.635718 1.055236 43.442998 -0.751008 1.546504 0.042582 -0.019846 642993.000000 0 0 1
-32.248216 28.321418 0.756836 42.925784 -0.720658 1.553164 0.046451 -0.022856 723767.000000 0 0 1
-33.208516 28.259818 -0.337864 43.606616 -0.705063 1.578544 0.058858 -0.020550 174392.000000 0 0 1
-33.413416 26.808018 -0.847464 42.846754 -0.676150 1.590577 0.087242 -0.020070 225558.000000 0 0 1
-33.878716 25.920118 0.161636 42.657309 -0.653086 1.567007 0.091799 -0.028425 54593.400000 0 0 1
-34.135216 24.613118 -0.425064 42.085617 -0.624713 1.580896 0.106893 -0.021352 -49240.400000 0 0 1
-34.204916 23.460918 0.635236 41.482460 -0.601195 1.555482 0.119117 -0.025278 191370.000000 0 0 1
-32.952316 23.065518 1.165236 40.239669 -0.610704 1.541835 0.124460 -0.031013 127522.000000 0 0 1
-32.553316 23.810618 2.302036 40.397565 -0.631513 1.513781 0.104273 -0.032068 -132728.000000 0 0 1
-31.069916 23.596418 2.757836 39.111843 -0.649529 1.500226 0.096329 -0.034802 720760.000000 0 0 1
-30.069616 24.333518 2.085136 38.738220 -0.680349 1.516944 0.095437 -0.031626 -51724.800000 0 0 1
-30.045816 25.707518 2.233836 39.605777 -0.707742 1.514365 0.072458 -0.034269 -437952.000000 0 0 1
-29.493116 26.577218 0.999436 39.713867 -0.733441 1.545628 0.051245 -0.024817 705815.000000 0 0 1
-28.149016 26.190818 0.744736 38.456217 -0.749378 1.551429 0.048683 -0.023099 339856.000000 0 0 1
-27.380216 27.099018 -0.071964 38.523216 -0.780237 1.572664 0.037970 -0.017390 25613.400000 0 0 1
-26.171216 26.464918 -0.712664 37.226769 -0.790978 1.589941 0.034754 -0.017161 -852114.000000 0 0 1
-26.541116 25.484018 -1.709764 36.834621 -0.765082 1.617230 0.044998 -0.023782 256477.000000 0 0 1
-25.404616 24.862418 -2.347764 35.623676 -0.774612 1.636749 0.039604 -0.012458 1233940.000000 0 0 1
-24.462616 23.925118 -1.496064 34.250095 -0.774290 1.614491 0.027589 -0.008041 351712.000000 0 0 1
-25.052216 22.672918 -1.126164 33.807439 -0.735585 1.604114 0.046276 -0.005737 -40881.200000 0 0 1
-24.089816 21.850918 -0.502664 32.527442 -0.736702 1.586250 0.043076 -0.014571 -945455.000000 0 0 1
-24.533416 20.427918 -0.138364 31.925029 -0.694339 1.575130 0.051559 -0.010105 -480437.000000 0 0 1
-25.453416 20.309718 0.906436 32.575798 -0.673470 1.542967 0.060169 -0.016251 1208320.000000 0 0 1
-26.789016 20.855618 0.757236 33.958527 -0.661502 1.548496 0.048065 -0.019306 1131580.000000 0 0 1
-27.762516 20.282418 -0.334664 34.383801 -0.630948 1.580530 0.051346 -0.026323 -166623.000000 0 0 1
-28.170616 18.948818 -0.145664 33.950884 -0.592130 1.575087 0.067960 -0.031323 -213373.000000 0 0 1
-29.140216 18.554118 -1.054164 34.561810 -0.566982 1.601302 0.074079 -0.024943 -560773.000000 0 0 1
-29.578516 17.097518 -1.072564 34.181341 -0.524115 1.602180 0.070895 -0.019188 -80435.800000 0 0 1
-30.320216 16.718518 0.064836 34.624103 -0.503916 1.568924 0.071546 -0.034298 206128.000000 0 0 1
-30.589216 15.316718 0.053336 34.209718 -0.464226 1.569237 0.076266 -0.037323 299595.000000 0 0 1
-29.409116 14.459118 0.615236 32.777137 -0.456949 1.552025 0.109565 -0.035798 20514.100000 0 0 1
-29.339916 14.655218 2.019436 32.858548 -0.463246 1.509299 0.119061 -0.039458 406372.000000 0 0 1
-28.114116 14.207518 2.598436 31.607103 -0.467920 1.488493 0.139775 -0.035891 476433.000000 0 0 1
-27.620416 12.717118 2.527936 30.512340 -0.431489 1.487852 0.156364 -0.043842 -231762.000000 0 0 1
-27.320816 12.237118 1.226636 29.961286 -0.421110 1.529844 0.145130 -0.045428 285058.000000 0 0 1
-27.147516 10.829318 1.184136 29.251733 -0.379563 1.530304 0.182578 -0.039605 -49978.400000 0 0 1
-26.948916 10.266418 -0.237964 28.839210 -0.363984 1.579048 0.159156 -0.029830 -183814.000000 0 0 1
-28.214616 10.147618 -0.839564 29.995726 -0.345253 1.598789 0.143423 -0.030206 -26173.400000 0 0 1
-28.198816 9.322718 -1.992564 29.766703 -0.319295 1.637786 0.150908 -0.033361 -513114.000000 0 0 1
-29.498016 9.097618 -2.750464 30.991364 -0.299159 1.659663 0.147406 -0.037127 -684086.000000 0 0 1
-29.324816 8.185918 -3.817964 30.684376 -0.272217 1.695547 0.157516 -0.026536 1176640.000000 0 0 1
-30.562916 7.899718 -4.521864 31.889569 -0.252938 1.713073 0.139341 -0.025698 714588.000000 0 0 1
-11.241980 17.821218 -19.352064 28.609095 -1.008023 2.313702 0.127272 -0.026856 117543.000000 0 0 1
-11.326080 16.780618 -20.282164 28.657205 -0.977081 2.357106 0.134253 -0.033727 418901.000000 0 0 1
-10.423180 16.887818 -21.432564 29.209517 -1.017825 2.394625 0.123117 -0.029581 128667.000000 0 0 1
-10.606280 15.671318 -22.382564 29.309769 -0.975814 2.439752 0.108951 -0.022235 -77726.000000 0 0 1
-9.991380 14.477418 -21.983664 28.155014 -0.966722 2.466755 0.133128 -0.030772 -237930.000000 0 0 1
-9.892680 13.511018 -23.057264 28.496494 -0.938789 2.513460 0.108269 -0.028529 -139528.000000 0 0 1
-8.971380 12.315318 -22.789264 27.413560 -0.941215 2.552263 0.103742 -0.020529 -1003200.000000 0 0 1
-7.627780 12.609118 -22.865164 27.202732 -1.026751 2.569088 0.064632 -0.023245 -1212630.000000 0 0 1
-6.887280 11.467118 -22.417964 26.105450 -1.029928 2.603615 0.053942 -0.011910 238625.000000 0 0 1
-5.362280 11.621218 -22.566064 25.942899 -1.138485 2.625666 0.026448 -0.008091 654.588000 0 0 1
-4.931180 11.628218 -23.876464 27.011433 -1.169714 2.655017 0.011895 -0.017801 -1225360.000000 0 0 1
-3.554580 11.654818 -24.024764 26.938061 -1.274770 2.672220 0.017046 -0.015735 -825687.000000 0 0 1
-3.050280 11.178818 -25.407984 27.925541 -1.304418 2.713713 0.052229 -0.034266 -369267.000000 0 0 1
-3.185380 9.812118 -25.701974 27.695050 -1.256892 2.759899 0.048024 -0.032944 -30611.200000 0 0 1
-2.687280 9.540318 -27.001554 28.763224 -1.296234 2.789789 0.061738 -0.034473 -455887.000000 0 0 1
-2.446780 8.019918 -27.212974 28.475459 -1.274678 2.842703 0.068826 -0.013990 71306.800000 0 0 1
-1.318180 7.476718 -26.526804 27.591851 -1.396285 2.862842 0.071342 -0.025790 317145.000000 0 0 1
-1.478680 7.363018 -25.116764 26.215499 -1.372607 2.851049 0.075034 -0.040658 -480420.000000 0 0 1
-0.666780 6.283318 -24.380064 25.185556 -1.465073 2.888002 0.001895 -0.028722 346919.000000 0 0 1
0.716820 6.665518 -24.331264 25.237935 1.463666 2.872735 0.038121 -0.008812 241077.000000 0 0 1
1.486720 5.925818 -23.476364 24.258304 1.324982 2.887000 0.029484 0.002675 -332647.000000 0 1 0
1.622220 6.491218 -22.023464 23.017395 1.325902 2.846648 0.039222 -0.002687 -300295.000000 0 1 0
2.403720 7.655518 -21.934064 23.355685 1.266559 2.790891 0.032319 -0.020214 5121.060000 0 1 0
2.273620 8.324818 -20.708464 22.434626 1.304185 2.746753 0.040022 -0.015120 -291046.000000 0 1 0
2.930720 9.665518 -20.694664 23.027820 1.276394 2.687549 0.037236 -0.024082 -374935.000000 0 1 0
2.821220 10.362618 -19.527964 22.286420 1.304989 2.638773 0.042833 -0.031473 120190.000000 0 1 0
3.415920 11.673918 -19.607464 23.073828 1.286132 2.586347 0.051485 -0.032796 -14239.300000 0 1 0
4.730420 11.786118 -18.833964 22.715802 1.189122 2.548315 0.046080 -0.029895 -116868.000000 0 1 0
5.781620 10.998818 -19.367564 23.010947 1.086833 2.571160 0.055617 -0.028767 81558.600000 0 1 0
6.740920 10.661218 -18.364564 22.279111 1.006976 2.539753 0.054979 -0.024613 458127.000000 0 1 0
7.852520 9.682718 -18.815364 22.570667 0.889394 2.556426 0.076197 -0.030024 8396.690000 0 1 0
7.409020 8.351718 -18.963164 22.005599 0.845140 2.609491 0.065154 -0.023559 70364.800000 0 1 0
6.751920 8.113518 -20.203464 22.794683 0.876738 2.660141 0.050611 -0.018553 169049.000000 0 1 0
6.555420 6.666818 -20.518964 22.548789 0.793823 2.714034 0.052638 -0.007798 -539238.000000 0 1 0
7.808420 6.102718 -20.698164 22.948390 0.663393 2.695047 0.052942 -0.002452 -460881.000000 0 1 0
7.710320 4.691518 -20.829964 22.701251 0.546626 2.732718 0.047510 -0.002907 -183782.000000 0 1 0
7.676120 4.232918 -22.298564 23.959682 0.503948 2.767037 0.057500 -0.014384 -462288.000000 0 1 0
6.492720 4.633018 -22.936264 24.283585 0.619776 2.806918 0.051373 -0.018583 -223374.000000 0 1 0
6.653720 4.577318 -24.298264 25.605263 0.602582 2.820705 0.049892 -0.020413 404779.000000 0 0 1
5.628320 5.480918 -25.107224 26.307625 0.772131 2.838341 0.030937 -0.017925 290982.000000 0 0 1
5.806720 6.851618 -25.053614 26.614775 0.867758 2.797383 0.034302 -0.026597 104747.000000 0 0 1
5.087220 7.452218 -23.984564 25.625665 0.971813 2.781768 0.060295 -0.038895 -797380.000000 0 0 1
5.128520 9.034018 -24.103364 26.246664 1.054473 2.734662 0.076124 -0.043616 -206255.000000 0 0 1
4.160320 9.613718 -24.923364 27.035272 1.162381 2.743709 0.077848 -0.044339 -446951.000000 0 0 1
2.882120 9.578918 -24.326564 26.302928 1.278531 2.751467 0.072482 -0.042420 -142292.000000 0 0 1
1.711420 9.890418 -25.321894 27.238716 1.399455 2.764200 0.082309 -0.027123 331417.000000 0 0 1
1.510620 11.302318 -25.552144 27.981001 1.437928 2.721856 0.106969 -0.044979 -234154.000000 0 0 1
0.514920 11.485118 -26.515404 28.900514 1.525993 2.732474 0.121789 -0.049364 -403426.000000 0 0 1
0.292120 12.966718 -26.758314 29.735980 1.548272 2.690252 0.111278 -0.056661 -50705.200000 0 0 1
-0.303680 13.567418 -25.642304 29.011977 -1.548417 2.654831 0.101955 -0.054659 -158563.000000 0 0 1
-0.556480 14.929318 -25.915884 29.913663 -1.533539 2.618656 0.098458 -0.058585 -219407.000000 0 0 1
-1.044080 15.675718 -24.689064 29.263768 -1.504290 2.574886 0.105045 -0.049750 -617796.000000 0 0 1
-2.253780 15.131118 -24.267364 28.686848 -1.422933 2.579123 0.083667 -0.037174 -862796.000000 0 0 1
-2.633480 15.646218 -23.052664 27.985080 -1.404045 2.538787 0.071752 -0.040330 84929.100000 0 0 1
-3.975280 15.155918 -22.414164 27.347750 -1.314282 2.531506 0.046630 -0.033144 1006500.000000 0 0 1
-5.240480 15.440518 -22.980364 28.177462 -1.243598 2.524490 0.053047 -0.032553 80332.700000 0 0 1
-5.462280 15.084918 -24.350164 29.160277 -1.223381 2.559012 0.054949 -0.032834 -762792.000000 0 0 1
-6.922480 15.124318 -24.850464 29.903366 -1.141553 2.551745 0.043821 -0.027959 -249135.000000 0 0 1
-7.401080 16.366718 -24.894664 30.698367 -1.146112 2.516560 0.054260 -0.031144 -1312520.000000 0 0 1
-8.663180 16.393618 -25.453544 31.491019 -1.084650 2.512020 0.070872 -0.025629 -602190.000000 0 0 1
-9.271480 17.849618 -25.638584 32.586902 -1.091732 2.476364 0.072385 -0.025125 9660.400000 0 0 1
-9.919580 18.362718 -24.493364 32.179378 -1.075507 2.435882 0.074478 -0.029989 925937.000000 0 0 1
-11.096080 19.143918 -24.863764 33.283920 -1.045502 2.414365 0.075943 -0.023220 1195150.000000 0 0 1
-11.672980 19.994018 -23.723864 33.148770 -1.042356 2.368392 0.079138 -0.026951 -223181.000000 0 0 1
-10.883080 21.076918 -23.298464 33.249005 -1.094154 2.347212 0.076416 -0.028789 -203312.000000 0 0 1
-11.237980 22.322818 -23.863764 34.555457 -1.104408 2.333105 0.072275 -0.032568 -147230.000000 0 0 1
-10.783980 22.759818 -25.295214 35.695257 -1.128314 2.358370 0.061488 -0.026716 -366220.000000 0 0 1
-11.351380 22.000918 -26.354984 36.159085 -1.094470 2.387455 0.064099 -0.032531 192550.000000 0 0 1
-11.185680 22.744218 -27.491844 37.392785 -1.113728 2.396784 0.051026 -0.023450 54799.200000 0 0 1
-11.871480 22.098618 -28.762694 38.165083 -1.077830 2.424377 0.046834 -0.025497 289399.000000 0 0 1
-11.140380 21.002518 -29.347534 37.768924 -1.083102 2.460728 0.041156 -0.021711 289849.000000 0 0 1
-11.099780 19.818518 -28.601294 36.524140 -1.060254 2.470398 0.051276 -0.020426 -355644.000000 0 0 1
-10.182280 18.885818 -29.367884 36.370669 -1.076322 2.510631 0.047328 -0.026189 -416927.000000 0 0 1
-8.813380 19.275018 -29.303384 36.164766 -1.141935 2.515417 0.043112 -0.027558 409531.000000 0 0 1
-7.871380 18.390918 -29.909994 35.983222 -1.166384 2.552096 0.046468 -0.023316 380367.000000 0 0 1
-7.725380 16.994218 -29.273304 34.719033 -1.144133 2.573909 0.058472 -0.029170 -964799.000000 0 0 1
-8.774680 16.070818 -29.386184 34.623894 -1.071029 2.584367 0.038999 -0.027311 -215837.000000 0 0 1
-8.422380 14.868118 -28.803224 33.490643 -1.055394 2.606140 0.045709 -0.033661 -61489.400000 0 0 1
-9.656580 13.981718 -28.543704 33.218685 -0.966368 2.604630 0.054880 -0.016536 925554.000000 0 0 1
-10.563580 14.446318 -27.480794 32.794502 -0.939417 2.564348 0.071953 -0.021637 1148950.000000 0 0 1
-11.741780 13.651918 -27.289634 32.695082 -0.860478 2.558331 0.105663 -0.020100 967591.000000 0 0 1
-12.708780 14.327318 -26.265284 32.506158 -0.845193 2.511562 0.099833 -0.021308 206116.000000 0 0 1
-13.231880 15.537218 -26.707874 33.612473 -0.865360 2.489116 0.084241 -0.018532 -680843.000000 0 0 1
-14.304980 15.883918 -25.874004 33.561814 -0.837652 2.451105 0.071330 -0.024855 -98689.900000 0 0 1
-15.116080 17.038318 -26.460634 34.913684 -0.845109 2.430865 0.053684 -0.019363 -90503.700000 0 0 1
-14.483280 18.307018 -26.275804 35.147264 -0.901486 2.415225 0.050864 -0.014417 23858.500000 0 0 1
-15.342980 19.335518 -26.671104 36.340296 -0.900024 2.394881 0.033410 -0.020094 -732881.000000 0 0 1
-14.703080 20.679318 -26.710994 36.841444 -0.952723 2.381868 0.034218 -0.023154 -52004.700000 0 0 1
-15.692880 21.701018 -26.816894 37.899162 -0.944708 2.356872 0.016725 -0.028235 571408.000000 0 0 1
-15.113980 23.014018 -26.861754 38.465975 -0.989705 2.343851 0.025106 -0.029338 7500.170000 0 0 1
-14.750080 23.557918 -25.448264 37.684937 -1.011392 2.312154 0.014543 -0.027334 -53026.100000 0 0 1
-14.131780 24.796718 -25.593544 38.335544 -1.052799 2.301803 0.038461 -0.032140 -182413.000000 0 0 1
-13.841880 25.411318 -24.344964 37.815473 -1.072021 2.270228 0.051763 -0.032481 -88876.500000 0 0 1
-13.866880 26.947718 -24.471864 38.953074 -1.095549 2.250085 0.071830 -0.028141 905678.000000 0 0 1
-15.127680 27.433918 -24.970664 40.062459 -1.066862 2.243744 0.086150 -0.035815 671910.000000 0 0 1
-15.709080 28.424518 -24.127064 40.457924 -1.065914 2.209742 0.079342 -0.036673 565103.000000 0 0 1
-17.106780 28.931918 -24.613664 41.659696 -1.036815 2.202880 0.076173 -0.036746 1165840.000000 0 0 1
-18.081580 27.860818 -24.631664 41.350787 -0.995127 2.208903 0.055368 -0.035343 -69865.000000 0 0 1
-19.292580 28.347218 -25.152264 42.525343 -0.973222 2.203671 0.049891 -0.024583 455989.000000 0 0 1
-20.562780 27.463418 -24.866964 42.372552 -0.928106 2.197978 0.039190 -0.016054 606400.000000 0 0 1
-20.809480 27.282218 -23.456664 41.564035 -0.919186 2.170442 0.051917 -0.021625 167684.000000 0 0 1
-21.853380 26.332418 -23.226164 41.357238 -0.878085 2.167113 0.054677 -0.030535 230281.000000 0 0 1
-22.532680 26.526118 -21.863464 41.101918 -0.866620 2.131678 0.040003 -0.019238 -292260.000000 0 0 1
-23.411480 27.618018 -21.832664 42.279044 -0.867646 2.113432 0.038085 -0.009992 -282938.000000 0 0 1
-23.935680 27.758918 -20.535664 42.014138 -0.859222 2.081487 0.032315 -0.008962 -404865.000000 0 0 1
-25.241290 28.557318 -20.452464 43.254438 -0.846958 2.063308 0.027529 -0.009935 -853579.000000 0 0 1
-26.358440 27.779418 -20.678764 43.520969 -0.811640 2.065925 0.013853 -0.003745 -977300.000000 0 0 1
-27.498500 28.611118 -20.729164 44.771216 -0.805225 2.052175 0.027528 -0.010336 485172.000000 0 0 1
-28.789300 27.884718 -21.233364 45.356775 -0.769438 2.057982 0.024255 -0.012737 161002.000000 0 0 1
-28.780890 27.356918 -22.545964 45.662469 -0.760038 2.087196 0.019501 -0.006940 153552.000000 0 0 1
-29.971550 26.670618 -22.944364 46.217524 -0.727187 2.090293 0.023301 -0.008893 409540.000000 0 0 1
-30.116000 26.292418 -24.422664 46.847959 -0.717718 2.119191 0.015995 0.003361 -219693.000000 0 0 1
-29.511530 25.054418 -24.626364 45.881500 -0.703896 2.137363 0.020977 0.004350 -120951.000000 0 0 1
-29.455520 24.692318 -25.985304 46.395843 -0.697657 2.165277 0.046673 -0.000605 -166023.000000 0 0 1
-29.669910 23.160418 -26.242624 45.884462 -0.662801 2.179651 0.040108 -0.008741 157597.000000 0 0 1
-28.558730 22.347318 -25.866384 44.542940 -0.663981 2.190393 0.040949 -0.009667 419845.000000 0 0 1
-28.743670 21.143718 -26.640874 44.530793 -0.634218 2.212121 0.065084 -0.026580 39885.700000 0 0 1
-27.596260 20.136918 -26.414334 43.182937 -0.630380 2.228985 0.073561 -0.027421 -24913.800000 0 0 1
-27.578190 19.607118 -25.116284 42.140519 -0.618047 2.209323 0.072751 -0.017396 34221.100000 0 0 1
-26.907680 18.384818 -25.100614 41.134725 -0.599399 2.227116 0.071892 -0.019203 67669.100000 0 0 1
-27.868990 17.188118 -25.331414 41.397977 -0.552643 2.229257 0.069424 -0.015463 58992.300000 0 0 1
-28.628470 17.121218 -26.496164 42.600142 -0.538983 2.242057 0.069046 -0.020780 -32072.600000 0 0 1
-29.372590 15.916818 -26.428244 42.597491 -0.496598 2.240072 0.054776 -0.023651 -517488.000000 0 0 1
-30.178530 15.659218 -27.677754 43.840767 -0.478642 2.254056 0.046183 -0.022692 -174135.000000 0 0 1
-31.440400 16.303318 -27.576384 44.886010 -0.478375 2.232377 0.038852 -0.024049 168433.000000 0 0 1
-32.270990 15.907818 -28.666324 46.002539 -0.457988 2.243556 0.046904 -0.018157 190937.000000 0 0 1
-33.524180 16.785918 -28.868864 47.318590 -0.464216 2.226978 0.048862 -0.015955 -159348.000000 0 0 1
-34.556044 16.476518 -27.969624 47.411978 -0.444921 2.201765 0.039238 -0.017036 266145.000000 0 0 1
-35.827772 16.517318 -28.656564 48.761149 -0.431980 2.199000 0.046048 -0.016646 155271.000000 0 0 1
36.889786 16.356318 -27.664954 48.925813 0.417338 2.171771 0.034705 -0.010132 -859332.000000 0 0 1
36.633596 17.503018 -26.900024 48.703052 0.445719 2.155950 0.049257 -0.015459 311621.000000 0 0 1
35.649046 17.151918 -25.896464 47.282868 0.448440 2.150400 0.063769 -0.007994 497197.000000 0 0 1
35.159676 18.300618 -25.015724 46.871120 0.479913 2.133781 0.071849 -0.005460 -453740.000000 0 0 1
34.282826 19.073818 -25.741554 46.922812 0.507718 2.151478 0.073491 -0.019641 -551741.000000 0 0 1
33.813346 20.188818 -24.994264 46.643799 0.538260 2.136315 0.082911 -0.019610 -280345.000000 0 0 1
33.112066 21.280018 -25.810774 47.068505 0.571203 2.151205 0.082993 -0.027363 421170.000000 0 0 1
31.789436 20.951518 -26.198264 46.215618 0.582726 2.173498 0.068021 -0.023148 280184.000000 0 0 1
30.760496 21.417118 -25.312074 45.228334 0.608207 2.164761 0.070755 -0.017972 622119.000000 0 0 1
29.320316 21.208718 -25.853694 44.473634 0.626223 2.191154 0.032643 -0.013587 452551.000000 0 0 1
29.031536 19.872218 -26.077294 43.792241 0.600250 2.208656 0.036532 -0.017391 455633.000000 0 0 1
27.647856 19.747418 -26.463694 43.066130 0.620224 2.232535 0.042740 -0.013572 985181.000000 0 0 1
27.069256 18.324418 -26.165304 41.870659 0.595085 2.245810 0.069137 -0.009115 65675.700000 0 0 1
27.680456 17.295518 -26.936704 42.319365 0.558475 2.260761 0.059361 -0.001395 -10700.500000 0 0 1
28.796406 16.681518 -26.331024 42.436174 0.525054 2.240158 0.054876 0.001235 82417.600000 0 0 1
29.576646 15.732918 -27.319034 43.227680 0.488870 2.254902 0.040561 0.010301 222017.000000 0 0 1
28.847616 14.583918 -27.711274 42.576875 0.468078 2.279503 0.057051 0.010390 100135.000000 0 0 1
28.374456 13.629218 -26.749804 41.308805 0.447791 2.275170 0.080455 0.002296 -106071.000000 0 0 1
29.408986 12.732518 -25.970034 41.248614 0.408582 2.251832 0.072041 -0.002057 22402.200000 0 0 1
29.974676 13.530118 -24.958964 41.285532 0.424005 2.219991 0.072066 -0.006926 -767144.000000 0 0 1
30.820826 12.769618 -24.199964 41.214375 0.392788 2.198358 0.064569 -0.010616 -497760.000000 0 0 1
-14.973380 -31.438453 -23.601264 42.066592 1.126307 2.166444 0.105933 -0.008055 468985.000000 0 0 1
-14.171580 -30.378553 -24.162864 41.322321 1.134306 2.195357 0.105690 -0.017969 479453.000000 0 0 1
-14.588680 -30.093153 -25.490814 42.050078 1.119395 2.222072 0.082136 -0.011770 45277.200000 0 0 1
-13.925880 -28.831953 -26.064484 41.286426 1.120840 2.254036 0.100921 -0.019682 -334241.000000 0 0 1
-14.381780 -27.655853 -25.524754 40.288893 1.091256 2.256921 0.094400 -0.013778 13356.300000 0 0 1
-13.736980 -26.576053 -26.194494 39.763586 1.093726 2.289960 0.086983 -0.016681 -247370.000000 0 0 1
-14.148680 -25.130753 -25.638174 38.588287 1.058025 2.297491 0.061141 -0.007439 -357609.000000 0 0 1
-13.644680 -24.697953 -24.387364 37.294902 1.066065 2.283532 0.076009 -0.021591 164342.000000 0 0 1
-13.928480 -23.334853 -24.175264 36.372535 1.032662 2.297831 0.080273 -0.018001 -192341.000000 0 0 1
-13.314880 -22.895453 -22.847964 34.978812 1.044053 2.282592 0.073381 -0.009399 204504.000000 0 0 1
-11.902080 -22.892253 -22.824564 34.448157 1.091342 2.295051 0.086763 -0.017578 144038.000000 0 0 1
-11.347280 -21.985353 -21.847464 33.006488 1.094329 2.294166 0.080723 -0.004538 1064620.000000 0 0 1
-9.820080 -21.633953 -21.936564 32.336895 1.144687 2.316346 0.080308 -0.003436 882289.000000 0 0 1
-9.466880 -20.673553 -22.953064 32.308834 1.141374 2.360901 0.081655 -0.009635 -342226.000000 0 0 1
-8.151380 -20.241753 -22.761964 31.532215 1.187963 2.377288 0.092069 -0.020267 -440269.000000 0 0 1
-7.929280 -19.004353 -23.604264 31.324116 1.175521 2.424241 0.106702 -0.021391 -172617.000000 0 0 1
-7.989780 -17.829053 -22.803264 30.028330 1.149496 2.433174 0.087474 -0.015600 -71321.300000 0 0 1
-8.215280 -16.652353 -23.574664 30.009273 1.112491 2.474428 0.087442 -0.017109 179903.000000 0 0 1
-7.080580 -16.156753 -24.529564 30.213818 1.157763 2.518137 0.098093 -0.025124 202793.000000 0 0 1
-6.895980 -16.951753 -25.679904 31.533696 1.184441 2.522429 0.102287 -0.028112 626059.000000 0 0 1
-5.749780 -16.388253 -26.352274 31.560690 1.233367 2.558877 0.093631 -0.030977 477939.000000 0 0 1
-5.447380 -17.058853 -27.655994 32.947419 1.261703 2.566971 0.090643 -0.023474 91910.000000 0 0 1
-6.493480 -17.028753 -28.621434 33.931257 1.206493 2.574586 0.106118 -0.023367 6958.120000 0 0 1
-6.142080 -17.684953 -29.801544 35.193959 1.236524 2.580699 0.099242 -0.025774 -32221.600000 0 0 1
-6.983280 -17.386753 -31.088474 36.298190 1.188874 2.599197 0.105096 -0.020101 116370.000000 0 0 1
-6.813080 -16.200953 -31.777324 36.313734 1.172713 2.636392 0.101143 -0.025140 -174811.000000 0 0 1
-7.149780 -15.011853 -31.063944 35.234127 1.126308 2.650130 0.089775 -0.025609 23607.300000 0 0 1
-7.749680 -13.936353 -32.043634 35.792094 1.063300 2.679836 0.082915 -0.025569 -108934.000000 0 0 1
-6.844480 -13.436953 -32.986094 36.269561 1.099675 2.712805 0.102116 -0.032092 -93486.400000 0 0 1
-7.521880 -12.648653 -33.948254 37.000690 1.034299 2.732553 0.108492 -0.032800 -179879.000000 0 0 1
-7.752080 -11.189253 -33.546454 36.203021 0.964909 2.756119 0.092000 -0.034199 1385210.000000 0 0 1
-6.587780 -10.277653 -33.601734 35.750602 1.000788 2.793113 0.089655 -0.033474 1184870.000000 0 0 1
-6.093180 -10.083553 33.119822 35.152916 1.027244 0.341766 0.077240 -0.033131 410959.000000 0 0 1
-4.792680 -9.199553 33.094900 34.682474 1.090515 0.303737 0.077697 -0.029390 324150.000000 0 0 1
-4.579580 -8.625553 31.845356 33.309149 1.082711 0.297561 0.071721 -0.030065 -56813.000000 0 0 1
-3.497580 -7.716153 31.867776 32.974645 1.145218 0.259834 0.065516 -0.035586 -717649.000000 0 0 1
-3.548580 -6.783553 30.669566 31.610620 1.088828 0.244618 0.061210 -0.029941 -346925.000000 0 0 1
-4.623280 -5.934353 30.494656 31.408841 0.908948 0.241861 0.077128 -0.025645 -380153.000000 0 0 1
-5.860380 -6.484453 30.070856 31.315308 0.835909 0.282862 0.068925 -0.021025 502315.000000 0 0 1
-7.088180 -5.517653 30.079466 31.392054 0.661450 0.290198 0.059059 -0.018799 1135570.000000 0 0 1
-8.294180 -6.112753 29.598446 31.340503 0.635125 0.334985 0.065045 -0.022113 -198820.000000 0 0 1
-9.429580 -5.310753 29.714896 31.624296 0.512922 0.349271 0.047550 -0.019959 -397494.000000 0 0 1
-10.649480 -5.914653 29.034956 31.486873 0.506975 0.397249 0.053913 -0.025256 -443715.000000 0 0 1
-10.507980 -5.944753 27.608136 30.132489 0.514845 0.412242 0.042782 -0.015643 473819.000000 0 0 1
-11.584680 -6.692953 27.051656 30.179339 0.523892 0.459299 0.047625 -0.021542 294519.000000 0 0 1
-11.526180 -6.604353 25.540736 28.788878 0.520320 0.479613 0.044552 -0.023176 446762.000000 0 0 1
-10.379680 -7.314453 25.049656 28.084235 0.613866 0.469163 0.045573 -0.015524 768412.000000 0 0 1
-9.880380 -6.806153 23.751786 26.610016 0.603207 0.467743 0.047661 -0.016161 205228.000000 0 0 1
-10.770380 -7.104653 22.525216 25.958862 0.583127 0.520185 0.053001 -0.015908 138464.000000 0 0 1
-11.919380 -6.281853 22.436616 26.171263 0.485036 0.540795 0.044687 -0.014878 -54735.500000 0 0 1
-12.515880 -6.321853 21.143516 25.370482 0.467725 0.585582 0.047833 -0.017740 1117490.000000 0 0 1
-13.749880 -5.299153 21.059116 25.702657 0.367854 0.610544 0.046112 -0.010042 928546.000000 0 0 1
-13.338780 -3.945653 20.848616 25.063041 0.287602 0.588369 0.043303 -0.005171 281134.000000 0 0 1
-14.411080 -2.981853 20.802416 25.481585 0.204035 0.615698 0.035583 -0.009286 417477.000000 0 0 1
-14.093880 -1.548853 20.320616 24.778293 0.109456 0.609215 0.032323 -0.007282 -158582.000000 0 1 0
-13.249080 -0.712853 21.122316 24.943907 0.053752 0.560870 0.027459 -0.005440 139524.000000 0 1 0
-13.150980 0.650147 20.793916 24.612149 -0.049397 0.564486 0.025882 -0.014493 -512816.000000 0 1 0
-12.671580 1.170147 19.417016 23.215484 -0.092083 0.580147 0.039735 -0.020257 -269537.000000 0 1 0
-13.468880 0.907147 18.302816 22.742619 -0.067250 0.635491 0.050021 -0.014468 450586.000000 0 1 0
-14.781780 1.509147 18.329816 23.595777 -0.101743 0.681186 0.044814 -0.010411 323356.000000 0 1 0
-15.691280 0.710147 17.390016 23.433592 -0.045227 0.734602 0.055401 -0.009223 -577969.000000 0 1 0
-16.028980 -0.495853 18.001216 24.108460 0.030925 0.727745 0.035084 -0.005595 -264161.000000 0 1 0
-17.035780 -1.126853 17.294416 24.301942 0.066050 0.778956 0.039274 -0.009985 -559226.000000 0 1 0
-17.086180 -2.620853 17.439816 24.555113 0.152204 0.780969 0.045929 -0.010702 -32750.500000 0 1 0
-17.687880 -3.040853 18.640716 25.876324 0.170253 0.766450 0.048877 -0.004895 98569.100000 0 0 1
-17.480380 -4.443153 18.757116 26.021812 0.248908 0.765808 0.052122 -0.005448 -420471.000000 0 0 1
-18.085680 -5.110253 19.984916 27.433617 0.275379 0.754692 0.041988 0.004930 -174447.000000 0 0 1
-17.587180 -4.560953 21.199216 27.919848 0.253744 0.708577 0.035366 0.002677 226605.000000 0 0 1
-18.398980 -4.793353 22.353616 29.345917 0.254858 0.704820 0.040291 -0.002988 -104482.000000 0 0 1
-18.416780 -6.224653 23.045356 30.149834 0.325934 0.700747 0.056998 -0.006625 -102285.000000 0 0 1
-17.244680 -6.616353 23.699666 30.047117 0.366354 0.662023 0.019602 -0.011148 71525.300000 0 0 1
-16.270280 -7.274853 22.903616 29.021046 0.420461 0.661279 0.037539 -0.006129 49074.500000 0 0 1
-15.138480 -8.005153 23.632846 29.185055 0.486417 0.627056 0.048642 -0.003659 99693.700000 0 0 1
-15.635980 -9.190153 24.253446 30.284854 0.531369 0.642093 0.045261 -0.014911 637628.000000 0 0 1
-14.939180 -9.350353 25.518286 31.012757 0.559242 0.604420 0.062264 -0.013047 431272.000000 0 0 1
-15.662080 -10.274353 26.513736 32.462921 0.580583 0.615060 0.053478 -0.026868 -154367.000000 0 0 1
-15.781580 -11.662253 26.176196 32.714823 0.636410 0.643280 0.051511 -0.033165 -279881.000000 0 0 1
-14.767580 -12.447953 26.737266 32.983546 0.700372 0.625579 0.069487 -0.029302 -174391.000000 0 0 1
-15.112680 -13.988353 26.799206 33.797404 0.746782 0.655182 0.048347 -0.032859 344360.000000 0 0 1
-16.087780 -14.404053 27.766326 35.174739 0.730235 0.660994 0.045277 -0.036465 384474.000000 0 0 1
-16.502580 -15.750553 27.518896 35.744995 0.762086 0.692163 0.060041 -0.017401 196607.000000 0 0 1
-15.539980 -16.824253 28.145986 36.286953 0.825059 0.683052 0.060323 -0.017821 -123643.000000 0 0 1
-14.305180 -16.795653 27.484066 35.243524 0.865305 0.676397 0.073418 -0.024223 -616643.000000 0 0 1
-13.376080 -17.537553 28.265026 35.852433 0.919210 0.662639 0.088832 -0.021667 -93550.200000 0 0 1
-12.062980 -17.589053 27.443186 34.756564 0.969649 0.660667 0.082805 -0.031759 -334037.000000 0 0 1
-10.959880 -18.126153 28.103476 35.192069 1.026969 0.645874 0.097664 -0.032103 -76855.800000 0 0 1
-9.988380 -18.641853 27.205426 34.458985 1.078917 0.660800 0.086582 -0.028058 -91846.100000 0 0 1
-8.815080 -19.356053 27.878596 35.065347 1.143447 0.651711 0.108810 -0.033328 26395.900000 0 0 1
-9.139080 -20.608253 28.454486 36.302626 1.153389 0.670013 0.096432 -0.016559 -113491.000000 0 0 1
-7.928180 -21.158153 28.874236 36.663947 1.212280 0.663993 0.107272 -0.014867 -8261.180000 0 0 1
-8.143280 -22.549353 29.596546 38.088605 1.224240 0.680839 0.098048 -0.014163 133802.000000 0 0 1
-8.399680 -23.689053 28.809326 38.232226 1.230047 0.717373 0.097808 -0.020319 27087.000000 0 0 1
-8.616880 -24.822253 29.678766 39.638668 1.236669 0.724648 0.083736 -0.016600 -41032.900000 0 0 1
-8.849080 -26.166153 28.882796 39.964856 1.244683 0.763088 0.076703 -0.014885 230601.000000 0 0 1
-10.159280 -26.194353 28.339216 39.905717 1.200814 0.781079 0.068667 -0.016412 238467.000000 0 0 1
-10.350480 -27.437853 27.667306 40.316846 1.210069 0.814480 0.069013 -0.019757 -596742.000000 0 0 1
-11.703580 -27.614153 26.980866 40.342067 1.169921 0.838200 0.052746 -0.019674 -425836.000000 0 0 1
-11.979780 -26.964853 25.765786 39.172620 1.152714 0.852969 0.065557 -0.027306 147745.000000 0 0 1
-12.121780 -25.558353 25.890816 38.347116 1.127937 0.829601 0.052282 -0.014929 -443845.000000 0 0 1
-12.099180 -24.914653 24.490916 36.972085 1.118715 0.846757 0.067276 -0.027463 433352.000000 0 0 1
-13.276880 -25.318253 23.787416 37.190464 1.087820 0.876805 0.050167 -0.020719 558684.000000 0 0 1
-13.248280 -24.916953 22.420516 36.042350 1.082114 0.899425 0.059573 -0.018238 -94569.000000 0 0 1
-14.621380 -24.882453 21.715716 36.117773 1.039531 0.925735 0.058812 -0.018091 -240456.000000 0 0 1
-15.049080 -26.121853 21.307616 36.916670 1.048128 0.955523 0.065165 -0.020952 -30501.300000 0 0 1
-16.303380 -26.004353 20.671516 37.004569 1.010797 0.978075 0.063029 -0.017008 -31232.300000 0 0 1
-16.751580 -27.321653 20.038716 37.797332 1.020782 1.012005 0.061749 -0.019438 -741465.000000 0 0 1
-15.820180 -27.824953 19.172516 37.310742 1.053815 1.031118 0.059800 -0.017838 -459465.000000 0 0 1
-16.152980 -29.103853 18.654516 38.156834 1.064113 1.059979 0.072551 -0.011915 440668.000000 0 0 1
-14.984480 -29.559353 17.739716 37.589726 1.101621 1.079318 0.075038 -0.020955 256632.000000 0 0 1
-15.086880 -28.806353 16.570116 36.496420 1.088342 1.099524 0.085300 -0.021434 308007.000000 0 0 1
-13.942580 -28.862253 15.716816 35.699349 1.120782 1.114914 0.075459 -0.027237 -62055.900000 0 0 1
-14.163780 -28.383453 14.239116 34.770469 1.107937 1.148871 0.076632 -0.015329 -255279.000000 0 0 1
-14.161380 -26.975953 14.131516 33.584914 1.087378 1.136503 0.065713 -0.014253 -36480.900000 0 0 1
-14.556480 -26.439553 12.869116 32.810901 1.067526 1.167752 0.070260 -0.021470 351722.000000 0 0 1
-13.536980 -26.659553 11.699616 32.107049 1.100950 1.197814 0.071098 -0.016711 316716.000000 0 0 1
-13.971380 -26.095453 10.496716 31.406260 1.079235 1.230015 0.062138 -0.018856 -332087.000000 0 0 1
-13.131680 -26.407353 9.426916 30.962172 1.109332 1.261419 0.075659 -0.018146 -62089.600000 0 0 1
-13.559480 -25.679853 8.114116 30.152168 1.084985 1.298332 0.076345 -0.017843 370453.000000 0 0 1
-14.672680 -26.256253 7.441916 30.984843 1.061202 1.328246 0.077964 -0.025109 141283.000000 0 0 1
-14.953380 -25.423753 6.346216 30.170271 1.039124 1.358867 0.082259 -0.026756 335338.000000 0 0 1
-16.031080 -25.963053 5.348516 30.978739 1.017639 1.397276 0.089747 -0.024691 497303.000000 0 0 1
-15.488480 -27.011353 4.555416 31.468366 1.050161 1.425524 0.093771 -0.025040 190627.000000 0 0 1
-16.348280 -27.308653 3.480616 32.017862 1.031371 1.461873 0.101484 -0.020384 -21863.100000 0 0 1
-15.854880 -28.586753 2.731216 32.803037 1.064410 1.487439 0.095295 -0.018334 870636.000000 0 0 1
-14.619080 -28.455153 2.002016 32.053414 1.096203 1.508297 0.102127 -0.011500 545502.000000 0 0 1
-14.203380 -29.663153 1.387416 32.917527 1.124234 1.528636 0.099213 -0.013247 -945376.000000 0 0 1
-12.814180 -29.643153 0.799816 32.304171 1.162775 1.546035 0.079467 -0.014746 -627807.000000 0 0 1
-12.687980 -28.988253 -0.424584 31.646231 1.158223 1.584213 0.089399 -0.008681 -313786.000000 0 0 1
-12.653580 -27.602553 -0.281384 30.365988 1.140962 1.580063 0.082538 -0.012721 -405271.000000 0 0 1
-12.250180 -26.845053 -1.554384 29.548941 1.142692 1.623424 0.086288 -0.016045 1030100.000000 0 0 1
-10.941380 -27.226653 -2.039784 29.413690 1.188685 1.640200 0.094140 -0.021282 492690.000000 0 0 1
-10.585380 -26.400153 -3.127584 28.614684 1.189463 1.680315 0.102086 -0.022004 887585.000000 0 0 1
-9.069980 -26.677553 -3.437784 28.386172 1.243071 1.692202 0.094313 -0.030302 596408.000000 0 0 1
-8.509680 -25.813053 -4.412184 27.535355 1.252350 1.731727 0.090753 -0.025441 -1260280.000000 0 0 1
-7.267280 -26.259353 -4.799084 27.665831 1.300804 1.745144 0.081875 -0.024183 -448206.000000 0 0 1
-6.514680 -25.079953 -5.542884 26.498466 1.316656 1.781530 0.066215 -0.024811 217557.000000 0 0 1
-7.122080 -24.833153 -6.817184 26.718599 1.291496 1.828797 0.070779 -0.019292 324261.000000 0 0 1
-6.403680 -23.752653 -7.423884 25.696492 1.307459 1.863881 0.059136 -0.016057 -10604.800000 0 0 1
-6.563980 -23.575753 -8.911584 26.044545 1.299253 1.920018 0.058493 -0.016883 -105732.000000 0 0 1
-5.867980 -24.610853 -9.565884 27.048723 1.336736 1.932271 0.038145 -0.018858 -35080.200000 0 0 1
-5.885280 -24.566553 -11.030684 27.564979 1.335663 1.982499 0.035492 -0.010829 -49227.400000 0 0 1
-7.195180 -25.140753 -11.606684 28.610194 1.292051 1.988523 0.051990 -0.016511 -16509.400000 0 0 1
-7.257280 -25.331353 -13.017184 29.390350 1.291776 2.029635 0.067862 -0.013743 349797.000000 0 0 1
-8.450280 -26.046953 -13.354184 30.466133 1.257085 2.024535 0.098017 -0.017733 33548.200000 0 0 1
-8.620980 -25.965253 -14.972384 31.187946 1.250228 2.071530 0.102587 -0.017976 -107122.000000 0 0 1
-7.703280 -26.659553 -15.794184 31.930057 1.289508 2.088228 0.081521 -0.015332 -863152.000000 0 0 1
-6.477680 -26.014653 -15.825384 31.131420 1.326758 2.104054 0.073086 -0.015882 -1496580.000000 0 0 1
-5.513880 -26.909953 -16.587884 32.089038 1.368693 2.114061 0.060505 -0.005146 -812228.000000 0 0 1
-5.660780 -26.773953 -17.986784 32.747724 1.362436 2.152266 0.097248 -0.006343 718482.000000 0 0 1
-4.518580 -27.309753 -18.675184 33.391656 1.406825 2.164310 0.081235 -0.012294 543900.000000 0 0 1
-24.575380 14.623018 -5.619964 29.143884 -0.536755 1.764847 0.080734 -0.026171 187049.000000 0 0 1
-24.941180 13.350918 -5.176764 28.759491 -0.491484 1.751785 0.081886 -0.025543 572021.000000 0 0 1
-23.763080 12.550918 -5.072564 27.348499 -0.485928 1.757355 0.100417 -0.035681 -169021.000000 0 0 1
-23.902680 11.199218 -4.242664 26.735010 -0.438159 1.730163 0.109158 -0.039280 -185543.000000 0 0 1
-24.550880 10.073318 -4.817764 26.970879 -0.389357 1.750389 0.100847 -0.035502 840066.000000 0 0 1
-25.948140 10.229418 -5.077164 28.350036 -0.375518 1.750856 0.108043 -0.030158 293256.000000 0 0 1
-26.484460 9.485318 -6.305164 28.829724 -0.343914 1.791282 0.123205 -0.028955 35788.300000 0 0 1
-26.077760 10.190418 -7.470564 28.977638 -0.372525 1.831545 0.144870 -0.030211 168256.000000 0 0 1
-26.474250 9.440718 -8.640564 29.405313 -0.342542 1.869042 0.139921 -0.034460 14784.600000 0 0 1
-27.031590 10.364518 -9.782864 30.558706 -0.366134 1.896667 0.116992 -0.025548 292045.000000 0 0 1
-26.104320 11.335718 -10.270764 30.255952 -0.409677 1.917142 0.114955 -0.018465 379572.000000 0 0 1
-26.650050 11.924518 -11.390364 31.339427 -0.420730 1.942767 0.095492 -0.020294 -424811.000000 0 0 1
-25.656270 12.866618 -12.063464 31.133924 -0.464847 1.968682 0.087424 -0.023969 -316086.000000 0 0 1
-25.399660 14.113518 -11.426364 31.223323 -0.507177 1.945456 0.090944 -0.024480 821730.000000 0 0 1
-24.454680 14.965118 -12.113964 31.124496 -0.549162 1.970570 0.079540 -0.032146 447511.000000 0 0 1
-24.592080 16.390018 -11.585464 31.743126 -0.587870 1.944403 0.090341 -0.022569 -263291.000000 0 0 1
-23.837880 16.638318 -10.430864 30.884965 -0.609368 1.915303 0.090207 -0.012644 33327.100000 0 0 1
-23.816980 17.936118 -10.048064 31.462938 -0.645470 1.895852 0.061495 -0.008799 -445828.000000 0 0 1
-22.769380 18.149418 -8.974564 30.469474 -0.672969 1.869773 0.057027 -0.016275 -589400.000000 0 0 1
-23.108180 17.584818 -7.699964 30.041692 -0.650490 1.829998 0.070991 -0.021362 230537.000000 0 0 1
-23.566180 18.646418 -6.889064 30.830390 -0.669374 1.796149 0.050564 -0.012650 -400081.000000 0 0 1
-24.063880 18.206218 -5.531564 30.677922 -0.647698 1.752099 0.045011 -0.010078 421201.000000 0 0 1
-23.012880 17.741218 -4.646864 29.426804 -0.656760 1.729373 0.055334 -0.019749 889125.000000 0 0 1
-23.528380 17.395318 -3.358164 29.452657 -0.636639 1.685064 0.054607 -0.013094 -10442.700000 0 0 1
-22.424280 17.229918 -2.302264 28.372854 -0.655148 1.652029 0.074715 -0.025694 -415084.000000 0 0 1
-21.722080 18.384018 -1.955464 28.524458 -0.702359 1.639404 0.067384 -0.019774 330889.000000 0 0 1
-20.715180 17.955418 -1.028864 27.433087 -0.714153 1.608310 0.121071 -0.040063 390346.000000 0 0 1
-19.929080 19.156518 -0.413464 27.646182 -0.765635 1.585752 0.104860 -0.029549 480319.000000 0 0 1
-20.730380 19.725418 0.641036 28.622573 -0.760562 1.548398 0.104513 -0.020238 764093.000000 0 0 1
-20.216380 20.995418 0.988436 29.163103 -0.804299 1.536896 0.101919 -0.028526 55685.200000 0 0 1
-21.193980 21.733518 1.918436 30.417281 -0.797966 1.507684 0.083359 -0.020954 -6667.860000 0 0 1
-21.125680 21.230818 3.201736 30.121306 -0.787880 1.464300 0.092827 -0.025749 914767.000000 0 0 1
-22.315880 21.547418 3.937536 31.269696 -0.767880 1.444539 0.083062 -0.017533 660678.000000 0 0 1
-21.982180 21.266618 5.375636 31.054512 -0.768854 1.396817 0.095296 -0.022528 -41416.000000 0 0 1
-21.384780 22.368618 6.071136 31.536052 -0.807880 1.377073 0.084936 -0.017803 402824.000000 0 0 1
-20.645680 21.930618 7.221536 30.973322 -0.815569 1.335477 0.075042 -0.013484 271145.000000 0 0 1
-21.495780 21.605918 8.471536 31.633071 -0.787953 1.299681 0.075065 -0.026630 -58629.000000 0 0 1
-22.373480 20.443618 8.455436 31.464401 -0.740356 1.298722 0.092979 -0.023944 993696.000000 0 0 1
-22.825780 19.951018 9.711336 31.833463 -0.718295 1.260788 0.092724 -0.022170 229717.000000 0 0 1
-23.479980 20.925118 10.776636 33.246141 -0.727926 1.240686 0.089434 -0.022253 -341249.000000 0 0 1
-24.711480 21.501218 10.411936 34.371035 -0.716042 1.263033 0.106191 -0.023828 294433.000000 0 0 1
-25.182370 22.430718 11.436836 35.610252 -0.727670 1.243835 0.104917 -0.022220 58124.000000 0 0 1
-26.669550 22.796718 11.206136 36.831138 -0.707265 1.261638 0.108586 -0.022434 55181.100000 0 0 1
-27.220420 23.642818 12.200836 38.063033 -0.715176 1.244494 0.111094 -0.018601 96750.200000 0 0 1
-26.999900 25.003818 11.951736 38.691465 -0.747034 1.256762 0.106358 -0.016790 -272056.000000 0 0 1
-27.450160 25.845618 13.150636 39.930520 -0.755301 1.235194 0.115436 -0.020013 96197.100000 0 0 1
-26.511670 25.920218 14.200536 39.703672 -0.774118 1.205032 0.080464 -0.015934 193316.000000 0 0 1
-27.164690 26.372518 15.383536 40.866652 -0.770603 1.184854 0.099366 -0.015926 315323.000000 0 0 1
-26.205100 26.480618 16.585536 40.780024 -0.790628 1.151949 0.081934 -0.020113 68900.200000 0 0 1
-25.670990 25.253318 17.058536 39.846247 -0.777197 1.128397 0.083069 -0.016118 -532169.000000 0 0 1
-24.732980 25.469418 18.029036 39.817806 -0.800066 1.100906 0.065389 -0.009428 -927191.000000 0 0 1
-24.284780 24.140018 18.606236 38.970284 -0.782409 1.073050 0.063140 -0.003613 -537620.000000 0 0 1
-23.220080 24.324118 19.495536 38.870435 -0.808615 1.045405 0.084348 -0.019127 129398.000000 0 0 1
-22.799480 23.084418 20.107536 38.170926 -0.791608 1.015993 0.081541 -0.016524 338228.000000 0 0 1
-21.342480 23.102318 20.674336 37.638367 -0.824974 0.989283 0.070166 -0.027216 420129.000000 0 0 1
-20.345380 23.150218 19.653336 36.552985 -0.849795 1.003129 0.058312 -0.021915 -426172.000000 0 0 1
-19.113080 22.606518 19.933536 35.689079 -0.868939 0.978180 0.065181 -0.019064 -640041.000000 0 0 1
-18.967980 21.040718 19.736236 34.525571 -0.837159 0.962292 0.073606 -0.002507 -469717.000000 0 0 1
-19.576480 20.232218 20.689536 34.937632 -0.801869 0.937029 0.073994 -0.003293 44448.800000 0 0 1
-19.018680 20.460918 22.000536 35.558163 -0.821913 0.903684 0.081027 -0.011542 -237186.000000 0 0 1
-19.910380 20.084818 23.166636 36.558394 -0.789760 0.884484 0.085805 -0.008937 -514870.000000 0 0 1
-21.114380 20.793418 23.249036 37.665647 -0.777740 0.905557 0.087998 -0.010700 -128596.000000 0 0 1
-21.873180 20.455018 24.399636 38.628823 -0.751907 0.887125 0.082707 -0.007805 18724.300000 0 0 1
-22.887880 21.551718 24.801436 40.043012 -0.755340 0.902856 0.082309 -0.018792 -616092.000000 0 0 1
-22.367980 22.846518 25.045736 40.615007 -0.795982 0.906301 0.103188 -0.032756 -230534.000000 0 0 1
-23.290280 23.790918 25.517436 41.947401 -0.796031 0.916854 0.093011 -0.039042 -612668.000000 0 0 1
-24.157280 24.453718 24.443536 42.178726 -0.791496 0.952653 0.073971 -0.031703 -63687.300000 0 0 1
-25.183300 23.629718 23.930336 42.014559 -0.753582 0.964811 0.059664 -0.024273 -45361.700000 0 0 1
-25.665510 24.217618 22.713936 41.965871 -0.756381 0.998876 0.058075 -0.017825 -75208.900000 0 0 1
-26.609690 23.322718 21.931936 41.629732 -0.719665 1.015926 0.056298 -0.012751 803620.000000 0 0 1
-27.908030 23.030018 22.496736 42.606842 -0.689926 1.014544 0.053118 -0.016069 880333.000000 0 0 1
-28.624050 22.162518 21.610336 42.160646 -0.658849 1.032620 0.053158 -0.010390 182512.000000 0 0 1
-30.097850 22.041718 22.080836 43.350677 -0.632100 1.036363 0.058258 -0.009968 -1128260.000000 0 0 1
-30.796910 23.230818 21.861336 44.340033 -0.646262 1.055218 0.076336 -0.006719 76571.200000 0 0 1
-32.132230 23.302818 22.340936 45.547985 -0.627450 1.058142 0.084060 -0.009912 448768.000000 0 0 1
-33.120100 22.521018 21.456136 45.436803 -0.597163 1.078990 0.084729 -0.014124 -1770980.000000 0 0 1
-32.949090 21.111018 21.545136 44.671137 -0.569821 1.067512 0.066695 -0.007685 160598.000000 0 0 1
-33.669390 20.312018 20.612436 44.396829 -0.542827 1.087978 0.087869 -0.006416 -122701.000000 0 0 1
-35.205250 20.329218 20.743136 45.639505 -0.523672 1.098986 0.123733 -0.016723 -466320.000000 0 0 1
-35.831046 19.472018 19.836436 45.348732 -0.497793 1.118069 0.119046 -0.014134 31045.800000 0 0 1
36.606746 19.671018 19.735436 46.005328 0.493087 1.127431 0.140259 -0.035605 125535.000000 0 0 1
35.923166 18.850118 18.645436 44.648103 0.483239 1.139984 0.145067 -0.046463 -206413.000000 0 0 1
35.829486 17.462018 18.946136 44.131963 0.453488 1.127072 0.152957 -0.037080 286962.000000 0 0 1
35.300926 16.872518 17.773536 42.973664 0.445863 1.144401 0.167733 -0.052984 -155928.000000 0 0 1
35.639196 15.403918 17.759136 42.694495 0.407969 1.141800 0.163165 -0.056514 217935.000000 0 0 1
34.896596 14.814118 16.674636 41.415866 0.401460 1.156425 0.186289 -0.053437 441227.000000 0 0 1
35.257516 13.455018 16.523536 41.196567 0.364563 1.158090 0.157868 -0.041766 -29093.100000 0 0 1
34.269446 12.692918 15.638236 39.749962 0.354719 1.166453 0.153207 -0.039360 -118989.000000 0 0 1
34.299756 13.151618 14.338436 39.433857 0.366142 1.198659 0.154897 -0.040216 461446.000000 0 0 1
33.540896 12.233318 13.511636 38.173421 0.349735 1.209001 0.158416 -0.030252 244729.000000 0 0 1
33.489246 12.526818 11.988236 37.711650 0.357942 1.247291 0.173847 -0.031001 718440.000000 0 0 1
34.789416 12.197818 11.457636 38.605280 0.337226 1.269468 0.149831 -0.021592 996531.000000 0 0 1
34.890116 12.273218 10.028336 38.321268 0.338249 1.306022 0.134367 -0.024462 -425398.000000 0 0 1
36.314986 12.189018 9.477736 39.461093 0.323831 1.328246 0.105664 -0.009225 -959878.000000 0 0 1
-36.909220 10.976818 9.457936 39.651401 -0.289070 1.329947 0.133219 -0.014341 -967716.000000 0 0 1
-35.611874 11.057818 8.980936 38.355418 -0.301070 1.334452 0.134008 -0.016237 -673842.000000 0 0 1
-35.455455 10.913518 7.460936 37.839922 -0.298606 1.372325 0.114796 -0.024719 -599273.000000 0 0 1
-36.052603 11.937918 6.692736 38.562894 -0.319762 1.396359 0.095233 -0.024887 -42181.000000 0 0 1
-35.423120 12.145618 5.450436 37.842049 -0.330311 1.426262 0.111733 -0.035403 -93753.300000 0 0 1
-36.299340 12.982118 4.477136 38.810079 -0.343465 1.455179 0.098540 -0.039732 -994982.000000 0 0 1
36.418476 12.261018 4.051036 38.639990 0.324751 1.465763 0.100878 -0.035870 231782.000000 0 0 1
35.216206 13.052518 3.989336 37.768561 0.354942 1.464973 0.077868 -0.035780 838840.000000 0 0 1
34.593446 13.539018 5.330336 37.528975 0.373049 1.428282 0.100440 -0.028239 -1478910.000000 0 0 1
34.206786 14.875818 5.409936 37.691664 0.410209 1.426768 0.097830 -0.021290 -158360.000000 0 0 1
33.901876 15.341918 6.750036 37.818972 0.424963 1.391352 0.078388 -0.019278 51311.500000 0 0 1
32.597946 14.813018 7.410936 36.564649 0.426520 1.366702 0.115983 -0.026765 -116297.000000 0 0 1
32.587686 13.434118 7.781136 36.096799 0.391018 1.353528 0.151982 -0.028700 600495.000000 0 0 1
31.251016 13.078118 8.163836 34.846971 0.396340 1.334322 0.155094 -0.029454 765460.000000 0 0 1
30.847806 11.698018 7.539736 33.841962 0.362463 1.346118 0.156761 -0.030157 -98192.900000 0 0 1
30.799146 11.855318 6.123036 33.565273 0.367442 1.387347 0.133261 -0.037026 163413.000000 0 0 1
30.953736 10.658918 5.416036 33.182522 0.331633 1.406843 0.159115 -0.042675 -165374.000000 0 0 1
30.775456 10.851818 3.885336 32.863148 0.339001 1.452291 0.136604 -0.048580 95432.000000 0 0 1
29.411166 10.901518 3.529336 31.564473 0.354960 1.458748 0.123348 -0.040505 47049.000000 0 0 1
29.183786 11.036018 2.121336 31.272786 0.361535 1.502911 0.134510 -0.046977 -668355.000000 0 0 1
27.738956 10.799318 1.735736 29.817574 0.371265 1.512552 0.133832 -0.028839 -566413.000000 0 0 1
27.329256 9.449018 1.634836 28.962819 0.332881 1.514320 0.116758 -0.035152 272698.000000 0 0 1
25.931656 9.195918 1.594836 27.560101 0.340786 1.512896 0.114037 -0.032647 231298.000000 0 0 1
25.635156 7.687618 1.305236 26.794856 0.291352 1.522065 0.126207 -0.032229 439.064000 0 0 1
25.966156 6.952018 2.467836 26.993740 0.261598 1.479246 0.129035 -0.026487 1065090.000000 0 0 1
27.350456 6.560318 2.490836 28.236315 0.235414 1.482468 0.143795 -0.034664 593768.000000 0 0 1
27.870356 6.131018 3.902936 28.802414 0.216535 1.434871 0.144160 -0.041961 -1875940.000000 0 0 1
29.208986 6.001518 4.036236 30.091100 0.202648 1.436257 0.166042 -0.039184 -1555860.000000 0 0 1
29.467256 5.589918 5.329436 30.462588 0.187472 1.394941 0.154012 -0.034328 -391787.000000 0 0 1
30.949506 5.469918 5.698636 31.941609 0.174930 1.391428 0.154349 -0.036956 -296161.000000 0 0 1
31.608986 6.732918 5.843736 32.842190 0.209870 1.391910 0.164554 -0.038130 472244.000000 0 0 1
32.908486 6.515518 6.399236 34.152169 0.195461 1.382308 0.147239 -0.029943 669274.000000 0 0 1
33.384556 7.653718 7.370036 35.034631 0.225365 1.358849 0.143221 -0.034437 101980.000000 0 0 1
32.627396 7.606318 8.591436 34.586353 0.229036 1.319763 0.145393 -0.029237 355587.000000 0 0 1
33.079126 8.558818 9.516136 35.468842 0.253185 1.299173 0.160763 -0.026104 -148407.000000 0 0 1
32.474916 8.318218 10.916336 35.255912 0.250752 1.255991 0.146476 -0.020788 -20007.400000 0 0 1
31.220956 8.981718 11.030036 34.308615 0.280118 1.243489 0.142757 -0.027584 316369.000000 0 0 1
30.713616 8.856818 12.339436 34.264137 0.280751 1.202392 0.119999 -0.024858 -86887.300000 0 0 1
29.320096 9.518218 12.490236 33.260645 0.313898 1.185832 0.109643 -0.027896 -224963.000000 0 0 1
29.338096 10.927318 12.415036 33.678825 0.356543 1.193261 0.134527 -0.038038 349262.000000 0 0 1
29.367666 11.575218 11.121336 33.468337 0.375452 1.232061 0.145485 -0.042182 -132947.000000 0 0 1
27.975856 11.553718 10.445436 32.019432 0.391653 1.238492 0.120866 -0.039889 -96014.900000 0 0 1
27.973656 12.434918 9.346836 32.008061 0.418289 1.274463 0.106663 -0.025986 -155416.000000 0 0 1
26.722956 12.471918 8.730336 30.755225 0.436664 1.282974 0.098128 -0.027075 -654955.000000 0 0 1
26.527056 13.637218 7.713736 30.808442 0.474854 1.317726 0.078729 -0.026881 -52108.000000 0 0 1
26.472956 14.903418 8.314536 31.496996 0.512745 1.303651 0.076826 -0.024005 382706.000000 0 0 1
26.786456 15.937018 7.400936 32.035552 0.536709 1.337668 0.070939 -0.020554 -693918.000000 0 0 1
26.486556 17.295618 8.137636 32.663392 0.578479 1.319008 0.086314 -0.030255 1224430.000000 0 0 1
25.098756 17.719818 8.127036 31.780312 0.614744 1.312198 0.080950 -0.028204 1685490.000000 0 0 1
24.158456 16.945718 8.880836 30.816515 0.611692 1.278466 0.080521 -0.025400 -341603.000000 0 0 1
22.856756 17.690518 9.185036 30.327390 0.658668 1.263101 0.071294 -0.026563 -250613.000000 0 0 1
22.087656 18.023018 8.027336 29.616412 0.684407 1.296319 0.081424 -0.032712 -147576.000000 0 0 1
21.125956 18.974318 8.340636 29.595556 0.731793 1.285105 0.117324 -0.039058 -297081.000000 0 0 1
20.314956 19.430118 7.106836 28.995414 0.763139 1.323171 0.104235 -0.039140 -270447.000000 0 0 1
21.082956 20.184418 6.249836 29.848990 0.763628 1.359854 0.079545 -0.028575 -160126.000000 0 0 1
20.329056 20.596118 5.124736 29.389343 0.791924 1.395526 0.087109 -0.038468 180675.000000 0 0 1
18.002920 16.870818 32.851980 41.085061 0.752947 0.644153 0.069144 -0.008363 95069.900000 0 0 1
17.446220 17.651018 31.780536 40.322841 0.791233 0.662995 0.067847 -0.017313 369553.000000 0 0 1
17.134020 16.776718 30.695876 38.952146 0.774862 0.663177 0.079625 -0.021925 -18499.300000 0 0 1
16.506520 17.427518 29.432866 37.979957 0.812532 0.684148 0.083077 -0.030650 281417.000000 0 0 1
17.502720 17.997218 28.610746 38.063366 0.799327 0.720220 0.089370 -0.034129 -61010.800000 0 0 1
17.002020 18.405018 27.399606 37.128854 0.825002 0.740754 0.099190 -0.041019 -941250.000000 0 0 1
18.109320 18.659618 26.427006 37.074458 0.800363 0.777301 0.088509 -0.031828 -559046.000000 0 0 1
18.818420 19.848518 26.786556 38.283367 0.812032 0.795830 0.098527 -0.032705 476038.000000 0 0 1
19.671520 20.354318 25.756746 38.271098 0.802455 0.832528 0.077585 -0.026446 -94109.700000 0 0 1
20.274520 21.702818 26.116896 39.549472 0.819410 0.849498 0.086807 -0.026024 -586412.000000 0 0 1
19.331420 22.735318 26.048716 39.612297 0.866139 0.853179 0.086760 -0.033465 -90486.900000 0 0 1
19.661420 23.993418 26.633996 40.885514 0.884307 0.861330 0.081036 -0.029456 -248996.000000 0 0 1
18.745020 25.110418 26.095376 40.778395 0.929537 0.876387 0.106623 -0.029226 188982.000000 0 0 1
19.080620 25.533818 24.810946 40.393427 0.929046 0.909384 0.107536 -0.028975 398204.000000 0 0 1
18.266220 26.687318 24.642576 40.658631 0.970581 0.919667 0.110125 -0.036283 228400.000000 0 0 1
18.565820 27.423018 23.250886 40.463753 0.975663 0.958669 0.091280 -0.034096 119301.000000 0 0 1
19.805120 28.108118 23.214806 41.487785 0.956986 0.976944 0.097884 -0.031416 -26179.700000 0 0 1
19.889120 28.934618 22.036216 41.453396 0.968589 1.010320 0.082157 -0.032629 -109168.000000 0 0 1
21.205020 29.712718 21.896116 42.566869 0.950956 1.030496 0.083551 -0.021207 -453899.000000 0 0 1
22.269420 28.981018 21.360916 42.333382 0.915614 1.041892 0.088355 -0.022689 -455417.000000 0 0 1
23.390920 29.790818 21.090616 43.352532 0.905162 1.062727 0.072567 -0.026198 -22594.600000 0 0 1
23.641620 30.022818 19.584116 42.939881 0.903752 1.097208 0.058383 -0.022426 -17066.100000 0 0 1
22.745620 30.967918 18.996716 42.863159 0.937296 1.111637 0.061897 -0.013587 369477.000000 0 0 1
23.049920 31.193418 17.651216 42.613303 0.934414 1.143712 0.073647 -0.010354 -148529.000000 0 0 1
22.241520 32.262518 16.929116 42.686652 0.967225 1.162997 0.082246 -0.016456 -275105.000000 0 0 1
22.937520 33.501218 17.099816 44.055251 0.970428 1.172179 0.078683 -0.013400 545220.000000 0 0 1
22.805420 -33.714453 16.009816 43.738607 -0.976066 1.196053 0.077484 -0.013410 495033.000000 0 0 1
23.894520 34.003918 14.911316 44.153843 0.958261 1.226311 0.067229 -0.012186 337144.000000 0 0 1
23.647320 32.847218 14.123316 42.867278 0.946827 1.235058 0.089975 -0.017066 161955.000000 0 0 1
22.762420 33.019818 13.015816 42.164530 0.967250 1.256980 0.068185 -0.011484 -176401.000000 0 0 1
22.430920 31.691018 12.302816 40.728689 0.954854 1.263936 0.068841 -0.026128 -318042.000000 0 0 1
23.352820 31.161618 11.376516 40.568778 0.927673 1.286559 0.082682 -0.040411 -68020.000000 0 0 1
22.834920 30.042118 10.602516 39.196630 0.920864 1.296889 0.067216 -0.037730 48774.700000 0 0 1
24.024820 29.393418 9.847816 39.219185 0.885563 1.316983 0.073960 -0.037857 1057570.000000 0 0 1
25.101820 28.739718 10.530116 39.584796 0.852862 1.301541 0.083862 -0.032383 757690.000000 0 0 1
25.993220 29.630418 11.206516 40.977984 0.850695 1.293791 0.089630 -0.030337 -18693.100000 0 0 1
27.432120 29.086218 11.464416 41.592813 0.814656 1.291547 0.103092 -0.029802 578643.000000 0 0 1
27.494620 28.094818 12.451916 41.234975 0.796195 1.264033 0.102874 -0.024143 1102170.000000 0 0 1
28.876320 27.838918 12.832216 42.113097 0.767109 1.261164 0.108390 -0.016406 1307650.000000 0 0 1
29.154120 26.732418 13.874516 41.917623 0.742093 1.233439 0.094203 -0.023413 -238695.000000 0 0 1
30.444320 26.824218 14.408416 43.058074 0.722269 1.229586 0.075866 -0.025026 -352986.000000 0 0 1
30.696220 25.785518 15.335816 42.922466 0.698673 1.205430 0.076102 -0.026621 -140843.000000 0 0 1
31.907520 26.062118 16.224616 44.278234 0.684902 1.195633 0.077217 -0.028893 218207.000000 0 0 1
33.178820 25.887118 15.606216 44.883526 0.662569 1.215674 0.087270 -0.025201 446446.000000 0 0 1
34.233320 25.963718 16.561716 46.046990 0.648877 1.202882 0.071846 -0.026525 -84409.700000 0 0 1
35.591920 26.294618 15.975216 47.046777 0.636282 1.224347 0.082763 -0.024286 -466816.000000 0 0 1
35.762820 27.600418 15.499816 47.759885 0.657285 1.240275 0.089892 -0.023073 -227505.000000 0 0 1
-36.710616 27.781418 15.177016 48.474924 -0.647819 1.252351 0.093253 -0.015857 193524.000000 0 0 1
-36.416916 29.038718 14.238916 48.705088 -0.673151 1.274113 0.080103 -0.019391 294805.000000 0 0 1
36.783620 30.197718 14.780716 49.833788 0.687389 1.269666 0.082509 -0.012070 235531.000000 0 0 1
36.484520 31.192018 13.769416 49.936550 0.707354 1.291439 0.069240 -0.000592 531106.000000 0 0 1
35.530820 32.315218 14.352516 50.126911 0.738038 1.280409 0.057112 -0.001199 -356788.000000 0 0 1
35.490320 33.454518 13.494316 50.604981 0.755879 1.300871 0.032708 -0.008054 -13122.700000 0 0 1
34.435120 -33.718653 13.711616 50.107220 -0.774886 1.293615 0.032917 -0.004649 123635.000000 0 0 1
33.042320 33.854318 13.227916 49.121151 0.797536 1.298139 0.065163 -0.005291 -115609.000000 0 0 1
32.474220 32.870718 14.092916 48.308067 0.791466 1.274761 0.061800 -0.008889 267017.000000 0 0 1
31.370620 32.166518 13.492016 46.913060 0.797924 1.279080 0.077277 -0.006839 449683.000000 0 0 1
30.781520 30.994518 14.360716 45.982521 0.788846 1.253175 0.089098 -0.011354 -329388.000000 0 0 1
29.917020 31.431618 15.341016 46.025226 0.810082 1.230976 0.076715 -0.004931 -304183.000000 0 0 1
29.530020 30.361218 16.165216 45.333650 0.799276 1.206188 0.073776 -0.009826 -274027.000000 0 0 1
28.742220 30.753518 17.383216 45.541962 0.819191 1.179165 0.063127 -0.005481 -365920.000000 0 0 1
28.485020 29.648418 18.286716 44.998100 0.805408 1.152298 0.050919 -0.004678 -93892.000000 0 0 1
29.058120 29.906318 19.544616 46.051647 0.799782 1.132490 0.035905 -0.005445 -59706.700000 0 0 1
28.893520 28.784618 20.631116 45.705937 0.783510 1.102476 0.039951 -0.011799 434281.000000 0 0 1
27.613920 28.610818 21.236016 45.078552 0.803127 1.080271 0.039866 -0.013402 282501.000000 0 0 1
27.718820 27.801318 22.380116 45.189776 0.786884 1.052677 0.036370 -0.014699 221366.000000 0 0 1
26.461020 27.781318 23.312006 44.893617 0.809734 1.024797 0.051849 -0.019417 756396.000000 0 0 1
25.350920 27.097618 22.695916 43.497754 0.818689 1.021869 0.071316 -0.022382 758739.000000 0 0 1
24.156420 27.108218 23.467276 43.233102 0.842914 0.997019 0.075790 -0.031546 260062.000000 0 0 1
24.037420 25.914518 24.476646 42.993790 0.822959 0.965134 0.087465 -0.032549 -711589.000000 0 0 1
25.080820 25.805018 25.397786 44.045363 0.799629 0.956201 0.060705 -0.027593 -176456.000000 0 0 1
24.750720 24.902518 26.474506 43.973094 0.788455 0.924716 0.076373 -0.030490 -457324.000000 0 0 1
25.909520 24.822318 27.468896 45.188394 0.763971 0.917415 0.086357 -0.035786 7718.370000 0 0 1
26.318820 26.002018 28.182136 46.508257 0.779343 0.919824 0.099884 -0.032222 70040.000000 0 0 1
27.140520 26.817318 27.387706 46.966614 0.779408 0.948218 0.062266 -0.014584 -672472.000000 0 0 1
27.690820 28.104818 28.126796 48.453885 0.792818 0.951471 0.033730 -0.012953 -61428.400000 0 0 1
28.559720 27.803518 29.205416 49.413050 0.771982 0.938441 0.046895 -0.008551 -5204.450000 0 0 1
28.821620 28.936018 29.996256 50.673013 0.787379 0.937311 0.049123 -0.013878 -2832.400000 0 0 1
30.319020 29.276218 30.089496 51.785304 0.767902 0.950787 0.036972 -0.007596 -252080.000000 0 0 1
30.937720 29.407318 28.845816 51.517123 0.760043 0.976499 0.020162 -0.007117 -221872.000000 0 0 1
32.290820 29.771918 29.050056 52.658996 0.744834 0.986439 0.052353 -0.010896 4536.120000 0 0 1
33.004120 30.304918 27.839746 52.751412 0.742789 1.014843 0.047065 -0.012639 -263690.000000 0 0 1
32.535320 31.556918 27.429386 52.978838 0.770134 1.026586 0.036929 -0.007123 221204.000000 0 0 1
33.110320 31.876318 26.180406 52.894296 0.766412 1.053011 0.054854 -0.006731 110051.000000 0 0 1
32.719320 33.358318 25.932106 53.439736 0.795068 1.064137 0.053541 -0.009589 -241008.000000 0 0 1
33.344920 -33.814353 26.798976 54.529619 -0.792388 1.057034 0.069161 -0.012420 60553.200000 0 0 1
33.208220 -32.460553 26.432926 53.433819 -0.774013 1.053324 0.063503 -0.010615 -329462.000000 0 0 1
34.286320 -31.599453 27.103766 53.932285 -0.744640 1.044248 0.065493 -0.016131 -29750.400000 0 0 1
34.167420 -31.468153 28.509856 54.502011 -0.744296 1.020315 0.074632 -0.022271 241130.000000 0 0 1
35.317320 -30.791253 28.963186 55.084304 -0.717041 1.017144 0.069490 -0.028870 -38818.100000 0 0 1
35.180520 -30.432153 30.480116 55.613150 -0.713154 0.990737 0.069966 -0.027271 -109797.000000 0 0 1
35.214520 -31.501753 31.417296 56.740368 -0.729805 0.983992 0.072250 -0.024275 -120144.000000 0 0 1
33.961120 -32.107453 31.536626 56.380892 -0.757349 0.977195 0.063445 -0.025889 -648031.000000 0 0 1
33.938620 -33.196153 32.647324 57.616510 -0.774339 0.968385 0.066816 -0.021022 -178589.000000 0 0 1
33.935320 -32.686453 33.963198 58.081916 -0.766655 0.946229 0.056366 -0.025511 181116.000000 0 0 1
34.279020 -33.603853 -33.035884 58.272119 -0.775452 2.173564 0.059010 -0.026628 -80761.800000 0 0 1
33.425620 33.156018 -32.890714 57.431635 0.781349 2.180584 0.068987 -0.026741 59834.700000 0 0 1
33.512520 32.199118 -33.923244 57.538324 0.765413 2.201331 0.073744 -0.025928 -481347.000000 0 0 1
32.642620 31.141818 -33.781334 56.360731 0.761873 2.213519 0.078065 -0.019927 -437490.000000 0 0 1
32.765620 30.161518 33.135558 55.509172 0.744039 0.931117 0.063751 -0.013192 672388.000000 0 0 1
33.923620 29.286518 33.205155 55.777186 0.712169 0.933135 0.055849 -0.014357 838683.000000 0 0 1
34.211520 28.579918 32.018756 54.885704 0.695950 0.947923 0.043383 -0.007994 -1021750.000000 0 0 1
35.497920 27.817618 31.955816 55.272926 0.664686 0.954342 0.040125 -0.004326 -1003330.000000 0 0 1
35.590220 26.701018 32.747449 55.244941 0.643651 0.936305 0.039080 -0.000880 -364036.000000 0 0 1
-36.914516 26.306718 32.912801 56.017652 -0.619158 0.942777 0.024140 -0.001485 -321634.000000 0 0 1
-36.782116 25.015418 33.739064 55.830275 -0.597243 0.921891 0.027117 0.009229 124296.000000 0 0 1
36.571520 23.917118 32.981105 54.747218 0.579169 0.924260 0.018954 0.015018 71448.700000 0 0 1
36.506820 22.724618 33.715844 54.643520 0.556782 0.905853 0.033667 0.001336 -145667.000000 0 0 1
36.173720 21.532818 32.799965 53.367012 0.536928 0.908903 0.033366 -0.007544 153949.000000 0 0 1
-36.770516 21.281618 31.719426 53.019808 -0.524662 0.929473 0.037671 -0.000938 373185.000000 0 0 1
36.488520 20.194318 30.967076 51.944031 0.505483 0.932084 0.044692 -0.002549 1194810.000000 0 0 1
-36.246216 19.358818 30.169946 50.978207 -0.490548 0.937481 0.050323 -0.023061 776718.000000 0 0 1
-35.656116 19.994018 29.075536 50.164789 -0.511056 0.952558 0.035730 -0.015396 138203.000000 0 0 1
-34.409816 19.521718 28.602406 48.818342 -0.516051 0.944813 0.037405 -0.007443 371668.000000 0 0 1
-34.648816 18.369818 27.560826 47.933180 -0.487493 0.958211 0.066455 -0.010078 -281870.000000 0 0 1
-35.130616 17.204118 28.157326 48.197270 -0.455389 0.946890 0.061478 -0.006554 83515.400000 0 0 1
-35.860816 16.376218 27.264736 47.932707 -0.428379 0.965735 0.088919 -0.018534 170245.000000 0 0 1
-36.624816 15.309718 28.064856 48.614820 -0.395939 0.955390 0.093877 -0.030352 299491.000000 0 0 1
-35.725616 14.263418 28.427926 47.832120 -0.379859 0.934368 0.080444 -0.025182 431668.000000 0 0 1
-36.181416 13.594618 29.587246 48.675595 -0.359415 0.917452 0.078430 -0.032884 -166705.000000 0 0 1
-35.203016 12.486518 29.985946 47.899085 -0.340856 0.894353 0.078316 -0.024477 578493.000000 0 0 1
-33.931116 13.016718 30.411906 47.388179 -0.366308 0.874003 0.078392 -0.016010 710389.000000 0 0 1
-33.212116 11.892018 30.895706 46.893596 -0.343839 0.851511 0.070040 -0.023290 581820.000000 0 0 1
-31.648116 11.948818 30.949856 45.850529 -0.361006 0.829810 0.074160 -0.017999 237372.000000 0 0 1
-31.063416 12.154618 29.633986 44.618871 -0.372970 0.844429 0.062268 -0.018008 1105470.000000 0 0 1
-29.664416 12.482718 29.611696 43.733835 -0.398306 0.826997 0.048530 -0.014151 1303280.000000 0 0 1
-28.620116 11.386418 29.978986 42.982568 -0.378649 0.798938 0.059188 -0.010333 -217507.000000 0 0 1
-28.493316 10.302618 29.135256 42.034225 -0.346954 0.804972 0.067264 -0.015597 346812.000000 0 0 1
-27.300016 9.561018 29.419406 41.257791 -0.336871 0.776939 0.061254 -0.017348 259637.000000 0 0 1
-27.062016 8.397518 28.498966 40.187834 -0.300885 0.782513 0.058282 -0.024100 531401.000000 0 0 1
-28.010916 7.294618 28.545866 40.653281 -0.254762 0.792344 0.065362 -0.024129 904460.000000 0 0 1
-29.123116 7.495718 27.656616 40.856212 -0.251913 0.827219 0.082065 -0.018853 660293.000000 0 0 1
-30.143116 6.306718 27.705716 41.424495 -0.206251 0.838170 0.091973 -0.024418 112698.000000 0 0 1
-30.650516 6.073618 29.023076 42.646006 -0.195623 0.822273 0.093497 -0.028536 -61806.500000 0 0 1
-31.261116 4.827318 29.023826 42.929510 -0.153209 0.828366 0.108749 -0.032922 -541659.000000 0 0 1
-31.967316 4.625518 30.363636 44.331197 -0.143698 0.816293 0.107338 -0.036483 -311199.000000 0 0 1
-33.157116 5.345618 30.597986 45.433541 -0.159845 0.831908 0.119285 -0.041622 -107441.000000 0 0 1
-33.729916 4.893118 31.828296 46.633574 -0.144063 0.819593 0.120381 -0.036862 -1328050.000000 0 0 1
-35.151916 5.280618 32.002626 47.830013 -0.149108 0.837811 0.115216 -0.027684 -1295550.000000 0 0 1
-35.258116 6.593418 32.440785 48.363337 -0.184869 0.835547 0.118053 -0.033437 -495001.000000 0 0 1
-36.613316 6.938618 32.348032 49.346474 -0.187290 0.855914 0.097648 -0.030063 -236311.000000 0 0 1
-36.845716 8.446018 32.603512 49.919244 -0.225334 0.859092 0.089493 -0.021445 -45908.000000 0 0 1
-36.861316 8.613518 -34.006018 50.885740 -0.229555 2.302693 0.091782 -0.024588 57477.900000 0 0 1
36.697020 9.912318 -33.608464 50.739080 0.263817 2.294785 0.086723 -0.032163 -74007.400000 0 0 1
36.687220 10.120118 -32.082884 49.776303 0.269155 2.271220 0.081079 -0.027499 -898773.000000 0 0 1
35.545220 9.528118 -31.575834 48.490009 0.261899 2.279938 0.097596 -0.018376 -637081.000000 0 0 1
35.528120 9.683418 -30.201114 47.624817 0.266093 2.257701 0.084873 -0.016305 259095.000000 0 0 1
34.185920 9.295618 -29.508654 46.106901 0.265495 2.265301 0.058292 -0.011704 424040.000000 0 0 1
33.921020 7.854718 -29.498134 45.634111 0.227549 2.273660 0.040969 -0.010370 1208100.000000 0 0 1
32.521020 7.608018 -29.238424 44.389009 0.229809 2.289868 0.052398 -0.012289 995385.000000 0 0 1
35.478606 5.781618 -18.830364 40.580059 0.161541 2.053336 0.058194 -0.020185 -249475.000000 0 0 1
35.042936 6.976518 -18.133964 40.068938 0.196515 2.040441 0.055927 -0.008494 569655.000000 0 0 1
35.734666 8.183418 -18.512964 41.069021 0.225123 2.038432 0.040054 -0.008864 303807.000000 0 0 1
-36.619520 8.300318 -17.983064 41.632621 -0.222897 2.017446 0.051161 -0.013678 627421.000000 0 0 1
-35.622975 7.753418 -18.805064 41.021242 -0.214310 2.047016 0.059828 -0.020196 -38572.500000 0 0 1
-35.227305 8.493318 -19.928764 41.355231 -0.236585 2.073609 0.051837 -0.016000 -349948.000000 0 0 1
-34.302301 7.703218 -20.887464 40.893442 -0.220904 2.106886 0.039776 -0.005999 399537.000000 0 0 1
-35.004437 6.634018 -21.545264 41.635552 -0.187298 2.114691 0.036406 0.004509 655429.000000 0 0 1
-35.850920 6.952718 -22.650664 42.973030 -0.191556 2.125969 0.025464 0.009974 238572.000000 0 0 1
-35.935979 5.722018 -23.632264 43.389169 -0.157903 2.146778 0.038915 0.006466 -51612.200000 0 0 1
-34.729278 5.568718 -24.330364 42.767978 -0.158993 2.175954 0.052954 -0.004798 -101509.000000 0 0 1
-34.703625 4.384218 -25.049464 43.023698 -0.125667 2.192259 0.074236 -0.006760 733576.000000 0 0 1
-33.446070 4.252118 -26.013994 42.584598 -0.126455 2.227965 0.092185 -0.009918 1037080.000000 0 0 1
-32.232200 4.169618 -25.300314 41.187453 -0.128647 2.232260 0.083796 -0.012435 533057.000000 0 0 1
-31.116510 3.741418 -26.107394 40.790090 -0.119665 2.265350 0.101483 -0.016528 1873350.000000 0 0 1
-29.696210 4.099018 -25.497994 39.354981 -0.137165 2.275617 0.107793 -0.026957 1009170.000000 0 0 1
-29.198570 5.454518 -25.539994 39.173965 -0.184679 2.280967 0.074596 -0.017004 -1193470.000000 0 0 1
-27.993570 5.481918 -24.917164 37.875539 -0.193381 2.288783 0.081151 -0.017372 -1053890.000000 0 0 1
-27.204860 6.830118 -25.044984 37.603273 -0.245978 2.299673 0.058275 -0.020330 310751.000000 0 0 1
-27.885420 7.876318 -24.309164 37.822857 -0.275282 2.268828 0.053785 -0.026434 220105.000000 0 0 1
-27.460670 9.198918 -24.613264 38.006858 -0.323236 2.275228 0.026992 -0.017380 -69429.300000 0 0 1
-26.120730 9.724318 -24.077764 36.831965 -0.356387 2.283285 0.052965 -0.011331 -641917.000000 0 0 1
-26.164870 9.922318 -22.643364 35.996871 -0.362468 2.251110 0.032320 -0.007020 1113790.000000 0 0 1
-24.831680 10.202718 -22.153864 34.806630 -0.389846 2.260727 0.063784 -0.014529 603606.000000 0 0 1
-24.680880 10.466818 -20.609164 33.814757 -0.401096 2.226191 0.081911 -0.028896 -799036.000000 0 0 1
-25.088280 11.769518 -20.253964 34.324429 -0.438643 2.201947 0.070407 -0.029891 1015290.000000 0 0 1
-26.492410 12.038518 -20.245064 35.449067 -0.426518 2.178645 0.052147 -0.009336 553533.000000 0 0 1
-27.465340 11.528718 -19.134164 35.403001 -0.397420 2.141789 0.038662 -0.009900 833.001000 0 0 1
-27.223830 12.174318 -17.969164 34.817263 -0.420518 2.113087 0.041653 -0.020103 255865.000000 0 0 1
-28.127210 11.762018 -16.960364 34.887519 -0.396073 2.078468 0.037086 -0.019873 -718150.000000 0 0 1
-27.449920 11.921818 -15.595764 33.746936 -0.409731 2.051202 0.059180 -0.025678 70798.800000 0 0 1
-26.618850 10.859418 -15.210164 32.524440 -0.387349 2.057430 0.079340 -0.029406 534958.000000 0 0 1
-25.350340 10.862218 -15.855864 31.812512 -0.404818 2.092567 0.083580 -0.019090 -772910.000000 0 0 1
-24.536780 9.592018 -15.596364 30.615469 -0.372658 2.105316 0.076260 -0.013947 -568586.000000 0 0 1
-23.220080 9.630718 -16.053164 29.826614 -0.393164 2.139115 0.085639 -0.013258 -546853.000000 0 0 1
-22.471380 8.557218 -15.647564 28.688589 -0.363850 2.147696 0.095077 -0.020747 -196399.000000 0 0 1
-20.948980 8.801418 -15.573664 27.547481 -0.397743 2.171640 0.127882 -0.026804 -76027.400000 0 0 1
-20.278780 9.081318 -16.779964 27.843607 -0.421043 2.217615 0.140456 -0.037553 -477725.000000 0 0 1
-18.913380 9.145218 -16.528264 26.730778 -0.450386 2.237404 0.158463 -0.041660 -1150880.000000 0 0 1
-18.034980 9.492518 -17.721464 27.007752 -0.484496 2.286518 0.120359 -0.027451 -196567.000000 0 0 1
-17.783580 8.502118 -18.743364 27.200284 -0.445965 2.331025 0.159000 -0.042540 296722.000000 0 0 1
-16.995580 7.395718 -18.315764 26.057889 -0.410441 2.350245 0.177256 -0.042646 -376450.000000 0 0 1
-16.389380 6.536118 -19.486164 26.287701 -0.379473 2.405750 0.161237 -0.043608 443598.000000 0 0 1
-17.292080 5.718418 -20.270564 27.250910 -0.319375 2.409607 0.154075 -0.038826 353329.000000 0 0 1
-18.270080 6.463318 -20.988264 28.567071 -0.340025 2.396023 0.141631 -0.043943 -187333.000000 0 0 1
-19.208180 5.533218 -21.756764 29.545346 -0.280472 2.398509 0.123093 -0.033094 40883.600000 0 0 1
-20.017680 4.709018 -20.877764 29.304665 -0.231042 2.363763 0.146596 -0.032124 270843.000000 0 0 1
-20.751080 3.782718 -21.631164 30.212970 -0.180310 2.368789 0.105779 -0.017280 -870671.000000 0 0 1
-21.574980 3.062118 -20.596864 29.984782 -0.140987 2.328026 0.113585 -0.019505 -704718.000000 0 0 1
-22.326680 1.987018 -21.110364 30.790848 -0.088764 2.326231 0.121683 -0.020133 280275.000000 0 0 1
-23.128080 1.453318 -20.091964 30.670951 -0.062755 2.285086 0.110478 -0.022408 -24844.800000 0 0 1
-23.986980 0.217318 -20.442564 31.516993 -0.009060 2.276567 0.112782 -0.014876 248956.000000 0 0 1
-23.152880 -0.940382 -20.381064 30.859811 0.040594 2.292201 0.103406 -0.021778 613876.000000 0 0 1
-23.861980 -2.148282 -20.619164 31.609478 0.089787 2.281424 0.104420 -0.027836 -262563.000000 0 0 1
-24.332580 -2.348582 -22.110864 32.961805 0.096222 2.306087 0.103336 -0.032372 297235.000000 0 0 1
-23.252880 -2.484282 -23.015764 32.811484 0.106434 2.348233 0.082304 -0.031356 48658.400000 0 0 1
-22.517680 -3.700982 -22.926864 32.347864 0.162902 2.358535 0.084272 -0.035590 76031.800000 0 0 1
-21.475980 -3.638282 -24.080264 32.470201 0.167818 2.406265 0.078713 -0.032484 142748.000000 0 0 1
-22.123980 -3.732682 -25.345034 33.849286 0.167143 2.416988 0.077646 -0.035868 3425.050000 0 0 1
-21.180880 -3.834582 -26.362514 34.034040 0.179100 2.456867 0.073842 -0.038443 -298395.000000 0 0 1
-21.852580 -3.849482 -27.775474 35.550397 0.174368 2.467540 0.075660 -0.043168 -72715.700000 0 0 1
-22.553280 -5.071482 -27.941404 36.264203 0.221188 2.450414 0.079332 -0.035040 145334.000000 0 0 1
-23.038080 -5.151482 -29.274204 37.606780 0.219988 2.462955 0.045076 -0.032329 -475922.000000 0 0 1
-22.505380 -6.330282 -30.118934 38.127612 0.274194 2.481525 0.051043 -0.023094 936503.000000 0 0 1
-21.090080 -6.178982 -30.367554 37.485459 0.285005 2.515146 0.052617 -0.026378 966451.000000 0 0 1
-20.587080 -7.344182 -30.979824 37.914567 0.342664 2.527151 0.053029 -0.015475 146764.000000 0 0 1
-19.151980 -7.167482 -31.557244 37.603601 0.358106 2.566622 0.069807 -0.018308 31826.500000 0 0 1
-19.252980 -6.575582 -32.845874 38.636343 0.329115 2.587027 0.059815 -0.032275 527972.000000 0 0 1
-19.415480 -7.637282 -33.775594 39.699870 0.374770 2.588252 0.049078 -0.024183 -770553.000000 0 0 1
-19.330080 -7.240282 32.765191 38.725074 0.358385 0.562175 0.052239 -0.031439 -617242.000000 0 0 1
-18.107380 -7.051782 32.125638 37.545458 0.371372 0.543998 0.062334 -0.031589 -647192.000000 0 0 1
-17.522580 -5.810282 32.426105 37.312899 0.320179 0.517554 0.063014 -0.036829 155034.000000 0 0 1
-16.122980 -5.648182 31.750226 36.054532 0.336959 0.493634 0.063014 -0.035005 297432.000000 0 0 1
-16.254680 -5.650182 30.310546 34.854962 0.334538 0.516366 0.056997 -0.036103 -318059.000000 0 0 1
-15.093780 -5.210382 29.687466 33.709285 0.332393 0.493477 0.053858 -0.029311 -491059.000000 0 0 1
-15.259580 -5.218782 28.169416 32.459304 0.329531 0.519962 0.044615 -0.019655 188210.000000 0 0 1
-16.134680 -4.174082 27.775556 32.391856 0.253152 0.540433 0.037668 -0.023085 -91445.200000 0 0 1
-16.690180 -4.322382 26.470156 31.589780 0.253410 0.577309 0.041274 -0.017068 98665.200000 0 0 1
-15.766880 -4.038982 25.253546 30.044125 0.250776 0.572501 0.046690 -0.016912 -49127.500000 0 0 1
-15.467180 -2.690782 25.238696 29.723151 0.172243 0.556468 0.042350 -0.011823 92426.600000 0 0 1
-14.511280 -2.393082 24.222666 28.337989 0.163441 0.545675 0.033062 -0.010924 320128.000000 0 0 1
-14.298980 -0.849982 24.276096 28.187091 0.059374 0.533075 0.027658 -0.009296 -530979.000000 0 0 1
-15.381780 -0.234282 23.669986 28.229812 0.015230 0.576318 0.032344 -0.018333 -348023.000000 0 0 1
-15.688780 1.067618 24.231956 28.887113 -0.067945 0.575629 0.010341 -0.008911 -80571.000000 0 0 1
-16.450480 1.937818 23.219516 28.522260 -0.117257 0.619646 0.017924 -0.012709 90955.500000 0 0 1
-15.551480 2.650018 22.372716 27.375345 -0.168782 0.614160 0.019887 -0.006273 289801.000000 0 0 1
-16.192280 3.555318 21.522816 27.167293 -0.216139 0.656337 0.020458 -0.001847 -377346.000000 0 0 1
-15.247180 4.278318 20.543716 25.938866 -0.273563 0.656710 0.024314 0.002963 252645.000000 0 0 1
-14.358280 5.186818 21.183116 26.111064 -0.346655 0.624476 0.015071 0.000845 535290.000000 0 0 1
-13.171180 5.350318 20.432016 24.891226 -0.385852 0.607895 0.016017 0.000750 400315.000000 0 1 0
-12.122980 6.394818 20.852816 24.953963 -0.485401 0.581479 0.016442 0.003895 432536.000000 0 1 0
-12.550280 7.717818 20.444616 25.200328 -0.551341 0.624452 0.024864 -0.001291 323089.000000 0 0 1
-11.443680 8.563918 20.570516 25.048845 -0.642447 0.607257 0.015150 -0.001413 -39332.500000 0 0 1
-11.814580 10.089918 20.516716 25.735702 -0.706825 0.648140 0.003557 -0.000434 82696.500000 0 0 1
-12.395980 10.698318 19.341616 25.341910 -0.712020 0.702504 0.020055 -0.003673 561637.000000 0 0 1
-12.869280 12.008118 19.581616 26.329697 -0.750796 0.732196 0.004876 0.004318 -273834.000000 0 0 1
-13.194280 12.854918 18.235716 25.920634 -0.772371 0.790456 0.009067 0.002149 301981.000000 0 0 1
-12.066580 13.574918 17.732416 25.383446 -0.844155 0.797383 0.010648 0.000154 466912.000000 0 0 1
-12.074180 15.019718 18.042316 26.398919 -0.893689 0.818319 0.017580 -0.000497 -347547.000000 0 0 1
-13.119780 15.970618 17.415516 27.027568 -0.883086 0.870609 0.016350 0.004348 -84053.300000 0 0 1
-13.009280 16.202118 16.031916 26.244472 -0.894267 0.913640 0.012438 -0.010623 92381.600000 0 0 1
-13.754680 15.293518 15.249716 25.605404 -0.838324 0.932826 0.037496 -0.012886 -160411.000000 0 0 1
-14.179480 15.697318 13.814316 25.264575 -0.836158 0.992276 0.035379 -0.019341 -317606.000000 0 0 1
-15.237580 16.610218 13.755816 26.406545 -0.828471 1.022863 0.026069 -0.011391 -344614.000000 0 0 1
-15.600780 17.043118 12.515416 26.277135 -0.829553 1.074371 0.009185 -0.006920 190364.000000 0 0 1
-16.719780 18.128118 12.521516 27.658056 -0.825790 1.100976 0.025841 -0.009550 1159100.000000 0 0 1
-17.992080 17.641518 13.056116 28.379574 -0.775561 1.092741 0.037240 -0.014550 808729.000000 0 0 1
-18.853480 18.759918 13.125716 29.659276 -0.782911 1.112356 0.054913 -0.021956 -1093880.000000 0 0 1
-20.200280 18.282318 13.585516 30.444387 -0.735600 1.108236 0.056419 -0.014113 -755458.000000 0 0 1
-20.978780 17.601518 12.608716 30.148007 -0.698082 1.139304 0.062826 -0.018459 17162.000000 0 0 1
-22.176480 17.014318 13.081016 30.860918 -0.654433 1.133082 0.097649 -0.029448 346073.000000 0 0 1
-23.003980 16.399118 11.930216 30.666663 -0.619319 1.171219 0.100244 -0.025567 108767.000000 0 0 1
-22.335580 15.293218 11.327616 29.344088 -0.600385 1.174475 0.091659 -0.017536 45152.600000 0 0 1
-23.153280 14.623618 10.382316 29.286807 -0.563332 1.208412 0.105556 -0.020478 -443085.000000 0 0 1
-22.660980 13.307418 9.726316 28.021574 -0.530984 1.216318 0.102585 -0.015145 -797895.000000 0 0 1
-22.752880 12.136718 10.523016 27.851882 -0.490021 1.183355 0.103161 -0.019062 659774.000000 0 0 1
-24.070580 11.627718 10.768616 28.819433 -0.450010 1.187847 0.134236 -0.025158 680799.000000 0 0 1
-24.782080 11.016318 9.532316 28.746753 -0.418294 1.232801 0.144896 -0.014967 -438686.000000 0 0 1
-25.119760 11.978018 8.513916 29.102612 -0.444946 1.273906 0.150919 -0.023115 288960.000000 0 0 1
-26.224980 11.461618 7.778216 29.658370 -0.412032 1.305432 0.187847 -0.028238 -112164.000000 0 0 1
-26.743530 12.456718 6.744216 30.263355 -0.435902 1.346058 0.173707 -0.020081 -115838.000000 0 0 1
-25.950080 12.660718 5.575816 29.407314 -0.453911 1.380035 0.170451 -0.031777 1661360.000000 0 0 1
-24.656380 13.322618 5.545416 28.568879 -0.495390 1.375449 0.172190 -0.030911 896612.000000 0 0 1
-24.575380 14.775418 6.103516 29.317489 -0.541322 1.361076 0.163297 -0.032513 741754.000000 0 0 1
-23.209780 15.246818 6.294816 28.474270 -0.581220 1.347885 0.133623 -0.029011 1587190.000000 0 0 1
-23.139080 16.489818 7.002916 29.263833 -0.619158 1.329149 0.130454 -0.031425 -245977.000000 0 0 1
-21.688180 16.972318 6.901816 28.391403 -0.664016 1.325241 0.104903 -0.028400 -286867.000000 0 0 1
-21.338380 17.578618 5.667916 28.221615 -0.689087 1.368585 0.113705 -0.027992 194768.000000 0 0 1
-20.009380 18.033818 5.678316 27.528842 -0.733515 1.363037 0.108212 -0.027782 -347936.000000 0 0 1
-19.340680 18.468418 4.365416 27.096148 -0.762332 1.408983 0.110053 -0.028443 835283.000000 0 0 1
-17.912780 18.663418 4.546216 26.265166 -0.805918 1.396831 0.097855 -0.030769 1264320.000000 0 0 1
-17.393380 19.507218 3.556616 26.376329 -0.842620 1.435543 0.091418 -0.034430 -100535.000000 0 0 1
-17.575180 21.000518 3.830916 27.651123 -0.873961 1.431805 0.085947 -0.028850 -596014.000000 0 0 1
-16.858080 21.416818 4.950716 27.701706 -0.903945 1.391116 0.069504 -0.029405 -151861.000000 0 0 1
-17.025980 22.826318 5.169616 28.942179 -0.929929 1.391214 0.045133 -0.027600 -107704.000000 0 0 1
-16.227980 23.385518 6.362616 29.166979 -0.964154 1.350884 0.041063 -0.008872 -307259.000000 0 0 1
-16.746480 22.907418 7.573416 29.369219 -0.939534 1.309980 0.046149 -0.013409 -160418.000000 0 0 1
-16.013680 23.158218 8.720416 29.475187 -0.965805 1.270445 0.043443 -0.017069 -438840.000000 0 0 1
-16.665280 22.467718 9.932616 29.684790 -0.932600 1.229613 0.031154 -0.014874 195878.000000 0 0 1
-17.793280 23.239818 10.315416 31.033816 -0.917362 1.231957 0.024163 -0.016542 179309.000000 0 0 1
-18.719580 22.399518 11.020716 31.202840 -0.874655 1.209811 0.020362 -0.012283 928240.000000 0 0 1
-19.941880 23.222018 11.599416 32.733578 -0.861245 1.208569 0.024154 -0.012048 141756.000000 0 0 1
-20.830980 23.753618 10.698516 33.355994 -0.850857 1.244288 0.035780 -0.016152 -296182.000000 0 0 1
-20.491580 25.045618 10.194016 33.927950 -0.885074 1.265621 0.013208 -0.017017 371964.000000 0 0 1
-21.809780 25.773918 9.771916 35.148993 -0.868515 1.289070 0.034331 -0.011252 500795.000000 0 0 1
-22.492780 26.351618 10.842816 36.302886 -0.864237 1.267491 0.044358 -0.017597 536394.000000 0 0 1
-23.707480 26.984318 10.405816 37.396243 -0.849951 1.288816 0.061055 -0.012342 801160.000000 0 0 1
-24.373180 27.936418 11.461516 38.805434 -0.853411 1.270966 0.068528 -0.015974 -88466.700000 0 0 1
-23.480380 28.970518 11.771516 39.104830 -0.889690 1.265029 0.077911 -0.019435 98387.600000 0 0 1
-24.060180 29.939318 12.550116 40.407430 -0.893845 1.254983 0.087207 -0.022227 -361135.000000 0 0 1
9.243520 -32.263353 27.670926 43.497664 -1.291768 0.881302 0.065208 -0.026470 -285093.000000 0 0 1
10.623320 -32.461353 27.524826 43.865823 -1.254521 0.892487 0.066609 -0.032656 -11792.700000 0 0 1
10.982020 -32.134453 26.176766 42.877161 -1.241488 0.914097 0.076585 -0.029710 -287599.000000 0 0 1
12.493420 -32.326053 25.982446 43.314510 -1.201998 0.927476 0.036294 -0.021896 -394358.000000 0 0 1
12.807720 -33.680553 25.888556 44.369299 -1.207413 0.947790 0.048933 -0.034971 665649.000000 0 0 1
14.220220 -33.797953 26.123066 45.021449 -1.172538 0.951778 0.066720 -0.025542 733613.000000 0 0 1
14.880420 32.886718 26.026196 44.500854 1.145886 0.946105 0.095027 -0.031435 -224673.000000 0 0 1
15.087020 32.518518 24.671786 43.517458 1.136401 0.968010 0.088406 -0.025182 -128010.000000 0 0 1
15.933720 31.425818 24.544186 42.940453 1.101543 0.962358 0.096969 -0.032088 -770568.000000 0 0 1
16.131120 31.031818 23.057246 41.890612 1.091415 0.987934 0.103419 -0.032680 52760.800000 0 0 1
15.061020 30.282818 22.470816 40.605676 1.109275 0.984366 0.089078 -0.029808 310464.000000 0 0 1
15.030520 28.850718 22.636116 39.631732 1.090509 0.962876 0.095641 -0.024955 -299512.000000 0 0 1
14.420620 28.350318 23.910596 39.792102 1.100246 0.926185 0.111377 -0.030355 -302731.000000 0 0 1
15.325520 28.445218 24.998596 40.852561 1.076613 0.912307 0.107281 -0.031042 150445.000000 0 0 1
14.688220 28.101418 26.178366 41.118613 1.089165 0.880644 0.105850 -0.031093 -71201.300000 0 0 1
15.491320 28.341118 27.522976 42.434822 1.070565 0.865060 0.101363 -0.036540 228114.000000 0 0 1
15.659120 29.722818 27.798706 43.605298 1.085909 0.879538 0.099958 -0.045243 76452.600000 0 0 1
16.447520 29.907318 28.944536 44.752148 1.067992 0.867449 0.116797 -0.047301 -508513.000000 0 0 1
16.559820 31.376218 29.370486 46.057791 1.085171 0.879304 0.115860 -0.052251 20369.100000 0 0 1
17.197320 32.160218 28.350536 46.192860 1.079745 0.910004 0.097714 -0.042717 129626.000000 0 0 1
17.342320 33.505318 28.745856 47.430861 1.093169 0.919701 0.100641 -0.034174 -457144.000000 0 0 1
18.157920 -33.642153 27.848926 47.297645 -1.075867 0.941221 0.077714 -0.023584 -739391.000000 0 0 1
17.679120 -33.461353 26.527226 46.215876 -1.084731 0.959432 0.081708 -0.018669 -99917.600000 0 0 1
17.850620 -32.117753 26.036746 45.034507 -1.063521 0.954336 0.074763 -0.015899 -80804.600000 0 0 1
19.304120 -31.609153 25.853796 45.168644 -1.022537 0.961386 0.066072 -0.003522 244570.000000 0 0 1
19.964120 -31.112253 27.030696 45.795163 -1.000292 0.939425 0.060746 -0.004679 273206.000000 0 0 1
20.933020 -30.127053 26.747936 45.401352 -0.963552 0.940797 0.059911 -0.003452 110514.000000 0 0 1
21.308220 -29.218953 27.986556 45.727834 -0.940701 0.912178 0.063001 -0.003865 97672.600000 0 0 1
20.189920 -28.394553 28.258486 44.860066 -0.952693 0.889339 0.058089 -0.006427 482423.000000 0 0 1
20.421020 -27.527353 29.359586 45.130461 -0.932535 0.862489 0.067615 -0.007612 -579583.000000 0 0 1
19.085320 -27.090653 29.924716 44.650213 -0.957058 0.836314 0.063108 -0.009086 58464.200000 0 0 1
18.369520 -26.156053 29.068216 43.203467 -0.958525 0.832780 0.080567 -0.007198 -122317.000000 0 0 1
17.041820 -25.973053 29.416366 42.782540 -0.990121 0.812647 0.074658 -0.008788 -501406.000000 0 0 1
16.138320 -25.073053 28.502646 41.249293 -0.998897 0.807945 0.064746 -0.002448 -656011.000000 0 0 1
15.746120 -25.714353 27.292466 40.669976 -1.021347 0.835143 0.056902 -0.002634 161912.000000 0 0 1
14.957920 -24.922553 26.445936 39.297081 -1.030247 0.832573 0.065404 -0.006640 -639613.000000 0 0 1
13.509020 -24.710653 26.927856 38.964335 -1.070499 0.807801 0.045154 -0.012731 -481508.000000 0 0 1
12.585120 -25.787853 27.082006 39.456732 -1.116774 0.814307 0.044313 -0.007032 599112.000000 0 0 1
12.337320 -26.506753 25.850206 39.026281 -1.135176 0.846806 0.045804 -0.014802 -24614.700000 0 0 1
11.280220 -27.683053 26.034376 39.640680 -1.183861 0.854283 0.052410 -0.017253 530982.000000 0 0 1
9.959520 -27.293453 26.333296 39.211823 -1.220905 0.834477 0.051765 -0.023515 88866.500000 0 0 1
9.176520 -28.497753 26.504386 39.985159 -1.259272 0.846170 0.058754 -0.025172 952417.000000 0 0 1
7.641420 -28.167153 26.692226 39.550660 -1.305884 0.829985 0.051152 -0.026087 967572.000000 0 0 1
6.890120 -28.174253 25.477886 38.605504 -1.330950 0.850038 0.049139 -0.032492 230516.000000 0 0 1
6.984820 -26.909653 24.786986 37.246635 -1.316835 0.842656 0.066498 -0.026180 -431783.000000 0 0 1
5.614020 -26.658753 24.111516 36.380923 -1.363241 0.846309 0.067243 -0.027576 -437715.000000 0 0 1
5.395820 -27.480853 22.987216 36.231537 -1.376914 0.883495 0.054737 -0.024859 104070.000000 0 0 1
4.687420 -28.713553 23.244006 37.238741 -1.408976 0.896704 0.059241 -0.028666 116986.000000 0 0 1
3.189920 -28.566053 23.633256 37.211904 -1.459589 0.882659 0.063085 -0.032356 -960272.000000 0 0 1
2.400420 -28.143953 22.552316 36.144862 -1.485711 0.897019 0.065421 -0.024259 670279.000000 0 0 1
1.108320 -27.655053 22.962316 35.962457 -1.530741 0.878238 0.076063 -0.023728 714861.000000 0 0 1
1.075020 -26.207153 23.548026 35.248831 -1.529799 0.839210 0.075466 -0.027314 -431133.000000 0 0 1
1.604820 -26.047653 24.877646 36.054860 -1.509263 0.809315 0.067708 -0.021794 109406.000000 0 0 1
1.605720 -24.660353 25.192906 35.290138 -1.505775 0.775774 0.069368 -0.021553 -142575.000000 0 0 1
2.668320 -24.079653 26.183246 35.672286 -1.460434 0.746612 0.073712 -0.019566 -356160.000000 0 0 1
3.888620 -23.806653 25.525356 35.120107 -1.408884 0.757142 0.066168 -0.016094 -74135.700000 0 0 1
4.820920 -23.083153 26.308396 35.329944 -1.364906 0.730788 0.062646 -0.014756 256821.000000 0 0 1
4.467720 -21.610153 26.539656 34.515396 -1.366927 0.693643 0.061352 -0.004770 -551157.000000 0 0 1
4.493120 -20.909753 25.298736 33.127510 -1.359133 0.701806 0.059776 -0.006874 -103930.000000 0 0 1
3.673820 -19.784853 25.320856 32.343208 -1.387199 0.671515 0.069347 -0.017839 -134871.000000 0 0 1
3.572920 -19.035153 23.952956 30.803359 -1.385254 0.679943 0.087389 -0.024385 -217570.000000 0 0 1
4.712320 -18.294653 23.637926 30.259739 -1.318697 0.674263 0.091504 -0.020330 -476971.000000 0 0 1
4.762420 -18.023353 22.235016 29.015820 -1.312465 0.697724 0.101228 -0.026576 513303.000000 0 0 1
6.012020 -17.190253 21.797516 28.403889 -1.234358 0.696000 0.073470 -0.015676 831336.000000 0 0 1
7.259920 -17.783153 22.062316 29.252227 -1.183201 0.716346 0.061602 -0.024336 582281.000000 0 0 1
8.381520 -17.061353 21.479716 28.683059 -1.114167 0.724450 0.049926 -0.028210 2052030.000000 0 0 1
9.790020 -17.368953 22.130916 29.787623 -1.057533 0.733319 0.052771 -0.016276 1012730.000000 0 0 1
9.767920 -16.785953 23.426566 30.429993 -1.043784 0.692188 0.058743 -0.005688 -362608.000000 0 0 1
10.692320 -17.407253 24.254726 31.711668 -1.019968 0.699985 0.063473 -0.000399 -194097.000000 0 0 1
10.722520 -16.675353 25.566676 32.352662 -0.999346 0.659580 0.070019 -0.017348 90460.000000 0 0 1
11.058620 -15.316253 25.378086 31.637445 -0.945445 0.639903 0.083044 -0.026176 50496.400000 0 0 1
10.567720 -14.560953 26.471276 32.006663 -0.942992 0.596948 0.079927 -0.020954 -78808.000000 0 0 1
10.749320 -13.029853 26.593886 31.504916 -0.881010 0.565877 0.077856 -0.015638 -351119.000000 0 0 1
9.892020 -12.240353 25.830876 30.247520 -0.891107 0.547203 0.073792 -0.018410 -260706.000000 0 0 1
10.232120 -10.863253 25.808616 29.812601 -0.815307 0.524259 0.073685 -0.012173 -675761.000000 0 0 1
9.338120 -10.059853 24.900766 28.433242 -0.822588 0.503783 0.059863 -0.008393 43273.600000 0 0 1
8.087320 -9.902953 25.575686 28.593512 -0.885981 0.463579 0.038072 -0.006415 330478.000000 0 0 1
7.078420 -9.407753 24.709246 27.370727 -0.925759 0.444649 0.025334 0.002356 549294.000000 0 0 1
5.607920 -9.353453 25.186296 27.446044 -1.030703 0.408631 0.014396 -0.000964 -773104.000000 0 0 1
5.367920 -8.364153 26.170986 27.994537 -1.000224 0.362931 0.019416 -0.002019 424147.000000 0 0 1
4.030920 -8.296653 26.664156 28.214535 -1.118534 0.333048 0.012619 -0.005750 1090100.000000 0 0 1
2.819120 -8.220153 25.692226 27.122109 -1.240414 0.326160 0.020982 -0.007464 -723578.000000 0 0 1
2.874920 -6.995053 24.972366 26.092432 -1.180849 0.294066 0.029819 -0.011744 89554.600000 0 0 1
2.080920 -7.043153 23.784716 24.892749 -1.283516 0.299488 0.047652 -0.027562 208632.000000 0 1 0
2.223020 -5.690253 23.023816 23.820514 -1.198357 0.259361 0.035002 -0.029876 -333237.000000 0 1 0
1.882520 -4.556553 23.782926 24.288549 -1.179009 0.204402 0.042857 -0.024841 80463.600000 0 1 0
2.305420 -3.307553 23.235886 23.583071 -0.962075 0.171803 0.035116 -0.021759 291979.000000 0 1 0
1.294120 -2.727853 22.131316 22.336317 -1.127830 0.135588 0.038943 -0.028074 1198880.000000 0 1 0
0.089520 -2.106853 22.536016 22.634461 -1.528332 0.093301 0.036654 -0.029478 472268.000000 0 1 0
-0.949180 -2.942853 23.056266 23.262689 1.258794 0.133317 0.048657 -0.031712 -343370.000000 0 1 0
-2.036180 -2.104853 23.688526 23.868864 0.801980 0.123003 0.056779 -0.043529 -585483.000000 0 1 0
-1.574680 -1.227853 24.786746 24.867046 0.662270 0.080386 0.056681 -0.033983 144280.000000 0 1 0
-2.555680 -0.329853 25.301306 25.432192 0.128357 0.101498 0.058526 -0.025475 -145621.000000 0 0 1
-2.104480 0.641147 26.451956 26.543283 -0.295725 0.082978 0.085901 -0.024038 -363579.000000 0 0 1
-2.068180 0.227147 27.825266 27.902946 -0.109391 0.074635 0.093355 -0.023509 212288.000000 0 0 1
-1.120180 -0.762853 28.205346 28.237887 0.597867 0.048013 0.088844 -0.024217 -149298.000000 0 0 1
0.309720 -0.301853 28.579436 28.582708 -0.772536 0.015132 0.090146 -0.025405 144419.000000 0 0 1
1.220620 0.152147 27.578796 27.606214 0.124007 0.044572 0.070282 -0.019450 467521.000000 0 0 1
1.769720 -0.965853 26.830836 26.906477 -0.499587 0.075001 0.052644 -0.018987 620662.000000 0 0 1
3.083520 -1.622853 27.411436 27.632020 -0.484465 0.126440 0.052090 -0.027783 409489.000000 0 0 1
2.744920 -2.527853 28.456316 28.699940 -0.744254 0.130389 0.060294 -0.020656 602675.000000 0 0 1
3.820920 -3.399353 28.888706 29.337900 -0.727078 0.175216 0.044029 -0.013204 687138.000000 0 0 1
4.311120 -4.506653 27.910456 28.598762 -0.807569 0.219840 0.047480 -0.014428 -144541.000000 0 0 1
5.259020 -3.952953 27.047456 27.836091 -0.644558 0.238605 0.039239 -0.011875 -560850.000000 0 0 1
5.498320 -4.644653 25.836506 26.820316 -0.701433 0.271691 0.032797 -0.010778 -430399.000000 0 0 1
6.662320 -3.970253 25.032536 26.206436 -0.537419 0.300442 0.026736 -0.008205 -746451.000000 0 0 1
7.849220 -3.852453 25.732966 27.177880 -0.456266 0.327545 0.028833 -0.008805 -317207.000000 0 0 1
8.585020 -5.148653 25.767166 27.643408 -0.540217 0.370554 0.030845 -0.003169 -5963.540000 0 0 1
9.459620 -5.421453 24.496366 26.813215 -0.520417 0.418762 0.030651 -0.004023 -760220.000000 0 0 1
8.678420 -5.646753 23.335736 25.529539 -0.576843 0.417592 0.031488 -0.004153 -154234.000000 0 0 1
9.342620 -5.732053 22.046216 24.620654 -0.550315 0.461387 0.044649 -0.008307 -9305.550000 0 1 0
9.430920 -4.383653 21.271916 23.678114 -0.435107 0.454732 0.052698 -0.017421 197140.000000 0 1 0
8.158220 -3.821453 20.999716 22.850561 -0.438064 0.405254 0.033270 -0.016077 -496156.000000 0 1 0
8.213520 -2.477853 20.455216 22.181468 -0.292997 0.397127 0.028844 -0.008758 266319.000000 0 1 0
6.840020 -1.743853 20.326116 21.516921 -0.249631 0.334248 0.028048 -0.002248 329931.000000 0 1 0
6.276320 -1.336853 21.515416 22.452004 -0.209863 0.289857 0.028801 -0.002203 -731653.000000 0 1 0
5.063920 -0.697853 21.310016 21.914540 -0.136946 0.235429 0.013381 0.001830 -616092.000000 0 1 0
4.408620 -0.252853 22.642216 23.068806 -0.057292 0.192610 0.018379 -0.010897 -93237.400000 0 1 0
3.201020 0.437147 22.404216 22.635956 0.135725 0.143215 0.015357 -0.011226 -224997.000000 0 1 0
2.588120 0.810147 23.618006 23.773197 0.303363 0.114325 0.037072 -0.014515 1174350.000000 0 1 0
1.071220 1.259147 23.517946 23.575978 0.865866 0.070178 0.033116 -0.014285 1138760.000000 0 1 0
0.755620 2.554147 23.012216 23.165852 1.283160 0.115233 0.039280 -0.016928 -104920.000000 0 1 0
-0.628380 2.785147 22.981916 23.158591 -1.348894 0.123601 0.026962 -0.015793 -78020.800000 0 1 0
-1.063880 4.214147 22.472316 22.888771 -1.323509 0.191051 0.038907 -0.015334 -92053.800000 0 1 0
-0.914480 5.175147 23.507546 24.087821 -1.395896 0.219942 0.047883 -0.006188 274108.000000 0 1 0
-1.588580 6.340147 22.984516 23.895795 -1.325292 0.277057 0.045825 -0.011696 202464.000000 0 1 0
-1.472580 7.573147 23.868826 25.084694 -1.378745 0.312625 0.060362 -0.006735 93944.500000 0 0 1
-0.239180 8.246147 23.749626 25.141616 -1.541799 0.334319 0.053127 -0.005104 -37689.800000 0 0 1
-0.253280 9.388147 24.571576 26.305204 -1.543824 0.365079 0.072578 -0.006489 -815625.000000 0 0 1
0.326220 10.606147 23.816506 26.073410 1.540048 0.419137 0.068572 -0.014797 1737400.000000 0 0 1
1.779220 10.738147 23.715856 26.094352 1.406597 0.430277 0.061445 -0.012818 1597120.000000 0 0 1
2.492820 10.824147 24.911746 27.275839 1.344441 0.419417 0.077538 -0.015945 -132219.000000 0 0 1
3.816920 11.678147 24.894926 27.761580 1.254898 0.458448 0.065726 -0.022445 897457.000000 0 0 1
5.023820 11.149147 24.383736 27.278358 1.147442 0.464857 0.067903 -0.019306 186051.000000 0 0 1
5.073920 10.757147 23.002116 25.895138 1.130061 0.477211 0.065690 -0.018808 -652557.000000 0 0 1
6.497420 10.350147 22.590216 25.683844 1.010214 0.495881 0.061293 -0.014160 330035.000000 0 0 1
7.399120 11.437147 22.372016 26.192793 0.996577 0.546923 0.059407 -0.013238 818008.000000 0 0 1
8.660920 11.010147 21.849216 25.954250 0.904261 0.570121 0.062753 -0.012037 571933.000000 0 0 1
9.522520 12.160147 21.318816 26.325643 0.906450 0.626965 0.053389 -0.015671 -170256.000000 0 0 1
9.005120 12.501147 20.018516 25.260875 0.946547 0.655946 0.046871 -0.012373 256250.000000 0 0 1
9.620320 13.563147 19.353216 25.515808 0.953857 0.709820 0.059003 -0.015631 -42782.000000 0 0 1
11.011520 13.343147 18.697416 25.473250 0.880844 0.746600 0.046534 -0.012659 825087.000000 0 0 1
12.125820 13.253147 19.590016 26.579129 0.829789 0.742109 0.058322 -0.017045 587636.000000 0 0 1
13.354120 13.045147 18.908116 26.571135 0.773695 0.779018 0.064464 -0.014450 -166988.000000 0 0 1
14.511820 12.885147 19.869116 27.774119 0.726094 0.773625 0.072427 -0.014142 -591778.000000 0 0 1
14.858420 14.019147 20.632116 29.034347 0.756343 0.780431 0.078204 -0.016642 -242772.000000 0 0 1
15.938820 13.644147 21.443016 30.000194 0.707986 0.774512 0.084052 -0.022871 -11879.900000 0 0 1
16.829120 14.835147 21.894816 31.347788 0.722509 0.797569 0.093622 -0.025264 -261867.000000 0 0 1
16.286520 15.583147 22.894916 32.128840 0.763331 0.777603 0.094549 -0.025277 -226315.000000 0 0 1
17.114120 16.615147 23.351926 33.380663 0.770606 0.796009 0.082855 -0.020239 -327277.000000 0 0 1
-21.389180 12.541418 -24.853764 35.106891 -0.530318 2.357381 0.024402 -0.011600 -73959.000000 0 0 1
-21.289480 12.703818 -26.263444 36.116443 -0.538003 2.385013 0.023550 -0.014528 -356088.000000 0 0 1
-22.309680 13.449218 -26.855194 37.413964 -0.542507 2.371413 0.040651 -0.020282 -214931.000000 0 0 1
-22.249580 13.285518 -28.383334 38.433871 -0.538294 2.401636 0.036818 -0.022493 568353.000000 0 0 1
-20.991380 13.847818 -28.772104 38.213009 -0.583158 2.423315 0.050293 -0.013851 332510.000000 0 0 1
-20.810980 13.912718 -30.167314 39.201115 -0.589290 2.448936 0.050765 -0.030693 744130.000000 0 0 1
-19.454880 14.652818 -30.492444 39.025461 -0.645526 2.467618 0.028560 -0.020690 1302000.000000 0 0 1
-18.277380 13.820818 -30.285304 37.977326 -0.647439 2.493866 0.024252 -0.020152 -311164.000000 0 0 1
-17.192780 14.679218 -30.437294 37.914377 -0.706697 2.502757 0.022994 -0.013702 -883885.000000 0 0 1
-16.137180 14.355918 -29.401824 36.482437 -0.727049 2.508019 0.064572 -0.005220 -706226.000000 0 0 1
-16.605080 14.440618 -28.067494 35.665731 -0.715792 2.476662 0.062944 -0.016584 -356116.000000 0 0 1
-17.135180 13.274718 -27.552114 35.056405 -0.659126 2.475006 0.077760 -0.010475 -27684.900000 0 0 1
-17.940880 13.451118 -26.215304 34.497100 -0.643339 2.433998 0.069878 -0.022981 296998.000000 0 0 1
-17.170180 13.914818 -25.078854 33.427327 -0.681054 2.419237 0.122660 -0.026845 369515.000000 0 0 1
-18.049180 14.327718 -24.089264 33.336902 -0.670958 2.378353 0.115657 -0.023219 -10317.800000 0 0 1
-17.190380 14.976018 -22.989264 32.377408 -0.716666 2.360352 0.133831 -0.028684 629130.000000 0 0 1
-16.272680 16.002718 -23.417064 32.699327 -0.777034 2.369042 0.095241 -0.035404 -71865.200000 0 0 1
-15.697980 16.526318 -22.275264 31.870569 -0.811098 2.344695 0.098892 -0.031731 -429210.000000 0 0 1
-15.592080 18.088418 -22.360264 32.715214 -0.859381 2.323319 0.085858 -0.035111 1050250.000000 0 0 1
-16.815980 18.873618 -22.421564 33.789306 -0.842988 2.296377 0.052812 -0.030725 1082280.000000 0 0 1
-17.509380 18.855618 -23.662064 34.957202 -0.822401 2.314321 0.036407 -0.025642 -357512.000000 0 0 1
-18.812680 19.644518 -23.673664 36.059207 -0.807025 2.286995 0.016948 -0.019574 -433494.000000 0 0 1
-18.582480 21.036618 -23.536764 36.630959 -0.847262 2.268602 0.017687 -0.025288 225904.000000 0 0 1
-19.823680 21.677318 -23.776664 37.791721 -0.830033 2.251256 0.028934 -0.029775 104856.000000 0 0 1
-19.657280 23.191618 -23.999564 38.732917 -0.867696 2.239051 0.027763 -0.036353 100180.000000 0 0 1
-19.171480 23.846818 -22.827864 38.174962 -0.893656 2.211775 0.028221 -0.030272 21410.300000 0 0 1
-18.233380 24.826918 -23.220064 38.574647 -0.937341 2.216739 0.029221 -0.025638 -40710.900000 0 0 1
-17.023080 25.098418 -22.268964 37.624760 -0.974815 2.204173 0.044219 -0.032034 291961.000000 0 0 1
-16.020180 24.082018 -22.260464 36.498192 -0.983786 2.226738 0.052591 -0.038571 160024.000000 0 0 1
-16.429680 22.816918 -21.757364 35.551779 -0.946730 2.229372 0.046734 -0.030974 -1150240.000000 0 0 1
-15.307780 21.798618 -21.558864 34.267951 -0.958571 2.251225 0.086946 -0.036366 -77856.400000 0 0 1
-14.356480 22.168718 -20.580764 33.483256 -0.996110 2.232749 0.098001 -0.035079 -180603.000000 0 0 1
-13.461780 21.115518 -20.321664 32.249878 -1.003237 2.252519 0.091943 -0.033772 270471.000000 0 0 1
-12.359080 21.492918 -19.253564 31.390956 -1.048939 2.231088 0.091771 -0.033934 534828.000000 0 0 1
-12.846680 21.607718 -17.894064 30.856575 -1.034400 2.189416 0.104996 -0.027440 64354.300000 0 0 1
-13.578980 22.772918 -17.614264 31.831695 -1.033118 2.157184 0.101179 -0.034859 -336686.000000 0 0 1
-14.382780 22.724918 -16.321964 31.459383 -1.006531 2.116274 0.103014 -0.036316 -540764.000000 0 0 1
-13.657580 23.107018 -15.249064 30.870661 -1.036978 2.087442 0.109440 -0.045737 -744760.000000 0 0 1
-14.468880 23.102918 -14.119964 30.699620 -1.011278 2.048723 0.112481 -0.036281 -179230.000000 0 0 1
-13.727480 23.581918 -12.868664 30.168743 -1.043628 2.011478 0.135536 -0.035808 -223561.000000 0 0 1
-13.190880 24.865418 -13.064664 31.031819 -1.083055 2.005353 0.126383 -0.039283 -141411.000000 0 0 1
-12.421180 25.178118 -11.947564 30.511762 -1.112497 1.973136 0.097288 -0.027757 -468207.000000 0 0 1
-11.955280 26.671618 -11.949864 31.576941 -1.149407 1.958903 0.107793 -0.031749 146389.000000 0 0 1
-11.052080 26.908518 -13.029264 31.874418 -1.181076 1.991901 0.101555 -0.039621 289452.000000 0 0 1
-10.847380 28.280318 -13.272164 33.069508 -1.204537 1.983777 0.090761 -0.020586 -159855.000000 0 0 1
-10.006380 28.680018 -14.501264 33.659437 -1.235104 2.016201 0.125484 -0.045041 1405650.000000 0 0 1
-8.568780 28.586818 -14.427764 33.148009 -1.279573 2.021115 0.103272 -0.043962 1118480.000000 0 0 1
-7.898980 27.336818 -14.651964 32.005868 -1.289508 2.046304 0.103080 -0.040421 -602743.000000 0 0 1
-6.432880 27.556018 -14.937864 31.997748 -1.341456 2.056512 0.088894 -0.037006 -487856.000000 0 0 1
-5.726380 28.263618 -13.902164 32.013961 -1.370896 2.020005 0.063973 -0.036514 9782.830000 0 0 1
-4.341080 28.168518 -14.211364 31.847657 -1.417888 2.033344 0.070718 -0.037071 354981.000000 0 0 1
-3.457580 29.190218 -13.474064 32.335338 -1.452896 2.000606 0.030645 -0.023249 -349243.000000 0 0 1
-3.598180 30.559918 -13.841664 33.740883 -1.453594 1.993507 0.017179 -0.018082 -118149.000000 0 0 1
-4.589280 31.313918 -13.175964 34.281613 -1.425275 1.965294 0.014326 -0.023104 -357229.000000 0 0 1
-4.535180 32.821918 -13.555364 35.799358 -1.433490 1.959132 0.020058 -0.018390 478794.000000 0 0 1
-3.335980 33.455818 -13.092764 36.081034 -1.471412 1.942143 -0.021279 -0.008074 527904.000000 0 0 1
-3.496980 -33.247053 -13.358064 36.000463 1.466000 1.950939 -0.006495 -0.002263 110822.000000 0 0 1
-2.745680 -32.385453 -12.355964 34.771054 1.486217 1.934087 0.001819 -0.008927 -221807.000000 0 0 1
-3.173580 -32.424653 -11.020864 34.393156 1.473232 1.896988 0.007965 -0.019443 8192.490000 0 0 1
-2.210180 -31.779553 -10.222864 33.456417 1.501361 1.881320 0.011574 -0.021453 -105531.000000 0 0 1
-2.646580 -31.860253 -8.712764 33.135968 1.487918 1.836864 0.018060 -0.022836 -506121.000000 0 0 1
-1.911780 -31.014153 -7.930864 32.069163 1.509232 1.820694 0.032567 -0.026247 -285975.000000 0 0 1
-2.182380 -31.224053 -6.547364 31.977684 1.501016 1.777002 0.021085 -0.028723 856751.000000 0 0 1
-1.018080 -30.486153 -5.756764 31.041623 1.537414 1.757329 0.040660 -0.030758 926322.000000 0 0 1
-0.925580 -30.835853 -4.376064 31.158570 1.540789 1.711707 0.043049 -0.035985 -359779.000000 0 0 1
0.146920 -30.191453 -3.759664 30.424998 -1.565930 1.694685 0.040947 -0.029290 -449322.000000 0 0 1
0.103520 -30.349953 -2.148464 30.426079 -1.567385 1.641468 0.048706 -0.022205 -431807.000000 0 0 1
0.211220 -31.691553 -1.666864 31.736062 -1.564132 1.623343 0.058447 -0.024822 653132.000000 0 0 1
1.373220 -32.469453 -2.044564 32.562730 -1.528529 1.633626 0.047005 -0.024823 840917.000000 0 0 1
2.716620 -32.002453 -1.426364 32.149208 -1.486111 1.615178 0.046042 -0.019231 -1068710.000000 0 0 1
2.811220 -32.272553 -0.044764 32.394794 -1.483907 1.572178 0.050286 -0.022743 448828.000000 0 0 1
4.071120 -31.957653 0.558136 32.220756 -1.444088 1.553473 0.047573 -0.020762 738856.000000 0 0 1
4.597120 -30.487953 0.558836 30.837657 -1.421139 1.552673 0.035703 -0.015420 -482513.000000 0 0 1
4.835920 -29.958153 -0.724364 30.354601 -1.410754 1.594662 0.038344 -0.019798 19441.100000 0 0 1
4.833520 -28.546853 -0.667364 28.960855 -1.403068 1.593842 0.053042 -0.013636 -401155.000000 0 0 1
4.332620 -27.800753 -1.905364 28.200778 -1.416195 1.638412 0.043101 -0.011587 -59320.400000 0 0 1
2.977020 -28.131453 -2.156164 28.370590 -1.465363 1.646870 0.050615 -0.017232 162901.000000 0 0 1
2.328820 -27.296753 -3.125564 27.573634 -1.485688 1.684394 0.045333 -0.017793 -73483.000000 0 0 1
2.777320 -27.298653 -4.571464 27.817769 -1.469407 1.735881 0.041574 -0.016978 -385900.000000 0 0 1
2.485620 -28.490353 -5.308664 29.087119 -1.483772 1.754334 0.031799 -0.022681 104585.000000 0 0 1
2.989020 -28.143653 -6.565164 29.053414 -1.464987 1.798734 0.053633 -0.026217 -445111.000000 0 0 1
2.156520 -28.804653 -7.651364 29.881466 -1.496069 1.829738 0.040734 -0.024498 507109.000000 0 0 1
0.865320 -28.216053 -7.877464 29.307830 -1.540138 1.842926 0.041009 -0.025266 373394.000000 0 0 1
0.464320 -28.440453 -9.190264 29.892072 -1.554472 1.883307 0.042230 -0.013214 377598.000000 0 0 1
-0.983980 -27.983853 -9.538264 29.581122 1.535648 1.899107 0.030189 -0.016492 -362243.000000 0 0 1
-1.129280 -26.558253 -9.522864 28.236520 1.528301 1.914794 0.037033 -0.013648 86523.900000 0 0 1
-2.419680 -26.007053 -9.294164 27.723693 1.478024 1.912659 0.054740 -0.020637 928037.000000 0 0 1
-3.316380 -26.568753 -8.100864 27.973577 1.446616 1.864595 0.051548 -0.019606 -233828.000000 0 0 1
-2.895280 -26.202553 -6.796464 27.224040 1.460747 1.823114 0.061322 -0.030190 -495274.000000 0 0 1
-1.790380 -26.938253 -6.359564 27.736601 1.504432 1.802139 0.046868 -0.033202 -211601.000000 0 0 1
-1.404680 -26.592253 -4.904164 27.077147 1.518022 1.752920 0.063161 -0.031810 -385285.000000 0 0 1
-2.282780 -27.127953 -3.985664 27.514041 1.486845 1.716167 0.075866 -0.042226 -416546.000000 0 0 1
-1.845480 -26.835453 -2.694564 27.033461 1.502134 1.670637 0.079650 -0.032401 -257708.000000 0 0 1
-2.923580 -27.037053 -1.604464 27.241951 1.463083 1.629727 0.065595 -0.026616 141975.000000 0 0 1
-3.985380 -26.147553 -1.908164 26.518275 1.419542 1.642815 0.068142 -0.023324 -515656.000000 0 0 1
-5.066280 -26.235753 -1.037364 26.740570 1.380038 1.609600 0.089531 -0.027749 -262350.000000 0 0 1
-6.264280 -25.334353 -1.402464 26.134988 1.328394 1.624484 0.081277 -0.010860 -111843.000000 0 0 1
-6.012880 -24.012053 -1.113264 24.778474 1.325431 1.615740 0.064140 -0.014139 -184296.000000 0 1 0
-6.380480 -23.635353 0.222636 24.482443 1.307127 1.561703 0.067695 -0.000010 -109855.000000 0 1 0
-6.086480 -22.116853 0.562536 22.945956 1.302247 1.546278 0.044879 -0.002979 328146.000000 0 1 0
-4.729580 -21.941153 0.937036 22.464665 1.358487 1.529073 0.036337 -0.019134 -21073.400000 0 1 0
-4.504480 -20.630853 1.372136 21.161408 1.355833 1.505909 0.013370 -0.006261 -121072.000000 0 1 0
-3.440380 -20.376653 2.444336 20.809108 1.403534 1.453060 0.018869 -0.008830 -89971.700000 0 1 0
-3.860780 -20.648953 3.798936 21.347525 1.385958 1.391887 0.010619 0.010664 206844.000000 0 1 0
-2.942180 -20.112153 4.784836 20.881805 1.425538 1.339603 0.027780 -0.009993 565331.000000 0 1 0
-2.016680 -21.214553 5.386436 21.980400 1.476020 1.323219 0.031635 -0.019267 309681.000000 0 1 0
-1.139280 -21.787553 4.432636 22.263057 1.518554 1.370354 0.044895 -0.018727 -251862.000000 0 1 0
-0.351280 -22.849553 4.952236 23.382689 1.555424 1.357389 0.052731 -0.021856 -561911.000000 0 1 0
0.790020 -23.127653 3.972536 23.479641 -1.536650 1.400788 0.062933 -0.031938 -381598.000000 0 1 0
1.754620 -22.159053 3.716036 22.536887 -1.491778 1.405153 0.054516 -0.039874 -755226.000000 0 1 0
2.796620 -22.303053 4.639036 22.951425 -1.446056 1.367270 0.076578 -0.043041 -800570.000000 0 1 0
4.004720 -21.372953 4.427336 22.191039 -1.385571 1.369938 0.082940 -0.044646 -104365.000000 0 1 0
4.937520 -21.687153 3.453036 22.508558 -1.346942 1.416778 0.064238 -0.018987 810661.000000 0 1 0
6.218620 -21.006653 3.697336 22.217584 -1.282985 1.403604 0.078201 -0.018841 1858560.000000 0 1 0
6.966220 -20.545653 2.443836 21.831730 -1.243900 1.458622 0.079842 -0.011091 59493.200000 0 1 0
7.728720 -21.535953 1.733536 22.946363 -1.226237 1.495177 0.075821 -0.007150 -20286.500000 0 1 0
7.318620 -21.725253 0.420636 22.928711 -1.245865 1.552450 0.068238 -0.007254 177768.000000 0 1 0
8.358120 -22.623853 -0.314864 24.120449 -1.216910 1.583851 0.056098 0.003406 65851.800000 0 1 0
9.502120 -21.899753 -0.630264 23.880677 -1.161419 1.597192 0.056304 0.003790 -1354220.000000 0 1 0
10.409320 -22.662553 -1.380464 24.977009 -1.140221 1.626094 0.052207 0.001161 635771.000000 0 1 0
11.681720 -21.803753 -1.734464 24.796665 -1.078947 1.640801 0.059850 -0.004589 544225.000000 0 1 0
11.427720 -20.661153 -2.539864 23.747146 -1.065575 1.677956 0.064496 -0.005985 -190289.000000 0 1 0
12.404620 -20.576053 -3.561964 24.288602 -1.028272 1.717979 0.063393 -0.001051 103199.000000 0 1 0
12.390720 -19.294753 -4.425664 23.353885 -0.999938 1.761454 0.057750 -0.026319 -249131.000000 0 1 0
12.922920 -18.192853 -3.681864 22.617204 -0.953171 1.734314 0.082675 -0.020044 169838.000000 0 1 0
13.088520 -17.101853 -4.543964 22.009779 -0.917558 1.778744 0.084651 -0.031311 -437093.000000 0 1 0
13.734020 -15.814353 -3.871764 21.300414 -0.855687 1.753582 0.112265 -0.027735 212213.000000 0 1 0
15.017420 -15.875153 -3.323464 22.104045 -0.813156 1.721724 0.088708 -0.021047 -230620.000000 0 1 0
16.060020 -16.017853 -4.235764 23.074609 -0.784084 1.755411 0.091105 -0.020155 -383991.000000 0 1 0
17.528420 -15.636553 -3.930064 23.815808 -0.728416 1.736574 0.089610 -0.014582 532212.000000 0 1 0
18.206220 -16.548453 -3.092864 24.796846 -0.737735 1.695850 0.095051 -0.022442 -384191.000000 0 1 0
19.586020 -16.433353 -3.220064 25.768898 -0.698094 1.696083 0.064283 -0.001330 -780825.000000 0 0 1
20.382420 -17.441453 -2.363364 26.930147 -0.707800 1.658668 0.071291 -0.009932 -137474.000000 0 0 1
21.757420 -17.167053 -2.440364 27.821726 -0.668010 1.658624 0.055019 -0.002676 -165162.000000 0 0 1
22.561820 -18.026353 -1.659664 28.926452 -0.674116 1.628203 0.048718 -0.001790 997765.000000 0 0 1
24.088920 -17.637153 -1.670664 29.902113 -0.631991 1.626697 0.054257 -0.004902 816310.000000 0 0 1
24.416120 -16.404553 -1.047564 29.433887 -0.591599 1.606394 0.056226 -0.010385 944382.000000 0 0 1
25.767120 -16.508553 -0.549264 30.606838 -0.569798 1.588743 0.070533 -0.013449 930427.000000 0 0 1
26.397020 -15.183753 -0.169764 30.452879 -0.521990 1.576371 0.067684 -0.011445 -294731.000000 0 0 1
25.981620 -14.757353 1.078936 29.899635 -0.516552 1.534703 0.080988 -0.016476 -408473.000000 0 0 1
26.706920 -13.710253 1.579836 30.062044 -0.474278 1.518220 0.084425 -0.021820 -390205.000000 0 0 1
26.039420 -12.904853 2.727836 29.189514 -0.460113 1.477207 0.113503 -0.032027 -125276.000000 0 0 1
25.614520 -13.587253 3.883536 29.254042 -0.487711 1.437651 0.125456 -0.026992 -244673.000000 0 0 1
26.624720 -14.169453 4.654336 30.517404 -0.489068 1.417685 0.123194 -0.022527 -211192.000000 0 0 1
26.068920 -14.764253 5.950036 30.544635 -0.515313 1.374745 0.118728 -0.019887 22185.200000 0 0 1
25.268220 -15.871153 5.751936 30.388505 -0.560831 1.380368 0.109164 -0.022637 -451946.000000 0 0 1
24.521520 -16.219953 6.906636 30.200885 -0.584388 1.340065 0.087645 -0.020947 218544.000000 0 0 1
23.733420 -17.535153 6.674836 30.254095 -0.636319 1.348340 0.082028 -0.022012 -1285.890000 0 0 1
24.604820 -18.634453 6.533636 31.548826 -0.648188 1.362191 0.087359 -0.017380 -414497.000000 0 0 1
23.939920 -19.857253 6.536236 31.782899 -0.692449 1.363666 0.051608 -0.006383 -149097.000000 0 0 1
1.902320 23.309218 -2.797464 23.553434 1.489364 1.689848 0.044670 -0.031840 219957.000000 0 1 0
2.718220 24.442018 -2.560564 24.725644 1.460040 1.674541 0.054732 -0.031932 -322000.000000 0 1 0
3.510620 24.823218 -3.637364 25.332726 1.430303 1.714878 0.068664 -0.032497 55424.200000 0 0 1
4.680120 25.733318 -3.153764 26.344893 1.390893 1.690795 0.058298 -0.027600 169707.000000 0 0 1
5.683820 25.088618 -2.397064 25.835837 1.348007 1.663711 0.046070 -0.033269 -83714.100000 0 0 1
6.321320 26.114218 -1.608764 26.916530 1.333300 1.630601 0.042566 -0.026102 154618.000000 0 0 1
7.444720 25.630418 -0.637164 26.697344 1.288111 1.594665 0.034147 -0.033579 250703.000000 0 0 1
8.479520 25.139618 -1.462264 26.571430 1.245483 1.625856 0.038183 -0.033996 -778952.000000 0 0 1
9.338020 24.237718 -0.866964 25.988790 1.203054 1.604162 0.028957 -0.036176 42258.200000 0 0 1
10.608020 23.951018 -1.717364 26.251299 1.153858 1.636263 0.042338 -0.033869 1453.160000 0 0 1
11.570620 24.998518 -1.728364 27.600587 1.137306 1.633458 0.041109 -0.021999 770009.000000 0 0 1
12.452020 25.004218 -2.896864 28.083012 1.108753 1.674134 0.065803 -0.023893 872340.000000 0 0 1
13.575420 23.943818 -3.027964 27.690558 1.055018 1.680365 0.069370 -0.029415 -573681.000000 0 0 1
13.271420 22.554018 -3.350364 26.382556 1.038929 1.698132 0.091871 -0.037875 -148151.000000 0 0 1
12.913620 22.362018 -4.715664 26.249932 1.047100 1.751422 0.104155 -0.035917 -203388.000000 0 0 1
11.999020 21.132718 -5.008464 24.812355 1.054395 1.774046 0.102505 -0.041039 729704.000000 0 1 0
10.622020 21.458418 -4.821664 24.424157 1.111153 1.769515 0.084970 -0.036279 400896.000000 0 1 0
9.759720 20.309618 -4.948164 23.069830 1.122832 1.786962 0.065553 -0.030858 328960.000000 0 1 0
8.275720 20.712918 -4.870464 22.830548 1.190683 1.785780 0.048371 -0.022797 -51002.900000 0 1 0
7.810320 21.166218 -3.601764 22.846938 1.217297 1.729104 0.049623 -0.026842 104037.000000 0 1 0
6.434820 21.494418 -3.672064 22.735456 1.279916 1.733020 0.042436 -0.022187 216725.000000 0 1 0
5.953720 22.152218 -2.401964 23.063759 1.308237 1.675130 0.040661 -0.026711 -182907.000000 0 1 0
5.583920 21.276618 -1.393164 22.041224 1.314140 1.634046 0.035031 -0.034271 -257553.000000 0 1 0
4.964620 22.015118 -0.374764 22.571073 1.348997 1.587401 0.046589 -0.027574 99676.100000 0 1 0
4.456920 21.117518 0.766536 21.596326 1.362796 1.535295 0.026777 -0.026013 211867.000000 0 1 0
3.719120 21.816818 1.788036 22.203659 1.401949 1.490180 0.033949 -0.018489 342143.000000 0 1 0
3.443220 20.961618 2.815336 21.428283 1.407987 1.439031 0.033276 -0.018921 276296.000000 0 1 0
2.345720 21.486218 3.811036 21.947300 1.462054 1.396267 0.028952 -0.015113 170357.000000 0 1 0
1.014520 21.427218 3.362736 21.713197 1.523484 1.415300 0.024787 -0.018114 -803430.000000 0 1 0
0.224820 21.918518 4.369136 22.350868 1.560540 1.374050 0.028675 -0.024302 474157.000000 0 1 0
-1.282680 22.060418 3.939236 22.446044 -1.512718 1.394385 0.039076 -0.021248 891699.000000 0 1 0
-2.187580 22.542318 4.943536 23.181461 -1.474056 1.355892 0.045132 -0.019474 -833950.000000 0 1 0
-3.411780 22.640018 4.327436 23.301016 -1.421225 1.383993 0.042494 -0.016888 -1654390.000000 0 1 0
-4.612580 22.808018 5.208536 23.845553 -1.371253 1.350593 0.038042 -0.023978 -678733.000000 0 1 0
-4.859480 24.136818 5.676236 25.266978 -1.372122 1.344212 0.063739 -0.015809 -467894.000000 0 0 1
-6.143280 24.144318 6.225736 25.679715 -1.321643 1.325918 0.066419 -0.016599 -121796.000000 0 0 1
-6.529580 25.613618 6.704236 27.269756 -1.321187 1.322401 0.077191 -0.019935 394084.000000 0 0 1
-5.740280 26.046218 7.837636 27.799007 -1.353876 1.284981 0.062168 -0.027219 373516.000000 0 0 1
-6.259180 27.262118 8.418636 29.210851 -1.345115 1.278447 0.079742 -0.025582 -17130.600000 0 0 1
-6.270380 28.584818 7.589136 30.232507 -1.354856 1.317057 0.105584 -0.025940 1378290.000000 0 0 1
-7.508180 28.650818 6.811836 30.391499 -1.314501 1.344740 0.093387 -0.031338 885392.000000 0 0 1
-7.531380 29.800818 6.015036 31.320777 -1.323256 1.377550 0.119796 -0.035131 344662.000000 0 0 1
-8.947780 30.047518 5.376736 31.809203 -1.281370 1.400950 0.110593 -0.032015 1111720.000000 0 0 1
-9.889180 30.625118 6.254036 32.784245 -1.258455 1.378857 0.109574 -0.022195 92583.800000 0 0 1
-10.652980 29.734718 7.087936 32.370948 -1.226775 1.350048 0.090136 -0.018008 -314011.000000 0 0 1
-11.515080 30.472118 8.086836 33.564028 -1.209495 1.327465 0.073161 -0.022841 -488356.000000 0 0 1
-10.948180 30.773418 9.315736 33.965406 -1.228993 1.292964 0.076340 -0.016391 -481112.000000 0 0 1
-11.930180 31.030018 10.280436 34.797680 -1.203747 1.270886 0.072582 -0.013001 -132628.000000 0 0 1
-11.311780 31.452618 11.625136 35.388802 -1.225555 1.236084 0.062959 -0.016021 -152223.000000 0 0 1
-10.767780 32.746018 11.493136 36.336469 -1.253107 1.248972 0.073713 -0.017281 -49959.700000 0 0 1
-10.048180 33.103818 12.626136 36.827272 -1.276099 1.220850 0.066379 -0.023071 -57063.900000 0 0 1
-9.607280 -33.504353 12.670036 37.085999 1.291542 1.222136 0.059680 -0.025120 424690.000000 0 0 1
-10.630680 -32.636753 13.137636 36.752775 1.255907 1.205250 0.057393 -0.015698 327611.000000 0 0 1
-10.032780 -31.379453 13.393936 35.562962 1.261343 1.184645 0.064643 -0.010963 833453.000000 0 0 1
-10.980180 -30.369053 14.178336 35.268527 1.223862 1.157084 0.054975 -0.014774 132327.000000 0 0 1
-11.326080 -30.594353 15.497736 36.117508 1.216239 1.127309 0.047090 -0.026083 -229018.000000 0 0 1
-10.263180 -30.515653 16.430336 36.145455 1.246356 1.098916 0.067459 -0.030077 -99675.200000 0 0 1
-10.602580 -30.879753 17.885136 37.227033 1.240058 1.069647 0.076138 -0.033436 -141803.000000 0 0 1
-11.164780 -29.872453 18.688236 36.963035 1.213123 1.040728 0.065918 -0.034384 -141913.000000 0 0 1
-11.907680 -30.324653 19.745036 38.095195 1.196622 1.025925 0.070433 -0.038015 -414230.000000 0 0 1
-12.040280 -29.382553 20.905636 38.017738 1.181890 0.988562 0.079730 -0.035566 -340425.000000 0 0 1
-10.815480 -29.210253 21.561336 37.882776 1.216185 0.965313 0.069777 -0.033115 -182335.000000 0 0 1
-10.884680 -28.431453 22.724436 37.989785 1.205171 0.929578 0.060082 -0.028242 -827171.000000 0 0 1
-9.587980 -28.472653 23.477436 38.128878 1.245980 0.907473 0.074964 -0.032456 -809774.000000 0 0 1
-9.304980 -29.738353 24.039036 39.355147 1.267552 0.913696 0.075233 -0.022953 488626.000000 0 0 1
-8.060580 -29.597853 24.746236 39.412968 1.304908 0.891982 0.092951 -0.020697 583979.000000 0 0 1
-7.899280 -30.668053 25.854336 40.882451 1.318702 0.886140 0.100408 -0.022181 -333809.000000 0 0 1
-7.679980 -31.983753 25.385136 41.549340 1.335137 0.913519 0.111843 -0.024856 289995.000000 0 0 1
-7.630380 -32.915153 26.465236 42.918979 1.343000 0.906338 0.112941 -0.021571 -241442.000000 0 0 1
-7.615180 33.711718 25.907636 43.193477 -1.348634 0.927540 0.094748 -0.024346 -175903.000000 0 0 1
-6.379380 33.401918 25.292336 42.380265 -1.382081 0.931295 0.098232 -0.015955 56963.500000 0 0 1
-6.252680 32.206818 24.553236 40.978488 -1.379040 0.928328 0.085655 -0.005182 -382837.000000 0 0 1
-7.032380 31.958618 23.234736 40.133036 -1.354202 0.953365 0.077659 -0.000662 -377033.000000 0 0 1
-8.189480 31.222918 23.487436 39.919893 -1.314284 0.941762 0.073034 -0.011402 -524043.000000 0 0 1
-8.961780 31.047118 22.335336 39.282366 -1.289784 0.966012 0.053477 -0.005299 -19743.500000 0 0 1
-9.989780 29.893118 22.455136 38.699190 -1.248281 0.951763 0.047966 -0.015302 327195.000000 0 0 1
-9.388280 28.589518 22.321936 37.466907 -1.253509 0.932563 0.042277 -0.004309 22907.700000 0 0 1
-10.190980 27.591018 22.892836 37.272004 -1.216981 0.909412 0.041300 -0.008671 -347183.000000 0 0 1
-9.658280 26.127418 22.651536 35.902875 -1.216715 0.888069 0.027725 -0.008255 1130460.000000 0 0 1
-8.286080 26.005918 23.110536 35.764001 -1.262343 0.868208 0.012709 -0.004409 1379650.000000 0 0 1
-7.761880 24.676218 23.124636 34.697425 -1.266046 0.841339 0.007824 -0.003503 51551.100000 0 0 1
-6.311580 24.452618 23.566436 34.541909 -1.318195 0.819952 0.000831 0.000946 -118690.000000 0 0 1
-5.325880 24.969018 22.706436 34.167222 -1.360646 0.843881 -0.005365 0.001751 -849688.000000 0 0 1
-4.106180 25.053718 23.373836 34.509212 -1.408346 0.826680 0.025993 0.000577 -306791.000000 0 0 1
-3.019280 25.558018 22.368836 34.098287 -1.453207 0.855276 0.032097 0.002273 -18363.100000 0 0 1
-2.680680 24.651418 21.339536 32.714740 -1.462479 0.860193 0.039608 0.001162 -260059.000000 0 0 1
-1.758780 25.238718 20.466536 32.541747 -1.501223 0.890618 0.049039 0.000609 -109501.000000 0 0 1
-1.231580 24.209818 19.391636 31.042996 -1.519969 0.896087 0.044973 -0.008632 -735730.000000 0 0 1
-0.259080 23.385818 19.948336 30.739221 -1.559718 0.864588 0.041985 -0.011246 -524895.000000 0 0 1
-0.124180 22.285018 19.082136 29.338803 -1.565224 0.862677 0.035546 -0.012140 -302910.000000 0 0 1
1.154920 21.507718 19.408936 28.993492 1.517150 0.837363 0.040963 -0.003760 358737.000000 0 0 1
2.389520 22.113118 19.026936 29.269849 1.463155 0.863143 0.046395 -0.015957 -66072.900000 0 0 1
3.453920 21.370618 19.530536 29.156041 1.410562 0.836773 0.041693 -0.008229 181313.000000 0 0 1
4.875220 21.791718 19.067736 29.363673 1.350702 0.864047 0.047546 -0.012755 487316.000000 0 0 1
5.821120 20.739918 19.009836 28.729836 1.297164 0.847745 0.049201 -0.013060 484510.000000 0 0 1
7.119420 21.256818 18.702236 29.194384 1.247615 0.875503 0.068700 -0.017780 216452.000000 0 0 1
8.199720 20.214718 18.491636 28.597392 1.185445 0.867652 0.053958 -0.006131 -361346.000000 0 0 1
8.725920 19.632018 19.670036 29.128476 1.152547 0.829445 0.067008 -0.014365 150565.000000 0 0 1
9.526420 18.483418 19.349736 28.404255 1.094902 0.821359 0.057622 -0.011218 209589.000000 0 0 1
10.068520 17.842718 20.692936 29.119328 1.057046 0.780410 0.079083 -0.015007 348428.000000 0 0 1
9.106820 17.016818 21.363336 28.790595 1.079413 0.734711 0.074047 -0.018263 240691.000000 0 0 1
9.715120 16.403218 22.468636 29.466739 1.036081 0.703615 0.071519 -0.020969 316217.000000 0 0 1
8.779120 15.342518 23.111536 29.096544 1.051062 0.652933 0.062242 -0.022700 -209155.000000 0 0 1
7.549620 15.702618 23.662736 29.385269 1.122637 0.634685 0.058071 -0.016614 66108.000000 0 0 1
6.694520 14.560818 23.955536 28.821896 1.139854 0.589610 0.065764 -0.016165 575738.000000 0 0 1
7.195920 13.548218 25.041836 29.367142 1.082553 0.549633 0.076184 -0.021929 -583347.000000 0 0 1
7.216120 14.135218 26.351236 30.761411 1.098779 0.542089 0.081959 -0.032361 -227712.000000 0 0 1
7.573820 13.224618 27.341136 31.301613 1.050688 0.508504 0.088050 -0.036157 223236.000000 0 0 1
8.753520 13.848418 28.219436 32.630344 1.007111 0.526001 0.080170 -0.034661 1009480.000000 0 0 1
10.000720 13.942218 27.526936 32.436585 0.948555 0.557390 0.109623 -0.034568 386752.000000 0 0 1
10.117120 15.127218 26.754036 32.356874 0.981317 0.597326 0.091448 -0.033459 -898438.000000 0 0 1
11.447520 15.198518 25.996836 32.216085 0.925251 0.631823 0.108970 -0.039923 -162806.000000 0 0 1
11.545620 14.172218 25.014836 30.982174 0.887177 0.631074 0.098462 -0.041863 -1007050.000000 0 0 1
12.867020 13.900418 24.752736 31.168570 0.823986 0.653177 0.113336 -0.045764 -1360290.000000 0 0 1
13.036220 12.685218 23.777436 29.937005 0.771753 0.653026 0.089865 -0.037824 -76211.100000 0 0 1
12.667320 11.382418 24.210036 29.599768 0.732022 0.613022 0.091779 -0.028187 -377400.000000 0 0 1
11.298420 11.210218 24.402436 29.134209 0.781480 0.577945 0.102267 -0.030375 -903659.000000 0 0 1
10.789020 9.839818 24.906136 28.871103 0.739417 0.530278 0.093293 -0.023028 -207377.000000 0 0 1
10.750320 8.827118 23.878136 27.634268 0.687477 0.527482 0.102446 -0.016131 202876.000000 0 0 1
10.368720 7.633218 24.475236 27.655262 0.634596 0.484277 0.102975 -0.019097 -30947.800000 0 0 1
10.761120 6.389918 23.599036 26.712305 0.535846 0.487617 0.096282 -0.022667 57481.300000 0 0 1
12.147620 6.146718 23.481136 27.142412 0.468438 0.525429 0.103811 -0.019579 245884.000000 0 0 1
12.518520 5.233218 22.417436 26.203842 0.395959 0.544277 0.106681 -0.030446 94016.000000 0 0 1
12.205220 3.726418 22.670436 26.015423 0.296324 0.512701 0.096706 -0.038346 47730.500000 0 0 1
13.152320 3.149018 23.577936 27.181223 0.235003 0.520773 0.103676 -0.031926 323312.000000 0 0 1
12.731620 1.886618 23.933536 27.174761 0.147113 0.493402 0.099181 -0.033476 -171589.000000 0 0 1
13.760620 1.198118 24.878436 28.455698 0.086850 0.506832 0.074388 -0.022814 415386.000000 0 0 1
14.852820 0.540918 24.245536 28.438440 0.036402 0.549928 0.090511 -0.027069 733490.000000 0 0 1
16.053020 1.338018 24.283736 29.140857 0.083158 0.585705 0.077961 -0.027294 -170227.000000 0 0 1
17.202220 0.609918 23.615436 29.222888 0.035441 0.629853 0.068062 -0.028222 -446749.000000 0 0 1
17.510120 -0.707582 24.169836 29.854412 -0.040388 0.627343 0.067516 -0.028659 -400060.000000 0 0 1
18.540720 -1.307782 23.453736 29.925680 -0.070419 0.670143 0.051501 -0.014586 -497967.000000 0 0 1
18.833420 -2.789582 23.613036 30.332407 -0.147050 0.678563 0.047432 -0.013074 -439518.000000 0 0 1
17.861920 -3.734882 23.150436 29.477792 -0.206128 0.667532 0.048686 -0.008903 298564.000000 0 0 1
18.233420 -5.056382 23.344136 30.049514 -0.270516 0.681140 0.053675 -0.012433 131257.000000 0 0 1
17.114220 -5.965782 22.771136 29.103466 -0.335415 0.672254 0.058692 -0.018062 250167.000000 0 0 1
16.834120 -5.920282 21.381736 27.849883 -0.338174 0.695475 0.055648 -0.018224 505142.000000 0 0 1
15.937520 -6.968282 20.922136 27.208404 -0.412180 0.693586 0.060193 -0.020693 220382.000000 0 0 1
16.378620 -8.421282 21.045436 27.965828 -0.474914 0.718884 0.065686 -0.023281 -155094.000000 0 0 1
16.135420 -9.050782 22.330936 28.998951 -0.511193 0.691861 0.064657 -0.020560 474200.000000 0 0 1
17.022520 -10.178582 22.363036 29.891054 -0.538909 0.725525 0.073826 -0.026024 339018.000000 0 0 1
16.850220 -11.139382 23.574136 31.044414 -0.584127 0.708455 0.093763 -0.024723 -998565.000000 0 0 1
15.791620 -11.987582 23.420636 30.685560 -0.649306 0.702474 0.099983 -0.029935 -806340.000000 0 0 1
15.659520 -12.921982 24.502336 31.820790 -0.689909 0.691939 0.103221 -0.019020 173884.000000 0 0 1
14.478720 -13.897882 24.277136 31.498631 -0.764932 0.690801 0.099373 -0.023625 303817.000000 0 0 1
14.751420 -14.690782 23.153836 31.137174 -0.783339 0.732347 0.101170 -0.032436 -406352.000000 0 0 1
13.661920 -15.509182 22.970436 30.900222 -0.848639 0.732695 0.098685 -0.030555 -729917.000000 0 0 1
13.636520 -16.293582 21.631136 30.320645 -0.873942 0.776440 0.104276 -0.033751 -585981.000000 0 0 1
14.441520 -17.416982 21.662336 31.323562 -0.878524 0.807140 0.114399 -0.039052 -143757.000000 0 0 1
14.691120 -17.822082 20.341736 30.777294 -0.881400 0.848735 0.096501 -0.034068 -300303.000000 0 0 1
-24.563380 -32.323553 26.416546 48.435582 0.920975 0.993936 0.073617 -0.036665 -191255.000000 0 0 1
-24.430980 -33.722953 26.223516 49.211616 0.943841 1.008805 0.088236 -0.033827 673972.000000 0 0 1
-25.669310 33.668418 26.461866 49.927008 -0.919397 1.012183 0.088038 -0.043911 542490.000000 0 0 1
-26.193160 33.416618 27.864506 50.785654 -0.905989 0.990025 0.086702 -0.039334 -266492.000000 0 0 1
-26.972070 -33.608953 28.404566 51.612728 0.894517 0.988025 0.103105 -0.037050 -26447.700000 0 0 1
-26.799300 -33.407553 29.812116 52.182654 0.894720 0.962704 0.079543 -0.037835 42993.000000 0 0 1
-27.970050 -32.699753 30.561616 52.778878 0.863199 0.953233 0.063305 -0.040670 126786.000000 0 0 1
-28.141580 -31.284253 30.306486 51.856881 0.838233 0.946624 0.053384 -0.029751 205335.000000 0 0 1
-29.133440 -30.805353 31.198286 52.640860 0.813285 0.936435 0.044297 -0.003821 -92364.900000 0 0 1
-29.607110 -29.395653 30.940386 51.942207 0.781814 0.932697 0.038906 -0.008069 -1638.590000 0 0 1
-30.240520 -29.132853 29.674446 51.417749 0.766744 0.955593 0.040045 -0.005869 381175.000000 0 0 1
-30.538330 -27.740253 29.553756 50.749736 0.737423 0.949188 0.035841 -0.003789 -61358.100000 0 0 1
-31.231550 -27.434453 28.190436 50.227080 0.720764 0.974889 0.035451 -0.013589 118895.000000 0 0 1
-30.394110 -27.361153 27.009986 49.009937 0.732932 0.987100 0.049164 -0.012815 521242.000000 0 0 1
-29.807270 -26.046753 26.963576 47.895105 0.718172 0.972820 0.036883 -0.015732 -254571.000000 0 0 1
-28.771490 -25.832653 25.852946 46.513433 0.731629 0.981451 0.050070 -0.006980 -194885.000000 0 0 1
-29.335060 -26.001553 24.563016 46.259791 0.725230 1.011040 0.042752 -0.011885 -144056.000000 0 0 1
-28.317980 -26.062553 23.620246 45.156181 0.743947 1.020337 0.058999 -0.003849 -456551.000000 0 0 1
-28.807700 -26.227953 22.155816 44.818180 0.738558 1.053711 0.050764 -0.001651 10320.400000 0 0 1
-29.347590 -25.060753 21.563016 44.207307 0.706771 1.061262 0.042571 -0.004511 342861.000000 0 0 1
-29.904860 -25.309253 20.249316 44.100949 0.702357 1.093749 0.039583 0.003451 284464.000000 0 0 1
-30.574260 -24.029453 19.601316 43.547808 0.666107 1.103908 0.034333 0.001586 62694.100000 0 0 1
-31.828090 -23.796653 20.206716 44.582725 0.642003 1.100399 0.043656 -0.007404 -53767.200000 0 0 1
-32.496080 -22.716253 19.521716 44.194126 0.610085 1.113274 0.052453 -0.004502 11241.700000 0 0 1
-33.940560 -22.603153 20.046116 45.439090 0.587515 1.113900 0.062537 -0.000680 -459102.000000 0 0 1
-34.805112 -23.638553 19.635616 46.429887 0.596608 1.134143 0.046971 -0.002973 -865797.000000 0 0 1
-36.095880 -23.156853 19.871016 47.265311 0.570403 1.136894 0.055983 -0.014578 -615947.000000 0 0 1
36.755046 -23.803353 18.868416 47.681759 -0.574701 1.163949 0.066398 -0.022198 -167511.000000 0 0 1
36.336476 -25.084353 19.217716 48.154801 -0.604210 1.160281 0.058072 -0.014098 -458665.000000 0 0 1
35.586976 -25.612753 18.159516 47.457497 -0.623840 1.178136 0.063285 -0.007298 -69499.500000 0 0 1
35.076786 -27.014553 18.432816 47.957645 -0.656276 1.176286 0.065293 0.005164 -236462.000000 0 0 1
34.013986 -27.210653 19.329016 47.654819 -0.674731 1.153156 0.064887 -0.007377 -206954.000000 0 0 1
34.337226 -27.052353 20.686216 48.361084 -0.667284 1.128800 0.075640 -0.013139 497.234000 0 0 1
33.070826 -27.166353 21.574516 47.928593 -0.687690 1.103876 0.057744 -0.015635 1210410.000000 0 0 1
31.953686 -26.301253 21.265816 46.529871 -0.688672 1.096137 0.046823 -0.008479 118868.000000 0 0 1
30.999226 -26.203553 22.274516 46.300456 -0.701757 1.068903 0.057937 -0.005451 84061.900000 0 0 1
29.909656 -25.165553 21.808416 44.760469 -0.699472 1.061887 0.068336 0.002252 280343.000000 0 0 1
30.459326 -23.946753 21.305616 44.217042 -0.666262 1.068041 0.071567 -0.007184 -23447.600000 0 0 1
31.075696 -23.116353 22.297216 44.690385 -0.639568 1.048437 0.079759 -0.015009 61969.100000 0 0 1
31.979546 -22.053553 21.591416 44.443670 -0.603722 1.063501 0.069285 -0.013913 -262213.000000 0 0 1
31.343586 -20.999653 20.902616 43.131487 -0.590295 1.064861 0.073091 -0.024703 -189378.000000 0 0 1
32.192346 -19.918253 20.470516 43.036333 -0.554075 1.075086 0.057865 -0.019227 -230197.000000 0 0 1
31.501176 -18.494753 20.322816 41.801876 -0.530890 1.063095 0.049781 -0.011528 242542.000000 0 0 1
31.213466 -17.735253 21.526416 41.859363 -0.516703 1.030657 0.042122 -0.006184 -529363.000000 0 0 1
30.130376 -18.251853 22.205116 41.641768 -0.544646 1.008369 0.067844 -0.016653 -977225.000000 0 0 1
30.118226 -17.781353 23.691176 42.244004 -0.533320 0.975423 0.057741 -0.014697 84681.300000 0 0 1
29.669646 -16.483753 23.937876 41.533407 -0.507114 0.956538 0.065808 -0.016574 140548.000000 0 0 1
30.136046 -16.158953 25.249316 42.506717 -0.492187 0.934765 0.062110 -0.013915 13991.100000 0 0 1
30.074806 -14.706453 25.696836 42.203093 -0.454806 0.916142 0.085667 -0.028416 22770.300000 0 0 1
28.766246 -14.243453 25.994726 41.304947 -0.459756 0.890097 0.098823 -0.028363 250511.000000 0 0 1
28.619456 -12.916453 26.485186 41.077647 -0.423949 0.870088 0.092573 -0.030297 -107353.000000 0 0 1
29.005846 -11.793953 25.480116 40.369205 -0.386188 0.887727 0.103945 -0.038364 -311044.000000 0 0 1
28.187956 -11.734253 24.334206 39.043657 -0.394467 0.897897 0.103955 -0.030588 69016.800000 0 0 1
28.585956 -10.744553 23.426896 38.489242 -0.359532 0.916425 0.101608 -0.026089 -168311.000000 0 0 1
29.711496 -11.087053 22.431916 38.844389 -0.357154 0.955156 0.091995 -0.033450 -288296.000000 0 0 1
29.397806 -12.131053 21.499016 38.387513 -0.391365 0.976347 0.078640 -0.033468 118154.000000 0 0 1
29.506926 -13.453753 22.018016 39.197642 -0.427793 0.974336 0.079479 -0.035195 -751697.000000 0 0 1
28.885776 -14.434053 21.061216 38.552623 -0.463403 0.992858 0.085069 -0.030900 -415109.000000 0 0 1
29.503896 -14.523453 19.814316 38.392938 -0.457433 1.028513 0.069566 -0.023075 -386062.000000 0 0 1
28.983556 -15.647853 19.148516 38.099442 -0.495046 1.044201 0.076946 -0.032961 -49082.400000 0 0 1
29.529046 -15.746353 17.702716 37.858927 -0.489892 1.084226 0.088544 -0.033355 -377250.000000 0 0 1
29.203766 -16.890653 16.912016 37.738182 -0.524365 1.106112 0.079837 -0.040048 515945.000000 0 0 1
27.802056 -17.064253 16.667716 36.632715 -0.550488 1.098429 0.098183 -0.040431 551276.000000 0 0 1
27.248756 -16.100453 15.600616 35.285953 -0.533679 1.112836 0.097039 -0.025016 -655242.000000 0 0 1
27.430956 -16.411553 14.236016 34.992293 -0.539158 1.151812 0.099295 -0.026054 -282095.000000 0 0 1
26.256256 -16.984153 13.737016 34.154912 -0.574166 1.156881 0.084397 -0.036565 -393601.000000 0 0 1
26.200556 -17.462653 12.263216 33.790529 -0.587887 1.199398 0.101230 -0.020503 -477377.000000 0 0 1
26.226456 -16.432953 11.264016 32.935498 -0.559734 1.221749 0.102432 -0.023788 -65395.300000 0 0 1
26.207056 -17.059053 9.965416 32.819668 -0.577031 1.262284 0.086684 -0.026750 351789.000000 0 0 1
27.640056 -17.400653 9.456216 34.002580 -0.561861 1.288978 0.087955 -0.015049 290047.000000 0 0 1
28.304456 -18.442553 10.122116 35.266517 -0.577484 1.279684 0.080675 -0.009272 273310.000000 0 0 1
29.644976 -18.491353 9.589016 36.231257 -0.557707 1.302944 0.075202 0.001891 727904.000000 0 0 1
30.543576 -19.418653 10.404216 37.659552 -0.566306 1.290885 0.080226 -0.019791 -239159.000000 0 0 1
30.735956 -18.880853 11.748516 37.936964 -0.550862 1.255934 0.090068 -0.027413 95252.400000 0 0 1
30.475546 -19.880453 12.680816 38.533030 -0.578019 1.235457 0.075227 -0.029624 -56917.700000 0 0 1
30.579376 -19.410753 14.146816 38.884547 -0.565591 1.198435 0.082618 -0.027425 116983.000000 0 0 1
30.413446 -20.454253 15.088416 39.636025 -0.592058 1.180271 0.082178 -0.031215 1866.280000 0 0 1
30.467656 -19.958153 16.446216 39.963533 -0.579924 1.146664 0.092006 -0.032853 34671.700000 0 0 1
30.200436 -21.052953 17.496116 40.760364 -0.608782 1.127141 0.089480 -0.033431 -313698.000000 0 0 1
28.848696 -21.390953 17.412216 39.912472 -0.638031 1.119358 0.053370 -0.022608 -671393.000000 0 0 1
28.468356 -22.441353 18.276016 40.596482 -0.667561 1.103821 0.065629 -0.025264 152416.000000 0 0 1
27.053756 -22.970553 17.948216 39.770472 -0.703954 1.102580 0.060428 -0.014845 538410.000000 0 0 1
25.992956 -22.099953 18.359316 38.744111 -0.704627 1.077126 0.063032 -0.016842 482900.000000 0 0 1
24.759656 -22.801153 18.341816 38.332171 -0.744243 1.071854 0.053084 -0.012983 519423.000000 0 0 1
23.588156 -22.230153 19.187916 37.666390 -0.755768 1.036289 0.040946 -0.010907 130339.000000 0 0 1
23.072556 -21.000153 18.680416 36.363542 -0.738410 1.031290 0.034799 -0.015936 583742.000000 0 0 1
21.825556 -20.579253 19.268916 35.653214 -0.756016 0.999820 0.039460 -0.017523 913690.000000 0 0 1
21.902956 -20.012253 20.686016 36.168232 -0.740321 0.961929 0.036818 -0.015610 -260736.000000 0 0 1
22.179656 -21.042453 21.582416 37.423557 -0.759094 0.956105 0.047943 -0.011638 -163296.000000 0 0 1
22.635656 -20.610153 22.862316 38.207811 -0.738595 0.929334 0.046045 -0.005491 127136.000000 0 0 1
22.985156 -21.820253 23.786506 39.626238 -0.759405 0.926956 0.051790 -0.004821 8545.260000 0 0 1
21.901556 -22.590453 24.334516 39.776568 -0.800881 0.912487 0.056977 -0.002980 233489.000000 0 0 1
22.290556 -23.528553 25.321036 41.129266 -0.812411 0.907592 0.059248 0.001878 -99379.900000 0 0 1
21.074156 -24.187553 26.010236 41.300002 -0.854077 0.889516 0.067452 -0.002818 367794.000000 0 0 1
20.310856 -25.111453 25.226956 40.981889 -0.890695 0.907696 0.064200 0.001866 346665.000000 0 0 1
19.178756 -25.623253 25.889906 41.166285 -0.928262 0.890645 0.059476 0.006112 -3891.750000 0 0 1
18.327756 -26.625853 25.091166 40.919547 -0.967936 0.910713 0.072338 0.002116 -392967.000000 0 0 1
17.483456 -26.039853 24.173716 39.599416 -0.979516 0.914160 0.077481 -0.004209 -72696.100000 0 0 1
16.928056 -26.949953 23.212876 39.391581 -1.009950 0.940623 0.081936 -0.008658 -242130.000000 0 0 1
16.082356 -26.263653 22.152816 37.936380 -1.021351 0.947215 0.076854 -0.011669 -3724.010000 0 0 1
14.775556 -25.947653 22.610716 37.454536 -1.053153 0.922682 0.065240 -0.014276 -47725.700000 0 0 1
14.185256 -25.018253 21.761416 36.065131 -1.054998 0.923048 0.043034 -0.020508 -893245.000000 0 0 1
12.810656 -24.572353 22.206216 35.510977 -1.090219 0.895237 0.050298 -0.018336 -1222940.000000 0 0 1
11.836456 -25.510353 21.986716 35.697276 -1.136372 0.907241 0.051050 -0.017258 -698854.000000 0 0 1
10.541356 -24.940353 22.114116 34.959627 -1.170907 0.885940 0.046259 -0.015923 641468.000000 0 0 1
9.429956 -26.042153 22.152016 35.465894 -1.223380 0.896176 0.047712 -0.019076 22089.600000 0 0 1
9.128556 -26.686653 20.947216 35.132518 -1.241208 0.931994 0.057438 -0.022736 553869.000000 0 0 1
8.044156 -27.569753 21.276316 35.741871 -1.286903 0.933186 0.053986 -0.025091 323776.000000 0 0 1
7.360056 -28.276253 20.094316 35.461225 -1.316156 0.968355 0.068120 -0.025691 51517.300000 0 0 1
8.119756 -29.400353 19.730916 36.326578 -1.301334 0.996608 0.071408 -0.030429 259035.000000 0 0 1
7.434256 -30.180053 18.787716 36.319169 -1.329275 1.027109 0.068532 -0.029602 -83395.600000 0 0 1
8.045756 -31.566753 18.594216 37.509185 -1.321229 1.052128 0.069103 -0.025382 84516.900000 0 0 1
7.815556 -32.466053 19.658916 38.750490 -1.334561 1.038724 0.066398 -0.035102 642833.000000 0 0 1
8.861756 -33.442653 19.652416 39.788933 -1.311766 1.054208 0.069364 -0.030973 312703.000000 0 0 1
8.591756 33.571818 20.718116 40.374813 1.320252 1.031952 0.083552 -0.038135 337439.000000 0 0 1
7.617956 32.614718 20.280016 39.153954 1.341336 1.026337 0.081415 -0.039497 458043.000000 0 0 1
7.475156 31.556118 21.179116 38.732693 1.338199 0.992256 0.080673 -0.046165 -119000.000000 0 0 1
6.613756 30.346418 20.718716 37.335131 1.356210 0.982507 0.097641 -0.043272 464820.000000 0 0 1
5.222556 30.550918 20.943316 37.406632 1.401487 0.976552 0.097471 -0.045276 337853.000000 0 0 1
4.487556 29.371818 20.592316 36.150869 1.419184 0.964751 0.100349 -0.036389 1647160.000000 0 0 1
2.946056 29.376918 21.002116 36.232188 1.470846 0.952493 0.089526 -0.027427 1477080.000000 0 0 1
2.693156 29.074818 22.331816 36.760143 1.478431 0.917886 0.067777 -0.022624 390400.000000 0 0 1
1.291756 28.816718 22.448116 36.551194 1.526000 0.909481 0.055071 -0.012364 593775.000000 0 0 1
0.964756 28.312018 23.869796 37.044139 1.536734 0.870609 0.061657 -0.001375 -122973.000000 0 0 1
1.060956 29.287518 24.897606 38.454845 1.534587 0.866562 0.065115 -0.007095 287973.000000 0 0 1
0.633156 28.812918 26.175386 38.932454 1.548825 0.833447 0.062517 -0.002412 539753.000000 0 0 1
1.784156 28.137318 27.037236 39.062821 1.507472 0.806336 0.040078 -0.002928 593133.000000 0 0 1
2.349456 26.974118 26.444446 37.847479 1.483915 0.797202 0.044400 -0.010026 821654.000000 0 0 1
3.267056 26.343918 27.375666 38.132699 1.447411 0.770008 0.020179 0.002755 515896.000000 0 0 1
3.787056 24.988918 26.830926 36.860363 1.420391 0.755531 0.027690 0.012199 -697463.000000 0 0 1
2.755056 24.116118 26.695176 36.080603 1.457048 0.737910 0.043661 0.008467 -620302.000000 0 0 1
3.290756 22.788318 26.516246 35.117628 1.427382 0.715036 0.042430 0.015090 223906.000000 0 0 1
2.205856 21.695018 26.359166 34.210309 1.469469 0.691166 0.053935 0.014072 -233517.000000 0 0 1
2.540456 20.359218 26.608136 33.599770 1.446656 0.656859 0.060693 0.010833 92494.000000 0 0 1
3.361356 19.873618 25.535006 32.531460 1.403245 0.668209 0.065335 0.005257 -364712.000000 0 0 1
3.745356 18.397118 25.807556 31.914128 1.369957 0.628932 0.056183 -0.008077 -270113.000000 0 0 1
4.927756 18.207018 26.534946 32.555823 1.306477 0.617964 0.049737 -0.013258 -480900.000000 0 0 1
6.051856 18.153318 25.707346 32.047395 1.249009 0.639882 0.068072 -0.017471 -1789980.000000 0 0 1
7.377456 17.797718 26.373436 32.661043 1.177838 0.630913 0.050945 -0.022929 -186182.000000 0 0 1
8.016356 18.769418 27.182716 33.991956 1.167151 0.644033 0.051659 -0.015274 164338.000000 0 0 1
8.545856 19.828418 26.396416 34.102325 1.163863 0.685606 0.044492 -0.021449 -547385.000000 0 0 1
9.013856 21.069818 27.260116 35.613210 1.166549 0.699057 0.037750 -0.015247 1519690.000000 0 0 1
10.215356 20.852418 28.078476 36.435939 1.115271 0.690974 0.065014 -0.034693 1081840.000000 0 0 1
10.290556 21.779218 29.083956 37.763823 1.129394 0.691714 0.075016 -0.039893 408008.000000 0 0 1
11.418356 21.375318 30.107136 38.648709 1.080177 0.677736 0.091452 -0.043503 658286.000000 0 0 1
12.690156 21.201218 29.510926 38.489303 1.031438 0.697064 0.091691 -0.047039 -656775.000000 0 0 1
13.618556 20.776518 30.455246 39.302045 0.990580 0.684236 0.088414 -0.023182 -263721.000000 0 0 1
15.049456 20.776818 29.900666 39.398123 0.943922 0.709118 0.073170 -0.034494 18065.300000 0 0 1
15.667256 22.033718 29.660056 40.133110 0.952687 0.739149 0.064681 -0.052359 -312528.000000 0 0 1
16.941756 21.919518 29.095556 40.175113 0.912795 0.760896 0.112599 -0.033127 -109196.000000 0 0 1
-8.550080 16.695618 4.183936 19.218555 -1.097504 1.351336 0.024256 -0.020769 -193849.000000 0 1 0
-8.571580 17.990918 4.760136 20.489119 -1.126174 1.336329 0.032047 -0.019357 190565.000000 0 1 0
-7.254380 18.435918 5.004036 20.434027 -1.195913 1.323393 0.030469 -0.012946 -153630.000000 0 1 0
-7.141780 19.887418 5.548336 21.847161 -1.226028 1.314023 0.037821 -0.011673 -64191.900000 0 1 0
-7.298680 20.926818 4.665936 22.648916 -1.235216 1.363299 0.042122 -0.014221 417206.000000 0 1 0
-8.662480 21.271018 4.422836 23.389233 -1.184061 1.380554 0.043811 -0.015064 429152.000000 0 1 0
-8.994280 22.283918 3.217636 24.245067 -1.187171 1.437691 0.076597 -0.033591 -144414.000000 0 1 0
-8.509980 22.046618 1.948736 23.712248 -1.202417 1.488521 0.067404 -0.038263 -297709.000000 0 1 0
-9.029780 20.934218 1.275736 22.834314 -1.163567 1.514898 0.084691 -0.036985 -691991.000000 0 1 0
-8.333280 20.826618 -0.084964 22.432093 -1.190181 1.574584 0.066423 -0.031911 1734200.000000 0 1 0
-6.957080 20.347718 -0.184464 21.504990 -1.241347 1.579374 0.062447 -0.028886 1751380.000000 0 1 0
-6.008080 21.335818 0.259536 22.167127 -1.296308 1.559088 0.069858 -0.035170 -377148.000000 0 1 0
-4.554880 21.149218 -0.173764 21.634846 -1.358668 1.578828 0.062207 -0.028883 -262071.000000 0 1 0
-4.365680 21.505318 -1.512264 21.996018 -1.370513 1.639602 0.054422 -0.027501 803260.000000 0 1 0
-2.974280 21.529418 -1.875264 21.814646 -1.433516 1.656866 0.051327 -0.023017 595818.000000 0 1 0
-2.826580 21.682218 -3.337864 22.118984 -1.441163 1.722280 0.049826 -0.015861 -421538.000000 0 1 0
-1.598880 22.182418 -3.774664 22.558018 -1.498842 1.738919 0.056424 -0.016479 -326432.000000 0 1 0
-1.526280 22.116318 -5.140064 22.757006 -1.501894 1.798630 0.063064 -0.034193 -196567.000000 0 1 0
-0.282280 22.792018 -5.721264 23.500822 -1.558412 1.816717 0.065731 -0.035816 290532.000000 0 1 0
0.919020 22.022418 -5.605064 22.743092 1.529089 1.819813 0.045236 -0.025505 128716.000000 0 1 0
1.956920 22.639118 -6.344464 23.592614 1.484571 1.843065 0.052601 -0.021403 342143.000000 0 1 0
3.162120 21.663018 -6.496764 22.836228 1.425851 1.859275 0.044522 -0.013787 114089.000000 0 1 0
2.869020 20.636118 -7.353864 22.094342 1.432653 1.910109 0.040148 -0.022793 237727.000000 0 1 0
4.004920 19.820018 -7.604164 21.603144 1.371417 1.930496 0.033893 -0.015260 425199.000000 0 1 0
3.720120 18.801718 -8.722564 21.057707 1.375459 1.997884 0.020276 -0.010720 19567.600000 0 1 0
3.878620 19.325218 -10.063864 22.131180 1.372725 2.042873 0.031280 -0.010556 -222135.000000 0 1 0
2.923520 18.844818 -10.974664 22.002668 1.416887 2.092996 0.032945 -0.013770 -272745.000000 0 1 0
3.312920 19.196718 -12.436264 23.111687 1.399902 2.138971 0.035708 -0.010690 221908.000000 0 1 0
3.332320 20.589718 -12.705464 24.422728 1.410344 2.117918 0.058711 -0.012412 -145905.000000 0 1 0
3.807020 20.873918 -13.977564 25.408387 1.390397 2.153300 0.081200 -0.006228 27690.100000 0 0 1
4.081320 22.393618 -14.135964 26.794716 1.390521 2.126528 0.081699 -0.012962 -13311.200000 0 0 1
2.906720 23.141118 -14.345664 27.381717 1.445842 2.122236 0.098087 -0.019919 -154556.000000 0 0 1
3.232820 24.445918 -14.771364 28.744517 1.439315 2.110503 0.083087 -0.024035 -150104.000000 0 0 1
1.986120 25.295218 -15.058764 29.505239 1.492439 2.106418 0.083259 -0.013011 -267187.000000 0 0 1
1.334920 25.654418 -13.852964 29.186226 1.518809 2.065352 0.086393 -0.023162 -501544.000000 0 0 1
0.929420 27.021618 -13.938064 30.418765 1.536414 2.046772 0.055150 -0.011548 -243737.000000 0 0 1
-0.106680 27.378018 -12.811264 30.227400 -1.566900 2.008466 0.057643 -0.019183 1722050.000000 0 0 1
-1.451280 26.815518 -12.959064 29.818041 -1.516728 2.020396 0.032015 -0.027308 1312120.000000 0 0 1
-1.586880 25.397718 -12.852664 28.508827 -1.508396 2.038492 0.033964 -0.025324 -659055.000000 0 0 1
-1.434280 24.766418 -11.501664 27.344486 -1.512949 2.004926 0.062619 -0.029029 -583465.000000 0 0 1
-2.443780 25.181618 -10.563464 27.416650 -1.474053 1.966322 0.064471 -0.018792 491001.000000 0 0 1
-3.001680 24.001818 -9.962664 26.160123 -1.446382 1.961494 0.102336 -0.016701 270583.000000 0 0 1
-3.832880 24.257118 -8.649964 26.036909 -1.414081 1.909452 0.081634 -0.021718 -387762.000000 0 0 1
-3.194080 24.514518 -7.405664 25.807123 -1.441233 1.861850 0.089245 -0.030980 -201588.000000 0 0 1
-2.654080 25.803618 -7.345664 26.959778 -1.468300 1.846753 0.080006 -0.036271 45132.100000 0 0 1
-2.405580 26.378218 -5.895464 27.135838 -1.479852 1.789800 0.085938 -0.030843 491844.000000 0 0 1
-1.333380 25.794618 -5.145464 26.336591 -1.519150 1.767434 0.084542 -0.036247 330385.000000 0 0 1
-1.411980 26.183318 -3.788664 26.493656 -1.516922 1.714291 0.093920 -0.036710 22748.600000 0 0 1
-2.382980 25.427818 -2.834564 25.696056 -1.477354 1.681333 0.098275 -0.039295 -621570.000000 0 0 1
-3.711480 25.709318 -3.087464 26.158680 -1.427424 1.689100 0.089046 -0.037499 -965048.000000 0 0 1
-4.551080 25.037918 -2.159864 25.539669 -1.390992 1.655466 0.091433 -0.038573 454695.000000 0 0 1
-5.742280 24.261418 -2.818864 25.090559 -1.338389 1.683382 0.076870 -0.037797 1027.330000 0 0 1
-6.831780 25.068818 -3.128464 26.170711 -1.304736 1.690624 0.073377 -0.035544 -134889.000000 0 0 1
-8.003880 24.324318 -3.471364 25.841535 -1.252907 1.705536 0.074105 -0.031420 1152740.000000 0 0 1
-9.288080 25.207118 -3.642064 27.109627 -1.217762 1.705550 0.052606 -0.020053 217330.000000 0 0 1
-9.820680 25.569918 -2.413564 27.497123 -1.204096 1.658685 0.064374 -0.026741 -1057850.000000 0 0 1
-11.017180 26.273918 -2.614464 28.610006 -1.173746 1.662307 0.063937 -0.014254 98361.900000 0 0 1
-11.920080 26.251518 -1.316364 28.861104 -1.144561 1.616422 0.068908 -0.018709 477732.000000 0 0 1
-12.544880 25.013518 -1.005064 28.001076 -1.105930 1.606698 0.074307 -0.020629 787547.000000 0 0 1
-11.543880 24.044418 -0.633264 26.679509 -1.123190 1.594535 0.081415 -0.025904 114792.000000 0 0 1
-12.159780 22.711518 -0.281364 25.763394 -1.079230 1.581718 0.079108 -0.028447 -310040.000000 0 0 1
-12.786580 22.817318 0.958636 26.173376 -1.060012 1.534162 0.076997 -0.027379 -174756.000000 0 0 1
-13.285080 21.526218 1.291036 25.328604 -1.017856 1.519803 0.073406 -0.034128 -428049.000000 0 0 1
-14.017880 21.477718 2.632936 25.782274 -0.992546 1.468496 0.076595 -0.032288 -471959.000000 0 0 1
-13.344380 21.364118 3.869236 25.484682 -1.012473 1.418381 0.080121 -0.034832 -294619.000000 0 0 1
-12.854580 22.566018 4.346336 26.331654 -1.052997 1.404976 0.081541 -0.034011 -226317.000000 0 0 1
-12.529480 22.540018 5.857236 26.445179 -1.063452 1.347458 0.081613 -0.031564 -742648.000000 0 0 1
-11.257880 22.100818 6.193536 25.564544 -1.099667 1.326091 0.072817 -0.024301 -695682.000000 0 0 1
-11.200680 21.767518 7.546136 25.616874 -1.095569 1.271784 0.049415 -0.024246 469935.000000 0 0 1
-9.771380 21.765318 8.177736 25.220712 -1.148822 1.240581 0.038996 -0.015552 242671.000000 0 0 1
-9.304980 22.939918 8.773536 26.263995 -1.185451 1.230197 0.043616 -0.018620 45315.800000 0 0 1
-8.105180 22.633618 9.456336 25.834026 -1.226921 1.196044 0.046001 -0.013035 -50660.100000 0 0 1
-8.372080 22.360718 10.976536 26.278846 -1.212543 1.139890 0.054501 -0.021976 798511.000000 0 0 1
-9.310480 21.240518 11.133836 25.725609 -1.157685 1.123209 0.054571 -0.014759 811472.000000 0 0 1
-9.000980 20.572318 12.341936 25.623452 -1.158362 1.068242 0.047912 -0.012391 37861.800000 0 0 1
-10.109080 19.585818 12.789536 25.482739 -1.094318 1.045014 0.045925 -0.017444 -141791.000000 0 0 1
-10.462880 18.566318 11.896236 24.406975 -1.057616 1.061674 0.060181 -0.024779 37750.700000 0 1 0
-10.704880 17.380418 12.617536 23.997408 -1.018756 1.017156 0.048862 -0.026960 -224519.000000 0 1 0
-11.095180 16.259318 11.700036 22.898892 -0.971988 1.034515 0.051256 -0.030359 -220567.000000 0 1 0
-11.412080 15.043918 12.358436 22.567365 -0.921824 0.991274 0.046935 -0.027172 148789.000000 0 1 0
-11.749380 13.967218 11.473236 21.558438 -0.871427 1.009608 0.039851 -0.021642 -149094.000000 0 1 0
-11.888980 12.610818 12.248036 21.222511 -0.814853 0.955593 0.032013 -0.027053 -291370.000000 0 1 0
-12.840780 12.534218 13.253036 22.307739 -0.773317 0.934650 0.040851 -0.015859 -389532.000000 0 1 0
-13.285680 11.225218 13.535536 22.039182 -0.701532 0.909478 0.036077 -0.012963 299563.000000 0 1 0
-14.130580 11.218218 14.860236 23.374095 -0.671008 0.881808 0.046689 -0.016066 1583210.000000 0 1 0
-15.453380 11.804418 14.711736 24.384142 -0.652321 0.923124 0.057189 -0.018711 1421370.000000 0 1 0
-16.119980 12.118118 15.956636 25.716080 -0.644617 0.901426 0.047276 -0.009794 53178.600000 0 0 1
-17.198780 13.174418 15.839136 26.837316 -0.653668 0.939501 0.057671 -0.013090 -226412.000000 0 0 1
-18.359380 12.850818 15.110436 27.028422 -0.610699 0.977548 0.057649 -0.011399 379385.000000 0 0 1
-19.311180 13.917418 15.166436 28.224758 -0.624479 1.003510 0.077314 -0.013534 139790.000000 0 0 1
-20.566280 13.740518 14.292536 28.566594 -0.589001 1.046824 0.080544 -0.018455 -30031.200000 0 0 1
-21.411680 12.730718 14.854736 29.003351 -0.536416 1.033083 0.084859 -0.011880 43674.300000 0 0 1
-22.580380 12.719818 14.055336 29.482534 -0.513007 1.073860 0.082035 -0.011652 420984.000000 0 0 1
-23.715580 11.800918 14.642336 30.266952 -0.461727 1.065836 0.098273 -0.008375 511412.000000 0 0 1
-24.383680 12.262618 15.821636 31.547738 -0.465967 1.045448 0.115258 -0.024821 671069.000000 0 0 1
-25.345800 11.278518 16.240936 32.146268 -0.418676 1.041160 0.112575 -0.020263 417543.000000 0 0 1
-26.456930 11.736318 17.215936 33.676383 -0.417520 1.034196 0.099719 -0.023493 134511.000000 0 0 1
-27.372790 12.684918 16.711336 34.488339 -0.433952 1.064947 0.097800 -0.023765 422499.000000 0 0 1
-28.237540 13.132618 17.746336 35.843504 -0.435321 1.052839 0.100325 -0.005443 409607.000000 0 0 1
-29.233650 14.301118 17.436336 36.920916 -0.454971 1.078941 0.084210 -0.009545 408201.000000 0 0 1
-28.671280 15.587018 17.270836 36.922611 -0.497952 1.084044 0.083317 -0.009498 59357.100000 0 0 1
-29.720550 16.485818 16.986236 37.995072 -0.506440 1.107316 0.082297 -0.007828 97265.000000 0 0 1
-29.215490 17.930618 16.919036 38.227028 -0.550459 1.112307 0.088544 -0.010132 60302.200000 0 0 1
-28.509980 18.493318 18.033436 38.471113 -0.575433 1.082918 0.067391 -0.004439 -24333.500000 0 0 1
-29.219830 18.645918 19.228336 39.638335 -0.567982 1.064325 0.075202 -0.007320 -1078330.000000 0 0 1
-28.356150 18.691118 20.509636 39.674605 -0.582785 1.027517 0.062879 -0.006246 52558.400000 0 0 1
-27.906460 17.459218 21.058036 39.077304 -0.559055 1.001688 0.070541 -0.007742 -71887.400000 0 0 1
-27.165650 16.631318 20.211936 37.723940 -0.549355 1.005359 0.065849 -0.002483 -956535.000000 0 0 1
-26.795170 15.366618 20.991936 37.346693 -0.520695 0.973894 0.072019 -0.005944 52223.900000 0 0 1
-27.887480 14.585718 21.462836 38.093412 -0.481894 0.972269 0.064674 -0.010786 265341.000000 0 0 1
-27.470800 13.315318 21.896336 37.568498 -0.451339 0.948580 0.068634 -0.006932 122631.000000 0 0 1
-28.626020 12.279518 22.074636 38.177547 -0.405223 0.954263 0.082844 -0.011598 -188700.000000 0 0 1
-29.268350 11.973218 20.926536 37.919838 -0.388313 0.986200 0.089840 -0.013423 -236247.000000 0 0 1
-30.350880 11.083318 21.127236 38.605387 -0.350127 0.991708 0.108893 -0.013510 462970.000000 0 0 1
-31.352500 11.014918 19.903836 38.735905 -0.337855 1.031148 0.113104 -0.017641 185631.000000 0 0 1
-30.762500 10.479418 18.716736 37.502877 -0.328326 1.048266 0.135148 -0.027737 364489.000000 0 0 1
-30.500310 9.061918 18.750636 36.932013 -0.288802 1.038275 0.155976 -0.031478 169699.000000 0 0 1
-29.679520 8.557618 17.507536 35.505218 -0.280720 1.055150 0.173684 -0.046576 460116.000000 0 0 1
-30.409940 8.483618 16.239836 35.503077 -0.272058 1.095704 0.180545 -0.034724 722081.000000 0 0 1
-30.934360 9.713918 15.656336 36.005773 -0.304266 1.120949 0.160763 -0.034618 -860758.000000 0 0 1
-29.946250 10.743118 15.210736 35.264131 -0.344446 1.124822 0.144758 -0.029465 -930354.000000 0 0 1
-29.205830 10.199018 14.137836 34.012922 -0.335972 1.142127 0.143171 -0.032078 -531377.000000 0 0 1
-28.166690 11.080618 13.900936 33.307334 -0.374799 1.140265 0.120118 -0.019416 -868864.000000 0 0 1
-27.819460 11.215218 12.385436 32.451540 -0.383213 1.179205 0.140255 -0.023282 -391917.000000 0 0 1
-27.207140 10.102418 11.755836 31.312729 -0.355536 1.185932 0.171837 -0.017742 607333.000000 0 0 1
-28.079340 9.140418 11.142836 31.561992 -0.314703 1.209972 0.170400 -0.019128 -247254.000000 0 0 1
-27.358070 7.882918 10.659236 30.401047 -0.280540 1.212563 0.175160 -0.019442 -354534.000000 0 0 1
-26.722750 8.170418 9.422136 29.489621 -0.296721 1.245587 0.163221 -0.018264 196910.000000 0 0 1
-26.184780 7.010218 8.845536 28.513670 -0.261587 1.255371 0.173988 -0.028072 -60091.700000 0 0 1
-25.390770 7.236718 7.564036 27.464084 -0.277652 1.291774 0.163940 -0.013053 59437.300000 0 0 1
-26.352830 7.550618 6.571436 28.189843 -0.279045 1.335518 0.171476 -0.024317 514545.000000 0 0 1
-25.744600 8.164318 5.438336 27.550245 -0.307095 1.372094 0.171182 -0.027628 184552.000000 0 0 1
-26.737610 8.751418 4.363436 28.469750 -0.316317 1.416924 0.160899 -0.026292 43309.600000 0 0 1
-27.431950 7.752918 3.569436 28.729088 -0.275440 1.446230 0.172656 -0.025751 149004.000000 0 0 1
-26.783700 6.696218 2.869236 27.756773 -0.244989 1.467241 0.177539 -0.029289 -681315.000000 0 0 1
-25.834440 7.121918 1.759536 26.855837 -0.268994 1.505232 0.172295 -0.021081 -958217.000000 0 0 1
-24.674280 7.764018 2.144736 25.955731 -0.304852 1.488071 0.154965 -0.023180 -554253.000000 0 0 1
-23.801480 7.789218 1.059636 25.066017 -0.316273 1.528510 0.156618 -0.014234 -1091160.000000 0 0 1
-22.430880 8.372818 1.299836 23.977865 -0.357255 1.516560 0.121075 -0.016326 -838869.000000 0 1 0
-22.513880 9.781718 1.287136 24.580755 -0.409869 1.518409 0.106297 -0.023217 1169340.000000 0 1 0
-21.501580 10.352918 2.141236 23.960086 -0.448735 1.481310 0.105923 -0.026381 166822.000000 0 1 0
-21.882080 11.748018 2.532636 24.965087 -0.492713 1.469174 0.107319 -0.025837 -948592.000000 0 1 0
-20.901480 12.361718 3.256036 24.500729 -0.534093 1.437507 0.118389 -0.028551 -113289.000000 0 1 0
-21.349180 13.589918 3.756836 25.584901 -0.566865 1.423425 0.134148 -0.038254 -659595.000000 0 0 1
-20.158480 14.224618 4.433536 25.067116 -0.614501 1.392994 0.098573 -0.028206 -297356.000000 0 0 1
-19.652780 13.398818 5.490636 24.411210 -0.598391 1.343933 0.090469 -0.029468 -267657.000000 0 1 0
-18.923680 14.158618 6.382436 24.480760 -0.642345 1.307036 0.086604 -0.026852 -697783.000000 0 1 0
-18.269480 13.200918 7.372336 23.714752 -0.625711 1.254682 0.040185 -0.020523 -662188.000000 0 1 0
-17.371280 12.295318 6.838436 22.353980 -0.615939 1.259896 0.044236 -0.014043 64580.700000 0 1 0
-16.678080 11.658818 7.919036 21.835694 -0.610088 1.199671 0.032998 -0.012398 -452852.000000 0 1 0
10.094420 -33.474053 -14.153264 37.719020 -1.277909 1.955440 0.053842 -0.002883 -309853.000000 0 0 1
11.233720 -32.989753 -13.496064 37.371969 -1.242590 1.940274 0.061081 -0.010159 -203657.000000 0 0 1
11.735620 -31.864953 -14.117264 36.774953 -1.217919 1.964794 0.058295 -0.019069 -418994.000000 0 0 1
13.057620 -31.416053 -13.485564 36.596862 -1.176884 1.948180 0.054801 -0.020703 281261.000000 0 0 1
14.212720 -32.207653 -13.834464 37.824949 -1.155214 1.945235 0.065116 -0.012105 841964.000000 0 0 1
15.347020 -31.608653 -13.194164 37.532972 -1.118790 1.930007 0.050080 -0.010989 816786.000000 0 0 1
16.715820 -32.141153 -13.746564 38.748425 -1.091218 1.933458 0.073357 -0.011937 607075.000000 0 0 1
16.874820 -33.478153 -13.393064 39.811060 -1.103910 1.913904 0.072670 -0.017227 431784.000000 0 0 1
18.055920 -33.946053 -14.078164 40.945641 -1.081955 1.921784 0.080171 0.002304 878964.000000 0 0 1
18.448920 32.673618 -13.601564 39.911534 1.056781 1.918556 0.057906 -0.008770 -131567.000000 0 0 1
19.015620 32.409718 -12.300164 39.538306 1.040194 1.887141 0.053580 -0.007729 148854.000000 0 0 1
18.918820 31.014318 -12.059364 38.278427 1.023054 1.891299 0.040739 -0.004891 307127.000000 0 0 1
19.608520 30.440018 -10.737764 37.767557 0.998531 1.859085 0.040449 -0.012953 1446590.000000 0 0 1
20.986720 30.026918 -10.818064 38.198020 0.960789 1.857936 0.043649 -0.012044 1298330.000000 0 0 1
21.652020 30.028018 -9.524964 38.225865 0.946075 1.822626 0.040565 -0.013379 535625.000000 0 0 1
22.891220 29.107018 -9.367464 38.196542 0.904372 1.818567 0.046449 -0.004406 438088.000000 0 0 1
23.957920 29.525718 -10.206564 39.369073 0.889127 1.833045 0.053953 -0.012418 -471316.000000 0 0 1
25.105420 28.793518 -9.966864 39.480213 0.853718 1.826010 0.053548 -0.007549 -397790.000000 0 0 1
26.365020 29.151718 -10.781264 40.757485 0.835552 1.838505 0.042581 -0.013356 252426.000000 0 0 1
27.087320 30.285818 -10.320164 41.922064 0.841090 1.819528 0.051707 -0.020758 463333.000000 0 0 1
28.304620 30.522618 -11.017764 43.060108 0.823084 1.829543 0.050801 -0.013995 379103.000000 0 0 1
28.783920 31.998018 -11.150464 44.460320 0.838228 1.824299 0.043877 -0.017080 -121803.000000 0 0 1
27.823620 32.908718 -11.649164 44.641243 0.868933 1.834803 0.055438 -0.012987 -337791.000000 0 0 1
28.273520 -33.872453 -11.567764 45.613027 -0.875249 1.827203 0.041840 -0.010777 -633974.000000 0 0 1
27.299120 -32.779753 -11.931764 44.295837 -0.876370 1.843530 0.040246 -0.004985 -520635.000000 0 0 1
26.258020 -32.692053 -10.993764 43.348781 -0.894112 1.827209 0.066142 -0.019426 -530687.000000 0 0 1
25.179320 -31.867953 -11.314164 42.161297 -0.902112 1.842481 0.076511 -0.025172 -53432.400000 0 0 1
25.371620 -30.431953 -10.765864 41.057603 -0.875832 1.836112 0.049087 -0.013099 -255746.000000 0 0 1
26.159720 -29.692153 -11.669664 41.256951 -0.848560 1.857564 0.042582 -0.010023 -212592.000000 0 0 1
26.687120 -28.553853 -11.033464 40.611110 -0.819178 1.845941 0.035110 -0.010449 -390348.000000 0 0 1
27.611220 -27.724353 -11.938964 40.909145 -0.787443 1.866947 0.039306 -0.005717 869090.000000 0 0 1
28.890620 -28.299753 -12.265964 42.261068 -0.775067 1.865277 0.026743 -0.006087 789903.000000 0 0 1
28.726320 -29.208453 -13.332264 43.082299 -0.793720 1.885422 0.039636 -0.013830 -587571.000000 0 0 1
30.020720 -29.845353 -13.865764 44.544901 -0.782469 1.887332 0.040673 -0.013853 -257946.000000 0 0 1
30.558520 -30.725153 -12.939964 45.225003 -0.788117 1.860976 0.044033 -0.013424 359703.000000 0 0 1
31.719220 -31.367053 -13.494164 46.605723 -0.779816 1.864541 0.043456 -0.021876 205897.000000 0 0 1
32.579820 -32.114553 -12.470864 47.416365 -0.778207 1.836935 0.053726 -0.020175 -553548.000000 0 0 1
33.475620 -32.925653 -13.154064 48.762129 -0.777116 1.843940 0.046890 -0.018336 -238618.000000 0 0 1
34.333320 -33.720553 -12.341064 49.680524 -0.776394 1.821833 0.047848 -0.013833 -156843.000000 0 0 1
33.724420 33.174618 -11.616264 48.711697 0.777180 1.811586 0.043613 -0.019152 -491483.000000 0 0 1
32.842320 33.554618 -10.599464 48.133970 0.796126 1.792824 0.035905 -0.015258 -283807.000000 0 0 1
32.475520 32.386218 -9.916964 46.924116 0.784021 1.783743 0.038416 -0.014603 -398211.000000 0 0 1
31.754920 32.589118 -8.563564 46.300758 0.798362 1.756823 0.016261 -0.009215 -277270.000000 0 0 1
30.493920 33.176718 -8.719764 45.897800 0.827509 1.761940 0.029382 -0.016907 -625029.000000 0 0 1
30.046020 33.572218 -7.438164 45.663809 0.840769 1.734415 0.029455 -0.009686 72019.600000 0 0 1
28.908320 -33.492653 -7.432464 44.863017 -0.858732 1.737234 0.033607 -0.017835 -284551.000000 0 0 1
29.426420 -32.182253 -7.722964 44.286068 -0.830100 1.746081 0.015461 -0.020168 156740.000000 0 0 1
28.557120 -31.230653 -8.307264 43.126250 -0.830085 1.764635 0.019780 -0.017420 232856.000000 0 0 1
27.654720 -30.417953 -7.286364 41.750767 -0.832945 1.746215 0.034983 -0.019753 413947.000000 0 0 1
26.882420 -29.493753 -8.005964 40.701861 -0.831685 1.768785 0.031086 -0.027166 77141.100000 0 0 1
25.970920 -28.793653 -7.163364 39.431928 -0.836896 1.753475 0.042392 -0.029796 670575.000000 0 0 1
24.923420 -27.815453 -7.815264 38.156974 -0.840180 1.777075 0.083565 -0.028765 535635.000000 0 0 1
23.876820 -28.516653 -8.493364 38.150220 -0.873725 1.795307 0.092970 -0.026297 372076.000000 0 0 1
22.942020 -27.641853 -9.079064 37.051825 -0.878044 1.818354 0.103811 -0.029355 180133.000000 0 0 1
21.742520 -28.437953 -9.690864 37.085944 -0.918042 1.835174 0.116631 -0.028393 154108.000000 0 0 1
22.051520 -29.206353 -10.872664 38.177159 -0.924087 1.859589 0.122253 -0.027049 -132391.000000 0 0 1
21.005620 -30.029453 -11.335464 38.360095 -0.960406 1.870777 0.110386 -0.030585 -105021.000000 0 0 1
20.805920 -31.380353 -10.600264 39.114940 -0.985320 1.845231 0.107730 -0.035712 -323720.000000 0 0 1
21.796120 -32.340253 -10.713464 40.444297 -0.977760 1.838891 0.083680 -0.027698 -753581.000000 0 0 1
21.262020 -33.584953 -10.390564 41.085112 -1.006407 1.826476 0.062728 -0.022575 900853.000000 0 0 1
22.348020 33.311718 -10.343064 41.425639 0.979885 1.823144 0.064786 -0.014067 162662.000000 0 0 1
23.340220 33.536218 -9.429864 41.932877 0.962780 1.797616 0.071568 -0.014662 -700682.000000 0 0 1
24.484920 32.739718 -9.730564 42.024806 0.928662 1.804460 0.060580 -0.009257 292574.000000 0 0 1
25.654120 33.148518 -8.780164 42.825803 0.912165 1.777281 0.049982 -0.011968 -228669.000000 0 0 1
25.623220 32.711218 -7.437764 42.212481 0.906312 1.747919 0.043003 -0.014871 -15231.200000 0 0 1
25.967120 31.367318 -7.277164 41.366135 0.879309 1.747637 0.055609 -0.017936 -266207.000000 0 0 1
26.004520 30.948018 -5.793864 40.836059 0.871981 1.713158 0.054566 -0.009822 88134.800000 0 0 1
27.032620 31.703718 -5.114264 41.976708 0.864758 1.692936 0.054354 -0.007141 584131.000000 0 0 1
28.139120 31.011518 -4.560364 42.122693 0.833921 1.679273 0.062746 -0.008916 249190.000000 0 0 1
27.900720 29.915818 -3.511564 41.057733 0.820237 1.656428 0.082689 0.004598 -345589.000000 0 0 1
27.257020 30.269018 -2.263364 40.795605 0.837709 1.626305 0.075439 -0.000029 292998.000000 0 0 1
27.154420 29.159318 -1.365664 39.868451 0.820985 1.605057 0.074730 0.002143 23325.100000 0 0 1
25.912120 28.262418 -1.578664 38.375701 0.828755 1.611945 0.073138 0.007937 -407769.000000 0 0 1
24.691820 28.836818 -1.230764 37.983718 0.862679 1.603204 0.073164 0.004524 -40975.400000 0 0 1
23.531820 28.035018 -1.482764 36.632054 0.872505 1.611285 0.067178 0.004540 301872.000000 0 0 1
22.260220 28.690218 -0.978764 36.326354 0.910936 1.597743 0.061466 -0.005924 -473346.000000 0 0 1
21.944220 28.518918 0.408436 35.986724 0.914956 1.559446 0.062245 -0.004478 -188333.000000 0 0 1
20.753920 29.232118 0.649836 35.856160 0.953411 1.552672 0.062864 -0.009976 -107901.000000 0 0 1
20.031220 28.772318 1.959236 35.113169 0.962627 1.514970 0.064362 -0.026336 340266.000000 0 0 1
19.255520 27.579218 1.649136 33.676520 0.961287 1.521807 0.073086 -0.019573 385320.000000 0 0 1
18.810820 26.891718 2.796036 32.936746 0.960404 1.485803 0.086085 -0.024600 -106649.000000 0 0 1
18.229020 25.538718 2.377936 31.467092 0.950882 1.495155 0.092300 -0.024059 593186.000000 0 0 1
19.188820 24.551618 1.908336 31.219137 0.907394 1.509631 0.090265 -0.028443 1002880.000000 0 0 1
20.072920 23.977118 2.903136 31.404657 0.873798 1.478221 0.084305 -0.029169 316995.000000 0 0 1
21.293820 23.235018 2.320336 31.601848 0.828965 1.497306 0.096732 -0.034607 -215559.000000 0 0 1
20.966420 22.125818 1.541136 30.520775 0.812297 1.520280 0.103645 -0.032941 268116.000000 0 0 1
22.110520 21.342418 1.228236 30.755202 0.767723 1.530850 0.087109 -0.036944 230806.000000 0 0 1
21.893020 20.426618 -0.033264 29.942481 0.750761 1.571907 0.102641 -0.030473 -71624.300000 0 0 1
21.700920 21.121818 -1.211164 30.307228 0.771876 1.610770 0.080128 -0.021099 310746.000000 0 0 1
21.803420 20.232218 -2.301764 29.833369 0.748038 1.648027 0.112114 -0.020706 49834.400000 0 0 1
21.659720 20.894718 -3.669464 30.318273 0.767423 1.692125 0.097474 -0.018651 -92252.000000 0 0 1
22.704020 21.824818 -3.858864 31.728316 0.765656 1.692720 0.091478 -0.018488 365010.000000 0 0 1
22.475620 22.490218 -5.060664 32.195865 0.785723 1.728635 0.081499 -0.012319 -682251.000000 0 0 1
23.506520 23.586218 -5.199164 33.703078 0.787091 1.725679 0.077146 -0.002601 -486247.000000 0 0 1
23.339920 24.813518 -4.448764 34.354826 0.815991 1.700656 0.065287 -0.001864 -81281.400000 0 0 1
23.551820 24.799618 -3.054964 34.337182 0.811199 1.659884 0.081815 -0.004255 216870.000000 0 0 1
22.325220 24.446918 -2.131964 33.175481 0.830730 1.635104 0.077046 -0.012363 -859152.000000 0 0 1
21.320420 25.463018 -2.168564 33.281050 0.873716 1.636002 0.076451 -0.005847 15364.400000 0 0 1
20.264620 25.196318 -1.306964 32.360739 0.893458 1.611195 0.073653 -0.011623 -788243.000000 0 0 1
19.335120 24.074318 -1.720464 30.925389 0.894142 1.626458 0.097707 -0.024786 -2005540.000000 0 0 1
18.632020 24.433718 -2.878564 30.861706 0.919309 1.664205 0.084354 -0.016929 -337075.000000 0 0 1
17.880720 23.338618 -3.296764 29.585130 0.917043 1.682461 0.085292 -0.023133 -96338.900000 0 0 1
17.193120 23.670218 -4.656064 29.623665 0.942597 1.728625 0.086743 -0.023815 -34881.800000 0 0 1
16.595820 22.569518 -5.314664 28.514032 0.936757 1.758280 0.099940 -0.032290 114321.000000 0 0 1
16.095520 22.948418 -6.594564 28.795554 0.959146 1.801860 0.094547 -0.029179 149002.000000 0 0 1
15.324020 21.804218 -7.323164 27.638347 0.958193 1.838963 0.106407 -0.032492 195864.000000 0 0 1
16.211020 20.698418 -7.613364 27.371244 0.906383 1.852666 0.106513 -0.034914 800265.000000 0 0 1
15.553720 19.670318 -8.345264 26.428830 0.901739 1.892058 0.125443 -0.040738 193350.000000 0 0 1
16.492720 18.477518 -8.696164 26.249795 0.842094 1.908462 0.115640 -0.037407 393851.000000 0 0 1
17.592220 18.757218 -9.550364 27.432260 0.817437 1.926386 0.102350 -0.032732 452700.000000 0 0 1
18.237820 17.556318 -9.977664 27.210222 0.766361 1.946243 0.093294 -0.033602 547109.000000 0 0 1
19.604420 17.696518 -10.729664 28.506591 0.734294 1.956696 0.075441 -0.027954 433009.000000 0 0 1
19.556420 18.320818 -11.983964 29.355091 0.752788 1.991323 0.075449 -0.026908 217391.000000 0 0 1
20.833220 18.848718 -12.304664 30.670866 0.735430 1.983606 0.073394 -0.025115 189728.000000 0 0 1
20.919820 19.042118 -13.873164 31.507234 0.738445 2.026748 0.078887 -0.030559 -196871.000000 0 0 1
21.175220 17.865218 -14.620064 31.325744 0.700817 2.056364 0.075488 -0.033377 182963.000000 0 0 1
21.053220 18.231918 -15.958864 32.098696 0.713705 2.091143 0.069397 -0.037419 -103370.000000 0 0 1
21.322420 17.023018 -16.854064 32.070052 0.673742 2.124145 0.074149 -0.037365 -80090.600000 0 0 1
22.586020 16.396618 -16.669064 32.509000 0.627939 2.109184 0.083486 -0.040074 200110.000000 0 0 1
22.938120 15.478718 -17.666464 32.830657 0.593614 2.138988 0.089396 -0.044436 -670902.000000 0 0 1
23.735520 15.963318 -18.821064 34.240837 0.592064 2.152762 0.099755 -0.040773 -490681.000000 0 0 1
25.084720 16.254818 -18.505464 35.155576 0.574966 2.125143 0.115688 -0.038965 571465.000000 0 0 1
25.910520 16.689818 -19.589164 36.519042 0.572240 2.136973 0.129374 -0.035385 45889.200000 0 0 1
27.390820 16.841618 -19.215064 37.458188 0.551277 2.109442 0.101396 -0.032321 -161928.000000 0 0 1
27.676620 17.838418 -18.243964 37.643681 0.572520 2.076758 0.094673 -0.035989 -192675.000000 0 0 1
29.034020 18.025118 -17.923064 38.589058 0.555593 2.053821 0.092388 -0.043094 -287940.000000 0 0 1
29.240120 19.116518 -16.879764 38.798870 0.579026 2.020899 0.094363 -0.045210 129441.000000 0 0 1
28.477820 19.050618 -15.690564 37.684295 0.589591 2.000244 0.079237 -0.041324 107776.000000 0 0 1
27.158820 19.561418 -15.825964 37.023124 0.624194 2.012479 0.070558 -0.036886 69109.200000 0 0 1
26.182720 19.085818 -14.739964 35.595924 0.629891 1.997741 0.065843 -0.033914 -74644.400000 0 0 1
26.581620 19.462018 -13.424764 35.574949 0.631986 1.957746 0.062961 -0.035893 218288.000000 0 0 1
25.568720 19.249818 -12.462264 34.345640 0.645333 1.942119 0.077307 -0.036794 63797.700000 0 0 1
26.118820 19.602318 -11.060264 34.478589 0.643825 1.897356 0.075518 -0.029107 79312.100000 0 0 1
26.058320 21.022918 -10.790864 35.177292 0.678852 1.882580 0.073983 -0.029560 -173206.000000 0 0 1
26.551420 21.408218 -9.541164 35.416430 0.678566 1.843566 0.065096 -0.020133 113395.000000 0 0 1
25.689720 21.094518 -8.266664 34.253148 0.687491 1.814543 0.072524 -0.014369 -641861.000000 0 0 1
25.682220 19.733018 -7.888064 33.334516 0.655144 1.809696 0.083530 -0.018131 -27665.200000 0 0 1
24.871820 19.477918 -6.755864 32.305393 0.664371 1.781476 0.088656 -0.015668 -605559.000000 0 0 1
23.421920 19.275918 -7.155064 31.166365 0.688601 1.802439 0.103349 -0.021720 -1105490.000000 0 0 1
22.715120 20.418318 -7.637164 31.483498 0.732200 1.815817 0.093775 -0.016108 179870.000000 0 0 1
21.513320 20.006418 -8.266664 30.519132 0.749120 1.845091 0.072472 -0.015035 494883.000000 0 0 1
20.462820 21.118018 -8.577964 30.631343 0.801154 1.854631 0.086524 -0.020385 -67761.000000 0 0 1
20.912120 22.020418 -9.620964 31.855589 0.811207 1.877605 0.083537 -0.018835 341803.000000 0 0 1
20.099120 21.998118 -10.792064 31.691647 0.830477 1.918280 0.082215 -0.013485 194378.000000 0 0 1
18.568920 22.201918 -10.731164 30.868881 0.874271 1.925846 0.082967 -0.018782 -321396.000000 0 0 1
18.289720 23.511018 -10.321964 31.524987 0.909664 1.904370 0.078304 -0.016619 419035.000000 0 0 1
16.897820 23.772718 -10.174964 30.890263 0.952854 1.906454 0.080716 -0.015868 412566.000000 0 0 1
16.764920 25.291018 -9.810464 31.889549 0.985420 1.883507 0.071112 -0.011062 116941.000000 0 0 1
17.248920 26.212918 -10.776764 33.178019 0.988796 1.901614 0.099342 -0.005470 164909.000000 0 0 1
16.912820 27.529918 -10.295064 33.910592 1.019897 1.879259 0.083443 -0.011369 -30652.000000 0 0 1
20.257420 28.811818 33.096289 48.330614 0.957997 0.816482 0.059388 -0.006688 -119289.000000 0 0 1
18.904620 29.075218 32.853484 47.771376 0.994283 0.812448 0.074284 -0.028118 -491614.000000 0 0 1
18.080420 27.977918 33.178799 47.015935 0.997070 0.787396 0.075124 -0.024650 -1203960.000000 0 0 1
16.631620 28.332018 33.227048 46.726339 1.039971 0.779736 0.101888 -0.039443 -1338410.000000 0 0 1
15.974920 28.371218 31.975796 45.635245 1.057976 0.794443 0.102966 -0.041525 492089.000000 0 0 1
14.826420 29.246618 32.069424 45.865404 1.101608 0.796508 0.105367 -0.046433 502896.000000 0 0 1
13.796720 29.149418 30.945736 44.695376 1.128728 0.806028 0.098848 -0.049391 -563068.000000 0 0 1
13.342420 27.789518 30.727636 43.525453 1.123175 0.787005 0.093500 -0.049830 -168293.000000 0 0 1
11.943920 27.913718 30.582906 43.094628 1.166483 0.781769 0.085558 -0.034089 -338199.000000 0 0 1
11.386820 26.455918 30.690686 42.089113 1.164355 0.753668 0.060406 -0.030878 -216570.000000 0 0 1
11.514720 25.636218 29.507586 40.749258 1.148643 0.761030 0.062168 -0.027701 857011.000000 0 0 1
12.846620 25.167018 29.218026 40.646125 1.098820 0.768665 0.052588 -0.027481 750755.000000 0 0 1
12.975920 24.343818 27.942866 39.265758 1.081077 0.778974 0.080622 -0.032208 -204425.000000 0 0 1
12.702720 25.149118 26.778446 38.870585 1.103080 0.810808 0.067463 -0.024702 149690.000000 0 0 1
12.841620 24.561218 25.527196 37.680212 1.089043 0.826479 0.075965 -0.020214 51316.500000 0 0 1
11.716720 23.597018 25.057806 36.359241 1.109925 0.810449 0.069158 -0.015576 38269.200000 0 0 1
12.001420 22.960018 23.798546 35.179075 1.089147 0.827801 0.080335 -0.021556 335564.000000 0 0 1
10.862320 22.252518 23.309006 34.006974 1.116683 0.815618 0.089113 -0.022815 301916.000000 0 0 1
10.816420 21.941818 21.851716 32.801460 1.112797 0.841720 0.096789 -0.032176 -286950.000000 0 0 1
10.605620 23.097618 21.015416 32.979188 1.140347 0.879894 0.101086 -0.026997 129123.000000 0 0 1
10.921120 22.785518 19.666916 32.019342 1.123845 0.909399 0.099597 -0.027969 -388667.000000 0 0 1
10.399620 23.964818 18.768516 32.167092 1.161366 0.947802 0.093093 -0.033940 1166300.000000 0 0 1
8.998520 24.258018 18.604916 31.867973 1.215581 0.947380 0.089190 -0.036463 763370.000000 0 0 1
8.411520 24.848218 19.743516 32.832819 1.244389 0.925626 0.090912 -0.028054 -427280.000000 0 0 1
7.028720 25.458118 19.454716 32.802510 1.301417 0.935910 0.101166 -0.032754 -239969.000000 0 0 1
6.978720 26.699718 18.796216 33.389747 1.315138 0.972865 0.103058 -0.042521 262591.000000 0 0 1
5.677120 26.880018 18.229516 32.970901 1.362653 0.984959 0.096581 -0.045358 340311.000000 0 0 1
5.538420 27.908918 17.071616 33.181649 1.374895 1.030384 0.101833 -0.044096 108015.000000 0 0 1
6.142820 27.534518 15.836516 32.352421 1.351296 1.059280 0.102314 -0.040163 768364.000000 0 0 1
7.172920 28.493318 15.404716 33.175672 1.324180 1.087910 0.092251 -0.036091 1111830.000000 0 0 1
7.932220 28.144818 14.070416 32.450385 1.296086 1.122315 0.092672 -0.039879 -290040.000000 0 0 1
7.170720 28.263918 12.928416 31.896900 1.322333 1.153469 0.091648 -0.040095 -693696.000000 0 0 1
6.795420 27.003318 12.510116 30.526381 1.324264 1.148547 0.074732 -0.041204 -142627.000000 0 0 1
5.980220 26.964018 11.195516 29.802028 1.352544 1.185684 0.064985 -0.039610 -266962.000000 0 0 1
6.610620 27.430518 10.035816 29.947474 1.334311 1.229070 0.058253 -0.031601 -97586.000000 0 0 1
6.685720 28.914418 9.995716 31.315440 1.343565 1.245917 0.056440 -0.028083 55143.300000 0 0 1
7.123120 29.510318 8.634416 31.561857 1.333949 1.293692 0.038678 -0.016701 254930.000000 0 0 1
6.084520 29.399618 7.632916 30.977739 1.366718 1.321832 0.044769 -0.036652 539047.000000 0 0 1
6.005920 28.189018 6.887916 29.633346 1.360876 1.336213 0.041431 -0.021592 321381.000000 0 0 1
4.501120 27.832418 6.663216 28.970710 1.410462 1.338720 0.043813 -0.025190 465032.000000 0 0 1
3.893120 28.877718 5.912316 29.732717 1.436790 1.370613 0.043381 -0.029298 154360.000000 0 0 1
2.472420 28.743718 5.922016 29.451391 1.484992 1.368338 0.060864 -0.031141 544480.000000 0 0 1
1.791620 29.903018 5.215416 30.407252 1.510954 1.398425 0.072082 -0.031419 -396333.000000 0 0 1
2.161120 29.962618 3.855416 30.286848 1.498794 1.443153 0.069905 -0.038499 258838.000000 0 0 1
1.307720 30.871818 3.151016 31.059752 1.528462 1.469171 0.062080 -0.045336 437306.000000 0 0 1
0.075120 30.131118 2.588716 30.242212 1.568303 1.485092 0.088331 -0.038465 -253249.000000 0 0 1
0.443820 29.207018 1.584116 29.253313 1.555602 1.516618 0.095890 -0.034525 -393626.000000 0 0 1
-0.560780 28.254018 1.404816 28.294478 -1.550951 1.521126 0.099839 -0.035851 -12869.300000 0 0 1
-1.067480 28.151118 -0.063284 28.171421 -1.532895 1.573043 0.102296 -0.039596 160477.000000 0 0 1
-1.921280 29.187318 -0.514184 29.255004 -1.505065 1.588373 0.106187 -0.044052 27218.600000 0 0 1
-1.622980 29.402418 -1.873784 29.506733 -1.515653 1.634343 0.095164 -0.036108 163096.000000 0 0 1
-2.713980 30.250418 -2.585584 30.481777 -1.481319 1.655722 0.112140 -0.038652 1212360.000000 0 0 1
-4.002980 29.639218 -2.817484 30.040727 -1.436552 1.664723 0.087617 -0.038773 951041.000000 0 0 1
-4.071280 28.888118 -4.026784 29.450190 -1.430786 1.707958 0.064873 -0.036535 -372713.000000 0 0 1
-5.481680 28.630718 -4.607984 29.512715 -1.381624 1.727573 0.066573 -0.027901 -8964.380000 0 0 1
-5.909880 29.775518 -5.326084 30.820047 -1.374862 1.744481 0.059155 -0.025860 -272518.000000 0 0 1
-7.004080 29.395618 -6.118184 30.831667 -1.336888 1.770561 0.055028 -0.020136 -397964.000000 0 0 1
-7.552480 30.570318 -6.888484 32.234074 -1.328594 1.786159 0.058930 -0.016971 274537.000000 0 0 1
-8.544080 31.381518 -6.225084 33.114236 -1.304975 1.759910 0.044355 -0.008533 436694.000000 0 0 1
-8.675180 32.598018 -6.891884 34.429458 -1.310699 1.772332 0.049993 -0.022036 266791.000000 0 0 1
-9.751380 33.536518 -6.205884 35.472531 -1.287830 1.746650 0.048345 -0.020420 254347.000000 0 0 1
-11.042480 33.033118 -6.446084 35.421395 -1.248189 1.753799 0.068035 -0.018547 -995877.000000 0 0 1
-11.938280 33.956318 -5.916184 36.476777 -1.232717 1.733706 0.068970 -0.021435 -802495.000000 0 0 1
-13.405380 33.589118 -6.049084 36.667758 -1.191067 1.736524 0.092892 -0.022072 -436542.000000 0 0 1
-13.963580 33.712918 -7.362184 37.225585 -1.178117 1.769881 0.095796 -0.024799 747716.000000 0 0 1
-15.345980 33.329118 -7.317784 37.414959 -1.139296 1.767650 0.098493 -0.026546 -439048.000000 0 0 1
-15.880080 33.013918 -8.673584 37.647401 -1.122454 1.803275 0.114416 -0.036494 137563.000000 0 0 1
-17.289980 32.884218 -8.704084 38.158568 -1.086735 1.800925 0.135274 -0.032937 342096.000000 0 0 1
-18.026280 -33.967653 -8.673384 39.420500 1.082900 1.792634 0.135515 -0.030871 -778932.000000 0 0 1
-19.533780 33.865918 -8.987584 40.115404 -1.047612 1.796758 0.119726 -0.030805 648715.000000 0 0 1
-20.293180 33.114618 -8.021384 39.657706 -1.021006 1.774467 0.105828 -0.026995 381534.000000 0 0 1
-20.407880 33.673818 -6.757984 39.950944 -1.025943 1.740771 0.101323 -0.029066 -537855.000000 0 0 1
-20.893380 32.650018 -5.643584 39.171508 -1.001540 1.715373 0.086483 -0.020799 -310999.000000 0 0 1
-20.594780 33.141018 -4.327684 39.258131 -1.014769 1.681257 0.078922 -0.028817 -181757.000000 0 0 1
-21.657080 33.183018 -3.419284 39.772268 -0.992557 1.656874 0.081550 -0.025399 -38283.200000 0 0 1
-22.735680 -33.769553 -3.593884 40.868201 0.978243 1.658848 0.113786 -0.030223 286009.000000 0 0 1
-23.542580 -34.011153 -4.755384 41.636826 0.965323 1.685257 0.115463 -0.035946 -33564.300000 0 0 1
-24.425980 -32.909653 -4.854084 41.270279 0.932297 1.688686 0.126675 -0.041316 248158.000000 0 0 1
-24.960180 -32.828853 -6.368684 41.728939 0.920728 1.724015 0.138024 -0.019956 659166.000000 0 0 1
-23.892280 -32.326353 -7.196384 40.836529 0.934310 1.747946 0.131901 -0.007078 631933.000000 0 0 1
-24.069880 -32.601453 -8.535984 41.413487 0.934821 1.778400 0.106459 -0.008882 210622.000000 0 0 1
-25.230960 -31.930653 -9.377984 41.762598 0.902072 1.797282 0.102025 -0.010989 454669.000000 0 0 1
-26.447250 -32.554653 -8.900684 42.877554 0.888543 1.779901 0.093620 0.002352 415890.000000 0 0 1
-27.635250 -32.070953 -9.506284 43.389198 0.859554 1.791681 0.050277 0.003222 310754.000000 0 0 1
-28.056000 -30.588653 -9.342884 42.545203 0.828558 1.792200 0.042137 0.016703 -628123.000000 0 0 1
-27.307430 -29.584053 -10.080984 41.503472 0.825394 1.816145 0.042735 0.018582 98631.200000 0 0 1
-27.657020 -29.443253 -11.438384 41.983956 0.816670 1.846731 0.025905 0.014599 -635951.000000 0 0 1
-26.709610 -28.601753 -12.234984 41.001932 0.819594 1.873812 0.051887 0.017976 246468.000000 0 0 1
-25.419030 -29.188253 -12.450984 40.658434 0.854313 1.882030 0.057736 0.002570 781390.000000 0 0 1
-24.579680 -28.421653 -13.294984 39.858596 0.857760 1.910867 0.063420 -0.001626 388390.000000 0 0 1
-23.217380 -29.055653 -13.714184 39.640340 0.896625 1.924064 0.092470 -0.016899 242722.000000 0 0 1
-23.275480 -30.336253 -14.395484 40.856654 0.916347 1.930868 0.098757 -0.020310 -79926.400000 0 0 1
-23.299480 -31.481953 -13.478084 41.420260 0.933668 1.902229 0.091315 -0.018187 -77751.600000 0 0 1
-23.837980 -32.703453 -14.242384 42.902339 0.940928 1.909190 0.085896 -0.015872 -37444.400000 0 0 1
-24.186180 -33.797953 -13.424984 43.674972 0.949670 1.883239 0.072703 -0.020525 101945.000000 0 0 1
-24.358480 32.993918 -14.046484 43.350177 -0.934844 1.900776 0.070754 -0.025500 -308223.000000 0 0 1
-24.843480 31.938918 -13.042884 42.513643 -0.909712 1.882618 0.050436 -0.018936 -452871.000000 0 0 1
-23.967180 31.488818 -12.006884 41.353798 -0.920208 1.865384 0.047592 -0.012750 365926.000000 0 0 1
-23.728280 32.424718 -10.927884 41.639071 -0.939048 1.836349 0.080220 -0.019194 101067.000000 0 0 1
-22.921680 31.766118 -9.788684 40.377073 -0.945736 1.815668 0.079788 -0.024366 -243234.000000 0 0 1
-23.724180 30.908018 -9.051584 40.000918 -0.916143 1.799058 0.073912 -0.017421 -481571.000000 0 0 1
-23.035480 30.247418 -8.038584 38.860757 -0.919932 1.779157 0.077141 -0.020195 -450021.000000 0 0 1
-23.825780 29.227018 -7.195584 38.388316 -0.886857 1.759354 0.066392 -0.027483 -238026.000000 0 0 1
-24.192480 28.080418 -7.912184 37.899718 -0.859639 1.781110 0.060831 -0.010866 5604.700000 0 0 1
-24.463880 26.833718 -7.273684 37.032909 -0.831563 1.768493 0.038812 -0.015027 351379.000000 0 0 1
-23.381380 26.300518 -6.262884 35.743949 -0.844087 1.746921 0.034473 -0.007736 101421.000000 0 0 1
-23.320680 27.057418 -5.132584 36.087413 -0.859436 1.713507 0.041911 -0.006999 -689973.000000 0 0 1
-22.379180 26.494718 -4.327284 34.950296 -0.869407 1.694927 0.034888 -0.002881 -320933.000000 0 0 1
-21.015480 27.254418 -4.288684 34.682078 -0.913937 1.694771 0.040984 -0.009261 252419.000000 0 0 1
-20.336080 27.244118 -5.516784 34.441734 -0.929578 1.731667 0.053282 -0.012163 31697.700000 0 0 1
-19.102880 27.941718 -5.580384 34.304523 -0.971115 1.734194 0.065276 -0.012983 175701.000000 0 0 1
-18.353180 27.716618 -6.904784 33.951821 -0.985912 1.775595 0.081556 -0.013790 -13211.500000 0 0 1
-18.997480 28.222118 -8.114284 34.974759 -0.978325 1.804934 0.095716 -0.017671 439855.000000 0 0 1
-18.904280 29.685918 -8.227984 36.143122 -1.003750 1.800460 0.112790 -0.016586 -41105.600000 0 0 1
-18.849280 30.159318 -9.687584 36.860943 -1.012204 1.836734 0.100945 -0.017971 -287339.000000 0 0 1
-17.596380 29.882518 -10.252484 36.162286 -1.038614 1.858252 0.111370 -0.021431 -125074.000000 0 0 1
-17.483280 30.767418 -11.346084 37.162248 -1.054057 1.881062 0.111752 -0.029202 -78141.500000 0 0 1
-15.995280 30.944518 -11.748084 36.761796 -1.093719 1.896075 0.121987 -0.034555 280476.000000 0 0 1
-15.842180 31.713418 -12.935484 37.736485 -1.107515 1.920676 0.127094 -0.036215 -92600.400000 0 0 1
-16.195580 30.987418 -14.119384 37.707743 -1.089193 1.954592 0.119049 -0.041319 -65499.900000 0 0 1
-15.630480 31.733518 -15.419384 38.588670 -1.113123 1.981858 0.157265 -0.046561 333628.000000 0 0 1
-14.219680 31.618718 -15.404684 37.937408 -1.148172 1.988930 0.146674 -0.053136 -300542.000000 0 0 1
-13.748980 32.117118 -16.607684 38.682798 -1.166312 2.014547 0.115798 -0.053500 97545.200000 0 0 1
-12.211980 32.200518 -16.809684 38.321943 -1.208307 2.024885 0.139018 -0.052912 -130817.000000 0 0 1
-11.603080 30.956218 -16.876384 37.117802 -1.212181 2.042799 0.142475 -0.067662 -197565.000000 0 0 1
-10.295380 30.991518 -17.412684 37.009061 -1.250066 2.060651 0.137297 -0.058920 217856.000000 0 0 1
-10.144580 31.138518 -18.961784 37.842688 -1.255851 2.095630 0.137640 -0.065986 -423976.000000 0 0 1
-10.663080 30.015618 -19.648184 37.425790 -1.229451 2.123500 0.126355 -0.063335 245423.000000 0 0 1
-10.343780 30.077218 -21.040484 38.135742 -1.239559 2.155229 0.114422 -0.066250 -619307.000000 0 0 1
-11.471280 29.343918 -21.870184 38.353106 -1.198137 2.177585 0.105129 -0.055256 1017570.000000 0 0 1
-12.550380 30.211918 -22.205084 39.539067 -1.177075 2.167113 0.115918 -0.053254 15326.600000 0 0 1
-13.475780 30.440618 -21.181084 39.457144 -1.154037 2.137451 0.109245 -0.046162 -1050700.000000 0 0 1
-14.302880 31.709318 -21.447484 40.866218 -1.147059 2.123302 0.133837 -0.046850 128261.000000 0 0 1
-15.149680 31.540918 -22.597884 41.653411 -1.123018 2.144233 0.113123 -0.041036 30616.400000 0 0 1
-15.800780 32.742518 -22.884384 42.958494 -1.121184 2.132595 0.105076 -0.041342 584070.000000 0 0 1
-16.735080 32.630518 -24.155584 43.912480 -1.096909 2.153262 0.089062 -0.030298 548556.000000 0 0 1
-15.937580 32.721218 -25.324884 44.339986 -1.117545 2.178705 0.092362 -0.030388 107184.000000 0 0 1
-16.657480 32.649418 -26.540084 45.252980 -1.099028 2.197506 0.097194 -0.023671 179136.000000 0 0 1
-17.070180 34.007418 -27.169984 46.755786 -1.105586 2.190881 0.084038 -0.014432 -133010.000000 0 0 1
-18.111980 -33.398453 -26.511784 46.328989 1.073884 2.180044 0.074281 -0.006398 -377950.000000 0 0 1
-18.542980 -32.334553 -27.357684 46.236440 1.050111 2.203951 0.057899 0.002168 437066.000000 0 0 1
-20.022980 -31.946653 -27.060684 46.408933 1.010930 2.193326 0.054806 -0.003681 965732.000000 0 0 1
-21.007980 -32.904353 -27.466784 47.733174 1.002579 2.183918 0.056014 -0.003114 231221.000000 0 0 1
-22.322280 -32.427853 -27.179284 47.838931 0.967920 2.175042 0.049146 -0.004385 981316.000000 0 0 1
-23.384180 -33.589953 -27.111184 49.092985 0.962648 2.155847 0.014350 0.010313 198039.000000 0 0 1
-23.337680 33.613218 -25.978084 48.470162 -0.963906 2.136441 0.048633 -0.003044 -369226.000000 0 0 1
-24.274080 32.551618 -26.021084 48.227955 -0.930046 2.140691 0.020407 -0.000166 232230.000000 0 0 1
-23.828680 31.306218 -26.870284 47.643441 -0.920198 2.170002 0.029136 -0.006956 382744.000000 0 0 1
-23.011380 30.415518 -26.083184 46.205626 -0.923106 2.170627 0.036128 -0.026217 89289.400000 0 0 1
-23.777980 29.411818 -25.458084 45.591243 -0.890924 2.163250 0.031840 -0.022141 -67983.300000 0 0 1
31.677556 9.754418 -25.986604 42.117927 0.298715 2.235716 0.035323 -0.010997 26589.900000 0 0 1
31.231406 8.404518 -25.927724 41.452184 0.262877 2.246549 0.021615 -0.003022 152068.000000 0 0 1
29.817236 8.341018 -25.903004 40.368376 0.272766 2.267464 0.035829 -0.010455 106794.000000 0 0 1
29.402866 6.992218 -25.241684 39.377179 0.233471 2.266627 0.017152 0.000574 -49077.600000 0 0 1
29.890076 6.768618 -23.975564 38.910905 0.222694 2.234661 0.003637 -0.001711 23781.800000 0 0 1
29.220266 5.618918 -23.533964 37.937365 0.189976 2.239969 0.006144 -0.004998 37546.200000 0 0 1
29.293986 5.414018 -21.961464 37.010203 0.182755 2.206060 0.014056 -0.003407 -446496.000000 0 0 1
30.527836 4.906118 -21.571364 37.700696 0.159347 2.179951 0.023192 -0.007166 -340104.000000 0 0 1
30.489016 4.861718 -20.162664 36.874780 0.158127 2.149319 0.034141 -0.013433 -528628.000000 0 0 1
31.811366 4.532018 -19.480764 37.576620 0.141513 2.115808 0.046074 -0.015001 -669531.000000 0 0 1
32.200086 3.204518 -19.701764 37.885010 0.099192 2.117695 0.056771 -0.009517 -282998.000000 0 0 1
33.198956 2.860318 -18.804564 38.261779 0.085945 2.084575 0.077088 -0.017129 -713197.000000 0 0 1
33.623866 1.344818 -18.713764 38.504258 0.039975 2.078324 0.083874 -0.018775 -308068.000000 0 0 1
32.621236 0.473018 -18.295364 37.404400 0.014499 2.081881 0.087665 -0.018036 -294393.000000 0 0 1
33.085776 -0.864482 -18.387064 37.861590 -0.026123 2.077890 0.095258 -0.016577 -614809.000000 0 0 1
32.011186 -1.854182 -18.044564 36.793482 -0.057858 2.083377 0.091503 -0.012368 -501930.000000 0 0 1
31.870626 -1.992482 -16.639664 36.008127 -0.062437 2.051168 0.110810 -0.020658 163441.000000 0 0 1
30.606786 -1.531182 -16.214764 34.670426 -0.049986 2.057464 0.102491 -0.023171 -334596.000000 0 0 1
30.156566 -1.902782 -14.835464 33.661997 -0.063013 2.027195 0.117079 -0.020226 -391440.000000 0 0 1
29.920976 -3.280082 -14.720864 33.507127 -0.109189 2.025655 0.090523 -0.014806 669763.000000 0 0 1
29.094206 -3.615682 -13.596464 32.317330 -0.123641 2.005032 0.083181 -0.016587 -64681.900000 0 0 1
29.068476 -5.080582 -13.222264 32.336000 -0.173032 1.992047 0.086065 -0.015112 -1990.410000 0 0 1
28.419656 -5.929682 -14.183364 32.311078 -0.205696 2.025240 0.065945 -0.013025 566863.000000 0 0 1
28.239756 -7.240182 -13.814764 32.260684 -0.250977 2.013322 0.060656 -0.017569 -363044.000000 0 0 1
27.690856 -8.102182 -14.959964 32.499683 -0.284649 2.049142 0.039142 -0.010010 140801.000000 0 0 1
26.419256 -7.586582 -15.343164 31.479295 -0.279637 2.079912 0.045816 -0.016262 170155.000000 0 0 1
25.768656 -8.458882 -16.242164 31.613039 -0.317180 2.110382 0.032860 -0.015230 187604.000000 0 0 1
24.265956 -8.095782 -16.401864 30.387488 -0.322015 2.140945 0.047410 -0.014043 -47556.600000 0 0 1
24.006156 -6.833682 -17.030464 30.216410 -0.277328 2.169554 0.040037 -0.011714 663775.000000 0 0 1
22.728756 -6.742082 -17.693964 29.582569 -0.288364 2.211951 0.052161 -0.020325 643085.000000 0 0 1
22.699356 -7.387182 -19.112364 30.579629 -0.314626 2.245932 0.042369 -0.012121 157300.000000 0 0 1
23.401956 -6.569882 -20.081564 31.529099 -0.273695 2.261295 0.032504 -0.014674 635456.000000 0 0 1
23.214856 -7.145882 -21.367364 32.350540 -0.298611 2.292274 0.059124 -0.022212 -81617.000000 0 0 1
23.852456 -6.152482 -22.361564 33.269088 -0.252437 2.307895 0.056850 -0.026332 -262998.000000 0 0 1
23.977456 -6.569382 -23.685664 34.337820 -0.267419 2.331986 0.079649 -0.032380 128666.000000 0 0 1
24.107756 -5.436182 -24.539164 34.826808 -0.221786 2.352664 0.055006 -0.026200 -396740.000000 0 0 1
24.142856 -5.832282 -26.047714 35.991338 -0.237033 2.379977 0.083089 -0.035335 69101.000000 0 0 1
22.896656 -6.286282 -26.564834 35.629547 -0.267948 2.412208 0.093450 -0.030778 212235.000000 0 0 1
22.952356 -6.422582 -27.970124 36.747626 -0.272844 2.435867 0.085228 -0.032832 289520.000000 0 0 1
21.639156 -7.002882 -28.554694 36.505671 -0.312984 2.468984 0.084798 -0.029738 385936.000000 0 0 1
21.576356 -8.428682 -28.408454 36.655451 -0.372415 2.457532 0.086976 -0.023669 507199.000000 0 0 1
20.248956 -8.820982 -28.727434 36.236658 -0.410837 2.486141 0.090803 -0.029549 190967.000000 0 0 1
19.985156 -10.225582 -28.104064 35.969534 -0.472931 2.467590 0.106911 -0.015343 193088.000000 0 0 1
18.600556 -10.520182 -27.954094 35.186450 -0.514729 2.488908 0.116755 -0.015722 726350.000000 0 0 1
18.495256 -11.690182 -27.113904 34.841048 -0.563663 2.462618 0.115416 -0.026845 -158448.000000 0 0 1
18.715356 -13.062682 -27.873684 36.025553 -0.609360 2.455488 0.098881 -0.013718 -171925.000000 0 0 1
17.689656 -13.360382 -28.790054 36.335808 -0.646862 2.485420 0.092727 -0.012557 230753.000000 0 0 1
17.976956 -14.586282 -29.372454 37.398819 -0.681646 2.474113 0.075686 -0.016162 -561779.000000 0 0 1
16.961956 -15.153982 -30.340844 37.919889 -0.729162 2.498308 0.050790 -0.018741 -237881.000000 0 0 1
15.696956 -15.473682 -29.776534 37.046879 -0.778235 2.504373 0.040258 -0.021159 732883.000000 0 0 1
14.792456 -15.934682 -30.784374 37.688308 -0.822554 2.526665 0.042255 -0.026389 -92270.500000 0 0 1
13.528956 -16.617282 -30.258384 37.077440 -0.887487 2.525402 0.051970 -0.032784 -276348.000000 0 0 1
13.800956 -17.769982 -29.527304 37.122774 -0.910460 2.490457 0.049293 -0.035219 -546347.000000 0 0 1
12.756956 -17.970782 -28.656584 36.150916 -0.953476 2.486010 0.048824 -0.031480 -770210.000000 0 0 1
12.909156 -19.245482 -27.785984 36.181429 -0.979963 2.446450 0.057248 -0.026925 -453109.000000 0 0 1
13.959256 -19.208682 -26.874364 35.861759 -0.942364 2.417933 0.063422 -0.023626 -331401.000000 0 0 1
13.825156 -20.390582 -26.049964 35.854029 -0.974977 2.384093 0.073299 -0.019369 -1627.980000 0 0 1
14.930356 -20.400782 -24.978264 35.539008 -0.939011 2.350180 0.064582 -0.010379 -833601.000000 0 0 1
16.196756 -20.622182 -25.494414 36.572865 -0.905019 2.342121 0.072552 -0.016566 -492271.000000 0 0 1
17.143556 -20.456082 -24.443064 36.191383 -0.873271 2.312281 0.068766 -0.017295 -38383.100000 0 0 1
18.636956 -20.631382 -24.843964 37.285555 -0.836144 2.300054 0.082099 -0.013658 293550.000000 0 0 1
19.141856 -21.937182 -25.045014 38.404470 -0.853341 2.281198 0.091659 -0.010260 369076.000000 0 0 1
18.876256 -22.873782 -23.995764 38.148652 -0.880856 2.251071 0.091219 -0.011726 -862523.000000 0 0 1
19.497056 -24.258782 -24.174764 39.408666 -0.893797 2.231203 0.082420 -0.011720 -367764.000000 0 0 1
20.846756 -24.406782 -23.804764 39.961795 -0.863905 2.208918 0.094855 -0.011209 -46082.100000 0 0 1
21.063056 -25.791842 -23.472264 40.740872 -0.885982 2.184789 0.089744 -0.026191 -57743.600000 0 0 1
21.008556 -26.043292 -21.968464 40.027814 -0.891997 2.151760 0.096220 -0.022655 260926.000000 0 0 1
19.720556 -25.955242 -21.355964 38.969887 -0.921058 2.150782 0.086774 -0.014827 459411.000000 0 0 1
19.821656 -26.146702 -19.949764 38.399755 -0.922135 2.117095 0.083943 -0.017611 232520.000000 0 0 1
18.614156 -26.857032 -19.270564 37.936020 -0.964728 2.103629 0.076206 -0.010813 -385526.000000 0 0 1
18.446656 -28.169032 -19.749064 39.035868 -0.991015 2.101246 0.068552 -0.012954 387183.000000 0 0 1
17.373956 -28.946602 -19.197964 38.837121 -1.030225 2.087849 0.067830 -0.008492 90412.500000 0 0 1
16.008956 -28.565002 -19.764564 38.247667 -1.059973 2.113849 0.065799 -0.010740 -1111690.000000 0 0 1
15.412056 -27.524412 -19.064064 36.858693 -1.060353 2.114396 0.072005 -0.013190 319347.000000 0 0 1
14.115856 -27.250802 -19.629364 36.430421 -1.092854 2.139830 0.059257 -0.004495 1245200.000000 0 0 1
13.162256 -26.367072 -18.735764 34.921288 -1.107795 2.137097 0.038693 -0.017304 275364.000000 0 0 1
12.561556 -27.052472 -17.621764 34.643261 -1.136081 2.104428 0.035025 -0.014043 319569.000000 0 0 1
11.524056 -26.260282 -17.055264 33.365975 -1.157262 2.107327 0.039759 -0.015131 549533.000000 0 0 1
10.061256 -26.499772 -17.498764 33.311763 -1.207935 2.123867 0.041313 -0.016911 -666484.000000 0 0 1
9.425656 -27.528462 -16.799264 33.598727 -1.240911 2.094392 0.046847 -0.008500 72503.300000 0 0 1
8.012756 -27.368922 -16.854764 33.126202 -1.285987 2.104592 0.042703 0.003950 702847.000000 0 0 1
7.343356 -28.051642 -18.090364 34.177197 -1.314762 2.128585 0.049872 -0.006998 -398164.000000 0 0 1
7.505356 -27.438452 -19.336264 34.396077 -1.303793 2.167797 0.059090 -0.014179 -2338.160000 0 0 1
6.627556 -27.964682 -20.328364 35.202135 -1.338092 2.186429 0.062976 -0.011088 129385.000000 0 0 1
6.652256 -27.174732 -21.618464 35.356422 -1.330722 2.228680 0.055219 -0.015129 -453808.000000 0 0 1
5.762656 -26.104062 -21.546564 34.334890 -1.353524 2.249188 0.065764 -0.019992 -11774.100000 0 0 1
5.895056 -25.378642 -22.721264 34.569973 -1.342560 2.287966 0.048724 -0.018901 119462.000000 0 0 1
4.497656 -24.761282 -22.941064 34.053523 -1.391115 2.309969 0.039075 -0.013412 799403.000000 0 0 1
3.433356 -25.702642 -23.164864 34.771032 -1.438003 2.299914 0.039717 -0.007830 648901.000000 0 0 1
2.206956 -25.110682 -23.566864 34.508174 -1.483132 2.322570 0.049385 -0.013915 1118650.000000 0 0 1
1.251356 -26.070752 -24.420364 35.743590 -1.522835 2.322945 0.029294 -0.014331 522615.000000 0 0 1
1.795656 -26.566022 -25.614624 36.947082 -1.503307 2.336825 0.019466 -0.010813 -55399.900000 0 0 1
0.958656 -27.552072 -26.164244 38.007938 -1.536016 2.330062 0.034563 -0.020467 -197774.000000 0 0 1
1.734856 -28.465292 -27.144764 39.371573 -1.509925 2.331527 0.027343 -0.016234 -292387.000000 0 0 1
2.173556 -27.794682 -28.346584 39.759245 -1.492755 2.364501 0.028068 -0.020904 159294.000000 0 0 1
2.742856 -28.613562 -29.350014 41.081413 -1.475230 2.366613 0.036787 -0.018703 653296.000000 0 0 1
4.204256 -29.164742 -29.197054 41.481634 -1.427627 2.351606 0.025930 -0.022735 409255.000000 0 0 1
4.358556 -30.102092 -28.123914 41.425687 -1.427003 2.317060 0.020450 -0.035026 -531660.000000 0 0 1
5.588856 -30.774342 -28.170314 42.093492 -1.391147 2.303971 0.036148 -0.038041 -121416.000000 0 0 1
5.788056 -32.021322 -27.308474 42.480812 -1.391971 2.269000 0.054705 -0.047349 -87613.400000 0 0 1
4.874256 -33.093792 -27.528484 43.321760 -1.424562 2.259378 0.049532 -0.050807 195839.000000 0 0 1
5.220256 33.784999 -26.840404 43.463600 1.417495 2.236404 0.061747 -0.057670 -295752.000000 0 0 1
3.961156 32.934922 -26.558124 42.493927 1.451099 2.245910 0.087542 -0.063307 -420189.000000 0 0 1
3.409856 32.424480 -27.737414 42.805820 1.466018 2.275729 0.081353 -0.065775 -647445.000000 0 0 1
2.099756 32.157011 -27.356064 42.270990 1.505592 2.274649 0.054364 -0.062782 -441538.000000 0 0 1
1.001856 32.242924 -28.467334 43.023238 1.539734 2.293845 0.067012 -0.043888 58006.200000 0 0 1
0.974356 31.125489 -29.345084 42.788777 1.539502 2.326516 0.091942 -0.051073 54267.700000 0 0 1
-0.056444 31.441109 -30.254104 43.633214 -1.569001 2.336956 0.091406 -0.048184 91863.500000 0 0 1
-0.284144 30.346129 -31.345684 43.629351 -1.561433 2.372374 0.087427 -0.045216 158833.000000 0 0 1
0.919956 30.073149 -32.040934 43.952953 1.540215 2.387631 0.092663 -0.043156 215604.000000 0 0 1
0.658856 29.271939 -33.191204 44.259875 1.548292 2.418732 0.114561 -0.043356 -208596.000000 0 0 1
1.925456 28.925119 -33.979274 44.664986 1.504327 2.435278 0.099660 -0.032250 -83994.200000 0 0 1
2.503956 30.021599 33.340164 44.934761 1.487584 0.734795 0.092495 -0.028015 538093.000000 0 0 1
3.533956 29.583579 32.404109 44.019351 1.451903 0.743457 0.062114 -0.020997 278306.000000 0 0 1
3.234456 28.710769 31.117796 42.462774 1.458613 0.748331 0.061449 -0.011235 -429250.000000 0 0 1
2.814256 27.373189 31.388846 41.742918 1.468346 0.719772 0.078020 -0.019658 746695.000000 0 0 1
3.890556 26.493519 31.818436 41.586727 1.424989 0.699584 0.066145 -0.011207 553093.000000 0 0 1
3.376356 25.057129 32.142303 40.894830 1.436857 0.666525 0.083932 -0.025993 61081.100000 0 0 1
2.603356 24.414839 31.134406 39.651142 1.464568 0.667764 0.084764 -0.015154 138155.000000 0 0 1
2.814656 23.027269 31.054716 38.763034 1.449168 0.641594 0.075359 -0.008979 -269992.000000 0 0 1
1.891856 22.393989 30.018796 37.499306 1.486516 0.642641 0.065499 0.007035 149239.000000 0 0 1
0.548256 22.226989 30.420096 37.679197 1.546135 0.631158 0.061355 -0.009273 23338.100000 0 0 1
-0.210144 21.471089 29.449836 36.446463 -1.561009 0.629996 0.063679 -0.001420 784045.000000 0 0 1
-1.637744 21.120289 29.972766 36.703072 -1.493408 0.615252 0.057218 0.000320 70029.100000 0 0 1
-2.503644 22.216889 30.028976 37.437919 -1.458579 0.639992 0.062668 -0.004523 -703304.000000 0 0 1
-3.763344 21.755089 30.392576 37.565347 -1.399505 0.628247 0.037523 -0.009092 -499175.000000 0 0 1
-4.838944 22.842489 30.572016 38.468725 -1.362043 0.652244 0.022972 -0.018054 83137.900000 0 0 1
-4.744844 23.397579 31.891236 39.837309 -1.370718 0.642606 0.038151 -0.021800 -92725.000000 0 0 1
-5.800044 24.290159 32.126497 40.691082 -1.336404 0.660767 0.025856 -0.026104 -158958.000000 0 0 1
-5.739244 24.951089 33.524496 42.182788 -1.344709 0.652212 0.060312 -0.026078 -68025.500000 0 0 1
-6.982844 25.436929 33.965227 43.005047 -1.302880 0.660320 0.051209 -0.018610 -28945.700000 0 0 1
-6.778444 25.986989 -32.746594 42.351037 -1.315642 2.454697 0.064069 -0.023080 1454720.000000 0 0 1
-8.139144 26.573909 -32.138214 42.488624 -1.273585 2.428582 0.077006 -0.017290 1064320.000000 0 0 1
-8.667644 27.693659 -32.833874 43.819289 -1.267472 2.417804 0.074659 -0.022332 886515.000000 0 0 1
-9.944244 28.179039 -32.355114 44.043157 -1.231545 2.395907 0.072092 -0.026391 1025020.000000 0 0 1
-10.138344 28.623119 -30.873024 43.303725 -1.230384 2.364481 0.061960 -0.017366 -550261.000000 0 0 1
-9.326944 29.717009 -30.557534 43.633192 -1.266674 2.346653 0.077792 -0.013859 67243.400000 0 0 1
-9.229544 29.824499 -29.166374 42.724263 -1.270682 2.322200 0.090741 -0.017349 -159734.000000 0 0 1
-8.786544 31.207239 -28.640834 43.259595 -1.296347 2.294372 0.089425 -0.020084 842314.000000 0 0 1
-7.361944 31.272329 -28.802734 43.148051 -1.339592 2.301686 0.070987 -0.019589 748961.000000 0 0 1
-6.769944 32.554337 -28.422554 43.743098 -1.365760 2.278066 0.084336 -0.013635 453666.000000 0 0 1
-5.246844 32.581686 -28.700304 43.735605 -1.411131 2.286598 0.082309 -0.018045 155808.000000 0 0 1
-4.584844 33.794702 -28.391964 44.375740 -1.435952 2.265045 0.096737 -0.018238 -109507.000000 0 0 1
-4.585144 -33.293282 -29.429944 44.672002 1.433937 2.290020 0.097453 -0.021631 -54611.600000 0 0 1
-3.462444 -33.342612 -30.508364 45.326356 1.467323 2.309165 0.090680 -0.034942 36509.200000 0 0 1
-3.564344 33.725558 -31.561494 46.327592 -1.465500 2.320289 0.082637 -0.023008 -172325.000000 0 0 1
-4.430244 33.923173 -32.653484 47.293327 -1.440935 2.332902 0.093132 -0.025565 -138674.000000 0 0 1
-3.857344 -33.247312 -33.769244 47.546027 1.455293 2.360640 0.074155 -0.034153 -265059.000000 0 0 1
-3.981644 -31.864062 -33.390634 46.326088 1.446483 2.375714 0.065344 -0.028892 56193.000000 0 0 1
-3.227044 -31.079902 33.717988 45.970391 1.467336 0.747381 0.050067 -0.039931 142909.000000 0 0 1
33.020256 18.585418 12.380216 39.862574 0.512655 1.255001 0.133003 -0.040449 671909.000000 0 0 1
34.347816 18.182918 12.754516 40.903162 0.486871 1.253686 0.126017 -0.047003 477462.000000 0 0 1
34.417936 17.030218 13.579216 40.731041 0.459484 1.230902 0.128680 -0.033234 286799.000000 0 0 1
35.831696 16.588418 14.098116 41.926637 0.433574 1.227857 0.113711 -0.045351 1085230.000000 0 0 1
36.807666 16.220018 13.091416 42.299863 0.415068 1.256139 0.106320 -0.016541 676236.000000 0 0 1
36.663256 14.810018 12.727916 41.539509 0.383904 1.259382 0.136321 -0.034650 -269161.000000 0 0 1
-35.808349 14.206218 12.298516 40.438941 -0.377684 1.261776 0.135397 -0.024183 265218.000000 0 0 1
-35.136510 13.433918 13.277416 39.891531 -0.365186 1.231485 0.115272 -0.022998 212334.000000 0 0 1
-35.752362 12.147518 13.522116 40.107869 -0.327531 1.226915 0.119734 -0.020235 319221.000000 0 0 1
-34.953816 11.344518 14.611716 39.547055 -0.313831 1.192351 0.124980 -0.032954 285019.000000 0 0 1
-35.058318 11.974018 15.873716 40.304312 -0.329123 1.165984 0.121453 -0.026334 237124.000000 0 0 1
-34.323383 11.321318 16.879716 39.889744 -0.318606 1.133867 0.115117 -0.028889 -79333.400000 0 0 1
-34.256552 12.212618 18.157016 40.648943 -0.342458 1.107747 0.109222 -0.025241 40747.300000 0 0 1
-35.478916 12.177518 18.873916 41.991310 -0.330633 1.104622 0.124671 -0.029308 255664.000000 0 0 1
-35.375590 12.864418 20.112316 42.678224 -0.348785 1.080083 0.117670 -0.030069 543799.000000 0 0 1
-36.748400 13.076218 20.855916 44.231229 -0.341860 1.079783 0.139198 -0.039336 429704.000000 0 0 1
36.661846 11.857518 21.360916 44.056559 0.312811 1.064602 0.123410 -0.025788 -343166.000000 0 0 1
35.653726 12.067418 22.307216 43.754115 0.326359 1.035808 0.118412 -0.033305 -197362.000000 0 0 1
35.340126 10.725818 23.050856 43.535154 0.294667 1.012813 0.097472 -0.023529 -30850.200000 0 0 1
36.327106 10.353018 23.983486 44.744287 0.277634 1.005090 0.093853 -0.014883 -143091.000000 0 0 1
36.170596 10.961118 25.262506 45.460448 0.294243 0.981588 0.104229 -0.019413 -908514.000000 0 0 1
-36.328890 11.284618 25.970626 46.060875 -0.301175 0.971777 0.100560 -0.021171 106320.000000 0 0 1
-35.585069 12.342418 25.418176 45.439147 -0.333859 0.977147 0.102811 -0.027020 -711324.000000 0 0 1
-34.715617 11.994218 24.414716 44.103443 -0.332660 0.984141 0.094457 -0.022844 -1061170.000000 0 0 1
-33.615030 13.047418 24.088856 43.364482 -0.370243 0.981835 0.093009 -0.022062 487814.000000 0 0 1
-32.661300 13.254818 25.131466 43.290198 -0.385519 0.951411 0.084147 -0.026779 283744.000000 0 0 1
-33.225270 13.809218 26.394856 44.624001 -0.393902 0.937885 0.073396 -0.022414 -338459.000000 0 0 1
-32.221910 14.478918 27.406796 44.710435 -0.422313 0.910964 0.065616 -0.015906 203615.000000 0 0 1
-31.630390 15.666818 26.971966 44.423166 -0.459888 0.918315 0.071568 -0.018559 -428461.000000 0 0 1
-31.264180 16.484018 28.065246 45.131251 -0.485209 0.899683 0.061130 -0.017647 -229053.000000 0 0 1
-30.568870 17.764318 27.624446 44.867993 -0.526425 0.907544 0.053047 -0.008442 -570280.000000 0 0 1
-31.381330 18.709218 26.956036 45.403200 -0.537613 0.935143 0.054231 -0.024999 -18185.200000 0 0 1
-30.688770 19.810218 26.417026 45.078871 -0.573219 0.944661 0.041036 -0.018619 182167.000000 0 0 1
-31.708990 20.765018 25.689526 45.788620 -0.579786 0.975147 0.039943 -0.003692 635820.000000 0 0 1
-32.358500 21.634518 26.624206 47.159020 -0.589332 0.970893 0.047826 -0.012961 -275614.000000 0 0 1
-33.469450 22.322818 26.152096 47.983793 -0.588206 0.994384 0.060406 -0.011410 -648380.000000 0 0 1
-33.482170 23.905318 26.186266 48.767207 -0.620041 1.003961 0.049545 -0.010233 -589875.000000 0 0 1
-34.540904 24.353618 25.409126 49.313248 -0.614118 1.029486 0.065827 -0.007896 -476345.000000 0 0 1
-34.501650 25.780718 25.273826 49.937716 -0.641727 1.040131 0.070344 -0.016627 477590.000000 0 0 1
-35.509785 26.377618 24.229566 50.436053 -0.638894 1.069684 0.091716 -0.013451 250291.000000 0 0 1
-35.274259 25.964718 22.898216 49.424368 -0.634533 1.089083 0.098054 -0.016940 1103240.000000 0 0 1
-36.365120 26.302218 21.961416 49.965312 -0.626181 1.115717 0.104330 -0.020840 1274210.000000 0 0 1
-35.911773 26.160518 20.463516 48.916087 -0.629577 1.139180 0.112540 -0.026889 198088.000000 0 0 1
-35.894196 24.857218 19.997816 48.022778 -0.605684 1.141288 0.104107 -0.019950 160631.000000 0 0 1
-35.281349 24.842618 18.712016 47.032635 -0.613492 1.161622 0.108324 -0.023502 22976.700000 0 0 1
-35.542527 23.542418 17.905516 46.239855 -0.585024 1.173170 0.110539 -0.019721 152105.000000 0 0 1
-36.748610 23.553018 17.180016 46.907973 -0.569967 1.195821 0.107719 -0.027073 -257311.000000 0 0 1
-36.653190 22.589318 16.181316 45.995310 -0.552318 1.211299 0.109285 -0.033843 493093.000000 0 0 1
35.881296 22.569418 15.325816 45.074679 0.561472 1.223869 0.102140 -0.035352 604082.000000 0 0 1
34.797666 21.796018 15.812916 43.999912 0.559580 1.203187 0.124885 -0.049955 69605.400000 0 0 1
33.852356 21.604718 14.749216 42.781833 0.568038 1.218819 0.125517 -0.049434 308438.000000 0 0 1
32.707446 20.657118 15.248016 41.581192 0.563312 1.195332 0.146259 -0.051420 915251.000000 0 0 1
31.777896 21.086418 16.251816 41.455919 0.585846 1.167963 0.130715 -0.051317 767694.000000 0 0 1
30.742356 21.980318 15.830516 40.973553 0.620712 1.174115 0.105444 -0.033629 -62348.100000 0 0 1
29.826896 22.422818 16.930716 40.976525 0.644630 1.144852 0.087533 -0.030352 -189112.000000 0 0 1
30.541396 23.151818 17.915516 42.305428 0.648631 1.133513 0.062098 -0.020492 119479.000000 0 0 1
29.638796 23.945418 18.688816 42.439523 0.679544 1.114793 0.055452 -0.008470 533341.000000 0 0 1
30.336466 24.420418 19.991916 43.775960 0.677774 1.096529 0.054150 -0.018396 514811.000000 0 0 1
31.224146 25.502718 19.636916 44.843554 0.684879 1.117537 0.058980 -0.009975 96186.100000 0 0 1
31.869946 25.994218 20.777416 46.077042 0.684202 1.102992 0.061312 -0.008705 -143702.000000 0 0 1
33.026396 26.952518 20.370016 47.245302 0.684475 1.125025 0.075041 -0.012079 242455.000000 0 0 1
33.945406 27.446418 21.327516 48.584559 0.679930 1.116336 0.077789 -0.006543 391225.000000 0 0 1
33.421706 28.410018 22.175116 49.151554 0.704521 1.102734 0.049202 0.002399 -325578.000000 0 0 1
34.238626 28.550218 23.476846 50.384132 0.695049 1.086080 0.054386 -0.007681 369825.000000 0 0 1
35.467666 29.242018 23.365936 51.565666 0.689484 1.100523 0.093365 -0.010351 -125526.000000 0 0 1
36.000656 29.610318 24.584446 52.699271 0.688307 1.085462 0.102228 -0.012002 90175.600000 0 0 1
-36.582730 30.510718 24.470156 53.553604 -0.695143 1.096258 0.105160 -0.013777 587590.000000 0 0 1
-35.325607 29.876718 24.301546 52.259754 -0.702023 1.087145 0.111566 -0.016803 614741.000000 0 0 1
-34.231509 30.717118 24.716596 52.213481 -0.731341 1.077677 0.116590 -0.013452 782615.000000 0 0 1
-32.839670 30.076718 24.543346 50.847111 -0.741512 1.067074 0.125441 -0.025550 -53949.200000 0 0 1
-32.321240 29.899618 23.204956 49.770671 -0.746498 1.085763 0.113836 -0.014132 193818.000000 0 0 1
-32.772160 28.864518 22.374416 49.069230 -0.722085 1.097327 0.110861 -0.008454 -314430.000000 0 0 1
-32.144250 27.527818 22.773616 48.059038 -0.708189 1.077119 0.090246 -0.005465 -427409.000000 0 0 1
-30.759760 27.426218 22.536616 46.970835 -0.728170 1.070369 0.082211 -0.008103 224241.000000 0 0 1
-30.036410 26.525918 23.389476 46.399114 -0.723414 1.042465 0.069679 -0.014013 48362.900000 0 0 1
-29.782330 26.869618 24.877756 47.200278 -0.734029 1.015650 0.067047 -0.017948 -19258.100000 0 0 1
-30.942670 27.023518 25.714546 48.466042 -0.717890 1.011525 0.059173 -0.016686 489691.000000 0 0 1
-30.576790 27.258518 27.023146 49.073590 -0.728086 0.987635 0.073552 -0.026206 -1192890.000000 0 0 1
-31.730160 27.503818 27.931476 50.432434 -0.714169 0.983828 0.074760 -0.033442 -1390740.000000 0 0 1
-32.527410 26.406818 28.173956 50.488852 -0.681915 0.978795 0.048037 -0.025637 -444388.000000 0 0 1
-33.456280 26.846418 29.161126 51.869298 -0.676223 0.973748 0.053218 -0.020239 -140342.000000 0 0 1
-34.267284 25.630118 29.630696 52.049283 -0.642186 0.965165 0.038689 -0.016204 69010.900000 0 0 1
-33.487870 24.808118 30.506486 51.648096 -0.637593 0.938919 0.030361 -0.014601 763.303000 0 0 1
-34.135807 23.648718 30.808396 51.707566 -0.605866 0.932510 0.017052 -0.015219 -456576.000000 0 0 1
-33.338080 22.937618 31.907946 51.533279 -0.602648 0.903109 0.035039 -0.019248 -161353.000000 0 0 1
-32.135960 22.449818 31.310366 50.170243 -0.609778 0.896840 0.040899 -0.016509 21329.300000 0 0 1
-31.465940 21.541418 32.153136 49.879477 -0.600312 0.870275 0.054466 -0.018911 136632.000000 0 0 1
-30.611010 22.029318 33.328103 50.329784 -0.623795 0.847053 0.057568 -0.021815 -470763.000000 0 0 1
-31.447200 22.669518 -33.748684 51.398513 -0.624599 2.287109 0.077306 -0.021651 74832.600000 0 0 1
-31.275290 22.303118 -32.411354 50.260011 -0.619479 2.271654 0.070021 -0.013736 -651824.000000 0 0 1
-29.898060 22.401718 -31.759234 49.034477 -0.643034 2.275347 0.069379 -0.021978 -663101.000000 0 0 1
-29.457120 23.742518 -31.695104 49.355939 -0.678390 2.268127 0.064223 -0.021585 -562312.000000 0 0 1
-28.392420 23.937018 -30.834874 48.269036 -0.700462 2.263750 0.084597 -0.021088 -827606.000000 0 0 1
-28.633760 25.049118 -29.725234 48.279810 -0.718723 2.234053 0.050261 -0.021326 -128916.000000 0 0 1
-28.614270 26.429518 -30.187374 49.280558 -0.745728 2.230094 0.045577 -0.026001 568368.000000 0 0 1
-29.689700 26.838918 -31.057324 50.659285 -0.735010 2.230728 0.040393 -0.012147 178137.000000 0 0 1
-29.536540 28.227118 -31.708784 51.716771 -0.762733 2.230805 0.047731 -0.013267 -95505.700000 0 0 1
-29.856620 29.273818 -30.823604 51.946788 -0.775542 2.206034 0.044064 -0.021477 144318.000000 0 0 1
-29.638920 30.562518 -31.451604 52.931432 -0.800739 2.207061 0.061982 -0.031510 -126951.000000 0 0 1
-29.812800 31.761918 -30.484624 53.168927 -0.817042 2.181390 0.054488 -0.014353 -342875.000000 0 0 1
-28.984990 31.802518 -29.362224 52.092898 -0.831715 2.169596 0.028110 -0.004788 -190389.000000 0 0 1
-29.264130 32.919118 -28.500954 52.462958 -0.844108 2.145110 0.010603 -0.002711 -560964.000000 0 0 1
-28.412510 33.051218 -27.230684 51.392255 -0.860726 2.129231 0.005413 -0.003167 214792.000000 0 0 1
-27.138980 33.665418 -27.437224 51.212165 -0.892324 2.136199 0.014085 -0.004420 347025.000000 0 0 1
-27.031170 -33.012253 -27.642184 50.838798 0.884683 2.145662 0.022283 0.011892 -595043.000000 0 0 1
-27.479190 -32.041553 -26.490924 49.835089 0.861900 2.131251 0.021452 0.012394 -320289.000000 0 0 1
-28.849100 -31.773353 -26.435614 50.404943 0.833598 2.122883 -0.003775 0.002953 -600858.000000 0 0 1
-29.122400 -30.987553 -25.273174 49.467929 0.816417 2.107028 0.006730 0.003028 307904.000000 0 0 1
-30.616870 -30.629253 -25.039454 50.025175 0.785600 2.095015 0.001473 0.000510 250558.000000 0 0 1
-31.029290 -29.713853 -26.031784 50.233293 0.763746 2.115562 0.004062 -0.003633 96745.200000 0 0 1
-32.420120 -29.488653 -25.926794 50.919972 0.738082 2.105014 0.005264 -0.011161 -136419.000000 0 0 1
-33.053050 -28.853453 -27.202114 51.623453 0.717664 2.125785 0.020707 -0.015859 -318185.000000 0 0 1
-34.445602 -28.979153 -27.134134 52.559985 0.699423 2.113264 0.022292 -0.017091 -238340.000000 0 0 1
-35.122367 -28.246153 -28.187824 53.159940 0.677310 2.129687 0.038935 -0.019038 399072.000000 0 0 1
-36.603730 -28.678153 -28.298444 54.434102 0.664584 2.117491 0.036119 -0.019948 433475.000000 0 0 1
36.413536 -27.970853 -27.337694 53.438411 -0.655013 2.107812 0.018605 -0.013813 725180.000000 0 0 1
35.023596 -28.163053 -27.637574 52.760263 -0.677246 2.122141 0.022102 -0.013044 776510.000000 0 0 1
34.092746 -27.416353 -26.647804 51.225748 -0.677278 2.117885 0.028236 -0.009890 40516.200000 0 0 1
34.136296 -28.046553 -25.415374 50.968982 -0.687777 2.092830 0.022060 -0.011045 293174.000000 0 0 1
33.183636 -27.404953 -24.582964 49.563165 -0.690310 2.089774 0.035157 -0.009451 152255.000000 0 0 1
32.974916 -28.251453 -23.324064 49.289975 -0.708403 2.063717 0.040018 -0.008127 101591.000000 0 0 1
32.500366 -29.602753 -23.552664 49.873087 -0.738774 2.062640 0.052693 -0.019074 133543.000000 0 0 1
32.044646 -30.281653 -22.367364 49.438212 -0.757119 2.040285 0.065934 -0.027597 -70445.500000 0 0 1
33.022446 -30.490753 -21.183364 49.688056 -0.745558 2.011225 0.048205 -0.013025 -1084210.000000 0 0 1
34.126356 -31.323053 -21.400864 51.026844 -0.742593 2.003585 0.030446 -0.014157 380334.000000 0 0 1
35.107346 -31.279153 -20.348864 51.234631 -0.727797 1.979228 0.015688 -0.002785 970028.000000 0 0 1
36.042746 -30.027253 -20.395564 51.153636 -0.694601 1.980908 -0.001108 0.000879 -288379.000000 0 0 1
35.341976 -28.876553 -19.908464 49.792143 -0.685058 1.982129 -0.000133 0.009535 65114.800000 0 0 1
35.905886 -27.731453 -20.442964 49.761239 -0.657644 1.994151 -0.012677 0.008015 -240542.000000 0 0 1
35.133986 -26.445853 -20.094864 48.348565 -0.645236 1.999426 -0.009895 0.008914 -613593.000000 0 0 1
34.019706 -26.226553 -20.856464 47.751069 -0.656758 2.022807 0.004792 0.005179 -560889.000000 0 0 1
33.051206 -25.353953 -20.307664 46.342274 -0.654363 2.024403 0.034690 -0.002844 42384.800000 0 0 1
31.803906 -25.054653 -21.147064 45.677373 -0.667249 2.052135 0.043671 -0.009680 -359464.000000 0 0 1
31.111776 -26.222453 -21.386664 45.966826 -0.700326 2.054728 0.067230 -0.015583 -1271510.000000 0 0 1
29.842246 -25.973953 -21.856864 45.198766 -0.716205 2.075527 0.071453 -0.019974 -753996.000000 0 0 1
29.077256 -27.222753 -22.338364 45.668015 -0.752470 2.081908 0.081104 -0.025533 -72121.100000 0 0 1
28.427456 -27.975753 -21.335364 45.232298 -0.777390 2.061996 0.088352 -0.026435 58550.100000 0 0 1
27.865056 -29.158053 -21.937464 45.911935 -0.808069 2.068963 0.086635 -0.035291 -138635.000000 0 0 1
27.068556 -29.959953 -20.888364 45.460195 -0.836056 2.048214 0.088917 -0.025769 -326600.000000 0 0 1
27.851756 -30.558553 -19.892564 45.883108 -0.831706 2.019224 0.092946 -0.025393 468171.000000 0 0 1
28.774696 -31.572453 -20.389464 47.334271 -0.831726 2.016125 0.096267 -0.028609 498904.000000 0 0 1
29.717296 -32.123153 -19.301364 47.828415 -0.824283 1.986195 0.067395 -0.019097 -222306.000000 0 0 1
29.121696 -32.803853 -18.244264 47.508096 -0.844789 1.964947 0.075646 -0.017670 -407358.000000 0 0 1
28.867896 -31.987353 -17.096664 46.355605 -0.836614 1.948531 0.073360 -0.014886 -81536.400000 0 0 1
28.277056 -32.748953 -15.898764 46.096166 -0.858546 1.922933 0.076240 -0.012467 554256.000000 0 0 1
26.912156 -33.128953 -16.119964 45.625047 -0.888573 1.931907 0.079172 -0.002006 620100.000000 0 0 1
26.409856 -33.905153 -15.062864 45.540419 -0.909034 1.907903 0.075943 -0.004645 412639.000000 0 0 1
24.876356 33.879118 -15.197264 44.694346 0.937440 1.917741 0.079274 -0.007273 688659.000000 0 0 1
24.123156 -33.026853 -14.967764 43.551506 -0.939951 1.921629 0.070944 -0.000579 77453.300000 0 0 1
22.738156 -33.292753 -14.832464 42.958505 -0.971587 1.923327 0.077757 -0.006388 -63136.500000 0 0 1
-0.062080 -6.794682 -28.838614 29.628318 1.561660 2.910193 0.102346 -0.037253 18244.900000 0 0 1
0.447320 -8.080482 -28.838584 29.952600 -1.515495 2.868004 0.103486 -0.035991 -157660.000000 0 0 1
-0.084480 -8.857382 -29.908114 31.192237 1.561259 2.853656 0.085375 -0.040100 -26468.500000 0 0 1
0.120620 -10.378782 -29.693044 31.454897 -1.559175 2.805310 0.101145 -0.033920 259753.000000 0 0 1
1.487320 -10.730682 -29.583954 31.505079 -1.433069 2.790571 0.056738 -0.037263 6563.200000 0 0 1
1.579220 -12.036182 -29.162324 31.588048 -1.440335 2.747141 0.061534 -0.033521 243534.000000 0 0 1
3.006220 -12.469582 -28.714464 31.449138 -1.334226 2.721484 0.070041 -0.031364 -228654.000000 0 0 1
3.845820 -12.590882 -29.848964 32.623325 -1.274352 2.726200 0.076384 -0.042153 608030.000000 0 0 1
5.249120 -12.686682 -29.563564 32.596158 -1.178493 2.706817 0.079029 -0.040717 1075240.000000 0 0 1
5.701720 -14.085982 -29.039814 32.775529 -1.186176 2.659488 0.080447 -0.039969 -803820.000000 0 0 1
5.344420 -14.357682 -27.718374 31.670398 -1.214453 2.636674 0.083952 -0.036813 -63927.300000 0 0 1
6.011520 -15.470382 -27.116884 31.793026 -1.200171 2.592348 0.082595 -0.028370 -166953.000000 0 0 1
5.587220 -16.877982 -27.641234 32.865196 -1.251115 2.570015 0.070007 -0.030464 -197979.000000 0 0 1
6.044120 -17.317882 -28.912624 34.240039 -1.235003 2.576259 0.071396 -0.040028 138443.000000 0 0 1
5.540520 -18.635882 -29.130394 35.022469 -1.281815 2.553072 0.059136 -0.033043 -168586.000000 0 0 1
5.859120 -19.285982 -30.471274 36.534599 -1.275855 2.557185 0.059134 -0.045702 -420735.000000 0 0 1
7.227420 -19.426682 -30.751984 37.085255 -1.214627 2.548514 0.054152 -0.039196 -234201.000000 0 0 1
7.342020 -20.134682 -31.963184 38.483189 -1.221134 2.550936 0.048628 -0.032538 312712.000000 0 0 1
8.717320 -20.144682 -32.692704 39.377821 -1.162392 2.550319 0.054762 -0.034550 319317.000000 0 0 1
9.080120 -18.819182 -33.081414 39.127869 -1.121252 2.578240 0.050739 -0.038324 503337.000000 0 0 1
10.255220 -18.721482 -33.898734 40.059800 -1.069660 2.579616 0.055349 -0.036257 107760.000000 0 0 1
10.512820 -17.222682 33.772079 39.340735 -1.022761 0.538555 0.049459 -0.032151 873479.000000 0 0 1
9.414820 -16.655982 32.976628 38.125039 -1.056319 0.525726 0.047642 -0.026570 1033150.000000 0 0 1
9.630820 -15.319782 32.512308 37.208851 -1.009575 0.507877 0.050231 -0.017916 -330851.000000 0 0 1
8.593120 -14.846282 31.517156 35.882933 -1.046106 0.498433 0.052564 -0.027965 -245514.000000 0 0 1
8.803720 -15.630182 30.390126 35.289769 -1.057836 0.533250 0.051596 -0.025323 -210771.000000 0 0 1
7.805420 -15.378382 29.451486 34.129302 -1.101121 0.529740 0.060716 -0.026215 -481678.000000 0 0 1
7.792620 -16.393682 28.284336 33.607758 -1.127068 0.570555 0.054278 -0.022859 -251301.000000 0 0 1
7.427820 -17.743582 28.611196 34.476191 -1.174342 0.591899 0.066345 -0.029162 307147.000000 0 0 1
7.665620 -18.532782 27.479826 34.020091 -1.178600 0.630466 0.056535 -0.026214 -24214.900000 0 0 1
7.461320 -19.982082 27.976136 35.179810 -1.213429 0.651405 0.061769 -0.023112 33387.800000 0 0 1
8.403620 -20.352182 28.955326 36.376408 -1.179210 0.650152 0.073469 -0.019040 336467.000000 0 0 1
7.869220 -21.513382 29.573346 37.407660 -1.220131 0.659058 0.052634 -0.013385 -8459.210000 0 0 1
7.993020 -21.343382 31.124216 38.576484 -1.212467 0.632050 0.061665 -0.022489 329090.000000 0 0 1
7.072620 -20.517882 31.916686 38.596376 -1.238846 0.597162 0.062421 -0.033856 677708.000000 0 0 1
7.207820 -19.111082 31.652416 37.670433 -1.210139 0.573060 0.053568 -0.027237 116999.000000 0 0 1
6.545220 -18.217482 32.797932 38.084392 -1.225876 0.533188 0.059675 -0.031416 981276.000000 0 0 1
5.120720 -18.350482 32.853692 37.977981 -1.298668 0.525502 0.074416 -0.035927 158835.000000 0 0 1
4.515520 -17.456982 33.751710 38.266357 -1.317679 0.490663 0.082846 -0.037806 -137291.000000 0 0 1
3.055520 -17.811382 -33.991414 38.496724 -1.400901 2.652946 0.074752 -0.038831 -230816.000000 0 0 1
2.920120 -18.994782 -33.216104 38.374971 -1.418258 2.617078 0.071345 -0.039521 -128183.000000 0 0 1
2.410420 -18.817082 -31.921064 37.132830 -1.443393 2.605371 0.069221 -0.047025 -329313.000000 0 0 1
2.006220 -20.142882 -31.293124 37.269562 -1.471524 2.567422 0.061726 -0.037434 -222063.000000 0 0 1
0.828020 -20.605682 -31.950444 38.027761 -1.530634 2.568425 0.050757 -0.032312 804956.000000 0 0 1
-0.117980 -21.388182 -31.205324 37.831739 1.565280 2.540724 0.054901 -0.030972 501194.000000 0 0 1
-0.838680 -20.761782 -30.025504 36.514187 1.530423 2.536232 0.061249 -0.030799 -178416.000000 0 0 1
-1.843680 -19.811582 -30.462174 36.384640 1.478003 2.562987 0.069127 -0.037101 372292.000000 0 0 1
-2.113480 -18.764382 -29.550324 35.068369 1.458636 2.572980 0.089222 -0.025130 210762.000000 0 0 1
-1.628980 -17.367382 -29.983834 34.688757 1.477275 2.614688 0.081700 -0.017591 -31693.000000 0 0 1
-2.316880 -16.421182 -29.189624 33.571674 1.430631 2.624928 0.092589 -0.024502 -26820.100000 0 0 1
-2.029280 -15.151382 -29.684304 33.389224 1.437655 2.666037 0.092762 -0.026165 156094.000000 0 0 1
-3.121980 -14.124982 -29.291794 32.669115 1.353268 2.682873 0.101036 -0.021517 264248.000000 0 0 1
-3.165880 -13.893582 -27.872394 31.303750 1.346755 2.668987 0.102148 -0.026509 415728.000000 0 0 1
-4.226080 -13.018582 -27.450214 30.673400 1.256909 2.679046 0.106788 -0.030602 407286.000000 0 0 1
-4.199580 -12.666582 -25.933724 29.165679 1.250653 2.666360 0.109265 -0.031583 -520850.000000 0 0 1
-4.721680 -13.563882 -25.023544 28.852226 1.235809 2.620549 0.106684 -0.024402 123476.000000 0 0 1
-4.857080 -13.168882 -23.667664 27.516704 1.217446 2.606301 0.093663 -0.031329 -436365.000000 0 0 1
-6.089280 -12.282582 -23.359964 27.085588 1.110542 2.610887 0.083117 -0.031046 321468.000000 0 0 1
-7.310580 -13.023282 -23.542664 27.880235 1.059283 2.576280 0.068759 -0.030105 513896.000000 0 0 1
-8.382380 -12.192682 -23.083464 27.418463 0.968514 2.571581 0.057146 -0.030504 255307.000000 0 0 1
-9.768880 -12.692882 -23.553964 28.483846 0.914847 2.544411 0.066544 -0.031787 72780.900000 0 0 1
-10.186580 -13.782582 -22.744564 28.478785 0.934314 2.495844 0.060204 -0.033307 211394.000000 0 0 1
-11.497780 -14.238982 -23.084464 29.459125 0.891507 2.471252 0.065643 -0.026319 635780.000000 0 0 1
-12.077880 -15.281382 -22.115764 29.470372 0.901958 2.419525 0.063025 -0.021617 258735.000000 0 0 1
-11.162080 -16.352482 -22.108064 29.677638 0.971849 2.411241 0.066608 -0.018960 -196884.000000 0 0 1
-11.796280 -17.542882 -21.693664 30.290593 0.978817 2.369117 0.067648 -0.014091 383052.000000 0 0 1
-12.568480 -18.268382 -22.833864 31.829009 0.968176 2.370847 0.052832 -0.006139 267745.000000 0 0 1
-13.842480 -17.706682 -23.094464 32.225690 0.907273 2.369780 0.051165 -0.008706 -400465.000000 0 0 1
-14.474480 -18.440582 -24.079064 33.606055 0.905315 2.369582 0.040990 -0.013833 -397596.000000 0 0 1
-15.497180 -17.608982 -24.832964 34.160137 0.849101 2.384677 0.060922 -0.023078 -44840.800000 0 0 1
-16.664880 -17.302682 -24.095364 34.024809 0.804173 2.357700 0.067197 -0.012382 510920.000000 0 0 1
-17.856380 -17.064482 -24.842764 35.031554 0.762725 2.359094 0.052681 -0.020562 699366.000000 0 0 1
-18.577280 -15.794482 -24.388564 34.487433 0.704613 2.356287 0.061904 -0.017858 -278177.000000 0 0 1
-19.056380 -15.767482 -23.084864 33.832973 0.691234 2.321726 0.064418 -0.012866 205752.000000 0 0 1
-20.033980 -14.752982 -22.846864 33.778544 0.634739 2.313622 0.067686 -0.019756 286329.000000 0 0 1
-20.632680 -14.771482 -21.442264 33.221602 0.621335 2.272384 0.066579 -0.024606 515307.000000 0 0 1
-19.663380 -14.740282 -20.351664 31.907909 0.643265 2.262467 0.075474 -0.017286 719173.000000 0 0 1
-20.287780 -14.610982 -19.026864 31.418090 0.624146 2.221319 0.070677 -0.020637 161884.000000 0 0 1
-20.793380 -13.207382 -18.656464 30.900862 0.565881 2.218996 0.074891 -0.022599 43395.300000 0 0 1
-22.121180 -12.981282 -19.121664 31.992160 0.530676 2.211424 0.066090 -0.027907 403062.000000 0 0 1
-22.572680 -11.811382 -18.408464 31.430975 0.482082 2.196514 0.067134 -0.025287 142202.000000 0 0 1
-24.096380 -11.547982 -18.461264 32.477834 0.446903 2.175388 0.074303 -0.024288 235504.000000 0 0 1
-24.505480 -10.981682 -19.691864 33.299931 0.421299 2.203526 0.058060 -0.032124 -489659.000000 0 0 1
-25.887670 -10.766482 -19.724164 34.280187 0.394131 2.183866 0.046589 -0.028120 -830130.000000 0 0 1
-26.251160 -9.836982 -20.903864 34.969432 0.358530 2.211520 0.047892 -0.021788 -289609.000000 0 0 1
-26.230340 -10.378582 -22.254664 35.930708 0.376769 2.238746 0.039275 -0.023256 401486.000000 0 0 1
-26.612420 -9.453382 -23.240464 36.574670 0.341322 2.259355 0.012955 -0.015588 -422115.000000 0 0 1
-26.738410 -9.882482 -24.726564 37.736044 0.354027 2.285311 0.028752 -0.011077 128326.000000 0 0 1
-25.553360 -9.821282 -25.501414 37.413285 0.366937 2.320762 0.019289 -0.013655 426860.000000 0 0 1
-24.741880 -10.989182 -25.445924 37.153974 0.417981 2.325232 0.035810 -0.005312 30679.700000 0 0 1
-23.800480 -11.084482 -26.682534 37.433758 0.435854 2.364269 0.048088 -0.003830 -20786.400000 0 0 1
-24.427780 -11.358982 -27.908864 38.789787 0.435260 2.373864 0.047057 -0.001288 29979.100000 0 0 1
-23.487980 -11.369482 -28.961844 38.983827 0.450811 2.408218 0.045271 -0.006698 315243.000000 0 0 1
-24.132780 -11.618482 -30.368874 40.492576 0.448690 2.418838 0.045044 -0.007563 59773.500000 0 0 1
-24.967080 -10.648082 -30.982214 41.190221 0.403128 2.422151 0.043499 -0.003122 -124.548000 0 0 1
-24.343080 -9.543882 -31.604064 41.018143 0.373641 2.450406 0.039302 -0.008425 -848904.000000 0 0 1
-25.297820 -8.384582 -31.937594 41.596765 0.320041 2.446182 0.046112 -0.006241 -841271.000000 0 0 1
-26.134160 -8.640182 -33.059384 43.018251 0.319296 2.447285 0.041460 0.000575 377498.000000 0 0 1
-27.360200 -9.260982 -32.796674 43.703183 0.326379 2.419526 0.040383 -0.001639 -557898.000000 0 0 1
-28.444970 -8.516482 -31.981104 43.639865 0.290908 2.393285 0.029248 0.007850 -785618.000000 0 0 1
-29.727810 -9.108682 -32.110814 44.696926 0.297320 2.372313 0.041382 0.003375 326981.000000 0 0 1
-30.527670 -8.598482 -31.032204 44.371953 0.274549 2.345305 0.048468 0.004657 -516277.000000 0 0 1
-31.991420 -8.988182 -31.115034 45.523441 0.273895 2.323336 0.050841 -0.007769 -642993.000000 0 0 1
-32.163960 -10.380782 -30.901204 45.794818 0.312192 2.311456 0.050882 -0.009607 -101312.000000 0 0 1
-33.532400 -10.672882 -30.760594 46.739131 0.308147 2.289133 0.051550 -0.010798 -190650.000000 0 0 1
-33.841680 -12.174782 -30.982904 47.470253 0.345340 2.281913 0.061283 -0.017492 199983.000000 0 0 1
-35.198606 -12.583482 -30.814364 48.443895 0.343340 2.260208 0.035258 -0.016116 394352.000000 0 0 1
-35.439786 -13.956582 -31.072514 49.155526 0.375160 2.255091 0.037369 -0.023265 332536.000000 0 0 1
-36.831650 -14.457582 -30.585814 50.010840 0.374051 2.228857 0.040071 -0.025222 375769.000000 0 0 1
36.871246 -14.702682 -29.156104 49.251762 -0.379435 2.204311 0.029514 -0.024502 -200111.000000 0 0 1
36.305656 -15.943482 -28.838984 49.030422 -0.413791 2.199610 0.017385 -0.024829 -131614.000000 0 0 1
36.379146 -16.272982 -27.358234 48.339685 -0.420620 2.172391 0.019771 -0.020603 -242895.000000 0 0 1
-36.153180 -16.087082 -26.875724 47.834623 0.418663 2.167413 0.032869 -0.029339 -217872.000000 0 0 1
-36.186490 -16.217282 -25.456264 47.122008 0.421321 2.141495 0.036099 -0.028468 -36874.800000 0 0 1
-34.867202 -15.652382 -24.929564 45.631152 0.421951 2.148770 0.083796 -0.031213 -282384.000000 0 0 1
-33.700150 -16.360582 -25.196584 45.146834 0.451960 2.162894 0.076325 -0.027399 -306445.000000 0 0 1
-32.569930 -15.871482 -24.500364 43.737537 0.453440 2.165385 0.085033 -0.014466 773035.000000 0 0 1
-31.300470 -16.787882 -24.667264 43.243801 0.492300 2.177817 0.085038 -0.019415 565326.000000 0 0 1
-31.283200 -17.924682 -23.821564 43.213421 0.520316 2.154663 0.092705 -0.023924 84963.300000 0 0 1
-31.999050 -19.017982 -24.344764 44.477976 0.536240 2.149984 0.072057 -0.030381 -220104.000000 0 0 1
-31.780710 -20.361982 -23.575764 44.502140 0.569811 2.129122 0.082338 -0.029214 -318891.000000 0 0 1
-30.505780 -20.912982 -23.748464 43.953896 0.600956 2.141595 0.078138 -0.021427 -218648.000000 0 0 1
-30.428800 -22.088182 -22.907864 44.029194 0.627896 2.117985 0.063467 -0.022657 430693.000000 0 0 1
-29.087370 -22.896282 -23.142364 43.656429 0.666860 2.129517 0.066800 -0.017569 1650770.000000 0 0 1
-27.832450 -22.352382 -22.694664 42.300379 0.676631 2.137095 0.080952 -0.021215 774393.000000 0 0 1
-27.640800 -21.989982 -21.292264 41.242377 0.672029 2.113288 0.077576 -0.018787 -496065.000000 0 0 1
-27.706730 -23.185682 -20.309464 41.445302 0.696795 2.082921 0.077989 -0.017652 -164157.000000 0 0 1
-27.433570 -22.835482 -18.984464 40.428577 0.694182 2.059612 0.071153 -0.018319 48269.300000 0 0 1
-27.531060 -24.042782 -18.177864 40.822168 0.717864 2.032299 0.065429 0.000977 -77821.500000 0 0 1
-27.565610 -23.636682 -16.724264 39.978202 0.708815 2.002407 0.048723 0.000873 66.420900 0 0 1
-28.652940 -22.874282 -16.255564 40.105699 0.673717 1.988123 0.051807 -0.004055 -239713.000000 0 0 1
-28.219140 -21.643382 -15.753964 38.896571 0.654277 1.987799 0.054131 -0.010664 -926623.000000 0 0 1
-29.326360 -20.929182 -15.032364 39.038929 0.619838 1.966070 0.046212 -0.004228 -567298.000000 0 0 1
-30.439030 -20.745382 -15.853864 40.102998 0.598228 1.977222 0.041237 -0.002512 -257321.000000 0 0 1
-31.537960 -20.118082 -15.214764 40.384021 0.567822 1.957084 0.039859 -0.002684 936297.000000 0 0 1
-32.615930 -19.556482 -16.233764 41.349607 0.540125 1.974251 0.043583 -0.017290 114585.000000 0 0 1
-33.460890 -20.465782 -16.840164 42.685718 0.548929 1.976337 0.025642 -0.018737 -627045.000000 0 0 1
-34.307916 -19.772682 -17.701364 43.374305 0.522833 1.991176 0.022460 -0.016855 -308681.000000 0 0 1
-35.422415 -20.555882 -18.415664 44.904660 0.525814 1.993366 0.007893 -0.010838 440414.000000 0 0 1
-36.548810 -20.964582 -17.638064 45.677462 0.520785 1.967244 0.004583 -0.003406 304611.000000 0 0 1
-36.315570 -22.003782 -16.689264 45.623662 0.544750 1.945292 0.030070 -0.013906 -639707.000000 0 0 1
36.742156 -23.322482 -16.926264 46.694996 -0.565588 1.941730 0.013790 0.007922 -1634.850000 0 0 1
35.341256 -23.213582 -16.766564 45.486179 -0.581169 1.948307 0.017104 -0.006285 257865.000000 0 0 1
34.722086 -24.517682 -16.599764 45.632139 -0.614816 1.943112 0.016613 -0.003559 853438.000000 0 0 1
33.280186 -24.418282 -15.979564 44.262509 -0.632999 1.940156 0.022528 -0.011111 724990.000000 0 0 1
32.345066 -23.981382 -16.958164 43.690838 -0.637989 1.969409 0.014524 -0.007829 -628362.000000 0 0 1
31.069826 -24.311482 -16.503264 42.763769 -0.663966 1.966998 0.036309 -0.009883 -12346.700000 0 0 1
29.920896 -24.108882 -17.551064 42.243793 -0.678240 1.999257 0.063751 -0.013486 537957.000000 0 0 1
29.408766 -22.798982 -17.726164 41.217545 -0.659463 2.015360 0.071010 -0.017437 -369037.000000 0 0 1
28.252456 -22.815682 -18.487864 40.749942 -0.679336 2.041699 0.094286 -0.028377 -581245.000000 0 0 1
34.797536 29.156018 -18.361164 48.970136 0.697413 1.955135 0.058825 -0.020598 -665728.000000 0 0 1
33.768726 29.151218 -19.285764 48.601040 0.712142 1.978844 0.037881 -0.034696 -752059.000000 0 0 1
34.197896 28.735618 -20.555864 49.170879 0.698821 2.002094 0.045728 -0.030441 -301152.000000 0 0 1
33.115526 29.049918 -21.577564 49.052289 0.720091 2.026271 0.057432 -0.031531 -778498.000000 0 0 1
31.964566 28.229318 -21.520564 47.767798 0.723424 2.038149 0.057942 -0.027437 207223.000000 0 0 1
31.079656 28.451018 -22.606964 47.817155 0.741271 2.063239 0.073378 -0.016771 269082.000000 0 0 1
30.179396 29.688618 -22.633464 48.005038 0.777201 2.061766 0.053006 -0.016504 -696210.000000 0 0 1
30.940106 30.877518 -22.776064 49.289556 0.784386 2.051143 0.074402 -0.030661 -196883.000000 0 0 1
30.137506 32.040018 -22.768964 49.530372 0.815987 2.048450 0.061968 -0.018866 -636834.000000 0 0 1
30.931076 33.351218 -22.586064 50.785485 0.823029 2.031674 0.068886 -0.021483 109587.000000 0 0 1
31.396226 33.535418 -21.250364 50.615464 0.818332 2.004065 0.076784 -0.024862 -486132.000000 0 0 1
32.604736 32.872918 -21.026864 50.851023 0.789494 1.997090 0.078066 -0.027388 -985919.000000 0 0 1
32.955816 32.870218 -19.546864 50.483828 0.784098 1.968379 0.065504 -0.028224 -170810.000000 0 0 1
33.163226 -33.908853 -18.968664 51.082483 -0.796515 1.951242 0.060830 -0.022859 155058.000000 0 0 1
32.981916 -33.924853 -17.601564 50.482844 -0.799491 1.926942 0.047296 -0.031257 -520105.000000 0 0 1
33.083106 -32.540153 -16.932864 49.397119 -0.777125 1.920682 0.050199 -0.016982 624461.000000 0 0 1
34.333336 -31.837353 -17.014164 49.818438 -0.747696 1.919334 0.046743 -0.014130 137862.000000 0 0 1
35.296546 -32.298053 -16.126764 50.488444 -0.741067 1.895908 0.048001 -0.015890 -287663.000000 0 0 1
36.628416 -31.483753 -16.239864 50.956852 -0.710009 1.895152 0.041868 -0.005920 126617.000000 0 0 1
-36.558150 -31.794253 -17.442664 51.493877 0.715815 1.916366 0.033854 -0.010157 79721.700000 0 0 1
-35.284014 -31.135153 -17.465264 50.193574 0.723014 1.926189 0.017611 0.001504 703919.000000 0 0 1
-34.278213 -31.625953 -18.526564 50.183965 0.745176 1.948915 0.012656 -0.010282 -677249.000000 0 0 1
-33.748710 -32.886353 -18.121764 50.486493 0.772457 1.937931 0.022218 -0.014220 -77063.600000 0 0 1
-32.806250 -33.483553 -18.957564 50.564687 0.795615 1.955104 0.023235 -0.009934 1022940.000000 0 0 1
-31.375980 -32.824153 -19.097764 49.260550 0.807952 1.968919 0.016615 -0.009657 81176.400000 0 0 1
-31.589600 -31.821153 -20.080264 49.129478 0.789050 1.991849 0.012203 -0.005716 302221.000000 0 0 1
-30.429210 -31.306553 -20.727064 48.328545 0.799608 2.014047 0.028023 -0.011694 244601.000000 0 0 1
-29.460820 -32.237353 -21.519864 48.685639 0.830370 2.028642 0.027545 -0.006014 -205250.000000 0 0 1
-30.089990 -32.764053 -22.612864 49.902228 0.827917 2.041085 0.024084 0.003382 -453848.000000 0 0 1
-29.417200 -33.894253 -23.084864 50.468832 0.855995 2.045875 0.021518 -0.003090 -216410.000000 0 0 1
-30.185140 33.520518 -24.240464 51.209061 -0.837706 2.063901 0.006335 -0.009889 936753.000000 0 0 1
-31.348420 32.697418 -23.883164 51.207911 -0.806458 2.056008 -0.004245 -0.016015 1198010.000000 0 0 1
-31.976480 32.098218 -25.020844 51.757449 -0.787298 2.075359 0.004163 -0.009005 559959.000000 0 0 1
-32.803900 32.913018 -26.058604 53.276763 -0.787059 2.081874 0.010351 -0.018736 -339489.000000 0 0 1
-32.044960 33.741118 -26.936424 53.767215 -0.811175 2.095530 0.006850 -0.019306 13701.900000 0 0 1
-32.784250 -33.192553 -27.397214 54.103235 0.791587 2.101787 0.008851 -0.024428 243007.000000 0 0 1
-32.026530 -32.473353 -28.535084 53.800263 0.792326 2.129856 0.008847 -0.019496 -54254.400000 0 0 1
-31.797630 -33.208153 -29.734514 54.754105 0.807093 2.144868 0.014953 -0.018504 367462.000000 0 0 1
-32.964420 -33.638453 -30.457194 56.087781 0.795518 2.144834 0.027282 -0.018112 341114.000000 0 0 1
-32.699970 33.706718 -31.781434 56.705294 -0.800557 2.165746 0.047590 -0.022298 -109082.000000 0 0 1
-32.065250 -33.667753 -32.827544 56.915249 0.809772 2.185577 0.054178 -0.039436 20901.400000 0 0 1
-32.270670 33.601318 33.991103 57.670094 -0.805596 0.940473 0.056411 -0.045365 -93625.700000 0 0 1
-31.308850 33.986718 32.822014 56.680029 -0.826387 0.953202 0.064888 -0.045227 367799.000000 0 0 1
-29.972830 33.543318 32.896264 55.728708 -0.841553 0.939375 0.074554 -0.043279 -100853.000000 0 0 1
-29.773250 32.177918 32.591574 54.626692 -0.824194 0.931509 0.083438 -0.049097 -1234070.000000 0 0 1
-28.324330 31.794918 32.754798 53.722074 -0.843063 0.915104 0.088147 -0.046714 -1251770.000000 0 0 1
-28.000990 31.599618 -33.860474 54.121373 -0.845704 2.246747 0.086167 -0.045315 448077.000000 0 0 1
-26.609970 31.344918 -33.664104 53.140063 -0.866918 2.256862 0.082065 -0.043728 398929.000000 0 0 1
-26.046170 30.001118 33.889455 52.220352 -0.855846 0.864566 0.081397 -0.042258 -572554.000000 0 0 1
-26.422140 28.909918 -33.256204 51.379840 -0.830329 2.274783 0.078129 -0.032006 260717.000000 0 0 1
-25.998510 27.661918 -33.723834 50.777960 -0.816387 2.297143 0.076967 -0.035521 -431010.000000 0 0 1
-25.900890 26.670518 -32.553934 49.415901 -0.800037 2.289985 0.081570 -0.042277 -170792.000000 0 0 1
-24.858480 26.847918 -31.582204 48.334153 -0.823855 2.282882 0.075550 -0.038805 267219.000000 0 0 1
-24.953880 27.975018 -30.723244 48.468706 -0.842415 2.257353 0.057714 -0.026544 -197875.000000 0 0 1
-23.835280 27.913318 -29.650854 47.185242 -0.864040 2.250281 0.062294 -0.021870 49686.700000 0 0 1
-22.563780 28.022018 -30.301184 47.037426 -0.892883 2.270764 0.055588 -0.024482 115119.000000 0 0 1
-21.478980 27.762118 -29.443524 45.814876 -0.912312 2.268765 0.026816 -0.022672 49414.400000 0 0 1
-21.101280 28.938918 -28.523394 45.785467 -0.940763 2.243342 0.026818 -0.007862 -570841.000000 0 0 1
-20.556080 30.075418 -29.298064 46.748901 -0.971241 2.248122 0.024511 0.004465 423930.000000 0 0 1
-20.444980 31.220718 -28.476944 46.943229 -0.991017 2.222605 0.032356 0.000115 -208224.000000 0 0 1
-19.990680 32.505818 -29.204464 48.053681 -1.019429 2.224016 0.034670 0.006840 -192715.000000 0 0 1
-18.658480 32.452018 -29.638824 47.746542 -1.048995 2.240500 0.043719 -0.002171 -649011.000000 0 0 1
-18.366480 33.426418 -30.610254 48.904403 -1.068368 2.247107 0.050346 0.005539 -663741.000000 0 0 1
-16.920280 33.533018 -31.031324 48.720655 -1.103487 2.261297 0.054882 0.006604 -1085830.000000 0 0 1
-16.004080 -34.029253 -30.060524 48.143076 1.131187 2.245159 0.079273 -0.003656 113779.000000 0 0 1
-14.659380 -33.975553 -30.470854 47.934420 1.163460 2.259683 0.091363 -0.000393 168316.000000 0 0 1
-13.912780 32.770018 -30.600694 46.945096 -1.169300 2.280805 0.097820 -0.012674 -1065860.000000 0 0 1
-13.746380 32.131018 -29.305344 45.608864 -1.166537 2.268600 0.112688 -0.025271 207221.000000 0 0 1
-13.167480 30.815418 -29.334254 44.536176 -1.166978 2.289835 0.099712 -0.026749 139599.000000 0 0 1
-13.164980 30.146718 -27.927454 43.151871 -1.159060 2.274689 0.087487 -0.034026 406522.000000 0 0 1
-12.097680 30.718118 -27.167674 42.755575 -1.195621 2.259346 0.093046 -0.020140 257984.000000 0 0 1
-12.054480 30.173018 -25.896104 41.549124 -1.190711 2.243707 0.075552 -0.028838 -469795.000000 0 0 1
-10.879380 30.777618 -25.135744 41.199858 -1.231022 2.226974 0.087178 -0.022694 -188194.000000 0 0 1
-9.699880 30.165818 -25.606864 40.740345 -1.259686 2.250469 0.092912 -0.021264 -436199.000000 0 0 1
-8.532080 30.606018 -24.920864 40.380369 -1.298927 2.235916 0.102529 -0.020503 324958.000000 0 0 1
-7.285080 29.954318 -25.541064 40.033480 -1.332222 2.262685 0.084322 -0.027852 -273717.000000 0 0 1
-6.935280 28.681618 -25.010644 38.681593 -1.333548 2.273886 0.080981 -0.041603 984532.000000 0 0 1
-5.672380 28.232618 -25.593054 38.526108 -1.372520 2.297359 0.085538 -0.053694 1224090.000000 0 0 1
-5.123580 27.045318 -24.799264 37.050018 -1.383571 2.304124 0.095338 -0.039624 -206288.000000 0 0 1
-5.970780 25.913618 -24.920664 36.444551 -1.344338 2.323750 0.095812 -0.035405 38086.000000 0 0 1
-5.504680 24.771218 -24.235064 35.089216 -1.352129 2.333211 0.095192 -0.044396 -368742.000000 0 0 1
-6.454980 23.538918 -24.320364 34.456168 -1.303150 2.354397 0.077366 -0.043853 -61668.500000 0 0 1
-6.383180 22.947618 -25.588094 34.958386 -1.299492 2.391989 0.077872 -0.039944 119399.000000 0 0 1
-7.252980 21.840418 -25.671264 34.476418 -1.250165 2.410737 0.062706 -0.042430 -393366.000000 0 0 1
-7.128080 20.869718 -26.863774 34.756539 -1.241668 2.454215 0.057044 -0.037303 203971.000000 0 0 1
-5.907480 20.139218 -26.762254 34.010361 -1.285468 2.476542 0.075027 -0.044128 216589.000000 0 0 1
-5.870580 18.959918 -25.920924 32.647152 -1.270527 2.488111 0.066990 -0.039138 -1035350.000000 0 0 1
-4.589780 18.188318 -26.161044 32.191322 -1.323609 2.519522 0.081523 -0.053250 -465545.000000 0 0 1
-4.658180 17.445018 -27.330734 32.756623 -1.309863 2.557763 0.082387 -0.051882 -233891.000000 0 0 1
-3.463480 16.742218 -27.516194 32.395038 -1.366803 2.585635 0.084789 -0.057429 -517040.000000 0 0 1
-3.197680 16.461118 -28.956044 33.461113 -1.378929 2.616673 0.089910 -0.049203 -258663.000000 0 0 1
-2.577980 17.588818 -29.503444 34.445112 -1.425263 2.599314 0.098941 -0.054161 -111723.000000 0 0 1
-2.516380 17.563318 -30.919924 35.648899 -1.428490 2.620641 0.097290 -0.055236 -233208.000000 0 0 1
-1.583680 18.657518 -31.452394 36.604154 -1.486118 2.604613 0.099491 -0.046887 -774630.000000 0 0 1
-0.228980 18.479318 -31.130324 36.202689 -1.558406 2.605850 0.124018 -0.051923 -486969.000000 0 0 1
0.541720 19.608718 -31.486214 37.096859 1.543177 2.584426 0.129885 -0.038081 -46376.000000 0 0 1
0.338020 20.915018 -30.645774 37.104120 1.554636 2.542664 0.125061 -0.035947 -969123.000000 0 0 1
1.120820 21.051318 -29.516664 36.271858 1.517604 2.521392 0.150009 -0.062551 -627160.000000 0 0 1
0.884720 22.229518 -28.784484 36.379675 1.531018 2.483605 0.145105 -0.067917 677743.000000 0 0 1
2.086920 22.433418 -27.792524 35.777617 1.478036 2.460386 0.156828 -0.066976 1867800.000000 0 0 1
3.306720 22.950918 -28.366344 36.637802 1.427703 2.456305 0.143190 -0.068606 1463670.000000 0 0 1
4.499920 22.835918 -27.561174 36.074184 1.376235 2.440308 0.134091 -0.068601 862529.000000 0 0 1
5.170620 24.137518 -27.183694 36.719318 1.359771 2.404328 0.145342 -0.062940 -21122.300000 0 0 1
5.972520 24.747118 -28.208344 37.997388 1.333983 2.407406 0.129973 -0.061165 396898.000000 0 0 1
6.363320 26.062318 -27.844064 38.665594 1.331324 2.374779 0.129864 -0.060164 -51027.100000 0 0 1
7.116820 26.849718 -28.929034 40.105430 1.311693 2.376509 0.124989 -0.053630 60238.700000 0 0 1
8.400720 26.355818 -29.235834 40.248419 1.262234 2.383843 0.103532 -0.041199 -121583.000000 0 0 1
9.130220 27.228018 -30.081214 41.588524 1.247255 2.379374 0.103445 -0.034236 368544.000000 0 0 1
10.640320 27.239918 -29.723004 41.697560 1.198407 2.364312 0.093417 -0.034430 155265.000000 0 0 1
11.363720 28.258118 -30.373004 43.013658 1.188446 2.354807 0.085117 -0.030009 -1450860.000000 0 0 1
12.682220 28.157218 -30.002644 43.056083 1.147604 2.341760 0.081506 -0.029882 -1167920.000000 0 0 1
13.533320 29.172318 -30.769144 44.507473 1.136436 2.334118 0.094740 -0.034810 -359648.000000 0 0 1
12.946220 30.466518 -30.715994 45.158450 1.168983 2.318808 0.097663 -0.035530 293630.000000 0 0 1
13.684020 31.449018 -31.459564 46.540276 1.160387 2.313069 0.125990 -0.045122 -190495.000000 0 0 1
13.064920 32.821918 -31.592014 47.392255 1.191968 2.300444 0.130304 -0.054915 -449701.000000 0 0 1
11.893120 32.709618 -32.348544 47.516247 1.222060 2.319636 0.110557 -0.053038 -86169.400000 0 0 1
11.059120 33.839918 -32.193864 47.998845 1.254931 2.305978 0.103337 -0.044433 -489205.000000 0 0 1
10.026620 -34.012753 -33.258514 48.616142 -1.284126 2.324171 0.083761 -0.035331 -498546.000000 0 0 1
10.429420 -33.232853 33.640849 48.424189 -1.266702 0.802777 0.065868 -0.020091 278117.000000 0 0 1
9.347620 -33.032553 32.749747 47.445479 -1.295025 0.808947 0.070713 -0.022212 73637.900000 0 0 1
9.675920 -32.121753 31.537286 46.043793 -1.278215 0.816273 0.076502 -0.025888 -121109.000000 0 0 1
9.589420 -30.775753 31.874116 45.332805 -1.268741 0.791029 0.062288 -0.026394 -85118.600000 0 0 1
9.851120 -29.823053 30.878726 44.044918 -1.251761 0.793894 0.089937 -0.025118 -703192.000000 0 0 1
9.187920 -28.472753 31.122816 43.171116 -1.258654 0.765671 0.089167 -0.027605 425070.000000 0 0 1
7.766120 -28.419153 31.055026 42.806256 -1.304039 0.759067 0.069339 -0.021639 720454.000000 0 0 1
6.988620 -28.967053 32.123670 43.816220 -1.334059 0.747860 0.057597 -0.005095 614021.000000 0 0 1
5.442920 -28.859453 31.848196 43.322061 -1.384385 0.744909 0.060230 -0.003515 769374.000000 0 0 1
4.840420 -29.884053 31.027026 43.349310 -1.410218 0.773107 0.056280 -0.003849 304353.000000 0 0 1
5.094820 -29.774753 29.614216 42.302422 -1.401326 0.795315 0.059837 -0.015906 -224317.000000 0 0 1
4.314120 -28.634653 28.858886 40.882640 -1.421260 0.787109 0.039019 -0.011784 299151.000000 0 0 1
2.925720 -28.931853 28.759836 40.899146 -1.470014 0.790923 0.061239 -0.015712 320529.000000 0 0 1
2.430920 -28.169053 27.702186 39.583027 -1.484712 0.795609 0.070454 -0.023417 13216.400000 0 0 1
1.036220 -28.636653 27.182506 39.497092 -1.534627 0.811770 0.065773 -0.021002 306783.000000 0 0 1
1.068120 -29.891253 26.477126 39.945789 -1.535078 0.846209 0.075009 -0.024140 137912.000000 0 0 1
1.018920 -30.971653 27.376746 41.349338 -1.537910 0.847200 0.095971 -0.029091 -521006.000000 0 0 1
1.494720 -32.339253 26.816276 42.037770 -1.524609 0.879016 0.096363 -0.032179 899942.000000 0 0 1
2.932720 -32.411853 26.739296 42.120292 -1.480559 0.883006 0.070186 -0.026005 856059.000000 0 0 1
3.437120 -32.235953 25.438306 41.207741 -1.464574 0.905467 0.066721 -0.037384 -189616.000000 0 0 1
4.956420 -32.014853 25.631956 41.309976 -1.417199 0.901443 0.068326 -0.022577 -121222.000000 0 0 1
5.638220 -31.964653 24.396696 40.604524 -1.396203 0.926249 0.067948 -0.043012 -128162.000000 0 0 1
6.889320 -31.346253 24.573226 40.421452 -1.354455 0.917351 0.068144 -0.039140 -556228.000000 0 0 1
7.877020 -31.563353 23.412866 40.080606 -1.326230 0.946971 0.075105 -0.041958 -516768.000000 0 0 1
8.932620 -30.663453 23.503906 39.654415 -1.287329 0.936366 0.070247 -0.032535 -652090.000000 0 0 1
9.847520 -30.756853 22.464816 39.339873 -1.260936 0.963019 0.053759 -0.032708 21958.000000 0 0 1
10.994620 -29.705053 22.595216 38.907784 -1.216305 0.951162 0.044682 -0.020766 238875.000000 0 0 1
12.026520 -30.026453 23.490696 39.975466 -1.189832 0.942672 0.053701 -0.017456 533225.000000 0 0 1
13.240020 -29.289953 23.268696 39.681629 -1.146253 0.944208 0.061135 -0.012341 1018900.000000 0 0 1
14.420520 -29.787653 24.168036 40.979869 -1.119941 0.940042 0.075027 -0.011826 70339.600000 0 0 1
14.319920 -29.474253 25.552626 41.553922 -1.118537 0.908503 0.060198 -0.013075 136369.000000 0 0 1
15.581020 -29.325653 26.156316 42.271917 -1.082415 0.903629 0.064479 -0.004150 -207144.000000 0 0 1
-11.104680 -14.213182 26.194596 31.803857 0.907566 0.603015 0.081053 -0.041635 -473270.000000 0 0 1
-9.761680 -14.070882 25.855046 31.012312 0.964277 0.585017 0.082638 -0.037987 -1194410.000000 0 0 1
-8.911380 -14.581882 26.827356 31.808033 1.022235 0.567189 0.095271 -0.048014 -899623.000000 0 0 1
-7.465380 -14.252882 26.513546 31.013620 1.088306 0.545438 0.112376 -0.035741 -322225.000000 0 0 1
-6.802380 -15.171482 25.568646 30.499211 1.149302 0.576569 0.106746 -0.034721 385373.000000 0 0 1
-7.132880 -14.848182 24.245056 29.311588 1.122962 0.596781 0.104276 -0.029970 -354149.000000 0 0 1
-6.633880 -15.974882 23.304306 29.022334 1.177196 0.638521 0.100745 -0.036563 96781.600000 0 0 1
-7.305280 -17.241782 23.286756 29.881753 1.170030 0.677253 0.112678 -0.036703 -214567.000000 0 0 1
-7.303980 -18.098482 24.440116 31.276548 1.187217 0.673858 0.115739 -0.034084 -486529.000000 0 0 1
-7.920380 -19.450882 24.157176 32.009973 1.184099 0.715635 0.107921 -0.032060 -1182090.000000 0 0 1
-9.294680 -19.469182 24.078766 32.329972 1.125388 0.730589 0.080361 -0.024319 -1376890.000000 0 0 1
-9.688880 -20.723382 23.560396 32.839385 1.133457 0.770671 0.068454 -0.024227 -707036.000000 0 0 1
-11.212480 -20.796282 23.570206 33.373038 1.076315 0.786588 0.040405 -0.013562 -519256.000000 0 0 1
-11.637880 -20.830882 24.954136 34.526436 1.061310 0.763017 0.043047 -0.015798 -501410.000000 0 0 1
-13.035880 -20.846982 25.001516 35.065747 1.011972 0.777043 0.057611 -0.017292 -461536.000000 0 0 1
-13.553980 -20.929482 26.418316 36.327414 0.996109 0.756521 0.064722 -0.020922 -488176.000000 0 0 1
-13.232180 -22.127882 26.998946 37.331981 1.031858 0.762354 0.075997 -0.012245 -228020.000000 0 0 1
-12.491580 -21.863282 28.149306 37.768056 1.051710 0.729781 0.079561 -0.014759 -247920.000000 0 0 1
-12.174580 -23.049882 29.089336 39.060298 1.084857 0.730668 0.065367 -0.012462 -124968.000000 0 0 1
-13.248880 -23.733482 29.707296 40.265797 1.061652 0.741021 0.064605 -0.004350 -114108.000000 0 0 1
-12.756580 -24.838582 30.425936 41.296768 1.096344 0.742526 0.060020 0.008077 420010.000000 0 0 1
-13.837680 -25.535202 31.314606 42.709864 1.074189 0.747790 0.054784 -0.013536 400697.000000 0 0 1
-13.924780 -24.866582 32.512131 43.235229 1.060323 0.719732 0.084687 -0.014193 -578347.000000 0 0 1
-14.892380 -25.362422 33.357835 44.472245 1.039854 0.722610 0.081852 -0.007979 -564350.000000 0 0 1
-14.730980 -24.669382 -33.285214 43.971419 1.032485 2.429466 0.082258 -0.011577 79992.900000 0 0 1
-14.894180 -23.264082 -33.184454 43.177102 1.001326 2.447393 0.092890 -0.016374 541824.000000 0 0 1
-16.126380 -22.686482 -33.656134 43.674615 0.952834 2.450595 0.104434 -0.021683 299799.000000 0 0 1
-16.274880 -21.161582 -33.296694 42.677326 0.915197 2.465776 0.095287 -0.027600 45320.100000 0 0 1
-16.507780 -20.893782 -31.927204 41.574070 0.902133 2.446446 0.092617 -0.028383 132428.000000 0 0 1
-16.636280 -19.508982 -31.746124 40.806649 0.864708 2.462216 0.072618 -0.032583 36384.400000 0 0 1
-16.513980 -19.092382 -30.252874 39.401358 0.857686 2.446217 0.080556 -0.030940 369530.000000 0 0 1
-17.709980 -19.390882 -29.524534 39.513894 0.830673 2.414626 0.078553 -0.030178 500706.000000 0 0 1
-17.640380 -19.062582 -28.140994 38.294655 0.824128 2.396248 0.066176 -0.034432 37827.000000 0 0 1
-16.833680 -20.078582 -27.277964 37.823400 0.873081 2.376319 0.064483 -0.020839 306105.000000 0 0 1
-15.429180 -19.961382 -27.377704 37.229760 0.912767 2.397011 0.063544 -0.028840 -128046.000000 0 0 1
-14.741880 -21.036982 -26.785014 37.112190 0.959560 2.377096 0.059838 -0.022004 -148215.000000 0 0 1
-13.252880 -21.050382 -27.151644 36.823487 1.008911 2.399929 0.089002 -0.021510 -914455.000000 0 0 1
-12.548180 -20.005482 -26.525964 35.514827 1.010590 2.414181 0.084038 -0.029262 653583.000000 0 0 1
-11.126780 -20.178082 -26.533014 35.142013 1.066857 2.426485 0.067011 -0.034623 1056890.000000 0 0 1
-10.432080 -21.377982 -25.761844 35.064498 1.116809 2.396019 0.084404 -0.031427 -654343.000000 0 0 1
-10.546180 -22.671282 -26.286234 36.279127 1.135392 2.381185 0.083190 -0.032327 298101.000000 0 0 1
-10.114480 -23.633882 -25.314184 36.078678 1.166417 2.348491 0.111380 -0.028978 -151051.000000 0 0 1
-10.370780 -25.067552 -25.800554 37.438000 1.178524 2.331117 0.109049 -0.027627 -744718.000000 0 0 1
-9.466980 -25.633922 -26.709724 38.211661 1.217019 2.344786 0.121531 -0.039290 -114692.000000 0 0 1
-9.868380 -26.850822 -27.367264 39.589376 1.218594 2.334053 0.114847 -0.029847 -306120.000000 0 0 1
-9.545480 -28.196042 -26.639234 39.947237 1.244367 2.300784 0.139658 -0.020644 -578637.000000 0 0 1
-10.238580 -28.288012 -25.459854 39.411221 1.223524 2.273136 0.110999 -0.028675 -213387.000000 0 0 1
-10.070280 -29.457002 -24.715064 39.748709 1.241388 2.241813 0.142902 -0.025956 -5457.800000 0 0 1
-11.109280 -29.491082 -23.554764 39.344211 1.210536 2.212654 0.142183 -0.028708 95377.200000 0 0 1
-10.770480 -28.596132 -22.537364 37.969393 1.210588 2.206280 0.123747 -0.032351 156069.000000 0 0 1
-11.421480 -27.339122 -22.752864 37.357337 1.175065 2.225671 0.115671 -0.028820 -13422.000000 0 0 1
-11.337580 -26.266472 -21.645564 35.874764 1.163318 2.218510 0.129331 -0.020362 -61805.800000 0 0 1
-12.021880 -26.520762 -20.428164 35.569457 1.145201 2.182567 0.110663 -0.017543 137698.000000 0 0 1
-12.125880 -25.353332 -19.567364 34.244856 1.124679 2.179002 0.105356 -0.010082 -504481.000000 0 0 1
-12.863880 -25.594702 -18.246564 33.963293 1.105071 2.137962 0.122549 -0.016806 -414541.000000 0 0 1
-14.234680 -25.801982 -18.450464 34.767629 1.066657 2.130198 0.142295 -0.023928 -187772.000000 0 0 1
-14.858880 -26.087562 -17.209264 34.604999 1.053047 2.091287 0.137718 -0.029537 460350.000000 0 0 1
-16.384980 -26.364452 -17.148764 35.463108 1.014732 2.075521 0.136106 -0.033247 -150883.000000 0 0 1
-17.276680 -25.252782 -17.165164 35.083180 0.970788 2.082049 0.131233 -0.026103 440147.000000 0 0 1
-18.633580 -25.545432 -16.891464 35.848305 0.940591 2.061439 0.132467 -0.022662 204046.000000 0 0 1
-19.389580 -26.315292 -17.995164 37.313219 0.935785 2.074044 0.115023 -0.017004 -1311300.000000 0 0 1
-19.230980 -27.740552 -18.062664 38.283530 0.964619 2.062142 0.107287 -0.026604 150966.000000 0 0 1
-19.824880 -28.449742 -16.961764 38.602009 0.962195 2.025728 0.119442 -0.029962 -230019.000000 0 0 1
-21.338780 -28.701092 -16.975464 39.588667 0.931479 2.013956 0.104201 -0.023062 -236865.000000 0 0 1
-21.682680 -29.714942 -17.894664 40.906422 0.940421 2.023561 0.091839 -0.024498 -241669.000000 0 0 1
-22.940080 -30.316582 -17.704064 41.937767 0.923031 2.006613 0.091484 -0.017940 117199.000000 0 0 1
-23.371380 -31.358502 -18.796164 43.392083 0.930312 2.018804 0.071572 -0.020609 -161752.000000 0 0 1
-22.725980 -32.566212 -18.601464 43.852512 0.961522 2.008855 0.071525 -0.021855 14660.100000 0 0 1
-22.972380 -33.449532 -19.697364 45.106403 0.969000 2.022709 0.059278 -0.013949 29676.200000 0 0 1
-22.340180 33.265847 -19.384764 44.513698 -0.979410 2.021366 0.060358 -0.014019 301833.000000 0 0 1
-23.092380 32.497200 -18.440564 43.924713 -0.952994 2.004046 0.055671 -0.013810 310029.000000 0 0 1
-22.214280 31.461879 -18.092164 42.551739 -0.956008 2.009957 0.049146 -0.020010 -244672.000000 0 0 1
-22.894680 30.215579 -17.613064 41.801527 -0.922378 2.005729 0.058497 -0.029558 -331831.000000 0 0 1
-23.635280 30.340369 -16.427764 41.821477 -0.908989 1.974478 0.043370 -0.025368 229600.000000 0 0 1
-24.397380 29.165369 -16.058864 41.276362 -0.874181 1.970404 0.039499 -0.017203 136790.000000 0 0 1
-23.695280 27.806959 -15.954564 39.865291 -0.865064 1.982544 0.042179 -0.023714 -309875.000000 0 0 1
-23.228980 27.247119 -17.153364 39.701750 -0.864835 2.017567 0.032724 -0.025696 61556.200000 0 0 1
-22.352780 26.147039 -16.945564 38.346663 -0.863472 2.028517 0.043220 -0.026009 -27888.700000 0 0 1
-21.654180 25.755849 -18.242064 38.275843 -0.871698 2.067573 0.049155 -0.024316 -710548.000000 0 0 1
-21.355380 24.383109 -18.232164 37.188709 -0.851498 2.083185 0.054499 -0.030254 250661.000000 0 0 1
-20.632880 23.907179 -19.376364 37.050134 -0.858780 2.121136 0.051966 -0.019708 -24989.600000 0 0 1
-19.163380 24.292239 -19.561564 36.606049 -0.902880 2.134571 0.050379 -0.027286 -1132860.000000 0 0 1
-18.355380 23.893339 -18.457164 35.333816 -0.915735 2.120419 0.066928 -0.029994 406472.000000 0 0 1
-17.062780 24.478399 -18.530764 35.124346 -0.962050 2.126541 0.085036 -0.040136 184689.000000 0 0 1
-16.998280 25.714049 -17.616264 35.503332 -0.986692 2.089997 0.078301 -0.043370 580326.000000 0 0 1
-18.020280 26.715479 -17.949764 36.886872 -0.977373 2.079009 0.062770 -0.034354 661196.000000 0 0 1
-17.890180 27.858459 -17.138364 37.281038 -0.999937 2.048462 0.076740 -0.043438 54725.300000 0 0 1
-19.077280 28.864149 -17.301664 38.683709 -0.986773 2.034495 0.067188 -0.037681 273150.000000 0 0 1
-19.201680 29.516459 -18.626764 39.835690 -0.994041 2.057359 0.061008 -0.039325 51746.800000 0 0 1
-19.756380 28.678459 -19.597364 39.960296 -0.967564 2.083369 0.056356 -0.035099 -533131.000000 0 0 1
-19.821380 29.402989 -20.938264 41.180503 -0.977646 2.104181 0.054526 -0.038222 -145075.000000 0 0 1
-20.774780 30.424449 -21.013664 42.412412 -0.971686 2.089161 0.054161 -0.031925 -149124.000000 0 0 1
-21.026280 30.575919 -22.389064 43.338914 -0.968391 2.113676 0.055998 -0.030071 85951.200000 0 0 1
-21.700280 31.889939 -22.704864 44.759147 -0.973296 2.102808 0.049577 -0.025225 -274117.000000 0 0 1
-20.749180 32.910573 -22.623664 45.005161 -1.008272 2.097505 0.041224 -0.023120 -144209.000000 0 0 1
-20.954580 33.961700 -23.540364 46.331849 -1.017966 2.103752 0.044469 -0.013342 351005.000000 0 0 1
-19.871880 -32.956792 -23.491964 45.087849 1.028198 2.118849 0.065231 -0.012836 532740.000000 0 0 1
-19.721280 -32.207762 -22.291764 43.854208 1.021371 2.104024 0.066635 -0.018713 139900.000000 0 0 1
-19.248280 -32.868722 -21.085364 43.536671 1.041024 2.076374 0.071825 -0.027516 -241811.000000 0 0 1
-19.033180 -31.805192 -19.972264 42.103723 1.031532 2.065032 0.095597 -0.031413 556652.000000 0 0 1
-17.833280 -31.065112 -20.272364 41.158666 1.049668 2.085804 0.096666 -0.031556 669675.000000 0 0 1
-17.619380 -30.014732 -19.390964 39.841388 1.039972 2.079109 0.105661 -0.033235 -122570.000000 0 0 1
-16.391280 -29.132752 -19.676064 38.788385 1.058300 2.102807 0.120562 -0.031256 160386.000000 0 0 1
-15.142080 -29.768732 -19.530864 38.689981 1.100247 2.099951 0.135356 -0.035411 52217.900000 0 0 1
-14.070680 -28.841492 -19.733964 37.672869 1.116906 2.122131 0.124577 -0.038805 -27294.900000 0 0 1
-12.709480 -29.571902 -19.876764 37.830068 1.164882 2.124008 0.151098 -0.041948 107267.000000 0 0 1
-12.128280 -30.247632 -18.782564 37.613816 1.189457 2.093648 0.146330 -0.037261 32266.900000 0 0 1
-11.448980 -29.342072 -17.939464 36.247217 1.198775 2.088539 0.127054 -0.029049 -289853.000000 0 0 1
-10.800480 -30.090782 -16.698664 36.068697 1.226188 2.052137 0.118027 -0.018158 -97664.300000 0 0 1
-11.696080 -30.698122 -15.819964 36.461545 1.206773 2.019592 0.142091 -0.032903 -235291.000000 0 0 1
-12.187480 -31.981472 -16.167064 37.851330 1.206706 2.012102 0.151268 -0.036868 13419.000000 0 0 1
-13.117280 -32.569752 -15.089564 38.217100 1.187926 1.976688 0.149098 -0.042636 41986.800000 0 0 1
-12.405580 -32.985262 -13.928264 37.893568 1.211066 1.947183 0.144128 -0.041523 1002950.000000 0 0 1
-13.369580 -33.530992 -12.986064 38.362885 1.191391 1.916125 0.146804 -0.042542 814182.000000 0 0 1
-12.695780 -34.016562 -11.647664 38.131056 1.213584 1.881222 0.129050 -0.039379 417073.000000 0 0 1
-12.147380 -32.915862 -10.884264 36.735269 1.217258 1.871601 0.106357 -0.034560 65561.800000 0 0 1
-11.716980 -33.381602 -9.607064 36.659442 1.233230 1.835955 0.110961 -0.033787 -206162.000000 0 0 1
-10.375380 -32.704402 -9.277664 35.542952 1.263592 1.834882 0.092104 -0.038273 443494.000000 0 0 1
-9.256280 -33.261392 -9.978964 35.938540 1.299375 1.852162 0.066900 -0.037386 666863.000000 0 0 1
-8.028080 -32.629062 -9.597064 34.945807 1.329547 1.848998 0.051609 -0.037969 759330.000000 0 0 1
-6.773980 -33.340012 -10.150564 35.503199 1.370346 1.860748 0.036501 -0.040908 100666.000000 0 0 1
-6.365680 33.585903 -9.469764 35.471273 -1.383484 1.841044 0.026259 -0.022756 -48849.100000 0 0 1
-5.228080 32.934429 -9.997164 34.813112 -1.413368 1.862064 0.025184 -0.016128 72619.200000 0 0 1
-4.566180 31.986689 -9.010064 33.543696 -1.429002 1.842743 0.026977 -0.023524 -434796.000000 0 0 1
-4.022980 32.605261 -7.916064 33.792773 -1.448032 1.807247 0.048488 -0.028860 -408864.000000 0 0 1
-3.293380 31.730019 -7.110764 32.683382 -1.467373 1.790115 0.044815 -0.034564 -200066.000000 0 0 1
-3.024680 32.469951 -5.757164 33.114821 -1.477911 1.745539 0.058196 -0.028812 -262212.000000 0 0 1
-1.942180 33.386230 -5.890564 33.957491 -1.512689 1.745147 0.042528 -0.023445 -2277.480000 0 0 1
-1.540680 33.933978 -4.651964 34.285994 -1.525425 1.706897 0.051161 -0.024407 99231.700000 0 0 1
-0.548280 33.066317 -3.795164 33.287914 -1.554217 1.685055 0.052901 -0.032427 -68461.100000 0 0 1
0.741620 33.141455 -4.392964 33.439560 1.548423 1.702547 0.050370 -0.031438 209054.000000 0 0 1
1.594420 32.177012 -3.705964 32.428945 1.521285 1.685326 0.048399 -0.033685 105591.000000 0 0 1
3.030720 32.248714 -4.224264 32.665108 1.477092 1.700480 0.050327 -0.020751 -430359.000000 0 0 1
3.736420 33.421453 -3.883664 33.853172 1.459462 1.685770 0.047285 -0.016548 -893186.000000 0 0 1
5.113820 33.324540 -4.015164 33.952875 1.418529 1.689331 0.065360 -0.011971 -300721.000000 0 0 1
5.873720 -33.455812 -3.548264 34.152337 -1.397001 1.674879 0.069869 -0.012079 130671.000000 0 0 1
5.738420 -32.317352 -4.383664 33.114305 -1.395063 1.703566 0.067743 -0.015650 -109106.000000 0 0 1
6.082420 -31.104102 -3.715564 31.910287 -1.377683 1.687499 0.061684 -0.020538 113791.000000 0 0 1
5.829120 -29.901742 -4.648664 30.817250 -1.378268 1.722221 0.052270 -0.015524 -12733.700000 0 0 1
6.701620 -29.934462 -5.763664 31.212234 -1.350552 1.756523 0.067293 -0.017593 45034.700000 0 0 1
6.543020 -28.816092 -6.621964 30.282481 -1.347521 1.791251 0.065650 -0.013842 -342356.000000 0 0 1
7.006420 -27.408232 -6.211664 28.963527 -1.320524 1.786940 0.066458 -0.011867 -153790.000000 0 0 1
6.272220 -26.736652 -5.222364 27.954649 -1.340370 1.758716 0.059682 -0.010408 -367452.000000 0 0 1
6.755120 -25.464242 -4.888564 26.794726 -1.311490 1.754269 0.058464 -0.008434 226806.000000 0 0 1
5.867920 -24.964982 -3.718664 25.913535 -1.339941 1.714796 0.055840 -0.013206 810601.000000 0 0 1
4.566520 -24.500382 -4.058764 25.250651 -1.386525 1.732236 0.044768 -0.018112 46704.700000 0 0 1
3.949020 -23.827082 -2.974364 24.334573 -1.406553 1.693331 0.046894 -0.018410 47634.400000 0 1 0
2.759820 -23.021982 -3.512164 23.451302 -1.451488 1.721126 0.052689 -0.023184 -630336.000000 0 1 0
1.758020 -23.774582 -4.088064 24.187469 -1.496985 1.740627 0.052096 -0.023884 -665979.000000 0 1 0
0.625020 -22.927482 -4.290764 23.333897 -1.543542 1.755734 0.043751 -0.025920 538245.000000 0 1 0
-15.513280 23.292618 18.037016 33.294772 -0.983244 0.998294 0.018579 -0.001627 -23951.200000 0 0 1
-15.473780 22.704918 19.323616 33.590970 -0.972583 0.957872 0.032281 0.000875 301593.000000 0 0 1
-15.242780 23.642318 20.387116 34.740985 -0.998139 0.943656 0.045778 -0.005290 -925275.000000 0 0 1
-15.205580 23.030218 21.844116 35.196108 -0.987253 0.901238 0.068114 -0.013729 -705203.000000 0 0 1
-14.195280 22.168118 22.249416 34.466911 -1.001237 0.869080 0.070158 -0.008122 -26786.800000 0 0 1
-12.865880 22.658418 22.175516 34.215322 -1.054376 0.865688 0.034965 -0.016670 -14394.600000 0 0 1
-12.364380 23.568318 23.354796 35.408897 -1.087648 0.850544 0.069154 -0.017673 -457270.000000 0 0 1
-12.303580 22.896118 24.594466 35.784047 -1.077705 0.813027 0.053193 -0.009091 83823.600000 0 0 1
-11.933880 23.911018 25.520016 36.951664 -1.107873 0.808433 0.074383 -0.010781 94426.700000 0 0 1
-11.429980 23.263818 26.852886 37.321939 -1.114117 0.767724 0.069471 -0.010977 -486564.000000 0 0 1
-10.106880 22.849918 26.784086 36.628609 -1.154351 0.750667 0.024800 -0.000318 -946356.000000 0 0 1
-9.702380 22.109818 27.868726 36.873379 -1.157273 0.713929 0.019634 -0.003537 -500816.000000 0 0 1
-8.171880 22.070818 28.105266 36.657968 -1.216190 0.697128 0.017699 -0.009280 350092.000000 0 0 1
-7.544680 23.314218 28.465836 37.560335 -1.257823 0.710755 0.010324 -0.009300 4462.010000 0 0 1
-7.371680 24.245518 27.460636 37.366741 -1.275635 0.745284 0.009237 -0.002695 -513096.000000 0 0 1
-6.344780 25.354618 27.832456 38.180603 -1.325590 0.753982 0.015855 -0.009435 -203794.000000 0 0 1
-5.060780 24.879118 28.072736 37.850502 -1.370120 0.735234 0.013382 -0.008270 -610572.000000 0 0 1
-4.139680 25.936818 28.365616 38.658293 -1.412525 0.746968 0.030420 -0.001018 627138.000000 0 0 1
-2.657880 25.492618 28.243086 38.139347 -1.466911 0.736947 0.038238 -0.003389 -108698.000000 0 0 1
-2.303180 25.259918 26.928076 36.993099 -1.479869 0.755511 0.043619 -0.004328 -413077.000000 0 0 1
-0.958480 24.846018 26.945606 36.664819 -1.532239 0.745252 0.060103 0.000703 66434.700000 0 0 1
-0.405480 24.656918 25.473136 35.454318 -1.554353 0.769185 0.054043 -0.003823 -3340.260000 0 0 1
-0.694780 23.433018 24.857356 34.168365 -1.541155 0.756131 0.051060 0.000917 -208259.000000 0 0 1
-0.257680 23.272018 23.542656 33.104529 -1.559724 0.779648 0.048594 0.004393 -247131.000000 0 0 1
-0.569380 21.960118 22.881716 31.719771 -1.544874 0.765017 0.037994 0.003420 348453.000000 0 0 1
0.285220 20.906318 23.349606 31.342616 1.557154 0.730292 0.056048 0.002757 272123.000000 0 0 1
-0.034180 19.695618 22.720716 30.069078 -1.569061 0.714200 0.063131 -0.001773 -380983.000000 0 0 1
0.966420 18.622418 23.053116 29.650878 1.518947 0.680139 0.068470 0.001264 -623772.000000 0 0 1
2.197920 18.720718 22.401116 29.276375 1.453926 0.699506 0.058787 -0.002761 -469303.000000 0 0 1
2.975420 17.543518 22.499716 28.685630 1.402793 0.669141 0.051122 -0.007314 1179270.000000 0 0 1
4.465520 17.699218 21.969916 28.563620 1.323654 0.693275 0.057944 -0.005465 1115560.000000 0 0 1
5.325720 18.507418 22.729616 29.791328 1.290605 0.702915 0.054346 -0.005147 -440161.000000 0 0 1
6.464620 18.828118 21.955416 29.636626 1.240059 0.736506 0.054869 -0.012129 -110102.000000 0 0 1
7.581020 19.457318 22.832116 30.941309 1.199267 0.740818 0.062285 -0.014565 -461763.000000 0 0 1
7.264220 20.677618 23.453246 32.099650 1.232956 0.751539 0.052694 -0.006666 -188183.000000 0 0 1
7.057520 21.790418 22.609716 32.184315 1.257576 0.791882 0.065548 -0.013318 -643531.000000 0 0 1
5.934520 22.683418 23.107546 32.919821 1.314908 0.792687 0.050012 -0.006275 -519163.000000 0 0 1
5.754120 23.874918 22.351416 33.207038 1.334296 0.832414 0.052329 -0.016904 111985.000000 0 0 1
4.767320 24.749818 22.845216 34.017418 1.380506 0.834465 0.026982 -0.006946 -452377.000000 0 0 1
4.481020 25.954618 21.952016 34.287209 1.399833 0.875987 0.053313 -0.015559 24550.800000 0 0 1
3.978320 25.784818 20.627016 33.258948 1.417714 0.901806 0.069641 -0.017547 499967.000000 0 0 1
2.696620 25.141718 20.522516 32.566108 1.463948 0.889011 0.058676 -0.017254 92222.100000 0 0 1
2.071920 25.464718 19.174216 31.943626 1.489611 0.926981 0.058662 -0.022960 -747281.000000 0 0 1
1.237520 26.623818 19.264516 32.885874 1.524348 0.944931 0.064671 -0.026865 244093.000000 0 0 1
0.750620 26.916218 17.992716 32.384935 1.542916 0.981725 0.075944 -0.026148 -528441.000000 0 0 1
-0.257680 28.050718 17.967516 33.312772 -1.561610 1.001122 0.055301 -0.012367 -654115.000000 0 0 1
0.254120 29.301818 18.259216 34.526223 1.562124 1.013551 0.079310 -0.012489 -310819.000000 0 0 1
-0.697480 30.325218 18.444316 35.500677 -1.547800 1.024474 0.052023 -0.004496 -294794.000000 0 0 1
-0.107580 31.656118 18.924816 36.881839 -1.567398 1.031980 0.054140 0.003262 -204169.000000 0 0 1
0.477220 31.586418 20.218216 37.506077 1.555689 1.001470 0.062791 -0.008631 100484.000000 0 0 1
0.765020 32.855418 20.694216 38.837022 1.547516 1.008834 0.058506 -0.010790 -131151.000000 0 0 1
1.392620 32.701318 22.109416 39.498631 1.528236 0.976711 0.059949 -0.025151 149054.000000 0 0 1
0.395620 32.634118 23.098086 39.983293 1.558674 0.954896 0.062633 -0.016207 449996.000000 0 0 1
1.073720 32.631518 24.342496 40.725004 1.537904 0.930132 0.069041 -0.027182 195980.000000 0 0 1
0.083320 32.394418 25.489646 41.220472 1.568224 0.904125 0.068955 -0.011586 209259.000000 0 0 1
-0.903580 33.405518 25.719146 42.168940 -1.543754 0.914853 0.070507 -0.006845 885375.000000 0 0 1
-1.791280 33.223818 26.829336 42.741596 -1.516933 0.892188 0.083255 -0.005536 556038.000000 0 0 1
-1.097680 33.420618 28.231966 43.762844 -1.537964 0.869626 0.106358 -0.023803 -53011.900000 0 0 1
-0.037580 32.562718 28.613976 43.348490 -1.569642 0.849856 0.087459 -0.018558 311193.000000 0 0 1
0.572220 32.923918 29.824066 44.427319 1.553418 0.834835 0.084336 -0.020375 -552784.000000 0 0 1
1.623920 31.933818 30.448916 44.153622 1.519987 0.809842 0.072635 -0.011640 905297.000000 0 0 1
2.924420 31.988718 29.860456 43.857464 1.479629 0.821871 0.046090 -0.005906 558113.000000 0 0 1
2.926320 31.554418 28.510266 42.627220 1.478322 0.838166 0.043857 -0.009150 15871.500000 0 0 1
4.419320 31.311018 28.024716 42.252750 1.430580 0.845625 0.013490 -0.004136 1124130.000000 0 0 1
5.011720 30.191218 28.729946 41.976622 1.406297 0.816978 0.018756 -0.008856 381896.000000 0 0 1
6.389520 30.177118 28.378866 41.914728 1.362144 0.827033 0.018937 -0.020082 243242.000000 0 0 1
7.110520 29.068118 29.194556 41.807141 1.330892 0.797756 0.023935 -0.015130 -237531.000000 0 0 1
6.942120 29.125218 30.573136 42.792382 1.336808 0.774955 0.036974 -0.021765 242037.000000 0 0 1
7.611520 28.003618 31.116726 42.548660 1.305403 0.750540 0.032319 -0.024872 8431.740000 0 0 1
7.574120 28.081718 32.642372 43.720414 1.307348 0.727835 0.053886 -0.036577 360033.000000 0 0 1
6.259120 27.972018 33.199764 43.861540 1.350659 0.712206 0.068014 -0.037031 338127.000000 0 0 1
6.227720 27.849618 -33.420654 43.946853 1.350796 2.434847 0.097920 -0.042655 -27904.100000 0 0 1
6.295920 26.444618 -32.868744 42.653379 1.337068 2.450580 0.105795 -0.041822 -56308.900000 0 0 1
7.596820 25.957418 -33.093454 42.739630 1.286083 2.456410 0.077729 -0.037897 -128638.000000 0 0 1
7.808120 24.652118 -32.619584 41.626085 1.264060 2.471289 0.101780 -0.040783 -293585.000000 0 0 1
9.242320 24.189318 -32.886804 41.857920 1.205831 2.474586 0.073256 -0.032569 -388494.000000 0 0 1
9.416220 24.087818 33.770632 42.536381 1.198149 0.653561 0.047818 -0.018517 455492.000000 0 0 1
10.553520 23.287718 33.385911 42.051321 1.145301 0.653547 0.060443 -0.036088 351649.000000 0 0 1
10.641020 21.721718 33.513899 41.330930 1.115278 0.625164 0.067015 -0.034629 -999764.000000 0 0 1
9.824920 20.960918 32.643028 40.018201 1.132480 0.616850 0.057669 -0.029955 -60532.600000 0 0 1
9.499420 19.701818 33.169378 39.731703 1.121523 0.582965 0.064570 -0.030007 468475.000000 0 0 1
8.346920 19.791618 -33.783434 40.033731 1.171690 2.575260 0.104049 -0.041085 -336550.000000 0 0 1
8.646220 20.333718 -32.539974 39.332774 1.168743 2.545079 0.104940 -0.038286 -708116.000000 0 0 1
7.532220 20.406518 -31.710154 38.453793 1.217201 2.540344 0.117863 -0.045980 -558247.000000 0 0 1
7.667320 21.021918 -30.352754 37.709396 1.221060 2.506324 0.132839 -0.056500 -410810.000000 0 0 1
8.011120 22.343418 -30.410894 38.577569 1.226529 2.478846 0.141973 -0.050887 -91152.000000 0 0 1
8.340320 22.807518 -29.112874 37.911783 1.220219 2.446370 0.104256 -0.044351 -1189.080000 0 0 1
9.858020 22.990218 -28.867334 38.197561 1.165718 2.427576 0.101183 -0.044748 186159.000000 0 0 1
10.456220 21.717318 -28.806284 37.560304 1.122083 2.444846 0.093974 -0.043001 512754.000000 0 0 1
11.895820 21.788518 -28.764944 37.995685 1.071054 2.429595 0.078667 -0.039165 1489530.000000 0 0 1
12.658920 20.411818 -28.650504 37.386387 1.015673 2.443913 0.079857 -0.043659 90852.500000 0 0 1
12.588420 19.622818 -29.892254 37.908708 1.000406 2.479216 0.072660 -0.039471 839909.000000 0 0 1
11.321720 18.963618 -30.147874 37.372376 1.032569 2.509324 0.109942 -0.045492 588500.000000 0 0 1
11.369520 17.968818 -31.384854 37.909807 1.006653 2.546118 0.101699 -0.047163 -264105.000000 0 0 1
12.018020 16.745818 -31.020184 37.243886 0.948308 2.555112 0.098657 -0.038856 183511.000000 0 0 1
12.309620 15.775118 -32.053074 37.785985 0.908172 2.583524 0.085517 -0.029006 95982.800000 0 0 1
13.378520 16.057018 -33.133804 39.174757 0.876144 2.578849 0.062695 -0.008012 -312328.000000 0 0 1
12.959820 17.135918 -33.888704 40.125315 0.923278 2.576561 0.071496 -0.021756 -85595.200000 0 0 1
13.547420 17.276318 32.887768 39.542496 0.905788 0.588621 0.071204 -0.019348 -75862.800000 0 0 1
12.576120 16.878918 31.767156 38.107858 0.930452 0.585182 0.084639 -0.034967 -470138.000000 0 0 1
13.006520 17.419318 30.497126 37.452328 0.929428 0.619288 0.072539 -0.030744 141459.000000 0 0 1
12.163320 17.268918 29.357676 36.166767 0.957158 0.623687 0.073966 -0.032625 -50150.800000 0 0 1
10.730220 17.820318 29.343616 35.968724 1.028809 0.616669 0.067496 -0.030842 500696.000000 0 0 1
9.862320 17.081718 30.255236 36.116890 1.047189 0.577732 0.074278 -0.031539 760339.000000 0 0 1
8.470820 17.398818 30.120786 35.801332 1.117714 0.571055 0.082072 -0.024470 485864.000000 0 0 1
7.699420 16.535718 31.088466 36.044469 1.135026 0.530601 0.100407 -0.026956 -458327.000000 0 0 1
7.920820 16.791218 32.472064 37.404803 1.130024 0.519383 0.108316 -0.031906 -103945.000000 0 0 1
7.535820 15.723118 33.271148 37.562938 1.123859 0.482702 0.139881 -0.041342 -289734.000000 0 0 1
7.632620 15.861518 -33.240854 37.613814 1.122299 2.654592 0.146245 -0.048609 247668.000000 0 0 1
6.659820 16.751218 -32.674014 37.316856 1.192385 2.637438 0.139744 -0.051575 330556.000000 0 0 1
6.666620 16.796318 -31.289854 36.133296 1.192957 2.617856 0.143058 -0.057026 -370510.000000 0 0 1
5.463620 17.538818 -30.680604 35.759764 1.268808 2.602090 0.146605 -0.059491 -976936.000000 0 0 1
5.547920 18.012518 -29.338944 34.871247 1.272013 2.570574 0.139524 -0.068957 442434.000000 0 0 1
4.609220 19.050318 -29.023334 35.021614 1.333409 2.547624 0.137702 -0.073751 332725.000000 0 0 1
3.091620 18.807118 -29.044804 34.739983 1.407868 2.560863 0.140851 -0.074527 -1553770.000000 0 0 1
2.640720 17.875718 -28.062994 33.377333 1.424130 2.569519 0.148478 -0.069634 480573.000000 0 0 1
1.260420 17.535818 -28.211634 33.241388 1.499043 2.584300 0.141230 -0.066272 922534.000000 0 0 1
0.243920 18.638718 -27.766384 33.442987 1.557710 2.550371 0.133938 -0.067017 -618382.000000 0 0 1
0.013720 18.706418 -26.383614 32.342315 1.570063 2.524841 0.140189 -0.068066 688922.000000 0 0 1
-0.921080 19.796518 -26.101584 32.772598 -1.524302 2.492190 0.136368 -0.062621 385680.000000 0 0 1
-1.244880 20.143018 -24.591064 31.812126 -1.509073 2.454367 0.129321 -0.061459 -26829.000000 0 0 1
-2.344780 19.354718 -24.170464 31.053413 -1.450236 2.462832 0.116019 -0.050018 -145929.000000 0 0 1
-2.826680 19.938018 -23.003064 30.572138 -1.429962 2.422524 0.111003 -0.043440 -202153.000000 0 0 1
-3.819980 19.020418 -22.264964 29.531291 -1.372597 2.424843 0.065408 -0.032917 1820390.000000 0 0 1
-5.214680 19.291418 -22.642264 30.199732 -1.306795 2.418481 0.061454 -0.025654 1891910.000000 0 0 1
-6.136180 18.283018 -22.193064 29.401591 -1.246988 2.426184 0.055391 -0.035230 647796.000000 0 0 1
-7.583380 18.804118 -22.000564 29.918679 -1.187463 2.396973 0.081733 -0.028286 -220863.000000 0 0 1
-7.719180 19.691718 -20.958264 29.775801 -1.197204 2.351626 0.054152 -0.023954 -105515.000000 0 0 1
-7.941480 21.026418 -21.315664 30.976360 -1.209669 2.329701 0.064466 -0.033816 -178733.000000 0 0 1
-8.313280 21.946218 -20.145464 30.928738 -1.208696 2.280160 0.065608 -0.032812 -31819.500000 0 0 1
-7.398880 22.169518 -19.074864 30.167555 -1.248679 2.255311 0.075605 -0.035435 -61085.800000 0 0 1
-7.746080 23.288218 -18.352764 30.645828 -1.249690 2.212881 0.093850 -0.035357 -106039.000000 0 0 1
-6.900080 23.421318 -17.063764 29.788274 -1.284295 2.180757 0.099834 -0.034421 551054.000000 0 0 1
-5.532780 23.699218 -17.322064 29.871701 -1.341446 2.189380 0.094888 -0.035873 -212936.000000 0 0 1
-4.822380 23.905818 -16.115264 29.230895 -1.371744 2.154729 0.089213 -0.025318 1358910.000000 0 0 1
-3.256280 24.092718 -16.235864 29.234666 -1.436454 2.159596 0.083828 -0.020849 1229790.000000 0 0 1
-2.857580 25.344818 -16.674764 30.472501 -1.458522 2.149820 0.056153 -0.020024 137779.000000 0 0 1
-1.451480 25.434118 -16.845264 30.541187 -1.513790 2.155028 0.055247 -0.028487 386008.000000 0 0 1
-0.977580 26.856818 -17.201864 31.908439 -1.534413 2.140165 0.026894 -0.037933 -46567.500000 0 0 1
-1.636580 27.302818 -18.356564 32.940639 -1.510926 2.161881 0.036538 -0.038716 22199.800000 0 0 1
-1.228680 28.628618 -18.618964 34.172697 -1.527905 2.147006 0.056328 -0.045737 -602218.000000 0 0 1
-2.308580 29.516818 -19.229264 35.303494 -1.492743 2.146809 0.101989 -0.045427 110100.000000 0 0 1
-3.290380 30.028718 -18.346764 35.343376 -1.461657 2.116595 0.075606 -0.036583 -115428.000000 0 0 1
-4.509380 29.313418 -18.273664 34.835869 -1.418160 2.123000 0.041018 -0.044618 147520.000000 0 0 1
-5.558580 30.228518 -17.567064 35.401453 -1.388943 2.090041 0.080725 -0.033279 235050.000000 0 0 1
-6.094380 31.334918 -18.288564 36.789810 -1.378703 2.091061 0.118391 -0.036112 213694.000000 0 0 1
-5.563580 32.513118 -17.799364 37.481644 -1.401320 2.065626 0.106933 -0.060447 -394695.000000 0 0 1
-6.433980 33.699318 -18.190864 38.832302 -1.382144 2.058328 0.107134 -0.036944 981668.000000 0 0 1
-7.748480 33.658418 -17.570064 38.750938 -1.344529 2.041384 0.125385 -0.056897 1213510.000000 0 0 1
-8.523180 -33.306253 -17.973164 38.794146 1.320269 2.052507 0.171711 -0.051835 64734.600000 0 0 1
30.122220 -20.635982 -26.097554 44.880667 -0.600639 2.191352 0.047864 -0.001361 211415.000000 0 0 1
29.419720 -21.597082 -25.323654 44.421181 -0.633249 2.177400 0.055858 -0.002726 -217423.000000 0 0 1
28.175320 -21.866782 -25.930894 44.095534 -0.659995 2.199457 0.058090 -0.004488 151975.000000 0 0 1
27.554720 -23.260882 -25.533894 44.184963 -0.701100 2.186933 0.062998 -0.001635 557921.000000 0 0 1
28.125720 -24.430182 -26.190164 45.539155 -0.715197 2.183539 0.043431 0.014804 -541907.000000 0 0 1
29.464120 -24.748482 -25.977944 46.427097 -0.698632 2.164630 0.049117 0.012497 -559776.000000 0 0 1
29.768420 -26.151292 -26.486084 47.660902 -0.720804 2.160024 0.048174 -0.001417 -89178.400000 0 0 1
29.248620 -27.105732 -25.623994 47.400333 -0.747391 2.141931 0.070666 -0.019780 -454922.000000 0 0 1
29.503320 -28.420332 -26.097694 48.572120 -0.766704 2.138026 0.054248 -0.016068 142353.000000 0 0 1
28.454620 -29.198662 -26.938054 48.866001 -0.798303 2.154674 0.063747 -0.011046 -137161.000000 0 0 1
28.187420 -28.654052 -28.262744 49.136219 -0.793607 2.183635 0.038246 -0.016978 533427.000000 0 0 1
29.251620 -28.694172 -29.246244 50.342384 -0.775778 2.190688 0.019711 -0.015491 361847.000000 0 0 1
29.580620 -30.064082 -29.926874 51.715374 -0.793504 2.187911 0.032137 -0.016269 -510231.000000 0 0 1
30.256720 -31.066012 -29.131514 52.241854 -0.798595 2.162322 0.044509 -0.016135 683109.000000 0 0 1
31.585220 -30.893762 -28.636104 52.650519 -0.774332 2.145862 0.046689 -0.013363 769613.000000 0 0 1
32.682720 -30.577272 -29.691414 53.709495 -0.752128 2.156535 0.034869 -0.009200 -521583.000000 0 0 1
32.488420 -29.267402 -30.189474 53.136453 -0.733288 2.175052 0.036039 -0.017093 -692611.000000 0 0 1
33.629420 -28.867242 -30.882944 54.018625 -0.709346 2.179384 0.034430 -0.009334 -383688.000000 0 0 1
33.579420 -27.455782 -31.541364 53.630729 -0.685403 2.199530 0.030457 -0.000848 -48177.400000 0 0 1
33.430420 -26.393032 -30.656314 52.478517 -0.668300 2.194652 0.018891 0.001747 895591.000000 0 0 1
32.119420 -26.148472 -30.075224 51.185143 -0.683281 2.198858 0.023660 0.000347 944731.000000 0 0 1
31.960720 -24.765382 -29.375234 49.977156 -0.659228 2.199100 0.021762 0.003112 -9716.460000 0 0 1
32.756120 -24.579482 -28.207294 49.726912 -0.643743 2.173952 0.021216 0.001589 155047.000000 0 0 1
32.755820 -23.241882 -27.733864 48.808770 -0.617106 2.175131 0.017317 0.005066 -526292.000000 0 0 1
33.778120 -23.038782 -26.608714 48.782892 -0.598586 2.147724 0.009391 0.002936 -504717.000000 0 0 1
33.642920 -23.772582 -25.360424 48.374920 -0.615152 2.122627 0.018638 -0.004254 7177.380000 0 0 1
32.699120 -23.206782 -24.459364 46.968582 -0.617211 2.118537 0.035017 0.002192 182965.000000 0 0 1
33.308320 -22.046082 -23.582564 46.385464 -0.584681 2.104127 0.024561 0.007862 125922.000000 0 0 1
33.553320 -20.840782 -24.347864 46.400237 -0.555807 2.123201 0.024043 -0.001752 -31284.100000 0 0 1
33.595620 -19.756482 -23.434764 45.477164 -0.531599 2.112164 0.003926 -0.006545 -57608.800000 0 0 1
33.631620 -18.454482 -24.241864 45.379751 -0.501863 2.134357 -0.006930 -0.012979 -150078.000000 0 0 1
32.567320 -18.395382 -25.152094 45.073809 -0.514167 2.162794 0.006310 -0.010408 -38033.500000 0 0 1
32.626720 -17.128282 -25.767434 44.964893 -0.483429 2.181027 0.007504 -0.012692 -598184.000000 0 0 1
31.675520 -16.936682 -26.911044 44.882002 -0.491015 2.213792 0.005932 -0.006466 413874.000000 0 0 1
30.335320 -16.607782 -26.483464 43.559430 -0.500901 2.224316 0.019354 -0.001341 997698.000000 0 0 1
29.543020 -16.202782 -27.591254 43.549943 -0.501650 2.256935 0.027345 -0.003847 769213.000000 0 0 1
28.027420 -15.840882 -27.330924 42.230904 -0.514432 2.274674 0.038169 0.000081 1106550.000000 0 0 1
27.260120 -16.924882 -26.865304 41.848660 -0.555621 2.267852 0.055188 0.007044 -74358.300000 0 0 1
27.202320 -16.788182 -25.446514 40.857488 -0.552942 2.243127 0.076266 0.003189 -432127.000000 0 0 1
26.551320 -17.847682 -24.597764 40.355450 -0.591821 2.226261 0.086328 -0.002265 -100196.000000 0 0 1
26.719020 -17.677182 -23.205464 39.558594 -0.584484 2.197663 0.098831 0.001721 21057.700000 0 0 1
25.935620 -18.588682 -22.459164 39.020630 -0.621862 2.184099 0.099210 -0.002111 26032.900000 0 0 1
25.759020 -18.163282 -20.940664 37.841027 -0.614156 2.157219 0.097496 -0.004594 133532.000000 0 0 1
24.951420 -17.003782 -20.660964 36.586574 -0.598185 2.170883 0.105507 -0.011307 180567.000000 0 0 1
25.410320 -15.761582 -21.112664 36.604049 -0.555200 2.185584 0.102383 -0.002473 509805.000000 0 0 1
26.702320 -15.211082 -20.392064 36.881258 -0.517807 2.156650 0.077269 -0.004202 740933.000000 0 0 1
26.475320 -14.429482 -19.225664 35.760015 -0.499009 2.138420 0.079059 -0.019670 124002.000000 0 0 1
27.569820 -13.559782 -19.097464 36.175625 -0.457094 2.126934 0.054827 -0.017626 -48223.000000 0 0 1
27.349720 -12.638182 -17.882464 35.035887 -0.432867 2.106451 0.064564 -0.020762 -76074.900000 0 0 1
27.503720 -13.271082 -16.667864 34.790716 -0.449566 2.070413 0.052675 -0.013107 164159.000000 0 0 1
27.069720 -12.428582 -15.569964 33.610462 -0.430422 2.052452 0.048823 -0.010901 58486.300000 0 0 1
27.757620 -12.580182 -14.176964 33.611498 -0.425525 2.006214 0.061506 -0.011336 -451892.000000 0 0 1
27.415920 -13.805782 -13.585364 33.567759 -0.466498 1.987463 0.076868 -0.020490 421954.000000 0 0 1
28.008520 -13.944082 -12.307164 33.621138 -0.461927 1.945562 0.093202 -0.021902 -125951.000000 0 0 1
27.501020 -15.231682 -11.595864 33.507825 -0.505801 1.924169 0.083821 -0.028862 157555.000000 0 0 1
26.139020 -15.066782 -11.240764 32.196445 -0.522893 1.927439 0.073234 -0.027152 203945.000000 0 0 1
25.514720 -16.334382 -11.164964 32.287295 -0.569451 1.923888 0.063237 -0.025879 86980.400000 0 0 1
24.018220 -16.156782 -10.795164 30.894208 -0.592160 1.927752 0.077805 -0.026480 -51955.100000 0 0 1
23.803520 -15.721582 -9.474264 30.058899 -0.583702 1.891453 0.062204 -0.023209 1365430.000000 0 0 1
22.398220 -15.719582 -9.120164 28.843767 -0.611948 1.892509 0.067581 -0.018739 931974.000000 0 0 1
22.059620 -15.483682 -7.629464 28.010355 -0.612001 1.846662 0.059789 -0.014819 -271687.000000 0 0 1
22.310920 -14.156682 -7.124164 27.366814 -0.565415 1.834151 0.064699 -0.009849 440017.000000 0 0 1
21.942820 -13.996182 -5.729064 26.649627 -0.567785 1.787465 0.058185 -0.007380 41323.900000 0 0 1
22.909020 -14.654382 -4.698264 27.597967 -0.569084 1.741869 0.064254 -0.004181 1115740.000000 0 0 1
24.248820 -14.089182 -4.707664 28.437166 -0.526351 1.737108 0.062616 -0.008078 1262430.000000 0 0 1
25.102320 -14.813982 -3.849964 29.400727 -0.533141 1.702121 0.058994 -0.013298 5725.230000 0 0 1
26.600720 -14.601082 -4.176664 30.630613 -0.501997 1.707578 0.060697 -0.011031 181850.000000 0 0 1
27.123120 -13.357682 -3.644564 30.452819 -0.457616 1.690763 0.067750 -0.008987 638579.000000 0 0 1
28.519220 -13.259582 -3.901364 31.692003 -0.435204 1.694212 0.075855 -0.023554 485200.000000 0 0 1
29.264520 -11.993882 -3.313564 31.800079 -0.388963 1.675186 0.110971 -0.033379 -1390080.000000 0 0 1
29.512920 -12.185382 -1.935464 31.988154 -0.391563 1.631339 0.128407 -0.040809 432012.000000 0 0 1
30.122020 -11.052182 -1.276164 32.110986 -0.351663 1.610549 0.136313 -0.037343 992554.000000 0 0 1
31.551520 -10.678582 -1.817164 33.359146 -0.326348 1.625296 0.137053 -0.037858 -178993.000000 0 0 1
31.422420 -10.071482 -3.069464 33.139476 -0.310174 1.663552 0.129690 -0.038035 -85766.700000 0 0 1
32.584620 -10.283782 -3.853264 34.385481 -0.305709 1.683093 0.160064 -0.044015 -55677.700000 0 0 1
32.452120 -9.900982 -5.315364 34.342723 -0.296125 1.726195 0.154844 -0.043363 366183.000000 0 0 1
31.421820 -10.782182 -5.794864 33.721902 -0.330553 1.743496 0.128362 -0.043433 648903.000000 0 0 1
31.309120 -10.762282 -7.213264 33.883903 -0.331090 1.785320 0.121917 -0.034553 84421.100000 0 0 1
30.105820 -11.625182 -7.662164 33.169474 -0.368505 1.803902 0.091958 -0.030958 309002.000000 0 0 1
30.364720 -13.027682 -7.596664 33.903481 -0.405288 1.796782 0.082485 -0.028809 -27895.500000 0 0 1
29.145620 -13.665282 -7.833464 33.129598 -0.438429 1.809506 0.078136 -0.024516 -186656.000000 0 0 1
29.310620 -15.209082 -7.971964 33.970294 -0.478648 1.807680 0.077697 -0.021856 144787.000000 0 0 1
29.964420 -15.773682 -9.131564 35.072225 -0.484555 1.834196 0.091369 -0.032163 518196.000000 0 0 1
30.119020 -17.205982 -9.052264 35.848915 -0.519024 1.826071 0.083056 -0.025741 -166175.000000 0 0 1
30.375220 -17.851482 -10.466064 36.754155 -0.531325 1.859551 0.078649 -0.031117 -722818.000000 0 0 1
31.602720 -17.488082 -11.038064 37.767761 -0.505429 1.867387 0.077773 -0.026722 122568.000000 0 0 1
31.774720 -17.971382 -12.371364 38.544183 -0.514732 1.897545 0.072472 -0.014451 -285866.000000 0 0 1
31.139720 -17.177182 -13.512764 38.043824 -0.504083 1.933913 0.076730 -0.023306 -341859.000000 0 0 1
31.832720 -16.031882 -13.855864 38.240401 -0.466547 1.941569 0.063384 -0.024079 -19907.500000 0 0 1
31.122820 -15.345082 -14.854364 37.745909 -0.458072 1.975271 0.062194 -0.028818 -668879.000000 0 0 1
31.858720 -14.122982 -15.483764 38.133760 -0.417269 1.988911 0.056702 -0.020445 500499.000000 0 0 1
32.908920 -14.576582 -16.349564 39.532038 -0.416965 1.997176 0.035311 -0.023460 964550.000000 0 0 1
34.186820 -14.689482 -15.710464 40.389828 -0.405830 1.970310 0.049092 -0.023532 393766.000000 0 0 1
35.266020 -15.241382 -16.692064 41.888148 -0.407939 1.980668 0.045248 -0.022806 521395.000000 0 0 1
36.639320 -15.209582 -16.322564 42.897521 -0.393469 1.961135 0.045036 -0.023574 -113430.000000 0 0 1
-36.455716 -15.860882 -17.283964 43.351150 0.410371 1.980892 0.040483 -0.022543 245338.000000 0 0 1
-34.950516 -15.786782 -16.823464 41.878276 0.424258 1.984194 0.051880 -0.016761 368283.000000 0 0 1
-34.424216 -16.670982 -15.860564 41.406591 0.450993 1.963886 0.042408 -0.017140 182051.000000 0 0 1
-35.016116 -16.609082 -14.554064 41.398197 0.442899 1.930036 0.027230 -0.011996 -579027.000000 0 0 1
-34.372516 -17.484982 -13.467464 40.848097 0.470576 1.906778 0.026766 -0.009538 -1030270.000000 0 0 1
-33.161516 -16.961782 -13.041764 39.464868 0.472797 1.907593 0.056366 -0.007964 -692178.000000 0 0 1
-32.761916 -17.685382 -11.901064 39.086458 0.494990 1.880189 0.070121 0.003777 230943.000000 0 0 1
-31.398916 -17.098482 -11.426264 37.534111 0.498654 1.880129 0.101407 -0.006095 215048.000000 0 0 1
-31.559316 -15.696782 -11.044864 36.937358 0.461545 1.874458 0.084736 -0.022322 407108.000000 0 0 1
-30.498416 -15.160082 -10.246064 35.566322 0.461307 1.863021 0.121634 -0.039127 213294.000000 0 0 1
-30.550016 -15.413682 -8.684864 35.303143 0.467272 1.819356 0.120391 -0.029681 -128573.000000 0 0 1
-30.344616 -16.728482 -8.329564 35.637332 0.503828 1.806710 0.091655 -0.015759 -14365.500000 0 0 1
-30.637916 -17.053382 -6.974464 35.751124 0.507904 1.767139 0.130017 -0.022619 -20087.100000 0 0 1
-30.461916 -18.599982 -6.822464 36.337772 0.548176 1.759669 0.106123 -0.028816 74856.700000 0 0 1
-31.470716 -19.465482 -7.312364 37.719777 0.553931 1.765892 0.073246 -0.021640 -257592.000000 0 0 1
-31.446216 -19.645582 -8.710764 38.087935 0.558409 1.801540 0.067424 -0.010442 8443.670000 0 0 1
-32.624416 -20.449382 -9.308264 39.612795 0.559901 1.807996 0.051292 -0.012254 458546.000000 0 0 1
-33.801216 -19.688682 -9.557264 40.267948 0.527441 1.810425 0.038060 -0.014777 1745970.000000 0 0 1
-34.973416 -20.548082 -9.791064 41.728029 0.531203 1.807645 0.028207 -0.011912 1258170.000000 0 0 1
-36.270216 -19.898482 -10.276264 42.627218 0.501781 1.814267 0.030455 -0.017366 -182157.000000 0 0 1
-36.307516 -19.523682 -11.665864 42.842762 0.493375 1.846574 0.019499 -0.019398 827315.000000 0 0 1
36.137220 -19.220782 -11.889664 42.622779 -0.488828 1.853498 0.049037 -0.031632 767771.000000 0 0 1
35.750920 -18.783682 -13.297164 42.517874 -0.483764 1.888876 0.031996 -0.030156 -209438.000000 0 0 1
35.618820 -19.933982 -14.114564 43.188944 -0.510220 1.903722 0.032425 -0.029614 183437.000000 0 0 1
35.010520 -19.712882 -15.417664 43.035318 -0.512812 1.937196 0.024233 -0.023783 710123.000000 0 0 1
33.704820 -20.551982 -15.601064 42.447521 -0.547568 1.947156 0.039301 -0.029674 1037020.000000 0 0 1
32.572420 -20.148982 -14.820364 41.068080 -0.553977 1.940000 0.058673 -0.027037 1369300.000000 0 0 1
31.322620 -20.832082 -15.004964 40.499767 -0.586904 1.950338 0.072670 -0.031704 1035390.000000 0 0 1
30.376020 -20.319182 -16.112064 39.939584 -0.589562 1.986038 0.078101 -0.025569 -226062.000000 0 0 1
29.796720 -19.023682 -16.017964 38.811341 -0.568212 1.996227 0.062910 -0.016223 634127.000000 0 0 1
28.924320 -18.671182 -17.104864 38.442239 -0.573218 2.031914 0.063473 -0.013968 297573.000000 0 0 1
28.135320 -17.371482 -16.876564 37.123888 -0.553134 2.042721 0.071324 0.001119 861.979000 0 0 1
27.006520 -17.535382 -16.033064 35.970834 -0.575884 2.032779 0.082908 -0.014734 149385.000000 0 0 1
26.381620 -16.292782 -15.798264 34.799853 -0.553246 2.042018 0.062730 -0.016844 -386629.000000 0 0 1
24.913620 -16.489782 -15.335964 33.582632 -0.584680 2.045038 0.050926 -0.011681 18519.900000 0 0 1
23.964120 -17.101882 -16.140364 33.574764 -0.619825 2.072282 0.061568 -0.008342 -9830.710000 0 0 1
23.687520 -16.538582 -17.386664 33.718235 -0.609516 2.112557 0.072087 -0.008772 -783877.000000 0 0 1
22.690520 -17.318882 -18.256564 33.883706 -0.651937 2.139809 0.081269 -0.011321 568107.000000 0 0 1
21.364020 -17.307682 -17.739464 32.721030 -0.680889 2.143781 0.084486 -0.007103 240143.000000 0 0 1
20.429820 -18.036782 -18.480164 32.927489 -0.723267 2.166677 0.089081 -0.022850 1019080.000000 0 0 1
18.979620 -18.300282 -17.933264 31.886177 -0.767178 2.168100 0.088249 -0.017684 1030800.000000 0 0 1
18.185720 -17.136682 -17.848664 30.707672 -0.755708 2.191054 0.099144 -0.017745 -507035.000000 0 0 1
16.896220 -17.428782 -17.424664 29.880824 -0.800912 2.193383 0.092198 -0.026528 -86120.400000 0 0 1
15.930720 -16.237582 -17.062864 28.435686 -0.794937 2.214361 0.088470 -0.015525 166491.000000 0 0 1
15.334320 -15.723882 -18.250564 28.556347 -0.797940 2.264133 0.075862 -0.003384 -180010.000000 0 0 1
14.050220 -15.272382 -17.910564 27.412454 -0.827054 2.282828 0.065780 -0.001215 -608075.000000 0 0 1
13.287420 -14.813282 -19.087064 27.573627 -0.839645 2.335359 0.056436 -0.008003 -436325.000000 0 0 1
13.739920 -13.576682 -19.526864 27.466527 -0.779422 2.361621 0.060054 -0.019243 226376.000000 0 0 1
12.894520 -13.169682 -20.596864 27.639464 -0.795955 2.411628 0.045869 -0.006920 303822.000000 0 0 1
13.171020 -11.764082 -21.133564 27.540823 -0.729034 2.445501 0.059384 -0.007266 -130776.000000 0 0 1
14.396320 -11.522482 -21.801464 28.553905 -0.674971 2.439542 0.058329 -0.005391 -236008.000000 0 0 1
14.406420 -10.230082 -22.420864 28.546360 -0.617476 2.474170 0.052055 -0.015310 675884.000000 0 0 1
15.791820 -9.681482 -22.931664 29.478363 -0.549974 2.462137 0.063553 -0.007415 717665.000000 0 0 1
16.346120 -10.314182 -24.075864 30.874346 -0.562893 2.465145 0.082244 -0.004700 43539.900000 0 0 1
17.300820 -9.488582 -24.685364 31.602512 -0.501650 2.467254 0.089391 -0.014957 -449392.000000 0 0 1
22.100220 5.453718 -7.087664 23.841094 0.241938 1.872647 0.120097 0.018854 -71459.500000 0 1 0
22.010420 6.846718 -7.221764 24.155538 0.301579 1.874409 0.120585 0.004958 621706.000000 0 1 0
21.474620 7.495718 -6.079664 23.543734 0.335828 1.831984 0.118445 0.002977 -249428.000000 0 1 0
21.236720 9.013818 -6.194864 23.887728 0.401400 1.833127 0.102267 0.007346 -745820.000000 0 1 0
20.143220 9.442618 -6.965264 23.311526 0.438356 1.874221 0.048203 -0.006299 399332.000000 0 1 0
20.008320 10.809918 -6.997464 23.793943 0.495343 1.869295 0.073840 -0.003677 39069.800000 0 1 0
19.664320 11.590718 -5.704264 23.528044 0.532610 1.815682 0.101197 -0.000435 384907.000000 0 1 0
20.815020 11.681118 -4.846264 24.355695 0.511391 1.771112 0.122595 0.002331 805033.000000 0 1 0
20.582920 12.573518 -3.794664 24.416172 0.548375 1.726845 0.150185 -0.015249 773543.000000 0 1 0
21.796320 12.423318 -2.799764 25.243951 0.518048 1.681933 0.138757 -0.033208 -93550.600000 0 0 1
23.025320 12.932418 -3.262564 26.609343 0.511752 1.693715 0.125646 -0.033208 -208302.000000 0 0 1
23.894520 12.982818 -2.197464 27.282421 0.497715 1.651429 0.128520 -0.036817 -464705.000000 0 0 1
24.705620 11.723618 -1.712364 27.399691 0.443067 1.633333 0.113967 -0.041322 -1421870.000000 0 0 1
25.843720 11.482818 -2.449064 28.385752 0.418118 1.657182 0.090522 -0.031572 -684053.000000 0 0 1
26.573720 10.443318 -1.864264 28.612951 0.374452 1.635997 0.114296 -0.035804 639919.000000 0 0 1
28.108220 10.400418 -2.201664 30.051424 0.354392 1.644125 0.118648 -0.039940 683103.000000 0 0 1
28.873020 11.438218 -1.623264 31.098539 0.377188 1.623018 0.099532 -0.045951 896544.000000 0 0 1
30.257720 11.076418 -1.798764 32.271539 0.350918 1.626564 0.102197 -0.035943 567944.000000 0 0 1
31.262420 12.143518 -1.410864 33.567760 0.370500 1.612839 0.075160 -0.026554 -1055920.000000 0 0 1
31.237620 12.345118 -0.023864 33.588561 0.376362 1.571507 0.090516 -0.039868 409369.000000 0 0 1
32.153720 13.415818 0.252836 34.841209 0.395280 1.563539 0.067721 -0.030073 -426202.000000 0 0 1
33.588120 12.894018 0.415136 35.980409 0.366539 1.559258 0.072138 -0.032412 -403217.000000 0 0 1
34.556620 13.963018 0.628036 37.276270 0.384003 1.553947 0.063641 -0.034599 370121.000000 0 0 1
35.256720 14.317918 -0.526164 38.056746 0.385758 1.584623 0.083716 -0.032405 -867939.000000 0 0 1
34.612220 15.371318 -1.435664 37.899134 0.417937 1.608687 0.051149 -0.011954 -210598.000000 0 0 1
33.571720 14.767218 -2.194364 36.741616 0.414399 1.630556 0.063638 -0.009261 -118990.000000 0 0 1
32.913720 15.826418 -2.905864 36.636492 0.448207 1.650196 0.051479 0.009494 -134335.000000 0 0 1
31.614220 15.413518 -3.594664 35.354732 0.453638 1.672647 0.051196 -0.007549 -803262.000000 0 0 1
31.762220 14.499818 -4.686964 35.228554 0.428256 1.704236 0.056078 -0.006811 172844.000000 0 0 1
30.580020 14.361018 -5.436164 34.218830 0.439050 1.730337 0.055207 -0.016475 213978.000000 0 0 1
29.359720 13.597318 -4.834264 32.714681 0.433718 1.719110 0.059226 -0.025365 128219.000000 0 0 1
28.305720 13.569018 -5.788464 31.919247 0.447011 1.753152 0.082921 -0.033860 -355400.000000 0 0 1
27.110220 13.113818 -5.255064 30.570443 0.450541 1.743555 0.084764 -0.023972 -248142.000000 0 0 1
26.044520 12.890618 -6.392264 29.754766 0.459596 1.787316 0.073784 -0.024873 118026.000000 0 0 1
26.283920 11.809218 -7.322364 29.730777 0.422267 1.819646 0.073454 -0.021288 768212.000000 0 0 1
25.137320 11.594618 -8.166164 28.861848 0.432171 1.857654 0.091450 -0.020912 556746.000000 0 0 1
24.921420 12.596418 -9.332164 29.442082 0.467994 1.893326 0.094400 -0.014061 -527114.000000 0 0 1
24.062020 13.591018 -8.905664 29.034590 0.514160 1.882548 0.089564 -0.019974 -140800.000000 0 0 1
24.044020 14.730318 -9.767364 29.841223 0.549661 1.904253 0.091033 -0.028111 -772978.000000 0 0 1
23.181520 15.854718 -9.174564 29.545348 0.599864 1.886541 0.083936 -0.024489 799287.000000 0 0 1
21.757220 15.704018 -9.104964 28.335370 0.625197 1.897928 0.105242 -0.027992 1026920.000000 0 0 1
21.316120 14.806918 -8.094564 27.187199 0.607116 1.873115 0.123757 -0.031814 -1432070.000000 0 0 1
19.827320 14.613818 -8.297864 25.991169 0.635164 1.895742 0.146151 -0.023042 -487569.000000 0 0 1
18.990620 14.932518 -7.177064 25.201865 0.666338 1.859576 0.186511 -0.052475 -4976.840000 0 0 1
17.621620 14.834218 -7.431964 24.203504 0.699725 1.882900 0.183182 -0.052292 -247670.000000 0 1 0
16.734620 15.107118 -6.177264 23.375866 0.734330 1.838231 0.178731 -0.039871 23157.200000 0 1 0
16.605320 13.924818 -5.355464 22.323042 0.697824 1.813067 0.148218 -0.047700 232913.000000 0 1 0
15.866420 14.328118 -4.238164 21.794501 0.734496 1.766503 0.127048 -0.049507 -186443.000000 0 1 0
15.839620 13.295018 -3.027164 20.900115 0.698280 1.716147 0.109196 -0.037022 585635.000000 0 1 0
17.170620 13.249318 -2.495064 21.831170 0.657199 1.685336 0.111452 -0.022113 1204090.000000 0 1 0
17.148120 12.416218 -1.333564 21.213177 0.626690 1.633703 0.111112 -0.019434 28181.100000 0 1 0
17.296220 13.267218 -0.045664 21.798633 0.654330 1.572891 0.131188 -0.021879 364682.000000 0 1 0
16.155820 14.144018 0.060736 21.472481 0.719099 1.567968 0.118221 -0.028001 1151320.000000 0 1 0
16.285820 15.022418 1.150836 22.186153 0.745066 1.518901 0.113940 -0.017802 395778.000000 0 1 0
14.930220 15.801418 1.273936 21.776574 0.813739 1.512263 0.099766 -0.016616 485515.000000 0 1 0
14.682720 16.813018 0.328036 22.324145 0.852933 1.556102 0.107490 -0.021977 -246700.000000 0 1 0
13.785320 17.730018 0.838136 22.474231 0.909918 1.533494 0.086056 -0.027977 -485506.000000 0 1 0
13.689520 19.059018 0.095236 23.466107 0.947914 1.566738 0.080312 -0.035499 -189917.000000 0 1 0
13.042420 18.980018 -1.137564 23.057317 0.968736 1.620153 0.080532 -0.047225 -28280.600000 0 1 0
12.465720 20.170118 -1.625364 23.766986 1.017225 1.639237 0.075655 -0.045740 540560.000000 0 1 0
10.943520 20.363018 -1.347564 23.156620 1.077662 1.629023 0.065918 -0.045910 406577.000000 0 1 0
10.560620 20.470318 -0.008364 23.033903 1.094510 1.571159 0.056637 -0.046669 -7748.890000 0 1 0
9.155120 20.341018 0.098136 22.306566 1.147874 1.566397 0.055087 -0.044912 309679.000000 0 1 0
8.606920 20.381218 1.527136 22.176683 1.171218 1.501880 0.040922 -0.038767 64800.200000 0 1 0
8.638320 21.672118 2.078136 23.422637 1.191505 1.481956 0.047753 -0.030643 -224344.000000 0 1 0
7.498320 21.726018 2.877036 23.162944 1.238466 1.446266 0.034323 -0.032681 -236712.000000 0 1 0
7.190620 23.249318 3.266436 24.554132 1.270845 1.437371 0.034174 -0.028129 -9503.710000 0 1 0
7.631020 23.570118 4.541936 25.187539 1.257688 1.389480 0.024664 -0.032418 42904.500000 0 0 1
7.252720 24.860518 4.966036 26.368709 1.286938 1.381334 0.020652 -0.025822 30042.900000 0 0 1
7.672920 25.149918 6.426036 27.068173 1.274679 1.331106 0.026448 -0.028157 287751.000000 0 0 1
6.858220 24.515618 7.417136 26.515366 1.298020 1.287284 0.024300 -0.022107 258832.000000 0 0 1
7.513920 24.612318 8.669136 27.154725 1.274492 1.245859 0.034743 -0.020873 -69575.500000 0 0 1
7.257620 23.555518 9.786736 26.520099 1.271919 1.192830 0.046047 -0.021096 570325.000000 0 0 1
5.925720 23.722318 10.302736 26.533166 1.326010 1.172014 0.043857 -0.024447 677539.000000 0 0 1
5.512720 22.703018 11.158936 25.890905 1.332588 1.125198 0.039387 -0.020925 324366.000000 0 0 1
4.220320 23.141718 11.946036 26.382911 1.390410 1.100899 0.041788 -0.028116 717276.000000 0 0 1
3.158320 23.196118 10.998736 25.865171 1.435471 1.131577 0.030068 -0.022329 -367944.000000 0 0 1
1.916420 23.269118 11.649136 26.092660 1.488623 1.107999 0.029666 -0.024683 213489.000000 0 0 1
0.715520 23.507718 10.680636 25.830229 1.540368 1.144509 0.042678 -0.017880 214538.000000 0 0 1
0.655520 24.799018 10.149136 26.803469 1.544369 1.182459 0.042131 -0.013343 -85448.300000 0 0 1
-0.281580 24.999818 9.109436 26.609247 -1.559534 1.221389 0.042853 -0.020534 128095.000000 0 0 1
-1.571480 25.746418 9.482036 27.481932 -1.509835 1.218528 0.045343 -0.025841 -23966.700000 0 0 1
-2.430380 25.011918 10.308336 27.161822 -1.473932 1.181524 0.037837 -0.021388 935288.000000 0 0 1
-3.763980 25.582418 10.321536 27.841727 -1.424713 1.191010 0.043398 -0.023426 1190830.000000 0 0 1
-4.953180 24.673018 10.800936 27.385252 -1.372677 1.165374 0.050750 -0.024867 516472.000000 0 0 1
-5.289280 24.723418 12.138636 28.045862 -1.360035 1.123185 0.047881 -0.025009 -95070.000000 0 0 1
-6.017580 25.860018 12.528736 29.358491 -1.342167 1.129900 0.047477 -0.023044 -513204.000000 0 0 1
-6.615780 25.702118 13.931036 29.974008 -1.318863 1.087421 0.035085 -0.022138 657139.000000 0 0 1
-7.701880 24.748318 14.087036 29.499878 -1.269089 1.072957 0.033444 -0.021160 753472.000000 0 0 1
-8.121180 24.608118 15.458036 30.173894 -1.252030 1.032937 0.034791 -0.006575 -161821.000000 0 0 1
-9.378180 23.740918 15.588936 29.909804 -1.194589 1.022542 0.029422 -0.014635 -320190.000000 0 0 1
-10.514480 24.406618 15.119636 30.575164 -1.164020 1.053529 0.028839 -0.011449 -434280.000000 0 0 1
-11.713780 23.734718 15.442636 30.643506 -1.112339 1.042636 0.018226 -0.009730 -219344.000000 0 0 1
-12.972080 24.565718 15.275936 31.703368 -1.084956 1.068044 0.019062 -0.007312 -634332.000000 0 0 1
-13.264980 25.322718 16.399536 32.956707 -1.088261 1.049957 0.017191 -0.007244 213491.000000 0 0 1
-14.181480 26.350418 16.043336 33.953608 -1.077067 1.078663 0.006622 -0.000047 -535704.000000 0 0 1
-14.809880 27.132218 17.197836 35.373088 -1.071152 1.063079 0.020904 0.000731 510639.000000 0 0 1
-16.030380 26.579618 17.722736 35.742755 -1.028095 1.051993 0.021157 -0.004682 518064.000000 0 0 1
-16.441380 27.251118 18.858036 36.994161 -1.027933 1.035894 0.040516 -0.019986 -508699.000000 0 0 1
-17.798580 26.812818 19.419436 37.587646 -0.984775 1.027870 0.043784 -0.023477 -270901.000000 0 0 1
-18.875980 27.144318 18.589636 37.930083 -0.963169 1.058589 0.041881 -0.018766 -509306.000000 0 0 1
-20.051080 26.464918 18.956436 38.233286 -0.922419 1.052029 0.066055 -0.015291 -266608.000000 0 0 1
-21.195180 26.736718 17.975936 38.564517 -0.900500 1.085889 0.054025 -0.017495 -494641.000000 0 0 1
-21.871680 27.993418 18.130136 39.883626 -0.907553 1.098900 0.053790 -0.020120 257870.000000 0 0 1
-22.509480 28.213218 16.890836 39.849249 -0.897377 1.133084 0.053614 -0.018253 15283.100000 0 0 1
-23.564080 29.383918 16.968736 41.311239 -0.894875 1.147516 0.055622 -0.020450 858805.000000 0 0 1
-24.779380 29.001818 17.638936 42.026839 -0.863749 1.137674 0.069268 -0.020313 694044.000000 0 0 1
-25.727170 30.054818 17.507936 43.263231 -0.862825 1.154163 0.072192 -0.021820 628224.000000 0 0 1
-27.120050 29.787718 18.176036 44.194723 -0.832241 1.146948 0.088767 -0.013773 32991.800000 0 0 1
-27.967660 29.070518 17.332036 43.905404 -0.804731 1.164991 0.098966 -0.008583 377282.000000 0 0 1
-29.336420 29.045718 17.770136 44.945044 -0.780419 1.164321 0.118789 -0.005219 1114030.000000 0 0 1
-29.835720 28.251718 19.047936 45.289663 -0.758136 1.136712 0.109593 -0.008790 -464785.000000 0 0 1
-29.912390 26.916518 18.682536 44.365382 -0.732730 1.136132 0.097409 -0.005443 221979.000000 0 0 1
-30.484990 26.007218 19.616736 44.615315 -0.706300 1.115547 0.087964 -0.009530 19998.100000 0 0 1
-30.434190 24.510118 19.077436 43.484875 -0.677994 1.116629 0.089387 -0.010103 -70023.000000 0 0 1
-31.319040 24.281218 18.001736 43.526110 -0.659489 1.144408 0.107204 -0.015153 212086.000000 0 0 1
-30.838290 23.189418 17.156036 42.226518 -0.644760 1.152411 0.102624 -0.015422 80392.600000 0 0 1
-31.320840 21.835718 17.586936 42.036816 -0.608819 1.139147 0.106236 -0.011224 198730.000000 0 0 1
-32.624650 21.453118 17.172936 42.655759 -0.581681 1.156448 0.117333 -0.018925 120970.000000 0 0 1
-32.820490 20.044618 17.181436 42.120933 -0.548275 1.150636 0.092898 -0.018796 -729919.000000 0 0 1
-34.157187 19.581718 16.660436 42.751926 -0.520543 1.170490 0.094450 -0.028481 -751472.000000 0 0 1
-34.248187 19.695818 15.275836 42.358172 -0.521903 1.201848 0.081776 -0.025417 548005.000000 0 0 1
-35.469902 19.124718 14.794036 42.927058 -0.494499 1.218950 0.103468 -0.036473 374744.000000 0 0 1
-35.798394 19.512518 13.331436 42.895111 -0.499048 1.254771 0.109992 -0.026964 -97487.400000 0 0 1
-36.254260 20.833118 13.229836 43.856798 -0.521563 1.264363 0.089706 -0.033210 -138327.000000 0 0 1
-36.697760 21.112318 11.859536 43.967080 -0.522062 1.297677 0.076846 -0.016196 808116.000000 0 0 1
-35.585182 21.157018 10.706236 42.761525 -0.536399 1.317733 0.090167 -0.025831 714667.000000 0 0 1
-35.246560 19.848218 10.348836 41.753684 -0.512864 1.320331 0.090413 -0.021606 635754.000000 0 0 1
-33.962310 19.735518 9.704936 40.461277 -0.526407 1.328577 0.112211 -0.020136 873263.000000 0 0 1
-33.094730 18.629918 10.399536 39.376203 -0.512714 1.303518 0.098512 -0.025941 101718.000000 0 0 1
-32.451410 19.068818 11.589036 39.382986 -0.531260 1.272110 0.115062 -0.033825 79629.900000 0 0 1
-31.856510 17.983018 12.239536 38.575023 -0.513908 1.247924 0.110646 -0.041904 284742.000000 0 0 1
-31.123790 18.412018 13.588636 38.630865 -0.534201 1.211350 0.097244 -0.023745 154949.000000 0 0 1
-29.946700 19.158818 13.488936 38.023894 -0.569146 1.208151 0.096215 -0.021293 -460261.000000 0 0 1
-30.209710 20.547718 13.543136 38.964751 -0.597292 1.215814 0.096738 -0.015622 -114204.000000 0 0 1
-28.972890 21.435118 13.739636 38.570328 -0.636963 1.206574 0.112671 -0.022089 -232540.000000 0 0 1
-28.489110 21.476818 15.058936 38.725375 -0.645967 1.171397 0.108253 -0.014824 -957904.000000 0 0 1
-27.359550 22.250918 15.129136 38.373677 -0.682785 1.165536 0.100087 -0.015672 -997453.000000 0 0 1
-26.704020 22.132018 16.515636 38.414803 -0.692051 1.126382 0.087990 -0.012600 -207078.000000 0 0 1
-26.081700 20.869918 16.756036 37.370754 -0.674847 1.105852 0.095028 -0.016685 376882.000000 0 0 1
-25.552210 20.687818 18.100336 37.530300 -0.680585 1.067534 0.072756 -0.003867 291218.000000 0 0 1
-24.621580 19.450118 18.211936 36.279524 -0.668590 1.044899 0.084944 -0.010926 109641.000000 0 0 1
-24.104880 19.290818 19.498036 36.515124 -0.674916 1.007505 0.086291 -0.009901 -109187.000000 0 0 1
-22.960580 18.469818 19.503836 35.337261 -0.677427 0.986115 0.079252 -0.004543 -297067.000000 0 0 1
-22.349580 18.280818 20.869836 35.626424 -0.685590 0.944934 0.080905 -0.004038 -308030.000000 0 0 1
-22.984580 17.407218 21.797336 36.144515 -0.648184 0.923464 0.096532 -0.001985 -179519.000000 0 0 1
-23.997680 17.964618 22.578036 37.528440 -0.642603 0.925263 0.078569 -0.017127 -214838.000000 0 0 1
-24.532980 16.905118 23.578136 37.994455 -0.603358 0.901330 0.070684 -0.015569 -107828.000000 0 0 1
-23.536480 16.583218 24.516036 37.815407 -0.613790 0.865436 0.079080 -0.025924 343138.000000 0 0 1
-23.892280 15.326518 25.114436 37.900898 -0.570365 0.846466 0.079589 -0.023908 46980.700000 0 0 1
20.666020 24.533818 33.552359 46.419321 0.870761 0.762936 0.063097 -0.013721 -104159.000000 0 0 1
21.677420 23.746418 32.976747 46.057233 0.830915 0.772748 0.071449 -0.025732 -174747.000000 0 0 1
21.796220 22.415218 33.519084 45.837170 0.799398 0.750623 0.069652 -0.018980 75709.400000 0 0 1
20.798420 21.336018 32.988981 44.453041 0.798157 0.734586 0.053423 -0.015927 -178625.000000 0 0 1
20.979420 20.912518 31.641646 43.343549 0.783801 0.752446 0.066121 -0.021165 606307.000000 0 0 1
19.967020 19.978618 31.167806 42.062563 0.785689 0.736258 0.078531 -0.025717 466228.000000 0 0 1
20.288120 19.343518 29.792186 40.906648 0.761568 0.754963 0.081876 -0.019385 -149749.000000 0 0 1
21.411220 18.483418 29.750426 41.050760 0.712141 0.760164 0.075722 -0.021202 -74839.900000 0 0 1
21.655820 18.105718 28.415756 40.053049 0.696349 0.782075 0.070859 -0.020152 152098.000000 0 0 1
22.896920 17.210318 28.151186 40.161589 0.644552 0.794071 0.080358 -0.013904 -349293.000000 0 0 1
24.164620 17.741018 28.287656 41.217278 0.633295 0.814399 0.081239 -0.015703 -1204990.000000 0 0 1
25.121720 16.803618 28.654226 41.647654 0.589539 0.812046 0.071857 -0.006634 -179417.000000 0 0 1
26.467820 17.540418 28.796546 42.865520 0.585257 0.834176 0.069263 -0.014911 259206.000000 0 0 1
27.255220 17.901618 27.636646 42.744580 0.581151 0.867739 0.071870 -0.007810 772541.000000 0 0 1
28.586720 18.291718 27.958106 43.970936 0.569219 0.881711 0.077269 -0.007216 551222.000000 0 0 1
29.545920 18.196318 26.758656 43.818866 0.552004 0.913896 0.071535 0.000718 -22047.700000 0 0 1
29.487720 19.262418 25.810016 43.666043 0.578646 0.938402 0.093996 -0.007411 176958.000000 0 0 1
30.643220 19.146518 24.985396 43.930241 0.558470 0.965809 0.091828 -0.004067 333621.000000 0 0 1
30.706220 20.259818 23.926846 43.884235 0.583230 0.994137 0.097521 -0.006703 25603.500000 0 0 1
29.703920 20.134318 22.924016 42.581969 0.595694 1.002318 0.083207 -0.013252 201243.000000 0 0 1
29.844320 21.022818 21.864916 42.552519 0.613684 1.031149 0.085578 -0.024099 -384814.000000 0 0 1
30.631120 20.446518 20.687816 42.241110 0.588585 1.058987 0.115600 -0.021392 -40919.700000 0 0 1
29.888820 19.511518 19.885116 40.859010 0.578343 1.062515 0.098942 -0.035546 816643.000000 0 0 1
30.694220 19.056918 18.763616 40.710865 0.555619 1.091788 0.119727 -0.034657 1490590.000000 0 0 1
31.968320 18.171918 19.083616 41.429174 0.516887 1.092089 0.146316 -0.049386 726653.000000 0 0 1
31.484520 16.948718 19.646416 40.798477 0.493831 1.068376 0.143740 -0.045092 954308.000000 0 0 1
32.558120 16.044318 19.963016 41.424308 0.457863 1.067957 0.135955 -0.037401 -663969.000000 0 0 1
32.023220 14.689718 20.204116 40.613800 0.430082 1.050117 0.133288 -0.037125 -37958.700000 0 0 1
31.446920 14.496918 21.481516 40.749539 0.431961 1.015542 0.106089 -0.031481 -827104.000000 0 0 1
30.191120 15.022018 21.655916 40.076719 0.461697 0.999930 0.102579 -0.018801 -1787470.000000 0 0 1
29.595120 14.431618 22.954116 40.137690 0.453707 0.961995 0.075217 -0.014024 -78505.800000 0 0 1
29.244720 13.046218 22.863716 39.347261 0.419610 0.950747 0.071984 -0.004840 -59462.200000 0 0 1
28.365020 12.848718 23.953876 39.286793 0.425327 0.915091 0.060656 0.004531 -14594.900000 0 0 1
27.753520 11.443918 23.893666 38.368325 0.391100 0.898551 0.069478 0.002539 -128280.000000 0 0 1
26.678120 11.302318 22.997816 36.991405 0.400731 0.899876 0.078129 0.003507 -88105.600000 0 0 1
26.457320 9.952918 22.774016 36.300223 0.359812 0.892613 0.065065 0.008110 44445.600000 0 0 1
25.355920 9.446418 21.793216 34.743370 0.356623 0.892763 0.065599 -0.004323 240833.000000 0 0 1
24.051420 9.668218 22.305016 34.197353 0.382213 0.860255 0.077518 0.002426 813363.000000 0 0 1
23.030020 9.361818 21.328116 32.755366 0.386102 0.861719 0.072616 0.011318 792268.000000 0 0 1
21.594520 9.431818 21.921316 32.184260 0.411797 0.821506 0.061199 0.001890 234954.000000 0 0 1
21.157720 8.510118 22.904216 32.321422 0.382421 0.783229 0.057363 0.006157 863285.000000 0 0 1
19.750920 8.478918 23.162096 31.598632 0.405501 0.748061 0.073791 -0.003140 621658.000000 0 0 1
19.358720 7.800018 24.496486 32.181954 0.383021 0.705655 0.072330 -0.002507 -189714.000000 0 0 1
19.389220 6.369518 24.421746 31.826628 0.317402 0.696119 0.069750 -0.002987 246488.000000 0 0 1
18.964420 5.690818 25.609296 32.370830 0.291529 0.658154 0.072024 -0.013656 -73984.700000 0 0 1
19.113920 4.150618 25.601266 32.217920 0.213832 0.652402 0.072582 -0.020869 -1258730.000000 0 0 1
20.373220 3.698818 25.313496 32.703554 0.179597 0.685616 0.068293 -0.011485 -1211250.000000 0 0 1
20.622920 2.306618 25.325166 32.741248 0.111384 0.686461 0.065348 -0.013069 -178383.000000 0 0 1
22.104020 1.961518 25.129186 33.524785 0.088508 0.723384 0.056587 -0.005840 -237193.000000 0 0 1
22.916320 2.300218 26.205676 34.888195 0.100040 0.721020 0.059256 -0.012749 505271.000000 0 0 1
24.314720 2.248318 25.883856 35.584189 0.092205 0.756274 0.070980 -0.009166 1083620.000000 0 0 1
25.311020 2.725318 26.957536 37.078077 0.107260 0.756784 0.055519 -0.010177 -645110.000000 0 0 1
25.380020 1.723518 27.912266 37.765202 0.067804 0.739063 0.066690 -0.018762 -110.752000 0 0 1
25.983120 2.158918 29.126116 39.091100 0.082899 0.730137 0.063259 -0.006588 2073490.000000 0 0 1
27.571820 2.422818 29.155786 40.201183 0.087648 0.759403 0.045461 -0.007422 1106030.000000 0 0 1
27.851520 3.547918 28.372676 39.916207 0.126704 0.780153 0.055334 0.000479 572319.000000 0 0 1
29.236220 3.634018 27.990146 40.637555 0.123664 0.810998 0.055157 -0.001198 769770.000000 0 0 1
29.887620 2.601518 27.078066 40.413604 0.086824 0.836556 0.074290 -0.003742 -825939.000000 0 0 1
29.367920 2.683018 25.786946 39.174480 0.091106 0.852293 0.066469 0.012796 40866.200000 0 0 1
29.872020 1.640918 24.939956 38.949090 0.054876 0.875879 0.087629 0.008507 -131978.000000 0 0 1
29.567920 1.811818 23.398786 37.749805 0.061200 0.902259 0.077937 0.002552 282866.000000 0 0 1
30.019620 2.965218 22.644116 37.719041 0.098457 0.926875 0.075171 0.009681 -394437.000000 0 0 1
31.409620 3.093518 22.476216 38.746798 0.098173 0.951970 0.061605 0.005874 2139.220000 0 0 1
31.833020 4.476018 21.915616 38.905914 0.139693 0.972425 0.062509 0.004409 -123280.000000 0 0 1
31.604120 4.662818 20.533616 37.976199 0.146482 0.999531 0.060526 0.005664 484393.000000 0 0 1
32.319320 5.848618 20.098216 38.505624 0.179026 1.021655 0.069646 0.002467 1469010.000000 0 0 1
33.853920 5.690218 19.659316 39.559514 0.166525 1.050710 0.056748 -0.004463 1330520.000000 0 0 1
34.688820 5.569918 20.784416 40.820708 0.159209 1.036584 0.067630 -0.004420 114520.000000 0 0 1
35.084720 6.819718 21.346216 41.630602 0.191985 1.032408 0.083911 -0.004290 -598767.000000 0 0 1
35.844620 6.646718 22.680016 42.934820 0.183349 1.014266 0.102485 -0.020319 -534646.000000 0 0 1
35.022720 6.141218 23.667946 42.713899 0.173585 0.983510 0.096713 -0.004609 -156488.000000 0 0 1
35.692420 5.793218 24.852516 43.876620 0.160906 0.968643 0.114108 -0.017741 -63951.200000 0 0 1
34.820820 4.867018 25.728526 43.567584 0.138874 0.939065 0.111862 -0.014995 121495.000000 0 0 1
34.620120 3.527518 25.178386 42.952849 0.101542 0.944452 0.111305 -0.019775 26484.300000 0 0 1
33.850020 2.723818 26.031016 42.788513 0.080294 0.916798 0.094228 -0.012148 -77836.200000 0 0 1
33.811820 1.243318 25.702926 42.490298 0.036755 0.921140 0.100512 -0.007645 66714.100000 0 0 1
32.993220 0.856018 24.596806 41.161732 0.025939 0.930336 0.104575 -0.013491 -74923.700000 0 0 1
33.160420 -0.580782 24.332576 41.134232 -0.017513 0.937828 0.097155 -0.015325 -151673.000000 0 0 1
32.154920 -1.282882 23.410556 39.794959 -0.039876 0.941867 0.110476 -0.008029 -270537.000000 0 0 1
30.875620 -1.494782 23.940586 39.098465 -0.048375 0.911811 0.099849 -0.000866 -153493.000000 0 0 1
30.050620 -2.203782 22.978216 37.893203 -0.073205 0.919278 0.116004 -0.012338 531435.000000 0 0 1
28.551220 -2.281282 23.315256 36.932067 -0.079732 0.887567 0.095841 0.002796 142601.000000 0 0 1
27.880820 -1.043782 23.118176 36.233681 -0.037420 0.878859 0.096232 0.000116 -240714.000000 0 0 1
26.502420 -1.269582 22.902716 35.050314 -0.047868 0.858698 0.072476 0.012713 282848.000000 0 0 1
25.664220 0.048118 22.857616 34.367501 0.001875 0.843177 0.067204 0.011074 -173609.000000 0 0 1
25.871920 0.801218 21.670816 33.758295 0.030959 0.873770 0.070732 0.009832 254765.000000 0 0 1
25.199420 2.079818 21.717916 33.331731 0.082348 0.861146 0.060523 0.015526 117833.000000 0 0 1
25.408520 3.041718 20.515216 32.798156 0.119146 0.895025 0.069979 0.006730 231452.000000 0 0 1
24.741920 2.502718 19.346616 31.507424 0.100810 0.909635 0.079755 0.003071 526437.000000 0 0 1
24.329420 3.610818 18.543016 30.802632 0.147338 0.924800 0.073272 0.004432 -120221.000000 0 0 1
24.096820 3.302018 17.019116 29.685188 0.136183 0.960244 0.087739 -0.002734 -276071.000000 0 0 1
25.171420 3.063018 16.139716 30.057826 0.121091 1.003972 0.083307 0.000132 -74167.400000 0 0 1
24.850820 3.136918 14.747816 29.067191 0.125566 1.038666 0.093149 -0.009624 95219.800000 0 0 1
23.945420 2.041218 14.043516 27.834691 0.085039 1.041956 0.099156 -0.001868 956145.000000 0 0 1
22.537620 2.045018 14.277816 26.757848 0.090490 1.007952 0.092441 0.003243 901704.000000 0 0 1
22.083920 0.823618 13.657416 25.978893 0.037278 1.017244 0.101558 -0.009656 -249957.000000 0 0 1
20.600020 0.427918 13.856216 24.830196 0.020770 0.978776 0.099267 -0.016358 -86644.500000 0 1 0
19.581920 1.087618 13.133416 23.603413 0.055485 0.980725 0.094108 -0.013667 538159.000000 0 1 0
19.533520 1.009118 11.714816 22.799422 0.051615 1.031164 0.089541 -0.016124 -1215580.000000 0 1 0
19.271320 -0.433482 11.101616 22.244495 -0.022490 1.048268 0.082143 -0.012122 408477.000000 0 1 0
20.393720 -1.342582 11.140416 23.276924 -0.065738 1.071733 0.099958 -0.029045 745448.000000 0 1 0
21.461620 -0.928882 10.315316 23.830017 -0.043254 1.123121 0.107080 -0.030547 -1068780.000000 0 1 0
22.627320 -1.891982 10.443716 24.992927 -0.083421 1.139700 0.127964 -0.043328 -368341.000000 0 1 0
23.256420 -1.812082 11.732316 26.111146 -0.077760 1.104790 0.127712 -0.039999 822650.000000 0 0 1
24.443820 -2.601582 11.874616 27.299727 -0.106032 1.120789 0.122208 -0.040040 503640.000000 0 0 1
24.928520 -2.557382 13.326316 28.382424 -0.102231 1.082041 0.146515 -0.025695 -55961.700000 0 0 1
25.692720 -1.423782 13.704716 29.154112 -0.055359 1.081417 0.129994 -0.028207 106292.000000 0 0 1
25.817020 -1.493982 15.106116 29.949044 -0.057804 1.042116 0.109691 -0.020650 -188017.000000 0 0 1
26.962820 -0.610182 15.639116 31.176079 -0.022627 1.045305 0.134156 -0.017455 -37212.300000 0 0 1
28.217820 -1.246982 15.483116 32.210669 -0.044163 1.069363 0.136717 -0.019306 -139416.000000 0 0 1
29.238020 -0.315782 15.716916 33.196129 -0.010800 1.077586 0.105398 -0.011898 -740501.000000 0 0 1
30.639820 -0.891982 15.759416 34.466700 -0.029104 1.095912 0.093576 -0.006623 -497785.000000 0 0 1
31.278620 -1.302582 14.540516 34.517755 -0.041620 1.135976 0.104464 -0.016972 504218.000000 0 0 1
32.629920 -1.592982 14.878816 35.897471 -0.048781 1.143424 0.097511 -0.019545 160882.000000 0 0 1
33.303920 -2.477982 13.809816 36.138657 -0.074268 1.178692 0.104640 -0.032047 -71549.900000 0 0 1
33.473320 -1.770182 12.622516 35.817937 -0.052834 1.210654 0.105606 -0.030022 264004.000000 0 0 1
34.229820 -2.570182 11.714216 36.269950 -0.074945 1.241927 0.105895 -0.036940 180321.000000 0 0 1
34.249120 -2.000982 10.264616 35.810173 -0.058358 1.280079 0.149349 -0.041029 -59750.800000 0 0 1
34.820320 -0.727182 10.111516 36.266048 -0.020881 1.288236 0.107180 -0.029298 -99011.900000 0 0 1
33.783920 0.197218 9.945116 35.217857 0.005838 1.284513 0.118501 -0.035103 -535668.000000 0 0 1
34.159320 1.596618 9.424116 35.471429 0.046706 1.301885 0.117133 -0.039341 -194350.000000 0 0 1
34.625320 1.560718 8.081716 35.590206 0.045044 1.341721 0.116867 -0.039365 232228.000000 0 0 1
35.160620 2.819718 7.769016 36.118937 0.080024 1.354007 0.126064 -0.041039 -322428.000000 0 0 1
35.766720 2.958718 6.385316 36.452497 0.082535 1.394720 0.122354 -0.044889 -164743.000000 0 0 1
36.036920 4.250218 5.922016 36.766755 0.117398 1.409022 0.113137 -0.034566 838.833000 0 0 1
36.263220 4.176718 4.561216 36.786829 0.114673 1.446486 0.115026 -0.027568 -231287.000000 0 0 1
36.731820 5.558018 3.993516 37.363971 0.150174 1.463710 0.122422 -0.039533 532186.000000 0 0 1
35.741220 6.606818 4.135616 36.581254 0.182788 1.457501 0.138847 -0.041307 463929.000000 0 0 1
36.174320 7.817418 3.610916 37.185107 0.212831 1.473537 0.124439 -0.046127 -604569.000000 0 0 1
34.985920 8.787318 3.587816 36.250572 0.246077 1.471661 0.146302 -0.042453 589771.000000 0 0 1
33.854920 8.599018 2.754916 35.038383 0.248736 1.492089 0.149698 -0.048290 484642.000000 0 0 1
33.048820 7.441818 2.982316 34.007343 0.221482 1.482987 0.172880 -0.047176 -741282.000000 0 0 1
31.708620 7.571318 2.251516 32.677680 0.234389 1.501841 0.182665 -0.042658 -445913.000000 0 0 1
31.885520 7.442018 0.830616 32.753014 0.229293 1.545434 0.183269 -0.044101 379047.000000 0 0 1
30.732720 7.363718 -0.005484 31.602602 0.235172 1.570970 0.163278 -0.040832 18971.900000 0 0 1
31.192120 7.393918 -1.446884 32.089124 0.232749 1.615901 0.145179 -0.035683 -158639.000000 0 0 1
30.220520 6.977218 -2.405584 31.108652 0.226901 1.648202 0.164822 -0.035941 617918.000000 0 0 1
30.761420 6.676818 -3.674884 31.691476 0.213736 1.687016 0.155291 -0.034911 -864745.000000 0 0 1
29.707420 6.177518 -4.632584 30.694517 0.205023 1.722301 0.178258 -0.031819 -742144.000000 0 0 1
29.276520 4.880618 -4.364784 29.999773 0.165188 1.716809 0.178355 -0.035147 437649.000000 0 0 1
28.321820 4.363518 -5.245284 29.132092 0.152867 1.751835 0.184001 -0.030759 -527974.000000 0 0 1
28.190020 2.851018 -5.243084 28.814848 0.100793 1.753773 0.194216 -0.027238 -291580.000000 0 0 1
27.569820 2.288718 -4.101484 27.967041 0.082825 1.717981 0.193991 -0.031652 529736.000000 0 0 1
27.484220 0.871918 -4.171784 27.812702 0.031714 1.721360 0.177376 -0.021760 -131420.000000 0 0 1
27.688820 0.300818 -2.756484 27.827315 0.010864 1.670016 0.174335 -0.024592 -992607.000000 0 0 1
28.960320 0.411918 -2.240684 29.049793 0.014223 1.648006 0.186698 -0.030279 -710477.000000 0 0 1
29.034220 -0.073882 -0.936984 29.049429 -0.002545 1.603057 0.188064 -0.030961 -671279.000000 0 0 1
30.281320 0.308218 -0.184284 30.283449 0.010178 1.576882 0.194118 -0.031234 -861279.000000 0 0 1
31.465720 -0.338882 -0.553984 31.472421 -0.010769 1.588399 0.187385 -0.030691 459228.000000 0 0 1
32.571720 0.037218 0.288916 32.573023 0.001143 1.561926 0.145927 -0.027967 388671.000000 0 0 1
-2.665480 -21.630582 -8.464964 23.380387 1.448187 1.941267 0.026573 0.012433 258857.000000 0 1 0
-3.362780 -22.074682 -7.336164 23.503599 1.419622 1.888230 0.031948 0.001977 -166437.000000 0 1 0
-2.648380 -23.166582 -6.837464 24.299287 1.456971 1.856034 0.039375 -0.005347 98284.900000 0 1 0
-3.258380 -23.674882 -5.506564 24.524260 1.434025 1.797263 0.037516 -0.008170 -594786.000000 0 1 0
-3.142380 -22.723582 -4.436864 23.364963 1.433381 1.761850 0.041444 -0.012726 88245.100000 0 1 0
-3.554580 -23.386382 -3.238464 23.875627 1.419957 1.706855 0.048574 -0.023242 -252879.000000 0 1 0
-3.052080 -22.629882 -2.039264 22.925648 1.436736 1.659865 0.043218 -0.027085 852932.000000 0 1 0
-1.631480 -22.749382 -1.837664 22.881720 1.499204 1.651194 0.046133 -0.024791 368275.000000 0 1 0
-1.332180 -22.542882 -0.499564 22.587736 1.511770 1.592915 0.047401 -0.026788 528692.000000 0 1 0
0.187620 -22.476482 -0.194864 22.478110 -1.562449 1.579466 0.055517 -0.027704 914990.000000 0 1 0
0.944420 -21.313282 -0.605264 21.342780 -1.526514 1.599159 0.039304 -0.023516 701093.000000 0 1 0
2.160420 -21.089582 0.122136 21.200302 -1.468712 1.565035 0.044903 -0.022042 942095.000000 0 1 0
3.162520 -20.053082 -0.473164 20.306440 -1.414377 1.594100 0.054205 -0.019745 493705.000000 0 1 0
3.960620 -20.638682 -1.475964 21.067040 -1.381199 1.640914 0.047245 -0.011821 -494874.000000 0 1 0
4.776220 -19.674482 -2.122564 20.356886 -1.332641 1.675254 0.058020 -0.009802 428442.000000 0 1 0
5.581820 -20.230382 -3.347464 21.251602 -1.301582 1.728971 0.048573 -0.003628 -278792.000000 0 1 0
6.603120 -21.166182 -3.016464 22.376495 -1.268398 1.706013 0.055780 -0.004643 112668.000000 0 1 0
7.364720 -21.572582 -4.122664 23.164882 -1.241810 1.749720 0.050524 -0.007269 282066.000000 0 1 0
8.516820 -20.645982 -4.563164 22.795071 -1.179546 1.772340 0.062309 -0.013580 -131824.000000 0 1 0
8.014520 -19.616982 -5.398664 21.867878 -1.182941 1.820252 0.048964 -0.020487 1851160.000000 0 1 0
9.217620 -19.198382 -6.163264 22.170436 -1.123175 1.852502 0.062863 -0.018154 1144830.000000 0 1 0
9.157220 -18.038282 -7.193664 21.470517 -1.101044 1.912453 0.055441 -0.013126 -841544.000000 0 1 0
10.403320 -17.560882 -7.607764 21.782831 -1.035973 1.927572 0.072928 -0.022573 -193402.000000 0 1 0
10.300420 -16.439782 -8.446264 21.159028 -1.011080 1.981419 0.067380 -0.019327 -165225.000000 0 1 0
10.547620 -16.868382 -9.914864 22.228341 -1.011989 2.033139 0.063129 -0.008031 338715.000000 0 1 0
9.474920 -17.603582 -10.555064 22.606848 -1.077028 2.056575 0.051220 -0.012357 388397.000000 0 1 0
8.763320 -16.675982 -11.319464 21.977589 -1.086953 2.111857 0.036639 -0.019517 -441032.000000 0 1 0
8.166320 -17.207182 -12.624564 22.850723 -1.127684 2.156133 0.039583 -0.021288 -458285.000000 0 1 0
7.013920 -17.981682 -12.465964 22.976863 -1.198889 2.144259 0.029599 -0.015157 -220803.000000 0 1 0
6.552020 -18.501782 -13.681864 23.925683 -1.230448 2.179554 0.031971 -0.007728 162190.000000 0 1 0
5.340120 -19.438282 -13.420564 24.217251 -1.302689 2.158166 0.034035 -0.000679 -46025.800000 0 1 0
5.663720 -20.683082 -12.835064 24.992128 -1.303515 2.110130 0.048457 -0.007045 -545950.000000 0 1 0
4.579620 -21.547582 -12.742964 25.449054 -1.361377 2.095232 0.061439 -0.001754 -287149.000000 0 0 1
5.004320 -22.960182 -12.219564 26.486429 -1.356196 2.050315 0.045602 0.002079 -82050.600000 0 0 1
5.503020 -23.767982 -13.285464 27.779557 -1.343275 2.069453 0.052508 -0.004495 -133321.000000 0 0 1
5.046120 -25.112642 -13.377764 28.897624 -1.372498 2.052102 0.045980 -0.008216 192184.000000 0 0 1
3.636220 -25.376802 -13.981464 29.200779 -1.428476 2.070089 0.056172 -0.017108 597284.000000 0 0 1
2.594720 -24.854482 -13.136064 28.231791 -1.466777 2.054762 0.073255 -0.016364 630025.000000 0 0 1
1.267320 -24.919382 -13.654164 28.443240 -1.519983 2.071508 0.063019 -0.021082 402360.000000 0 0 1
0.530620 -26.190662 -13.269764 29.365268 -1.550539 2.039675 0.045476 -0.013770 -1265680.000000 0 0 1
0.990520 -27.390942 -13.819764 30.695777 -1.534650 2.037805 0.059142 -0.011822 16450.500000 0 0 1
0.538720 -28.517742 -13.045964 31.364773 -1.551908 1.999776 0.040188 -0.004410 600688.000000 0 0 1
-0.945080 -28.950792 -13.162764 31.816661 1.538164 1.997318 0.024123 -0.006833 910592.000000 0 0 1
-2.007780 -28.169252 -12.582864 30.917089 1.499641 1.989950 0.032459 -0.009964 1022540.000000 0 0 1
-3.288580 -28.626952 -13.037964 31.627609 1.456421 1.995701 0.041812 -0.008256 941989.000000 0 0 1
-4.481880 -27.929652 -12.290364 30.841624 1.411683 1.980676 0.025499 -0.006254 312894.000000 0 0 1
-4.642180 -28.129052 -10.881564 30.515600 1.407239 1.935412 0.023530 -0.026071 -100495.000000 0 0 1
-4.927580 -29.414712 -10.370064 31.576012 1.404817 1.905422 0.013097 -0.015136 -642532.000000 0 0 1
-5.544280 -29.400802 -8.971864 31.235245 1.384409 1.862136 0.026919 -0.019979 1780890.000000 0 0 1
-6.948080 -28.955752 -8.882264 31.074202 1.335294 1.860680 0.047101 -0.025961 1649990.000000 0 0 1
-7.103980 -27.579442 -8.692264 29.776629 1.318694 1.867025 0.053467 -0.023928 -460071.000000 0 0 1
-8.565380 -27.087852 -8.527364 29.661986 1.264537 1.862396 0.061809 -0.031132 790266.000000 0 0 1
-9.536780 -27.299202 -9.578564 30.462198 1.234707 1.890664 0.087011 -0.031650 527435.000000 0 0 1
-9.804080 -28.678402 -9.944664 31.897760 1.241389 1.887848 0.085994 -0.041117 -1426560.000000 0 0 1
-11.186880 -28.972802 -10.478564 32.777581 1.202315 1.896195 0.103598 -0.038308 -902605.000000 0 0 1
-11.382480 -28.321302 -11.759664 32.710040 1.188649 1.938542 0.113224 -0.042153 -85462.500000 0 0 1
-12.218680 -29.082542 -12.587964 33.963911 1.173051 1.950481 0.123725 -0.040625 -332660.000000 0 0 1
-12.527280 -28.368662 -13.925564 33.994633 1.154959 1.992856 0.131767 -0.034087 357088.000000 0 0 1
-13.499080 -27.291962 -13.964064 33.497335 1.111464 2.000796 0.127455 -0.045276 381622.000000 0 0 1
-13.264380 -26.119912 -13.233164 32.145143 1.100907 1.995081 0.131527 -0.040478 -153594.000000 0 0 1
-14.250380 -24.945082 -13.476364 31.732363 1.051770 2.009414 0.148999 -0.041006 -194599.000000 0 0 1
-14.035780 -24.208082 -14.682564 31.600823 1.045364 2.054009 0.145209 -0.034612 643460.000000 0 0 1
-15.155580 -23.365282 -15.024364 31.644265 0.995380 2.065521 0.153092 -0.033748 548122.000000 0 0 1
-14.808480 -22.369882 -16.143664 31.310072 0.986043 2.112511 0.140664 -0.025023 -129542.000000 0 0 1
-14.228280 -21.165382 -15.741364 29.970117 0.978943 2.123788 0.118718 -0.019385 330565.000000 0 0 1
-13.726680 -20.398782 -16.816364 29.787953 0.978479 2.170667 0.098631 -0.007329 -45675.800000 0 0 1
-13.547180 -18.883682 -16.375064 28.429954 0.948487 2.184598 0.087800 -0.011547 -714712.000000 0 0 1
-12.557780 -18.301382 -17.162464 28.056881 0.969416 2.229007 0.080018 -0.000922 -108652.000000 0 0 1
-12.644980 -16.882582 -17.112064 27.161367 0.927938 2.252369 0.078032 0.002790 -1028980.000000 0 0 1
-11.376380 -16.204882 -17.514164 26.434186 0.958706 2.295024 0.085192 -0.005501 -651473.000000 0 0 1
-10.612180 -15.841582 -16.352464 25.119259 0.980563 2.279688 0.093461 -0.012145 -136346.000000 0 0 1
-9.258280 -15.642282 -16.681264 24.671062 1.036372 2.313317 0.086057 -0.007203 -695714.000000 0 1 0
-8.483980 -15.023482 -15.524664 23.209871 1.056726 2.303500 0.076751 -0.005160 -236351.000000 0 1 0
-8.119780 -15.841582 -14.394064 22.892698 1.097150 2.250757 0.078883 -0.002757 135703.000000 0 1 0
-7.002180 -16.651482 -14.707364 23.293968 1.172732 2.254129 0.069290 -0.000089 -787574.000000 0 1 0
-6.498080 -17.453282 -13.571064 23.043782 1.214384 2.200525 0.058380 -0.002308 -839376.000000 0 1 0
-5.992780 -16.653182 -12.525164 21.682288 1.225367 2.186665 0.054205 -0.007372 205391.000000 0 1 0
-5.705480 -17.387382 -11.336864 21.526682 1.253728 2.125442 0.043220 -0.009077 -113749.000000 0 1 0
-4.692380 -18.582182 -11.335964 22.267016 1.323447 2.104926 0.048903 -0.005861 474817.000000 0 1 0
-3.384180 -18.080982 -11.661364 21.779853 1.385769 2.135801 0.039600 -0.000214 351558.000000 0 1 0
-2.439080 -19.131382 -11.709764 22.562745 1.443989 2.116461 0.027299 0.009334 662920.000000 0 1 0
-0.978580 -18.690482 -12.001464 22.233463 1.518487 2.140987 0.024615 0.018044 -213181.000000 0 1 0
-0.854280 -18.416182 -13.377064 22.777871 1.524442 2.198495 0.031988 0.010806 464152.000000 0 1 0
0.416720 -17.832682 -13.695864 22.488995 -1.547432 2.225599 0.031647 0.010307 368753.000000 0 1 0
1.661420 -18.719082 -13.761564 23.292595 -1.482273 2.202862 0.033447 -0.000061 -755653.000000 0 1 0
1.647820 -19.617382 -14.859364 24.664908 -1.486995 2.217363 0.052766 0.004720 75392.400000 0 1 0
0.896420 -20.777482 -14.591364 25.405024 -1.527679 2.182606 0.060309 0.001022 -653888.000000 0 0 1
0.951920 -21.750282 -15.846064 26.927285 -1.527058 2.199969 0.073286 -0.008108 275177.000000 0 0 1
2.158920 -22.465582 -16.078464 27.710654 -1.474992 2.189803 0.074302 -0.005188 246697.000000 0 0 1
3.179720 -21.652982 -16.636264 27.490499 -1.424989 2.220768 0.070216 -0.003551 -90238.700000 0 0 1
4.589720 -22.286082 -16.691164 28.219319 -1.367690 2.203690 0.065720 -0.005675 218443.000000 0 0 1
4.696920 -23.345282 -17.640064 29.635032 -1.372253 2.208365 0.061253 -0.008203 80117.200000 0 0 1
6.060520 -23.698282 -17.737564 30.215222 -1.320426 2.198195 0.061472 -0.014607 259818.000000 0 0 1
6.670220 -23.690182 -19.180064 31.202427 -1.296341 2.232799 0.059192 -0.010624 -161065.000000 0 0 1
6.858420 -22.353682 -19.658964 30.548321 -1.273100 2.269906 0.063060 -0.014520 -14305.300000 0 0 1
7.165020 -22.424782 -21.017964 31.558884 -1.261535 2.299619 0.045499 -0.008461 -773021.000000 0 0 1
7.454720 -21.036382 -21.697664 31.127012 -1.230231 2.342097 0.040096 -0.015479 -226895.000000 0 0 1
6.332120 -20.203282 -21.852464 30.426938 -1.267073 2.372001 0.076271 -0.013823 -173706.000000 0 0 1
6.688520 -18.879782 -22.201764 29.901518 -1.230324 2.407586 0.077083 -0.013307 301658.000000 0 0 1
5.456420 -18.005282 -22.599264 29.405602 -1.276548 2.447346 0.076625 -0.013905 -399245.000000 0 0 1
4.813720 -18.489182 -23.789064 30.511331 -1.316097 2.464950 0.071624 -0.015478 812260.000000 0 0 1
3.779720 -17.585782 -24.245164 30.188972 -1.359087 2.503298 0.089697 -0.011187 360211.000000 0 0 1
2.494420 -17.374182 -23.485364 29.319732 -1.428200 2.499775 0.098179 -0.007801 -950772.000000 0 0 1
2.715620 -16.539982 -22.366264 27.949873 -1.408063 2.498471 0.094721 -0.011465 -41189.500000 0 0 1
1.474720 -16.202482 -21.765464 27.174081 -1.480028 2.499700 0.090997 -0.012618 478421.000000 0 0 1
1.627920 -15.225182 -20.567164 25.641071 -1.464278 2.501630 0.094095 -0.022540 66203.800000 0 0 1
1.997920 -13.942182 -20.989264 25.276972 -1.428465 2.550569 0.082247 -0.018738 -210518.000000 0 0 1
2.105420 -13.022982 -19.910764 23.884501 -1.410514 2.556439 0.080618 -0.026624 799726.000000 0 1 0
3.424520 -12.162682 -20.068064 23.714666 -1.296342 2.579666 0.069764 -0.024981 1049880.000000 0 1 0
4.578420 -12.905882 -19.621564 23.927589 -1.229892 2.532276 0.057071 -0.018734 393949.000000 0 1 0
5.803620 -12.207082 -19.626164 23.830258 -1.126997 2.538493 0.057228 -0.010658 304837.000000 0 1 0
5.962920 -11.313182 -18.357764 22.373020 -1.085722 2.533136 0.057287 -0.013923 -12790.000000 0 1 0
5.138220 -10.113882 -18.247564 21.486403 -1.100740 2.585380 0.036713 -0.004211 510640.000000 0 1 0
5.532420 -9.008282 -19.107464 21.836941 -1.020039 2.636245 0.049663 -0.012287 -301521.000000 0 1 0
5.019220 -8.925382 -20.556664 22.965876 -1.058518 2.679443 0.062003 -0.024068 -827386.000000 0 1 0
3.633020 -8.809382 -20.562464 22.663164 -1.179643 2.707633 0.059272 -0.024416 -879907.000000 0 1 0
3.181920 -8.895182 -21.881764 23.834019 -1.227267 2.734030 0.062762 -0.027371 -76968.000000 0 1 0
1.650720 -8.852882 -22.054364 23.822120 -1.386452 2.753926 0.070198 -0.026615 -111686.000000 0 1 0
1.160820 -7.611582 -21.737164 23.060529 -1.419455 2.801169 0.052731 -0.023407 -1330740.000000 0 1 0
-0.164680 -7.414282 -22.069264 23.281991 1.548589 2.817410 0.052295 -0.020693 -728969.000000 0 1 0
-0.393680 -6.281682 -23.091664 23.934065 1.508207 2.875491 0.067218 -0.018470 -242776.000000 0 1 0
-0.042880 -6.666782 -24.381164 25.276253 1.564365 2.874672 0.074356 -0.020124 -669118.000000 0 0 1
-0.658380 -5.881682 -25.346064 26.027882 1.459323 2.912199 0.080038 -0.032282 -178881.000000 0 0 1
-0.072280 -4.487882 -25.713484 26.102291 1.554692 2.968777 0.076995 -0.032525 -385783.000000 0 0 1
-0.695880 -3.978382 -26.864344 27.166243 1.397633 2.992370 0.072001 -0.031577 -183430.000000 0 0 1
-0.481780 -2.649082 -27.244144 27.376872 1.390896 3.043083 0.053218 -0.020188 -826514.000000 0 0 1
-0.890280 -1.548382 -26.241424 26.302137 1.048981 3.073634 0.051335 -0.028412 -33353.500000 0 0 1
-2.269780 -1.295182 -26.157284 26.287505 0.518536 3.042015 0.052485 -0.028221 -106544.000000 0 0 1
-2.946480 -0.737382 -27.273094 27.441704 0.245222 3.030682 0.059587 -0.020274 203080.000000 0 0 1
-4.492280 -0.943282 -27.226924 27.611153 0.206972 2.974571 0.082173 -0.028633 810452.000000 0 0 1
-5.190780 0.074418 -26.467564 26.971868 -0.014336 2.947913 0.079004 -0.031808 233829.000000 0 0 1
-6.570080 -0.241982 -26.458084 27.262698 0.036814 2.898037 0.093529 -0.046379 247804.000000 0 0 1
-7.519480 0.696218 -25.610744 26.700890 -0.092325 2.854856 0.091625 -0.038681 -548181.000000 0 0 1
-7.819080 1.984118 -26.219114 27.432038 -0.248508 2.843112 0.106831 -0.044020 701529.000000 0 0 1
-8.845080 1.931318 -27.229954 28.695572 -0.214975 2.820608 0.119639 -0.045866 24638.500000 0 0 1
-10.232580 1.412518 -26.839504 28.758649 -0.137174 2.774201 0.113386 -0.042072 -1650600.000000 0 0 1
-11.244680 1.908318 -27.655584 29.915144 -0.168107 2.750433 0.116010 -0.046147 -169838.000000 0 0 1
-12.501780 1.384818 -27.269414 30.030537 -0.110320 2.709416 0.081234 -0.033575 664897.000000 0 0 1
-13.711780 2.172218 -27.938174 31.197324 -0.157114 2.680420 0.059487 -0.025929 -458207.000000 0 0 1
-14.880980 1.378818 -27.856854 31.612482 -0.092393 2.649187 0.055537 -0.024795 63389.200000 0 0 1
-15.881480 1.910418 -28.716624 32.871197 -0.119717 2.633369 0.042702 -0.018424 93681.900000 0 0 1
-16.693980 3.103818 -28.108454 32.839121 -0.183825 2.598170 0.045774 -0.004718 -1020100.000000 0 0 1
-16.144880 4.410418 -28.081984 32.691081 -0.266671 2.604130 0.054859 -0.002959 -50840.900000 0 0 1
-16.000480 5.193118 -29.306874 33.791666 -0.313834 2.620511 0.043722 -0.008815 -611350.000000 0 0 1
-17.305880 5.587118 -30.008224 35.088501 -0.312282 2.596763 0.027035 -0.002299 -442489.000000 0 0 1
-17.886780 6.660818 -29.291144 34.961043 -0.356479 2.564079 0.028682 0.010002 356960.000000 0 0 1
-18.812680 7.320918 -30.178894 36.308104 -0.371116 2.552039 0.018176 0.008811 297017.000000 0 0 1
-19.612280 8.469918 -29.517514 36.437133 -0.407674 2.515109 0.020781 0.001207 -22196.300000 0 0 1
-18.779880 9.592318 -29.207254 36.024438 -0.472231 2.516249 0.018323 0.004665 139193.000000 0 0 1
-19.464880 10.653018 -28.634984 36.226105 -0.500764 2.482342 0.037429 -0.001775 -403687.000000 0 0 1
-9.305280 24.941318 31.006476 40.866357 -1.213704 0.709437 0.049064 -0.015586 -275796.000000 0 0 1
-9.981080 26.227618 30.920216 41.756073 -1.207163 0.736988 0.060619 -0.019694 407812.000000 0 0 1
-9.655280 27.040918 32.057849 43.036512 -1.227844 0.730413 0.072093 -0.026058 333894.000000 0 0 1
-8.196580 27.581818 32.124311 43.126696 -1.281935 0.730438 0.065794 -0.027269 -15593.800000 0 0 1
-7.943880 28.385618 31.047186 42.810936 -1.297921 0.759448 0.083741 -0.010609 665951.000000 0 0 1
-6.555680 28.244218 30.705126 42.231712 -1.342728 0.756762 0.088431 -0.004907 826358.000000 0 0 1
-6.120880 29.242318 29.616726 42.068144 -1.364460 0.789757 0.112683 -0.020501 -75691.300000 0 0 1
-6.331480 30.591818 30.120436 43.395710 -1.366711 0.803644 0.120812 -0.025330 262707.000000 0 0 1
-6.134080 31.537118 29.111766 43.355641 -1.378691 0.834613 0.116293 -0.017967 -9227.650000 0 0 1
-6.575780 32.955318 29.496556 44.713987 -1.373847 0.850414 0.114937 -0.025038 -11412.000000 0 0 1
-5.734580 33.452618 30.549656 45.664478 -1.401023 0.837930 0.124576 -0.034245 480580.000000 0 0 1
-6.340680 -33.628353 31.413356 46.452872 1.384433 0.828148 0.114454 -0.034026 863950.000000 0 0 1
-7.629080 33.949118 32.195438 47.405608 -1.349747 0.824195 0.087955 -0.034783 507897.000000 0 0 1
-7.420780 33.099318 33.331385 47.556430 -1.350246 0.794165 0.092457 -0.035087 -57954.500000 0 0 1
-7.074280 31.764918 33.018024 46.359954 -1.351665 0.778155 0.102141 -0.028229 -54154.100000 0 0 1
-7.012880 30.753018 -33.869594 46.282589 -1.346591 2.391756 0.091208 -0.023279 -121439.000000 0 0 1
-5.850280 30.838218 -33.083434 45.604113 -1.383315 2.382482 0.098264 -0.021273 -262939.000000 0 0 1
-5.967680 29.978118 -31.944954 44.212904 -1.374297 2.378245 0.086860 -0.026620 -591199.000000 0 0 1
-4.648780 29.593118 -31.239434 43.281243 -1.414980 2.377164 0.077440 -0.030362 506157.000000 0 0 1
-3.995980 28.340418 -31.601964 42.636033 -1.430720 2.405657 0.092265 -0.023192 345386.000000 0 0 1
-3.591980 28.313918 -32.967184 43.605223 -1.444608 2.428034 0.074055 -0.026235 -944992.000000 0 0 1
-2.758680 27.085018 -33.340404 43.044060 -1.469294 2.456823 0.083237 -0.042030 -1187870.000000 0 0 1
-1.574680 27.017818 -32.602064 42.371414 -1.512579 2.448753 0.099024 -0.031645 -29148.300000 0 0 1
-0.921080 25.720918 -32.587064 41.525062 -1.535001 2.473100 0.119030 -0.034183 657341.000000 0 0 1
-0.195880 25.304518 -33.916154 42.316220 -1.563056 2.500584 0.095681 -0.022808 -390854.000000 0 0 1
-1.165480 25.117918 33.118363 41.582378 -1.524429 0.649392 0.092549 -0.020159 13071.700000 0 0 1
-0.624880 24.925118 31.817746 40.423025 -1.545731 0.664672 0.090633 -0.016320 -86254.100000 0 0 1
-0.216480 26.176918 31.065586 40.624482 -1.562527 0.700219 0.078358 -0.014665 5716.350000 0 0 1
-1.317880 26.989618 30.691726 40.892032 -1.522006 0.721895 0.087375 -0.017702 276447.000000 0 0 1
-0.877580 28.254818 30.151966 41.330932 -1.539747 0.753168 0.089697 -0.013109 67791.100000 0 0 1
-1.947980 29.333818 30.371476 42.269304 -1.504486 0.769120 0.098169 -0.017220 9242.760000 0 0 1
-2.067280 29.771418 31.662686 43.510190 -1.501469 0.755823 0.115671 -0.022297 -192269.000000 0 0 1
-2.825080 30.939718 31.740816 44.415387 -1.479740 0.774693 0.112591 -0.026225 -70353.300000 0 0 1
-2.521680 31.741018 33.030128 45.878540 -1.491517 0.767070 0.131478 -0.025630 -532417.000000 0 0 1
-1.271180 32.323718 32.886106 46.129541 -1.531490 0.777160 0.130122 -0.031685 -695827.000000 0 0 1
-0.857780 32.947318 -33.941384 47.310455 -1.544767 2.370886 0.106386 -0.027348 -562955.000000 0 0 1
0.603420 33.394518 33.970036 47.639493 1.552729 0.776937 0.109629 -0.024189 -281509.000000 0 0 1
0.647120 -33.383753 33.521809 47.313903 -1.551414 0.783429 0.120754 -0.021563 -624887.000000 0 0 1
1.918820 -33.008553 33.155004 46.824147 -1.512731 0.784028 0.081417 -0.017384 -976698.000000 0 0 1
2.053620 -31.513753 32.776866 45.515458 -1.505722 0.766812 0.081533 -0.018442 -119539.000000 0 0 1
1.727920 -30.723553 33.869664 45.761081 -1.514615 0.737516 0.074695 -0.014606 320191.000000 0 0 1
2.127520 -29.384353 33.551856 44.650796 -1.498519 0.720573 0.059930 -0.022870 -129249.000000 0 0 1
1.817720 -28.325253 -33.417984 43.845020 -1.506711 2.437477 0.060629 -0.023676 192380.000000 0 0 1
0.423820 -28.081453 -33.328344 43.583554 -1.555705 2.441372 0.051121 -0.026396 253484.000000 0 0 1
0.055320 -27.398853 -32.145974 42.238180 -1.568777 2.435749 0.055185 -0.027756 491514.000000 0 0 1
-1.481080 -27.120153 -32.166104 42.099342 1.516239 2.440368 0.084960 -0.032326 624652.000000 0 0 1
-2.072080 -26.810653 -30.893404 40.957381 1.493664 2.425356 0.090015 -0.033204 -751012.000000 0 0 1
-3.246080 -26.124353 -31.099794 40.745749 1.447175 2.439148 0.101637 -0.036125 -892076.000000 0 0 1
-3.763780 -25.544753 -29.786684 39.420135 1.424508 2.427398 0.104699 -0.035169 -17585.400000 0 0 1
-4.383280 -26.396653 -28.813134 39.321663 1.406243 2.393158 0.104479 -0.037129 126454.000000 0 0 1
-4.762780 -25.764753 -27.591274 38.049770 1.388003 2.382029 0.100260 -0.026771 201898.000000 0 0 1
-3.655180 -25.179653 -26.668614 36.859060 1.426639 2.379698 0.095859 -0.026709 571393.000000 0 0 1
-2.779180 -24.192553 -27.256614 36.550328 1.456420 2.412424 0.095916 -0.029501 1205040.000000 0 0 1
-1.704180 -23.780653 -26.396734 35.569809 1.499256 2.407010 0.087488 -0.027949 -560767.000000 0 0 1
-0.683180 -22.763753 -26.967814 35.297567 1.540794 2.440307 0.077766 -0.028450 355374.000000 0 0 1
0.064820 -23.105553 -28.129634 36.402570 -1.567991 2.453939 0.048386 -0.031002 211055.000000 0 0 1
0.757020 -24.334353 -27.948804 37.065746 -1.539697 2.424977 0.045696 -0.025746 -810635.000000 0 0 1
1.724720 -24.737153 -29.117484 38.245644 -1.501187 2.436155 0.029480 -0.028766 1432050.000000 0 0 1
2.792920 -23.803153 -29.446604 37.966999 -1.453996 2.458436 0.035293 -0.029874 803796.000000 0 0 1
3.589920 -24.149053 -30.523154 39.086152 -1.423220 2.466934 0.030156 -0.022286 -371621.000000 0 0 1
4.589220 -22.969453 -30.936304 38.803501 -1.373596 2.493531 0.035302 -0.030962 1035140.000000 0 0 1
5.827420 -22.910053 -30.187434 38.342021 -1.321718 2.477246 0.031518 -0.029490 964173.000000 0 0 1
6.755820 -23.945353 -30.279604 39.190247 -1.295809 2.453772 0.042899 -0.016455 -865290.000000 0 0 1
7.415620 -24.247553 -31.660824 40.562829 -1.274000 2.466322 0.056830 -0.014220 -690579.000000 0 0 1
6.649320 -25.023253 -32.585824 41.619858 -1.311073 2.470173 0.023946 -0.020595 -9330.980000 0 0 1
6.918420 -24.739353 -33.953434 42.576236 -1.298110 2.493893 0.041958 -0.021359 -42396.500000 0 0 1
6.432120 -23.382853 33.495406 41.353019 -1.302357 0.626666 0.048784 -0.019646 -153993.000000 0 0 1
5.036820 -23.222253 33.603084 41.155921 -1.357208 0.615504 0.054935 -0.023105 -154576.000000 0 0 1
4.581820 -22.076453 32.955733 39.930480 -1.366158 0.600014 0.071087 -0.037940 600246.000000 0 0 1
3.140020 -21.546253 33.344885 39.824391 -1.426081 0.578474 0.061659 -0.037101 1713450.000000 0 0 1
1.984020 -22.345353 33.090432 39.977842 -1.482240 0.595765 0.061227 -0.030830 512104.000000 0 0 1
1.802720 -23.422453 33.924051 41.263814 -1.493982 0.605661 0.053866 -0.027418 -468513.000000 0 0 1
0.506520 -24.192353 33.588327 41.396887 -1.549862 0.624299 0.056457 -0.021110 -69682.300000 0 0 1
0.536120 -25.153253 32.515960 41.112787 -1.549485 0.658524 0.057081 -0.016189 430886.000000 0 0 1
-0.781780 -25.574553 32.150389 41.089128 1.540237 0.672198 0.061777 -0.018329 387738.000000 0 0 1
-0.885580 -26.628953 31.093376 40.947325 1.537552 0.708482 0.063356 -0.018015 770325.000000 0 0 1
-2.173180 -26.848153 30.464866 40.665146 1.490029 0.723997 0.074493 -0.021637 847975.000000 0 0 1
-2.216880 -27.995853 29.577286 40.786005 1.491775 0.759497 0.081090 -0.023063 45169.300000 0 0 1
-3.592280 -28.196053 28.899036 40.534876 1.444075 0.777111 0.090335 -0.018726 757917.000000 0 0 1
-4.614680 -28.769053 29.734216 41.630245 1.411747 0.775251 0.096361 -0.021707 219600.000000 0 0 1
-5.765080 -29.101653 29.031026 41.508346 1.375227 0.796236 0.085092 -0.024994 -485528.000000 0 0 1
-6.854680 -29.896453 29.774776 42.747185 1.345411 0.800244 0.077541 -0.024027 411040.000000 0 0 1
-8.073580 -30.004053 29.038246 42.528174 1.307939 0.819208 0.087706 -0.014874 1017070.000000 0 0 1
-9.298480 -30.194353 29.740406 43.389543 1.272058 0.815605 0.075498 -0.015619 488355.000000 0 0 1
-9.589480 -31.338553 30.725056 44.923180 1.273848 0.817638 0.065627 -0.018671 -789789.000000 0 0 1
-9.605480 -32.683053 30.234086 45.547197 1.284947 0.844912 0.091770 -0.022192 402896.000000 0 0 1
-10.662280 -33.032153 29.350296 45.455992 1.258569 0.868875 0.077418 -0.017450 -91613.600000 0 0 1
-10.536980 33.586118 28.971536 45.589529 -1.266791 0.882158 0.096954 -0.018500 -170810.000000 0 0 1
-10.867780 32.670218 30.018246 45.678735 -1.249660 0.853751 0.089930 -0.016926 332281.000000 0 0 1
-10.657880 31.395718 29.492556 44.374456 -1.243534 0.843799 0.096837 -0.025691 -129078.000000 0 0 1
-11.207980 30.322418 30.401486 44.377000 -1.216745 0.816092 0.089995 -0.010114 -491405.000000 0 0 1
-12.601380 30.283818 30.487206 44.781404 -1.176480 0.821941 0.082608 -0.003779 -569609.000000 0 0 1
-13.139380 29.191318 31.188646 44.693489 -1.147849 0.798427 0.072910 -0.008217 8229.090000 0 0 1
-13.104080 29.096518 32.722646 45.706628 -1.147638 0.772844 0.079148 -0.022335 -112757.000000 0 0 1
-14.127580 29.870918 33.339805 46.940418 -1.129018 0.780932 0.074189 -0.012043 439059.000000 0 0 1
-14.255780 29.385218 -33.344374 46.675107 -1.119112 2.366553 0.072144 -0.014659 -201540.000000 0 0 1
-15.588580 29.828418 -32.727454 46.944910 -1.089226 2.342205 0.064283 -0.011820 -396200.000000 0 0 1
-15.760580 29.373818 -31.392444 45.789765 -1.078336 2.326193 0.055983 -0.017824 593040.000000 0 0 1
-16.964880 29.806318 -30.729814 46.049378 -1.053354 2.301405 0.065803 -0.016766 776554.000000 0 0 1
-17.092380 29.292618 -29.284224 44.808177 -1.042594 2.283057 0.074048 -0.024769 19391.600000 0 0 1
-17.044480 27.867018 -29.157334 43.786244 -1.021865 2.299498 0.064177 -0.034602 73708.100000 0 0 1
-17.126880 27.431918 -27.797614 42.644431 -1.012671 2.280813 0.066522 -0.032960 -112132.000000 0 0 1
-17.617180 25.939418 -27.630274 41.792948 -0.974190 2.293111 0.044697 -0.037066 371149.000000 0 0 1
-18.961880 25.795718 -28.057194 42.569685 -0.936914 2.290403 0.044850 -0.032578 15619.900000 0 0 1
-19.587880 24.683718 -27.461334 41.798276 -0.899998 2.287625 0.028459 -0.029608 1011940.000000 0 0 1
-21.045580 24.470118 -28.042854 42.756342 -0.860495 2.286139 0.034857 -0.026110 1144300.000000 0 0 1
-22.045880 25.258618 -27.406714 43.302963 -0.853210 2.256097 0.035538 -0.023647 310002.000000 0 0 1
-23.350580 24.808318 -27.689124 43.902048 -0.815658 2.253254 0.039242 -0.025938 408558.000000 0 0 1
-24.405580 24.834818 -26.549664 43.786815 -0.794115 2.222245 0.059622 -0.030037 298153.000000 0 0 1
-24.712280 26.181218 -26.104684 44.470299 -0.814253 2.198162 0.033956 -0.011897 589083.000000 0 0 1
-25.931840 26.148418 -25.341634 44.703451 -0.789557 2.173514 0.032996 -0.009018 664873.000000 0 0 1
-25.753440 25.825018 -23.813264 43.557350 -0.786786 2.149227 0.029006 -0.000448 -491800.000000 0 0 1
-25.472390 24.484018 -23.408664 42.382489 -0.765616 2.155940 0.035998 -0.009087 539238.000000 0 0 1
-26.623140 23.592818 -23.401364 42.579766 -0.725125 2.152668 0.041335 -0.006210 716670.000000 0 0 1
-27.568830 23.812318 -22.214164 42.667739 -0.712417 2.118387 0.031761 -0.004457 -502221.000000 0 0 1
-27.087300 23.395918 -20.920964 41.458142 -0.712407 2.099748 0.025630 -0.003867 422528.000000 0 0 1
-26.091850 24.318318 -20.436764 41.107500 -0.750231 2.091112 0.030620 -0.002462 860670.000000 0 0 1
-25.054680 23.698218 -19.420264 39.578898 -0.757582 2.083657 0.034277 -0.008599 751924.000000 0 0 1
-25.695300 23.490118 -18.131064 39.252638 -0.740594 2.050940 0.032183 -0.004532 5442.590000 0 0 1
-24.767180 23.118818 -17.175664 37.985476 -0.750989 2.039986 0.044279 -0.014439 -543580.000000 0 0 1
-25.231070 23.225718 -15.733164 37.730271 -0.744037 2.000928 0.038009 -0.014781 -315590.000000 0 0 1
-25.649630 24.551718 -15.347764 38.681316 -0.763531 1.978797 0.042823 -0.021977 45478.300000 0 0 1
-25.870900 24.434818 -13.931064 38.215682 -0.756859 1.943933 0.010040 -0.019650 -22246.100000 0 0 1
-26.216710 25.791318 -13.319264 39.114074 -0.777219 1.918270 0.017176 -0.018709 -747929.000000 0 0 1
-25.132120 26.611718 -13.134864 38.888708 -0.813985 1.915327 0.027963 -0.019954 -935213.000000 0 0 1
-25.174100 27.161418 -11.816764 38.873048 -0.823353 1.879668 0.036343 -0.021048 -416931.000000 0 0 1
-23.881880 27.847318 -11.364664 38.405376 -0.861906 1.871208 0.049001 -0.021332 -392151.000000 0 0 1
-22.895580 26.836018 -11.218464 37.016663 -0.864467 1.878704 0.045870 -0.025451 308358.000000 0 0 1
-21.779080 27.426218 -10.515964 36.566532 -0.899665 1.862500 0.046262 -0.023404 570510.000000 0 0 1
-20.802280 26.351318 -9.970864 35.022064 -0.902539 1.859492 0.084374 -0.024117 -84100.700000 0 0 1
-20.081880 25.705118 -10.995764 34.422984 -0.907599 1.895925 0.082565 -0.029472 -46485.200000 0 0 1
-19.279680 24.719818 -10.390364 33.026279 -0.908415 1.890841 0.085950 -0.018279 -389555.000000 0 0 1
-18.763680 23.687818 -11.395164 32.296101 -0.900877 1.931395 0.091065 -0.024226 -240322.000000 0 0 1
-18.200580 22.560018 -10.799564 30.932929 -0.891945 1.927437 0.075597 -0.018607 -192157.000000 0 0 1
-17.642080 21.727818 -11.744764 30.352604 -0.888806 1.968112 0.094403 -0.017337 -60409.800000 0 0 1
-17.325680 20.370718 -11.078064 28.945964 -0.866001 1.963530 0.078539 -0.007437 114969.000000 0 0 1
-18.465680 19.583418 -10.712264 28.969712 -0.814766 1.949563 0.063179 -0.003701 296072.000000 0 0 1
-18.157780 18.226118 -10.333764 27.725134 -0.787276 1.952737 0.087717 -0.022021 17161.600000 0 0 1
-19.380480 17.239518 -10.367664 27.933715 -0.727000 1.951046 0.075380 -0.011913 495051.000000 0 0 1
-19.815080 16.765518 -11.655064 28.452777 -0.702225 1.992843 0.078246 -0.006250 734998.000000 0 0 1
-20.690680 17.657418 -12.400764 29.894274 -0.706464 1.998542 0.076004 -0.002736 -165152.000000 0 0 1
-21.424480 17.062618 -13.555964 30.559866 -0.672547 2.030394 0.075508 -0.006299 -152481.000000 0 0 1
-20.559480 16.779518 -14.641264 30.308597 -0.684508 2.074957 0.080084 -0.007361 481742.000000 0 0 1
-21.334680 16.654918 -15.841664 31.361014 -0.662830 2.100339 0.067210 -0.005868 487582.000000 0 0 1
-20.480080 16.339218 -17.127764 31.301182 -0.673404 2.149802 0.085159 -0.013026 316905.000000 0 0 1
-19.779880 17.527718 -17.530664 31.714172 -0.725104 2.156482 0.073339 -0.016762 398273.000000 0 0 1
-18.916480 17.302018 -18.634564 31.692902 -0.740852 2.199347 0.082743 -0.014873 -465526.000000 0 0 1
-18.252180 18.617618 -19.093264 32.315793 -0.795309 2.202888 0.069099 -0.013641 567092.000000 0 0 1
-16.954480 18.791718 -18.486964 31.342478 -0.836750 2.201654 0.091886 -0.009998 757372.000000 0 0 1
-16.489180 20.096118 -18.690264 32.016761 -0.883670 2.194154 0.084026 -0.021870 -289601.000000 0 0 1
33.806836 30.137718 1.625136 45.319149 0.728081 1.534929 0.082864 -0.027466 -672142.000000 0 0 1
35.185796 30.202518 1.453136 46.393361 0.709335 1.539469 0.092567 -0.027732 -626417.000000 0 0 1
35.469596 30.872618 0.270136 47.024289 0.716217 1.565052 0.065080 -0.017903 -427063.000000 0 0 1
36.881286 30.710218 -0.310464 47.994199 0.694351 1.577265 0.026767 -0.013058 -469753.000000 0 0 1
-36.044184 31.467518 0.456636 47.849727 -0.717711 1.561253 0.008041 -0.012528 -193691.000000 0 0 1
-34.928327 31.738018 -0.356664 47.195519 -0.737580 1.578354 0.044955 -0.011220 -340682.000000 0 0 1
-33.927040 32.782118 0.124636 47.177609 -0.768237 1.568154 0.043672 -0.006503 -34948.200000 0 0 1
-33.371920 32.471318 1.411836 46.583954 -0.771721 1.540484 0.042134 -0.015388 53518.300000 0 0 1
-33.117810 33.652418 2.099936 47.261869 -0.793405 1.526350 0.016692 -0.006670 103579.000000 0 0 1
-32.177210 33.536718 3.363936 46.598287 -0.806083 1.498543 0.043476 -0.005624 96605.000000 0 0 1
-31.936680 -33.264253 3.932436 46.280948 0.805757 1.485725 0.033637 0.007609 343073.000000 0 0 1
-31.175860 -33.395853 5.152536 45.975710 0.819765 1.458490 0.051672 -0.014589 -471696.000000 0 0 1
-31.162760 -32.092053 5.914236 45.122009 0.800088 1.439346 0.054406 -0.010342 567575.000000 0 0 1
-32.354670 -31.565853 6.519336 45.669788 0.773058 1.427558 0.063962 -0.009018 572122.000000 0 0 1
-32.958100 -32.369253 7.515436 46.802635 0.776385 1.409521 0.055830 -0.024088 -749677.000000 0 0 1
-34.074940 -31.683453 8.395236 47.280257 0.749046 1.392287 0.065598 -0.018854 1221780.000000 0 0 1
-35.380521 -31.529253 7.831436 48.033389 0.727902 1.407024 0.054110 -0.020161 700523.000000 0 0 1
-36.044325 -32.730453 7.341236 49.237889 0.737251 1.421141 0.046113 -0.024029 -25796.500000 0 0 1
36.251066 -32.462353 7.209236 49.192654 -0.730316 1.423716 0.044498 -0.015950 663438.000000 0 0 1
35.574276 -32.600953 8.445436 48.986495 -0.741813 1.397527 0.035630 -0.011386 308875.000000 0 0 1
34.183536 -32.390253 8.246436 47.808434 -0.758468 1.397440 0.028525 0.003517 825208.000000 0 0 1
33.297896 -32.257253 9.563036 47.336370 -0.769525 1.367373 0.039250 -0.009931 -397422.000000 0 0 1
31.915516 -32.203453 9.380036 46.299543 -0.789889 1.366790 0.036828 -0.013586 -447015.000000 0 0 1
31.105626 -32.283353 10.513736 46.046862 -0.803975 1.340438 0.048606 -0.006895 37384.100000 0 0 1
31.216456 -31.024553 11.382236 45.459271 -0.782315 1.317720 0.048072 -0.012803 -937324.000000 0 0 1
30.540766 -29.849153 10.987036 44.095638 -0.773946 1.318980 0.035048 -0.016897 127417.000000 0 0 1
30.871446 -29.301553 9.691636 43.652663 -0.759314 1.346914 0.027788 -0.018716 69364.600000 0 0 1
30.342006 -27.825253 9.418536 42.232581 -0.742158 1.345889 0.017028 -0.018556 -12527.800000 0 0 1
30.756616 -27.404853 8.126136 41.988445 -0.727833 1.376035 0.020111 -0.023682 -105690.000000 0 0 1
30.240106 -26.177353 7.761036 40.742503 -0.713510 1.379135 0.010011 -0.017829 -400374.000000 0 0 1
30.487156 -25.837853 6.255436 40.449868 -0.703041 1.415527 0.002134 -0.008260 868720.000000 0 0 1
31.787276 -25.333753 5.931036 41.078062 -0.672895 1.425905 0.021973 -0.012757 378781.000000 0 0 1
31.624186 -24.704253 4.642336 40.397284 -0.663161 1.455625 0.022278 -0.009563 -85063.900000 0 0 1
32.919296 -24.302653 3.932636 41.106747 -0.635938 1.474981 0.030682 -0.009599 -333537.000000 0 0 1
33.635266 -25.387953 3.444436 42.281715 -0.646567 1.489242 0.027152 0.005629 673102.000000 0 0 1
35.050296 -25.070353 3.429736 43.229723 -0.620900 1.491375 0.030639 -0.003863 1462160.000000 0 0 1
35.943716 -26.347453 3.494536 44.702917 -0.632545 1.492544 0.035381 -0.003369 148572.000000 0 0 1
35.706656 -27.119953 4.640136 45.077578 -0.649567 1.467677 0.019134 -0.003012 -426109.000000 0 0 1
36.368036 -28.336953 4.579436 46.331287 -0.661911 1.471794 0.027418 -0.005552 -1042870.000000 0 0 1
35.980006 -29.239253 5.713836 46.713410 -0.682409 1.448172 0.040852 -0.008008 1100040.000000 0 0 1
34.634716 -29.732453 5.815536 46.015245 -0.709384 1.444075 0.025524 -0.001159 83767.500000 0 0 1
33.594456 -28.827153 5.925536 44.662112 -0.709174 1.437729 0.013465 0.004595 -2731520.000000 0 0 1
32.317506 -29.579153 6.230436 44.251168 -0.741186 1.429530 0.006145 0.000195 -672127.000000 0 0 1
31.627376 -30.165853 5.137536 44.007544 -0.761751 1.453787 -0.009808 -0.001319 -57234.000000 0 0 1
31.137496 -29.202953 4.183136 42.893528 -0.753349 1.473117 0.007040 -0.005103 -1299830.000000 0 0 1
29.721116 -29.576053 3.749536 42.096873 -0.782952 1.481609 0.005109 0.001455 -315376.000000 0 0 1
29.649346 -30.900853 3.211536 42.944853 -0.806064 1.495944 0.015556 0.006540 -343727.000000 0 0 1
28.318356 -31.351853 3.168736 42.366365 -0.836192 1.495933 0.041753 0.000669 -221057.000000 0 0 1
28.184756 -32.797553 2.578536 43.320997 -0.860896 1.511240 0.050559 0.003176 -281254.000000 0 0 1
28.372656 -32.930153 1.188136 43.483494 -0.859606 1.543469 0.054867 0.002532 110514.000000 0 0 1
28.270156 33.745618 0.835736 44.030295 0.873461 1.551814 0.062777 0.008529 -285802.000000 0 0 1
28.132456 33.465418 -0.698964 43.724796 0.871760 1.586783 0.057067 0.009514 -468774.000000 0 0 1
29.170666 -33.945453 -1.347464 44.777642 -0.860905 1.600893 0.049612 0.002743 -380385.000000 0 0 1
28.917036 -33.926153 -2.739664 44.661892 -0.864938 1.632177 0.057605 0.005873 -354241.000000 0 0 1
29.935466 -33.264553 -3.655164 44.900143 -0.838025 1.652293 0.033014 0.006779 -426246.000000 0 0 1
29.981036 -31.841853 -3.593164 43.882536 -0.815488 1.652770 0.019102 0.005952 326255.000000 0 0 1
30.790536 -31.366453 -4.685864 44.202588 -0.794663 1.677005 0.001751 0.011586 -49206.300000 0 0 1
31.253876 -29.901353 -4.587364 43.496432 -0.763286 1.676458 -0.010457 0.016633 -841521.000000 0 0 1
30.299806 -28.869053 -4.729864 42.117361 -0.761222 1.683336 -0.000667 -0.002407 -256492.000000 0 0 1
30.816916 -27.582053 -4.901064 41.646998 -0.730062 1.688751 -0.001367 -0.005539 267724.000000 0 0 1
31.860986 -27.237753 -6.026864 42.347854 -0.707328 1.713599 0.016457 -0.009807 -721323.000000 0 0 1
33.170426 -27.611453 -5.754764 43.540634 -0.694194 1.703354 0.013837 0.005357 -758364.000000 0 0 1
34.060256 -27.080053 -6.709964 44.027877 -0.671723 1.723795 0.035152 -0.007766 -132441.000000 0 0 1
34.108596 -27.978253 -7.998864 44.834817 -0.686979 1.750164 0.040914 -0.019862 -196811.000000 0 0 1
32.948506 -27.977453 -8.874164 44.125874 -0.703987 1.773287 0.041926 -0.021861 752491.000000 0 0 1
32.824386 -29.168253 -9.721264 44.974774 -0.726490 1.788665 0.037633 -0.008386 204302.000000 0 0 1
32.547376 -30.537553 -8.992564 45.527355 -0.753550 1.769624 0.033135 -0.006165 -447222.000000 0 0 1
33.653396 -31.004953 -8.286964 46.503032 -0.744460 1.749956 0.035643 -0.002832 -728933.000000 0 0 1
33.429346 -32.214453 -7.675764 47.055388 -0.766893 1.734650 0.038105 -0.006931 -105259.000000 0 0 1
34.710606 -32.865053 -7.134664 48.330542 -0.758094 1.718960 0.033806 -0.007002 -173434.000000 0 0 1
34.576146 33.968418 -6.438864 48.896035 0.776532 1.702865 0.017256 -0.006639 15468.300000 0 0 1
33.906786 33.978118 -5.152264 48.277619 0.786449 1.677722 0.019583 -0.003898 -12319.500000 0 0 1
33.733286 32.552418 -4.601864 47.103839 0.767585 1.668649 0.003586 0.001150 -339271.000000 0 0 1
32.708156 31.839118 -5.238064 45.945514 0.771935 1.685051 0.023907 -0.007971 -90266.200000 0 0 1
32.818866 30.427018 -5.034264 45.035821 0.747598 1.682814 0.027440 0.000687 -1156850.000000 0 0 1
31.685176 29.629218 -5.534264 43.731785 0.751879 1.697687 0.043215 -0.011316 -1071930.000000 0 0 1
31.566956 29.543518 -6.976664 43.794589 0.752299 1.730782 0.024080 -0.007419 522957.000000 0 0 1
30.356696 28.821118 -7.261164 42.484236 0.759455 1.742554 0.022665 -0.007894 625106.000000 0 0 1
30.296516 28.295818 -8.658464 42.349748 0.751265 1.776700 0.031900 -0.003620 122672.000000 0 0 1
31.282856 27.285018 -8.945964 42.463155 0.717244 1.783063 0.033757 -0.001894 360723.000000 0 0 1
31.619106 27.166418 -10.320564 42.945269 0.709798 1.813491 0.029017 0.001297 434305.000000 0 0 1
32.703286 28.199918 -10.797064 44.511986 0.711589 1.815806 0.045201 -0.005156 -30996.600000 0 0 1
34.024846 27.846118 -10.413564 45.183390 0.685863 1.803360 0.047089 -0.010817 806652.000000 0 0 1
35.077466 28.731918 -10.800864 46.611269 0.686279 1.804644 0.059528 -0.011159 526519.000000 0 0 1
35.125746 30.012018 -9.991864 47.269193 0.707053 1.783785 0.051200 -0.012670 -856529.000000 0 0 1
35.706736 29.835818 -8.691264 47.335875 0.696062 1.755452 0.030426 -0.010355 158556.000000 0 0 1
35.431676 30.994618 -7.883864 47.730759 0.718701 1.736730 0.028016 -0.009898 -388206.000000 0 0 1
36.538986 31.168618 -6.788764 48.504305 0.706247 1.711219 0.029131 -0.009676 830762.000000 0 0 1
-36.000414 31.474318 -7.293964 48.372145 -0.718420 1.722162 0.047707 -0.010499 465573.000000 0 0 1
-35.255939 30.357618 -7.781164 47.171100 -0.710882 1.736510 0.056982 -0.015242 707589.000000 0 0 1
-33.735880 30.617318 -8.179164 46.286375 -0.736976 1.748437 0.104572 -0.026177 1270530.000000 0 0 1
-32.887100 31.126918 -7.095764 45.834444 -0.757908 1.726234 0.088115 -0.033328 1923250.000000 0 0 1
-31.509360 31.326518 -7.516264 45.063119 -0.782488 1.738374 0.102229 -0.039854 1164850.000000 0 0 1
-31.329650 32.473918 -8.538064 45.923859 -0.803330 1.757802 0.076821 -0.035650 -940229.000000 0 0 1
-31.345140 33.807018 -7.967564 46.785835 -0.823167 1.741929 0.066223 -0.018056 50605.200000 0 0 1
-30.317460 -33.923053 -7.063064 46.041381 0.841466 1.724811 0.095568 -0.017934 -149520.000000 0 0 1
-30.424450 -32.479653 -6.511664 44.977514 0.818059 1.716083 0.081273 -0.014533 -7298.530000 0 0 1
-31.465830 -32.279953 -5.570064 45.421575 0.798169 1.693736 0.069012 -0.014937 -90422.000000 0 0 1
-31.228510 -32.694953 -4.243664 45.411326 0.808335 1.664382 0.074551 -0.019894 516491.000000 0 0 1
-32.490100 -32.839553 -3.296664 46.313182 0.790747 1.642039 0.059247 -0.015982 602585.000000 0 0 1
-33.003860 -31.592753 -2.847264 45.776236 0.763557 1.633036 0.050759 -0.006156 -369517.000000 0 0 1
-34.075790 -31.776353 -1.976764 46.634791 0.750494 1.613197 0.060322 -0.006257 -399643.000000 0 0 1
-34.668686 -30.417853 -1.484464 46.145067 0.720180 1.602971 0.075260 -0.004247 -31394.300000 0 0 1
-35.771322 -30.643353 -0.644064 47.106447 0.708340 1.584469 0.059117 -0.000078 -418069.000000 0 0 1
-36.330520 -29.372653 -0.369964 46.720406 0.679893 1.578715 0.079055 -0.007260 -288635.000000 0 0 1
36.444416 -29.495453 0.732736 46.890448 -0.680402 1.555169 0.066354 -0.001304 -1358360.000000 0 0 1
35.323736 -30.215953 0.357036 46.485456 -0.707621 1.563116 0.016060 0.001433 -191448.000000 0 0 1
34.223656 -30.220953 1.262936 45.674497 -0.723367 1.543142 0.019407 -0.000677 719549.000000 0 0 1
33.492016 -28.836753 1.448036 44.219569 -0.710848 1.538044 -0.004568 0.017840 -1236150.000000 0 0 1
32.787416 -28.388153 0.319836 43.370545 -0.713610 1.563422 -0.011573 0.008062 -451858.000000 0 0 1
32.195086 -27.178553 0.664936 42.138337 -0.701107 1.555016 -0.007222 0.005810 -164093.000000 0 0 1
30.842086 -26.839453 -0.078964 40.885166 -0.716117 1.572728 -0.008599 -0.008176 632742.000000 0 0 1
29.745786 -27.631953 0.351036 40.601230 -0.748574 1.562150 -0.006682 0.002860 162344.000000 0 0 1
29.806086 -29.013253 0.037236 41.595349 -0.771920 1.569901 -0.006718 0.004940 -1186340.000000 0 0 1
29.408556 -29.493353 -1.378964 41.672804 -0.786838 1.603893 0.008809 -0.001169 1132300.000000 0 0 1
27.981056 -29.393053 -1.608664 40.613777 -0.810004 1.610416 0.019717 0.003928 1260280.000000 0 0 1
27.587356 -29.852453 -2.930564 40.753152 -0.824812 1.642769 0.027233 0.003765 30110.000000 0 0 1
26.121156 -30.305253 -3.109564 40.129697 -0.859414 1.648362 0.053631 -0.005419 -95761.300000 0 0 1
25.241056 -29.248853 -3.039264 38.753625 -0.858817 1.649302 0.065619 -0.005640 164121.000000 0 0 1
23.881356 -29.652353 -3.274264 38.213898 -0.892785 1.656584 0.053071 -0.005251 1134850.000000 0 0 1
22.860556 -28.482453 -3.427664 36.682476 -0.894461 1.664374 0.057280 -0.002277 147230.000000 0 0 1
22.879156 -27.865853 -4.672464 36.356478 -0.883353 1.699671 0.064004 -0.011752 93478.700000 0 0 1
22.368156 -26.550353 -4.551864 35.013928 -0.870684 1.701167 0.073862 -0.015733 116425.000000 0 0 1
21.741256 -25.978053 -5.879564 34.381837 -0.873952 1.742649 0.074093 -0.029026 1581950.000000 0 0 1
20.391456 -26.425053 -6.206364 33.950168 -0.913569 1.754638 0.078747 -0.028109 1052080.000000 0 0 1
19.866056 -25.818353 -7.376264 33.401449 -0.914960 1.793469 0.091197 -0.025037 551596.000000 0 0 1
18.334456 -26.036153 -7.597164 32.737600 -0.957262 1.804994 0.091740 -0.022426 493217.000000 0 0 1
17.613156 -25.237453 -6.705064 31.497781 -0.961483 1.785312 0.088512 -0.022925 130929.000000 0 0 1
16.208556 -25.340553 -6.917164 30.865970 -1.001746 1.796819 0.080244 -0.022672 496711.000000 0 0 1
15.366456 -24.418953 -6.008464 29.470577 -1.009122 1.776116 0.058442 -0.009120 -72585.900000 0 0 1
15.389156 -24.928953 -4.672064 29.666598 -1.017738 1.728940 0.044283 -0.003477 344538.000000 0 0 1
14.796256 -24.061553 -3.655964 28.482514 -1.019469 1.699510 0.041930 -0.006347 312217.000000 0 0 1
14.941056 -24.546853 -2.164064 28.817813 -1.024023 1.645962 0.045985 -0.005018 476999.000000 0 0 1
14.123356 -25.729153 -1.932064 29.414136 -1.068779 1.636529 0.050418 0.000696 471805.000000 0 0 1
14.839056 -26.923953 -2.096564 30.813835 -1.067073 1.638889 0.044519 -0.006294 -380389.000000 0 0 1
13.974156 -28.196353 -2.185564 31.545017 -1.110674 1.640136 0.046458 -0.000903 -178661.000000 0 0 1
13.246056 -28.367753 -0.980064 31.323281 -1.133944 1.602090 0.064496 -0.012182 -177703.000000 0 0 1
12.532756 -29.597853 -0.994864 32.157311 -1.170252 1.601739 0.072498 -0.018728 -15879.900000 0 0 1
13.291556 -30.919353 -0.625364 33.661001 -1.164801 1.589376 0.063454 -0.020425 -225143.000000 0 0 1
14.274756 -31.179853 -1.581164 34.328589 -1.141458 1.616872 0.069047 -0.018409 -573633.000000 0 0 1
14.842456 -32.440653 -1.472164 35.705206 -1.141701 1.612039 0.071157 -0.023319 -314817.000000 0 0 1
16.268156 -32.525953 -2.058864 36.425670 -1.107021 1.627349 0.057204 -0.015455 -145041.000000 0 0 1
17.207056 -31.860153 -1.242364 36.231142 -1.075601 1.605093 0.049808 -0.005554 -483179.000000 0 0 1
18.393456 -31.655253 -1.960164 36.663559 -1.044423 1.624285 0.052754 -0.006930 -425372.000000 0 0 1
19.303156 -30.629953 -1.211464 36.225316 -1.008463 1.604245 0.052938 -0.009220 -84999.700000 0 0 1
18.766756 -29.304453 -1.296564 34.822740 -1.001195 1.608038 0.045460 -0.004850 221955.000000 0 0 1
19.245256 -28.321553 -0.340064 34.243334 -0.973943 1.580727 0.043681 -0.000686 -433764.000000 0 0 1
18.677556 -26.931453 -0.341864 32.776076 -0.964431 1.581227 0.037690 -0.006720 -428704.000000 0 0 1
19.067356 -26.016753 -1.381464 32.285352 -0.938337 1.613599 0.049787 -0.011691 228178.000000 0 0 1
18.677956 -26.442053 -2.702064 32.486141 -0.955806 1.654068 0.060553 -0.008014 -69039.000000 0 0 1
33.109556 -28.969853 13.615736 46.053049 -0.718813 1.270657 0.049552 -0.025012 -62137.900000 0 0 1
33.816776 -29.224753 14.809836 47.084942 -0.712685 1.250830 0.057834 -0.015632 24715.900000 0 0 1
33.003726 -29.717053 15.858936 47.157767 -0.733044 1.227816 0.048570 -0.013217 -217661.000000 0 0 1
33.825076 -30.188953 17.084836 48.449977 -0.728657 1.210418 0.046579 -0.003243 -349497.000000 0 0 1
33.097166 -30.640353 18.223336 48.645078 -0.746871 1.186811 0.044908 -0.008293 131003.000000 0 0 1
33.860416 -30.932353 19.385936 49.791091 -0.740238 1.170875 0.040252 0.000043 -23961.000000 0 0 1
34.639016 -32.289953 19.440636 51.190242 -0.750315 1.181246 0.037540 0.005900 1022330.000000 0 0 1
35.754096 -32.404753 18.511236 51.682582 -0.736297 1.204487 0.046488 0.008359 537614.000000 0 0 1
36.395566 -33.623153 18.631436 52.936604 -0.745824 1.211135 0.056259 0.011726 -29672.400000 0 0 1
-36.318600 -33.724853 17.542336 52.575089 0.748385 1.230610 0.063543 0.015242 870932.000000 0 0 1
-35.135261 -33.008753 17.944136 51.439833 0.754202 1.214466 0.075003 0.017113 737467.000000 0 0 1
-34.183714 -32.875653 16.917136 50.353991 0.765895 1.228168 0.090024 0.019748 -314278.000000 0 0 1
-32.883890 -32.144353 17.315236 49.136820 0.774026 1.210675 0.078428 0.011044 4450.190000 0 0 1
-31.906020 -32.148153 16.303936 48.138511 0.789178 1.225274 0.092872 -0.001708 -178646.000000 0 0 1
-32.066380 -31.152053 15.310236 47.255756 0.770936 1.240856 0.101255 -0.005502 -167622.000000 0 0 1
-30.913390 -31.140953 14.255136 46.136813 0.789065 1.256681 0.094451 -0.019123 742557.000000 0 0 1
-29.636170 -30.845553 14.790036 45.260313 0.805391 1.237905 0.089324 -0.022134 -490153.000000 0 0 1
-28.638160 -30.777753 13.817736 44.253182 0.821393 1.253243 0.072633 -0.015116 -119245.000000 0 0 1
-27.315470 -30.480453 14.557236 43.440834 0.840105 1.229080 0.070676 -0.022903 264511.000000 0 0 1
-26.113550 -30.315453 13.834036 42.335857 0.859725 1.237914 0.070153 -0.022226 -620663.000000 0 0 1
-25.034280 -30.006253 14.639836 41.730267 0.875487 1.212349 0.062770 -0.023930 -526559.000000 0 0 1
-23.696280 -29.951053 13.882236 40.636138 0.901465 1.222153 0.081642 -0.020386 -227170.000000 0 0 1
-23.372680 -31.145353 13.199236 41.116116 0.927014 1.243986 0.083432 -0.025151 170813.000000 0 0 1
-22.225480 -30.923453 12.391736 40.047310 0.947613 1.256205 0.078928 -0.022770 9665.150000 0 0 1
-21.611180 -32.277953 11.982636 40.650866 0.980811 1.271582 0.061803 -0.019789 -235221.000000 0 0 1
-22.232380 -32.993553 10.915936 41.255435 0.977844 1.303014 0.063230 -0.023419 90457.300000 0 0 1
-22.087380 33.697418 10.978936 41.760093 -0.990591 1.304764 0.064769 -0.017940 -208516.000000 0 0 1
-23.146780 32.988918 10.127136 41.552389 -0.958962 1.324597 0.062256 -0.018194 -303946.000000 0 0 1
-23.057080 33.366518 8.762836 41.493864 -0.966120 1.358010 0.050965 -0.010676 -423962.000000 0 0 1
-24.181180 33.047518 8.013536 41.726307 -0.939104 1.377546 0.044613 -0.016121 -832509.000000 0 0 1
-23.906380 33.346518 6.489636 41.540590 -0.948813 1.413930 0.049267 -0.010749 -641124.000000 0 0 1
-23.149680 32.412718 5.750836 40.243808 -0.950593 1.427406 0.035938 -0.009344 493280.000000 0 0 1
-21.753980 32.285218 6.010036 39.391515 -0.977867 1.417626 0.048066 -0.011954 662845.000000 0 0 1
-20.827580 33.520118 5.699936 39.873245 -1.014829 1.427354 0.053481 -0.013790 -474651.000000 0 0 1
-20.984480 -33.425253 6.558336 40.007596 1.010184 1.406126 0.059020 -0.014255 66132.200000 0 0 1
-20.175980 -33.467753 7.743136 39.838635 1.028285 1.375189 0.061769 -0.010690 -15457.600000 0 0 1
-20.008280 -32.187953 8.563436 38.855219 1.014640 1.348579 0.069784 -0.016634 -358992.000000 0 0 1
-19.018080 -31.304953 8.097736 37.513475 1.024873 1.353222 0.099096 -0.031488 -337084.000000 0 0 1
-19.087380 -30.073853 8.796636 36.689856 1.005264 1.328681 0.100749 -0.032757 217499.000000 0 0 1
-18.305580 -29.923453 10.143436 36.515704 1.021784 1.289311 0.081265 -0.016239 459861.000000 0 0 1
-16.924780 -30.221553 10.025936 36.059809 1.060290 1.289047 0.087791 -0.026025 -140442.000000 0 0 1
-16.263280 -30.162353 11.274936 36.074728 1.076289 1.252926 0.090224 -0.021147 -17141.200000 0 0 1
-14.935980 -30.937653 11.217936 36.139507 1.121022 1.255176 0.079099 -0.020233 -542779.000000 0 0 1
-13.909680 -30.235053 10.611036 34.931815 1.139615 1.262155 0.078171 -0.018321 -346265.000000 0 0 1
-12.869980 -31.162653 10.245136 35.237908 1.179139 1.275794 0.080692 -0.014154 875367.000000 0 0 1
-11.647180 -30.491753 9.522636 34.001241 1.205922 1.286932 0.088346 -0.007134 302659.000000 0 0 1
-10.886280 -29.817853 10.469536 33.424941 1.220740 1.252209 0.079858 -0.013568 -806987.000000 0 0 1
-9.920580 -28.995853 9.871336 32.196594 1.241143 1.259182 0.093315 -0.014158 112880.000000 0 0 1
-8.935080 -28.417953 10.913336 31.725646 1.266166 1.219632 0.089646 -0.018443 -127135.000000 0 0 1
-9.555780 -27.490653 11.711736 31.372181 1.236260 1.188215 0.077939 -0.023286 -805842.000000 0 0 1
-8.866680 -27.250853 12.884636 31.420389 1.256228 1.148263 0.074720 -0.016745 -144107.000000 0 0 1
-9.380680 -26.007253 13.664936 30.839988 1.224626 1.111752 0.070910 -0.022776 98394.700000 0 0 1
-9.120580 -24.780653 13.009236 29.436474 1.218131 1.113033 0.059052 -0.021727 -37350.100000 0 0 1
-9.968580 -24.387353 11.931236 28.921791 1.182761 1.145562 0.064630 -0.019370 208966.000000 0 0 1
-9.488980 -23.035053 11.222136 27.323813 1.180042 1.147565 0.052159 -0.012285 232691.000000 0 0 1
-8.289480 -23.055453 10.481336 26.648223 1.225643 1.166554 0.044852 -0.012521 -199456.000000 0 0 1
-7.901480 -21.776553 10.061736 25.256488 1.222726 1.161044 0.037397 -0.005625 155576.000000 0 0 1
-6.750980 -21.810053 9.022536 24.549141 1.270615 1.194445 0.039798 -0.007654 110013.000000 0 1 0
-5.504980 -22.237253 9.463036 24.786070 1.328119 1.179066 0.054078 -0.016624 -492964.000000 0 1 0
-4.469480 -22.249153 8.497336 24.232330 1.372552 1.212519 0.042630 -0.024734 1122490.000000 0 1 0
-3.167580 -23.000853 8.935236 24.877927 1.433941 1.203425 0.047623 -0.029118 994604.000000 0 1 0
-2.343280 -22.439953 9.968636 24.666094 1.466749 1.154754 0.051955 -0.024533 368229.000000 0 1 0
-1.327580 -23.346253 10.405236 25.594510 1.513993 1.152131 0.051423 -0.034304 417963.000000 0 0 1
-0.372380 -22.850053 11.479336 25.574181 1.554501 1.105302 0.046289 -0.029519 -334420.000000 0 0 1
-0.987980 -22.575153 12.708536 25.925288 1.527060 1.058479 0.051456 -0.024398 -584983.000000 0 0 1
-0.112780 -22.305253 13.763636 26.210203 1.565740 1.017934 0.066338 -0.025478 -405723.000000 0 0 1
0.581920 -20.952953 13.761336 25.074674 -1.543031 0.989851 0.057074 -0.026899 -144319.000000 0 0 1
1.782120 -20.898953 13.013736 24.683993 -1.485729 1.015478 0.055385 -0.030432 -441288.000000 0 1 0
2.255820 -19.628453 12.912236 23.602770 -1.456372 0.991943 0.047361 -0.026795 -1081450.000000 0 1 0
3.694120 -19.586353 12.461936 23.506842 -1.384379 1.012030 0.053507 -0.025567 -829623.000000 0 1 0
4.034520 -20.143253 11.201736 23.398865 -1.373121 1.071589 0.056204 -0.023233 -294405.000000 0 1 0
5.454820 -20.172253 11.195336 23.706759 -1.306700 1.078963 0.074538 -0.026610 437547.000000 0 1 0
5.997520 -21.064253 10.060436 24.101564 -1.293412 1.140194 0.089232 -0.034052 -345354.000000 0 1 0
5.916220 -20.393153 8.848836 23.004005 -1.288439 1.175951 0.077487 -0.034664 -327455.000000 0 1 0
6.090320 -21.151953 7.684736 23.314208 -1.290448 1.234900 0.074626 -0.038883 751672.000000 0 1 0
7.583820 -21.592553 7.413836 24.056551 -1.233032 1.257513 0.074342 -0.025217 507878.000000 0 1 0
8.420620 -20.589953 6.895036 23.289365 -1.182583 1.270232 0.084267 -0.035880 5677.100000 0 1 0
9.056520 -19.634853 7.761236 22.973568 -1.138629 1.226182 0.093207 -0.026250 387933.000000 0 1 0
9.921920 -20.141153 8.952136 24.171291 -1.113071 1.191397 0.082351 -0.017880 234555.000000 0 1 0
9.167120 -20.382753 10.149136 24.545828 -1.148151 1.144527 0.090617 -0.023375 -322875.000000 0 1 0
9.904620 -19.906753 11.242336 24.915265 -1.109110 1.102661 0.093756 -0.018814 363485.000000 0 1 0
9.103220 -20.021153 12.570636 25.332510 -1.144057 1.051551 0.099788 -0.026779 241185.000000 0 0 1
9.035820 -21.375453 12.999336 26.599601 -1.170859 1.060192 0.090175 -0.033244 -124594.000000 0 0 1
8.142720 -21.564053 14.094536 27.017924 -1.209743 1.021985 0.099662 -0.031526 312448.000000 0 0 1
8.082820 -22.991953 14.706136 28.464580 -1.232741 1.027866 0.108550 -0.032050 147039.000000 0 0 1
7.625720 -24.024553 13.900336 28.784546 -1.263441 1.066822 0.102483 -0.033028 -384706.000000 0 0 1
7.510920 -25.139053 14.670736 30.060213 -1.280464 1.060948 0.100709 -0.029909 251281.000000 0 0 1
7.702220 -26.464653 13.873436 30.857322 -1.287582 1.104479 0.104028 -0.034648 -167289.000000 0 0 1
8.990020 -26.775953 13.426736 31.273781 -1.246873 1.127047 0.099273 -0.024791 -600804.000000 0 0 1
9.009320 -27.871453 12.540536 31.863001 -1.258152 1.166277 0.088626 -0.033369 180944.000000 0 0 1
10.330120 -28.109253 11.773136 32.178382 -1.218618 1.196228 0.087586 -0.027450 462778.000000 0 0 1
11.480920 -28.520553 12.498236 33.187940 -1.188094 1.184684 0.080296 -0.025335 358161.000000 0 0 1
12.567720 -28.809653 11.634636 33.515794 -1.159450 1.216278 0.091826 -0.021661 31522.000000 0 0 1
13.585920 -29.673053 12.422536 34.919718 -1.141430 1.207085 0.081499 -0.016323 -729595.000000 0 0 1
14.336120 -28.909153 13.360036 34.924977 -1.110432 1.178258 0.077422 -0.014536 507277.000000 0 0 1
15.346520 -29.622253 14.074136 36.208768 -1.092794 1.171582 0.072743 -0.004265 3304.040000 0 0 1
16.619920 -29.930053 13.315936 36.733418 -1.063899 1.199845 0.079235 -0.005325 -1159370.000000 0 0 1
17.415620 -28.777753 13.074236 36.088759 -1.026579 1.200083 0.074602 -0.016554 657071.000000 0 0 1
18.644820 -29.171753 12.425736 36.783412 -1.002094 1.226209 0.062019 -0.017965 1083080.000000 0 0 1
19.650720 -27.964453 12.313736 36.328908 -0.958258 1.224994 0.046916 -0.022563 -1005430.000000 0 0 1
20.922820 -28.156453 11.872336 37.033804 -0.931731 1.244453 0.036260 -0.022579 -1404560.000000 0 0 1
21.528620 -26.898853 11.775736 36.410133 -0.895839 1.241456 0.031730 -0.016024 937697.000000 0 0 1
23.062820 -26.975653 11.399036 37.276233 -0.863436 1.260019 0.037627 -0.016982 1216050.000000 0 0 1
23.895420 -27.572453 12.381036 38.529487 -0.856720 1.243653 0.047881 -0.020984 165729.000000 0 0 1
25.076020 -28.081553 11.793836 39.452186 -0.841878 1.267215 0.028849 -0.024390 -808167.000000 0 0 1
25.919920 -28.971253 12.702436 40.896548 -0.840930 1.254973 0.042612 -0.023298 373247.000000 0 0 1
27.011520 -28.320153 13.365236 41.355566 -0.809044 1.241710 0.038432 -0.023166 1921610.000000 0 0 1
28.181620 -28.065253 12.490636 41.687866 -0.783329 1.266499 0.029426 -0.025519 1317120.000000 0 0 1
29.449820 -27.432153 13.167336 42.346118 -0.749942 1.254609 0.050907 -0.033403 370568.000000 0 0 1
29.474320 -26.078053 13.509636 41.609022 -0.724338 1.240122 0.062176 -0.027840 253991.000000 0 0 1
28.511320 -25.689053 14.487736 41.020938 -0.733374 1.209829 0.064843 -0.032731 -382963.000000 0 0 1
29.172820 -25.313953 15.807236 41.733900 -0.714694 1.182338 0.060739 -0.027029 -169034.000000 0 0 1
29.892720 -26.420753 16.334636 43.109758 -0.723822 1.182180 0.076638 -0.028016 165614.000000 0 0 1
30.443720 -26.146753 17.603736 43.821962 -0.709613 1.157413 0.084522 -0.009690 21476.400000 0 0 1
30.743720 -27.453053 18.310036 45.101041 -0.728915 1.152747 0.062970 0.002916 -335787.000000 0 0 1
29.616220 -28.041353 18.910436 44.956007 -0.758091 1.136642 0.050182 -0.004687 -423696.000000 0 0 1
29.831820 -28.957253 19.954636 46.115589 -0.770523 1.123301 0.061187 -0.003120 -798616.000000 0 0 1
28.663320 -29.829753 20.350736 46.103715 -0.805337 1.113625 0.039544 0.004389 -1614190.000000 0 0 1
27.775220 -29.167553 21.247636 45.537578 -0.809845 1.085359 0.038780 0.006652 1065600.000000 0 0 1
26.535820 -29.825253 21.567236 45.374455 -0.843696 1.075472 0.045545 0.002499 1189660.000000 0 0 1
25.621420 -30.228053 20.365936 44.552932 -0.867695 1.096044 0.058695 -0.001689 -1324560.000000 0 0 1
26.010920 -31.411753 19.739836 45.309241 -0.879176 1.120015 0.044601 0.002722 51845.300000 0 0 1
25.349120 -31.691153 18.473536 44.588997 -0.896129 1.143615 0.066051 -0.004573 -360679.000000 0 0 1
25.810520 -30.931153 17.209236 43.807271 -0.875399 1.167079 0.061460 -0.002187 -138623.000000 0 0 1
27.155320 -31.253853 16.923136 44.728149 -0.855453 1.182777 0.061355 -0.014149 151539.000000 0 0 1
27.782920 -30.233953 16.133236 44.116481 -0.827620 1.196415 0.067831 -0.028287 603547.000000 0 0 1
29.209220 -30.621253 15.624636 45.110630 -0.808994 1.217105 0.077521 -0.022442 363695.000000 0 0 1
29.169820 -31.548553 14.498336 45.347452 -0.824555 1.245366 0.099274 -0.019617 193953.000000 0 0 1
29.131420 -32.934653 14.836536 46.405321 -0.846599 1.245366 0.090824 -0.020286 354121.000000 0 0 1
28.070120 -33.813653 14.030636 46.131915 -0.877945 1.261759 0.091321 -0.019470 506282.000000 0 0 1
28.332920 -34.000753 12.656136 46.032417 -0.876076 1.292269 0.099403 -0.020232 282454.000000 0 0 1
27.668420 32.909018 12.110536 44.667774 0.871694 1.296235 0.096676 -0.021577 -67205.000000 0 0 1
28.204320 32.629818 10.743136 44.447763 0.858017 1.326676 0.099863 -0.025168 -601655.000000 0 0 1
29.466120 32.034318 10.801736 44.845594 0.827133 1.327539 0.089986 -0.020786 -246862.000000 0 0 1
29.825720 31.348818 9.591936 44.320731 0.810291 1.352649 0.095924 -0.030592 -1245200.000000 0 0 1
31.297620 31.113318 9.446736 45.131147 0.782445 1.359919 0.082035 -0.027055 -1177800.000000 0 0 1
31.797820 30.134418 10.333736 45.010783 0.758546 1.339147 0.075431 -0.021590 244966.000000 0 0 1
33.193420 29.896218 10.243736 45.831442 0.733183 1.345383 0.087180 -0.019161 86446.700000 0 0 1
33.691520 29.038818 11.397936 45.916058 0.711364 1.319939 0.087095 -0.020409 -119153.000000 0 0 1
33.381420 27.650818 11.250536 44.782379 0.691778 1.316849 0.080238 -0.025459 164886.000000 0 0 1
33.343620 26.927518 12.462736 44.634157 0.679344 1.287815 0.087355 -0.029336 -82184.400000 0 0 1
33.034420 25.470918 12.280136 43.483817 0.656832 1.284494 0.091053 -0.038125 -471281.000000 0 0 1
34.037720 24.866118 11.535336 43.703023 0.630934 1.303683 0.087124 -0.027021 -388555.000000 0 0 1
34.067020 23.458218 11.635536 42.967843 0.603027 1.296576 0.095741 -0.030958 -588793.000000 0 0 1
32.907620 22.646318 11.067836 41.451950 0.602748 1.300514 0.100814 -0.032888 -1033190.000000 0 0 1
31.782020 22.644218 11.870936 40.789417 0.619056 1.275493 0.109216 -0.045646 -1196440.000000 0 0 1
30.848020 21.844218 11.205136 39.424932 0.616157 1.282609 0.104436 -0.037297 -333901.000000 0 0 1
29.585220 21.636518 12.080436 38.592241 0.631444 1.252417 0.097893 -0.033398 -41359.500000 0 0 1
28.895120 22.783818 12.430336 38.839974 0.667690 1.245025 0.103038 -0.026968 -380821.000000 0 0 1
27.748320 22.594118 13.213636 38.145296 0.683371 1.217063 0.107102 -0.027320 -284158.000000 0 0 1
24.317220 9.347418 25.906296 36.740136 0.366982 0.788200 0.052973 0.006325 -98098.500000 0 0 1
24.149120 8.073918 26.478816 36.735485 0.322653 0.765845 0.048497 0.000249 -943758.000000 0 0 1
22.810520 7.794418 26.594076 35.893142 0.329264 0.736352 0.048491 0.000261 -1268290.000000 0 0 1
22.533920 6.472818 27.340436 36.016307 0.279717 0.708847 0.065374 -0.004342 -156782.000000 0 0 1
22.742820 6.457218 28.767096 37.235431 0.276643 0.687912 0.064640 -0.004292 1121880.000000 0 0 1
24.111920 6.297318 29.203536 38.391241 0.255464 0.706433 0.052840 -0.006179 635209.000000 0 0 1
24.279420 6.160218 30.719576 39.637493 0.248478 0.684061 0.063432 -0.013674 -264431.000000 0 0 1
24.169220 7.422718 31.312596 40.245827 0.297971 0.679267 0.066431 -0.013891 203230.000000 0 0 1
24.202120 7.273318 32.685204 41.315449 0.291937 0.658169 0.070883 -0.018627 50281.400000 0 0 1
24.184320 8.566518 33.466038 42.169210 0.340427 0.654072 0.087903 -0.017844 222716.000000 0 0 1
25.378020 9.293118 33.232002 42.834237 0.351022 0.682770 0.072019 -0.022019 156622.000000 0 0 1
26.075920 9.718418 -33.635904 43.655187 0.356750 2.450407 0.075238 -0.020266 -175586.000000 0 0 1
27.304620 10.583718 -33.879354 44.781336 0.369785 2.428819 0.044204 -0.018568 -623031.000000 0 0 1
27.105420 11.898918 33.706553 44.860002 0.413658 0.720657 0.039709 -0.021265 80911.600000 0 0 1
26.661320 12.899518 -33.414234 44.651255 0.450627 2.416349 0.047786 -0.011757 -200489.000000 0 0 1
26.094320 14.175418 33.922087 45.083966 0.497637 0.719068 0.046878 -0.008564 82321.400000 0 0 1
27.074220 14.901718 33.141039 45.314490 0.503152 0.750488 0.026094 -0.010745 562671.000000 0 0 1
26.602720 16.168718 32.863969 45.267788 0.546124 0.758323 0.049084 -0.013935 -81857.200000 0 0 1
27.084320 17.316918 33.839024 46.674571 0.568867 0.759763 0.032432 -0.006126 -282680.000000 0 0 1
26.669420 17.196918 -32.825934 45.656696 0.572724 2.373120 0.036366 -0.012199 336382.000000 0 0 1
27.679120 16.714718 -31.930284 45.442915 0.543264 2.349906 0.029087 -0.007926 -347312.000000 0 0 1
27.186820 16.237918 -30.552224 44.002631 0.538411 2.338281 0.033620 -0.001177 393739.000000 0 0 1
26.300720 15.137418 -30.903394 43.311535 0.522249 2.365297 0.041991 0.001255 117271.000000 0 0 1
25.509020 14.707818 -29.874194 41.946365 0.523016 2.363423 0.065464 -0.002697 -218335.000000 0 0 1
24.816020 13.347918 -30.129144 41.252480 0.493487 2.389645 0.077691 -0.010702 446956.000000 0 0 1
23.737020 13.351518 -31.107694 41.344864 0.512372 2.422488 0.072178 -0.010044 929073.000000 0 0 1
23.216820 12.079918 -31.437224 40.905308 0.479762 2.447347 0.074609 -0.013514 36667.500000 0 0 1
22.365420 11.386218 -30.376264 39.402733 0.470900 2.451077 0.070281 -0.015028 -490198.000000 0 0 1
21.131620 11.975118 -30.016984 38.613057 0.515568 2.461285 0.084277 -0.019361 354904.000000 0 0 1
20.440120 11.224318 -29.019304 37.227729 0.502176 2.464676 0.086881 -0.017923 598830.000000 0 0 1
19.098920 11.826818 -28.513534 36.299642 0.554447 2.474307 0.075207 -0.014189 769100.000000 0 0 1
18.032620 11.874918 -29.447764 36.515201 0.582344 2.508924 0.048157 -0.002755 630577.000000 0 0 1
16.853420 12.495818 -28.958514 35.760017 0.638001 2.514610 0.046678 -0.017421 -223048.000000 0 0 1
15.977920 13.392718 -29.890574 36.443178 0.697604 2.532551 0.037598 -0.012662 695872.000000 0 0 1
15.134920 12.577418 -30.736864 36.496741 0.693371 2.572112 0.031133 -0.010710 101743.000000 0 0 1
13.938220 12.148818 -30.114844 35.337963 0.716912 2.590963 0.040829 -0.015127 -573845.000000 0 0 1
13.028220 11.465418 -31.142064 35.651346 0.721680 2.633178 0.052525 -0.015325 89141.700000 0 0 1
12.591220 12.286218 -32.230534 36.719168 0.773139 2.641958 0.061312 -0.012932 739088.000000 0 0 1
11.451620 11.719918 -32.915244 36.768320 0.796976 2.679691 0.080041 -0.010339 1005240.000000 0 0 1
10.812820 12.536418 33.987585 37.805221 0.859083 0.453274 0.100597 -0.020405 673709.000000 0 0 1
11.677320 12.520018 32.842463 37.036982 0.820210 0.480535 0.076540 -0.009510 470974.000000 0 0 1
10.915620 12.947818 31.783226 36.013472 0.870353 0.489566 0.090956 -0.027166 -424357.000000 0 0 1
11.768520 13.092618 30.523436 35.236272 0.838608 0.523149 0.084530 -0.020887 -240447.000000 0 0 1
12.185620 11.815918 30.071896 34.531495 0.769996 0.513859 0.070989 -0.019576 101160.000000 0 0 1
11.918220 11.715618 28.707416 33.217697 0.776826 0.527197 0.095791 -0.019974 -102686.000000 0 0 1
12.454220 10.426918 27.990376 32.361850 0.697027 0.525808 0.093277 -0.014410 117084.000000 0 0 1
11.786420 9.266218 28.460736 32.168245 0.666256 0.484847 0.091389 -0.024360 506592.000000 0 0 1
12.298320 8.138518 27.741676 31.417904 0.584597 0.488603 0.076584 -0.022824 45124.800000 0 0 1
11.523620 6.832718 28.109726 31.138987 0.535206 0.444750 0.073648 -0.019898 1538690.000000 0 0 1
10.213520 6.831418 27.442116 30.067490 0.589520 0.420992 0.074227 -0.023907 1368160.000000 0 0 1
9.352720 5.758218 27.823126 29.912485 0.551864 0.375973 0.072245 -0.030404 -255567.000000 0 0 1
9.671120 4.374818 27.171256 29.170991 0.424814 0.372425 0.077156 -0.026563 172702.000000 0 0 1
10.798420 3.782018 27.822896 30.083601 0.336887 0.390149 0.064969 -0.020113 393968.000000 0 0 1
10.993220 2.498218 27.293096 29.529732 0.223456 0.391708 0.047355 -0.018069 -230600.000000 0 0 1
11.523820 1.507218 28.324686 30.616302 0.130053 0.389365 0.036862 -0.016204 15491.200000 0 0 1
10.572020 1.206918 29.329346 31.199916 0.113669 0.348032 0.038420 -0.012569 96126.800000 0 0 1
10.903920 0.018218 30.076726 31.992268 0.001671 0.347800 0.042595 -0.015703 543552.000000 0 0 1
9.795220 -0.254182 31.145306 32.650283 -0.025944 0.304803 0.048160 -0.013144 369038.000000 0 0 1
9.800620 0.792118 32.132720 33.603441 0.080648 0.296951 0.054557 -0.015159 -125245.000000 0 0 1
8.523020 1.045318 32.646594 33.756994 0.122037 0.257200 0.056955 -0.017350 -457262.000000 0 0 1
8.608020 2.360618 33.479121 34.648550 0.267655 0.260549 0.057316 -0.022263 -86935.600000 0 0 1
8.842720 3.601218 32.847213 34.206751 0.386743 0.282881 0.064308 -0.028853 701229.000000 0 0 1
10.164120 3.832418 32.343886 34.119257 0.360570 0.324012 0.048316 -0.018262 339462.000000 0 0 1
10.446320 5.211018 31.719886 33.799874 0.462717 0.352647 0.054153 -0.024291 15494.400000 0 0 1
10.581920 6.354418 32.600546 34.859019 0.540785 0.361941 0.046148 -0.019718 66901.200000 0 0 1
10.985520 7.548018 31.965286 34.632842 0.602007 0.395053 0.054104 -0.019828 -99940.100000 0 0 1
11.004920 8.718118 32.947997 35.814583 0.669968 0.402817 0.087815 -0.028971 -434313.000000 0 0 1
9.742320 9.119618 33.382975 35.951401 0.752396 0.380286 0.105055 -0.033912 -567500.000000 0 0 1
9.283820 8.422718 -33.480444 35.750128 0.736805 2.783345 0.084500 -0.024902 9063.600000 0 0 1
7.824020 8.919118 -33.274424 35.326382 0.850711 2.799082 0.098130 -0.034180 105248.000000 0 0 1
7.231520 8.404518 -32.097624 33.958626 0.860277 2.808997 0.102013 -0.030186 91255.100000 0 0 1
5.826320 8.614418 -32.049174 33.694269 0.976123 2.827820 0.097514 -0.029351 554705.000000 0 0 1
5.206620 7.814118 -30.884464 32.280326 0.983041 2.846441 0.095058 -0.022663 -166511.000000 0 0 1
5.766020 8.298118 -29.662944 31.336816 0.963529 2.813270 0.090746 -0.026936 133204.000000 0 0 1
5.336320 7.754818 -28.414744 29.933446 0.968082 2.821684 0.066759 -0.022732 983205.000000 0 0 1
3.820820 7.753418 -27.955074 29.260901 1.112932 2.841716 0.071731 -0.021381 1187090.000000 0 0 1
2.947320 6.926718 -28.703884 29.674553 1.168502 2.885115 0.066572 -0.020696 1003940.000000 0 0 1
1.576120 7.181918 -28.298654 29.238296 1.354764 2.887384 0.093940 -0.021546 1021930.000000 0 0 1
0.536120 6.650018 -29.302224 30.052130 1.490351 2.917727 0.090660 -0.026855 -243605.000000 0 0 1
0.472220 7.433318 -30.487854 31.384494 1.507354 2.901982 0.087709 -0.027086 11483.000000 0 0 1
-0.284080 6.828618 -31.510554 32.243228 -1.529219 2.928005 0.096203 -0.027324 -509550.000000 0 0 1
-0.378880 7.744918 -32.820724 33.724283 -1.521915 2.909588 0.110747 -0.040056 618371.000000 0 0 1
0.885620 8.131918 -33.384674 34.372211 1.462317 2.901304 0.099694 -0.028362 558272.000000 0 0 1
1.724320 7.133318 -33.933124 34.717639 1.333618 2.928602 0.092634 -0.030050 -212273.000000 0 0 1
1.458420 6.620618 32.679908 33.375679 1.353975 0.204546 0.118124 -0.040510 -462823.000000 0 0 1
0.462120 5.648818 32.692282 33.179933 1.489170 0.171659 0.117261 -0.038095 -600600.000000 0 0 1
0.125020 5.180818 31.426876 31.851295 1.546670 0.163430 0.128176 -0.035300 74846.500000 0 0 1
1.156920 4.300418 30.610906 30.933147 1.307993 0.144468 0.130645 -0.034535 382728.000000 0 0 1
0.718220 4.044918 29.286266 29.573004 1.395067 0.139368 0.112855 -0.030210 322427.000000 0 0 1
1.698120 3.366018 28.481326 28.729769 1.103564 0.131606 0.088622 -0.015724 459554.000000 0 0 1
1.501820 3.503718 26.942206 27.210548 1.165850 0.140556 0.087984 -0.012734 105648.000000 0 0 1
1.885320 4.835118 26.642226 27.142973 1.199008 0.192383 0.086059 -0.015902 18754.700000 0 0 1
1.747420 5.187318 25.330766 25.915428 1.245872 0.212818 0.059410 -0.009340 -241050.000000 0 0 1
2.284520 6.635218 25.058016 26.022092 1.239206 0.273055 0.060300 -0.006250 208619.000000 0 0 1
3.673620 6.887318 25.174696 26.357085 1.080796 0.300666 0.070608 -0.006005 515863.000000 0 0 1
4.349220 6.738418 23.882086 25.192777 0.997636 0.323988 0.065859 -0.008094 1051940.000000 0 0 1
5.914520 6.666718 23.824906 25.437233 0.845114 0.357954 0.068464 -0.012854 1005910.000000 0 0 1
6.734220 5.624918 24.338196 25.871552 0.695882 0.346014 0.075770 -0.021820 187304.000000 0 0 1
6.502920 4.262918 24.036566 25.262956 0.580259 0.312867 0.072657 -0.023528 -830633.000000 0 0 1
6.587220 3.724718 22.571616 23.806361 0.514625 0.323484 0.063598 -0.018642 176975.000000 0 1 0
5.562220 4.132718 21.706716 22.785942 0.639005 0.309006 0.036815 -0.019386 -1047350.000000 0 1 0
4.296820 3.601418 21.889916 22.596488 0.697579 0.250733 0.034066 -0.020810 -801742.000000 0 1 0
3.268520 4.194218 20.903116 21.568842 0.908810 0.249099 0.009856 -0.017843 52436.600000 0 1 0
3.001820 5.570218 21.099116 22.027504 1.076511 0.291363 0.014012 -0.016700 215950.000000 0 1 0
1.783220 5.977618 20.499616 21.427693 1.280885 0.295393 0.011483 -0.008484 206574.000000 0 1 0
1.374320 7.440718 20.767016 22.102533 1.388152 0.349406 0.017736 0.012171 223047.000000 0 1 0
2.326320 8.285918 20.138516 21.900411 1.297087 0.403863 0.017887 0.009986 230627.000000 0 1 0
1.939720 9.579918 20.309816 22.539431 1.371019 0.448544 0.026533 0.003595 97081.400000 0 1 0
2.909420 10.576618 19.601016 22.461732 1.302355 0.510213 0.039060 -0.011093 -550953.000000 0 1 0
2.817420 10.720018 18.212716 21.320405 1.313790 0.546712 0.017342 -0.009736 123909.000000 0 1 0
3.775620 11.590518 17.621416 21.426845 1.255886 0.605181 0.018148 -0.012266 -333282.000000 0 1 0
5.252420 11.208418 17.694016 21.593859 1.132571 0.610432 0.028715 -0.016835 -809503.000000 0 1 0
5.665020 10.082818 16.936516 20.508565 1.058902 0.599130 0.024972 -0.018906 -436029.000000 0 1 0
6.886620 9.532518 17.342916 20.954025 0.945172 0.595862 0.023181 -0.012523 -404557.000000 0 1 0
6.894920 8.171818 18.015516 20.949399 0.869946 0.535617 0.033745 -0.005301 -170483.000000 0 1 0
6.442520 8.119318 19.375916 21.973973 0.900043 0.491202 0.049309 -0.001749 -120929.000000 0 1 0
6.493820 6.811918 19.925816 22.036562 0.809300 0.441256 0.044170 -0.004513 -25430.100000 0 1 0
7.867020 6.229118 20.329716 22.671331 0.669722 0.458506 0.065261 -0.003452 511682.000000 0 1 0
8.642220 5.854118 19.149816 21.809954 0.595387 0.499064 0.048943 -0.004605 745497.000000 0 1 0
9.959320 5.342418 19.353316 22.411611 0.492360 0.528549 0.051863 -0.008085 640613.000000 0 1 0
10.080320 3.824518 19.388216 22.184289 0.362626 0.507501 0.052239 -0.008063 -24032.600000 0 1 0
9.477320 3.156518 20.508816 22.812162 0.321505 0.453247 0.070845 -0.013724 311379.000000 0 1 0
9.890320 1.800418 20.507116 22.838602 0.180067 0.455787 0.065170 -0.014990 -90314.700000 0 1 0
9.139420 0.869718 21.443616 23.326253 0.094875 0.404521 0.065804 -0.020457 -197231.000000 0 1 0
9.475220 1.154518 22.767316 24.687312 0.121248 0.396994 0.064019 -0.021760 -62401.000000 0 1 0
8.729620 0.323018 23.571566 25.138204 0.036986 0.354907 0.058902 -0.025578 -762036.000000 0 0 1
9.196320 0.284118 25.032276 26.669605 0.030885 0.352227 0.053801 -0.022795 -361986.000000 0 0 1
10.465020 -0.299982 25.238076 27.323380 -0.028657 0.393219 0.061930 -0.021999 -63523.500000 0 0 1
10.532520 -1.705982 25.124976 27.296680 -0.160578 0.401590 0.067164 -0.015182 -377851.000000 0 0 1
11.983320 -2.222482 25.139216 27.937780 -0.183381 0.451420 0.064607 -0.018607 -7172.960000 0 0 1
12.104520 -3.591582 24.984246 27.993417 -0.288440 0.467929 0.060177 -0.009314 -91953.700000 0 0 1
13.420420 -4.097782 25.066836 28.727091 -0.296348 0.510326 0.064133 -0.004390 60244.800000 0 0 1
13.327220 -5.630282 25.205536 29.062586 -0.399721 0.521075 0.068618 -0.007681 2164.330000 0 0 1
12.977920 -6.274582 23.970256 27.970877 -0.450346 0.541431 0.068415 -0.014122 243863.000000 0 0 1
12.929820 -7.658382 24.190656 28.478393 -0.534741 0.555875 0.081926 -0.018626 45391.600000 0 0 1
12.653220 -8.490682 22.908916 27.513889 -0.591017 0.586955 0.079651 -0.018640 147702.000000 0 0 1
12.083920 -9.729582 23.203546 27.912191 -0.677884 0.589345 0.073640 -0.013096 -335234.000000 0 0 1
12.356020 -10.580882 22.066316 27.414386 -0.708160 0.635260 0.081222 -0.017298 207014.000000 0 0 1
11.654520 -11.962682 22.144716 27.736655 -0.798446 0.646177 0.082456 -0.021592 689689.000000 0 0 1
10.233320 -11.922182 22.107416 27.121893 -0.861479 0.617872 0.072908 -0.022240 147804.000000 0 0 1
9.616520 -13.189582 22.348916 27.675198 -0.940806 0.630822 0.071653 -0.019917 108807.000000 0 0 1
8.123720 -13.018982 22.661416 27.368385 -1.012923 0.595239 0.049962 -0.013036 164649.000000 0 0 1
7.333720 -12.363482 21.678616 26.011565 -1.035410 0.585525 0.047689 -0.017043 -428501.000000 0 0 1
5.960820 -12.347182 21.946716 25.877454 -1.121029 0.558404 0.021090 -0.017644 -218840.000000 0 0 1
5.232620 -11.218682 21.266416 24.606901 -1.134372 0.527147 0.005898 -0.010455 -150854.000000 0 1 0
5.484420 -9.971182 21.905616 24.685205 -1.067932 0.479125 0.009154 -0.001878 -405371.000000 0 1 0
5.081020 -8.822882 21.178916 23.499074 -1.048293 0.448114 0.005280 -0.001672 129219.000000 0 1 0
5.410320 -7.509882 21.908016 23.782999 -0.946492 0.399738 0.009570 -0.004917 -51490.600000 0 1 0
4.932820 -6.427282 21.147216 22.646134 -0.916201 0.365874 0.009741 -0.008884 -77324.800000 0 1 0
5.473320 -5.151182 21.573316 22.845128 -0.755087 0.335247 0.020993 -0.018819 -272336.000000 0 1 0
-8.622880 -15.094782 -20.355764 26.768706 1.051786 2.434773 0.068188 -0.003920 -10811.600000 0 0 1
-8.025980 -14.490182 -19.229964 25.380568 1.064971 2.430524 0.070055 -0.009852 79856.900000 0 0 1
-7.101780 -13.470182 -19.639764 24.851588 1.085609 2.482066 0.065409 -0.021011 271647.000000 0 1 0
-6.209480 -13.074782 -18.447664 23.448324 1.127413 2.476301 0.057820 -0.025300 -737246.000000 0 1 0
-5.342580 -14.078682 -18.066564 23.519209 1.208104 2.446762 0.056984 -0.012918 -452266.000000 0 1 0
-4.508380 -13.540182 -17.061064 22.242795 1.249379 2.445008 0.055946 -0.009749 -232271.000000 0 1 0
-3.437580 -14.488182 -16.550664 22.263173 1.337836 2.408951 0.049457 -0.000272 -997600.000000 0 1 0
-2.197780 -14.439182 -17.149764 22.526310 1.419746 2.436145 0.045263 -0.007418 -1195870.000000 0 1 0
-1.304180 -15.233082 -16.428664 22.442118 1.485390 2.392117 0.048611 -0.005844 515323.000000 0 1 0
0.004820 -15.585982 -17.231964 23.234962 -1.570487 2.406307 0.047135 0.001191 740129.000000 0 1 0
-0.274580 -16.417682 -18.378364 24.645080 1.554073 2.412413 0.078654 -0.010332 -210233.000000 0 1 0
-0.652280 -17.767982 -18.139064 25.399849 1.534102 2.366192 0.066702 -0.001562 -200171.000000 0 0 1
-0.920780 -18.379582 -19.531864 26.835622 1.520740 2.385954 0.085843 -0.017320 -743953.000000 0 0 1
-2.191580 -17.931982 -19.856964 26.845075 1.449183 2.403402 0.091055 -0.019255 -851762.000000 0 0 1
-2.410380 -18.179582 -21.216564 28.043711 1.438978 2.428823 0.083811 -0.021017 -422424.000000 0 0 1
-3.476480 -17.276382 -21.814564 28.043440 1.372221 2.462089 0.087582 -0.024557 -219352.000000 0 0 1
-3.157680 -15.858382 -21.834664 27.170053 1.374250 2.504166 0.090739 -0.014945 -165754.000000 0 0 1
-3.365280 -15.220282 -20.567664 25.807187 1.353192 2.493065 0.076351 -0.013845 435616.000000 0 0 1
-2.502780 -13.902582 -20.350564 24.772791 1.392681 2.534813 0.077420 -0.025467 597407.000000 0 1 0
-2.907980 -12.946782 -21.283364 25.081011 1.349853 2.584101 0.081788 -0.040387 36677.400000 0 0 1
-1.924080 -11.947882 -21.272764 24.474159 1.411128 2.624364 0.075127 -0.026926 100101.000000 0 1 0
-1.862880 -11.145082 -22.574864 25.244953 1.405179 2.677510 0.086017 -0.022770 -728942.000000 0 0 1
-2.961680 -10.330382 -22.729064 25.141573 1.291589 2.699932 0.084287 -0.021024 -464369.000000 0 0 1
-3.001180 -9.710282 -23.983664 26.048278 1.271037 2.740766 0.090711 -0.024372 -243404.000000 0 0 1
-4.022480 -8.565582 -23.993364 25.792074 1.131755 2.765920 0.089778 -0.021766 934189.000000 0 0 1
-5.388780 -9.032282 -23.832764 26.050369 1.032871 2.725988 0.086524 -0.023941 1436850.000000 0 0 1
-6.258380 -7.903482 -23.846264 25.889702 0.901044 2.741619 0.092041 -0.023986 -899265.000000 0 0 1
-7.693080 -8.182682 -23.409064 25.963899 0.816228 2.694252 0.061248 -0.034553 313155.000000 0 0 1
-8.660280 -8.562582 -24.416964 27.285645 0.779726 2.678925 0.054019 -0.028488 700369.000000 0 0 1
-9.059480 -7.509582 -25.296324 27.899319 0.692128 2.706190 0.048268 -0.028522 -512718.000000 0 0 1
-9.894880 -8.000382 -26.498314 29.395160 0.679925 2.693908 0.048114 -0.031175 159848.000000 0 0 1
-10.657880 -6.950382 -27.055024 29.897701 0.577875 2.701988 0.061353 -0.037288 -41048.900000 0 0 1
-11.350280 -7.430682 -28.171324 31.267673 0.579651 2.692803 0.067868 -0.032984 -43582.600000 0 0 1
-11.980280 -6.357682 -29.153434 32.153848 0.487888 2.706155 0.059787 -0.036555 1309.750000 0 0 1
-11.098280 -5.495282 -29.806404 32.276798 0.459758 2.747805 0.059387 -0.027297 -237875.000000 0 0 1
-11.691480 -4.966182 -31.007744 33.508713 0.401675 2.752790 0.054359 -0.028047 93673.900000 0 0 1
-10.866180 -3.850082 -31.661334 33.694763 0.340516 2.792407 0.036185 -0.024822 -314898.000000 0 0 1
-9.795380 -4.290382 -32.462744 34.178745 0.412831 2.823371 0.041377 -0.020896 -20473.500000 0 0 1
-9.419180 -3.378582 -33.467144 34.931154 0.344397 2.851051 0.044716 -0.020689 -87133.300000 0 0 1
-8.235280 -3.903382 33.721112 34.930926 0.442618 0.263956 0.041265 -0.020691 -9787.670000 0 0 1
-6.988080 -3.949682 -33.684204 34.627429 0.514440 2.907653 0.048414 -0.023422 -728406.000000 0 0 1
-5.981980 -4.426682 33.535469 34.351234 0.637072 0.218368 0.051404 -0.023208 -722704.000000 0 0 1
-4.577680 -3.930382 33.834055 34.367809 0.709464 0.176471 0.054118 -0.028464 -556244.000000 0 0 1
-4.300580 -2.628182 33.411230 33.789238 0.548558 0.149721 0.068602 -0.037482 811619.000000 0 0 1
-2.929280 -2.273882 33.682491 33.886006 0.660097 0.109653 0.066821 -0.035952 991733.000000 0 0 1
-2.780780 -0.834582 -33.839264 33.963584 0.291572 3.056005 0.077368 -0.035117 -58893.600000 0 0 1
-3.178780 -0.691782 -32.491854 32.654307 0.214284 3.041802 0.070739 -0.035281 229083.000000 0 0 1
-3.561080 0.616018 -32.150744 32.353224 -0.171291 3.029656 0.095980 -0.033829 -829040.000000 0 0 1
-3.821580 0.595218 -30.601944 30.845385 -0.154510 3.015873 0.126929 -0.046409 365260.000000 0 0 1
-4.997380 -0.060582 -30.181754 30.592740 0.012122 2.977493 0.089862 -0.044719 -301942.000000 0 0 1
-6.208480 0.567518 -30.466304 31.097636 -0.091157 2.939748 0.098789 -0.043794 -622790.000000 0 0 1
-7.429880 -0.380882 -30.408754 31.305599 0.051219 2.901651 0.077752 -0.041423 -88195.800000 0 0 1
-7.695980 -1.017482 -29.186914 30.201645 0.131447 2.881637 0.071312 -0.040895 663041.000000 0 0 1
-8.878780 -1.834382 -29.329584 30.698896 0.203736 2.841792 0.059317 -0.025237 625410.000000 0 0 1
-9.190380 -2.667782 -28.069564 29.656038 0.282516 2.813021 0.061541 -0.032683 -473562.000000 0 0 1
-9.807280 -1.938782 -27.103534 28.888461 0.195172 2.788227 0.068111 -0.037546 -314583.000000 0 0 1
-10.111980 -2.740282 -26.011474 28.042077 0.264638 2.758699 0.061922 -0.032842 332572.000000 0 0 1
-11.103680 -2.049482 -24.999364 27.431010 0.182523 2.717358 0.079242 -0.032803 343074.000000 0 0 1
-10.573880 -0.847482 -24.501564 26.699285 0.079978 2.733013 0.072368 -0.028993 717480.000000 0 0 1
-11.434780 -0.244882 -23.498264 26.133935 0.021412 2.688614 0.087880 -0.035802 349124.000000 0 0 1
-10.623780 0.837018 -22.868964 25.230038 -0.078625 2.705522 0.080274 -0.034654 -96579.300000 0 0 1
-10.487480 1.961618 -23.741764 26.028956 -0.184907 2.719245 0.084140 -0.036818 296867.000000 0 0 1
-9.689180 3.021518 -23.177364 25.302174 -0.302288 2.728846 0.072228 -0.036390 -187875.000000 0 0 1
-9.568680 4.258018 -24.114264 26.290456 -0.418684 2.731854 0.094863 -0.039089 205976.000000 0 0 1
-10.788980 4.967118 -24.356664 27.098366 -0.431459 2.687876 0.114009 -0.031865 736206.000000 0 0 1
-11.583980 4.358918 -25.391044 28.247015 -0.359900 2.688033 0.096928 -0.035604 104065.000000 0 0 1
-13.057080 4.821718 -25.507884 29.058363 -0.353746 2.642079 0.093086 -0.011659 281232.000000 0 0 1
-13.181280 6.212118 -25.996014 29.801498 -0.440412 2.630694 0.086597 -0.008942 -110685.000000 0 0 1
-14.518080 6.593618 -25.789284 30.320581 -0.426313 2.587834 0.085068 -0.019174 -41483.900000 0 0 1
-14.933080 7.979018 -26.325434 31.300001 -0.490724 2.570051 0.100066 -0.004200 -79572.800000 0 0 1
-14.716780 8.975518 -25.356274 30.660792 -0.547655 2.544535 0.135170 -0.014929 201112.000000 0 0 1
-15.368380 10.185718 -25.689654 31.621105 -0.585301 2.519089 0.119681 -0.012836 -111962.000000 0 0 1
-15.186480 11.342118 -24.670664 31.111324 -0.641486 2.486481 0.121935 -0.016800 -222119.000000 0 0 1
-15.701980 11.055518 -23.401464 30.272185 -0.613462 2.454408 0.153628 -0.020263 74703.400000 0 0 1
-15.310080 12.020218 -22.404864 29.679322 -0.665600 2.426295 0.155022 -0.026316 -119514.000000 0 0 1
-16.057580 11.914418 -21.062664 29.041953 -0.638349 2.382193 0.152207 -0.028954 783788.000000 0 0 1
-17.424880 12.322218 -21.189264 30.074049 -0.615517 2.352613 0.127279 -0.028758 537898.000000 0 0 1
-18.134480 12.533918 -20.001764 29.766240 -0.604772 2.307650 0.121052 -0.021372 72266.500000 0 0 1
-19.613780 12.903318 -20.232264 30.992588 -0.581888 2.282084 0.084770 -0.018328 -113744.000000 0 0 1
-19.808080 14.268018 -20.560264 31.916466 -0.624229 2.270760 0.061895 -0.020582 -389631.000000 0 0 1
-21.132380 14.715318 -20.580464 32.964732 -0.608265 2.245054 0.030499 -0.019859 -335716.000000 0 0 1
-21.284980 16.095918 -21.324564 34.159420 -0.647464 2.244988 0.028680 -0.013252 -16978.700000 0 0 1
-21.051880 16.003418 -22.702664 34.852575 -0.649991 2.280213 0.036612 -0.018832 167182.000000 0 0 1
-21.435480 17.210718 -23.349964 36.068122 -0.676512 2.274945 0.031443 -0.010129 -81432.800000 0 0 1
-21.383480 17.110618 -24.899264 37.013509 -0.674850 2.308658 0.022577 -0.008893 421462.000000 0 0 1
-20.021280 17.084418 -25.309214 36.514180 -0.706414 2.336624 0.027509 -0.021789 379836.000000 0 0 1
-19.941480 16.682218 -26.646874 37.229221 -0.696639 2.368496 0.021829 -0.025267 -175075.000000 0 0 1
-18.802380 17.298318 -27.463874 37.510341 -0.743759 2.392296 0.015351 -0.020542 -327287.000000 0 0 1
-19.187880 18.536518 -28.076064 38.730384 -0.768134 2.381701 -0.000515 -0.030006 317116.000000 0 0 1
-18.791980 19.713318 -27.413414 38.642576 -0.809321 2.359456 -0.006430 -0.029592 -1610520.000000 0 0 1
-19.628880 20.975818 -27.602534 39.839400 -0.818558 2.336224 0.038217 -0.023647 708577.000000 0 0 1
-20.801380 21.191918 -26.784054 39.989753 -0.794698 2.304699 0.050857 -0.012002 677660.000000 0 0 1
-21.900780 20.367718 -27.056554 40.330450 -0.749144 2.306180 0.084752 -0.027741 15629.700000 0 0 1
-23.156480 20.737818 -26.164494 40.630782 -0.730352 2.270456 0.078622 -0.010065 692660.000000 0 0 1
-22.915280 20.277718 -24.828464 39.404930 -0.724409 2.252459 0.036248 -0.000518 1432.730000 0 0 1
-23.817380 20.850318 -23.900464 39.664033 -0.719070 2.217517 0.040470 -0.018428 102515.000000 0 0 1
-23.456880 20.391218 -22.473064 38.354473 -0.715596 2.196824 0.041852 0.000241 -95107.400000 0 0 1
-22.400980 21.096918 -21.886364 37.761049 -0.755427 2.189036 0.041667 -0.007363 29234.300000 0 0 1
-21.552180 20.335218 -20.969264 36.300518 -0.756353 2.186652 0.038181 -0.006319 281961.000000 0 0 1
-22.036780 19.944618 -19.568464 35.585562 -0.735604 2.153040 0.043929 -0.015952 -885062.000000 0 0 1
-22.856080 18.782518 -19.727564 35.557842 -0.687877 2.158921 0.054911 -0.010990 450410.000000 0 0 1
-23.452080 18.347918 -18.472864 35.041302 -0.663891 2.126068 0.051181 -0.008060 -59302.300000 0 0 1
-24.619880 19.199118 -17.956564 36.016424 -0.662315 2.092740 0.049293 -0.012784 -435596.000000 0 0 1
-25.755240 19.125218 -18.828064 37.196806 -0.638733 2.101539 0.045426 -0.013063 605696.000000 0 0 1
-26.666080 20.175718 -18.544064 38.236393 -0.647716 2.077142 0.043614 -0.009510 -731490.000000 0 0 1
-28.062120 20.156218 -19.248064 39.550520 -0.622884 2.079070 0.027616 -0.002261 508948.000000 0 0 1
-28.848860 19.074218 -18.778064 39.353503 -0.584193 2.068221 0.021051 -0.000689 93969.500000 0 0 1
-29.253920 19.102618 -17.421364 39.041078 -0.578477 2.033346 0.016813 0.005444 -1430670.000000 0 0 1
-30.316920 18.031818 -17.083264 39.193112 -0.536570 2.021806 0.005023 0.000848 -407313.000000 0 0 1
-29.871640 16.700118 -16.886064 38.162127 -0.509774 2.029161 0.029529 -0.013287 -441645.000000 0 0 1
-30.857010 15.921718 -16.323264 38.368022 -0.476353 2.010244 0.010835 -0.010951 -281192.000000 0 0 1
-30.176290 14.652518 -15.757864 37.062313 -0.452032 2.009948 0.056258 -0.007804 -389567.000000 0 0 1
-29.363660 14.897518 -14.683064 36.052086 -0.469507 1.990263 0.051217 -0.008865 -344512.000000 0 0 1
-30.022680 14.743218 -13.400364 36.031841 -0.456478 1.951855 0.010979 -0.001141 464030.000000 0 0 1
-29.197390 15.397518 -12.238864 35.204558 -0.485295 1.925860 0.030583 -0.011649 353172.000000 0 0 1
-28.979730 16.801118 -12.412864 35.723683 -0.525400 1.925667 0.034532 -0.002678 -54996.600000 0 0 1
-30.008160 17.616418 -11.872864 36.766734 -0.530846 1.899614 0.013315 0.000801 -49686.200000 0 0 1
-29.753690 19.155218 -11.904764 37.335343 -0.571999 1.895323 0.053802 -0.005956 -191144.000000 0 0 1
-28.850540 19.621018 -10.922164 36.559974 -0.597239 1.874175 -0.006598 -0.015352 75173.100000 0 0 1
-28.099800 20.669918 -11.537464 36.741766 -0.634214 1.890215 -0.016804 -0.020209 169422.000000 0 0 1
-27.064320 21.362918 -10.617064 36.077330 -0.668206 1.869505 0.014917 -0.018844 374475.000000 0 0 1
-27.667260 22.332918 -9.761164 36.871626 -0.679114 1.838724 0.001584 -0.018504 141339.000000 0 0 1
-27.070890 23.594818 -9.941664 37.261041 -0.716898 1.840879 0.014968 -0.016252 -255011.000000 0 0 1
-27.522020 24.660318 -8.927064 38.016909 -0.730613 1.807828 0.038860 -0.002475 -338532.000000 0 0 1
-27.083820 24.389318 -7.651264 37.241294 -0.733098 1.777721 0.028629 -0.008185 -143108.000000 0 0 1
-27.929660 24.886818 -6.639064 37.993378 -0.727850 1.746441 0.055502 -0.019161 -67183.300000 0 0 1
-27.772930 24.175018 -5.265064 37.195269 -0.716249 1.712825 0.056488 -0.010569 -89713.900000 0 0 1
-28.129230 22.821218 -5.335864 36.613290 -0.681593 1.717053 0.053065 -0.012931 50751.500000 0 0 1
-27.601990 22.099018 -4.226564 35.610396 -0.675126 1.689766 0.056713 -0.005678 111960.000000 0 0 1
-27.826160 20.601918 -4.443764 34.906751 -0.637315 1.698447 0.063662 -0.006594 -136515.000000 0 0 1
-26.898400 19.956118 -5.301964 33.909901 -0.638302 1.727795 0.039964 -0.010161 -69370.000000 0 0 1
-27.010470 20.053618 -6.667964 34.295405 -0.638644 1.766470 0.027393 -0.007271 -743020.000000 0 0 1
-28.162440 19.319918 -7.364764 34.937401 -0.601280 1.783188 0.027908 -0.008412 -353488.000000 0 0 1
-27.973180 17.897118 -7.375764 34.017753 -0.569168 1.789353 0.032760 -0.007826 228433.000000 0 0 1
-27.939600 17.392518 -8.702564 34.041967 -0.556803 1.829308 0.027423 -0.013265 38229.400000 0 0 1
-27.369830 15.957518 -8.745164 32.866820 -0.527850 1.840119 0.057848 -0.014310 453427.000000 0 0 1
-28.293360 15.051818 -8.132364 33.063678 -0.488912 1.819307 0.047907 -0.008648 213447.000000 0 0 1
-27.958690 13.692418 -8.296864 32.218141 -0.455404 1.831253 0.067088 -0.017602 -29478.500000 0 0 1
-28.701280 12.740718 -7.361764 32.253448 -0.417776 1.801073 0.068431 -0.017412 825506.000000 0 0 1
-30.122900 12.684718 -7.559964 33.547641 -0.398562 1.798099 0.071536 -0.012489 564573.000000 0 0 1
-30.774340 11.835218 -6.638464 33.633340 -0.367144 1.769478 0.082358 -0.018829 31344.400000 0 0 1
-31.342740 10.543718 -7.258664 33.855953 -0.324509 1.786872 0.081244 -0.015058 148302.000000 0 0 1
-30.290340 9.745518 -7.791964 32.759648 -0.311278 1.810951 0.087829 -0.011914 509778.000000 0 0 1
-30.856010 8.544118 -8.326564 33.082125 -0.270134 1.825226 0.078156 -0.010137 -109237.000000 0 0 1
-29.889360 7.520118 -8.964864 32.098205 -0.246483 1.853856 0.104113 -0.009389 -330538.000000 0 0 1
-29.401430 7.785318 -10.252164 32.096139 -0.258853 1.895914 0.094521 -0.024626 344375.000000 0 0 1
-28.729110 6.634918 -10.798464 31.400489 -0.226968 1.921858 0.114061 -0.024482 129090.000000 0 0 1
-27.775930 6.965618 -11.989864 31.044790 -0.245712 1.967318 0.096096 -0.020014 -154040.000000 0 0 1
-26.678680 7.759118 -11.647264 30.126643 -0.283028 1.967749 0.114214 -0.025531 -328496.000000 0 0 1
-25.804850 7.888218 -12.698864 29.822398 -0.296666 2.010660 0.096157 -0.007295 -688128.000000 0 0 1
-32.761160 25.852818 -33.561784 53.554226 -0.668078 2.248092 0.042985 -0.001945 181266.000000 0 0 1
-33.515440 27.011518 -33.940894 54.816887 -0.678354 2.238480 0.044055 -0.012218 265432.000000 0 0 1
-32.999850 27.621418 32.921134 54.182413 -0.696908 0.917763 0.029076 -0.020465 151180.000000 0 0 1
-33.791230 28.925218 32.484131 55.079345 -0.707966 0.940023 0.038437 -0.025530 367500.000000 0 0 1
-33.299840 29.563418 31.322226 54.442234 -0.726031 0.957789 0.070419 -0.026417 6127.940000 0 0 1
-33.600560 30.896618 31.406096 55.407052 -0.743499 0.968150 0.090108 -0.029577 -3720.410000 0 0 1
-33.079540 31.530118 30.096336 54.719226 -0.761421 0.988415 0.093864 -0.031429 -183758.000000 0 0 1
-31.699600 31.452518 29.876306 53.728197 -0.781486 0.981154 0.087570 -0.032887 -346669.000000 0 0 1
-31.306400 32.275718 28.805286 53.399973 -0.800642 1.001042 0.081087 -0.021847 504491.000000 0 0 1
-29.879430 31.904918 28.297276 52.071489 -0.818170 0.996277 0.107649 -0.029987 169922.000000 0 0 1
-29.929130 30.749818 27.535726 50.985491 -0.798922 1.000276 0.120170 -0.040389 297545.000000 0 0 1
-28.811430 30.513818 26.696686 49.738361 -0.814086 1.004225 0.098715 -0.026138 -67536.600000 0 0 1
-28.820560 31.314718 25.298226 49.509963 -0.826850 1.034481 0.114325 -0.028486 -23742.900000 0 0 1
-28.733470 32.701318 25.485956 50.443259 -0.849895 1.041136 0.108832 -0.031272 90365.900000 0 0 1
-29.566890 33.346018 24.543656 50.877784 -0.845395 1.067399 0.119171 -0.025811 64472.800000 0 0 1
-29.777170 -33.275753 24.979656 51.165797 0.840828 1.060759 0.131308 -0.020372 364166.000000 0 0 1
-30.526140 -33.270553 26.220966 52.214117 0.828390 1.044677 0.123783 -0.033782 326696.000000 0 0 1
-30.619580 -31.958553 26.704086 51.691547 0.806792 1.027916 0.106919 -0.031707 -90256.400000 0 0 1
-31.180020 -31.846553 28.132316 52.705064 0.795973 1.007745 0.099403 -0.040212 686274.000000 0 0 1
-32.496530 -32.426053 28.208626 53.881351 0.784313 1.019805 0.088734 -0.040951 517878.000000 0 0 1
-32.860220 -32.384153 29.586226 54.807592 0.778102 1.000573 0.078603 -0.034142 -126900.000000 0 0 1
-34.243650 -32.907653 29.994596 56.171318 0.765505 1.007490 0.087611 -0.035036 -17084.400000 0 0 1
-34.357552 -32.947753 31.397336 57.024455 0.764455 0.987720 0.078519 -0.039710 -1049250.000000 0 0 1
-35.657296 -33.217253 31.771426 58.174326 0.749986 0.993045 0.073181 -0.038096 -778669.000000 0 0 1
-35.962380 -33.570553 33.261366 59.385127 0.751013 0.976295 0.073423 -0.019416 -102725.000000 0 0 1
-35.694764 33.152518 33.531245 59.140088 -0.748489 0.967961 0.039760 -0.021449 -28654.900000 0 0 1
-36.386310 32.669118 -33.363094 59.197389 -0.731621 2.169522 0.049899 -0.019641 -130421.000000 0 0 1
-36.099060 31.211818 -33.017324 58.029849 -0.712918 2.176051 0.040885 -0.021247 1574530.000000 0 0 1
-34.847507 31.133518 -32.249044 56.777157 -0.729169 2.174862 0.039138 -0.023378 1088440.000000 0 0 1
-34.650000 29.752018 -31.989474 55.759587 -0.709491 2.181817 0.037597 -0.016523 456116.000000 0 0 1
-33.692390 29.366718 -30.810984 54.285339 -0.716908 2.174353 0.037679 -0.008900 255705.000000 0 0 1
-34.231077 29.637418 -29.517294 54.050105 -0.713598 2.148510 0.045397 -0.019776 -186254.000000 0 0 1
-34.245821 31.035018 -29.187004 54.661045 -0.736253 2.134078 0.028123 -0.015456 171567.000000 0 0 1
-35.449288 31.462918 -28.313234 55.210565 -0.725892 2.109266 0.022578 -0.018209 124188.000000 0 0 1
-35.302427 31.075918 -26.943464 54.202622 -0.721811 2.091036 0.023073 -0.028343 232872.000000 0 0 1
-36.554990 31.016018 -26.267834 54.664978 -0.703608 2.072048 0.054005 -0.032391 194527.000000 0 0 1
-36.502610 30.565518 -24.830564 53.695887 -0.697105 2.051530 0.046713 -0.033474 -14102.000000 0 0 1
-35.812187 31.479418 -23.936864 53.352038 -0.721099 2.036060 0.051091 -0.032569 421414.000000 0 0 1
-35.530660 31.024918 -22.672164 52.335460 -0.717802 2.018846 0.046616 -0.033744 923889.000000 0 0 1
-36.878930 30.869218 -21.838264 52.819257 -0.696923 1.997039 0.042870 -0.032510 1318610.000000 0 0 1
36.163386 32.046618 -21.586164 52.922006 0.725117 1.990934 0.052955 -0.038544 236448.000000 0 0 1
36.778636 33.110218 -20.869464 53.707440 0.732957 1.969883 0.054721 -0.041977 -275533.000000 0 0 1
-36.838370 33.015218 -19.350764 53.118002 -0.730722 1.943675 0.051375 -0.037536 193807.000000 0 0 1
-35.844194 32.036818 -19.105264 51.731761 -0.729368 1.949067 0.052638 -0.039143 42445.400000 0 0 1
-35.566177 32.047618 -17.710864 51.045837 -0.733406 1.925124 0.067797 -0.032237 260414.000000 0 0 1
-34.306554 31.192518 -17.389864 49.520907 -0.737891 1.929608 0.066765 -0.024337 152823.000000 0 0 1
-34.012530 31.172918 -15.992864 48.830059 -0.741864 1.904475 0.074537 -0.016569 152855.000000 0 0 1
-32.845490 30.423918 -15.688964 47.440327 -0.747143 1.907852 0.074241 -0.013840 41886.500000 0 0 1
-32.649960 30.314218 -14.192364 46.758902 -0.748319 1.879183 0.086243 -0.014216 -374801.000000 0 0 1
-33.642110 29.610518 -13.526664 46.813940 -0.721746 1.863921 0.081865 -0.007423 -224739.000000 0 0 1
-33.137800 29.204418 -12.283364 45.846405 -0.722388 1.842034 0.096496 -0.006091 71131.800000 0 0 1
-34.210820 28.457918 -11.474564 45.955401 -0.693856 1.823156 0.092890 -0.010398 38237.200000 0 0 1
-33.704930 28.046918 -10.224964 45.024458 -0.694028 1.799893 0.099235 -0.011031 534643.000000 0 0 1
-34.450256 26.928218 -9.765264 44.803007 -0.663454 1.790520 0.100434 -0.019882 456340.000000 0 0 1
-33.600070 26.279018 -8.655564 43.525513 -0.663738 1.770993 0.110295 -0.015680 270625.000000 0 0 1
-33.319070 27.070618 -7.566664 43.591664 -0.682296 1.745261 0.104254 -0.022791 -326954.000000 0 0 1
-32.160360 26.666118 -6.929764 42.348462 -0.692271 1.735172 0.105543 -0.030993 -645948.000000 0 0 1
-31.972260 27.358318 -5.569364 42.446682 -0.707788 1.702384 0.104312 -0.036714 -132548.000000 0 0 1
-30.712870 27.005718 -5.046964 41.207536 -0.721258 1.693581 0.105131 -0.025735 71818.800000 0 0 1
-30.501610 27.595418 -3.777564 41.305269 -0.735417 1.662379 0.113559 -0.023012 -146738.000000 0 0 1
-29.603000 26.639818 -2.960464 39.934720 -0.732761 1.644997 0.096637 -0.019428 -454280.000000 0 0 1
-30.280540 25.461318 -2.601164 39.647899 -0.699157 1.636450 0.083689 -0.010312 105580.000000 0 0 1
-29.493050 24.450318 -1.950664 38.359655 -0.692187 1.621670 0.099203 -0.014800 -532792.000000 0 0 1
-30.348800 23.381818 -1.335564 38.334616 -0.656453 1.605643 0.110247 -0.023708 -457891.000000 0 0 1
-30.854900 22.530118 -2.312364 38.275032 -0.630705 1.631248 0.083262 -0.017894 -220970.000000 0 0 1
-31.473620 21.456218 -1.649464 38.127140 -0.598352 1.614072 0.075324 -0.019518 -213083.000000 0 0 1
-32.141160 20.581118 -2.719064 38.262643 -0.569551 1.641919 0.097094 -0.015076 336607.000000 0 0 1
-31.186020 19.645318 -3.240464 37.000094 -0.562144 1.658489 0.084178 -0.016133 736764.000000 0 0 1
-31.650540 19.047818 -4.472464 37.209931 -0.541754 1.691283 0.085540 -0.012632 -56497.300000 0 0 1
-30.644640 18.026318 -4.981164 35.900614 -0.531726 1.709994 0.078272 -0.012880 -267630.000000 0 0 1
-30.618700 16.894218 -4.123564 35.212543 -0.504195 1.688171 0.084453 -0.018090 -241839.000000 0 0 1
-29.783210 15.930718 -4.650864 34.094837 -0.491168 1.707633 0.071175 -0.013662 -333548.000000 0 0 1
-29.344430 14.764118 -3.690464 33.055926 -0.466150 1.682673 0.076980 -0.017596 305985.000000 0 0 1
-30.485990 13.997918 -3.329564 33.710878 -0.430444 1.669726 0.092810 -0.021995 445227.000000 0 0 1
-30.160960 12.828718 -2.598864 32.878771 -0.402160 1.649923 0.085809 -0.024260 -387879.000000 0 0 1
-31.353900 12.118518 -1.967264 33.671882 -0.368821 1.629254 0.100191 -0.021708 -397348.000000 0 0 1
-32.291270 11.577518 -2.857464 34.422814 -0.344257 1.653903 0.091028 -0.003526 143336.000000 0 0 1
-33.259890 10.735318 -2.259464 35.022457 -0.312214 1.635356 0.092359 -0.006508 -211786.000000 0 0 1
-34.230317 10.272218 -3.332864 35.893468 -0.291540 1.663785 0.075582 -0.002871 -101416.000000 0 0 1
-33.559750 9.464618 -4.323364 35.135840 -0.274884 1.694156 0.073051 -0.009709 174668.000000 0 0 1
-34.521871 8.776318 -5.062664 35.977964 -0.248951 1.711981 0.080975 -0.005764 -415890.000000 0 0 1
-34.128078 7.825118 -6.220464 35.561951 -0.225391 1.746620 0.091200 -0.017956 -535331.000000 0 0 1
-33.533610 6.605618 -5.833664 34.672306 -0.194495 1.739852 0.083688 -0.014271 294075.000000 0 0 1
-33.213960 5.910918 -7.034764 34.461486 -0.176121 1.776375 0.089407 -0.018802 -678131.000000 0 0 1
-32.105710 4.903918 -6.778864 33.177975 -0.151571 1.776563 0.099141 -0.022307 -1042660.000000 0 0 1
-30.854230 5.466318 -6.609064 32.024114 -0.175346 1.778668 0.100031 -0.026712 -425763.000000 0 0 1
-29.906590 4.536518 -6.106964 30.859020 -0.150542 1.770010 0.097177 -0.028649 1600580.000000 0 0 1
-28.398100 5.026518 -5.946864 29.446276 -0.175187 1.774151 0.122884 -0.032153 1754050.000000 0 0 1
-27.679580 5.285318 -7.177964 29.079493 -0.188675 1.820214 0.120324 -0.028409 1135400.000000 0 0 1
-26.270600 5.123318 -6.961664 27.656058 -0.192603 1.825256 0.148107 -0.027862 609753.000000 0 0 1
-25.437290 5.257118 -8.242464 27.251261 -0.203800 1.878071 0.139963 -0.030382 -130467.000000 0 0 1
-25.616620 4.191718 -9.182564 27.533638 -0.162195 1.910814 0.141888 -0.042992 1077390.000000 0 0 1
-24.563380 4.340918 -10.152664 26.931019 -0.174917 1.957338 0.138807 -0.038409 544706.000000 0 0 1
-24.988780 3.571418 -11.438164 27.713277 -0.141959 1.996248 0.122594 -0.038043 742081.000000 0 0 1
-26.054830 4.208218 -12.185064 29.069555 -0.160131 2.003326 0.114602 -0.022941 993246.000000 0 0 1
-26.362920 3.479618 -13.359464 29.758807 -0.131231 2.036358 0.111805 -0.019882 -190774.000000 0 0 1
-27.355310 4.110118 -14.323764 31.150863 -0.149134 2.048588 0.091434 -0.010788 -230828.000000 0 0 1
-26.724300 5.208018 -15.026064 31.098139 -0.192467 2.075082 0.072728 -0.006923 955903.000000 0 0 1
-27.607600 6.165718 -15.665064 32.335582 -0.219728 2.076534 0.102154 -0.014127 534434.000000 0 0 1
-28.478070 5.692118 -16.878464 33.589927 -0.197278 2.097268 0.065063 0.003747 23655.700000 0 0 1
-29.649740 5.006118 -16.520064 34.308611 -0.167264 2.073177 0.067328 -0.009441 -122756.000000 0 0 1
-30.314780 4.542218 -17.707764 35.400318 -0.148729 2.094643 0.073183 0.005838 673535.000000 0 0 1
-31.798220 4.077718 -17.547464 36.546793 -0.127541 2.071607 0.078928 -0.008463 400944.000000 0 0 1
-31.964910 3.023318 -16.666964 36.175732 -0.094302 2.049605 0.074122 -0.018180 194019.000000 0 0 1
-31.594080 1.753718 -17.193764 36.012316 -0.055451 2.068537 0.094996 -0.020282 -272109.000000 0 0 1
-31.749060 0.668818 -16.182464 35.641581 -0.021063 2.042083 0.093674 -0.020085 -272243.000000 0 0 1
-31.247510 -0.573482 -16.700464 35.435029 0.018351 2.061558 0.090620 -0.010037 521401.000000 0 0 1
-31.432790 -1.627582 -15.777064 35.207741 0.051734 2.035450 0.102317 -0.026627 -204070.000000 0 0 1
-30.902980 -2.904682 -16.435364 35.121967 0.093718 2.057767 0.094632 -0.016030 -327411.000000 0 0 1
-31.598130 -3.169682 -17.609364 36.312235 0.099978 2.077094 0.093266 -0.014515 -20609.000000 0 0 1
-31.461070 -4.465782 -18.040264 36.540296 0.141004 2.087146 0.107623 -0.015471 -131281.000000 0 0 1
-32.473930 -4.767882 -19.157664 38.004012 0.145780 2.099131 0.109553 -0.013365 -104017.000000 0 0 1
-32.391800 -6.077382 -19.672464 38.381885 0.185465 2.108943 0.109729 -0.016412 -246022.000000 0 0 1
-33.345440 -6.336082 -20.670164 39.740659 0.187775 2.117795 0.108323 -0.016657 -305763.000000 0 0 1
-33.048870 -7.596082 -21.577464 40.193472 0.225920 2.137483 0.119237 -0.023372 -506398.000000 0 0 1
-31.912710 -7.466782 -22.382264 39.688029 0.229841 2.169964 0.114042 -0.021072 -411821.000000 0 0 1
-31.750360 -8.488282 -23.312864 40.294242 0.261235 2.187765 0.097149 -0.013543 -610679.000000 0 0 1
-30.373690 -8.372182 -23.952264 39.577335 0.268960 2.220815 0.075966 -0.011012 -796847.000000 0 0 1
-30.081820 -7.250882 -24.758064 39.628940 0.236527 2.245604 0.069078 -0.014019 -19114.000000 0 0 1
-30.275760 -7.362982 -26.173094 40.692333 0.238566 2.269460 0.060391 -0.011611 -708240.000000 0 0 1
-31.665330 -7.224882 -26.797444 42.106948 0.224324 2.260636 0.080179 -0.007333 -294376.000000 0 0 1
-32.566580 -8.275582 -26.498334 42.792863 0.248846 2.238549 0.078661 -0.013255 -266999.000000 0 0 1
-33.616210 -8.412082 -27.398834 44.175885 0.245203 2.239821 0.078995 -0.018927 379478.000000 0 0 1
-34.690070 -9.496582 -27.029354 44.990799 0.267208 2.215267 0.089297 -0.016592 -2264.340000 0 0 1
-34.193577 -10.775082 -27.231904 45.020881 0.305270 2.220402 0.077416 -0.015959 -2384.620000 0 0 1
-35.051678 -11.859282 -26.897924 45.746705 0.326247 2.199350 0.054821 -0.014150 426098.000000 0 0 1
-36.355550 -12.125982 -27.719684 47.298481 0.321935 2.196982 0.039391 -0.008583 701442.000000 0 0 1
36.498196 -11.087182 -27.563124 47.061340 -0.294915 2.196521 0.038765 -0.010807 -10441.600000 0 0 1
35.580736 -11.067182 -28.612724 46.980414 -0.301558 2.225640 0.043590 -0.019937 -237224.000000 0 0 1
34.586566 -9.893982 -28.475674 45.880120 -0.278623 2.240373 0.043500 -0.011742 380751.000000 0 0 1
33.415076 -10.155682 -27.697944 44.574447 -0.295054 2.241307 0.022523 -0.015269 170143.000000 0 0 1
32.718906 -8.992082 -27.378334 43.599972 -0.268207 2.249705 0.010684 -0.008378 966179.000000 0 0 1
31.432976 -9.280382 -26.488554 42.140254 -0.287087 2.250523 0.008408 -0.005259 945364.000000 0 0 1
31.810846 -9.523482 -25.159904 41.661102 -0.290886 2.219204 -0.002914 0.005524 527474.000000 0 0 1
30.687096 -9.954682 -24.392264 40.444729 -0.313683 2.218180 -0.012890 0.004289 226114.000000 0 0 1
30.967476 -9.895082 -22.881264 39.754867 -0.309278 2.184084 -0.013750 0.003572 -77883.700000 0 0 1
31.846276 -10.908982 -22.478764 40.478217 -0.330024 2.159556 -0.020533 0.001951 111235.000000 0 0 1
32.168926 -10.834082 -21.127664 39.982438 -0.324856 2.127539 -0.003103 0.000801 -123146.000000 0 0 1
32.908896 -11.995782 -20.440964 40.555237 -0.349547 2.099052 0.016606 -0.003162 53246.700000 0 0 1
34.233206 -12.155582 -20.916164 41.918450 -0.341195 2.093209 0.025934 -0.002249 326563.000000 0 0 1
35.050606 -12.677482 -19.871464 42.239065 -0.347052 2.060600 0.052673 -0.006731 1569300.000000 0 0 1
36.629306 -12.747382 -20.123464 43.693885 -0.334901 2.049417 0.063318 -0.013798 1465000.000000 0 0 1
-36.526700 -11.493882 -20.186864 43.287627 0.304861 2.055948 0.088446 -0.012042 312400.000000 0 0 1
-36.710240 -10.659282 -21.324964 43.772321 0.282592 2.079653 0.101325 -0.011560 -689714.000000 0 0 1
-36.091999 -11.224482 -22.657764 44.068080 0.301514 2.110817 0.076356 -0.010817 281464.000000 0 0 1
-36.736980 -12.303782 -23.398664 45.260206 0.323174 2.114117 0.063657 -0.010403 92540.600000 0 0 1
35.818996 -11.979982 -23.885164 44.688047 -0.322763 2.134697 0.063271 -0.007753 -159077.000000 0 0 1
35.156746 -13.107482 -24.768164 44.958479 -0.356867 2.154253 0.028067 -0.016427 -107303.000000 0 0 1
34.884276 -14.431282 -24.221164 44.853533 -0.392252 2.141240 0.018054 -0.021410 451632.000000 0 0 1
33.942946 -14.535082 -23.171964 43.592799 -0.404596 2.131232 0.000829 -0.016132 -271279.000000 0 0 1
-30.540020 8.485018 -19.073264 36.992942 -0.270998 2.112495 0.048789 0.003312 674509.000000 0 0 1
-29.387840 7.678918 -19.333464 36.005468 -0.255581 2.137625 0.049099 0.000469 602920.000000 0 0 1
-28.515630 8.225818 -20.326264 35.971687 -0.280843 2.171306 0.053310 -0.014073 439224.000000 0 0 1
-27.361550 7.288918 -20.765064 35.113681 -0.260347 2.203549 0.065886 -0.020788 -485442.000000 0 0 1
-26.329560 7.282018 -19.852064 33.769483 -0.269827 2.199220 0.067258 -0.014460 -1012400.000000 0 0 1
-25.496350 6.177418 -20.002764 32.989922 -0.237706 2.222233 0.099110 -0.020315 -373903.000000 0 0 1
-24.127080 6.472418 -19.346164 31.595605 -0.262093 2.229770 0.067876 -0.021264 -21488.100000 0 0 1
-23.405180 7.436718 -20.092764 31.730528 -0.307650 2.256517 0.068781 -0.026614 -572220.000000 0 0 1
-22.259480 7.866418 -19.429364 30.575565 -0.339697 2.259393 0.045344 -0.014809 -63101.000000 0 0 1
-21.468280 8.996118 -20.174464 30.803022 -0.396814 2.284914 0.056517 -0.010605 37401.900000 0 0 1
-20.718880 8.661718 -21.347364 30.983985 -0.395977 2.330878 0.105436 -0.031405 98788.200000 0 0 1
-20.242980 9.809418 -21.936864 31.420199 -0.451239 2.343644 0.083394 -0.024063 -156228.000000 0 0 1
-19.226880 9.559318 -23.071564 31.517464 -0.461393 2.392086 0.111783 -0.015424 -78328.400000 0 0 1
-19.744480 8.966518 -24.229364 32.516227 -0.426281 2.411551 0.101475 -0.016846 -160810.000000 0 0 1
-18.724380 8.404118 -24.994264 32.341071 -0.421883 2.454090 0.084357 -0.008312 -223329.000000 0 0 1
-19.363480 7.494218 -26.092084 33.345232 -0.369274 2.469440 0.059569 -0.006799 26322.600000 0 0 1
-19.741780 6.242618 -25.548854 32.885439 -0.306264 2.460531 0.090259 -0.008782 231524.000000 0 0 1
-20.158880 5.299318 -26.488284 33.705970 -0.257062 2.474887 0.092658 -0.018337 -542376.000000 0 0 1
-20.565280 3.918318 -25.878784 33.286565 -0.188274 2.461404 0.086499 -0.006417 121751.000000 0 0 1
-19.549680 3.001918 -25.534554 32.298838 -0.152363 2.482539 0.091660 -0.010520 666020.000000 0 0 1
-18.532980 3.402118 -24.599264 30.986603 -0.181550 2.487940 0.102602 -0.017344 414321.000000 0 0 1
-17.564180 2.267218 -24.119364 29.922975 -0.128372 2.508241 0.103046 -0.015617 30626.900000 0 0 1
-17.988480 1.351718 -23.124164 29.328135 -0.075003 2.479103 0.105513 -0.017266 -118862.000000 0 0 1
-19.240380 0.707718 -23.194464 30.144257 -0.036766 2.448774 0.088413 -0.011670 -123420.000000 0 0 1
-19.642480 -0.050482 -21.895964 29.415350 0.002570 2.410390 0.114930 -0.017403 198289.000000 0 0 1
-18.991280 -1.325382 -21.709664 28.874467 0.069676 2.421681 0.119515 -0.016577 403127.000000 0 0 1
-19.629280 -2.061782 -20.687664 28.592639 0.104652 2.379700 0.111922 -0.015854 -150884.000000 0 0 1
-19.061280 -3.447282 -20.417964 28.144438 0.178919 2.382514 0.105501 -0.031184 -155552.000000 0 0 1
-19.197380 -4.285582 -21.591564 29.207897 0.219637 2.402733 0.105074 -0.036884 433761.000000 0 0 1
-19.354880 -5.629682 -21.197764 29.251494 0.283056 2.381356 0.109591 -0.035080 -192777.000000 0 0 1
-19.261880 -6.680882 -22.356564 30.256737 0.333861 2.402226 0.088826 -0.038306 48630.900000 0 0 1
-17.927280 -7.002482 -22.726064 29.780801 0.372381 2.438910 0.100201 -0.029801 268382.000000 0 0 1
-17.827980 -7.960182 -23.751164 30.746043 0.419939 2.453557 0.113809 -0.032683 217323.000000 0 0 1
-16.403780 -8.141682 -24.328364 30.450620 0.460707 2.496335 0.096991 -0.037094 -674961.000000 0 0 1
-16.449380 -8.721682 -25.594114 31.649779 0.487525 2.512678 0.076566 -0.054592 55136.900000 0 0 1
-15.196580 -8.942282 -26.183584 31.567080 0.531876 2.548934 0.085878 -0.050140 47614.400000 0 0 1
-14.050180 -9.750682 -25.529614 30.728563 0.606681 2.551359 0.081528 -0.046191 -263428.000000 0 0 1
-13.363280 -9.088982 -24.458864 29.315915 0.597277 2.557695 0.070352 -0.040939 89395.300000 0 0 1
-12.415380 -9.886182 -23.820164 28.623041 0.672472 2.553864 0.061456 -0.038925 -367385.000000 0 0 1
-11.647980 -9.211682 -22.673964 27.104228 0.669130 2.561747 0.052163 -0.032912 -578774.000000 0 0 1
-12.386580 -8.751982 -21.615264 26.405382 0.615122 2.529754 0.062570 -0.033993 -470717.000000 0 0 1
-11.585580 -7.951382 -20.796264 25.098501 0.601484 2.547373 0.060920 -0.027448 -1401620.000000 0 0 1
-12.152380 -7.799182 -19.390864 24.176708 0.570577 2.501512 0.070522 -0.024704 192916.000000 0 1 0
-13.261580 -6.894082 -19.331164 24.435461 0.479404 2.483420 0.084345 -0.019019 621878.000000 0 1 0
-14.484580 -7.499082 -19.739864 25.606670 0.477730 2.451030 0.115996 -0.027269 -294961.000000 0 0 1
-15.686180 -6.500282 -19.520164 25.871736 0.392854 2.425685 0.121576 -0.016624 351236.000000 0 0 1
-16.116080 -6.191182 -18.215464 25.097050 0.366779 2.382994 0.107729 -0.016069 442856.000000 0 0 1
-15.266380 -5.255882 -17.565464 23.858587 0.331568 2.398282 0.119043 -0.019547 -348723.000000 0 1 0
-15.392480 -5.099182 -16.058264 22.820998 0.319899 2.351334 0.123336 -0.007384 426177.000000 0 1 0
-16.565780 -4.386282 -15.613064 23.182586 0.258840 2.309706 0.137985 -0.015864 855221.000000 0 1 0
-16.683880 -2.956282 -15.811264 23.175149 0.175374 2.321633 0.084070 -0.018147 -85771.100000 0 1 0
-17.928380 -2.391082 -15.090964 23.555918 0.132586 2.266133 0.076048 -0.019207 2993.420000 0 1 0
-17.781880 -2.662182 -13.704064 22.607163 0.148609 2.222048 0.096244 -0.020379 70698.600000 0 1 0
-18.677180 -1.936382 -12.955564 22.813007 0.103307 2.174752 0.088206 -0.023332 -612025.000000 0 1 0
-18.076380 -0.668782 -12.254564 21.848962 0.036981 2.166240 0.070379 -0.020983 -171090.000000 0 1 0
-17.601680 0.306718 -13.132064 21.962794 -0.017424 2.211704 0.093687 -0.025419 797084.000000 0 1 0
-16.902280 1.356518 -12.470664 21.048626 -0.080085 2.204917 0.093816 -0.021395 -904410.000000 0 1 0
-16.402680 2.494118 -13.414464 21.335800 -0.150900 2.250716 0.099744 -0.016872 156189.000000 0 1 0
-15.650280 1.991218 -14.505164 21.431192 -0.126552 2.314237 0.095259 -0.021140 971836.000000 0 1 0
-14.327280 1.520918 -14.206064 20.233546 -0.105759 2.349145 0.082951 -0.018809 -145674.000000 0 1 0
-13.881780 0.497818 -15.272064 20.644311 -0.035846 2.403526 0.087382 -0.017268 8299.640000 0 1 0
-13.358680 1.121718 -16.437264 21.210757 -0.083773 2.457431 0.088146 -0.024648 309144.000000 0 1 0
-13.027380 0.238018 -17.489664 21.809577 -0.018269 2.501308 0.069722 -0.011357 -83837.500000 0 1 0
-12.337380 0.892218 -18.707264 22.426964 -0.072193 2.557371 0.077962 -0.010777 -942191.000000 0 1 0
-11.139480 1.441818 -18.337764 21.504429 -0.128718 2.592012 0.054270 -0.016710 -1138960.000000 0 1 0
-10.565880 2.250818 -19.358264 22.168590 -0.209890 2.632587 0.044214 -0.018375 -516270.000000 0 1 0
-9.164380 2.742818 -19.077164 21.341207 -0.290806 2.676795 0.027233 -0.022077 -736625.000000 0 1 0
-8.148280 1.771218 -19.441064 21.153880 -0.214043 2.736411 0.023345 -0.013847 227231.000000 0 1 0
-6.839180 2.244618 -19.236264 20.538903 -0.317123 2.783528 0.022039 -0.010716 32165.400000 0 1 0
-6.318780 3.295618 -20.221864 21.440892 -0.480746 2.802764 0.024531 -0.007603 -1172350.000000 0 1 0
-6.156880 2.777918 -21.516764 22.552054 -0.423842 2.837414 0.027433 -0.012547 153276.000000 0 1 0
-6.020280 3.751118 -22.507764 23.599028 -0.557218 2.836297 0.031542 -0.003284 -417128.000000 0 1 0
-5.480280 3.130218 -23.839264 24.660540 -0.518958 2.882789 0.050857 -0.021171 1367990.000000 0 1 0
-4.044180 2.929818 -23.750364 24.269714 -0.626950 2.934345 0.050850 -0.026376 1163200.000000 0 1 0
-3.476080 2.311918 -24.894764 25.242373 -0.586913 2.975445 0.078264 -0.031644 800634.000000 0 0 1
-2.035880 1.712618 -24.707364 24.850185 -0.699373 3.034328 0.055788 -0.031990 167381.000000 0 1 0
-1.126480 2.746618 -24.405664 24.585551 -1.181585 3.020550 0.050450 -0.033104 -301618.000000 0 1 0
0.234020 2.408418 -24.452664 24.572099 1.473933 3.042957 0.049486 -0.027590 121735.000000 0 1 0
0.872620 1.342718 -23.478264 23.532812 0.994498 3.073492 0.045465 -0.027535 -869576.000000 0 1 0
0.483820 0.011718 -23.602764 23.607725 0.024215 3.121091 0.051298 -0.026695 -190084.000000 0 1 0
1.133920 -0.805382 -22.674364 22.716981 -0.617581 3.080330 0.044886 -0.021357 -720115.000000 0 1 0
0.489620 -2.178982 -22.581064 22.691235 -1.349766 3.043011 0.048570 -0.029212 -1035900.000000 0 1 0
-0.687680 -2.216982 -21.859264 21.982160 1.270020 3.035801 0.052256 -0.030539 -1524580.000000 0 1 0
-1.776480 -2.401682 -22.694764 22.890528 0.933932 3.010716 0.068190 -0.032501 -595167.000000 0 1 0
-2.692780 -1.150382 -22.756864 22.944483 0.403741 3.013622 0.067373 -0.028926 -1054370.000000 0 1 0
-3.380280 -0.890482 -21.566864 21.848315 0.257582 2.980908 0.048942 -0.021260 650708.000000 0 1 0
-4.462980 0.058918 -21.568264 22.025251 -0.013201 2.937532 0.034366 -0.022360 824512.000000 0 1 0
-5.720280 -0.285182 -22.416764 23.136859 0.049813 2.891448 0.043809 -0.015035 -524877.000000 0 1 0
-6.357080 -1.405682 -21.859764 22.808720 0.217619 2.852122 0.037801 -0.005101 -160813.000000 0 1 0
-7.671780 -1.030582 -21.449664 22.803649 0.133535 2.795261 0.040675 -0.015618 193971.000000 0 1 0
-8.501880 -2.289682 -21.052964 22.819989 0.263073 2.745477 0.032328 -0.011800 -236924.000000 0 1 0
-8.853880 -3.107182 -22.185264 24.087999 0.337512 2.741459 0.066374 -0.019195 -245127.000000 0 1 0
-9.445980 -4.231482 -21.661264 24.007131 0.421162 2.695836 0.056117 -0.019622 -745798.000000 0 1 0
-10.038580 -5.104682 -22.771764 25.404411 0.470430 2.682309 0.049494 -0.023873 677043.000000 0 0 1
-11.457580 -4.881782 -22.806564 25.985521 0.402780 2.641763 0.053186 -0.022498 607608.000000 0 0 1
-12.096280 -5.534582 -23.901664 27.353997 0.429110 2.633740 0.043280 -0.041509 201779.000000 0 0 1
-13.635380 -5.539482 -23.720764 27.915660 0.385890 2.586269 0.102140 -0.038665 -9769.310000 0 0 1
-14.293080 -4.317182 -23.676864 27.991500 0.293334 2.578970 0.082399 -0.035820 -246850.000000 0 0 1
-15.687080 -4.515782 -23.720464 28.794742 0.280288 2.538839 0.086389 -0.033160 -120322.000000 0 0 1
-16.524780 -3.260382 -23.847864 29.196217 0.194801 2.526662 0.094073 -0.029825 -465998.000000 0 0 1
-16.445080 -2.887982 -25.187594 30.219133 0.173841 2.556206 0.080585 -0.038835 68118.300000 0 0 1
-16.724280 -1.550282 -25.463574 30.504074 0.092432 2.558493 0.084410 -0.029268 473661.000000 0 0 1
-18.249980 -1.393682 -25.811814 31.642596 0.076218 2.524786 0.086476 -0.028659 487917.000000 0 0 1
-18.675480 -1.809182 -27.102544 32.963534 0.096573 2.536058 0.094486 -0.040196 84576.200000 0 0 1
-18.189080 -1.060282 -28.195994 33.570536 0.058226 2.567901 0.068219 -0.030536 -444980.000000 0 0 1
-18.140980 -1.768882 -29.576104 34.741474 0.097200 2.589292 0.055648 -0.029237 583294.000000 0 0 1
-19.452680 -1.987382 -30.100994 35.894655 0.101812 2.565491 0.065242 -0.033663 642418.000000 0 0 1
-19.367080 -2.712582 -31.323234 36.926777 0.139156 2.583473 0.069969 -0.042669 -600495.000000 0 0 1
-20.683180 -3.304082 -31.872824 38.139059 0.158409 2.560203 0.057337 -0.031585 133573.000000 0 0 1
-21.747880 -2.418182 -32.182054 38.916610 0.110737 2.544456 0.066864 -0.030827 425362.000000 0 0 1
-22.502080 -1.978382 -31.068674 38.412499 0.087694 2.512934 0.057360 -0.014607 -906857.000000 0 0 1
-23.579780 -0.980682 -31.478024 39.342519 0.041566 2.498261 0.052167 -0.010308 -524103.000000 0 0 1
-23.085280 0.206118 -32.102724 39.541845 -0.008928 2.518139 0.055790 -0.016501 232012.000000 0 0 1
-24.089480 1.135818 -32.512854 40.480598 -0.047115 2.503396 0.051610 -0.024729 99555.600000 0 0 1
-23.564580 2.442318 -33.183654 40.772653 -0.103275 2.521579 0.057927 -0.022550 -430503.000000 0 0 1
-23.138380 3.490318 -32.319534 39.901369 -0.149717 2.514924 0.037688 -0.015429 600900.000000 0 0 1
-24.082980 3.993818 -31.349104 39.732944 -0.164340 2.479968 0.044771 -0.019276 -619386.000000 0 0 1
-25.111260 4.938918 -31.897744 40.895408 -0.194203 2.465436 0.048897 -0.024757 -1007250.000000 0 0 1
-26.167760 4.212418 -32.474404 41.917574 -0.159608 2.457069 0.063755 -0.030767 -378136.000000 0 0 1
-26.960490 5.022918 -33.277884 43.122098 -0.184195 2.452327 0.069414 -0.037355 384779.000000 0 0 1
-28.289770 4.465218 -33.888414 44.369740 -0.156547 2.439935 0.086964 -0.035504 57332.400000 0 0 1
-28.024420 3.315518 33.376364 43.707464 -0.117761 0.701878 0.098703 -0.035301 1466.550000 0 0 1
-29.086160 2.886418 32.567864 43.760734 -0.098913 0.731421 0.110666 -0.036815 -393444.000000 0 0 1
-29.312790 1.355118 32.462943 43.759783 -0.046197 0.734980 0.109261 -0.015034 -113778.000000 0 0 1
-29.588330 0.750918 33.722666 44.869269 -0.025373 0.720348 0.103569 -0.007450 249182.000000 0 0 1
-29.810260 -0.619782 33.507729 44.853134 0.020788 0.727176 0.092621 -0.000666 -567001.000000 0 0 1
-29.983060 -1.334482 -33.105154 44.684628 0.044479 2.405150 0.073152 0.005855 407088.000000 0 0 1
-28.744030 -1.701782 -32.505744 43.425093 0.059136 2.416665 0.081136 -0.013476 804973.000000 0 0 1
-27.900360 -0.636082 -32.091524 42.528821 0.022794 2.425815 0.080475 -0.011797 -436013.000000 0 0 1
-27.854750 -0.388782 -30.537074 41.334624 0.013957 2.402050 0.102391 -0.013742 -486499.000000 0 0 1
-27.022300 -1.250182 -29.818554 40.260574 0.046232 2.404817 0.079264 -0.019699 95463.200000 0 0 1
-27.076920 -1.001182 -28.440774 39.281543 0.036959 2.380415 0.088720 -0.025548 386807.000000 0 0 1
-25.948520 -1.643882 -27.534294 37.870376 0.063267 2.384836 0.084170 -0.021850 263813.000000 0 0 1
-26.174680 -3.017582 -27.226744 37.888194 0.114780 2.372594 0.074461 -0.025184 -679356.000000 0 0 1
-25.175880 -3.492282 -26.426544 36.665831 0.137836 2.375666 0.075327 -0.025590 -1332310.000000 0 0 1
-25.491830 -4.657382 -25.496274 36.353605 0.180708 2.348073 0.062830 -0.028108 -212730.000000 0 0 1
-26.540340 -4.424382 -24.590564 36.450798 0.165185 2.311251 0.073582 -0.024100 -173854.000000 0 0 1
-26.839130 -5.605582 -23.882764 36.361351 0.205899 2.287386 0.040998 -0.017775 1579.780000 0 0 1
-27.995700 -5.433382 -22.884664 36.564856 0.191696 2.247036 0.062785 -0.019285 -113283.000000 0 0 1
-28.123490 -6.435582 -21.903564 36.223108 0.224960 2.220166 0.050621 -0.020885 -367709.000000 0 0 1
-29.218040 -6.191582 -21.074664 36.553673 0.208820 2.185284 0.077761 -0.017179 -567371.000000 0 0 1
-29.577020 -7.430182 -20.212564 36.586274 0.246122 2.156113 0.078875 -0.022379 -321527.000000 0 0 1
-28.572540 -7.694382 -19.245564 35.298517 0.263053 2.147451 0.062245 -0.023656 395711.000000 0 0 1
-29.061160 -8.551582 -18.245964 35.363764 0.286184 2.112914 0.073879 -0.025205 165490.000000 0 0 1
-29.792110 -7.882082 -17.057764 35.223066 0.258643 2.076334 0.079981 -0.022918 219363.000000 0 0 1
-28.918850 -7.114082 -16.252464 33.927167 0.241212 2.070357 0.067463 -0.031069 442514.000000 0 0 1
-29.649500 -6.454882 -15.230664 33.951899 0.214361 2.035989 0.071724 -0.027498 -282691.000000 0 0 1
-28.774990 -5.639282 -14.305064 32.625702 0.193526 2.024681 0.081257 -0.026347 -331215.000000 0 0 1
-28.352530 -4.450082 -14.924664 32.348335 0.155685 2.050339 0.080110 -0.019559 344932.000000 0 0 1
-27.520990 -3.668182 -14.072364 31.127028 0.132506 2.039909 0.088690 -0.023030 -91880.700000 0 0 1
-14.647980 21.235918 -4.996364 26.277199 -0.966967 1.762102 0.074541 -0.018620 -47073.700000 0 0 1
-14.820080 20.661818 -6.263964 26.187454 -0.948574 1.812335 0.103731 -0.020979 633572.000000 0 0 1
-15.716880 19.519018 -6.284164 25.836081 -0.892888 1.816493 0.092946 -0.034393 386723.000000 0 0 1
-15.709580 18.894318 -7.709064 25.752977 -0.877174 1.874804 0.109896 -0.038294 783342.000000 0 0 1
-14.412980 18.360718 -8.091164 24.704592 -0.905275 1.904470 0.102078 -0.035545 1007800.000000 0 1 0
-14.518280 17.272418 -8.999764 24.292234 -0.871816 1.950321 0.087005 -0.040267 -289812.000000 0 1 0
-14.873780 15.899418 -8.384164 23.330560 -0.818715 1.938383 0.089668 -0.037757 -118820.000000 0 1 0
-16.238580 15.854218 -8.028864 24.073021 -0.773422 1.910833 0.083658 -0.031895 -29638.300000 0 1 0
-16.458080 14.760218 -7.152564 23.235568 -0.731065 1.883706 0.085798 -0.028957 131062.000000 0 1 0
-17.890680 14.960018 -6.596264 24.236115 -0.696422 1.846440 0.098667 -0.038685 595155.000000 0 1 0
-18.911280 14.664718 -7.571164 25.100059 -0.659590 1.877208 0.084434 -0.035433 536167.000000 0 0 1
-20.172380 15.160218 -7.120364 26.219396 -0.644482 1.845819 0.081931 -0.030537 424671.000000 0 0 1
-21.281880 14.772118 -8.136264 27.153870 -0.606767 1.875107 0.077355 -0.015717 -184433.000000 0 0 1
-21.806380 13.510018 -7.772564 26.803946 -0.554666 1.865001 0.115788 -0.029490 32918.200000 0 0 1
-22.546980 12.973118 -8.864764 27.481851 -0.522121 1.899238 0.106245 -0.025853 225753.000000 0 0 1
-23.166680 11.597718 -8.587264 27.293648 -0.464144 1.890858 0.118515 -0.019513 -405610.000000 0 0 1
-22.203580 10.597218 -8.528664 26.039165 -0.445303 1.904487 0.128429 -0.024797 -497443.000000 0 0 1
-22.589180 9.474418 -7.762364 25.696107 -0.397137 1.877674 0.142041 -0.034344 -375286.000000 0 0 1
-21.449980 8.574718 -7.251664 24.211858 -0.380294 1.874974 0.130422 -0.019357 -246792.000000 0 1 0
-21.103380 7.524618 -8.152064 23.841742 -0.342507 1.919760 0.114160 -0.015210 730967.000000 0 1 0
-20.113680 6.686818 -7.515764 22.489117 -0.320956 1.911548 0.098458 -0.010495 292867.000000 0 1 0
-19.726580 5.478518 -8.353764 22.111931 -0.270896 1.958209 0.074260 -0.017419 14087.200000 0 1 0
-20.737280 4.476218 -8.330664 22.791912 -0.212592 1.944977 0.100356 -0.022319 573426.000000 0 1 0
-20.481380 3.479818 -9.280864 22.753692 -0.168294 1.990932 0.097985 -0.020682 333111.000000 0 1 0
-21.531580 2.302518 -9.279164 23.558723 -0.106532 1.975639 0.104531 -0.016537 352620.000000 0 1 0
-21.285380 1.474418 -8.156564 22.842304 -0.069159 1.935938 0.100101 -0.015986 334201.000000 0 1 0
-22.119980 0.302418 -8.084864 23.553131 -0.013671 1.921183 0.103645 -0.013953 -85726.300000 0 1 0
-21.838080 -0.943982 -8.978464 23.630608 0.043200 1.960539 0.084518 -0.031242 -645164.000000 0 1 0
-20.850680 -1.781182 -8.488864 22.582831 0.085219 1.956163 0.074593 -0.021465 -2033.710000 0 1 0
-20.658980 -2.987082 -9.145764 22.789496 0.143595 1.983748 0.052434 -0.018898 -60381.700000 0 1 0
-21.586380 -4.101282 -8.565264 23.582961 0.187756 1.942493 0.060709 -0.022396 128518.000000 0 1 0
-21.307480 -4.376382 -7.180464 22.906778 0.202575 1.889636 0.055450 -0.019270 289087.000000 0 1 0
-22.292980 -5.114482 -6.513064 23.781398 0.225519 1.848213 0.072442 -0.025752 -572168.000000 0 1 0
-22.346680 -6.673582 -6.785764 24.289039 0.290207 1.853940 0.081246 -0.037439 624414.000000 0 1 0
-21.169580 -7.308282 -6.238164 23.248157 0.332415 1.842455 0.056948 -0.034689 1376550.000000 0 1 0
-21.377780 -8.690782 -6.305764 23.922831 0.386126 1.837536 0.071715 -0.034075 -537062.000000 0 1 0
-20.392980 -9.611882 -5.598664 23.229441 0.440452 1.814209 0.070814 -0.025421 -971004.000000 0 1 0
-19.228080 -9.782282 -6.321264 22.480447 0.470623 1.855830 0.063300 -0.019604 -572285.000000 0 1 0
-18.365580 -10.710782 -5.678264 22.005864 0.527974 1.831783 0.070747 -0.008609 182258.000000 0 1 0
-17.466780 -11.465482 -6.698364 21.941143 0.580873 1.881037 0.054010 -0.007361 53272.400000 0 1 0
-16.322580 -10.766882 -7.147464 20.819188 0.583116 1.921237 0.055037 -0.032823 340161.000000 0 1 0
-16.534280 -10.090582 -8.362064 21.098018 0.547946 1.978327 0.048751 -0.039552 -267183.000000 0 1 0
-15.712080 -10.700582 -9.543264 21.270773 0.597889 2.036057 0.060290 -0.025336 407296.000000 0 1 0
-16.075480 -11.993682 -9.939264 22.384335 0.640991 2.030885 0.083390 -0.027792 -78921.000000 0 1 0
-14.961080 -12.458882 -10.628064 22.181375 0.694396 2.070475 0.077532 -0.017532 -152073.000000 0 1 0
-15.157780 -13.886182 -11.210064 23.414736 0.741644 2.070039 0.084363 -0.018080 239826.000000 0 1 0
-16.143880 -13.877882 -12.228764 24.551235 0.710063 2.092193 0.084360 -0.021337 181262.000000 0 1 0
-16.241280 -15.160082 -12.791264 25.636375 0.750980 2.093183 0.070963 -0.017840 -1908.320000 0 0 1
-16.752480 -15.095682 -14.241764 26.671203 0.733423 2.134092 0.089650 -0.017628 -198277.000000 0 0 1
-16.735680 -16.307782 -14.954264 27.742688 0.772449 2.140087 0.076975 -0.013674 138093.000000 0 0 1
-16.959680 -16.122482 -16.359664 28.551774 0.760097 2.180937 0.080746 -0.007993 -112217.000000 0 0 1
-17.599380 -17.344082 -17.044864 30.018040 0.778092 2.174652 0.092623 -0.017154 848646.000000 0 0 1
-18.968180 -17.548882 -16.632164 30.730831 0.746551 2.142685 0.064524 -0.015695 319266.000000 0 0 1
-19.679080 -18.145782 -17.701764 32.091869 0.744884 2.155073 0.061005 -0.007718 521591.000000 0 0 1
-21.220880 -18.044782 -17.448164 32.869109 0.704686 2.130385 0.048651 -0.021221 572599.000000 0 0 1
-21.672980 -16.760582 -17.172464 32.334636 0.658272 2.130678 0.049886 -0.011856 6223.560000 0 0 1
-21.808180 -16.600782 -15.745064 31.608381 0.650642 2.092236 0.058839 -0.018811 -349022.000000 0 0 1
-21.652080 -15.127082 -15.266064 30.507276 0.609815 2.094865 0.069662 -0.027662 40065.200000 0 0 1
-22.870580 -14.531582 -14.889764 30.918205 0.566031 2.073259 0.093307 -0.027756 637276.000000 0 0 1
-22.502380 -13.349582 -14.199264 29.768902 0.535443 2.068015 0.097152 -0.034109 169677.000000 0 0 1
-23.778580 -12.501982 -13.971664 30.280816 0.484048 2.050372 0.108623 -0.042844 402884.000000 0 0 1
-24.676680 -13.085782 -13.016264 30.815570 0.487584 2.006880 0.140759 -0.038198 -204426.000000 0 0 1
-25.587590 -12.164082 -12.604364 31.009025 0.443766 1.989388 0.146519 -0.042952 -912941.000000 0 0 1
-26.417480 -12.617782 -11.377864 31.409353 0.445592 1.941471 0.154924 -0.046966 -553761.000000 0 0 1
-27.327480 -11.687782 -10.912064 31.661784 0.404150 1.922657 0.132797 -0.043942 -106218.000000 0 0 1
-28.007030 -12.252182 -9.802864 32.103050 0.412384 1.881109 0.129803 -0.036391 388532.000000 0 0 1
-28.881190 -11.154082 -9.079364 32.264090 0.368559 1.856057 0.146277 -0.042583 548567.000000 0 0 1
-28.035490 -10.281382 -8.365464 31.010909 0.351498 1.843939 0.147271 -0.046603 925843.000000 0 0 1
-28.946430 -9.311682 -7.843764 31.402673 0.311232 1.823250 0.155311 -0.050321 361671.000000 0 0 1
-28.219420 -8.139682 -7.247464 30.250881 0.280820 1.812728 0.143770 -0.042772 -394103.000000 0 0 1
-27.466530 -8.546082 -6.144364 29.414265 0.301650 1.781237 0.140163 -0.044999 396461.000000 0 0 1
-26.685740 -7.542682 -5.430864 28.258009 0.275463 1.764188 0.134698 -0.041386 660896.000000 0 0 1
-27.511330 -6.329182 -4.829264 28.640070 0.226123 1.740225 0.143362 -0.045508 -538067.000000 0 0 1
-28.163450 -6.474382 -3.604364 29.121967 0.225960 1.694882 0.137295 -0.041119 -45892.500000 0 0 1
-27.400720 -6.654082 -2.442264 28.302666 0.238232 1.657195 0.153940 -0.037967 -489330.000000 0 0 1
-26.824720 -5.348282 -1.845464 27.414876 0.196798 1.638163 0.156971 -0.029923 -776249.000000 0 0 1
-27.808670 -4.520182 -1.390264 28.207924 0.161137 1.620103 0.168225 -0.029791 -250343.000000 0 0 1
-27.263390 -3.566282 -0.511264 27.500403 0.130070 1.589389 0.149029 -0.039427 -613897.000000 0 0 1
-28.383340 -2.718782 0.056536 28.513312 0.095497 1.568814 0.151666 -0.037608 -349273.000000 0 0 1
-29.348700 -3.284182 0.890536 29.545306 0.111439 1.540650 0.155393 -0.032186 -77210.400000 0 0 1
-28.987660 -3.236282 2.274736 29.256322 0.111183 1.492966 0.149710 -0.032624 -160403.000000 0 0 1
-30.091370 -3.603282 3.291636 30.484571 0.119177 1.462608 0.123123 -0.032153 -159154.000000 0 0 1
-30.492620 -4.936482 3.174436 31.052307 0.160499 1.468389 0.127196 -0.034107 950780.000000 0 0 1
-31.532890 -5.249482 4.163836 32.236900 0.164964 1.441271 0.133179 -0.036327 858845.000000 0 0 1
-32.189290 -6.640782 3.897636 33.097461 0.203450 1.452760 0.123738 -0.026694 132153.000000 0 0 1
-31.366130 -7.712082 4.314336 32.587172 0.241091 1.438013 0.115377 -0.018193 697001.000000 0 0 1
-31.923820 -8.896282 3.703436 33.346507 0.271777 1.459508 0.127922 -0.023746 -389827.000000 0 0 1
-31.254040 -10.138682 4.180236 33.122232 0.313685 1.444253 0.114612 -0.017462 -225750.000000 0 0 1
-31.340910 -10.375682 5.581236 33.482198 0.319702 1.403322 0.096366 -0.010143 532662.000000 0 0 1
-30.374430 -11.358382 5.950236 32.970049 0.357846 1.389328 0.085060 -0.008804 63597.400000 0 0 1
-30.414340 -11.768782 7.396136 33.440083 0.369205 1.347776 0.070065 -0.013670 -135933.000000 0 0 1
-29.943510 -10.760382 8.300136 32.883003 0.344985 1.315622 0.071413 -0.007626 436553.000000 0 0 1
-30.157460 -11.039182 9.695436 33.546049 0.350902 1.277595 0.072579 -0.008537 -261813.000000 0 0 1
-30.222860 -9.731082 10.536136 33.453331 0.311496 1.250392 0.062550 -0.012754 -138240.000000 0 0 1
-28.998560 -9.031982 10.540436 32.149556 0.301940 1.236763 0.066115 -0.018229 41850.300000 0 0 1
-28.889140 -8.084282 11.594736 32.161715 0.272859 1.201978 0.076056 -0.019256 -438367.000000 0 0 1
-27.890560 -6.977082 11.353536 30.910609 0.245129 1.194689 0.104112 -0.025474 -497337.000000 0 0 1
-28.290240 -6.013482 10.354636 30.719995 0.209446 1.226999 0.117923 -0.020662 118271.000000 0 0 1
-27.745920 -4.760082 10.550336 30.063334 0.169906 1.212225 0.123265 -0.024425 -528321.000000 0 0 1
-27.834150 -3.833082 9.345536 29.610327 0.136851 1.249689 0.125520 -0.025078 -369896.000000 0 0 1
-26.954820 -4.106982 8.297536 28.500504 0.151202 1.275382 0.126321 -0.012392 -189172.000000 0 0 1
-27.243090 -3.503482 7.109436 28.372600 0.127899 1.317523 0.128941 -0.033625 -204329.000000 0 0 1
-26.374590 -4.021182 5.948036 27.334374 0.151299 1.351439 0.130431 -0.022081 -112733.000000 0 0 1
-24.976380 -3.810682 6.037136 25.976679 0.151404 1.336246 0.158658 -0.033917 285515.000000 0 0 1
-24.530380 -4.251682 4.800036 25.354618 0.171618 1.380331 0.175710 -0.023303 -988483.000000 0 0 1
-23.012380 -4.200482 4.692636 23.858636 0.180544 1.372821 0.171549 -0.018021 -619395.000000 0 1 0
-22.545980 -2.915382 4.426536 23.160632 0.128595 1.378490 0.135796 -0.020104 27370.600000 0 1 0
-21.141280 -2.847282 4.301636 21.761544 0.133873 1.371814 0.113004 -0.010117 -470936.000000 0 1 0
-20.529680 -1.474582 4.526436 21.074410 0.071704 1.354326 0.085062 -0.025388 -453392.000000 0 1 0
-20.920080 -0.490682 3.566436 21.227576 0.023451 1.401986 0.097652 -0.012513 257846.000000 0 1 0
-21.885880 0.346718 4.108336 22.270841 -0.015841 1.385262 0.084969 -0.039163 -449407.000000 0 1 0
-22.466280 1.463918 3.305136 22.755235 -0.065069 1.425033 0.128548 -0.028429 185986.000000 0 1 0
-21.448580 2.416418 3.033036 21.796329 -0.112188 1.431190 0.075142 -0.019025 729618.000000 0 1 0
-21.951780 3.302218 2.071336 22.295195 -0.149311 1.477757 0.114056 -0.017167 -72661.500000 0 1 0
-20.851380 4.257418 1.588036 21.340748 -0.201411 1.496314 0.088484 -0.008599 -310199.000000 0 1 0
-21.077180 5.246918 0.616136 21.729180 -0.243979 1.542437 0.106132 -0.014254 52542.500000 0 1 0
-21.753180 4.858118 -0.558264 22.296049 -0.219723 1.595838 0.109424 -0.007669 -393292.000000 0 1 0
-21.198780 3.822218 -1.571064 21.597821 -0.178387 1.643602 0.089951 -0.006649 -530701.000000 0 1 0
-21.092880 2.548218 -1.001364 21.269831 -0.120227 1.617893 0.062086 -0.006730 524376.000000 0 1 0
-20.822080 1.544818 -1.968764 20.971922 -0.074056 1.664811 0.067823 -0.006992 -292584.000000 0 1 0
-20.041980 0.450718 -1.234864 20.085044 -0.022485 1.632317 0.067801 -0.011712 -17298.400000 0 1 0
-20.882080 -0.278982 -0.332764 20.886594 0.013359 1.586729 0.087935 -0.016622 1406800.000000 0 1 0
-20.041680 -0.993882 0.598736 20.075239 0.049550 1.540967 0.071680 -0.015888 353731.000000 0 1 0
-19.314280 -2.293082 0.159036 19.450576 0.118172 1.562620 0.053855 -0.011637 -32018.200000 0 1 0
-18.607380 -2.848482 1.246836 18.865392 0.151904 1.504657 0.053035 -0.007564 625709.000000 0 1 0
-17.784880 -3.988582 0.953036 18.251548 0.220618 1.518556 0.031475 -0.006900 58802.500000 0 1 0
-18.492580 -5.294782 0.475036 19.241515 0.278859 1.546106 0.021972 -0.011075 -181414.000000 0 1 0
-19.190680 -5.871282 1.562836 20.129496 0.296901 1.493079 0.054649 -0.014118 255315.000000 0 1 0
-20.238380 -6.716782 1.185436 21.356789 0.320445 1.515262 0.069377 -0.018011 -123172.000000 0 1 0
-21.056880 -7.080382 2.484236 22.353868 0.324374 1.459434 0.099033 -0.019147 -376617.000000 0 1 0
-20.398480 -8.008882 3.294536 22.160644 0.374129 1.421577 0.101539 -0.014061 396051.000000 0 1 0
-21.094480 -8.476482 4.422636 23.160042 0.382087 1.378657 0.100566 -0.018348 -506012.000000 0 1 0
-20.182480 -9.254982 5.349536 22.838667 0.429954 1.334368 0.091937 -0.011994 -422670.000000 0 1 0
-19.799980 -10.562182 4.957236 22.982016 0.490044 1.353387 0.098482 -0.007631 607455.000000 0 1 0
-18.827080 -11.006882 5.917136 22.596966 0.529042 1.305852 0.112147 -0.014810 154286.000000 0 1 0
-18.228880 -12.374982 5.382636 22.680498 0.596401 1.331186 0.090576 -0.011694 69392.600000 0 1 0
-19.157080 -13.450082 5.350136 24.010880 0.612130 1.346089 0.104800 -0.011889 732810.000000 0 1 0
-18.464280 -14.590982 4.791836 24.016413 0.668754 1.369925 0.089070 -0.011281 681504.000000 0 1 0
-19.378580 -15.870682 4.766036 25.497510 0.686208 1.382769 0.098428 -0.008724 207393.000000 0 0 1
-18.618180 -16.998482 4.486936 25.606984 0.739954 1.394664 0.098163 -0.025892 -58328.800000 0 0 1
-19.246680 -18.103782 5.100236 26.910853 0.754808 1.380120 0.095233 -0.025379 -32681.800000 0 0 1
-18.521880 -19.471282 5.097036 27.352708 0.810382 1.383356 0.092439 -0.040583 -812138.000000 0 0 1
-18.439780 -20.020982 3.780236 27.480091 0.826487 1.432796 0.091542 -0.036413 570074.000000 0 0 1
-17.507080 -21.102882 3.589136 27.653415 0.878262 1.440639 0.079706 -0.034021 437842.000000 0 0 1
-16.015480 -20.799882 3.803636 26.525428 0.914631 1.426904 0.078245 -0.032581 -82512.100000 0 0 1
-15.151980 -21.938882 3.847436 26.938816 0.966376 1.427485 0.071911 -0.032039 649826.000000 0 0 1
-13.756180 -21.676682 4.007036 25.983983 1.005318 1.415967 0.066472 -0.025901 713542.000000 0 0 1
-12.959680 -22.998882 4.258536 26.740176 1.057654 1.410859 0.066517 -0.021717 -25872.300000 0 0 1
-12.862180 -23.811882 3.124536 27.243423 1.075541 1.455854 0.085961 -0.023766 -27566.500000 0 0 1
-12.290980 -25.070712 3.358036 28.122681 1.114977 1.451104 0.098362 -0.025006 -17742.800000 0 0 1
19.021920 18.978218 -24.208664 36.167190 0.784248 2.304136 0.083412 -0.022326 -507952.000000 0 0 1
18.158920 19.419218 -25.163474 36.606732 0.818924 2.328700 0.066280 -0.027241 -883656.000000 0 0 1
18.675920 19.193818 -26.418234 37.618024 0.799073 2.349386 0.069560 -0.021558 106110.000000 0 0 1
17.664220 19.398918 -27.592454 38.074745 0.832168 2.381383 0.048611 -0.015232 229400.000000 0 0 1
17.405020 20.796118 -27.794924 38.832603 0.873936 2.368512 0.048477 -0.009689 181134.000000 0 0 1
16.393420 20.955218 -28.772134 39.188022 0.906937 2.395295 0.031534 -0.007406 -167576.000000 0 0 1
16.130120 22.389418 -29.136904 40.130113 0.946487 2.383372 0.034777 -0.004593 -30824.000000 0 0 1
15.323220 23.135118 -28.208924 39.569915 0.985798 2.364404 0.037303 -0.011741 436541.000000 0 0 1
15.250920 24.492118 -28.532084 40.577509 1.013862 2.350615 0.041240 -0.003614 -159623.000000 0 0 1
14.373620 25.309318 -27.548214 40.075761 1.054301 2.328704 0.038588 -0.009563 257845.000000 0 0 1
13.035620 24.819318 -27.583074 39.328767 1.087176 2.348080 0.047457 -0.022622 313291.000000 0 0 1
12.341120 25.601318 -26.552964 38.894609 1.121611 2.322234 0.052564 -0.018770 -877151.000000 0 0 1
10.980020 25.065118 -26.105534 37.819570 1.157916 2.332652 0.078954 -0.026476 78106.100000 0 0 1
10.290920 25.894018 -25.169964 37.549039 1.192512 2.305440 0.078105 -0.036773 -8647.690000 0 0 1
9.872620 27.131918 -25.667444 38.631947 1.221815 2.297500 0.096206 -0.047788 -1086940.000000 0 0 1
9.378720 28.068318 -24.556964 38.455628 1.248321 2.263447 0.108380 -0.053038 -171608.000000 0 0 1
10.350020 28.555618 -23.640264 38.489068 1.223072 2.232177 0.095983 -0.042144 -107922.000000 0 0 1
9.839620 29.359118 -22.664564 38.372626 1.247414 2.202653 0.116809 -0.049885 -241927.000000 0 0 1
10.952320 29.683418 -21.640764 38.332510 1.217322 2.170689 0.095811 -0.049820 -143971.000000 0 0 1
11.968320 30.495518 -22.132664 39.535707 1.196805 2.164958 0.088057 -0.050566 -448736.000000 0 0 1
12.792720 30.891018 -21.071364 39.521021 1.178173 2.133138 0.070730 -0.041151 154602.000000 0 0 1
14.010920 31.778918 -21.495364 40.844292 1.155546 2.125011 0.060462 -0.028515 740835.000000 0 0 1
15.055720 31.018618 -22.109764 40.959383 1.118915 2.140993 0.053005 -0.026326 117154.000000 0 0 1
16.035120 31.862718 -22.702564 42.281962 1.104547 2.137593 0.050913 -0.021338 231817.000000 0 0 1
17.298020 31.072418 -23.119864 42.417506 1.062824 2.147251 0.022143 -0.015326 220899.000000 0 0 1
18.105020 30.579618 -22.047864 41.821204 1.036234 2.126091 0.023464 -0.011778 519423.000000 0 0 1
19.263520 29.992518 -22.658864 42.238116 0.999869 2.137028 0.015636 -0.006458 359330.000000 0 0 1
20.274720 29.317018 -21.715564 41.738682 0.965752 2.117968 0.015078 0.000625 -213391.000000 0 0 1
20.946020 30.198618 -20.860264 42.259235 0.964373 2.087051 0.020959 -0.000515 -232918.000000 0 0 1
21.892220 29.428918 -20.162664 41.855269 0.931210 2.073417 0.029515 0.000108 159337.000000 0 0 1
22.735320 30.222218 -19.096164 42.366741 0.925843 2.038385 0.043841 -0.010108 -271898.000000 0 0 1
23.740320 31.007518 -19.641364 43.713295 0.917366 2.036803 0.045707 -0.010510 -588748.000000 0 0 1
24.272220 31.761718 -18.550264 44.068806 0.918271 2.005276 0.062513 -0.011297 -459670.000000 0 0 1
25.430320 32.686518 -18.919464 45.530822 0.909611 1.999323 0.060303 -0.011343 -634330.000000 0 0 1
26.588820 31.947018 -19.066564 45.728669 0.876681 2.000883 0.061378 -0.007711 -1436830.000000 0 0 1
27.765920 32.691618 -19.058164 46.935081 0.866692 1.988928 0.060315 -0.010530 -142763.000000 0 0 1
28.942220 31.777518 -19.486464 47.193061 0.832059 1.996443 0.066741 -0.015229 26587.700000 0 0 1
29.275620 30.668818 -18.602464 46.300000 0.808635 1.984257 0.053627 -0.002776 352170.000000 0 0 1
30.510620 30.076918 -19.006364 46.869615 0.778240 1.988339 0.045772 -0.011532 344381.000000 0 0 1
31.035120 28.955518 -18.039464 46.119659 0.750747 1.972671 0.043203 -0.018802 -222919.000000 0 0 1
31.693720 29.337618 -16.816264 46.346245 0.746813 1.942110 0.045511 -0.009717 165199.000000 0 0 1
31.766420 28.258318 -15.954364 45.411229 0.727020 1.929788 0.050989 -0.013589 -222301.000000 0 0 1
32.192520 28.795618 -14.555864 45.578714 0.729758 1.895847 0.058707 -0.007548 468718.000000 0 0 1
33.504920 29.338518 -14.456964 46.822346 0.719197 1.884688 0.045580 -0.002414 189881.000000 0 0 1
33.596620 30.716618 -14.878264 47.891609 0.740647 1.886689 0.048608 -0.008364 -38701.300000 0 0 1
35.086320 31.143118 -14.846864 49.207449 0.725930 1.877292 0.053850 -0.015687 356295.000000 0 0 1
35.659620 31.251418 -13.552764 49.314674 0.719612 1.849201 0.055655 -0.015981 356005.000000 0 0 1
-36.786216 31.567918 -13.712964 50.376626 -0.709204 1.846484 0.060993 -0.023577 917147.000000 0 0 1
-35.999316 31.749018 -12.391164 49.573096 -0.722744 1.823433 0.064180 -0.015382 -80484.800000 0 0 1
-36.474016 32.924218 -11.705664 50.511192 -0.734292 1.804666 0.065456 -0.025199 -227709.000000 0 0 1
-35.757516 33.312418 -10.606464 50.008141 -0.750013 1.784514 0.068106 -0.021280 -776307.000000 0 0 1
-36.211916 -33.466053 -9.899164 50.291878 0.746011 1.768924 0.055253 -0.014461 -40415.200000 0 0 1
-35.312016 -32.881053 -8.967364 49.076631 0.749765 1.754550 0.055472 -0.015607 -128295.000000 0 0 1
-35.058116 -33.623853 -7.806064 49.199285 0.764519 1.730132 0.050964 -0.014089 77423.300000 0 0 1
-34.772116 -32.827653 -6.506364 48.260622 0.756642 1.706025 0.053610 -0.005026 274543.000000 0 0 1
-35.878116 -32.000153 -6.133464 48.465125 0.728329 1.697691 0.043534 -0.000206 134062.000000 0 0 1
-35.569116 -30.830753 -5.418864 47.382079 0.714158 1.685412 0.075376 -0.006228 67557.800000 0 0 1
-36.897116 -30.088353 -5.122264 47.884692 0.684101 1.677972 0.053473 -0.007024 378443.000000 0 0 1
36.218720 -30.802253 -4.126564 47.724240 -0.704756 1.657371 0.022880 0.000197 -217292.000000 0 0 1
34.878720 -30.403453 -3.993064 46.441788 -0.716953 1.656883 0.013002 0.004423 -234878.000000 0 0 1
34.488520 -29.410753 -2.865764 45.416550 -0.706100 1.633938 0.011650 0.009133 -382566.000000 0 0 1
34.878120 -28.116953 -3.193264 44.913731 -0.678479 1.641954 0.058235 -0.006457 304482.000000 0 0 1
34.164420 -27.191953 -2.399664 43.730634 -0.672245 1.625698 0.051395 -0.003771 -180084.000000 0 0 1
34.563620 -25.727453 -2.657264 43.169512 -0.639876 1.632389 0.075201 -0.026079 -278193.000000 0 0 1
34.353720 -25.269253 -3.963364 42.830147 -0.634196 1.663466 0.063444 -0.027920 281505.000000 0 0 1
34.380120 -23.855853 -4.025364 42.039243 -0.606610 1.666696 0.067350 -0.029716 -179561.000000 0 0 1
34.128020 -23.278253 -5.447164 41.668579 -0.598602 1.701897 0.067001 -0.031761 174356.000000 0 0 1
35.289220 -23.253953 -6.271264 42.724749 -0.582644 1.718112 0.071207 -0.037374 432465.000000 0 0 1
34.840820 -23.216053 -7.589864 42.549664 -0.587781 1.750133 0.055384 -0.036202 476771.000000 0 0 1
36.016820 -23.128553 -8.624364 43.663726 -0.570844 1.769622 0.054358 -0.037053 388697.000000 0 0 1
36.585020 -24.367253 -8.956764 44.860343 -0.587572 1.771806 0.059477 -0.024988 -578080.000000 0 0 1
-36.019716 -24.134253 -9.580664 44.403505 0.590327 1.788270 0.064509 -0.023406 -316722.000000 0 0 1
-35.435616 -25.429053 -10.204464 44.793423 0.622449 1.800626 0.063766 -0.024950 61820.300000 0 0 1
-34.778616 -26.239753 -9.213864 44.530574 0.646362 1.779213 0.071982 -0.020757 50391.400000 0 0 1
-35.558816 -27.326653 -8.816064 45.704467 0.655231 1.764906 0.066005 -0.015288 -73945.900000 0 0 1
-34.653316 -28.462753 -8.313864 45.608124 0.687629 1.754110 0.066683 -0.011180 -120060.000000 0 0 1
-33.879716 -29.075653 -9.288564 45.601603 0.709237 1.775921 0.061526 -0.008669 55097.500000 0 0 1
-33.171316 -30.176753 -8.710864 45.682073 0.738162 1.762656 0.067800 -0.016791 74477.100000 0 0 1
-32.654016 -31.228253 -9.742264 46.221210 0.763083 1.783164 0.058927 -0.007716 -739389.000000 0 0 1
-31.352216 -31.018053 -10.186664 45.264215 0.780040 1.797790 0.030464 0.021862 -421881.000000 0 0 1
-31.077616 -31.742653 -11.373864 45.856069 0.795984 1.821447 0.018947 0.013580 -209284.000000 0 0 1
-31.411916 -31.022653 -12.718964 45.944374 0.779164 1.851294 0.014111 0.015268 -662938.000000 0 0 1
-30.701316 -29.859053 -13.039864 44.767979 0.771491 1.866357 0.004704 0.018529 -117602.000000 0 0 1
-31.221016 -29.216953 -14.180964 45.049772 0.752251 1.891026 0.003924 0.024360 -595871.000000 0 0 1
-30.276716 -28.151653 -14.707064 43.880438 0.749044 1.912574 0.004069 0.008557 -481112.000000 0 0 1
-29.178916 -28.779953 -15.317464 43.752938 0.778515 1.928463 0.012488 0.006668 -179550.000000 0 0 1
-28.222716 -27.764453 -15.709964 42.593304 0.777213 1.948553 0.050918 0.010002 485836.000000 0 0 1
-26.913516 -28.437253 -16.213264 42.377879 0.812920 1.963392 0.071269 0.006703 -162084.000000 0 0 1
-26.900216 -29.147553 -17.454564 43.334320 0.825474 1.985358 0.061487 0.000686 -99114.100000 0 0 1
-27.094416 -28.374453 -18.657864 43.443444 0.808471 2.014707 0.059971 0.001082 -16505.400000 0 0 1
-25.766116 -27.832953 -19.229164 42.524426 0.823940 2.040017 0.077128 -0.000367 52438.100000 0 0 1
-25.382816 -26.653653 -18.578064 41.229226 0.809815 2.038238 0.073508 -0.003355 -868266.000000 0 0 1
-24.054716 -26.395553 -18.874364 40.393022 0.831764 2.056994 0.091643 -0.015690 -557239.000000 0 0 1
-23.520516 -25.265453 -17.915664 38.891243 0.821150 2.049536 0.082435 -0.015641 14391.700000 0 0 1
-23.580216 -25.632653 -16.558364 38.564737 0.827079 2.014586 0.083190 -0.013439 213125.000000 0 0 1
-23.129216 -24.512953 -15.800264 37.222223 0.814434 2.009189 0.091904 -0.020066 -87846.200000 0 0 1
-23.544016 -24.510253 -14.314664 36.877945 0.805503 1.969434 0.078218 -0.016144 312053.000000 0 0 1
-24.948916 -24.311353 -14.231664 37.630182 0.772456 1.958645 0.041669 0.000199 253610.000000 0 0 1
-25.417316 -24.197453 -12.899664 37.389277 0.760816 1.923045 0.029894 0.002063 781126.000000 0 0 1
-26.970916 -23.982053 -12.832864 38.304720 0.726806 1.912423 0.020278 0.015524 14171.600000 0 0 1
-27.651716 -25.223053 -12.990764 39.617922 0.739498 1.904877 0.026773 0.014640 -474356.000000 0 0 1
-29.020616 -25.299553 -12.798964 40.571875 0.717003 1.891742 0.021206 0.015804 -950600.000000 0 0 1
-29.997616 -24.360753 -13.511464 40.937305 0.682069 1.907156 0.017040 0.010164 -1392660.000000 0 0 1
-30.139016 -23.071953 -12.957064 40.106867 0.653359 1.899761 0.031341 0.014497 262592.000000 0 0 1
-30.622416 -22.942653 -11.594064 39.981496 0.642996 1.865008 0.044854 0.009118 1286980.000000 0 0 1
-32.073916 -23.558253 -11.205864 41.343666 0.633506 1.845272 0.035212 -0.003141 2108380.000000 0 0 1
-33.267516 -22.851653 -11.543464 41.978295 0.601884 1.849372 0.058678 -0.016938 597805.000000 0 0 1
-33.530016 -22.660353 -12.930664 42.484770 0.594315 1.880063 0.052217 -0.009043 -367903.000000 0 0 1
-35.010716 -22.287053 -13.232064 43.560882 0.566882 1.879433 0.035597 -0.022363 308668.000000 0 0 1
-35.858916 -23.369353 -12.964964 44.722241 0.577571 1.864918 0.046608 -0.020363 -81843.500000 0 0 1
36.606820 -22.997453 -13.040564 45.155271 -0.560918 1.863763 0.053967 -0.035860 506331.000000 0 0 1
35.625820 -24.140853 -12.636264 44.851478 -0.595549 1.856399 0.053731 -0.021700 -65753.700000 0 0 1
35.619620 -25.319953 -13.406064 45.711923 -0.617966 1.868445 0.039326 -0.009134 148163.000000 0 0 1
34.689820 -26.270153 -12.897964 45.385703 -0.648149 1.858953 0.043742 -0.015347 327781.000000 0 0 1
34.716520 -27.561053 -13.716164 46.400233 -0.671003 1.870886 0.030987 -0.015784 31663.500000 0 0 1
34.199820 -27.375253 -14.974364 46.295397 -0.675015 1.900172 0.039930 -0.015106 -379505.000000 0 0 1
34.186520 -28.538753 -15.807964 47.255374 -0.695601 1.911894 0.030799 -0.001794 67738.600000 0 0 1
33.257420 -28.413153 -17.041364 46.944343 -0.707008 1.942295 0.025217 -0.006590 2194640.000000 0 0 1
31.806420 -28.379953 -16.777264 45.809898 -0.728529 1.945758 0.072542 -0.013191 1923150.000000 0 0 1
31.094820 -28.115053 -17.966564 45.608568 -0.735115 1.975699 0.065827 -0.018952 -919789.000000 0 0 1
29.609720 -28.292353 -17.801664 44.655258 -0.762650 1.980837 0.079318 -0.027405 -716524.000000 0 0 1
28.941820 -27.276653 -17.030964 43.263131 -0.755787 1.975406 0.073099 -0.025722 -8209.840000 0 0 1
27.548220 -27.483153 -17.082264 42.497434 -0.784216 1.984453 0.094986 -0.023720 -4970.400000 0 0 1
26.720320 -26.785453 -15.999364 41.078166 -0.786615 1.970870 0.090883 -0.027083 -189316.000000 0 0 1
26.602320 -25.378353 -16.249764 40.197004 -0.761856 1.986958 0.093652 -0.027084 -157480.000000 0 0 1
26.163320 -24.742353 -15.091064 39.044124 -0.757492 1.967644 0.073937 -0.018983 -219421.000000 0 0 1
25.897720 -23.224653 -15.329264 38.013981 -0.731035 1.985866 0.064788 -0.022028 213704.000000 0 0 1
24.642420 -22.794053 -15.826064 37.111751 -0.746453 2.011353 0.074694 -0.023174 139663.000000 0 0 1
24.670620 -21.426853 -16.140064 36.445181 -0.715146 2.029581 0.080733 -0.021657 -80518.700000 0 0 1
23.217120 -20.934253 -16.182964 35.201789 -0.733739 2.048476 0.086454 -0.023041 -446741.000000 0 0 1
22.543020 -20.911553 -14.985064 34.205745 -0.747872 2.024265 0.081147 -0.019700 83412.500000 0 0 1
21.421020 -20.037253 -15.024764 32.955958 -0.752033 2.044184 0.092630 -0.026085 193393.000000 0 0 1
21.576120 -18.795553 -14.141264 31.918289 -0.716633 2.029790 0.099565 -0.018011 -221379.000000 0 0 1
21.185620 -19.113453 -12.829464 31.284977 -0.734024 1.993342 0.082698 -0.023995 330198.000000 0 0 1
20.821020 -17.924653 -12.106764 30.023022 -0.710784 1.985861 0.070626 -0.019986 -365745.000000 0 0 1
19.839120 -18.146053 -10.964164 29.035889 -0.740856 1.958007 0.076871 -0.005846 -437555.000000 0 0 1
20.439920 -18.668053 -9.806764 29.367655 -0.740122 1.911267 0.071271 -0.018945 982626.000000 0 0 1
19.391820 -18.955553 -8.851064 28.525375 -0.774022 1.886292 0.074303 -0.025925 764199.000000 0 0 1
19.986120 -19.561953 -7.583564 28.976291 -0.774673 1.835596 0.072344 -0.027066 208541.000000 0 0 1
20.718120 -18.659453 -6.758264 28.689542 -0.733166 1.808597 0.065672 -0.027418 176148.000000 0 0 1
21.444420 -19.234453 -5.696264 29.364516 -0.731124 1.766019 0.065741 -0.016520 662857.000000 0 0 1
22.783920 -18.439853 -5.445664 29.812589 -0.680408 1.754491 0.063523 -0.016993 767582.000000 0 0 1
23.690820 -18.525953 -6.537464 30.776685 -0.663662 1.784843 0.052833 -0.026964 577312.000000 0 0 1
24.880120 -17.771853 -6.343964 31.226672 -0.620259 1.775379 0.055201 -0.020542 117752.000000 0 0 1
25.917920 -17.834253 -7.478064 32.337604 -0.602698 1.804158 0.062293 -0.033869 129966.000000 0 0 1
26.821020 -18.931753 -7.400864 33.653398 -0.614645 1.792523 0.078485 -0.042681 284965.000000 0 0 1
27.078120 -19.441253 -8.695364 34.449910 -0.622684 1.825962 0.084026 -0.041693 -364910.000000 0 0 1
27.886620 -20.748453 -8.600764 35.806913 -0.639669 1.813367 0.080916 -0.047622 1058950.000000 0 0 1
29.237920 -20.550153 -8.117264 36.647712 -0.612643 1.794143 0.068520 -0.032583 922339.000000 0 0 1
29.753420 -21.860653 -7.880364 37.752541 -0.633655 1.781080 0.071523 -0.041404 107611.000000 0 0 1
-30.063090 29.540118 4.429836 42.379610 -0.776624 1.466078 0.043861 -0.017099 166497.000000 0 0 1
-29.695910 30.595818 3.568836 42.786537 -0.800323 1.487289 0.035846 -0.012868 -184434.000000 0 0 1
-28.642410 31.376718 4.107836 42.682085 -0.830924 1.474405 0.030716 0.001595 164588.000000 0 0 1
-28.219040 32.508118 3.185936 43.165288 -0.855910 1.496921 0.027489 0.002475 -332899.000000 0 0 1
-27.426770 32.058818 2.092936 42.241874 -0.863110 1.521230 0.037466 0.001011 66459.500000 0 0 1
-27.047750 33.086318 1.197236 42.751825 -0.885481 1.542788 0.062573 -0.015829 77868.400000 0 0 1
-25.783570 33.850318 1.628636 42.582731 -0.919853 1.532541 0.066543 -0.008026 482471.000000 0 0 1
-24.507980 33.197718 1.609036 41.295503 -0.934862 1.531823 0.055835 -0.008914 1046550.000000 0 0 1
-23.498280 33.916618 2.332736 41.327325 -0.964902 1.514321 0.061975 -0.014726 893597.000000 0 0 1
-22.013480 33.551018 2.095436 40.182769 -0.990131 1.518625 0.058971 -0.020424 393933.000000 0 0 1
-21.508480 34.017918 0.870936 40.256577 -1.006987 1.549160 0.076836 -0.023147 462909.000000 0 0 1
-20.141380 33.653018 0.678236 39.225767 -1.031479 1.553505 0.077108 -0.024140 306331.000000 0 0 1
-19.414880 -33.809553 -0.551064 38.991373 1.049532 1.584930 0.086943 -0.023390 51091.500000 0 0 1
-19.147680 -32.405553 -0.603564 37.644625 1.037112 1.586830 0.088815 -0.024568 148112.000000 0 0 1
-18.303680 -31.861853 0.376236 36.747026 1.049360 1.560558 0.096002 -0.019090 -300672.000000 0 0 1
-18.183380 -30.298153 0.392836 35.337908 1.030268 1.559680 0.102598 -0.021571 -232496.000000 0 0 1
-17.450180 -29.826853 -0.694664 34.563456 1.041443 1.590896 0.102328 -0.017318 -182077.000000 0 0 1
-17.516980 -28.445853 -0.787664 33.416038 1.018840 1.594370 0.080062 -0.019575 682656.000000 0 0 1
-16.561580 -27.815453 -1.917964 32.429369 1.033759 1.629974 0.072833 -0.011189 631779.000000 0 0 1
-16.973780 -28.121753 -3.233664 33.006042 1.027747 1.668926 0.065020 -0.013271 89601.400000 0 0 1
-16.063580 -27.487053 -4.144264 32.105321 1.041922 1.700241 0.056428 -0.003864 168197.000000 0 0 1
-16.579880 -27.441453 -5.564064 32.540507 1.027301 1.742630 0.096165 -0.017295 -502203.000000 0 0 1
-17.588480 -26.501453 -5.680564 32.310222 0.984864 1.747528 0.090992 -0.010239 -885673.000000 0 0 1
-17.939680 -26.283353 -6.986864 32.580102 0.971879 1.786927 0.116406 -0.031684 266967.000000 0 0 1
-18.543980 -24.873253 -7.127964 31.833407 0.930156 1.796626 0.098027 -0.025226 -235976.000000 0 0 1
-17.514180 -23.984653 -6.835164 30.475065 0.940072 1.797008 0.081195 -0.011247 -196180.000000 0 0 1
-17.839480 -22.586153 -6.913564 29.600317 0.902280 1.806538 0.054402 -0.015943 -10801.300000 0 0 1
-16.553280 -21.751353 -6.776864 28.161291 0.920278 1.813826 0.078624 -0.007579 61577.300000 0 0 1
-15.695080 -21.878953 -7.893464 28.059418 0.948514 1.855958 0.101353 -0.016020 -1375710.000000 0 0 1
-14.541480 -21.181753 -7.644364 26.805925 0.969182 1.859985 0.109093 -0.027415 -1392860.000000 0 0 1
-13.721980 -21.011853 -8.870764 26.617310 0.992274 1.910567 0.095846 -0.017194 -565263.000000 0 0 1
-14.200680 -20.051553 -9.788164 26.448672 0.954583 1.949893 0.112223 -0.025863 -140161.000000 0 0 1
-13.449380 -20.064053 -10.996964 26.540258 0.980267 1.998025 0.099479 -0.018804 123269.000000 0 0 1
-14.135280 -19.269153 -12.119664 26.795385 0.937893 2.040144 0.113665 -0.020602 -3907.300000 0 0 1
-15.380880 -19.791053 -12.547064 28.030092 0.910136 2.034908 0.092164 -0.007995 -191340.000000 0 0 1
-15.856580 -19.048953 -13.637164 28.288973 0.876602 2.073808 0.102635 -0.026525 -260404.000000 0 0 1
-17.066880 -19.710553 -14.344564 29.758206 0.857158 2.073775 0.123304 -0.026092 -192261.000000 0 0 1
-18.244580 -19.612853 -13.596064 30.039668 0.821525 2.040479 0.124218 -0.027275 -130143.000000 0 0 1
-19.360880 -19.952653 -14.404864 31.312173 0.800450 2.048837 0.098354 -0.029046 -87401.900000 0 0 1
-20.738680 -19.656853 -13.802264 31.733062 0.758624 2.020778 0.069278 -0.017805 -87461.700000 0 0 1
-21.815180 -20.012653 -14.632464 33.022983 0.742331 2.029849 0.072831 -0.022521 -16710.400000 0 0 1
-23.079880 -19.882653 -13.987964 33.521096 0.711116 2.001256 0.058788 -0.017734 -272038.000000 0 0 1
-24.124280 -20.563153 -14.843464 35.002180 0.705877 2.008734 0.065166 -0.019943 -903394.000000 0 0 1
-24.395480 -19.846853 -15.998964 35.284613 0.682947 2.041402 0.057453 -0.029046 311916.000000 0 0 1
-24.988180 -20.766953 -16.918264 36.631996 0.693402 2.050869 0.063792 -0.026838 -387336.000000 0 0 1
-25.145320 -20.389853 -18.394364 37.234203 0.681340 2.087501 0.069974 -0.022060 121099.000000 0 0 1
-23.897380 -20.134953 -19.004264 36.574078 0.700158 2.117191 0.071962 -0.024525 227365.000000 0 0 1
-24.177480 -19.670853 -20.303264 37.198327 0.682980 2.148153 0.077805 -0.025875 314699.000000 0 0 1
-23.040380 -18.791353 -20.923864 36.356322 0.684171 2.184039 0.061706 -0.020451 540970.000000 0 0 1
-21.956480 -19.536453 -21.435864 36.376590 0.727140 2.200959 0.060769 -0.016021 740916.000000 0 0 1
-20.863980 -18.784553 -22.018464 35.678815 0.733000 2.235886 0.056316 -0.017603 688609.000000 0 0 1
-19.529180 -19.537553 -22.077364 35.362620 0.785613 2.245049 0.065295 -0.012754 -308304.000000 0 0 1
-19.431580 -20.544053 -23.042964 36.477700 0.813220 2.254541 0.052009 -0.011708 -68366.100000 0 0 1
-18.107080 -21.025853 -23.053064 36.074875 0.859846 2.264038 0.052590 -0.005657 -140384.000000 0 0 1
-17.845880 -22.353053 -23.651064 37.114785 0.897054 2.261709 0.058690 -0.006674 -251475.000000 0 0 1
-18.141580 -22.393253 -25.039434 38.177847 0.889905 2.286122 0.060421 -0.007348 307174.000000 0 0 1
-18.143880 -23.726253 -25.436244 39.231849 0.917942 2.276221 0.075237 -0.013569 -93735.000000 0 0 1
-18.148280 -23.767053 -27.010024 40.296083 0.918654 2.305395 0.080697 -0.004408 -55797.000000 0 0 1
-16.873480 -23.736453 -27.614214 40.133258 0.952814 2.329613 0.073541 -0.010252 -49924.600000 0 0 1
-16.816380 -23.551953 -29.013044 40.978554 0.950728 2.357466 0.104588 -0.013377 14936.300000 0 0 1
-15.368080 -23.328953 -29.522884 40.645032 0.988291 2.383806 0.072132 -0.013013 143912.000000 0 0 1
-14.505380 -24.386953 -29.317594 40.800133 1.034209 2.372535 0.073907 -0.011999 -182354.000000 0 0 1
-13.306380 -24.389653 -30.067314 40.938470 1.071357 2.395654 0.073724 -0.011577 265120.000000 0 0 1
-12.378780 -25.577653 -29.831694 41.199278 1.120056 2.380500 0.076910 -0.013703 -654266.000000 0 0 1
-12.777780 -26.764353 -30.488624 42.534204 1.125377 2.370002 0.079034 -0.009355 667626.000000 0 0 1
-11.884080 -27.891153 -30.343684 42.893904 1.168005 2.356627 0.078538 -0.016515 321555.000000 0 0 1
-10.522780 -27.909153 -31.068604 43.068642 1.210241 2.376581 0.071642 -0.022948 88938.300000 0 0 1
-9.658480 -26.911853 -30.553074 41.845244 1.226221 2.389330 0.093342 -0.034168 -892387.000000 0 0 1
-8.535180 -26.713153 -31.324914 42.043931 1.261536 2.411409 0.083291 -0.026054 -797705.000000 0 0 1
-7.527480 -25.675853 -30.813994 40.809492 1.285614 2.426556 0.108569 -0.026472 -276197.000000 0 0 1
-7.972480 -24.346653 -30.630164 39.931528 1.254344 2.445054 0.107093 -0.020666 -48343.000000 0 0 1
-8.546980 -24.042953 -29.377114 38.911815 1.229241 2.426399 0.109800 -0.015149 -1470.950000 0 0 1
-9.079980 -22.578553 -29.171594 37.989723 1.188437 2.446323 0.107686 -0.024732 615523.000000 0 0 1
-10.050880 -22.186953 -30.170844 38.775778 1.145443 2.462407 0.091411 -0.021451 559735.000000 0 0 1
-10.244780 -20.808353 -30.028554 37.942814 1.113296 2.483918 0.105018 -0.024686 124523.000000 0 0 1
-10.853380 -20.215753 -31.316764 38.822832 1.078084 2.509272 0.088874 -0.018937 495628.000000 0 0 1
-11.503680 -18.919653 -31.133744 38.204685 1.024495 2.523387 0.097180 -0.027288 444292.000000 0 0 1
-12.148180 -18.482153 -32.303134 39.149211 0.989312 2.541226 0.110642 -0.013607 -311980.000000 0 0 1
-13.062480 -17.277753 -32.121634 38.742077 0.923448 2.548319 0.096266 -0.024519 -385328.000000 0 0 1
-12.523680 -15.995253 -32.272354 38.133916 0.906531 2.579779 0.106897 -0.024366 -180280.000000 0 0 1
-11.786180 -15.437053 -31.216504 36.765293 0.918711 2.585029 0.087413 -0.017051 16836.700000 0 0 1
-11.578380 -13.874753 -31.338164 36.175243 0.875374 2.618519 0.085852 -0.019152 121991.000000 0 0 1
-10.900480 -13.281053 -32.464214 36.730533 0.883528 2.654822 0.094381 -0.024208 354445.000000 0 0 1
-11.484680 -13.556553 -33.751674 38.142542 0.867949 2.657038 0.102326 -0.028583 198894.000000 0 0 1
-12.121180 -12.288653 33.540167 37.721039 0.792259 0.475283 0.096039 -0.020387 1221130.000000 0 0 1
-13.420580 -11.866653 34.014173 38.443379 0.724024 0.484761 0.086695 -0.016295 442233.000000 0 0 1
-14.005380 -11.133253 33.013037 37.549442 0.671640 0.496640 0.070551 -0.029044 993004.000000 0 0 1
-15.264780 -10.325253 33.546004 38.274779 0.594718 0.502353 0.066645 -0.023593 1229710.000000 0 0 1
-14.737480 -9.378153 -33.523264 37.801486 0.566717 2.661223 0.073231 -0.021731 -127890.000000 0 0 1
-15.717780 -8.840453 -32.713804 37.354989 0.512351 2.637793 0.062845 -0.022483 -631269.000000 0 0 1
-15.206180 -7.851753 -31.695304 36.020414 0.476644 2.646503 0.064620 -0.033189 -348431.000000 0 0 1
-14.765280 -6.616053 -32.262674 36.092462 0.421258 2.676744 0.052984 -0.038582 360178.000000 0 0 1
-15.722780 -5.571953 -32.308124 36.360244 0.340578 2.664985 0.060876 -0.031388 44790.000000 0 0 1
-16.124380 -4.903853 -30.976294 35.264348 0.295238 2.643306 0.073482 -0.040849 -83557.400000 0 0 1
-16.411380 -5.801453 -29.930624 34.624161 0.339791 2.614838 0.067452 -0.041853 117597.000000 0 0 1
-16.950380 -5.233453 -28.736594 33.771234 0.299466 2.588529 0.090267 -0.050414 -320452.000000 0 0 1
-15.899880 -4.639753 -27.816084 32.373879 0.283927 2.604527 0.083319 -0.048130 -247338.000000 0 0 1
-15.279080 -3.566053 -28.484514 32.519757 0.229290 2.638124 0.080502 -0.043067 -155920.000000 0 0 1
-14.068780 -3.171053 -27.882774 31.391643 0.221692 2.664259 0.075031 -0.040034 -51470.500000 0 0 1
-13.488780 -1.905853 -28.476944 31.567639 0.140363 2.695391 0.054993 -0.024132 -121051.000000 0 0 1
-13.370580 -2.173853 -29.885164 32.811905 0.161175 2.716020 0.050499 -0.021961 138000.000000 0 0 1
-13.169680 -0.966853 -30.558084 33.289214 0.073284 2.733697 0.032000 -0.023231 -47981.600000 0 0 1
-13.071780 -1.119853 -32.079594 34.658705 0.085461 2.753376 0.019789 -0.022758 -1146770.000000 0 0 1
-14.348180 -1.399853 -32.544444 35.594532 0.097255 2.724598 0.047241 -0.029598 -333859.000000 0 0 1
-14.479980 -1.554853 -33.952334 36.943854 0.106970 2.736397 0.015025 -0.025955 -768451.000000 0 0 1
-15.891980 -1.787853 33.567443 37.182316 0.112029 0.444607 0.030371 -0.028239 -515370.000000 0 0 1
-15.856480 -1.959853 32.172394 35.921190 0.122976 0.460932 0.030479 -0.028270 61499.700000 0 0 1
-17.127780 -2.273853 31.666226 36.073274 0.131986 0.499482 0.047773 -0.028362 -110497.000000 0 0 1
-17.147180 -2.141853 30.130046 34.733744 0.124266 0.520727 0.048933 -0.022009 13774.800000 0 0 1
-16.883680 -0.796853 29.709856 34.181415 0.047162 0.517252 0.039177 -0.011993 3769.610000 0 0 1
-16.898180 -0.729853 28.328556 32.993760 0.043164 0.538257 0.031412 -0.020781 -330791.000000 0 0 1
-16.333380 0.562147 27.786746 32.236602 -0.034403 0.531668 0.025147 -0.015994 -261802.000000 0 0 1
-16.882580 1.777147 28.259596 32.966415 -0.104879 0.540942 0.030180 -0.011855 371931.000000 0 0 1
-18.242980 2.126147 27.970126 33.461242 -0.116023 0.581033 0.044485 -0.018023 568158.000000 0 0 1
-18.442280 2.774147 26.548136 32.444061 -0.149304 0.612394 0.047060 -0.022202 -252171.000000 0 0 1
-18.213780 4.130147 26.514056 32.431390 -0.222988 0.613665 0.031174 -0.015186 -172.590000 0 0 1
-18.513380 4.625147 25.206336 31.614816 -0.244816 0.647996 0.033052 -0.007595 -621604.000000 0 0 1
-18.414680 6.206147 25.174536 31.802106 -0.325066 0.657374 0.032719 -0.009521 478248.000000 0 0 1
-17.121980 6.796147 25.064156 31.105654 -0.377853 0.633814 0.030539 -0.004484 260116.000000 0 0 1
-16.433480 6.467147 23.851616 29.677985 -0.374921 0.637342 0.020089 -0.010649 -232539.000000 0 0 1
-15.225480 7.371147 23.588186 29.026738 -0.450873 0.622134 0.012500 -0.001312 -243810.000000 0 0 1
-14.122580 7.241147 24.446206 29.146156 -0.473784 0.575821 0.010993 -0.002955 305868.000000 0 0 1
-13.084980 8.096147 23.964476 28.479122 -0.554082 0.570788 0.013957 -0.000904 536487.000000 0 0 1
-11.702580 8.086147 24.689266 28.493788 -0.604641 0.522691 0.014823 0.009886 -184083.000000 0 0 1
-10.779880 8.726147 23.862296 27.600011 -0.680498 0.526491 0.007286 -0.000704 -259323.000000 0 0 1
-9.536580 8.797147 24.542026 27.760532 -0.745088 0.486314 0.012563 -0.001997 -293424.000000 0 0 1
-9.272780 10.255147 25.102316 28.657961 -0.835662 0.503440 0.014523 -0.015671 -672968.000000 0 0 1
-10.024580 10.480147 26.290436 30.025201 -0.807612 0.504094 0.016752 -0.013111 374161.000000 0 0 1
-10.105880 11.801147 26.773866 30.955383 -0.862629 0.525810 0.019547 -0.017925 -256153.000000 0 0 1
-11.046380 12.757147 25.956626 30.959873 -0.857145 0.576463 0.010593 -0.027647 -637836.000000 0 0 1
-12.414180 12.541147 26.016306 31.436291 -0.790486 0.595999 0.017147 -0.025039 -556330.000000 0 0 1
-12.793180 11.667147 24.984116 30.397266 -0.739396 0.606023 0.013935 -0.019788 -488184.000000 0 0 1
-14.315680 11.472147 24.786126 30.836680 -0.675575 0.637162 0.014470 -0.018032 368654.000000 0 0 1
-14.999580 12.621147 24.242286 31.176420 -0.699500 0.679982 0.023682 -0.019695 1239010.000000 0 0 1
-16.294180 12.450147 23.622666 31.281572 -0.652455 0.714895 0.035758 -0.013148 1081170.000000 0 0 1
-16.152180 11.991147 22.150516 29.921996 -0.638610 0.737317 0.026988 -0.001976 -151346.000000 0 0 1
-15.801780 10.657147 22.015016 29.119271 -0.593356 0.713571 0.023668 -0.003946 36248.700000 0 0 1
-16.051380 10.279147 20.668916 28.116040 -0.569590 0.744939 0.019923 -0.000518 9340.310000 0 0 1
-16.577380 8.811147 20.558216 27.840367 -0.488542 0.740054 0.010962 -0.001542 -410156.000000 0 0 1
-17.962680 8.721147 20.558216 28.659318 -0.451992 0.770832 0.022618 0.004594 -907500.000000 0 0 1
-18.350380 7.327147 20.495816 28.469316 -0.379895 0.767100 0.017969 0.003948 367839.000000 0 0 1
-19.829180 7.038147 20.855116 29.625457 -0.341068 0.789840 0.024620 -0.002133 115103.000000 0 0 1
-20.081380 7.321147 22.221716 30.832866 -0.349599 0.765963 0.026590 -0.008861 -553448.000000 0 0 1
-21.456480 7.210147 22.427216 31.864506 -0.324181 0.790021 0.029652 -0.014017 -616094.000000 0 0 1
-21.815080 7.965147 23.735156 33.206910 -0.350082 0.774508 0.043890 -0.021155 -585184.000000 0 0 1
-21.660280 9.394147 23.784366 33.512889 -0.409220 0.781713 0.047630 -0.021088 1239590.000000 0 0 1
-20.371580 10.053147 23.589586 32.749589 -0.458425 0.766559 0.034982 -0.017553 1100390.000000 0 0 1
-19.296580 9.844147 24.648766 32.815040 -0.471734 0.721006 0.039278 -0.025167 -94101.500000 0 0 1
-19.840380 10.291147 25.922576 34.227596 -0.478493 0.711537 0.046660 -0.022780 187572.000000 0 0 1
-19.073780 9.804147 26.952556 34.443731 -0.474794 0.672110 0.045867 -0.018539 -209934.000000 0 0 1
-31.361490 -13.532582 20.612816 39.894385 0.407366 1.027822 0.059045 -0.000700 99299.800000 0 0 1
-31.127310 -14.837482 21.181716 40.468820 0.444811 1.019950 0.069621 -0.010275 204976.000000 0 0 1
-31.916970 -15.890882 20.621916 41.188305 0.461952 1.046419 0.057123 -0.004202 136708.000000 0 0 1
-31.769640 -16.189582 19.073516 40.437749 0.471292 1.079606 0.056059 -0.003555 185765.000000 0 0 1
-32.418200 -15.214282 18.295216 40.213542 0.438798 1.098478 0.052780 -0.008060 125255.000000 0 0 1
-31.725210 -15.044482 17.051316 39.032970 0.442805 1.118709 0.051528 -0.009698 -667046.000000 0 0 1
-32.290060 -13.850982 16.239516 38.706841 0.405216 1.137845 0.040095 -0.011325 1173580.000000 0 0 1
-33.587130 -14.033282 15.584816 39.596904 0.395771 1.166266 0.041820 -0.011752 1113840.000000 0 0 1
-34.703709 -14.053182 16.413816 40.880957 0.384764 1.157639 0.047693 -0.009551 -841980.000000 0 0 1
-35.192518 -12.704182 17.109816 41.141893 0.346433 1.141893 0.030542 -0.005967 -697423.000000 0 0 1
-36.159730 -12.892482 18.082416 42.434843 0.342491 1.130595 0.010920 -0.000273 -324159.000000 0 0 1
-36.818700 -11.678782 18.452416 42.807736 0.307158 1.125137 0.010245 0.006093 681292.000000 0 0 1
36.026006 -11.802582 19.663416 42.706252 -0.316593 1.092312 0.020850 0.008438 583707.000000 0 0 1
36.748996 -12.294582 20.783916 43.972908 -0.322850 1.078498 0.018839 0.008248 281918.000000 0 0 1
35.913596 -12.224082 21.950616 43.829717 -0.328074 1.046255 0.025679 0.002709 -597396.000000 0 0 1
36.636136 -12.561882 23.297446 45.197105 -0.330320 1.029248 0.018803 -0.002381 209103.000000 0 0 1
-36.040935 -11.774782 23.550516 44.634306 0.315774 1.014985 0.025027 -0.003446 1710620.000000 0 0 1
-34.859147 -12.229582 22.791416 43.407043 0.337413 1.018008 0.024396 -0.007578 -240763.000000 0 0 1
-33.632640 -11.385182 22.876316 42.238639 0.326408 0.998461 0.052508 -0.013012 -725140.000000 0 0 1
-33.705470 -10.279082 21.980616 41.531502 0.296008 1.013078 0.057157 -0.012431 534834.000000 0 0 1
-32.509920 -9.502582 22.111416 40.448840 0.284376 0.992436 0.085954 -0.019151 253623.000000 0 0 1
-32.495790 -8.219082 21.300516 39.714502 0.247732 1.004701 0.090380 -0.014488 6342.510000 0 0 1
-32.734780 -8.262382 19.919116 39.199540 0.247240 1.037765 0.076706 -0.012722 644600.000000 0 0 1
-34.113624 -8.456182 19.606616 40.245071 0.242985 1.061938 0.061799 -0.013730 39326.500000 0 0 1
-34.473507 -8.485582 18.110116 39.854787 0.241350 1.099095 0.055987 -0.009025 -496211.000000 0 0 1
-35.850284 -8.629482 17.886016 40.983172 0.236215 1.119177 -0.002467 -0.004596 -237248.000000 0 0 1
-36.112400 -8.411482 16.520816 40.593051 0.228845 1.151644 0.021434 -0.002514 -206989.000000 0 0 1
36.241306 -8.541482 16.157416 40.588807 -0.231460 1.161378 0.023740 -0.006188 -277869.000000 0 0 1
35.783196 -9.847082 16.093916 40.452642 -0.268540 1.161629 0.014320 0.011974 782625.000000 0 0 1
34.364856 -9.860882 15.844016 39.105155 -0.279439 1.153638 0.031349 0.008450 1153440.000000 0 0 1
33.599596 -11.203782 15.939516 38.839744 -0.321855 1.147913 0.026585 0.006957 221488.000000 0 0 1
33.459736 -11.668282 17.294316 39.430903 -0.335539 1.116758 0.013353 0.000820 -311427.000000 0 0 1
32.350436 -12.513382 17.388816 38.800855 -0.369082 1.106095 0.034788 0.001578 -153743.000000 0 0 1
32.165506 -12.854082 18.898516 39.458853 -0.380181 1.071347 0.029573 -0.002633 114327.000000 0 0 1
33.075926 -13.792382 19.440616 40.769893 -0.395068 1.073743 0.021370 -0.002253 -88595.100000 0 0 1
32.742066 -13.972982 20.820816 41.240677 -0.403360 1.041575 0.033053 -0.001699 -622155.000000 0 0 1
33.482896 -15.172182 21.310016 42.490189 -0.425456 1.045432 0.019151 0.003299 -215060.000000 0 0 1
33.879936 -15.032482 22.660716 43.443453 -0.417601 1.022055 0.018960 -0.006132 -189512.000000 0 0 1
34.204596 -16.276582 23.240986 44.441252 -0.444149 1.020477 0.012948 -0.005427 9808.530000 0 0 1
34.693466 -16.045982 24.695706 45.508109 -0.433206 0.997188 0.021015 -0.004780 401893.000000 0 0 1
35.984416 -15.473982 24.863276 46.395094 -0.406114 1.005219 0.030039 -0.003664 316650.000000 0 0 1
36.254706 -15.135282 26.212586 47.229018 -0.395476 0.982421 0.033565 -0.006944 253173.000000 0 0 1
-36.284280 -14.301782 26.531256 47.169879 0.375461 0.973436 0.035823 -0.014252 810837.000000 0 0 1
-35.051803 -14.963782 26.257246 46.281601 0.403483 0.967528 0.028990 -0.013333 283848.000000 0 0 1
-34.016520 -14.047182 26.545596 45.377479 0.391622 0.945923 0.042745 -0.021304 -227251.000000 0 0 1
-32.609820 -14.466882 26.117336 44.213191 0.417549 0.938853 0.042552 -0.019131 -457924.000000 0 0 1
-32.433530 -14.766382 24.686226 43.351928 0.427237 0.964975 0.041491 -0.012495 -284139.000000 0 0 1
-31.158380 -15.218882 24.305776 42.346543 0.454354 0.959447 0.056214 -0.016384 -76735.900000 0 0 1
-30.757360 -16.684982 24.691766 42.826243 0.497045 0.956288 0.061179 -0.009836 -578731.000000 0 0 1
-30.409230 -16.807482 26.046626 43.423950 0.504921 0.927518 0.057297 -0.015835 59798.900000 0 0 1
-30.396760 -18.161982 26.499186 44.226999 0.538577 0.928341 0.066973 -0.022431 -265763.000000 0 0 1
-30.027790 -18.151582 27.988966 44.883519 0.543716 0.897468 0.070196 -0.039130 -321279.000000 0 0 1
-28.856500 -17.410382 28.229606 43.962821 0.542874 0.873530 0.071275 -0.035974 -343949.000000 0 0 1
-28.278840 -17.933882 29.414786 44.570691 0.565174 0.850033 0.080517 -0.042196 353660.000000 0 0 1
-26.941420 -17.228982 29.792426 43.706596 0.568957 0.820786 0.051652 -0.029278 -143919.000000 0 0 1
-27.059900 -15.885582 30.296506 43.617292 0.530845 0.802935 0.067817 -0.034762 -388643.000000 0 0 1
-26.072450 -14.989582 29.876876 42.392074 0.521774 0.788690 0.040061 -0.029882 -731759.000000 0 0 1
-26.041320 -13.703582 30.708146 42.531503 0.484406 0.764094 0.040487 -0.017999 -2527.990000 0 0 1
-25.391970 -13.775182 31.983096 43.097867 0.497068 0.734593 0.038102 -0.017541 291833.000000 0 0 1
-25.285630 -12.558582 32.670034 43.178839 0.460979 0.712666 0.038746 -0.010774 -216567.000000 0 0 1
-24.397480 -12.651982 33.942910 43.674143 0.478399 0.680616 0.056220 -0.008110 -40750.900000 0 0 1
-23.071480 -13.048282 33.648123 42.833947 0.514710 0.667215 0.022185 -0.009076 -45011.100000 0 0 1
-22.767680 -14.431482 33.868821 43.286625 0.564944 0.672235 0.023483 -0.016295 -180726.000000 0 0 1
-22.798280 -14.933982 -32.669734 42.545234 0.579916 2.446325 0.029922 -0.014234 -534892.000000 0 0 1
-21.824780 -14.467982 -31.762594 41.164377 0.585401 2.452155 0.014331 -0.007238 -30289.200000 0 0 1
-21.692780 -15.400682 -30.665964 40.597525 0.617369 2.427008 0.032302 -0.014257 -305417.000000 0 0 1
-20.295480 -15.238282 -30.046504 39.330702 0.644027 2.440202 0.047360 -0.010354 -163624.000000 0 0 1
-20.119180 -14.138682 -29.187114 38.165054 0.612567 2.441465 0.037409 -0.011913 49344.600000 0 0 1
-20.861880 -14.213582 -27.973484 37.679700 0.598078 2.407445 0.048402 -0.013579 -156699.000000 0 0 1
-20.593780 -13.095182 -26.961154 36.366075 0.566385 2.405924 0.053289 -0.015492 -397976.000000 0 0 1
-19.343080 -13.189682 -26.327434 35.231467 0.598462 2.414741 0.054946 -0.019484 -174012.000000 0 0 1
-19.121780 -11.960282 -25.664154 34.166352 0.558944 2.420603 0.061717 -0.024601 -262698.000000 0 0 1
-17.680380 -11.921282 -25.156044 32.977862 0.593245 2.438453 0.070215 -0.029773 -867009.000000 0 0 1
-17.538280 -12.621282 -23.916664 32.231892 0.623787 2.406873 0.078524 -0.028172 1357810.000000 0 0 1
-16.200780 -12.549982 -23.338964 31.059211 0.659093 2.421030 0.081107 -0.027956 1706110.000000 0 0 1
-15.123580 -13.448782 -24.045364 31.428839 0.726849 2.441951 0.063296 -0.028825 -218692.000000 0 0 1
-14.372680 -12.772582 -25.049434 31.578267 0.726521 2.486923 0.067698 -0.037724 290291.000000 0 0 1
-13.617480 -13.691382 -25.835114 32.254346 0.788104 2.499728 0.064037 -0.039775 -299638.000000 0 0 1
-12.635680 -13.038482 -26.786994 32.360554 0.801086 2.545912 0.071906 -0.035800 -389165.000000 0 0 1
-13.310180 -12.105982 -27.578364 32.928435 0.738054 2.563533 0.067260 -0.031439 177293.000000 0 0 1
-12.381680 -11.451882 -28.411214 33.040107 0.746406 2.605872 0.070204 -0.033846 467736.000000 0 0 1
-13.173380 -10.618282 -29.490224 33.999400 0.678414 2.620699 0.062534 -0.032310 320092.000000 0 0 1
-12.369680 -9.686882 -30.160154 34.007052 0.664360 2.661343 0.055753 -0.024564 3039.940000 0 0 1
-11.789480 -10.245382 -31.364554 35.038478 0.715437 2.679555 0.072210 -0.023740 -28769.300000 0 0 1
-11.085080 -9.182482 -32.166394 35.240231 0.691798 2.720823 0.071786 -0.019916 -142134.000000 0 0 1
-9.860180 -8.825282 -31.559754 34.221730 0.730070 2.744564 0.080545 -0.020411 -103950.000000 0 0 1
-9.161680 -7.809782 -32.281414 34.453139 0.705909 2.784640 0.069239 -0.022753 -194531.000000 0 0 1
-7.676580 -7.738082 -31.897954 33.708860 0.789388 2.812321 0.083929 -0.022086 -788240.000000 0 0 1
-7.410680 -7.452382 -30.507704 32.267262 0.788204 2.809829 0.075780 -0.020716 -170322.000000 0 0 1
-7.783980 -6.189182 -29.970834 31.577638 0.671757 2.821213 0.082771 -0.021252 -248557.000000 0 0 1
-7.117980 -4.888982 -30.559434 31.756051 0.601846 2.866200 0.075730 -0.029696 1099090.000000 0 0 1
-5.750680 -4.673282 -30.126224 31.024172 0.682406 2.900411 0.087527 -0.036409 1052720.000000 0 0 1
-5.311080 -3.435782 -30.633024 31.279296 0.574199 2.937961 0.089266 -0.040795 -264798.000000 0 0 1
-3.838180 -3.156982 -30.278844 30.683979 0.688323 2.978911 0.069683 -0.030308 -535049.000000 0 0 1
-2.948580 -4.133782 -30.808284 31.223912 0.951207 2.978247 0.056847 -0.029147 94697.900000 0 0 1
-1.606880 -3.904982 -30.446894 30.738320 1.180420 3.003782 0.063062 -0.025414 31320.800000 0 0 1
-0.791680 -2.720282 -31.048234 31.177228 1.287590 3.050595 0.044690 -0.015180 750301.000000 0 0 1
0.558420 -2.723682 -30.459454 30.586086 -1.368575 3.050565 0.040634 -0.020984 1910220.000000 0 0 1
1.194220 -1.467982 -30.959164 31.016947 -0.887871 3.080543 0.020532 -0.006123 180248.000000 0 0 1
1.450120 -0.283582 -29.906814 29.943293 -0.193120 3.092226 0.026626 -0.017668 260348.000000 0 0 1
0.277220 0.268218 -29.331434 29.333970 0.768895 3.128442 0.051906 -0.020702 86914.800000 0 0 1
0.650420 1.594018 -29.050144 29.101114 1.183380 3.082399 0.080366 -0.036229 209166.000000 0 0 1
-0.358880 2.422818 -28.186074 28.292289 -1.423741 3.054915 0.074663 -0.032866 3037.300000 0 0 1
-1.541780 2.756018 -28.853294 29.025597 -1.060747 3.032578 0.056291 -0.043312 -543712.000000 0 0 1
-2.089480 3.937718 -28.240294 28.589959 -1.082944 2.985034 0.094031 -0.041029 -363544.000000 0 0 1
-3.440980 4.203618 -28.900454 29.406581 -0.884831 2.955792 0.113577 -0.045042 -589438.000000 0 0 1
-3.479880 4.692718 -30.208204 30.767950 -0.932726 2.950554 0.110113 -0.045467 312968.000000 0 0 1
-4.776980 4.893118 -30.792374 31.542550 -0.797408 2.923062 0.124313 -0.038297 238674.000000 0 0 1
-4.743880 5.703518 -32.085844 32.932293 -0.876995 2.914377 0.124219 -0.031662 166768.000000 0 0 1
-4.346980 5.017518 -33.316404 33.971378 -0.856880 2.944908 0.125753 -0.034148 651087.000000 0 0 1
-3.071480 4.374018 -33.371164 33.796459 -0.958589 2.982782 0.114637 -0.030369 227207.000000 0 0 1
-2.666080 3.753118 33.284530 33.601396 -0.953148 0.137441 0.095884 -0.028967 -143500.000000 0 0 1
-3.482980 2.672518 32.837737 33.129903 -0.654486 0.132904 0.089254 -0.032814 -33068.400000 0 0 1
-3.152680 2.134518 31.613626 31.842062 -0.595156 0.119855 0.086202 -0.025827 -114207.000000 0 0 1
-2.991780 3.041518 30.396746 30.694686 -0.793642 0.139444 0.092416 -0.027504 600139.000000 0 0 1
-4.233680 3.708818 30.129146 30.650364 -0.719411 0.184682 0.077815 -0.023324 312046.000000 0 0 1
-4.197680 4.589718 29.029516 29.688361 -0.829982 0.211067 0.073967 -0.022474 137167.000000 0 0 1
-5.487080 5.394018 28.727626 29.740208 -0.776846 0.261697 0.080816 -0.018801 253530.000000 0 0 1
-5.406680 6.071618 27.491856 28.668778 -0.843264 0.287529 0.071007 -0.008519 -208453.000000 0 0 1
-6.613080 6.738118 27.195206 28.787398 -0.794763 0.334144 0.069196 -0.004494 -383024.000000 0 0 1
-6.451780 7.542418 25.893996 27.731075 -0.863176 0.366035 0.052522 -0.000939 -76910.100000 0 0 1
-5.553780 8.624818 26.019696 27.968849 -0.998700 0.375540 0.062362 -0.002740 -32663.100000 0 0 1
-5.336180 9.257518 24.812996 27.015944 -1.047899 0.406634 0.047654 -0.009077 -230549.000000 0 0 1
-4.609880 10.578118 24.891866 27.436336 -1.159819 0.434076 0.052355 -0.010361 -620644.000000 0 0 1
-4.657980 11.319518 23.669826 26.647493 -1.180416 0.477259 0.061870 -0.016952 259757.000000 0 0 1
-4.202680 12.689318 23.760666 27.262622 -1.250969 0.512447 0.056701 -0.008848 924051.000000 0 0 1
-2.624080 12.825818 23.805976 27.168214 -1.368988 0.502786 0.067310 -0.009759 736287.000000 0 0 1
-1.842880 12.519118 24.933286 27.960566 -1.424641 0.469642 0.067826 -0.009344 -276659.000000 0 0 1
-2.186880 13.102418 26.211486 29.385333 -1.405414 0.469063 0.074026 -0.005408 -678672.000000 0 0 1
-1.333880 12.475018 27.325566 30.068120 -1.464277 0.430425 0.077189 -0.001260 121193.000000 0 0 1
0.039320 12.764218 27.199336 30.045477 1.567716 0.438776 0.077986 -0.001214 -467560.000000 0 0 1
0.725520 12.276218 28.325606 30.879959 1.511765 0.409597 0.084030 -0.016579 -540646.000000 0 0 1
2.215020 12.573018 28.362706 31.103539 1.396413 0.422954 0.080056 -0.015911 -557994.000000 0 0 1
2.594120 13.907718 28.328626 31.664888 1.386392 0.463175 0.076537 -0.017894 -156596.000000 0 0 1
3.997620 14.061518 28.370046 31.914992 1.293809 0.475803 0.088718 -0.025007 19698.700000 0 0 1
4.468220 15.527218 28.643726 32.886509 1.290600 0.513588 0.081823 -0.023248 -184025.000000 0 0 1
4.256320 15.959818 29.967096 34.217815 1.310172 0.503758 0.087793 -0.019693 304816.000000 0 0 1
3.233220 16.902918 30.225526 34.781385 1.381798 0.517589 0.080496 -0.017544 22732.700000 0 0 1
3.519820 18.366818 29.648416 35.053640 1.381452 0.562731 0.077694 -0.011198 194217.000000 0 0 1
4.486620 19.155318 30.322326 36.145531 1.340721 0.575545 0.097092 -0.009985 -139405.000000 0 0 1
5.245420 19.971018 29.505006 36.012517 1.313946 0.610610 0.082311 -0.009357 131280.000000 0 0 1
6.338320 20.723218 30.328036 37.274868 1.273976 0.620424 0.088334 -0.006284 26566.700000 0 0 1
5.795520 21.579718 31.268326 38.431504 1.308424 0.620459 0.071948 -0.020960 -15253.200000 0 0 1
6.804720 22.349118 31.895126 39.535887 1.275240 0.632184 0.057000 -0.022520 36698.600000 0 0 1
7.080520 23.693818 31.218856 39.826470 1.280410 0.669919 0.047006 -0.010663 -153270.000000 0 0 1
7.526620 23.555018 29.886416 38.790292 1.261516 0.691232 0.024433 -0.005734 11957.300000 0 0 1
7.693920 24.811718 29.319976 39.172423 1.270107 0.725022 0.018820 -0.007575 7904.200000 0 0 1
8.252720 24.734118 27.891556 38.181447 1.248754 0.751742 0.033968 -0.007993 -347291.000000 0 0 1
7.341520 24.273418 26.934866 36.994374 1.277092 0.755279 0.038074 -0.005660 -53793.100000 0 0 1
7.721020 24.452918 25.582886 36.222139 1.264953 0.786570 0.048643 -0.006991 -313547.000000 0 0 1
28.811526 2.318718 6.531936 29.633539 0.080306 1.348547 0.141808 -0.036322 -13558.900000 0 0 1
29.263906 3.176718 7.535236 30.384988 0.108131 1.320189 0.130435 -0.036359 69876.000000 0 0 1
28.336356 3.193018 8.584236 29.779750 0.112209 1.278390 0.126688 -0.027164 -295929.000000 0 0 1
28.825766 4.027918 9.816136 30.716533 0.138834 1.245519 0.117807 -0.023458 18552.300000 0 0 1
28.609256 5.426518 9.817736 30.729864 0.187450 1.245610 0.121065 -0.020652 -114852.000000 0 0 1
29.439406 6.098018 8.928336 31.362073 0.204249 1.282118 0.120683 -0.033479 -566635.000000 0 0 1
29.094606 7.571218 8.688936 31.294042 0.254581 1.289444 0.145729 -0.032687 822922.000000 0 0 1
27.913156 7.763718 7.880736 30.025416 0.271282 1.305216 0.128243 -0.034841 784763.000000 0 0 1
28.162256 8.890518 7.066236 30.365863 0.305788 1.335940 0.144121 -0.050714 -565052.000000 0 0 1
27.157856 9.073518 5.958336 29.246874 0.322443 1.365635 0.128310 -0.046404 201235.000000 0 0 1
25.902956 9.538018 6.460736 28.349215 0.352814 1.340878 0.104240 -0.041343 737945.000000 0 0 1
24.832756 9.470718 5.529536 27.146566 0.364352 1.365669 0.132075 -0.042295 546384.000000 0 0 1
23.458756 10.021418 5.966236 26.198054 0.403727 1.341045 0.071548 -0.037681 35845.400000 0 0 1
23.445956 11.414618 6.056736 26.771074 0.453071 1.342579 0.065695 -0.033709 51216.900000 0 0 1
22.186556 11.840518 6.522736 25.980516 0.490227 1.317018 0.066213 -0.023092 -91735.400000 0 0 1
22.159556 13.336918 6.869336 26.760177 0.541785 1.311190 0.056919 -0.008375 -268547.000000 0 0 1
21.901256 14.175318 5.771636 26.719215 0.574431 1.353069 0.054971 -0.005179 349318.000000 0 0 1
22.045256 15.559318 6.105536 27.665199 0.614601 1.348271 0.068710 -0.024063 -206059.000000 0 0 1
21.834756 16.574418 4.902736 27.847885 0.649290 1.393820 0.067503 -0.025975 -502809.000000 0 0 1
20.486956 16.713818 4.548336 26.828239 0.684318 1.400438 0.084721 -0.022678 -90110.200000 0 0 1
20.274356 17.624718 3.477336 27.088227 0.715599 1.442070 0.091886 -0.025006 -489907.000000 0 0 1
18.823656 17.532318 3.005036 25.898696 0.749894 1.454504 0.097495 -0.021154 -592555.000000 0 0 1
17.955656 18.098518 3.953936 25.799138 0.789361 1.416931 0.102686 -0.035683 343971.000000 0 0 1
16.606156 17.901118 3.530636 24.671437 0.822908 1.427197 0.080284 -0.039348 1161260.000000 0 1 0
15.575856 18.976818 4.170036 24.902131 0.883510 1.402547 0.089733 -0.043347 1721830.000000 0 1 0
14.225956 18.868618 3.692536 23.917303 0.924773 1.415789 0.080796 -0.039614 429289.000000 0 1 0
13.453056 19.999418 3.965136 24.427111 0.978647 1.407750 0.060872 -0.039944 1029970.000000 0 1 0
11.912056 19.692418 3.763736 23.320680 1.026777 1.408697 0.054796 -0.041822 1045290.000000 0 1 0
11.318956 19.055418 4.883736 22.695343 1.034799 1.353913 0.044635 -0.036692 39110.700000 0 1 0
9.916356 19.249418 4.812636 22.181877 1.095102 1.352095 0.040899 -0.024105 158826.000000 0 1 0
9.151656 18.642618 5.982836 21.612365 1.114455 1.290308 0.030449 -0.018898 -898023.000000 0 1 0
9.207856 19.440418 7.144236 22.666155 1.128454 1.250135 0.039923 -0.021981 22569.800000 0 1 0
8.498656 18.835518 8.226036 22.241213 1.146942 1.191943 0.037310 -0.013510 -273899.000000 0 1 0
7.417356 19.698718 8.814336 22.819929 1.210676 1.174227 0.036203 -0.014912 323426.000000 0 1 0
6.289256 20.125018 8.029736 22.562086 1.267903 1.206925 0.032849 -0.015553 584867.000000 0 1 0
6.454456 21.292818 7.228036 23.394200 1.276472 1.256690 0.042252 -0.013951 272638.000000 0 1 0
5.154556 21.407418 6.294336 22.901215 1.334511 1.292366 0.031779 -0.014293 1225480.000000 0 1 0
3.941656 21.573318 6.999836 23.020478 1.390080 1.261834 0.028863 -0.011053 -93243.900000 0 1 0
3.725256 22.758918 7.737236 24.325104 1.408552 1.247097 0.035425 -0.016861 -766637.000000 0 1 0
3.533456 24.032718 6.979236 25.273832 1.424815 1.291016 0.051812 -0.023525 -1039890.000000 0 0 1
2.380456 24.173418 6.252636 25.082188 1.472639 1.318854 0.029727 -0.020580 -891119.000000 0 0 1
2.474556 25.257918 5.352936 25.937227 1.473136 1.362922 0.045595 -0.024220 -60083.200000 0 0 1
1.148456 25.404018 4.583836 25.839788 1.525619 1.392458 0.047872 -0.026546 -336699.000000 0 0 1
0.090056 25.962118 5.283136 26.494362 1.567328 1.370045 0.053716 -0.025729 -1230070.000000 0 0 1
-1.033544 26.047318 4.487836 26.451307 -1.531138 1.400308 0.069158 -0.027900 -436805.000000 0 0 1
-2.198044 26.844818 5.145936 27.421822 -1.489099 1.382019 0.084965 -0.024769 456390.000000 0 0 1
-3.233344 27.046318 4.187036 27.558830 -1.451813 1.418275 0.104960 -0.029625 326327.000000 0 0 1
-4.372944 27.691018 4.729336 28.430296 -1.414171 1.403671 0.101019 -0.030146 -263518.000000 0 0 1
-5.279444 28.247418 3.652336 28.967718 -1.386028 1.444377 0.110354 -0.038766 -436224.000000 0 0 1
-4.700544 29.341718 3.021436 29.869058 -1.411946 1.469467 0.102989 -0.041252 -87678.400000 0 0 1
-5.459244 29.713918 1.889536 30.270293 -1.389096 1.508334 0.116246 -0.045059 -76126.600000 0 0 1
-4.693544 30.504318 0.775036 30.873021 -1.418129 1.545690 0.108634 -0.040756 128965.000000 0 0 1
-4.303544 31.874018 1.063936 32.180825 -1.436591 1.537729 0.109432 -0.035175 -104999.000000 0 0 1
-3.197844 32.047318 1.909236 32.263013 -1.471340 1.511585 0.104668 -0.039558 -574847.000000 0 0 1
-2.504744 33.414618 1.774536 33.555319 -1.495977 1.517888 0.099304 -0.038010 -1252240.000000 0 0 1
-1.856844 33.555218 0.567936 33.611353 -1.515516 1.553898 0.079028 -0.036062 -82743.100000 0 0 1
-0.842544 -33.535653 0.675236 33.553031 1.545678 1.550671 0.076769 -0.034362 1242620.000000 0 0 1
0.499056 -33.823153 1.473836 33.858927 -1.556043 1.527254 0.065905 -0.025795 -35721.900000 0 0 1
0.314556 -33.716653 2.900036 33.842604 -1.561467 1.484999 0.058413 -0.028012 -62008.100000 0 0 1
1.557456 -33.826153 3.554236 34.048009 -1.524786 1.466217 0.048228 -0.025477 95235.800000 0 0 1
1.476956 -33.736953 5.102436 34.152574 -1.527046 1.420834 0.047920 -0.029726 -158105.000000 0 0 1
0.668356 33.315618 5.589136 33.787802 1.550738 1.404614 0.078363 -0.040937 -247133.000000 0 0 1
0.226256 33.615518 6.913636 34.319857 1.564066 1.367961 0.079540 -0.035183 -335107.000000 0 0 1
1.256856 33.313318 7.965436 34.275429 1.533086 1.336257 0.056347 -0.029041 -483426.000000 0 0 1
1.541956 31.945218 8.168536 33.009083 1.522565 1.320735 0.064751 -0.034552 -568267.000000 0 0 1
2.536056 31.809718 9.114636 33.186840 1.491239 1.292575 0.074100 -0.029490 -735406.000000 0 0 1
2.927956 30.358318 9.344436 31.898572 1.474647 1.273494 0.068632 -0.030942 -103855.000000 0 0 1
1.959456 29.600718 10.001236 31.306017 1.504697 1.245629 0.086186 -0.040623 221880.000000 0 0 1
2.475656 28.284118 9.973736 30.093116 1.483491 1.232978 0.078637 -0.039862 280888.000000 0 0 1
1.921556 27.473118 11.140736 29.708258 1.500967 1.186395 0.064679 -0.042420 -150451.000000 0 0 1
2.566856 27.820318 12.388636 30.562021 1.478791 1.153423 0.072897 -0.031340 374828.000000 0 0 1
2.197556 26.976618 13.538036 30.262941 1.489514 1.107000 0.081755 -0.028800 988996.000000 0 0 1
0.676456 26.784218 13.947536 30.205723 1.545546 1.090828 0.055864 -0.029466 1052040.000000 0 0 1
-0.046044 27.765218 14.676436 31.405528 -1.569138 1.084539 0.061217 -0.032032 201721.000000 0 0 1
-0.485844 28.763318 13.764536 31.890860 -1.553907 1.124515 0.074580 -0.032732 -580564.000000 0 0 1
-1.131644 30.007618 14.378436 33.293801 -1.533102 1.124237 0.060188 -0.023888 80665.600000 0 0 1
-2.401944 29.798018 14.957736 33.427909 -1.490363 1.106870 0.040557 -0.016931 -237546.000000 0 0 1
-3.013444 30.982418 15.422636 34.739729 -1.473838 1.110796 0.032350 -0.004481 133358.000000 0 0 1
-4.365444 30.507818 16.025836 34.736313 -1.428668 1.091272 0.011713 0.006002 -407579.000000 0 0 1
-5.247344 29.921818 15.151036 33.947072 -1.397193 1.108155 0.023052 -0.009479 864447.000000 0 0 1
-6.494144 29.633718 15.879936 34.241839 -1.355060 1.088564 0.025232 -0.005798 818591.000000 0 0 1
-7.664444 29.247518 14.978336 33.741837 -1.314505 1.110839 0.017707 -0.015702 -71549.700000 0 0 1
-8.876244 29.076718 15.703136 34.217418 -1.274512 1.094015 0.022839 -0.012499 357691.000000 0 0 1
-9.892944 28.529218 14.848636 33.649199 -1.237006 1.113775 0.035104 -0.016772 140649.000000 0 0 1
-11.069244 27.969218 15.637936 33.902070 -1.193946 1.091373 0.037905 -0.012667 -896660.000000 0 0 1
-11.852844 28.880018 16.372636 35.250653 -1.181342 1.087768 0.028512 -0.016744 556343.000000 0 0 1
-11.291344 29.253418 17.660136 35.988016 -1.202431 1.057877 0.030807 -0.023236 -285685.000000 0 0 1
-12.088444 30.412918 18.265836 37.479552 -1.192467 1.061739 0.031236 -0.018452 -567252.000000 0 0 1
-13.203644 30.018618 18.986036 37.893577 -1.156416 1.046001 0.040829 -0.018801 107322.000000 0 0 1
-14.089344 31.137018 19.235736 39.217815 -1.145870 1.058151 0.056450 -0.026579 437626.000000 0 0 1
-15.198544 30.945118 20.281136 39.999007 -1.114258 1.039048 0.066820 -0.023341 -240995.000000 0 0 1
-14.773144 30.764218 21.620736 40.399741 -1.123109 1.006087 0.064972 -0.027929 -40909.300000 0 0 1
-15.847444 30.542618 22.493136 41.108809 -1.092172 0.991828 0.059851 -0.021790 -124263.000000 0 0 1
-15.335744 30.267418 23.922836 41.516307 -1.101823 0.956691 0.063900 -0.016933 -135796.000000 0 0 1
-14.312344 29.276118 24.032036 40.490407 -1.116089 0.935366 0.050946 -0.019974 630753.000000 0 0 1
-13.905244 28.918818 25.302936 40.864317 -1.122596 0.903081 0.070587 -0.013577 215071.000000 0 0 1
-13.221844 30.016318 26.260136 42.016559 -1.155880 0.895671 0.065336 -0.012502 -191605.000000 0 0 1
-14.193944 30.973718 26.623036 43.239164 -1.141097 0.907502 0.061842 -0.003275 235248.000000 0 0 1
-13.681544 32.218418 26.980936 44.194819 -1.169222 0.914105 0.062461 -0.006697 -529703.000000 0 0 1
-14.784044 33.172218 27.469736 45.536254 -1.151544 0.923227 0.068755 -0.009591 8567.920000 0 0 1
-15.526444 32.729018 28.593336 46.150167 -1.127843 0.902599 0.026408 -0.015359 135829.000000 0 0 1
-14.833244 32.833618 29.815136 46.765521 -1.146471 0.879489 0.062027 -0.008661 -188009.000000 0 0 1
-15.540844 32.095818 30.987036 47.242521 -1.119867 0.855403 0.038569 -0.010471 262685.000000 0 0 1
-16.798444 32.672318 31.310336 48.270128 -1.095894 0.864989 0.033809 -0.004405 -111636.000000 0 0 1
-17.332444 32.060218 32.467536 48.809959 -1.075182 0.843058 0.024696 0.000720 -1111250.000000 0 0 1
-18.733044 32.537918 32.662936 49.764550 -1.048414 0.854826 0.022679 0.001970 -1233900.000000 0 0 1
-18.917444 33.841518 33.176036 51.027124 -1.061069 0.862995 0.035532 -0.001653 -86958.500000 0 0 1
-20.273044 -33.833353 33.169136 51.535266 1.030963 0.871577 0.032995 0.000057 -87835.900000 0 0 1
-20.575744 -32.292353 33.297236 50.743110 1.003493 0.855035 0.054227 0.000216 -261621.000000 0 0 1
-20.270344 -31.698253 -33.464444 50.354098 1.001853 2.297731 0.062524 0.002583 264175.000000 0 0 1
-20.935144 -32.194653 -32.266644 50.158870 0.994233 2.269583 0.050624 0.003701 253206.000000 0 0 1
-20.603944 -31.299653 -31.073544 48.680139 0.988622 2.263111 0.065089 -0.001669 264081.000000 0 0 1
-21.062044 -29.952353 -31.172144 48.088000 0.957936 2.276056 0.080327 -0.001040 71037.000000 0 0 1
-20.614744 -29.273153 -30.029444 46.729570 0.957244 2.268712 0.084673 0.004126 155075.000000 0 0 1
-20.978544 -27.771653 -30.078944 46.001162 0.923852 2.283489 0.089847 -0.004457 -411747.000000 0 0 1
-22.338644 -27.556353 -29.892344 46.388790 0.889593 2.271018 0.079726 0.002182 -758422.000000 0 0 1
-22.676744 -26.201353 -30.143244 45.927778 0.857384 2.286725 0.091095 0.000283 1335490.000000 0 0 1
-24.074344 -25.866753 -29.441944 45.994468 0.821273 2.265450 0.086984 -0.001187 1170570.000000 0 0 1
-23.997344 -26.000353 -28.025544 45.136704 0.825439 2.240691 0.084632 -0.003580 201557.000000 0 0 1
-23.405744 -24.900953 -27.349444 43.770749 0.816341 2.245715 0.110845 -0.010601 -175482.000000 0 0 1
-22.796044 -25.187653 -25.971644 42.762177 0.835199 2.223518 0.102877 -0.008184 -604765.000000 0 0 1
-23.791644 -25.334553 -25.027844 42.828436 0.816795 2.194905 0.086852 -0.009631 -269591.000000 0 0 1
-23.424744 -25.935953 -23.806244 42.286281 0.836229 2.168781 0.083738 -0.005023 -1224670.000000 0 0 1
-24.478944 -25.694853 -22.749744 42.154419 0.809627 2.140849 0.069911 -0.000914 1619610.000000 0 0 1
-25.837044 -26.231353 -22.920544 43.370360 0.792971 2.127610 0.077481 -0.001014 1718560.000000 0 0 1
-25.901444 -27.636253 -23.020144 44.323519 0.817790 2.116906 0.072159 0.002775 -398125.000000 0 0 1
-27.363244 -28.181353 -23.091944 45.565049 0.800126 2.102254 0.043709 0.006361 682613.000000 0 0 1
-28.143244 -28.043953 -21.927444 45.379713 0.783631 2.075102 0.043996 0.011307 -100811.000000 0 0 1
-29.400944 -27.474753 -22.225244 45.969980 0.751544 2.075414 0.043833 0.004740 132252.000000 0 0 1
-30.109144 -26.791553 -21.032244 45.461007 0.727159 2.051771 0.051221 0.003511 136634.000000 0 0 1
-30.776944 -27.726653 -20.175844 46.076591 0.733307 2.024031 0.031990 0.012042 379052.000000 0 0 1
-31.365744 -27.100253 -19.032944 45.612351 0.712570 2.001242 0.027367 0.006522 -739157.000000 0 0 1
-32.178144 -28.110853 -18.133044 46.416164 0.718037 1.972147 0.013565 0.011333 303594.000000 0 0 1
-33.481144 -28.429053 -18.595744 47.696958 0.703975 1.971290 0.005003 0.012344 1211740.000000 0 0 1
-34.470744 -27.380253 -18.835444 47.881984 0.671258 1.975093 -0.005284 0.019133 8009.250000 0 0 1
-35.094844 -26.821653 -17.501344 47.511538 0.652566 1.948041 0.013352 0.012264 -993358.000000 0 0 1
-34.264044 -26.014953 -16.760244 46.170427 0.649394 1.942291 0.006733 0.017312 -130286.000000 0 0 1
-34.920744 -25.640053 -15.546744 46.027948 0.633335 1.915340 0.012944 0.009349 -15243.800000 0 0 1
-34.450244 -26.284053 -14.223044 45.606642 0.651742 1.887950 0.041828 0.007897 1469.410000 0 0 1
-34.912544 -27.633153 -14.080144 46.698259 0.669534 1.877076 0.035403 0.007855 465170.000000 0 0 1
-34.462644 -28.168053 -12.825344 46.320649 0.685231 1.851344 0.034566 0.003617 -156208.000000 0 0 1
-35.143944 -29.519753 -12.562544 47.584978 0.698640 1.837966 0.048695 -0.002244 -35686.200000 0 0 1
-34.607744 -30.634653 -13.284144 48.089983 0.724576 1.850671 0.052004 -0.003139 217758.000000 0 0 1
-35.295044 -31.820253 -13.043144 49.278720 0.733671 1.838670 0.041601 -0.010634 -101046.000000 0 0 1
-34.660044 -32.864953 -14.006444 49.775539 0.758820 1.856041 0.038944 0.004499 922505.000000 0 0 1
-33.262944 -33.180553 -13.884544 48.991358 0.784158 1.858142 0.024801 0.000043 893631.000000 0 0 1
-32.760844 -33.890553 -15.012244 49.469283 0.802346 1.879124 0.043963 -0.021060 -162242.000000 0 0 1
-31.277544 33.815118 -14.874244 48.404443 -0.824362 1.883141 0.038940 -0.017361 -382660.000000 0 0 1
-30.969844 33.142818 -16.036044 48.111665 -0.819278 1.910607 0.059918 -0.017395 713590.000000 0 0 1
-29.610244 32.664218 -15.839444 46.846619 -0.834399 1.915707 0.055912 -0.013494 743609.000000 0 0 1
9.184320 19.816418 -9.015864 23.628965 1.136797 1.962280 0.068888 -0.032910 -748653.000000 0 1 0
7.787620 19.799018 -9.104864 23.141882 1.196050 1.975163 0.063498 -0.032884 -120192.000000 0 1 0
7.167520 19.866118 -10.400864 23.541749 1.224541 2.028406 0.076801 -0.030594 286659.000000 0 1 0
7.326820 18.612018 -11.279464 22.963358 1.195767 2.084256 0.060038 -0.021130 -719540.000000 0 1 0
8.618520 18.448118 -11.780964 23.524520 1.133751 2.095313 0.091485 -0.021003 -567860.000000 0 1 0
8.581420 17.246318 -12.549264 22.990439 1.109087 2.148196 0.077894 -0.026789 -847797.000000 0 1 0
9.975620 16.771118 -12.840364 23.359331 1.034202 2.152788 0.100013 -0.033941 -733481.000000 0 1 0
9.911120 15.510718 -13.558464 22.861422 1.002203 2.205665 0.102180 -0.046427 -183506.000000 0 1 0
11.109220 15.291818 -14.257664 23.675630 0.942518 2.217061 0.127305 -0.049844 -236583.000000 0 1 0
11.205720 13.980318 -15.090864 23.425449 0.895120 2.270784 0.106501 -0.055893 -317367.000000 0 1 0
11.228820 12.750918 -14.301164 22.208008 0.848787 2.270465 0.105306 -0.051858 1453470.000000 0 1 0
12.539120 12.380418 -13.786064 22.373195 0.779030 2.234688 0.138470 -0.048812 714469.000000 0 1 0
13.456020 11.630718 -14.701264 23.075209 0.712767 2.261529 0.141088 -0.048980 -282524.000000 0 1 0
14.081320 12.304818 -15.797164 24.479431 0.718173 2.272244 0.125472 -0.039704 -486953.000000 0 1 0
15.162420 11.613718 -16.266064 25.087094 0.653634 2.276256 0.125799 -0.049685 -646604.000000 0 0 1
15.772720 12.201518 -17.564664 26.573919 0.658425 2.292912 0.093723 -0.045754 133706.000000 0 0 1
16.541420 13.371618 -17.359464 27.454867 0.679825 2.255303 0.068578 -0.035847 68226.600000 0 0 1
17.391920 13.726018 -18.443464 28.827831 0.668132 2.265008 0.052278 -0.028230 819664.000000 0 0 1
18.566520 14.727918 -18.033764 29.779924 0.670612 2.221276 0.046959 -0.018951 420196.000000 0 0 1
18.236520 16.102318 -17.641764 30.051409 0.723327 2.198210 0.051191 -0.027716 217433.000000 0 0 1
17.677820 17.035018 -18.601664 30.801284 0.766883 2.219213 0.053896 -0.021476 -6819.530000 0 0 1
17.506920 18.463118 -18.125664 31.239697 0.811975 2.189786 0.059475 -0.022564 -289583.000000 0 0 1
18.659520 19.227618 -17.935264 32.242095 0.800392 2.160685 0.056711 -0.021576 -231244.000000 0 0 1
18.279420 20.554618 -17.672664 32.694840 0.843919 2.141868 0.046753 -0.016590 836097.000000 0 0 1
19.497720 21.504718 -17.996364 34.153815 0.834307 2.125770 0.056622 -0.018503 940832.000000 0 0 1
20.699920 21.526218 -17.270464 34.498314 0.804964 2.095108 0.058255 -0.019597 -63714.500000 0 0 1
20.545320 22.470718 -16.244964 34.510031 0.830128 2.060916 0.053863 -0.020396 939787.000000 0 0 1
21.857520 22.733318 -15.394464 35.093368 0.805036 2.024916 0.049691 -0.022555 145121.000000 0 0 1
22.001020 21.800218 -14.387664 34.151124 0.780814 2.005668 0.060858 -0.026403 -26534.800000 0 0 1
22.812720 22.221418 -13.294264 34.510130 0.772269 1.966251 0.055363 -0.022725 653277.000000 0 0 1
24.357320 22.351718 -13.479564 35.701218 0.742486 1.957963 0.054942 -0.023767 116031.000000 0 0 1
24.693220 23.237618 -14.498664 36.877544 0.755039 1.974859 0.053391 -0.018739 -704296.000000 0 0 1
26.080620 23.228618 -14.687964 37.888042 0.727623 1.968896 0.056481 -0.014447 -264576.000000 0 0 1
26.620920 23.829318 -16.009464 39.151152 0.730121 1.992060 0.056014 -0.007834 -301926.000000 0 0 1
26.945520 22.885718 -17.019764 39.236329 0.704107 2.019475 0.050473 -0.023237 191145.000000 0 0 1
27.226820 23.627718 -18.216664 40.390787 0.714743 2.038693 0.039806 -0.017074 -729527.000000 0 0 1
27.856020 22.731818 -19.320064 40.816152 0.684449 2.063879 0.037188 -0.020006 -306087.000000 0 0 1
29.237020 22.498418 -19.232564 41.603770 0.655876 2.051360 0.033676 -0.013182 -616199.000000 0 0 1
29.576120 21.828218 -20.387564 42.034162 0.635800 2.077187 0.044043 -0.021266 248789.000000 0 0 1
31.034620 21.967818 -20.892864 43.384841 0.615974 2.073242 0.070431 -0.023153 287007.000000 0 0 1
31.406720 23.275918 -21.328564 44.531540 0.637789 2.070259 0.055790 -0.022302 -931413.000000 0 0 1
32.744020 23.616818 -21.242064 45.619626 0.624850 2.055148 0.081169 -0.015683 -709163.000000 0 0 1
33.091120 24.974118 -21.899064 46.886009 0.646507 2.056771 0.090219 -0.022393 -179230.000000 0 0 1
33.379420 25.077518 -23.289064 47.806361 0.644324 2.079624 0.083491 -0.017523 263335.000000 0 0 1
32.431020 24.528818 -24.213164 47.325588 0.647545 2.107876 0.073798 -0.022587 102923.000000 0 0 1
32.718020 24.990818 -25.685474 48.525802 0.652290 2.128590 0.077351 -0.020838 -267231.000000 0 0 1
32.480020 26.383618 -26.027694 49.279690 0.682198 2.127232 0.080971 -0.022853 101283.000000 0 0 1
31.157520 26.917118 -26.151554 48.777311 0.712511 2.136656 0.066910 -0.015117 682052.000000 0 0 1
30.550020 26.549518 -27.552594 48.962497 0.715451 2.168479 0.075110 -0.012857 -268733.000000 0 0 1
30.067320 25.218418 -27.716564 48.043941 0.697916 2.185725 0.064925 -0.019739 -80331.400000 0 0 1
29.640720 24.973818 -29.013714 48.415488 0.700154 2.213379 0.062912 -0.016340 -277252.000000 0 0 1
28.948720 23.615318 -29.264734 47.456678 0.684279 2.235292 0.059552 -0.017613 131204.000000 0 0 1
27.657420 23.675318 -28.695894 46.356315 0.707979 2.238302 0.059987 -0.015532 -317160.000000 0 0 1
26.836120 22.606518 -29.121244 45.599110 0.700060 2.263521 0.065767 -0.019135 -293672.000000 0 0 1
25.440920 22.728318 -28.512044 44.460696 0.729144 2.266970 0.052872 -0.014331 -451711.000000 0 0 1
25.493020 22.358118 -27.195834 43.467148 0.719978 2.246779 0.037731 0.000938 239062.000000 0 0 1
24.314120 22.759718 -26.521684 42.574416 0.752390 2.243303 0.042893 -0.011304 -64830.000000 0 0 1
24.465120 23.217418 -25.070684 42.025347 0.759237 2.210006 0.045433 -0.008081 -379121.000000 0 0 1
24.909520 22.072918 -24.439264 41.291349 0.725096 2.204178 0.041354 -0.015499 172889.000000 0 0 1
25.211620 22.341718 -23.081564 40.835484 0.725120 2.171512 0.047063 -0.012658 -364474.000000 0 0 1
25.662520 21.133018 -22.345164 40.055908 0.688905 2.162589 0.061608 -0.015789 646858.000000 0 0 1
26.864720 20.506818 -22.853564 40.798630 0.651982 2.165369 0.036693 -0.013991 770807.000000 0 0 1
27.132820 19.377018 -21.989864 39.940116 0.620162 2.153844 0.078815 -0.024686 777980.000000 0 0 1
28.333920 18.421018 -22.382464 40.535412 0.576474 2.155762 0.082039 -0.021477 1109510.000000 0 0 1
29.621420 18.806218 -21.926064 41.374565 0.565677 2.129327 0.093185 -0.029504 -482865.000000 0 0 1
30.582720 17.894718 -22.351764 41.894213 0.529410 2.133564 0.083381 -0.016506 -101537.000000 0 0 1
31.885020 18.062018 -21.534264 42.504300 0.515403 2.102076 0.088764 -0.014890 91541.900000 0 0 1
32.704920 19.171818 -21.954064 43.808120 0.530215 2.095714 0.076167 -0.021074 -1106220.000000 0 0 1
33.981120 18.994018 -21.504564 44.473987 0.509695 2.075481 0.059838 -0.020181 -1075780.000000 0 0 1
34.449120 19.990018 -20.454964 44.774415 0.525791 2.045241 0.051533 -0.025594 -125854.000000 0 0 1
33.603120 19.911918 -19.329064 43.580579 0.534932 2.030324 0.054572 -0.023783 120689.000000 0 0 1
34.014820 20.832718 -18.286364 43.879394 0.549531 2.000654 0.040512 -0.010018 -140673.000000 0 0 1
33.243220 20.754018 -16.941064 42.694737 0.558102 1.978819 0.057192 -0.024787 -274689.000000 0 0 1
33.499120 19.585318 -16.216464 42.056503 0.529058 1.966641 0.059143 -0.039037 266448.000000 0 0 1
33.115020 19.679418 -14.848564 41.283943 0.536199 1.938710 0.063554 -0.039481 -60621.300000 0 0 1
33.731320 18.430218 -14.131664 40.953374 0.500062 1.923107 0.066065 -0.029917 46534.400000 0 0 1
35.146420 18.346818 -14.227064 42.122274 0.481101 1.915328 0.053450 -0.027015 -90835.600000 0 0 1
35.755020 17.292318 -13.543464 41.962735 0.450469 1.899430 0.053645 -0.009820 -152362.000000 0 0 1
35.809020 17.414818 -11.953864 41.574712 0.452648 1.862440 0.072042 -0.023610 -652076.000000 0 0 1
36.648220 18.402218 -11.424964 42.570688 0.465351 1.842503 0.058251 -0.024553 -95578.800000 0 0 1
36.365420 18.849318 -10.071064 42.180172 0.478204 1.811888 0.064696 -0.025600 -326033.000000 0 0 1
35.208420 19.865118 -9.896064 41.619561 0.513691 1.810870 0.067969 -0.025595 465920.000000 0 0 1
33.945620 19.335818 -10.237464 40.385451 0.517775 1.827087 0.085618 -0.040101 729226.000000 0 0 1
32.788920 20.134118 -9.898264 39.729984 0.550688 1.822587 0.049411 -0.022249 1833240.000000 0 0 1
31.389520 19.465818 -10.172564 38.310587 0.555095 1.839549 0.045623 -0.023133 857950.000000 0 0 1
31.161320 19.150918 -11.555264 38.357655 0.551066 1.876800 0.070333 -0.038177 327354.000000 0 0 1
30.041820 18.256318 -11.664464 37.038680 0.546060 1.891176 0.065599 -0.040963 283980.000000 0 0 1
29.784020 17.763618 -13.064564 37.058289 0.537779 1.931081 0.103504 -0.043463 -519486.000000 0 0 1
30.881820 17.075018 -13.613864 37.823014 0.505078 1.938996 0.095524 -0.035100 -237974.000000 0 0 1
30.538020 16.191018 -14.660364 37.545253 0.487509 1.971940 0.083747 -0.034671 748707.000000 0 0 1
31.823120 15.483318 -15.264664 38.541589 0.452824 1.978015 0.093055 -0.041109 961058.000000 0 0 1
32.601820 14.774518 -14.288064 38.539770 0.425496 1.950597 0.083467 -0.036757 526400.000000 0 0 1
33.674220 14.074618 -14.914864 39.427163 0.395896 1.958744 0.073039 -0.028992 537388.000000 0 0 1
34.583620 13.304018 -13.884164 39.570111 0.367240 1.929302 0.064711 -0.043538 -87944.000000 0 0 1
35.296020 14.076618 -12.992264 40.159173 0.379485 1.900243 0.069674 -0.024642 -235587.000000 0 0 1
35.717720 13.284518 -11.905464 39.924604 0.356077 1.873601 0.069965 -0.021871 -221889.000000 0 0 1
36.684920 14.070718 -11.018164 40.806475 0.366251 1.844200 0.088230 -0.013559 707170.000000 0 0 1
-35.874216 14.297718 -11.645764 40.336186 -0.379257 1.863683 0.046162 -0.010596 1000680.000000 0 0 1
-34.929716 14.927918 -10.738364 39.474552 -0.403876 1.846301 0.028202 0.000296 125588.000000 0 0 1
-33.535116 15.153818 -11.335964 38.506444 -0.424415 1.869615 0.043945 -0.012933 9829.960000 0 0 1
-32.681716 14.067618 -11.661664 37.443114 -0.406472 1.887515 0.046208 -0.006951 315332.000000 0 0 1
-32.399216 13.059818 -10.689364 36.531227 -0.383168 1.867750 0.073526 0.002715 -895816.000000 0 0 1
-31.356716 12.042218 -11.125464 35.384101 -0.366672 1.890642 0.090447 -0.007472 -217988.000000 0 0 1
-31.795016 11.089818 -12.163364 35.802996 -0.335597 1.917427 0.065397 -0.007854 278456.000000 0 0 1
-31.032116 9.902418 -12.139764 34.762393 -0.308888 1.927536 0.092430 -0.018282 -175567.000000 0 0 1
-30.905016 9.233518 -13.512064 34.970755 -0.290329 1.967502 0.101212 -0.023284 995097.000000 0 0 1
-32.166616 8.675918 -13.944864 36.116782 -0.263449 1.967202 0.069543 -0.020482 1384050.000000 0 0 1
-31.821316 7.680018 -14.923264 35.976140 -0.236819 1.998530 0.085217 -0.024152 -593860.000000 0 0 1
-32.994816 7.061318 -15.621864 37.182828 -0.210833 2.004392 0.089883 -0.025942 -881924.000000 0 0 1
-33.801516 6.190818 -14.868764 37.442607 -0.181144 1.979160 0.100979 -0.034906 231239.000000 0 0 1
-34.834216 5.677118 -15.697664 38.627308 -0.161555 1.989293 0.083200 -0.040794 63518.900000 0 0 1
-36.012316 5.150318 -14.846764 39.291717 -0.142052 1.958280 0.093965 -0.035571 -597826.000000 0 0 1
36.838620 4.391218 -15.426264 40.178805 0.118642 1.964856 0.111619 -0.033215 297132.000000 0 0 1
35.780720 4.108818 -14.463464 38.811520 0.114332 1.952669 0.123736 -0.037724 1183760.000000 0 0 1
34.816220 2.944218 -14.852364 37.966173 0.084364 1.972731 0.130319 -0.034852 400772.000000 0 0 1
35.487520 1.656518 -14.950264 38.543722 0.046645 1.969125 0.128915 -0.034444 406799.000000 0 0 1
34.606420 0.545218 -15.016464 37.727918 0.015754 1.980154 0.125448 -0.031246 279765.000000 0 0 1
33.952820 0.079018 -13.682264 36.606073 0.002327 1.953867 0.146751 -0.039604 446461.000000 0 0 1
34.957520 -0.336682 -12.761164 37.215439 -0.009631 1.920798 0.150999 -0.042308 670861.000000 0 0 1
34.461120 -0.215382 -11.426164 36.306644 -0.006250 1.890950 0.163828 -0.037039 33643.800000 0 0 1
34.641820 1.125818 -10.654764 36.260821 0.032487 1.869035 0.160787 -0.043171 180074.000000 0 0 1
33.766520 2.138918 -11.181864 35.634070 0.063260 1.889986 0.151256 -0.030470 801509.000000 0 0 1
34.083720 3.362018 -10.644164 35.865044 0.098322 1.872119 0.142595 -0.029740 -81139.400000 0 0 1
32.971120 4.358318 -11.040264 35.042505 0.131424 1.891309 0.135349 -0.024870 -75927.300000 0 0 1
32.959720 4.789318 -12.359464 35.525161 0.144298 1.926134 0.134728 -0.028933 -11617.300000 0 0 1
31.984420 5.717418 -12.718464 34.891995 0.176888 1.943902 0.130668 -0.035895 -567638.000000 0 0 1
32.174620 6.375018 -14.092064 35.699206 0.195605 1.976586 0.102307 -0.030769 -487595.000000 0 0 1
31.763520 5.518918 -15.135964 35.615686 0.172033 2.009736 0.089429 -0.021839 233905.000000 0 0 1
31.882220 6.211518 -16.347664 36.363513 0.192417 2.037072 0.081284 -0.016559 -731183.000000 0 0 1
30.836820 7.312718 -16.735664 35.839472 0.232841 2.056648 0.085324 -0.021171 112320.000000 0 0 1
29.727220 6.872318 -17.493264 35.170309 0.227188 2.091381 0.057564 -0.013985 416789.000000 0 0 1
28.763420 6.091118 -16.798064 33.861645 0.208683 2.089874 0.053084 -0.012657 -912159.000000 0 0 1
27.416720 6.019518 -17.526964 33.092380 0.216127 2.128969 0.030040 -0.013756 -400291.000000 0 0 1
27.392520 5.117318 -18.628264 33.519387 0.184686 2.160056 0.034610 -0.010678 -87115.100000 0 0 1
26.178720 5.232418 -19.313764 32.950343 0.197273 2.197092 0.020828 -0.010144 -367141.000000 0 0 1
25.802520 4.027418 -20.127564 32.971336 0.154837 2.227433 0.025950 0.004162 -225686.000000 0 0 1
25.369220 2.912018 -19.394764 32.066089 0.114285 2.220358 0.033721 -0.007776 75944.600000 0 0 1
24.924020 1.883018 -20.217464 32.148070 0.075407 2.250916 0.044822 -0.009691 202779.000000 0 0 1
23.865020 1.015218 -19.420564 30.785194 0.042514 2.253433 0.046324 -0.017881 1098060.000000 0 0 1
22.569320 1.553718 -19.183764 29.661508 0.068734 2.274120 0.050537 -0.021508 921553.000000 0 0 1
21.619120 0.693718 -18.518464 28.474570 0.032077 2.278843 0.057364 -0.021245 773908.000000 0 0 1
20.248820 1.434218 -18.476264 27.448935 0.070712 2.309208 0.063244 -0.028666 -1005540.000000 0 0 1
19.601220 1.567718 -19.686364 27.824782 0.079811 2.356768 0.060402 -0.027506 190412.000000 0 0 1
18.473720 2.423718 -19.640364 27.072064 0.130453 2.382535 0.052126 -0.019285 587513.000000 0 0 1
17.176220 2.015818 -18.906164 25.622824 0.116827 2.400697 0.073210 -0.022636 -988382.000000 0 0 1
17.295920 2.040018 -17.507264 24.694429 0.117405 2.358813 0.069012 -0.033914 584861.000000 0 1 0
16.128320 1.873318 -16.667864 23.269072 0.115633 2.369296 0.048956 -0.024497 439414.000000 0 1 0
15.321620 3.155718 -16.465964 22.712080 0.203125 2.381812 0.066151 -0.021923 -151948.000000 0 1 0
14.697920 3.572418 -17.680764 23.268013 0.238433 2.433916 0.064854 -0.013496 603991.000000 0 1 0
13.834020 4.707618 -17.508364 22.805363 0.328001 2.446088 0.073790 -0.011315 256777.000000 0 1 0
-20.763280 -21.900982 -17.023164 34.649025 0.812058 2.084381 0.092605 -0.024277 -93736.500000 0 0 1
-20.388480 -22.158182 -18.329264 35.251058 0.826969 2.117605 0.095704 -0.021218 -138667.000000 0 0 1
-21.497480 -22.186682 -19.175464 36.360541 0.801174 2.126299 0.095638 -0.015852 -439481.000000 0 0 1
-21.091780 -22.838882 -20.509964 37.244279 0.825147 2.153984 0.083953 -0.012340 27637.600000 0 0 1
-21.030380 -24.230482 -20.386064 38.012955 0.855984 2.136835 0.083575 -0.014427 129794.000000 0 0 1
-20.428680 -24.767382 -21.531764 38.657096 0.881102 2.161558 0.082473 -0.012662 -67075.600000 0 0 1
-20.153280 -26.281992 -21.551164 39.513928 0.916624 2.147671 0.083399 -0.007254 450736.000000 0 0 1
-21.398680 -26.975792 -21.404964 40.543425 0.900182 2.126983 0.084407 -0.002468 481169.000000 0 0 1
-21.188480 -28.350782 -21.295664 41.306462 0.928982 2.112449 0.096869 -0.015125 -275188.000000 0 0 1
-22.467680 -29.188542 -21.432064 42.615737 0.914779 2.097764 0.087819 -0.011869 -218744.000000 0 0 1
-23.045380 -29.183602 -22.708864 43.571374 0.902387 2.119038 0.076522 -0.006962 -780.972000 0 0 1
-22.398880 -29.991232 -23.667364 44.286882 0.929316 2.134606 0.072933 -0.010185 -530954.000000 0 0 1
-22.842380 -29.604732 -25.087564 45.028884 0.913627 2.161739 0.066666 0.000814 1170540.000000 0 0 1
-24.193780 -30.084742 -25.359264 46.190074 0.893507 2.151987 0.054207 0.003074 1859470.000000 0 0 1
-24.880180 -29.235482 -26.343244 46.558600 0.865706 2.172210 0.050042 0.006558 273571.000000 0 0 1
-24.366280 -29.282162 -27.834984 47.179942 0.876774 2.201824 0.055484 0.002046 -283964.000000 0 0 1
-24.841680 -30.431532 -28.558224 48.567061 0.886187 2.199401 0.034290 0.009964 344246.000000 0 0 1
-24.537180 -30.366782 -29.946034 49.203451 0.891180 2.225112 0.069958 0.005712 -34298.500000 0 0 1
-25.098890 -31.533382 -30.764794 50.702870 0.898532 2.222782 0.031663 0.009337 -71106.600000 0 0 1
-24.340680 -32.735792 -30.604754 50.997566 0.931436 2.214450 0.028289 -0.002258 59032.800000 0 0 1
-25.026480 -33.929062 -30.897354 52.269996 0.935271 2.203232 0.029738 -0.004792 -266617.000000 0 0 1
-24.200980 32.902084 -30.463384 50.953433 -0.936610 2.211634 0.043659 -0.009860 -60341.100000 0 0 1
-23.352980 32.537337 -31.500594 50.954170 -0.948271 2.237265 0.039381 -0.015244 -493573.000000 0 0 1
-23.092480 31.165189 -31.499874 49.967727 -0.933099 2.252870 0.042296 -0.009867 -45637.300000 0 0 1
-21.906680 30.594699 -32.317034 49.601703 -0.949394 2.280397 0.040148 -0.000587 251375.000000 0 0 1
-22.221380 30.352829 -33.716414 50.516142 -0.938848 2.301560 0.034455 0.005108 -181559.000000 0 0 1
-21.213280 29.539909 33.823974 49.665588 -0.948011 0.821622 0.022959 0.003485 -409281.000000 0 0 1
-21.272580 29.150419 32.341207 48.458469 -0.940380 0.840084 0.023818 -0.008370 150712.000000 0 0 1
-20.597080 30.098299 31.481746 48.179328 -0.970667 0.858692 0.027748 -0.004802 557952.000000 0 0 1
-21.014180 29.997099 30.133116 47.428118 -0.959708 0.882344 0.041611 -0.007833 18241.900000 0 0 1
-20.339680 31.118569 29.295746 47.331899 -0.991881 0.903400 0.031857 -0.020063 66862.200000 0 0 1
-21.106280 32.312905 29.397066 48.515836 -0.992186 0.919865 0.049212 -0.025692 608911.000000 0 0 1
-20.406180 33.439419 28.868276 48.661939 -1.022879 0.935717 0.032174 -0.031384 106226.000000 0 0 1
-21.314780 -33.418342 28.956006 49.087225 1.003033 0.939875 0.045774 -0.036667 13204.400000 0 0 1
-21.608980 -33.004072 30.297896 49.741122 0.991098 0.915856 0.042801 -0.022777 84098.600000 0 0 1
-22.699980 -32.096702 30.448156 49.725019 0.955230 0.911791 0.080730 -0.027905 85207.500000 0 0 1
-22.538680 -30.639212 29.952226 48.413730 0.936565 0.903745 0.074107 -0.020397 -219338.000000 0 0 1
-22.642780 -30.575542 28.543316 47.563433 0.933369 0.927157 0.059837 -0.020613 -89889.400000 0 0 1
-22.621280 -29.288842 28.056066 46.440299 0.913143 0.922120 0.076208 -0.030755 914615.000000 0 0 1
-24.035380 -28.822332 27.493446 46.522208 0.875715 0.938530 0.085071 -0.024384 -184782.000000 0 0 1
-24.964680 -28.549202 28.569106 47.481428 0.852281 0.925181 0.094537 -0.023603 108958.000000 0 0 1
-26.040280 -29.440232 28.548736 48.578326 0.846604 0.942602 0.084822 -0.024616 190728.000000 0 0 1
-27.088480 -29.239472 27.383866 48.359162 0.823567 0.968835 0.072595 -0.019417 -742269.000000 0 0 1
-26.578420 -29.709662 26.163436 47.682301 0.840970 0.989984 0.072862 -0.016972 -287614.000000 0 0 1
-27.501580 -29.610712 25.112306 47.578977 0.822311 1.014785 0.074674 -0.016688 -43844.700000 0 0 1
-26.867730 -29.993052 23.721486 46.735072 0.840307 1.038430 0.073169 -0.014812 -307514.000000 0 0 1
-26.130530 -28.848042 23.211546 45.318760 0.834787 1.033071 0.052540 -0.014773 488018.000000 0 0 1
-25.403560 -29.054922 22.024516 44.436569 0.852347 1.052225 0.067329 -0.015183 603043.000000 0 0 1
-24.146480 -29.979942 22.239016 44.456982 0.892759 1.046924 0.065749 -0.027455 -752762.000000 0 0 1
-24.318580 -31.297182 21.717116 45.194469 0.910225 1.069542 0.069186 -0.032341 385716.000000 0 0 1
-23.176880 -32.134062 21.640816 45.145217 0.945947 1.070871 0.069589 -0.020827 -7976.760000 0 0 1
-22.496180 -32.707042 22.914416 45.835566 0.968300 1.047282 0.069982 -0.022100 -176463.000000 0 0 1
-21.756880 -31.792842 23.666256 45.213253 0.970663 1.019918 0.079625 -0.028432 13382.700000 0 0 1
-21.160680 -32.477002 24.764426 45.997900 0.993326 1.002281 0.068392 -0.041961 -152867.000000 0 0 1
-20.268380 -31.577922 25.660416 45.457995 1.000170 0.970986 0.073278 -0.027306 70275.600000 0 0 1
-19.091280 -31.168572 24.941066 44.249447 1.021224 0.972002 0.080566 -0.031781 850407.000000 0 0 1
-18.121180 -30.446822 25.679866 43.758903 1.033932 0.943635 0.090240 -0.033823 579769.000000 0 0 1
-17.265680 -31.182212 26.765836 44.574028 1.065115 0.926694 0.060263 -0.036544 -219194.000000 0 0 1
-18.096080 -31.506952 27.879896 45.797868 1.049449 0.916300 0.055928 -0.028603 719531.000000 0 0 1
-17.334180 -32.287832 28.783206 46.598828 1.078094 0.905006 0.053981 -0.028126 95542.900000 0 0 1
-17.635780 -31.759572 30.213966 47.250131 1.063901 0.877017 0.075993 -0.023606 146769.000000 0 0 1
-17.173580 -30.430222 30.312756 46.257901 1.056996 0.856218 0.080085 -0.017494 181084.000000 0 0 1
-17.611480 -29.814232 31.520376 46.825065 1.037238 0.832334 0.090653 -0.010291 151452.000000 0 0 1
-17.311380 -28.277592 31.407036 45.669552 1.021459 0.812478 0.097128 -0.015732 258607.000000 0 0 1
-18.242580 -27.551892 30.597106 45.034224 0.985950 0.823826 0.103445 -0.014284 373544.000000 0 0 1
-18.265880 -27.817082 29.168036 44.251630 0.989766 0.851121 0.100437 -0.013699 -1066050.000000 0 0 1
-17.031680 -27.390172 28.445596 43.005250 1.014489 0.848053 0.081747 -0.011749 -982588.000000 0 0 1
-16.862680 -26.001572 28.293426 41.963671 0.995458 0.830866 0.074462 -0.008359 769835.000000 0 0 1
-15.607380 -25.630462 27.687416 40.830183 1.023830 0.825606 0.064014 -0.009890 737611.000000 0 0 1
-15.762280 -24.280782 27.129306 39.673733 0.995007 0.817824 0.058538 0.000885 -199543.000000 0 0 1
-16.564280 -24.206282 25.965626 39.173118 0.970687 0.846187 0.083826 -0.004698 -59091.300000 0 0 1
-16.299780 -23.103982 25.158196 37.847214 0.956391 0.843663 0.064302 -0.001131 -167262.000000 0 0 1
-17.085080 -21.861282 25.634296 37.774763 0.907424 0.824929 0.076582 -0.000643 -352033.000000 0 0 1
-17.009080 -20.758482 24.789216 36.533937 0.884350 0.825043 0.058553 -0.000697 195524.000000 0 0 1
-17.682680 -19.649782 25.362696 36.634102 0.838041 0.806091 0.069983 0.001994 -189993.000000 0 0 1
-17.440980 -18.380682 24.576916 35.299604 0.811625 0.800654 0.057560 -0.007305 -467414.000000 0 0 1
-16.109680 -17.966382 24.584086 34.448366 0.839831 0.776101 0.049278 -0.010544 -679623.000000 0 0 1
-15.996680 -16.781482 23.806776 33.230625 0.809336 0.772152 0.040120 -0.008630 -421447.000000 0 0 1
-14.585180 -16.201282 23.843056 32.306351 0.837844 0.740650 0.060869 -0.018939 -1082410.000000 0 0 1
-13.591980 -17.057182 23.418496 32.001802 0.897980 0.749856 0.021799 -0.009706 -376373.000000 0 0 1
-12.281780 -16.534482 23.555526 31.290478 0.931920 0.718488 0.025212 -0.022756 -76000.600000 0 0 1
-11.764780 -15.611982 22.408516 29.736940 0.925012 0.717338 0.037420 -0.024791 -380065.000000 0 0 1
-11.158980 -16.252782 21.312116 29.032431 0.969128 0.746486 0.075206 -0.019191 706720.000000 0 0 1
-9.865780 -16.846782 21.550416 29.078654 1.041019 0.736078 0.070288 -0.019208 303257.000000 0 0 1
-9.515980 -18.049482 20.591616 28.988831 1.085614 0.780830 0.071978 -0.013812 -21069.000000 0 0 1
-9.304080 -17.706482 19.275216 27.778037 1.086987 0.803903 0.069923 -0.021104 -111321.000000 0 0 1
-8.749980 -18.815282 18.584416 27.856014 1.135500 0.840407 0.070163 -0.018937 211017.000000 0 0 1
-8.490980 -18.481482 17.104716 26.575049 1.140127 0.871554 0.073807 -0.031649 -446148.000000 0 0 1
-7.466580 -17.579482 16.848616 25.468880 1.169152 0.847929 0.081726 -0.034151 -751426.000000 0 0 1
-7.044980 -17.727982 15.533616 24.600941 1.192539 0.887409 0.096083 -0.032709 -397736.000000 0 1 0
-5.911580 -16.774882 15.221216 23.410016 1.231979 0.862947 0.080695 -0.036073 -778853.000000 0 1 0
-6.263280 -15.435182 15.257016 22.588715 1.185318 0.829253 0.090465 -0.046921 -771390.000000 0 1 0
-5.178780 -14.600582 15.494416 21.910584 1.229943 0.785315 0.069777 -0.035957 -954736.000000 0 1 0
-5.423980 -13.485082 16.565516 22.038224 1.188377 0.720203 0.049855 -0.027276 -413019.000000 0 1 0
-5.261180 -14.046482 17.864116 23.326172 1.212416 0.698450 0.065930 -0.020418 -97032.800000 0 1 0
-6.283180 -14.896982 18.359816 24.463876 1.171660 0.721998 0.090654 -0.034992 94510.700000 0 1 0
-7.542780 -14.163482 18.874616 24.773955 1.081448 0.704596 0.095586 -0.040397 -172190.000000 0 1 0
-7.317480 -13.526382 20.114316 25.319838 1.074906 0.652762 0.100205 -0.038448 655132.000000 0 0 1
-8.564980 -13.106682 20.709516 25.962050 0.991977 0.647351 0.103386 -0.027565 980241.000000 0 0 1
-8.330880 -12.186082 21.912316 26.420706 0.971136 0.592832 0.113899 -0.018370 -213646.000000 0 0 1
-7.866180 -10.894382 21.526116 25.375933 0.945431 0.558051 0.098697 -0.019289 -94961.400000 0 0 1
-7.426380 -10.072882 22.579916 25.816016 0.935496 0.506088 0.084756 -0.019355 1086120.000000 0 0 1
-5.980880 -10.390782 23.162446 26.081376 1.048515 0.477637 0.094518 -0.016467 914098.000000 0 0 1
-5.759180 -11.628482 23.889976 27.186774 1.110944 0.497590 0.103094 -0.016405 -708554.000000 0 0 1
-4.493480 -11.563182 24.457456 27.423816 1.200154 0.469416 0.095140 -0.010374 -572318.000000 0 0 1
-4.210780 -12.672082 25.481206 28.768110 1.249987 0.482700 0.095256 -0.012669 500661.000000 0 0 1
-2.829780 -12.851782 25.854296 29.010697 1.354069 0.470815 0.080365 -0.015818 894924.000000 0 0 1
-2.604680 -13.894382 26.785596 30.287066 1.385484 0.485610 0.078295 -0.023308 -15056.000000 0 0 1
-2.742180 -15.291982 26.234826 30.489840 1.393361 0.534654 0.077491 -0.031998 570089.000000 0 0 1
-1.596980 -15.754382 25.467146 29.988771 1.469774 0.556285 0.066162 -0.031765 649811.000000 0 0 1
-1.858180 -16.999282 24.778876 30.106828 1.461919 0.604068 0.073643 -0.028427 136123.000000 0 0 1
-0.536980 -17.834782 24.764096 30.522586 1.540697 0.624361 0.072004 -0.029000 855064.000000 0 0 1
0.035320 -18.153282 26.029176 31.734223 -1.568851 0.608994 0.076559 -0.028521 160560.000000 0 0 1
0.644720 -17.096982 26.758876 31.760981 -1.533105 0.568874 0.070621 -0.029297 -552429.000000 0 0 1
1.321620 -17.565082 28.081626 33.149004 -1.495697 0.560229 0.062840 -0.021744 325797.000000 0 0 1
2.476520 -18.421582 28.072506 33.668285 -1.437162 0.584847 0.056523 -0.024596 866692.000000 0 0 1
3.330220 -18.443182 29.205936 34.701988 -1.392155 0.570518 0.054927 -0.031529 533285.000000 0 0 1
4.095220 -17.131182 29.542986 34.395294 -1.336149 0.537629 0.068100 -0.032982 -665428.000000 0 0 1
3.314620 -16.066182 29.988316 34.181983 -1.367341 0.500561 0.055031 -0.036208 -172720.000000 0 0 1
4.196620 -15.083782 30.478366 34.264601 -1.299438 0.474546 0.060864 -0.035794 -48874.200000 0 0 1
3.498820 -13.983182 31.262816 34.425786 -1.325614 0.432019 0.070202 -0.044515 -233979.000000 0 0 1
2.871320 -14.528882 32.385826 35.611439 -1.375682 0.428904 0.063150 -0.044910 -521507.000000 0 0 1
2.100520 -13.594882 33.044606 35.793561 -1.417500 0.394472 0.056354 -0.047412 -687158.000000 0 0 1
1.213520 -14.189882 -33.933774 36.801174 -1.485484 2.744228 0.060215 -0.038079 -109922.000000 0 0 1
1.929520 -14.483482 -32.736324 35.849145 -1.438354 2.721789 0.074953 -0.033439 126044.000000 0 0 1
1.193020 -15.341082 -31.867324 35.387829 -1.493186 2.691752 0.073060 -0.040612 522847.000000 0 0 1
1.937820 -15.495682 -30.474594 34.242842 -1.446387 2.668043 0.085390 -0.033325 323326.000000 0 0 1
1.357020 -16.454382 -29.663154 33.948357 -1.488511 2.633703 0.079831 -0.030360 -199509.000000 0 0 1
1.935620 -16.378982 -28.326304 32.777999 -1.453165 2.614328 0.086409 -0.029009 367165.000000 0 0 1
1.517020 -17.590182 -27.442574 32.631438 -1.484767 2.569899 0.094484 -0.032342 288043.000000 0 0 1
2.202020 -18.768282 -27.937724 33.728530 -1.454004 2.546883 0.086758 -0.026517 392275.000000 0 0 1
1.914720 -19.936982 -27.180854 33.763120 -1.475051 2.506549 0.090579 -0.025624 -836675.000000 0 0 1
2.851520 -21.109882 -27.488644 34.776197 -1.436529 2.482330 0.074929 -0.026231 887686.000000 0 0 1
4.208620 -20.997482 -26.999414 34.461212 -1.372983 2.471031 0.062687 -0.024210 980872.000000 0 0 1
4.391720 -21.016382 -25.584044 33.399384 -1.364794 2.443397 0.076699 -0.025707 -338198.000000 0 0 1
5.760820 -21.673082 -25.199564 33.733182 -1.310998 2.414374 0.050300 -0.023299 264788.000000 0 0 1
5.911420 -23.079282 -25.367984 34.801333 -1.320052 2.387564 0.046219 -0.026434 44265.200000 0 0 1
5.977020 -23.530282 -26.724574 36.105426 -1.322043 2.404137 0.042006 -0.018129 -447923.000000 0 0 1
5.270020 -24.846782 -26.935144 37.022124 -1.361793 2.385528 0.035428 -0.009798 255604.000000 0 0 1
6.075220 -25.876142 -26.361214 37.435233 -1.340192 2.352067 0.040422 -0.005849 163554.000000 0 0 1
5.436920 -27.099142 -26.491914 38.285051 -1.372794 2.335004 0.033854 -0.006103 -11833.800000 0 0 1
5.895520 -28.088662 -25.377934 38.311482 -1.363910 2.294828 0.035389 -0.011352 528956.000000 0 0 1
7.270220 -28.441442 -25.520734 38.898324 -1.320535 2.286420 0.056718 -0.019822 371600.000000 0 0 1
7.718120 -29.559582 -24.716364 39.296780 -1.315395 2.251020 0.063958 -0.021494 111088.000000 0 0 1
9.102620 -30.004162 -25.230784 40.245495 -1.276243 2.248392 0.082850 -0.032059 91427.900000 0 0 1
9.073420 -30.446922 -26.564094 41.412475 -1.281168 2.267185 0.072274 -0.027903 -1127230.000000 0 0 1
10.378420 -30.560492 -26.967894 42.058562 -1.243414 2.266856 0.105105 -0.035945 -882633.000000 0 0 1
10.590920 -30.272892 -28.492594 42.900391 -1.234257 2.297162 0.103858 -0.036492 -193112.000000 0 0 1
10.689820 -31.472602 -29.242064 44.270704 -1.243367 2.292319 0.107587 -0.048974 98538.800000 0 0 1
10.640120 -31.174422 -30.644864 44.990715 -1.241885 2.320112 0.102385 -0.038584 -41092.400000 0 0 1
-35.036421 -4.958182 -5.533564 35.815565 0.140582 1.725919 0.176351 -0.045036 -140555.000000 0 0 1
-34.688413 -4.505382 -4.227864 35.234348 0.129158 1.691079 0.150035 -0.052224 -106481.000000 0 0 1
-33.810800 -3.417282 -4.233464 34.245733 0.100729 1.694734 0.142139 -0.057451 -669046.000000 0 0 1
-34.169721 -2.060682 -4.947164 34.587435 0.060234 1.714322 0.190482 -0.039813 -377834.000000 0 0 1
-35.313172 -1.416782 -4.427964 35.617892 0.040099 1.695437 0.135194 -0.034738 171448.000000 0 0 1
-35.576578 -0.278682 -5.211264 35.957306 0.007833 1.716238 0.124946 -0.041891 413472.000000 0 0 1
-36.808060 0.505018 -4.664364 37.105857 -0.013719 1.696834 0.148535 -0.039756 325679.000000 0 0 1
-36.426760 1.149418 -3.449264 36.607751 -0.031544 1.665159 0.135766 -0.026912 258569.000000 0 0 1
36.391986 1.819818 -2.710464 36.538131 0.049964 1.645046 0.134756 -0.028995 -596513.000000 0 0 1
-36.756800 2.718118 -1.676164 36.895258 -0.073814 1.616242 0.121480 -0.028085 567384.000000 0 0 1
-36.046794 3.901818 -2.116964 36.319101 -0.107823 1.629117 0.145494 -0.044782 826928.000000 0 0 1
-34.857026 3.603718 -2.867164 35.159916 -0.103020 1.652433 0.100406 -0.017073 -154547.000000 0 0 1
-33.967880 4.899718 -2.967964 34.447538 -0.143257 1.657062 0.075355 -0.021009 -79862.500000 0 0 1
-33.482720 5.336018 -1.731164 33.949412 -0.158037 1.621811 0.091802 -0.025237 122047.000000 0 0 1
-33.193600 6.680918 -1.791264 33.906612 -0.198618 1.623650 0.113196 -0.039832 -260502.000000 0 0 1
-32.726420 7.277018 -0.434064 33.528525 -0.218799 1.583743 0.119740 -0.041534 473955.000000 0 0 1
-31.317860 7.047718 -0.251064 32.102051 -0.221351 1.578617 0.123479 -0.034402 1215820.000000 0 0 1
-30.756220 7.501018 0.993636 31.673295 -0.239216 1.539420 0.137328 -0.040097 87113.700000 0 0 1
-30.706520 8.993018 1.306236 32.022976 -0.284903 1.529994 0.143598 -0.044914 -683536.000000 0 0 1
-31.988040 9.537618 1.472036 33.412090 -0.289770 1.526725 0.128001 -0.047454 -223592.000000 0 0 1
-31.906290 10.819718 2.024336 33.751675 -0.326940 1.510783 0.129516 -0.041438 474062.000000 0 0 1
-33.314520 11.492918 2.084636 35.302834 -0.332198 1.511712 0.112355 -0.044370 -505022.000000 0 0 1
-33.671160 11.916218 0.768436 35.725813 -0.340145 1.549285 0.083567 -0.043927 310912.000000 0 0 1
-34.889156 12.637418 0.677736 37.113567 -0.347516 1.552534 0.083343 -0.033446 414571.000000 0 0 1
-36.186600 11.827018 0.940436 38.081922 -0.315890 1.546099 0.099994 -0.043358 -754877.000000 0 0 1
-36.487190 11.011418 -0.180164 38.112974 -0.293097 1.575523 0.102777 -0.033442 -236531.000000 0 0 1
36.344806 10.111718 0.224736 37.725883 0.271354 1.564839 0.120462 -0.036341 66236.500000 0 0 1
35.933016 9.065418 -0.884664 37.069476 0.247130 1.594664 0.127321 -0.041562 28251.200000 0 0 1
35.245476 9.646918 -1.938964 36.593253 0.267163 1.623808 0.119419 -0.030315 -124397.000000 0 0 1
34.992986 8.599018 -2.854764 36.146948 0.240961 1.649855 0.111356 -0.037136 172420.000000 0 0 1
34.208276 8.925218 -4.155764 35.596854 0.255219 1.687808 0.108215 -0.027281 -632701.000000 0 0 1
32.877416 9.289618 -4.094864 34.409147 0.275375 1.690084 0.128377 -0.036550 -632115.000000 0 0 1
32.411856 9.606818 -5.395364 34.233453 0.288149 1.729061 0.112379 -0.022673 -19979.500000 0 0 1
31.009536 10.226818 -5.594464 33.128193 0.318563 1.740483 0.138799 -0.038343 435997.000000 0 0 1
29.927196 9.313218 -5.361564 31.798105 0.301696 1.740218 0.135604 -0.037891 943678.000000 0 0 1
28.715756 9.869518 -5.853664 30.923574 0.331049 1.761240 0.142239 -0.029393 39051.200000 0 0 1
27.571656 8.838918 -5.955264 29.559903 0.310229 1.773649 0.161867 -0.021160 -295644.000000 0 0 1
27.656956 7.946218 -7.080764 29.634217 0.279778 1.812069 0.159704 -0.025408 528711.000000 0 0 1
26.411556 7.316318 -7.347464 28.374003 0.270236 1.832732 0.172668 -0.027542 274945.000000 0 0 1
26.507856 6.300018 -8.521664 28.547774 0.233337 1.873923 0.171421 -0.033310 -13111.300000 0 0 1
27.407356 5.253818 -8.198064 29.085632 0.189396 1.856528 0.178176 -0.036441 577206.000000 0 0 1
27.450056 4.264818 -9.263064 29.283077 0.154134 1.892653 0.162034 -0.033994 203044.000000 0 0 1
28.444056 3.088818 -8.862264 29.952376 0.108169 1.871171 0.149408 -0.028991 -366690.000000 0 0 1
29.772936 3.409618 -9.128264 31.326960 0.114024 1.866473 0.172383 -0.023490 228126.000000 0 0 1
30.821406 2.797718 -8.381164 32.062910 0.090524 1.835266 0.145081 -0.031163 267065.000000 0 0 1
30.911526 1.261118 -8.229664 32.013126 0.040775 1.830787 0.146774 -0.035029 -433285.000000 0 0 1
29.923596 0.698318 -7.328364 30.815810 0.023332 1.810909 0.171200 -0.035127 832065.000000 0 0 1
30.164346 -0.616082 -6.904564 30.950611 -0.020421 1.795773 0.172571 -0.030366 -216901.000000 0 0 1
30.025336 -1.791582 -7.923164 31.104776 -0.059598 1.828360 0.169276 -0.027034 -199355.000000 0 0 1
30.973126 -1.791282 -8.967064 32.294759 -0.057769 1.852157 0.157388 -0.027943 152779.000000 0 0 1
30.788586 -3.019782 -9.695564 32.420057 -0.097769 1.874504 0.137488 -0.034575 -838.598000 0 0 1
31.755276 -3.357982 -10.878364 33.734439 -0.105354 1.899135 0.133494 -0.033815 -1051850.000000 0 0 1
33.062926 -3.496582 -10.491164 34.863271 -0.105364 1.876457 0.166256 -0.033947 -698464.000000 0 0 1
33.947866 -3.783882 -11.579964 36.067588 -0.111003 1.897648 0.143691 -0.043347 -187213.000000 0 0 1
35.408376 -3.916182 -11.169064 37.334134 -0.110153 1.874614 0.161919 -0.045254 -692074.000000 0 0 1
35.781836 -5.069782 -10.484464 37.629330 -0.140749 1.853158 0.155244 -0.050900 760343.000000 0 0 1
-36.656190 -5.173882 -10.178764 38.393392 0.140220 1.839122 0.152120 -0.044003 590325.000000 0 0 1
-36.465550 -6.506882 -9.443364 38.226339 0.176581 1.820419 0.148779 -0.053803 62882.300000 0 0 1
36.854896 -6.544582 -8.074064 38.292368 -0.175745 1.783244 0.166779 -0.049602 644240.000000 0 0 1
36.573826 -7.878882 -7.657464 38.188457 -0.212181 1.772683 0.155045 -0.043130 -223274.000000 0 0 1
36.378426 -7.909082 -6.143964 37.731840 -0.214080 1.734357 0.172004 -0.035506 -926059.000000 0 0 1
-36.277250 -7.876482 -5.406164 37.514057 0.213801 1.715410 0.152285 -0.034003 -177542.000000 0 0 1
-36.207470 -8.576882 -4.154864 37.440709 0.232594 1.681997 0.173918 -0.031687 -431402.000000 0 0 1
-36.075575 -10.112482 -4.270964 37.708759 0.273300 1.684302 0.161110 -0.037014 -195742.000000 0 0 1
36.613766 -10.702082 -4.864164 38.454681 -0.284375 1.697627 0.143107 -0.036054 418131.000000 0 0 1
36.894046 -11.870882 -5.632764 39.163969 -0.311295 1.715122 0.120602 -0.031545 -102241.000000 0 0 1
35.942396 -11.972882 -6.851064 38.498608 -0.321552 1.749705 0.104827 -0.029680 4964.460000 0 0 1
36.195016 -11.073782 -7.811464 38.648762 -0.296904 1.774313 0.144859 -0.035668 69129.700000 0 0 1
35.713836 -11.535582 -9.047564 38.605779 -0.312422 1.807354 0.117515 -0.025854 -246800.000000 0 0 1
36.011326 -10.728682 -10.294064 38.960082 -0.289552 1.838192 0.094675 -0.028172 -497698.000000 0 0 1
35.299286 -9.564382 -10.536064 38.059501 -0.264598 1.851291 0.114655 -0.034536 1401.610000 0 0 1
35.589086 -9.007782 -11.804564 38.562558 -0.247899 1.881905 0.117144 -0.036031 -263672.000000 0 0 1
34.582256 -7.914582 -12.246464 37.530640 -0.224988 1.903189 0.128139 -0.035876 -258111.000000 0 0 1
34.870526 -7.252282 -13.485264 38.084137 -0.205054 1.932739 0.130918 -0.027461 805958.000000 0 0 1
33.835906 -6.413582 -14.035664 37.188741 -0.187327 1.957802 0.116448 -0.031593 267483.000000 0 0 1
34.274316 -5.710282 -15.365464 37.992546 -0.165089 1.987156 0.112671 -0.031708 428081.000000 0 0 1
35.495796 -4.978082 -15.156364 38.915912 -0.139336 1.970846 0.123898 -0.029312 776754.000000 0 0 1
35.322196 -3.582882 -15.120064 38.589000 -0.101089 1.973409 0.155051 -0.029890 321997.000000 0 0 1
36.680296 -2.806082 -15.085964 39.760590 -0.076352 1.959966 0.147188 -0.040021 304914.000000 0 0 1
-36.547550 -2.663482 -16.425764 40.157481 0.072749 1.992191 0.150902 -0.039038 -32392.400000 0 0 1
-35.254016 -2.140082 -16.419964 38.949208 0.060630 2.005976 0.127225 -0.032584 -466741.000000 0 0 1
-35.205170 -0.608882 -16.203564 38.759905 0.017294 2.002094 0.124549 -0.024880 -782936.000000 0 0 1
-35.530882 0.106418 -17.345764 39.538973 -0.002995 2.024948 0.114808 -0.024612 246419.000000 0 0 1
-35.679250 1.479218 -16.982164 39.542267 -0.041435 2.014701 0.109048 -0.030540 34637.300000 0 0 1
-36.090275 2.406418 -18.137264 40.463059 -0.066579 2.035595 0.093704 -0.026376 -14059.900000 0 0 1
-34.976438 2.541418 -18.983864 39.877276 -0.072533 2.066962 0.081345 -0.011458 69749.900000 0 0 1
-35.214434 3.486318 -19.967764 40.631544 -0.098681 2.084533 0.067887 -0.013522 -789617.000000 0 0 1
-34.261821 3.388118 -21.124664 40.393108 -0.098569 2.121136 0.063464 -0.000926 -161359.000000 0 0 1
-32.933090 3.762818 -20.738664 39.100376 -0.113763 2.129863 0.077658 -0.006464 788243.000000 0 0 1
-32.282210 4.316018 -21.934364 39.266849 -0.132908 2.163490 0.075483 -0.006175 224971.000000 0 0 1
-30.799580 4.712918 -21.734464 37.989639 -0.151841 2.179879 0.093533 -0.011888 381774.000000 0 0 1
-29.975790 3.580218 -21.417264 37.014391 -0.118874 2.187832 0.096669 -0.010174 -1127780.000000 0 0 1
-28.669770 3.905518 -21.645764 36.135134 -0.135391 2.213076 0.091324 -0.014847 -1413040.000000 0 0 1
-27.638250 2.998518 -20.962264 34.817818 -0.108069 2.216869 0.114082 -0.013978 -202365.000000 0 0 1
-27.417950 3.309018 -19.578164 33.852594 -0.120107 2.187483 0.089976 -0.001431 64637.800000 0 0 1
-26.841520 2.106218 -19.060264 32.987831 -0.078308 2.186823 0.088576 -0.015735 -375392.000000 0 0 1
-26.155950 2.345418 -17.720164 31.680261 -0.089431 2.164391 0.089509 -0.010825 184111.000000 0 0 1
-24.961780 3.120418 -17.799764 30.816539 -0.124363 2.186587 0.087461 -0.013430 52337.600000 0 0 1
-24.300680 3.148718 -16.572364 29.581763 -0.128855 2.165450 0.095783 -0.019584 -311692.000000 0 0 1
-23.235280 4.261318 -16.612064 28.879019 -0.181383 2.183681 0.119856 -0.024603 408294.000000 0 0 1
-21.990480 3.794918 -17.115164 28.123148 -0.170888 2.225065 0.134057 -0.035770 1078080.000000 0 0 1
-20.927080 4.772618 -17.201064 27.506311 -0.224225 2.246376 0.121577 -0.034374 1322730.000000 0 0 1
-19.572980 4.222118 -17.772964 26.773234 -0.212456 2.296729 0.161621 -0.039173 398577.000000 0 0 1
-19.026680 3.300118 -16.854464 25.631588 -0.171738 2.288380 0.186140 -0.030965 -498578.000000 0 0 1
-17.932180 2.604218 -17.352564 25.088972 -0.144218 2.334555 0.145553 -0.033357 -704988.000000 0 0 1
-17.791580 1.079718 -16.982464 24.619305 -0.060613 2.332013 0.155452 -0.027033 369535.000000 0 1 0
-18.742980 0.172118 -17.552264 25.678997 -0.009183 2.323379 0.127532 -0.028254 268576.000000 0 0 1
-20.013880 0.176318 -16.943664 26.223543 -0.008810 2.273292 0.133058 -0.031570 -319276.000000 0 0 1
-20.982680 -0.851782 -17.547964 27.366575 0.040572 2.266882 0.114410 -0.034844 -240865.000000 0 0 1
-20.915580 -2.154282 -17.062164 27.078033 0.102637 2.252492 0.101445 -0.029696 1292410.000000 0 0 1
-22.203080 -2.722482 -17.390764 28.334208 0.122008 2.231627 0.093539 -0.021939 816705.000000 0 0 1
-22.576480 -3.871782 -16.520364 28.242000 0.169844 2.195624 0.109890 -0.026040 -226758.000000 0 0 1
-22.891380 -3.552382 -15.170264 27.690641 0.153956 2.150586 0.103635 -0.024389 433282.000000 0 0 1
-23.448080 -4.729582 -14.599764 28.023820 0.199034 2.118791 0.117446 -0.032394 -50764.800000 0 0 1
-23.654480 -4.564982 -13.090764 27.417906 0.190642 2.068550 0.122000 -0.035048 256304.000000 0 0 1
-24.659780 -3.575882 -12.785564 28.006469 0.144005 2.044878 0.098201 -0.035000 818981.000000 0 0 1
-24.565580 -3.070582 -11.477564 27.287922 0.124350 2.004914 0.117762 -0.048578 -567041.000000 0 0 1
-25.354670 -1.797882 -11.250864 27.797007 0.070791 1.987503 0.134848 -0.047559 -475334.000000 0 0 1
-25.171980 -1.303282 -9.906564 27.082598 0.051729 1.945279 0.128870 -0.053050 669765.000000 0 0 1
-25.873120 -0.093082 -9.720064 27.638861 0.003598 1.930163 0.137251 -0.051157 -150444.000000 0 0 1
-26.314130 0.226218 -8.209964 27.566068 -0.008597 1.873214 0.147120 -0.043237 -140924.000000 0 0 1
-25.284400 0.647218 -7.339964 26.336189 -0.025592 1.853239 0.132643 -0.037042 371093.000000 0 0 1
-25.741400 0.838018 -6.002464 26.445255 -0.032544 1.799769 0.140345 -0.037515 -19041.800000 0 0 1
-24.516980 1.240818 -5.179664 25.088859 -0.050567 1.778745 0.104252 -0.021065 7927.450000 0 0 1
-24.177480 2.624118 -5.425564 24.917329 -0.108112 1.790297 0.121738 -0.023210 645612.000000 0 1 0
-22.817280 2.979218 -5.188564 23.588667 -0.129834 1.792570 0.102601 -0.005772 433041.000000 0 1 0
-22.393380 4.475218 -5.237064 23.428997 -0.197247 1.796230 0.115537 -0.016617 -124515.000000 0 1 0
-22.984380 5.283118 -4.227764 23.959696 -0.225932 1.748178 0.123538 -0.019153 647713.000000 0 1 0
-22.689280 6.635918 -4.426664 24.050659 -0.284534 1.755908 0.129731 -0.023614 -397752.000000 0 1 0
-23.142780 7.570718 -3.231964 24.563176 -0.316158 1.702757 0.117859 -0.019852 68591.300000 0 1 0
-22.275380 7.548818 -2.095564 23.612890 -0.326740 1.659660 0.093219 -0.019418 883728.000000 0 1 0
-20.938480 7.997618 -2.180364 22.519676 -0.364857 1.667769 0.107386 -0.021901 -261493.000000 0 1 0
-20.727880 9.517618 -2.356564 22.929968 -0.430453 1.673750 0.109104 -0.020672 -604719.000000 0 1 0
-20.589280 9.860118 -3.731264 23.131422 -0.446622 1.732811 0.092774 -0.022782 605976.000000 0 1 0
-20.102080 11.165818 -3.896764 23.322819 -0.507022 1.738663 0.100183 -0.019242 -372642.000000 0 1 0
-19.953580 11.481018 -5.395864 23.644756 -0.522125 1.801031 0.101185 -0.025458 408276.000000 0 1 0
-18.866180 10.773418 -6.030364 22.546941 -0.518856 1.841550 0.076688 -0.028437 869582.000000 0 1 0
-18.662080 11.268118 -7.350364 23.005903 -0.543207 1.895997 0.068400 -0.026397 594650.000000 0 1 0
-17.377580 10.675418 -8.051364 21.926452 -0.550883 1.946792 0.055908 -0.023796 416887.000000 0 1 0
-17.356680 9.386918 -8.590264 21.521180 -0.495771 1.981390 0.061489 -0.019863 -332004.000000 0 1 0
-18.284480 8.999918 -9.553564 22.507584 -0.457401 2.009162 0.082204 -0.010906 -581678.000000 0 1 0
-18.293380 9.749318 -10.935464 23.436752 -0.489653 2.056233 0.089386 -0.010166 4715.430000 0 1 0
-17.135280 9.440218 -11.675464 22.782713 -0.503551 2.108855 0.088485 -0.009262 92971.100000 0 1 0
-17.178180 10.218618 -12.849464 23.761708 -0.536632 2.142141 0.094606 -0.018392 197574.000000 0 1 0
-16.009580 9.919418 -13.822164 23.361372 -0.554701 2.203922 0.076168 -0.012257 -97880.500000 0 1 0
-16.021080 8.631518 -14.496364 23.266342 -0.494173 2.243447 0.093991 -0.027085 108263.000000 0 1 0
-15.709980 7.471418 -13.711764 22.150351 -0.443925 2.238305 0.077126 -0.019517 -162697.000000 0 1 0
-15.646780 6.180318 -14.608664 22.280734 -0.376180 2.285857 0.084051 -0.021280 101928.000000 0 1 0
-14.457080 6.159118 -15.368864 21.980534 -0.402741 2.345079 0.084984 -0.027077 401338.000000 0 1 0
-14.459780 4.983618 -16.152164 22.244417 -0.331904 2.383461 0.078533 -0.028629 -84592.500000 0 1 0
33.173756 -15.523482 28.034906 46.124099 -0.437676 0.917491 0.037940 -0.008385 -255473.000000 0 0 1
32.140836 -14.569582 28.242606 45.199014 -0.425598 0.895857 0.046631 -0.014162 772413.000000 0 0 1
31.097796 -14.904982 29.196946 45.185097 -0.446946 0.868250 0.058118 -0.020055 1063530.000000 0 0 1
31.575216 -14.976882 30.689026 46.509328 -0.442897 0.850182 0.049517 -0.030111 53587.100000 0 0 1
32.232166 -13.818782 31.182846 46.928042 -0.405023 0.843996 0.034155 -0.026534 156304.000000 0 0 1
32.012176 -13.714182 32.575269 47.686542 -0.404751 0.818780 0.019888 -0.020557 -381653.000000 0 0 1
32.508246 -12.371882 33.137429 48.041011 -0.363651 0.809620 0.047499 -0.024485 -34257.700000 0 0 1
32.238136 -12.191682 -33.513544 48.073820 -0.361552 2.342178 0.022776 -0.034065 156238.000000 0 0 1
32.469826 -10.858982 -33.152114 47.657841 -0.322740 2.340090 0.043294 -0.022857 -177662.000000 0 0 1
32.111776 -10.557282 -31.691174 46.335223 -0.317635 2.323966 0.041578 -0.019040 699916.000000 0 0 1
30.703656 -10.530082 -31.415234 45.172049 -0.330388 2.339853 0.079950 -0.025886 696292.000000 0 0 1
30.386026 -10.097782 -30.133124 43.969091 -0.320835 2.325846 0.060584 -0.019550 -390137.000000 0 0 1
29.012626 -10.562882 -29.640514 42.800316 -0.349162 2.335787 0.058838 -0.018632 -311646.000000 0 0 1
28.781596 -10.302182 -28.284474 41.647649 -0.343734 2.317383 0.056052 -0.018310 -145258.000000 0 0 1
27.869056 -11.226182 -27.748184 40.898327 -0.382934 2.316471 0.108262 -0.018821 -960637.000000 0 0 1
27.342056 -10.617982 -26.422554 39.477600 -0.370413 2.304069 0.094951 -0.016353 -777029.000000 0 0 1
26.469956 -9.520682 -26.439854 38.605283 -0.345271 2.325231 0.078104 -0.017735 1129930.000000 0 0 1
25.276556 -9.469382 -27.271184 38.370444 -0.358447 2.361338 0.085232 -0.020509 972248.000000 0 0 1
24.278256 -10.663082 -27.182774 37.974179 -0.413839 2.368598 0.091578 -0.007328 -907605.000000 0 0 1
24.677156 -11.848782 -27.843454 39.046301 -0.447643 2.364690 0.093850 -0.017659 213747.000000 0 0 1
23.835256 -12.946182 -27.464874 38.601067 -0.497571 2.362435 0.108640 -0.020398 400116.000000 0 0 1
24.368956 -14.248182 -28.067314 39.807422 -0.529083 2.353329 0.106730 -0.009684 77920.300000 0 0 1
24.496456 -14.280982 -29.453084 40.884067 -0.527812 2.375182 0.106718 -0.021320 450117.000000 0 0 1
25.549856 -15.072382 -30.005854 42.193875 -0.532975 2.361918 0.095755 -0.012309 110802.000000 0 0 1
25.656156 -15.054282 -31.545274 43.358668 -0.530635 2.385529 0.111011 -0.026224 -736623.000000 0 0 1
24.601756 -15.718782 -32.132754 43.414749 -0.568553 2.404067 0.125133 -0.031262 -490168.000000 0 0 1
24.587756 -15.784482 -33.537664 44.480136 -0.570706 2.424914 0.127724 -0.034199 -205923.000000 0 0 1
24.791456 -14.484682 33.566163 44.171366 -0.528766 0.707625 0.098780 -0.039872 160155.000000 0 0 1
23.715756 -13.566582 33.417723 43.165187 -0.519614 0.685374 0.125237 -0.033752 -26616.000000 0 0 1
23.922656 -12.579182 32.490655 42.263127 -0.484095 0.693880 0.116800 -0.030996 619972.000000 0 0 1
22.738856 -11.547882 32.728041 41.491370 -0.469906 0.661956 0.118609 -0.032389 1803170.000000 0 0 1
21.374556 -11.949882 32.554548 40.736592 -0.509780 0.644921 0.109531 -0.026081 836935.000000 0 0 1
20.891556 -12.178682 31.274976 39.533549 -0.527787 0.658192 0.105266 -0.020017 -96071.700000 0 0 1
19.351656 -12.443082 31.294026 38.841124 -0.571437 0.633952 0.111678 -0.015420 487618.000000 0 0 1
18.555356 -11.305882 31.340616 38.136051 -0.547234 0.606215 0.094244 -0.013575 -220113.000000 0 0 1
17.567356 -11.382982 32.358224 38.538797 -0.574941 0.574200 0.061960 -0.004113 5042.910000 0 0 1
16.614256 -10.199482 32.496609 37.895811 -0.550577 0.540357 0.059043 -0.000962 -547296.000000 0 0 1
15.622156 -10.098482 31.466996 36.554109 -0.573855 0.533891 0.075608 -0.006965 230713.000000 0 0 1
14.902356 -8.901182 31.587446 36.042724 -0.538432 0.502484 0.076535 -0.004337 572708.000000 0 0 1
13.807556 -8.847682 32.739642 36.617130 -0.569870 0.464362 0.077267 -0.008502 -1091140.000000 0 0 1
12.944556 -9.919682 32.641317 36.488590 -0.653865 0.463345 0.075327 -0.009354 -170980.000000 0 0 1
11.730156 -9.736082 33.350215 36.669124 -0.692770 0.428740 0.069874 -0.013009 1073250.000000 0 0 1
10.571256 -8.929682 32.639030 35.451332 -0.701417 0.400999 0.060402 -0.011824 55349.800000 0 0 1
10.865856 -7.544482 32.686922 35.262173 -0.606910 0.384547 0.075255 -0.011024 -20141.200000 0 0 1
9.799856 -6.848482 32.144223 34.295626 -0.609944 0.356085 0.067460 -0.012222 -372360.000000 0 0 1
10.195556 -5.329882 32.057500 34.059364 -0.481693 0.344560 0.073479 -0.011011 130958.000000 0 0 1
10.164056 -4.726382 33.303496 35.139288 -0.435265 0.324668 0.064539 -0.015986 253564.000000 0 0 1
10.696056 -3.402982 33.281705 35.123465 -0.308027 0.325274 0.059293 -0.011528 -26137.500000 0 0 1
10.332856 -2.484882 -33.531884 35.175699 -0.236002 2.834672 0.056340 -0.013935 -359277.000000 0 0 1
8.995056 -2.079882 -33.441894 34.692899 -0.227232 2.872230 0.046711 -0.007723 -365293.000000 0 0 1
8.766656 -1.138782 -32.451014 33.633605 -0.129176 2.875626 0.049698 -0.006877 261578.000000 0 0 1
7.266356 -0.889282 -32.140744 32.963892 -0.121778 2.917647 0.050363 -0.006261 209120.000000 0 0 1
6.646756 0.140118 -32.875614 33.541094 0.021078 2.942060 0.064824 -0.007757 -580356.000000 0 0 1
5.258456 0.166218 -32.753354 33.173200 0.031599 2.982326 0.066993 -0.009143 -274699.000000 0 0 1
4.591356 1.304218 -33.572824 33.910412 0.276769 3.000370 0.070523 -0.014700 156514.000000 0 0 1
5.137456 2.607918 -33.211404 33.707448 0.469732 2.969823 0.062731 -0.015233 133496.000000 0 0 1
4.763856 3.517218 33.842832 34.356985 0.635980 0.173220 0.070869 -0.017758 -198724.000000 0 0 1
5.688056 4.721718 33.813048 34.611715 0.692834 0.215241 0.073914 -0.022756 -74876.900000 0 0 1
5.239556 5.663218 32.876763 33.769905 0.824237 0.230501 0.099243 -0.044743 -327820.000000 0 0 1
6.188456 6.657118 32.782697 34.019397 0.821866 0.270463 0.100830 -0.042961 -495172.000000 0 0 1
5.834856 7.735918 31.725646 33.172376 0.924577 0.296423 0.124766 -0.042389 -101701.000000 0 0 1
4.722756 8.469118 32.205883 33.634049 1.062103 0.292458 0.130344 -0.037825 212426.000000 0 0 1
4.266956 9.480518 31.319306 32.999788 1.147879 0.320507 0.130250 -0.048665 201275.000000 0 0 1
3.635256 9.255318 29.894886 31.505241 1.196534 0.321109 0.127649 -0.045489 -359953.000000 0 0 1
2.461356 8.517518 29.836326 31.125756 1.289484 0.288845 0.123730 -0.041031 -640479.000000 0 0 1
2.016856 8.285318 28.521996 29.769421 1.332015 0.290513 0.087504 -0.021329 1396540.000000 0 0 1
0.628656 7.499018 28.334976 29.317253 1.487160 0.259592 0.089993 -0.020303 1363140.000000 0 0 1
-0.505944 8.286118 28.583576 29.764686 -1.509813 0.282655 0.090566 -0.012758 -664658.000000 0 0 1
-1.522944 8.066318 27.640886 28.834067 -1.384190 0.288685 0.079140 -0.013888 -606226.000000 0 0 1
-2.887344 8.468818 28.145506 29.533492 -1.242217 0.307798 0.073048 -0.013152 -695067.000000 0 0 1
-3.076744 9.878718 28.419286 30.244193 -1.268867 0.349159 0.069415 -0.008658 -590372.000000 0 0 1
-4.379144 10.051418 28.900656 30.910448 -1.159919 0.362593 0.059595 -0.000184 -522369.000000 0 0 1
-4.779744 11.364918 29.591046 32.056782 -1.172684 0.394777 0.050482 -0.002733 -205196.000000 0 0 1
-4.932744 12.517818 28.795696 31.783955 -1.195423 0.437102 0.049424 -0.007560 -33775.200000 0 0 1
-5.977144 12.612518 27.853276 31.154563 -1.128241 0.464523 0.033342 -0.010702 -197284.000000 0 0 1
-6.200044 14.005418 27.350226 31.346884 -1.154039 0.510496 0.022882 -0.005516 98009.600000 0 0 1
-5.150144 14.505118 26.557906 30.696006 -1.229623 0.525265 0.024418 -0.001517 33413.500000 0 0 1
-5.497044 15.845218 26.276186 31.172526 -1.236867 0.568095 0.032782 -0.002208 -87487.200000 0 0 1
-4.391944 16.607018 25.543246 30.782131 -1.312252 0.592034 0.059460 -0.002878 -307658.000000 0 0 1
-4.314344 16.133218 24.213516 29.414089 -1.309491 0.603782 0.059494 -0.000067 759666.000000 0 0 1
-3.345044 16.922718 23.454566 29.115019 -1.375646 0.634137 0.079492 -0.002036 805058.000000 0 0 1
-3.116544 16.482918 21.962816 27.636293 -1.383925 0.652268 0.071823 -0.003185 -1112.450000 0 0 1
-2.505844 15.241418 21.760316 26.685041 -1.407844 0.617290 0.063257 -0.010193 -81982.300000 0 0 1
-2.113244 15.029118 20.450816 25.467156 -1.431102 0.638439 0.052141 -0.013771 92845.400000 0 0 1
-1.197744 13.818618 20.127716 24.444094 -1.484336 0.603387 0.049462 -0.017057 -41743.700000 0 1 0
-1.884344 12.595918 20.096116 23.792053 -1.422298 0.564873 0.049996 -0.016609 207554.000000 0 1 0
-1.099044 11.568818 19.477916 22.681152 -1.476080 0.537930 0.046239 -0.019061 -421163.000000 0 1 0
-2.013944 10.448718 18.997016 21.774257 -1.380386 0.510597 0.034518 -0.022604 84511.800000 0 1 0
-2.698844 9.527118 19.824016 22.159452 -1.294748 0.463244 0.063633 -0.032609 223826.000000 0 1 0
-3.440044 10.050918 20.912516 23.456090 -1.241032 0.470018 0.069157 -0.019378 -869363.000000 0 1 0
-4.944144 9.849818 20.732916 23.480146 -1.105588 0.488585 0.054862 -0.018920 -585342.000000 0 1 0
-5.369944 8.559318 21.061516 23.359916 -1.010487 0.447321 0.035240 -0.019668 45587.700000 0 1 0
-6.777244 8.460118 20.963416 23.600200 -0.895396 0.477225 0.030276 -0.017848 78426.200000 0 1 0
-7.311444 7.030018 21.091016 23.403190 -0.765777 0.448260 0.025135 -0.009020 -238693.000000 0 1 0
-7.343544 6.519018 22.393316 24.451704 -0.725990 0.413256 0.026411 -0.001383 -68128.900000 0 1 0
-8.217344 5.439018 22.484616 24.549248 -0.584692 0.413056 0.027113 -0.004733 -81294.600000 0 1 0
-8.478744 4.774318 23.853946 25.762258 -0.512840 0.387316 0.027024 -0.005025 -74132.800000 0 0 1
-9.217244 5.542618 24.766716 27.001267 -0.541398 0.409694 0.003554 -0.005801 -15456.400000 0 0 1
-9.632444 4.765818 25.858686 28.003011 -0.459453 0.393885 -0.006943 0.004113 -605891.000000 0 0 1
-10.416644 5.530018 26.864866 29.339539 -0.488048 0.413665 0.007717 0.002634 -530408.000000 0 0 1
-9.663844 6.535018 27.493696 29.866363 -0.594597 0.401292 0.020028 -0.005277 -703082.000000 0 0 1
-10.356544 7.021318 28.576246 31.195492 -0.595780 0.412709 0.022307 -0.006713 -263330.000000 0 0 1
-9.583544 8.079118 29.367996 31.931108 -0.700428 0.403404 0.036161 -0.006167 151516.000000 0 0 1
-8.473344 7.616018 30.114056 32.197168 -0.732163 0.361687 0.040433 -0.010655 36286.700000 0 0 1
-7.988744 8.686918 30.917236 33.093172 -0.827242 0.364651 0.048008 -0.016967 589891.000000 0 0 1
-6.971644 8.154518 32.018956 33.768528 -0.863440 0.323309 0.072792 -0.018554 333850.000000 0 0 1
-5.719544 7.838118 31.465966 32.928047 -0.940409 0.299115 0.074093 -0.017769 -903271.000000 0 0 1
-4.910144 7.312218 32.493541 33.666129 -0.979456 0.264704 0.088470 -0.017518 -223861.000000 0 0 1
-3.424844 7.443918 32.124070 33.152637 -1.139586 0.249748 0.076181 -0.014757 -144541.000000 0 0 1
-3.068544 8.790518 32.021266 33.347423 -1.234946 0.282964 0.071109 -0.019418 -464906.000000 0 0 1
-1.753544 8.996418 31.553316 32.857605 -1.378294 0.282703 0.087592 -0.021862 117967.000000 0 0 1
-1.361944 10.443418 31.179256 32.909966 -1.441116 0.325751 0.080883 -0.021506 -143634.000000 0 0 1
-1.338244 11.323618 32.266542 34.221995 -1.453160 0.339685 0.089276 -0.031698 163847.000000 0 0 1
-2.005844 12.566218 31.974406 34.413600 -1.412510 0.378767 0.079104 -0.031205 129831.000000 0 0 1
-2.174044 13.510018 33.143721 35.857402 -1.411243 0.391546 0.080464 -0.032907 -880753.000000 0 0 1
-0.918444 13.892118 33.596882 36.367361 -1.504780 0.392856 0.129350 -0.039571 -914277.000000 0 0 1
-0.928744 14.848318 -33.430444 36.591389 -1.508329 2.722885 0.117032 -0.045400 815029.000000 0 0 1
0.457556 15.255718 -32.787214 36.165560 1.540813 2.705921 0.106187 -0.045056 333777.000000 0 0 1
1.263356 16.034818 -33.604174 37.255228 1.492170 2.695174 0.120585 -0.048669 -1292660.000000 0 0 1
2.483156 16.162918 -32.985424 36.816358 1.418355 2.681350 0.132637 -0.049213 -1494040.000000 0 0 1
3.392256 16.953418 -33.881254 38.037681 1.373312 2.669742 0.143705 -0.036470 -692808.000000 0 0 1
3.130156 18.343618 -33.761334 38.550148 1.401784 2.637840 0.115868 -0.033053 -276229.000000 0 0 1
4.139856 19.126018 33.726799 38.992819 1.357633 0.525748 0.089895 -0.009666 -226447.000000 0 0 1
3.770056 20.650318 33.787434 39.777376 1.390219 0.555924 0.094069 -0.024038 -18296.400000 0 0 1
3.798956 21.268518 -32.949214 39.400922 1.394042 2.561214 0.113182 -0.054264 168041.000000 0 0 1
3.646256 22.639718 -32.946044 40.140925 1.411112 2.533536 0.104058 -0.043659 62018.100000 0 0 1
3.626156 23.279118 -31.542474 39.369963 1.416270 2.500063 0.116656 -0.043897 160123.000000 0 0 1
3.222556 24.648518 -31.744224 40.319103 1.440793 2.477254 0.126024 -0.050483 156181.000000 0 0 1
2.774156 25.137618 -30.538244 39.650727 1.460882 2.449922 0.130123 -0.052856 -76463.100000 0 0 1
2.420656 26.658618 -30.415804 40.517436 1.480243 2.419894 0.137226 -0.055889 -191027.000000 0 0 1
3.522256 27.512018 -30.453764 41.191615 1.443463 2.402856 0.135553 -0.052979 -295450.000000 0 0 1
3.156256 28.756918 -30.041824 41.706516 1.461477 2.375052 0.123918 -0.053149 -407762.000000 0 0 1
4.347256 29.727618 -29.948294 42.420870 1.425589 2.354603 0.134464 -0.065432 -232079.000000 0 0 1
5.078556 29.503918 -28.783354 41.530162 1.400335 2.336537 0.128082 -0.072392 -364649.000000 0 0 1
5.979056 30.571118 -28.617174 42.299941 1.377656 2.313837 0.119709 -0.074528 -158379.000000 0 0 1
7.039356 30.432418 -27.459734 41.589922 1.343483 2.291948 0.132651 -0.068449 -273726.000000 0 0 1
8.203856 29.782118 -27.909324 41.631817 1.302000 2.305523 0.134780 -0.060079 274736.000000 0 0 1
9.417256 30.528718 -27.807944 42.355272 1.271585 2.287019 0.135297 -0.063665 423198.000000 0 0 1
9.502356 31.880218 -28.629544 43.889564 1.281116 2.281423 0.144287 -0.072421 -1595160.000000 0 0 1
8.767356 32.956818 -28.079004 44.175206 1.310793 2.259618 0.135124 -0.067261 66295.800000 0 0 1
8.545056 33.957018 -29.030654 45.484898 1.324272 2.263017 0.113341 -0.062022 -28310.600000 0 0 1
7.346456 33.742718 -29.984854 45.734373 1.356422 2.285814 0.088915 -0.041736 -334959.000000 0 0 1
7.598056 32.777818 -30.944934 45.713289 1.343014 2.314387 0.081403 -0.034814 130734.000000 0 0 1
6.403256 32.515318 -31.663404 45.834689 1.376354 2.333415 0.068334 -0.032001 95771.400000 0 0 1
6.603156 31.706718 -32.966484 46.213707 1.365474 2.365061 0.074438 -0.047331 -15401.800000 0 0 1
6.608656 32.595118 33.981941 47.548800 1.370758 0.774637 0.065381 -0.030096 198058.000000 0 0 1
6.442656 31.877918 32.742666 46.149665 1.371378 0.782024 0.056475 -0.015845 -146734.000000 0 0 1
5.859256 32.720818 31.562656 45.838674 1.393606 0.811296 0.043061 -0.008313 67499.200000 0 0 1
6.742556 33.727918 31.100626 46.371149 1.373487 0.835659 0.043367 -0.007023 406338.000000 0 0 1
6.038056 -33.204953 30.566926 45.534207 -1.390920 0.834841 0.031065 -0.005493 196851.000000 0 0 1
18.192820 -21.861182 29.311296 40.841670 -0.876729 0.770330 0.092495 -0.011327 -168724.000000 0 0 1
17.171020 -20.988082 29.725416 40.236101 -0.885097 0.739546 0.083610 -0.009060 792575.000000 0 0 1
15.833420 -21.514582 29.669616 39.923183 -0.936355 0.733004 0.081256 -0.005072 1087620.000000 0 0 1
15.335420 -21.938882 31.086936 41.023008 -0.960737 0.710873 0.087727 -0.018559 -704579.000000 0 0 1
15.987720 -23.102382 31.440956 42.164688 -0.965434 0.729256 0.112143 -0.022421 -2870.180000 0 0 1
15.913520 -23.293882 32.878274 43.322349 -0.971460 0.709141 0.111769 -0.027574 -3502.200000 0 0 1
16.912820 -24.299282 33.507159 44.712731 -0.962746 0.723660 0.109800 -0.029935 -249671.000000 0 0 1
16.657220 -25.642342 33.271855 45.188594 -0.994704 0.743227 0.119697 -0.036634 -83899.700000 0 0 1
17.464720 -26.530432 -33.986694 46.518552 -0.988615 2.390004 0.114791 -0.036662 193765.000000 0 0 1
17.053820 -28.032292 33.952056 47.216356 -1.024250 0.768327 0.096818 -0.018012 182434.000000 0 0 1
17.348320 -28.570722 32.694948 46.756924 -1.025095 0.796443 0.081627 -0.019002 231114.000000 0 0 1
16.817520 -29.920232 32.686874 47.397057 -1.058727 0.809805 0.095746 -0.029357 -122657.000000 0 0 1
17.269520 -30.721612 31.490966 47.262402 -1.058688 0.841560 0.082393 -0.028564 -75582.200000 0 0 1
18.604820 -31.141792 31.697966 48.173764 -1.032274 0.852647 0.079452 -0.031631 -38300.500000 0 0 1
19.224120 -31.360072 30.464986 47.761242 -1.020864 0.879080 0.052195 -0.023565 -792170.000000 0 0 1
20.565720 -32.062762 30.418486 48.746834 -1.000476 0.896933 0.032442 -0.024217 -468524.000000 0 0 1
21.661720 -31.246162 30.799016 48.929869 -0.964608 0.889948 0.035508 -0.026585 336180.000000 0 0 1
22.845720 -32.027692 30.866926 50.004671 -0.951192 0.905515 0.049602 -0.033272 557262.000000 0 0 1
24.094420 -31.165672 31.297406 50.312700 -0.912670 0.899428 0.046306 -0.040617 394562.000000 0 0 1
24.870620 -30.747502 30.199066 49.758820 -0.890672 0.918631 0.041406 -0.030107 -23108.300000 0 0 1
25.623920 -29.587242 30.562876 49.659637 -0.857060 0.907843 0.027956 -0.021380 778378.000000 0 0 1
26.814420 -29.204302 29.589446 49.471605 -0.828035 0.929656 0.033350 -0.018746 848531.000000 0 0 1
27.966120 -29.991572 29.862536 50.728388 -0.820331 0.941378 0.037403 -0.017264 52870.400000 0 0 1
28.981320 -29.871992 28.891006 50.665008 -0.800531 0.964003 0.038576 -0.036081 -53552.200000 0 0 1
30.108620 -30.900002 29.081906 52.029764 -0.798369 0.977680 0.040090 -0.016495 -95641.200000 0 0 1
29.675820 -32.235982 29.020946 52.555001 -0.826726 0.985794 0.036095 -0.019852 1380170.000000 0 0 1
30.798120 -33.163992 29.335026 53.934389 -0.822370 0.995716 0.052013 -0.017889 927280.000000 0 0 1
30.308220 33.556544 29.906476 54.212795 0.836217 0.986455 0.038858 -0.010584 -645126.000000 0 0 1
29.709820 33.544115 31.210246 54.607330 0.845942 0.962416 0.042981 -0.010168 48432.300000 0 0 1
28.504420 -33.850332 31.394806 54.258463 -0.870923 0.953766 0.030034 -0.005761 -304689.000000 0 0 1
27.271920 33.921972 30.507196 53.152110 0.893645 0.959463 0.034361 -0.010963 -863835.000000 0 0 1
26.756820 32.676646 30.719896 52.224541 0.884675 0.941931 0.027705 -0.005686 469735.000000 0 0 1
25.388720 32.513506 30.304556 51.186730 0.907831 0.937209 0.031090 -0.006760 968886.000000 0 0 1
24.891320 31.127799 30.536046 50.209240 0.896269 0.917036 0.036827 -0.009324 -159711.000000 0 0 1
24.962520 30.311419 29.374506 49.038466 0.881869 0.928533 0.030284 -0.013071 95284.900000 0 0 1
24.389620 29.018249 29.522946 48.047026 0.871848 0.909096 0.076145 -0.033530 194543.000000 0 0 1
23.736220 28.495519 28.140846 46.554376 0.876266 0.921693 0.071879 -0.033770 236198.000000 0 0 1
22.558420 29.186399 27.784106 46.181000 0.912794 0.925250 0.085436 -0.040257 42529.300000 0 0 1
21.888720 28.635839 26.677996 44.842422 0.918154 0.933621 0.086031 -0.031912 117030.000000 0 0 1
20.636520 29.382899 26.170426 44.430979 0.958508 0.940959 0.104394 -0.030650 -19938.900000 0 0 1
20.790820 30.669229 25.586386 45.028024 0.975054 0.966440 0.086963 -0.034917 133367.000000 0 0 1
19.530920 31.130379 25.126016 44.518244 1.010479 0.971092 0.093138 -0.035980 -231655.000000 0 0 1
19.631020 32.534595 24.493086 45.208275 1.027889 0.998239 0.101939 -0.034892 -436760.000000 0 0 1
20.349920 32.688423 23.322256 45.017551 1.013966 1.026203 0.104153 -0.027846 -380241.000000 0 0 1
21.639820 33.205823 23.529916 46.093009 0.993236 1.035044 0.087917 -0.016114 -326515.000000 0 0 1
22.366420 33.499287 22.235416 46.009485 0.982100 1.066400 0.090972 -0.022278 -306155.000000 0 0 1
21.779020 -33.388612 21.735416 45.404333 -0.992814 1.071614 0.088981 -0.011004 447095.000000 0 0 1
22.294420 -33.077912 20.433116 44.818541 -0.977736 1.097405 0.097776 -0.015256 160346.000000 0 0 1
21.683820 -31.863262 19.600816 43.239421 -0.973259 1.100322 0.077180 -0.010510 39578.700000 0 0 1
22.151220 -30.605152 20.170416 42.827533 -0.944292 1.080408 0.075843 -0.003660 386661.000000 0 0 1
21.672220 -29.406132 19.572016 41.442364 -0.935669 1.078931 0.082386 -0.006101 57829.800000 0 0 1
22.510420 -28.887652 18.346916 40.961259 -0.908843 1.106371 0.074354 -0.006604 -68872.500000 0 0 1
22.339920 -29.697942 17.213616 40.955444 -0.925864 1.137019 0.056208 -0.010353 144440.000000 0 0 1
22.742620 -29.019042 16.051916 40.211883 -0.906065 1.160170 0.052391 -0.012461 -347544.000000 0 0 1
22.226420 -29.584542 14.698616 39.815929 -0.926473 1.192687 0.056655 -0.020642 76025.300000 0 0 1
22.943920 -30.774322 14.293116 40.960658 -0.930147 1.214349 0.070116 -0.015260 256605.000000 0 0 1
22.845220 -31.096722 12.964216 40.706033 -0.937192 1.246667 0.064759 -0.020054 -540305.000000 0 0 1
21.478120 -31.477482 12.385216 40.069129 -0.972026 1.256554 0.066260 -0.016476 -145776.000000 0 0 1
20.763820 -32.564592 13.056016 40.768228 -1.003174 1.244803 0.067599 -0.017668 831613.000000 0 0 1
19.632420 -32.943092 12.261916 40.262064 -1.033360 1.261328 0.072112 -0.006098 430855.000000 0 0 1
18.532120 -33.781842 12.940416 40.646115 -1.069042 1.246789 0.075352 -0.001707 343877.000000 0 0 1
17.860620 -33.139152 14.041416 40.179180 -1.076470 1.213791 0.073601 -0.003498 441196.000000 0 0 1
18.375820 -33.618032 15.296016 41.253011 -1.070563 1.190942 0.050083 -0.003291 -418161.000000 0 0 1
18.408220 -32.415342 16.306216 40.687954 -1.054325 1.158447 0.060862 -0.002289 1454750.000000 0 0 1
17.095720 -32.059212 16.828916 40.040843 -1.080900 1.137027 0.084337 -0.003331 2068860.000000 0 0 1
16.176820 -33.023442 17.443216 40.700160 -1.115295 1.127877 0.085615 -0.000919 -165428.000000 0 0 1
16.710420 -33.729512 18.720616 42.040214 -1.110816 1.109284 0.071866 -0.011542 275112.000000 0 0 1
17.635220 33.288365 18.342116 41.899278 1.083616 1.117683 0.067353 -0.008350 580784.000000 0 0 1
18.329720 32.803521 19.496416 42.333909 1.061243 1.092194 0.055582 -0.012088 408779.000000 0 0 1
19.136120 31.518739 19.123916 41.537287 1.025147 1.092347 0.072733 -0.015505 55026.400000 0 0 1
18.360620 30.354129 18.971216 40.229250 1.026796 1.079717 0.058969 -0.018572 88117.200000 0 0 1
19.188920 29.216749 18.644916 39.616486 0.989671 1.080786 0.059229 -0.024805 159529.000000 0 0 1
18.464420 27.908559 18.402516 38.189987 0.986307 1.068012 0.063850 -0.024388 -175427.000000 0 0 1
17.870220 27.287089 19.529116 38.017317 0.990987 1.031316 0.069780 -0.027388 70391.500000 0 0 1
17.500120 25.956139 19.217416 36.732607 0.977583 1.020229 0.061811 -0.024436 -676897.000000 0 0 1
17.328220 25.065439 20.531216 36.743357 0.965920 0.977890 0.066674 -0.019611 600959.000000 0 0 1
16.175020 25.310749 21.352716 36.853816 1.002152 0.952817 0.066712 -0.014648 566121.000000 0 0 1
15.123220 24.398629 21.107516 35.630494 1.015917 0.936761 0.072348 -0.016369 857263.000000 0 0 1
13.727720 24.824659 21.694516 35.712267 1.065663 0.917911 0.081899 -0.028604 647816.000000 0 0 1
13.073220 25.943579 21.159816 35.940453 1.104026 0.941289 0.094725 -0.026175 -54612.800000 0 0 1
11.936920 26.258389 21.944916 36.243239 1.144128 0.920415 0.075610 -0.024416 62096.900000 0 0 1
11.025920 27.322059 21.305116 36.358958 1.187230 0.944725 0.061132 -0.024105 -147809.000000 0 0 1
11.422920 28.627759 21.668116 37.676769 1.191139 0.958063 0.064454 -0.027289 62165.100000 0 0 1
11.165520 29.590349 20.653116 37.773123 1.209979 0.992298 0.066616 -0.031548 -267573.000000 0 0 1
11.839320 30.931619 20.958516 39.194310 1.205242 1.006604 0.073909 -0.031484 -167607.000000 0 0 1
11.300120 31.848539 21.937516 40.289909 1.229845 0.995014 0.066268 -0.037256 -243789.000000 0 0 1
11.611420 31.650349 23.288806 40.974848 1.219176 0.966275 0.065010 -0.034144 49929.700000 0 0 1
10.802120 32.603991 24.199536 42.015754 1.250865 0.957014 0.049269 -0.032939 -20260.700000 0 0 1
9.489320 32.186920 24.461506 41.526020 1.284099 0.940896 0.038834 -0.032749 -267520.000000 0 0 1
8.947420 32.788707 25.653496 42.582361 1.304401 0.924236 0.048356 -0.026820 -241038.000000 0 0 1
7.507620 32.355922 25.996406 42.179179 1.342799 0.906719 0.076613 -0.035634 -274026.000000 0 0 1
6.446020 33.129980 25.422666 42.254689 1.378630 0.925227 0.061948 -0.031752 669287.000000 0 0 1
6.036820 32.740165 24.094336 41.096212 1.388459 0.944324 0.059554 -0.039708 -266780.000000 0 0 1
5.096320 31.523219 24.149706 40.036160 1.410514 0.923293 0.056860 -0.038983 -1109380.000000 0 0 1
5.770120 30.386679 24.563486 39.496954 1.383141 0.899619 0.037014 -0.023710 -404694.000000 0 0 1
5.013220 29.203569 24.682156 38.564098 1.400789 0.876260 0.045275 -0.017692 -387156.000000 0 0 1
5.967420 28.054099 25.097236 38.111859 1.361209 0.851952 0.046991 -0.012831 444812.000000 0 0 1
6.894020 27.593299 24.091486 37.273548 1.325964 0.868015 0.057867 -0.015997 917589.000000 0 0 1
8.098020 28.323569 23.905926 37.938052 1.292315 0.889075 0.062824 -0.024057 49909.600000 0 0 1
9.261520 28.016339 24.880826 38.597235 1.251530 0.870261 0.045436 -0.024373 -468014.000000 0 0 1
8.946520 28.197649 26.309396 39.589543 1.263564 0.843899 0.041754 -0.023916 512572.000000 0 0 1
10.115320 28.039599 27.108496 40.291555 1.224576 0.832798 0.069665 -0.022386 515246.000000 0 0 1
11.124420 29.223539 27.181566 41.431938 1.207067 0.855219 0.071422 -0.033017 -129448.000000 0 0 1
10.659520 30.397949 27.788146 42.542235 1.233529 0.859007 0.065636 -0.038530 401410.000000 0 0 1
11.692520 31.395409 27.752836 43.504099 1.214283 0.878981 0.054440 -0.026344 111557.000000 0 0 1
11.425320 32.684817 28.567396 44.887986 1.234513 0.880955 0.044817 -0.022045 -335750.000000 0 0 1
11.376720 32.363211 29.946236 45.536625 1.232757 0.853128 0.054405 -0.035488 231666.000000 0 0 1
10.188020 31.792979 30.478276 45.205249 1.260686 0.830889 0.062449 -0.042275 -125208.000000 0 0 1
10.216820 31.532369 31.969826 46.051531 1.257460 0.803463 0.089362 -0.038511 25540.500000 0 0 1
10.869320 30.331789 32.400322 45.693987 1.226704 0.782615 0.066639 -0.040354 343742.000000 0 0 1
10.944620 30.255529 33.822815 46.681523 1.223702 0.760424 0.091270 -0.038477 -153377.000000 0 0 1
11.121520 28.815809 -33.739564 45.742729 1.202459 2.400297 0.083642 -0.035649 -848399.000000 0 0 1
12.333320 28.250429 33.969230 45.870536 1.159166 0.736914 0.083333 -0.035231 -726049.000000 0 0 1
12.227220 26.893289 -33.747594 44.851466 1.144076 2.422540 0.084692 -0.031117 693016.000000 0 0 1
13.611320 26.212179 34.002293 45.038898 1.091848 0.715212 0.105800 -0.030009 426753.000000 0 0 1
13.598320 24.813309 -33.807614 44.085932 1.069471 2.444726 0.066397 -0.025395 -200241.000000 0 0 1
13.660920 24.407459 -32.476874 42.861313 1.060534 2.430608 0.059647 -0.022399 -459784.000000 0 0 1
13.673720 22.847489 -32.264224 41.832506 1.031497 2.451633 0.045544 -0.038308 -206190.000000 0 0 1
14.849520 22.205589 -32.683654 42.211583 0.981367 2.456376 0.035008 -0.015745 -146099.000000 0 0 1
14.693220 20.864389 -32.667764 41.453544 0.957241 2.478443 0.031991 -0.012360 -676092.000000 0 0 1
15.957220 20.210989 -33.147994 41.975070 0.902471 2.481127 0.048035 -0.019860 -59580.800000 0 0 1
17.072220 20.359389 -32.252674 41.787563 0.872991 2.452502 0.045928 -0.017550 412857.000000 0 0 1
18.282420 19.940089 -32.862604 42.565301 0.828740 2.452859 0.049976 -0.021988 322449.000000 0 0 1
19.450320 20.124989 -31.828444 42.383723 0.802444 2.420310 0.040263 -0.014299 274205.000000 0 0 1
20.101120 21.384589 -31.804784 43.277015 0.816326 2.396333 0.037330 -0.013240 -215757.000000 0 0 1
21.050220 21.496089 -30.795594 43.053017 0.795877 2.367842 0.035748 -0.000742 96300.800000 0 0 1
20.383120 21.989389 -29.477434 42.046688 0.823288 2.347685 0.033123 -0.008610 268186.000000 0 0 1
19.781520 23.252639 -29.556564 42.492167 0.865884 2.340019 0.028310 0.004057 -83657.700000 0 0 1
19.359920 23.956699 -28.426044 41.913840 0.891123 2.316109 0.036908 0.009895 -157270.000000 0 0 1
20.544920 24.531139 -27.598724 42.255889 0.873602 2.282511 0.039128 0.004510 910757.000000 0 0 1
21.377620 25.487229 -28.306384 43.678975 0.872865 2.275824 0.040143 0.007839 341823.000000 0 0 1
20.715620 26.731719 -28.534364 44.248522 0.911520 2.271644 0.034392 0.007772 -290689.000000 0 0 1
21.541420 27.632809 -29.487194 45.794100 0.908644 2.270392 0.030226 0.005521 -200272.000000 0 0 1
21.642820 27.267459 -30.884504 46.537927 0.899894 2.296473 0.036786 0.003366 208757.000000 0 0 1
22.280920 26.037109 -31.233414 46.366978 0.862981 2.309883 0.036693 0.007742 882913.000000 0 0 1
23.777320 25.782379 -30.827764 46.695215 0.825834 2.291869 0.055836 -0.000123 764964.000000 0 0 1
24.743620 26.715339 -31.263164 47.993140 0.823696 2.280236 0.059874 0.003051 -883707.000000 0 0 1
26.021020 26.338289 -30.917734 48.235933 0.791458 2.266556 0.070080 -0.007961 -1008070.000000 0 0 1
27.054720 27.390589 -31.342454 49.644251 0.791567 2.254078 0.056434 0.000589 -315007.000000 0 0 1
27.150620 28.418779 -30.387154 49.680603 0.808215 2.228941 0.040329 0.002453 -132093.000000 0 0 1
28.286920 29.196829 -30.660654 50.918370 0.801226 2.216992 0.042036 -0.005183 12184.000000 0 0 1
28.412020 30.425729 -29.760974 51.173074 0.819610 2.191460 0.035283 -0.005731 -272635.000000 0 0 1
28.821320 30.036009 -28.474204 50.434221 0.806033 2.170722 0.052398 -0.008511 417360.000000 0 0 1
28.392820 31.103359 -27.607434 50.356148 0.830925 2.151059 0.041518 -0.010290 -917821.000000 0 0 1
28.866020 30.968409 -26.126654 49.748282 0.820520 2.123719 0.058260 -0.014138 -107471.000000 0 0 1
28.352320 29.973889 -25.243474 48.368596 0.813193 2.119871 0.040283 -0.008619 1375640.000000 0 0 1
26.898320 29.939449 -25.164084 47.467056 0.838853 2.129559 0.032525 -0.002809 972484.000000 0 0 1
26.385220 29.364839 -23.844364 46.119707 0.838793 2.114151 0.032604 -0.001171 -227876.000000 0 0 1
26.100720 30.444859 -22.955464 46.207038 0.862073 2.090699 0.070369 -0.007857 205581.000000 0 0 1
25.887220 30.006999 -21.596664 45.132960 0.858972 2.069756 0.048106 -0.004594 -168353.000000 0 0 1
3.420120 -26.043642 -19.406664 32.658646 -1.440221 2.207101 0.060357 -0.010375 -292325.000000 0 0 1
3.339920 -27.219252 -18.633164 33.154752 -1.448702 2.167605 0.071661 -0.006333 214340.000000 0 0 1
2.909820 -26.972402 -17.293664 32.172167 -1.463331 2.138307 0.073950 -0.014305 -199580.000000 0 0 1
2.787420 -28.307972 -16.471464 32.869745 -1.472645 2.095681 0.068981 -0.013751 750628.000000 0 0 1
4.105420 -28.788942 -16.164964 33.271064 -1.429147 2.078139 0.064274 -0.007393 743135.000000 0 0 1
4.091420 -29.729572 -15.055264 33.574516 -1.434034 2.035786 0.058262 -0.008965 1104460.000000 0 0 1
5.533120 -30.260282 -14.694764 34.091585 -1.389943 2.016439 0.080281 -0.011047 1746260.000000 0 0 1
6.479620 -29.377822 -14.018664 33.189831 -1.353710 2.006864 0.064471 -0.005140 1465400.000000 0 0 1
7.810220 -29.932062 -13.916964 33.920639 -1.315556 1.993558 0.065825 -0.006295 1136290.000000 0 0 1
8.239820 -30.540532 -12.574164 34.040099 -1.307271 1.949152 0.073001 -0.014972 -763137.000000 0 0 1
8.612120 -29.668062 -11.535964 32.976370 -1.288278 1.928181 0.068769 -0.017644 72083.400000 0 0 1
8.885320 -30.269412 -10.301264 33.185874 -1.285276 1.886422 0.076819 -0.016871 -99854.600000 0 0 1
10.008820 -31.333582 -10.204864 34.439935 -1.261612 1.871622 0.076740 -0.013999 -631611.000000 0 0 1
11.266420 -30.733622 -10.100964 34.256638 -1.219425 1.870107 0.064796 -0.020385 -488787.000000 0 0 1
12.263920 -31.714972 -9.980864 35.438127 -1.201815 1.856301 0.079496 -0.018820 422654.000000 0 0 1
13.503820 -31.381252 -9.079864 35.349400 -1.164433 1.830569 0.087164 -0.023332 1008830.000000 0 0 1
14.449720 -30.474522 -9.705064 35.095287 -1.128036 1.850983 0.074980 -0.033610 816237.000000 0 0 1
15.546520 -30.222622 -8.853564 35.121030 -1.095695 1.825633 0.076551 -0.026323 660079.000000 0 0 1
16.740620 -29.364352 -9.431664 35.092304 -1.052652 1.842909 0.092514 -0.037759 746677.000000 0 0 1
16.450220 -27.954042 -9.510664 33.800754 -1.038895 1.856022 0.093766 -0.035383 326699.000000 0 0 1
15.752020 -27.565612 -10.688964 33.499896 -1.051644 1.895549 0.079648 -0.032791 -17146.800000 0 0 1
15.345420 -26.052282 -10.756964 32.092298 -1.038486 1.912601 0.074827 -0.025620 -220465.000000 0 0 1
14.388920 -25.630622 -9.772964 30.975484 -1.059246 1.891787 0.064423 -0.024579 895666.000000 0 0 1
13.678020 -24.375782 -10.038664 29.699188 -1.059447 1.915599 0.060566 -0.013437 944699.000000 0 0 1
12.885320 -24.166982 -11.315564 29.633030 -1.080959 1.962600 0.043226 -0.007694 -201756.000000 0 0 1
13.899420 -23.915582 -12.257764 30.255607 -1.044325 1.987929 0.044706 -0.010780 24919.500000 0 0 1
13.385320 -23.845682 -13.604464 30.542835 -1.059295 2.032442 0.050886 -0.011544 -46374.200000 0 0 1
14.220220 -23.168582 -14.685264 30.897489 -1.020312 2.066090 0.061955 -0.016112 269054.000000 0 0 1
15.324320 -23.933282 -15.184264 32.221090 -1.001275 2.061506 0.063790 -0.019763 541909.000000 0 0 1
15.914420 -23.210782 -16.253864 32.499189 -0.969768 2.094547 0.070854 -0.029926 -749852.000000 0 0 1
16.759620 -24.069982 -17.211364 34.007058 -0.962567 2.101467 0.069833 -0.024047 78830.900000 0 0 1
18.072220 -24.337482 -16.787964 34.651896 -0.932069 2.076559 0.090735 -0.024356 -232434.000000 0 0 1
19.031320 -23.354882 -17.163364 34.673084 -0.887051 2.088637 0.094479 -0.029504 509348.000000 0 0 1
20.461620 -23.748082 -16.639164 35.489591 -0.859600 2.058781 0.092671 -0.021852 572950.000000 0 0 1
21.071020 -24.751082 -17.400964 36.870008 -0.865538 2.062303 0.098264 -0.017720 -97881.500000 0 0 1
22.389320 -25.004482 -16.933564 37.593236 -0.840522 2.038056 0.095500 -0.003509 178897.000000 0 0 1
23.148820 -25.987712 -17.810364 39.095244 -0.843110 2.043801 0.105871 -0.009968 -242252.000000 0 0 1
23.733520 -25.490012 -19.023964 39.685412 -0.821067 2.070732 0.117225 -0.010276 430804.000000 0 0 1
24.307220 -26.619832 -19.751264 41.104365 -0.830777 2.072038 0.111099 -0.017280 45782.200000 0 0 1
25.649220 -26.300892 -20.429064 42.035296 -0.797942 2.078301 0.100120 -0.023527 -193537.000000 0 0 1
25.601620 -25.359602 -21.524164 41.974302 -0.780649 2.109232 0.109013 -0.024619 -109906.000000 0 0 1
26.321220 -24.195282 -21.239164 41.585098 -0.743339 2.106841 0.113274 -0.026723 -583657.000000 0 0 1
25.360920 -23.005582 -21.064764 40.201460 -0.736739 2.122314 0.117983 -0.018628 117855.000000 0 0 1
24.877920 -22.313382 -22.174864 40.106390 -0.731108 2.156638 0.126650 -0.014814 462963.000000 0 0 1
24.072120 -23.063482 -23.123164 40.571812 -0.764003 2.177219 0.105164 -0.014023 92486.200000 0 0 1
23.264420 -22.156882 -24.071664 40.144809 -0.761019 2.213824 0.108270 -0.004311 75632.100000 0 0 1
24.132820 -21.493782 -24.967964 40.838400 -0.727623 2.228605 0.090168 0.001397 140503.000000 0 0 1
23.430120 -20.530582 -25.746754 40.414981 -0.719536 2.261474 0.082798 0.002169 407669.000000 0 0 1
24.161120 -20.003782 -27.057924 41.425141 -0.691543 2.282568 0.070803 0.001291 446656.000000 0 0 1
23.356820 -19.055182 -27.748954 40.971276 -0.684319 2.314853 0.069711 0.000431 456241.000000 0 0 1
23.825720 -18.957982 -29.062784 42.091750 -0.672110 2.332925 0.073951 -0.004487 -124354.000000 0 0 1
23.036620 -17.791882 -29.668404 41.562617 -0.657640 2.365740 0.110473 -0.010486 -906179.000000 0 0 1
21.730520 -18.170682 -29.924274 41.204992 -0.696417 2.383617 0.100638 -0.015292 -831435.000000 0 0 1
21.124720 -17.230782 -30.744384 41.089790 -0.684223 2.416178 0.110951 -0.021841 933164.000000 0 0 1
19.684120 -17.616482 -31.281064 40.942765 -0.730023 2.440316 0.092316 -0.020789 847334.000000 0 0 1
19.751020 -18.225382 -32.541504 42.204465 -0.745246 2.451276 0.096240 -0.024434 791997.000000 0 0 1
18.539620 -18.825882 -33.005374 42.278672 -0.793059 2.466522 0.091888 -0.027848 371389.000000 0 0 1
18.898020 -19.598482 33.749800 43.362249 -0.803592 0.678807 0.115800 -0.021919 38224.300000 0 0 1
19.716920 -20.725882 33.957597 44.400873 -0.810341 0.700072 0.112163 -0.019085 165126.000000 0 0 1
19.682620 -21.579282 32.864845 43.967817 -0.831332 0.726543 0.101582 -0.027781 587719.000000 0 0 1
20.583320 -22.918182 32.984987 45.132311 -0.839020 0.751229 0.086707 -0.023089 374706.000000 0 0 1
20.116120 -23.776882 33.981401 46.094837 -0.868608 0.741870 0.107904 -0.022792 26313.300000 0 0 1
20.521320 -23.502582 -32.711374 45.205419 -0.853014 2.379824 0.108649 -0.020220 -174843.000000 0 0 1
19.897720 -24.469182 -31.665094 44.691591 -0.888073 2.358202 0.112231 -0.024316 2384.180000 0 0 1
20.199420 -25.819932 -31.911284 45.749487 -0.906930 2.342730 0.114081 -0.035563 311262.000000 0 0 1
21.278220 -26.311882 -31.113104 45.968501 -0.890778 2.314251 0.080220 -0.031018 335907.000000 0 0 1
21.311120 -27.844292 -30.983524 46.791529 -0.917532 2.294495 0.081159 -0.040773 241221.000000 0 0 1
20.193520 -28.354322 -30.256664 46.121704 -0.951939 2.286327 0.095591 -0.046492 236283.000000 0 0 1
20.135920 -29.764362 -30.320444 47.018101 -0.976009 2.271646 0.095575 -0.043379 -910452.000000 0 0 1
18.909020 -30.403302 -29.709954 46.525189 -1.014401 2.263445 0.121078 -0.045593 -762356.000000 0 0 1
17.765720 -30.494342 -30.518624 46.657391 -1.043276 2.283789 0.126870 -0.052107 -378535.000000 0 0 1
17.741220 -31.308122 -31.695604 47.953735 -1.055249 2.292897 0.125386 -0.051603 -721342.000000 0 0 1
16.357620 -31.878612 -32.049494 48.072734 -1.096706 2.300552 0.125681 -0.050934 36693.900000 0 0 1
15.467320 -30.991432 -32.697344 47.632165 -1.107882 2.327399 0.126292 -0.044476 26593.500000 0 0 1
14.289320 -31.694252 -33.056914 47.973637 -1.147237 2.330993 0.098955 -0.036213 9504.800000 0 0 1
13.257220 -30.900122 -33.873034 47.727915 -1.165513 2.359884 0.094275 -0.029257 -45547.400000 0 0 1
12.583720 -29.910112 -33.104244 46.355753 -1.172558 2.366183 0.115982 -0.036067 86008.500000 0 0 1
11.654120 -29.276472 -33.981314 46.342853 -1.191954 2.393899 0.089437 -0.025831 369160.000000 0 0 1
10.747020 -28.254772 -33.201924 44.902097 -1.207334 2.403019 0.094878 -0.035763 919598.000000 0 0 1
9.711420 -28.855132 -32.395174 44.456469 -1.246147 2.387210 0.083159 -0.021787 1218200.000000 0 0 1
8.611620 -27.921082 -32.197484 43.479016 -1.271626 2.404654 0.043225 -0.014513 1293440.000000 0 0 1
7.395620 -28.473342 -31.391644 43.021643 -1.316673 2.388637 0.021897 -0.012678 512066.000000 0 0 1
6.501220 -29.399052 -32.016224 43.950071 -1.353162 2.386880 0.029365 -0.008905 247585.000000 0 0 1
6.959220 -30.713252 -32.270034 45.089796 -1.347972 2.368399 0.032584 -0.006804 205731.000000 0 0 1
5.748220 -31.682612 -32.549544 45.785399 -1.391317 2.361595 0.061815 -0.025529 663616.000000 0 0 1
5.018320 -31.938032 -31.381364 45.055648 -1.414944 2.341308 0.066697 -0.038808 -63637.500000 0 0 1
3.947220 -32.821862 -31.651624 45.767680 -1.451109 2.334459 0.079957 -0.061045 -176272.000000 0 0 1
2.982420 -33.080352 -30.433874 45.049142 -1.480883 2.312535 0.070705 -0.068713 1362040.000000 0 0 1
1.950420 -32.081282 -30.149944 44.068491 -1.510075 2.324249 0.061651 -0.053286 251783.000000 0 0 1
0.803020 -32.128632 -30.912474 44.592319 -1.545808 2.336749 0.045587 -0.022240 -1180270.000000 0 0 1
0.005720 -30.862412 -30.686274 43.521672 -1.570611 2.353333 0.040651 -0.010501 -129823.000000 0 0 1
-0.701980 -30.875952 -29.412674 42.648829 1.548065 2.331799 0.011653 -0.018361 55141.300000 0 0 1
-1.440580 -29.685922 -29.306004 41.739323 1.522307 2.349166 0.067023 -0.008736 111307.000000 0 0 1
-2.210780 -29.591442 -27.948104 40.763188 1.496225 2.326253 0.073735 -0.009811 132765.000000 0 0 1
-1.336380 -29.718402 -26.857844 40.078836 1.525859 2.305174 0.048676 -0.007309 247700.000000 0 0 1
-2.091480 -29.663702 -25.638714 39.263891 1.500406 2.282315 0.065242 -0.015143 474672.000000 0 0 1
-1.115080 -29.957922 -24.464564 38.694126 1.533592 2.255257 0.033388 -0.010210 204920.000000 0 0 1
-1.685980 -30.034042 -23.154764 37.960892 1.514720 2.226811 0.069872 -0.016128 -389405.000000 0 0 1
-0.842680 -30.678552 -22.246564 37.905056 1.543335 2.198024 0.045129 -0.011891 816.166000 0 0 1
-1.371980 -30.646472 -20.752064 37.036965 1.526058 2.165553 0.011652 0.004079 -31956.100000 0 0 1
-1.458180 -29.340432 -20.236464 35.672142 1.521139 2.174008 0.003455 0.001445 752895.000000 0 0 1
-0.202480 -28.886202 -19.691264 34.959971 1.563787 2.169112 0.027825 -0.009736 536109.000000 0 0 1
-0.235380 -27.464542 -19.024264 33.410763 1.562226 2.176579 0.026321 -0.014113 190661.000000 0 0 1
-1.158080 -27.442802 -17.903864 32.787145 1.528622 2.148454 0.023619 -0.015619 641902.000000 0 0 1
-0.895980 -26.376912 -17.000964 31.393902 1.536841 2.143061 0.035903 -0.013813 -169609.000000 0 0 1
-2.004880 -26.258772 -15.937364 30.782174 1.494593 2.115011 0.033988 -0.011744 -410380.000000 0 0 1
-1.965780 -24.972982 -15.367564 29.388368 1.492242 2.121061 0.033190 -0.009391 -268569.000000 0 0 1
-2.959180 -24.837582 -14.410364 28.867297 1.452214 2.093464 0.036862 -0.010528 -555490.000000 0 0 1
-2.757080 -23.547682 -13.602364 27.333480 1.454242 2.091678 0.034789 -0.010201 435055.000000 0 0 1
-1.582580 -23.638782 -12.793864 26.925444 1.503948 2.065941 0.040202 -0.008229 103948.000000 0 0 1
-1.384980 -22.463482 -12.049164 25.528583 1.509220 2.062340 0.045903 -0.008812 -150312.000000 0 0 1
-0.194780 -22.466282 -11.090064 25.055165 1.562127 2.029321 0.048821 -0.011683 -134169.000000 0 0 1
0.318420 -21.179782 -10.745064 23.751652 -1.555763 2.040242 0.043147 -0.005925 60034.800000 0 1 0
1.555820 -21.440482 -10.091464 23.747684 -1.498359 2.009698 0.034788 -0.007654 307428.000000 0 1 0
2.154420 -20.190682 -9.413564 22.381250 -1.464495 2.004903 0.035069 -0.004113 -668055.000000 0 1 0
2.456920 -19.287682 -10.456664 22.076978 -1.444096 2.064222 0.027655 0.003799 56577.500000 0 1 0
3.183820 -18.103482 -10.128764 20.987249 -1.396709 2.074434 0.014861 -0.005144 710650.000000 0 1 0
4.676020 -18.290982 -9.679064 21.215784 -1.320511 2.044539 0.035328 -0.024348 335942.000000 0 1 0
4.732220 -18.813782 -8.373664 21.129850 -1.324379 1.978275 0.045322 -0.029410 -291700.000000 0 1 0
5.874120 -19.616882 -8.209864 22.061941 -1.279851 1.952097 0.050468 -0.024646 -439682.000000 0 1 0
5.602820 -20.783882 -7.234764 22.709099 -1.307480 1.895032 0.055998 -0.022530 -304813.000000 0 1 0
4.710420 -21.704982 -7.800964 23.540377 -1.357090 1.908569 0.054199 -0.028080 -76845.100000 0 1 0
4.413620 -22.726982 -6.930064 24.166538 -1.378982 1.861642 0.065654 -0.024376 -243921.000000 0 1 0
3.463820 -23.830382 -7.379164 25.186052 -1.426454 1.868145 0.053304 -0.021117 -392601.000000 0 0 1
3.999920 -24.695682 -8.356364 26.376218 -1.410222 1.893165 0.057952 -0.018525 -171065.000000 0 0 1
3.092320 -25.504342 -9.073464 27.246315 -1.450138 1.910297 0.047712 -0.015399 -100988.000000 0 0 1
3.809620 -26.358232 -10.111564 28.487073 -1.427258 1.933660 0.037596 -0.013150 -18858.900000 0 0 1
4.755620 -27.291782 -9.645764 29.334247 -1.398278 1.905853 0.057287 -0.018600 120798.000000 0 0 1
5.319320 -28.038412 -10.742164 30.493308 -1.383309 1.930802 0.085742 -0.011931 145920.000000 0 0 1
5.075720 -29.561272 -10.700664 31.845501 -1.400753 1.913482 0.078941 -0.017288 67631.900000 0 0 1
3.767220 -29.967392 -11.067864 32.167284 -1.445742 1.922047 0.065829 -0.010674 377778.000000 0 0 1
3.808620 -31.371142 -10.989664 33.457837 -1.449982 1.905472 0.081388 -0.013484 -48173.000000 0 0 1
2.427820 -31.988602 -11.259364 33.999092 -1.495045 1.908336 0.070279 -0.016077 -7092.270000 0 0 1
2.012320 -31.939472 -12.669664 34.419467 -1.507875 1.947757 0.065742 -0.015301 789326.000000 0 0 1
0.992620 -32.882252 -13.021664 35.380666 -1.540618 1.947701 0.053708 -0.012071 88088.300000 0 0 1
0.646720 -32.853762 -14.529164 35.928882 -1.551114 1.987105 0.046531 -0.000762 -44778.600000 0 0 1
-0.299280 -31.855952 -14.850064 35.148480 1.561402 2.006993 0.050325 -0.003395 7950.890000 0 0 1
-0.695780 -31.918402 -16.184764 35.794065 1.549001 2.039986 0.022200 -0.000613 823969.000000 0 0 1
-1.893080 -30.934742 -16.564064 35.141290 1.509677 2.061624 0.017689 0.006224 1735150.000000 0 0 1
-3.156080 -31.295562 -15.970964 35.276688 1.470289 2.040626 0.017230 -0.000719 324936.000000 0 0 1
-4.206280 -30.597242 -16.583764 35.055745 1.434180 2.063567 0.027827 0.003384 42112.700000 0 0 1
-5.573380 -30.738182 -15.893164 35.049837 1.391427 2.041423 0.042381 -0.004947 -261634.000000 0 0 1
-5.732880 -29.973162 -14.734264 33.887385 1.381812 2.020613 0.033470 -0.005932 109325.000000 0 0 1
-7.080880 -29.736882 -14.377364 33.780610 1.337032 2.010432 0.058149 -0.002037 356991.000000 0 0 1
-7.865180 -30.807942 -13.542764 34.560046 1.320838 1.973451 0.060772 -0.018913 53324.700000 0 0 1
-8.024480 -31.991202 -14.266464 35.935516 1.325033 1.979044 0.069716 -0.021500 -319253.000000 0 0 1
-8.784380 -32.922492 -13.568364 36.676373 1.310051 1.949750 0.083500 -0.025620 78648.600000 0 0 1
-8.879280 33.865441 -14.367864 37.843695 -1.314375 1.960229 0.115038 -0.027478 -146086.000000 0 0 1
-7.787280 33.072830 -14.015664 36.754491 -1.339550 1.962033 0.096997 -0.029275 -275247.000000 0 0 1
-7.864280 31.740369 -14.484464 35.764475 -1.327919 1.987771 0.118898 -0.042165 -662369.000000 0 0 1
-7.627880 -21.766382 -3.306464 23.300057 1.233727 1.713185 0.079067 -0.023721 221325.000000 0 1 0
-7.472980 -20.851882 -4.350764 22.573780 1.226672 1.764745 0.066889 -0.015358 350325.000000 0 1 0
-6.211980 -20.833482 -5.021064 22.312188 1.281017 1.797777 0.055446 -0.019229 393079.000000 0 1 0
-6.124780 -19.779382 -6.156764 21.601913 1.270506 1.859813 0.047964 -0.015832 95928.300000 0 1 0
-6.762580 -20.292082 -7.340164 22.613693 1.249110 1.901374 0.046369 -0.010362 20861.900000 0 1 0
-7.090180 -19.171782 -8.150164 22.005750 1.216571 1.950198 0.033527 -0.014038 -99643.200000 0 1 0
-8.091780 -19.456382 -9.283764 23.026419 1.176664 1.985784 0.045315 -0.015955 91984.700000 0 1 0
-7.490280 -20.211282 -10.323264 23.899163 1.215890 2.017451 0.056282 -0.009913 109416.000000 0 1 0
-8.478180 -20.711382 -11.213564 25.031678 1.182257 2.035295 0.079674 -0.009745 115180.000000 0 0 1
-7.918780 -21.443782 -12.431064 26.020650 1.217049 2.068875 0.075401 -0.012979 -536255.000000 0 0 1
-7.002380 -20.716682 -13.200064 25.543217 1.244846 2.113875 0.071318 -0.007536 -209423.000000 0 0 1
-6.769080 -21.399382 -14.385864 26.659090 1.264434 2.140786 0.050563 -0.007168 -571821.000000 0 0 1
-5.776180 -20.647782 -15.256864 26.314769 1.298021 2.189259 0.036099 0.003767 78571.600000 0 0 1
-4.491380 -20.653182 -14.599864 25.688177 1.356664 2.175295 0.029094 -0.001553 1577410.000000 0 0 1
-3.390480 -19.926482 -15.222364 25.303763 1.402261 2.216280 0.044158 0.001476 956246.000000 0 0 1
-3.525280 -18.436182 -15.470864 24.324228 1.381862 2.260135 0.062072 0.004175 -575188.000000 0 1 0
-4.590680 -18.015982 -16.347264 24.756474 1.321294 2.292045 0.060906 0.005836 413900.000000 0 1 0
-4.524580 -18.154682 -17.744064 25.785967 1.326548 2.329703 0.064901 0.000251 -115763.000000 0 0 1
-5.939780 -18.092082 -18.396364 26.476983 1.253575 2.338946 0.065408 0.006411 611089.000000 0 0 1
-6.842680 -19.082182 -17.924364 27.059837 1.226490 2.294811 0.049188 0.009548 358541.000000 0 0 1
-8.136180 -18.951482 -18.493764 27.701542 1.165275 2.301787 0.039921 0.009386 452865.000000 0 0 1
-9.173580 -19.875582 -17.819264 28.226220 1.138379 2.254027 0.066828 -0.004529 142707.000000 0 0 1
-8.770180 -21.215482 -18.114364 29.242827 1.178804 2.238834 0.066962 0.000269 714992.000000 0 0 1
-9.758980 -22.136082 -17.685164 29.966796 1.155567 2.202052 0.089785 -0.004371 251210.000000 0 0 1
-9.274180 -23.551982 -18.028764 31.076400 1.195668 2.189701 0.090869 -0.007367 -760310.000000 0 0 1
-9.184580 -23.737082 -19.394364 31.999171 1.201608 2.221931 0.080444 -0.008078 416114.000000 0 0 1
-8.248980 -24.736482 -19.769064 32.722395 1.248919 2.219489 0.092741 -0.023269 599918.000000 0 0 1
-6.724280 -24.441382 -19.631264 32.062184 1.302320 2.229747 0.067065 -0.013250 -283636.000000 0 0 1
-6.185180 -23.377982 -20.427964 31.655777 1.312150 2.272233 0.069448 -0.009820 249477.000000 0 0 1
-6.113280 -22.139682 -19.704264 30.262117 1.301386 2.279855 0.060666 -0.007347 -865645.000000 0 0 1
-5.041480 -21.975082 -18.633264 29.249261 1.345281 2.261462 0.061459 -0.005991 -545679.000000 0 0 1
-3.756080 -22.182882 -19.169364 29.557620 1.403064 2.276464 0.062631 -0.014999 264268.000000 0 0 1
-2.743380 -22.244582 -18.157364 28.845059 1.448088 2.251679 0.043699 -0.018644 292890.000000 0 0 1
-1.484080 -23.060182 -18.471764 29.583451 1.506528 2.245153 0.072748 -0.023129 -222288.000000 0 0 1
-0.570180 -22.282082 -19.169564 29.398784 1.545213 2.281085 0.100222 -0.024071 1155490.000000 0 0 1
0.765720 -22.868082 -19.374264 29.981621 -1.537325 2.273397 0.074328 -0.021562 1666630.000000 0 0 1
1.599520 -22.071282 -20.360164 30.070521 -1.498452 2.314585 0.080084 -0.022451 -290210.000000 0 0 1
1.273420 -22.166382 -21.714464 31.056208 -1.513411 2.345073 0.080517 -0.030532 -201736.000000 0 0 1
0.838920 -20.928482 -22.241364 30.551325 -1.530733 2.386196 0.106474 -0.022933 -339968.000000 0 0 1
0.698420 -21.032882 -23.723064 31.712043 -1.537602 2.415957 0.102150 -0.028052 96014.500000 0 0 1
0.201820 -19.900382 -24.447564 31.523790 -1.560655 2.458346 0.093926 -0.026394 196835.000000 0 0 1
-1.214280 -19.789882 -24.403064 31.442383 1.509515 2.459286 0.095656 -0.028888 185790.000000 0 0 1
-1.695880 -18.523282 -25.198104 31.319841 1.479497 2.505699 0.093477 -0.019784 -113130.000000 0 0 1
-1.183180 -17.352882 -24.663564 30.179692 1.502718 2.527374 0.098845 -0.024089 -174766.000000 0 0 1
-1.555480 -16.283682 -25.422504 30.230474 1.475561 2.569844 0.101216 -0.026592 -16282.900000 0 0 1
-1.021580 -14.872182 -24.934364 29.050782 1.502213 2.602749 0.099368 -0.023855 1562070.000000 0 0 1
0.405120 -14.742282 -25.196734 29.195452 -1.543323 2.612046 0.102798 -0.033416 1023320.000000 0 0 1
0.985620 -13.481682 -24.860564 28.297965 -1.497818 2.643569 0.094334 -0.034075 334578.000000 0 0 1
0.448020 -12.188082 -25.525974 28.290023 -1.534054 2.695862 0.088185 -0.026195 -388730.000000 0 0 1
1.245620 -11.085082 -25.231024 27.586866 -1.458897 2.725321 0.075824 -0.025315 -222680.000000 0 0 1
0.871420 -10.001782 -25.936614 27.811921 -1.483889 2.772269 0.067290 -0.023286 -968184.000000 0 0 1
1.838720 -8.808082 -25.658934 27.190883 -1.364998 2.804316 0.069369 -0.027067 993574.000000 0 0 1
3.192320 -8.905182 -26.120904 27.781195 -1.226588 2.794122 0.065899 -0.023827 492575.000000 0 0 1
3.322120 -9.213382 -27.469554 29.163321 -1.224731 2.799103 0.061056 -0.023109 -835342.000000 0 0 1
4.810220 -9.015082 -27.886414 29.699529 -1.080651 2.790366 0.039206 -0.017974 264428.000000 0 0 1
5.224620 -7.662582 -28.028424 29.522947 -0.972366 2.822045 0.032809 -0.021385 369168.000000 0 0 1
6.449120 -7.371382 -28.692134 30.317767 -0.852031 2.812637 0.043158 -0.018064 -111355.000000 0 0 1
7.728920 -7.433482 -27.844964 29.838480 -0.765916 2.773985 0.048519 -0.021042 -518913.000000 0 0 1
8.186320 -8.673282 -27.377984 29.862948 -0.814273 2.730758 0.037892 -0.017992 107318.000000 0 0 1
8.969720 -9.377182 -28.291904 31.125862 -0.807603 2.711559 0.046624 -0.029368 -724884.000000 0 0 1
9.415320 -10.692882 -27.705554 31.154193 -0.848847 2.666618 0.041793 -0.026676 113899.000000 0 0 1
8.360820 -11.643982 -27.517494 31.027377 -0.948067 2.661339 0.057113 -0.034116 570298.000000 0 0 1
8.747520 -12.819382 -26.761234 30.935729 -0.972003 2.616065 0.054329 -0.031455 58734.700000 0 0 1
9.601120 -13.943582 -27.456444 32.256183 -0.967783 2.589063 0.061104 -0.037256 88104.000000 0 0 1
8.895720 -14.751082 -28.354914 33.177242 -1.028133 2.595672 0.081190 -0.045267 562575.000000 0 0 1
9.822920 -15.622382 -29.086274 34.446479 -1.009489 2.576222 0.058863 -0.045363 402538.000000 0 0 1
9.113020 -16.350582 -30.189474 35.521726 -1.062327 2.586568 0.074980 -0.052412 -224174.000000 0 0 1
8.663620 -15.379382 -31.122774 35.780033 -1.057779 2.625667 0.073707 -0.050173 635075.000000 0 0 1
7.808520 -15.979882 -32.137724 36.730953 -1.116272 2.636128 0.082539 -0.044708 -745654.000000 0 0 1
6.813920 -14.989582 -32.623954 36.543665 -1.144143 2.674184 0.090746 -0.045565 -847607.000000 0 0 1
7.263420 -13.850382 -33.383804 36.865549 -1.087804 2.703484 0.078796 -0.039934 -38065.200000 0 0 1
6.147020 -13.075082 -33.717614 36.682709 -1.131327 2.736762 0.066523 -0.049825 325.941000 0 0 1
6.585020 -11.887382 33.417201 36.074668 -1.064925 0.386234 0.072374 -0.039365 -23612.200000 0 0 1
6.761320 -12.339182 32.103452 35.051426 -1.069524 0.413063 0.070733 -0.033101 226144.000000 0 0 1
7.030120 -11.298082 31.173896 33.895147 -1.014184 0.403441 0.067136 -0.032189 -523191.000000 0 0 1
7.421320 -11.708182 29.740436 32.812361 -1.005853 0.436164 0.062846 -0.022496 -708625.000000 0 0 1
6.440820 -12.246182 28.964436 32.099714 -1.086609 0.445659 0.047122 -0.020593 -530030.000000 0 0 1
6.885420 -12.031682 27.650636 30.931021 -1.051013 0.464724 0.045486 -0.019378 217959.000000 0 0 1
6.128220 -12.837982 26.544286 30.115909 -1.125432 0.491970 0.034867 -0.030349 -153827.000000 0 0 1
6.336520 -14.278282 26.594846 30.843259 -1.153121 0.531085 0.042864 -0.026206 -18262.100000 0 0 1
5.814920 -14.978882 25.444866 30.093544 -1.200497 0.563247 0.036566 -0.023479 6193.650000 0 0 1
4.291420 -15.182082 25.507656 29.992539 -1.295319 0.553924 0.035336 -0.028795 -409462.000000 0 0 1
3.537920 -14.062082 25.168416 29.046655 -1.324319 0.522684 0.014877 -0.031153 -125120.000000 0 0 1
2.195720 -14.387282 24.822466 28.774466 -1.419350 0.530299 0.022595 -0.026062 563621.000000 0 0 1
1.360920 -13.106282 24.557636 27.869413 -1.467330 0.492469 0.038196 -0.027452 -390685.000000 0 0 1
1.536220 -12.446782 23.299066 26.459947 -1.447994 0.493794 0.015916 -0.023661 8038.830000 0 0 1
0.651320 -11.330182 23.108616 25.745006 -1.513374 0.456511 0.029054 -0.013759 -126741.000000 0 0 1
-0.757080 -11.722982 22.705416 25.564377 1.506305 0.477457 0.050520 -0.015562 -1008480.000000 0 0 1
-0.934080 -12.091882 21.348616 24.552994 1.493701 0.516625 0.047188 -0.021977 -420302.000000 0 1 0
-2.049080 -12.939582 21.273516 24.983874 1.413743 0.551976 0.071470 -0.023815 -75188.500000 0 1 0
-2.196980 -13.521982 19.883316 24.145744 1.409729 0.603295 0.095379 -0.034526 7868.980000 0 1 0
-1.144580 -14.377482 19.452516 24.216160 1.491355 0.638003 0.111207 -0.046674 -369933.000000 0 1 0
-1.383880 -15.265482 18.287216 23.861524 1.480389 0.697595 0.113416 -0.045884 -176649.000000 0 1 0
-2.645980 -16.125382 18.362016 24.580333 1.408158 0.727227 0.086906 -0.044687 -187367.000000 0 1 0
-2.552780 -17.195982 17.449616 24.631435 1.423421 0.783527 0.067673 -0.042042 173239.000000 0 1 0
-3.602680 -18.144582 17.645216 25.564796 1.374792 0.809010 0.074986 -0.029032 193032.000000 0 0 1
-3.276780 -19.438982 16.879616 25.952509 1.403799 0.862680 0.069130 -0.032791 65302.100000 0 0 1
-2.272680 -20.171582 17.547316 26.832184 1.458602 0.857982 0.073146 -0.028080 -163880.000000 0 0 1
-2.426480 -21.565982 17.374616 27.800300 1.458753 0.895691 0.069349 -0.043115 259906.000000 0 0 1
-1.242880 -22.314582 18.090116 28.753045 1.515156 0.890331 0.080635 -0.032722 732376.000000 0 0 1
-0.056680 -22.317682 17.338416 28.261330 1.568257 0.910307 0.066747 -0.038195 -1113680.000000 0 0 1
0.916220 -23.176582 17.784016 29.227806 -1.531285 0.916675 0.082327 -0.028632 -406992.000000 0 0 1
2.187420 -23.047782 16.919316 28.674872 -1.476172 0.939688 0.075068 -0.035730 99576.200000 0 0 1
2.895920 -21.833082 17.230116 27.963310 -1.438927 0.906927 0.089583 -0.039103 -523154.000000 0 0 1
4.033420 -21.719582 16.433816 27.533235 -1.387184 0.931200 0.087225 -0.034532 116868.000000 0 0 1
4.975120 -20.519782 16.811316 26.989509 -1.332932 0.898373 0.087851 -0.029123 -546459.000000 0 0 1
5.607720 -20.642982 18.117216 28.032352 -1.305545 0.868075 0.085827 -0.025754 587848.000000 0 0 1
6.426220 -19.501182 18.493016 27.633024 -1.252473 0.837616 0.092666 -0.021186 1819920.000000 0 0 1
7.634720 -19.117982 17.526616 27.036428 -1.190852 0.865500 0.094027 -0.026126 262013.000000 0 0 1
7.071320 -18.529782 16.359916 25.709983 -1.206235 0.881071 0.083127 -0.023482 332108.000000 0 0 1
8.041820 -17.895282 15.508316 25.008395 -1.148456 0.901895 0.083620 -0.029464 201481.000000 0 0 1
7.385320 -16.826282 14.647116 23.499037 -1.157198 0.897832 0.066243 -0.019797 -186720.000000 0 1 0
6.532620 -17.480682 13.727616 23.166718 -1.213161 0.936566 0.055760 -0.018867 108647.000000 0 1 0
5.751920 -16.578282 12.961516 21.815703 -1.236837 0.934604 0.041281 -0.010653 3383.930000 0 1 0
6.072020 -16.679782 11.468216 21.133020 -1.221674 0.997186 0.032088 -0.016611 509017.000000 0 1 0
7.415320 -16.231482 11.293216 21.118350 -1.142262 1.006574 0.043567 -0.013092 283259.000000 0 1 0
7.926220 -16.574482 10.014716 20.924458 -1.124725 1.071722 0.044632 -0.014164 289577.000000 0 1 0
9.363920 -16.015682 9.925416 21.040412 -1.041724 1.079543 0.043054 -0.010973 83594.700000 0 1 0
10.132720 -16.457582 8.860916 21.261229 -1.018922 1.140914 0.052849 -0.010354 -5654.890000 0 1 0
11.432820 -15.841582 8.850916 21.447699 -0.945657 1.145408 0.039922 -0.009924 1393580.000000 0 1 0
12.544220 -16.737082 8.194716 22.464210 -0.927624 1.197389 0.062397 -0.015846 558330.000000 0 1 0
12.928320 -17.958682 8.848516 23.831743 -0.946844 1.190397 0.089228 -0.024993 -261358.000000 0 1 0
13.858020 -18.658782 8.089516 24.609655 -0.931979 1.235856 0.088915 -0.023735 -296168.000000 0 1 0
14.285520 -19.984382 8.703916 26.061653 -0.950184 1.230280 0.082434 -0.027234 345317.000000 0 0 1
13.290020 -21.041982 8.792016 26.394870 -1.007468 1.231212 0.084530 -0.023837 154986.000000 0 0 1
13.723220 -22.244282 9.370016 27.765663 -1.018019 1.226571 0.073037 -0.021691 -576744.000000 0 0 1
12.611920 -23.139482 9.882516 28.145342 -1.071770 1.212025 0.088412 -0.028067 -336892.000000 0 0 1
12.307720 -22.580782 11.157716 28.033307 -1.071759 1.161443 0.100545 -0.039919 -326594.000000 0 0 1
11.321520 -23.214082 11.963916 28.464113 -1.117037 1.137003 0.115936 -0.037950 -266039.000000 0 0 1
11.664320 -24.612582 12.581016 30.001958 -1.128232 1.138078 0.097612 -0.029274 294521.000000 0 0 1
12.770520 -24.570182 13.480516 30.797798 -1.091468 1.117746 0.090854 -0.028939 218350.000000 0 0 1
12.765920 -25.769972 14.189016 32.068495 -1.110852 1.112457 0.082663 -0.028709 -75230.500000 0 0 1
14.025520 -25.972282 15.041516 33.128867 -1.075649 1.099513 0.075006 -0.025494 -234130.000000 0 0 1
14.079220 -25.156292 16.166416 33.051724 -1.060559 1.059710 0.072510 -0.028525 859876.000000 0 0 1
15.139820 -25.605452 17.043216 34.283006 -1.036818 1.050505 0.078308 -0.024333 435231.000000 0 0 1
14.917320 -25.105622 18.485516 34.562017 -1.034665 1.006465 0.077367 -0.016359 58205.700000 0 0 1
15.311620 -23.750282 18.810616 33.946441 -0.998162 0.983483 0.063670 -0.030506 63609.900000 0 0 1
16.696620 -23.573682 19.019916 34.586888 -0.954539 0.988532 0.055240 -0.026742 81908.900000 0 0 1
17.240020 -22.156982 19.423016 34.138009 -0.909562 0.965561 0.052865 -0.041039 -142985.000000 0 0 1
17.276120 -21.332882 18.306916 32.995444 -0.890087 0.982636 0.042759 -0.038164 245262.000000 0 0 1
16.052320 -20.744782 17.887516 31.748798 -0.912236 0.972292 0.063434 -0.034874 -368462.000000 0 0 1
16.281520 -19.777282 16.693716 30.576280 -0.882042 0.993250 0.046101 -0.031081 125950.000000 0 0 1
17.124420 -18.661982 16.846116 30.418858 -0.828337 0.983869 0.036694 -0.024643 312221.000000 0 0 1
18.520220 -18.941982 16.912716 31.429877 -0.796656 1.002604 0.041883 -0.033060 384482.000000 0 0 1
19.354920 -17.636482 17.222416 31.341187 -0.738976 0.989014 0.059102 -0.028622 25534.500000 0 0 1
19.381520 -17.205182 18.552416 31.872460 -0.725984 0.949508 0.049875 -0.023991 42409.000000 0 0 1
20.061820 -15.992882 18.691416 31.742998 -0.673019 0.941179 0.059995 -0.026285 -176157.000000 0 0 1
20.582920 -15.730282 20.146116 32.817135 -0.652552 0.909817 0.061357 -0.015432 437353.000000 0 0 1
21.676420 -16.590682 20.517316 34.147887 -0.653271 0.926248 0.062154 -0.020994 277382.000000 0 0 1
22.151920 -16.175182 21.745316 35.002897 -0.630704 0.900468 0.075982 -0.009392 -225584.000000 0 0 1
34.040706 -1.840282 -7.809664 34.973521 -0.054009 1.795997 0.167759 -0.038694 616338.000000 0 0 1
35.369836 -1.318882 -7.941764 36.274459 -0.037271 1.791520 0.144555 -0.040011 519588.000000 0 0 1
36.381276 -2.267482 -7.894064 37.296849 -0.062245 1.784064 0.148646 -0.051029 -393038.000000 0 0 1
-36.128550 -1.741282 -8.460664 37.146830 0.048160 1.800576 0.124932 -0.059704 -510584.000000 0 0 1
-35.076714 -2.652982 -8.404764 36.167032 0.075490 1.805328 0.148696 -0.053024 -356368.000000 0 0 1
-33.855530 -2.007782 -8.724964 35.019325 0.059235 1.822596 0.193902 -0.056774 291022.000000 0 0 1
-32.662840 -3.024582 -8.601064 33.911466 0.092337 1.827230 0.168887 -0.046544 33185.400000 0 0 1
-32.277450 -3.397682 -7.290364 33.264507 0.104879 1.791753 0.157729 -0.045640 644781.000000 0 0 1
-31.088050 -4.195682 -7.262064 32.199506 0.134151 1.798287 0.148511 -0.050030 445932.000000 0 0 1
-30.570700 -4.262982 -5.772164 31.401570 0.138553 1.755665 0.145890 -0.062652 -429107.000000 0 0 1
-30.101390 -3.013982 -5.368564 30.724571 0.099795 1.746430 0.151531 -0.055289 418319.000000 0 0 1
-29.899560 -3.053182 -3.932364 30.311204 0.101762 1.700896 0.151938 -0.049134 -224235.000000 0 0 1
-29.703430 -1.626782 -3.278964 29.928110 0.054713 1.680578 0.171387 -0.043117 -124325.000000 0 0 1
-28.387650 -1.111582 -3.271964 28.597203 0.039137 1.685463 0.151896 -0.032597 484889.000000 0 0 1
-28.339510 0.097118 -2.544264 28.453656 -0.003427 1.660334 0.161068 -0.040858 612402.000000 0 0 1
-26.871880 0.590418 -2.238564 26.971424 -0.021968 1.653890 0.177323 -0.024560 985894.000000 0 0 1
-26.210730 -0.082482 -1.177664 26.237303 0.003147 1.615697 0.154106 -0.028620 964584.000000 0 0 1
-24.788280 -0.007382 -1.141864 24.814567 0.000298 1.616828 0.132384 -0.025403 997832.000000 0 1 0
-24.034180 -0.824982 -0.017664 24.048341 0.034312 1.571531 0.120992 -0.032536 192906.000000 0 1 0
-24.319480 -2.192982 -0.123064 24.418465 0.089931 1.575836 0.137402 -0.035612 389256.000000 0 1 0
-23.573780 -2.805582 0.888836 23.756776 0.118456 1.533374 0.127907 -0.029541 -267272.000000 0 1 0
-23.745680 -4.362682 0.796036 24.156241 0.181699 1.537837 0.121513 -0.022040 410065.000000 0 1 0
-24.981280 -4.914682 1.283636 25.492473 0.194254 1.520422 0.129998 -0.026629 913414.000000 0 0 1
-24.906880 -6.336782 1.328036 25.734629 0.249133 1.519168 0.102515 -0.016013 1020390.000000 0 0 1
-26.253680 -6.889182 1.976136 27.214365 0.256622 1.498119 0.126023 -0.023857 812796.000000 0 0 1
-26.332030 -6.752382 3.369736 27.392071 0.251023 1.447465 0.115034 -0.022092 1186540.000000 0 0 1
-27.636500 -7.225082 3.782536 28.814675 0.255709 1.439145 0.112295 -0.008746 1061750.000000 0 0 1
-27.729370 -7.454882 5.296336 29.198363 0.262634 1.388395 0.100362 -0.011537 -163574.000000 0 0 1
-26.943440 -8.547482 5.682936 28.832346 0.307195 1.372394 0.098645 0.005124 -193435.000000 0 0 1
-26.971690 -8.893382 7.082536 29.269893 0.318504 1.326397 0.075731 -0.007305 86133.200000 0 0 1
-26.382070 -7.921282 8.137836 28.722547 0.291688 1.283536 0.093561 -0.008764 790233.000000 0 0 1
-24.962980 -7.710582 8.108736 27.356079 0.299584 1.269860 0.116598 -0.014489 776349.000000 0 0 1
-24.662680 -6.462982 8.739036 26.951598 0.256292 1.240578 0.126383 -0.024871 1403570.000000 0 0 1
-23.231580 -5.861582 8.340536 25.369844 0.247152 1.235808 0.149925 -0.033499 1823860.000000 0 0 1
-22.081980 -6.537482 8.838636 24.667266 0.287834 1.204335 0.142893 -0.036868 565042.000000 0 1 0
-20.961580 -6.319182 7.990636 23.306011 0.292800 1.220839 0.134776 -0.029076 -324363.000000 0 1 0
-19.645680 -6.835682 8.535136 22.483946 0.334846 1.181421 0.146979 -0.036020 -584480.000000 0 1 0
-19.152080 -5.946182 9.499036 22.189883 0.301036 1.128430 0.111848 -0.034901 -288173.000000 0 1 0
-18.106480 -6.432182 10.281636 21.792880 0.341337 1.079478 0.105165 -0.043923 -129562.000000 0 1 0
-17.599580 -5.396082 11.329136 21.615093 0.297503 1.019102 0.074878 -0.028072 -138114.000000 0 1 0
-18.539880 -5.413582 12.360836 22.930859 0.284098 1.001490 0.095456 -0.031069 -32328.300000 0 1 0
-19.178380 -4.150382 12.408536 23.216539 0.213123 1.006916 0.120074 -0.028476 -336802.000000 0 1 0
-20.352280 -4.071382 13.373736 24.691056 0.197439 0.998406 0.116448 -0.043817 -785062.000000 0 1 0
-19.964580 -4.384682 14.675936 25.163326 0.216191 0.948100 0.106234 -0.033037 10455.800000 0 0 1
-21.081480 -4.305682 15.530236 26.535936 0.201469 0.945604 0.095070 -0.012795 7599.660000 0 0 1
-20.850480 -4.888982 16.902736 27.282726 0.230317 0.902640 0.084377 -0.009551 -966169.000000 0 0 1
-22.020880 -4.888482 17.609736 28.616764 0.218451 0.907948 0.083713 -0.012592 -542079.000000 0 0 1
-21.798180 -5.416682 18.940236 29.380838 0.243559 0.870236 0.083660 -0.015049 -74148.400000 0 0 1
-22.860880 -5.088982 20.023636 30.813367 0.219035 0.863428 0.084450 0.001525 -266211.000000 0 0 1
-22.735780 -3.827582 20.616136 30.928807 0.166787 0.841202 0.073669 0.001603 340689.000000 0 0 1
-23.356680 -3.793382 21.899036 32.241154 0.161005 0.824089 0.073164 -0.008747 -155534.000000 0 0 1
-23.366380 -2.313582 22.451336 32.486964 0.098692 0.807804 0.065026 -0.004866 -43930.300000 0 0 1
-24.408880 -1.490782 21.973236 32.876115 0.061000 0.838788 0.070806 -0.008014 -81040.600000 0 0 1
-24.129980 -0.129382 22.027236 32.672187 0.005362 0.830930 0.072472 -0.013761 -774989.000000 0 0 1
-25.281490 0.732718 21.518836 33.207693 -0.028974 0.865831 0.091059 -0.020651 -807460.000000 0 0 1
-26.208680 0.677318 22.557636 34.586133 -0.025838 0.860292 0.097973 -0.023110 -1008490.000000 0 0 1
-27.426000 1.188718 22.102136 35.243481 -0.043316 0.892937 0.119888 -0.024123 133940.000000 0 0 1
-28.566130 1.347918 23.153536 36.795745 -0.047151 0.890215 0.115177 -0.027608 292263.000000 0 0 1
-28.172430 2.321818 24.080336 37.134071 -0.082229 0.865223 0.105196 -0.026585 358005.000000 0 0 1
-29.126560 2.437618 25.143936 38.555362 -0.083496 0.860377 0.097495 -0.031859 86965.300000 0 0 1
-28.715210 3.300218 26.330536 39.099256 -0.114427 0.831960 0.101283 -0.027907 346758.000000 0 0 1
-27.691640 2.682718 27.141736 38.867695 -0.096577 0.797761 0.089601 -0.032524 729655.000000 0 0 1
-27.263750 3.481118 28.238436 39.406084 -0.126996 0.771880 0.085688 -0.028857 -376978.000000 0 0 1
-26.048470 2.982618 29.001236 39.095914 -0.114006 0.735050 0.087031 -0.025686 -423284.000000 0 0 1
-26.366710 1.826018 29.816536 39.844241 -0.069144 0.725259 0.087088 -0.024755 489820.000000 0 0 1
-25.308640 1.495218 30.711136 39.823822 -0.059011 0.690112 0.082556 -0.028829 369156.000000 0 0 1
-25.710600 0.292818 31.628836 40.761550 -0.011389 0.682580 0.085786 -0.039579 24290.700000 0 0 1
-26.020050 -0.892782 30.925636 40.425673 0.034298 0.699755 0.070982 -0.032299 -368585.000000 0 0 1
-26.425520 -1.919882 31.783236 41.378353 0.072525 0.694908 0.071883 -0.023584 -291279.000000 0 0 1
-27.403120 -2.861582 31.017036 41.487060 0.104048 0.726308 0.064221 -0.015109 417105.000000 0 0 1
-28.658930 -2.309982 30.611336 41.996716 0.080429 0.754085 0.069956 -0.011754 354810.000000 0 0 1
-28.670480 -1.258082 29.644436 41.259808 0.043853 0.769179 0.072657 -0.010540 -379066.000000 0 0 1
-30.168090 -1.090482 29.237136 42.025146 0.036131 0.801394 0.085500 -0.024399 686737.000000 0 0 1
-30.939470 -0.406882 30.196236 43.234581 0.013150 0.797598 0.115039 -0.022916 -24919.500000 0 0 1
-32.276710 -0.344782 29.683036 43.851881 0.010682 0.827263 0.092194 -0.025409 165234.000000 0 0 1
-33.293450 0.036918 30.718436 45.299862 -0.001109 0.825604 0.099366 -0.008525 -447298.000000 0 0 1
-33.428240 -1.000982 31.689436 46.072438 0.029935 0.812318 0.086193 -0.003830 -607830.000000 0 0 1
-34.465484 -0.834682 32.589736 47.441091 0.024213 0.813510 0.105259 -0.011969 -428053.000000 0 0 1
-34.477005 -1.919582 33.706036 48.253969 0.055620 0.797479 0.101349 -0.006412 83322.200000 0 0 1
-35.110535 -3.133782 33.340736 48.519841 0.089019 0.813228 0.073511 -0.004482 -9255.140000 0 0 1
-35.220520 -4.126382 -33.663644 48.895327 0.116627 2.330193 0.061944 -0.000400 155693.000000 0 0 1
-36.330220 -5.183682 -33.921444 49.974191 0.141726 2.316895 0.061837 -0.010860 1580800.000000 0 0 1
36.143086 -4.707082 -33.729944 49.660733 -0.129506 2.317479 0.066931 -0.016994 949778.000000 0 0 1
35.209716 -5.578682 33.713336 49.065617 -0.157135 0.813296 0.076031 -0.016126 503568.000000 0 0 1
33.719516 -5.267882 -33.934044 48.127702 -0.154974 2.353337 0.084991 -0.013837 242531.000000 0 0 1
33.289836 -5.554482 -32.633244 46.946715 -0.165329 2.339373 0.092296 -0.026650 33648.000000 0 0 1
32.848586 -6.842982 -32.379244 46.629084 -0.205382 2.338382 0.098768 -0.026886 -174920.000000 0 0 1
31.432956 -7.176482 -32.938944 46.092371 -0.224463 2.366890 0.081311 -0.023993 33391.100000 0 0 1
30.405676 -6.668882 -32.089444 44.706952 -0.215911 2.371395 0.075825 -0.024680 -644860.000000 0 0 1
29.187706 -7.062882 -32.618144 44.336777 -0.237418 2.397482 0.081311 -0.025449 -557067.000000 0 0 1
27.956256 -6.827382 -31.700644 42.814673 -0.239528 2.404485 0.081718 -0.033747 129012.000000 0 0 1
26.780556 -7.462782 -32.152044 42.504649 -0.271770 2.428643 0.074780 -0.036129 -457243.000000 0 0 1
25.650856 -6.898382 -31.548044 41.241159 -0.262718 2.441783 0.068104 -0.038050 -1376520.000000 0 0 1
24.428756 -7.448382 -32.224944 41.117995 -0.295948 2.471427 0.078007 -0.040849 -1015980.000000 0 0 1
24.211156 -8.867582 -32.263544 41.300731 -0.351086 2.467359 0.086386 -0.045726 -98941.200000 0 0 1
23.911256 -9.441582 -30.997844 40.271056 -0.376067 2.449215 0.097560 -0.041584 -331447.000000 0 0 1
23.627656 -10.962282 -31.022844 40.507464 -0.434402 2.443166 0.116142 -0.039258 535142.000000 0 0 1
22.333156 -11.293982 -31.527044 40.252682 -0.468201 2.470638 0.128236 -0.044312 353659.000000 0 0 1
22.196556 -12.688682 -31.347144 40.451615 -0.519314 2.457400 0.118929 -0.034878 -376355.000000 0 0 1
21.171556 -13.455982 -32.269644 40.873318 -0.566163 2.480797 0.110346 -0.029826 1028130.000000 0 0 1
19.776056 -13.243382 -32.111544 39.970374 -0.590077 2.503752 0.091780 -0.021229 349553.000000 0 0 1
19.392356 -11.897082 -32.383644 39.576564 -0.550282 2.529162 0.085337 -0.023791 -686485.000000 0 0 1
18.035056 -11.599582 -31.679844 38.254752 -0.571558 2.546557 0.066441 -0.025692 862985.000000 0 0 1
16.887056 -12.201182 -32.305744 38.440897 -0.625679 2.568818 0.044711 -0.011283 85863.300000 0 0 1
15.756856 -11.881582 -31.547644 37.211616 -0.646093 2.582601 0.052326 -0.018214 -219780.000000 0 0 1
14.401156 -11.981882 -32.275444 37.318401 -0.693956 2.615681 0.043354 -0.010109 -649281.000000 0 0 1
13.953356 -13.278982 -32.631644 37.892634 -0.760640 2.608345 0.054469 -0.008799 -73827.900000 0 0 1
12.730556 -13.343782 -33.331244 38.093246 -0.808912 2.636213 0.038765 -0.012637 28483.300000 0 0 1
11.521456 -13.426482 -32.388544 36.905720 -0.861610 2.641634 0.042861 -0.017517 -678476.000000 0 0 1
11.472456 -12.244282 -31.634644 35.809083 -0.817930 2.653919 0.077890 -0.011529 -501526.000000 0 0 1
10.340856 -12.181282 -30.806644 34.703980 -0.866933 2.663117 0.086588 -0.029373 715820.000000 0 0 1
9.071256 -11.424382 -31.338244 34.567177 -0.899709 2.705928 0.078870 -0.028358 639044.000000 0 0 1
9.468256 -10.104382 -31.662044 34.557654 -0.817888 2.729312 0.073337 -0.020672 871595.000000 0 0 1
8.313856 -9.411882 -32.162044 34.526813 -0.847264 2.769337 0.062862 -0.015646 412430.000000 0 0 1
8.491356 -7.866882 -32.494344 34.494541 -0.747242 2.799379 0.071780 -0.013809 -220217.000000 0 0 1
8.863056 -7.145682 -31.343744 33.347336 -0.678530 2.793185 0.062780 -0.014690 402777.000000 0 0 1
9.164156 -5.800882 -31.769644 33.569961 -0.564329 2.812609 0.053987 -0.005614 -37637.000000 0 0 1
9.494256 -4.773882 -30.635444 32.426244 -0.465899 2.807698 0.048692 -0.011187 -385240.000000 0 0 1
8.332556 -4.312082 -30.026644 31.458304 -0.477548 2.838742 0.053884 -0.007558 -169648.000000 0 0 1
8.612556 -3.314282 -29.074544 30.503929 -0.367352 2.834250 0.049724 -0.009925 282567.000000 0 0 1
7.250356 -2.793782 -28.560044 29.598125 -0.367796 2.875963 0.037119 -0.005714 -732694.000000 0 0 1
6.493656 -2.077582 -29.512144 30.289446 -0.309649 2.914555 0.037355 -0.006249 310554.000000 0 0 1
5.190456 -1.650582 -29.173244 29.677322 -0.307891 2.957020 0.046518 -0.010755 187401.000000 0 0 1
4.144556 -2.727682 -28.825144 29.249043 -0.582074 2.971135 0.039004 -0.013155 -1100170.000000 0 0 1
4.337556 -3.514382 -27.641344 28.199453 -0.680943 2.942308 0.030360 -0.013612 18343.100000 0 0 1
3.417956 -4.620082 -27.664344 28.254973 -0.933853 2.936767 0.060562 -0.016954 448125.000000 0 0 1
3.558456 -5.525382 -26.384944 27.191133 -0.998637 2.897475 0.042693 -0.029454 -114054.000000 0 0 1
3.119456 -4.936182 -25.148544 25.817555 -1.007210 2.913445 0.055250 -0.034433 59035.300000 0 0 1
3.280556 -5.765982 -24.085744 24.982627 -1.053521 2.872828 0.050603 -0.036614 -449019.000000 0 1 0
3.127456 -4.939982 -22.782544 23.520815 -1.006400 2.890381 0.061829 -0.041373 9308.250000 0 1 0
4.295056 -4.223282 -22.441444 23.235792 -0.776973 2.879360 0.051759 -0.031332 86948.400000 0 1 0
4.000056 -3.382682 -21.352144 21.985382 -0.701968 2.901002 0.047517 -0.030464 187682.000000 0 1 0
5.067756 -2.283382 -21.131844 21.850648 -0.423328 2.884384 0.056168 -0.029277 532238.000000 0 1 0
6.310956 -2.771582 -20.616944 21.738634 -0.413811 2.818951 0.054406 -0.031781 443105.000000 0 1 0
7.264856 -1.716582 -20.592944 21.904203 -0.232030 2.793827 0.082631 -0.010930 162996.000000 0 1 0
8.683456 -2.175282 -20.207344 22.101380 -0.245457 2.724578 0.072765 -0.018972 -1009040.000000 0 1 0
9.431556 -2.822082 -21.248944 23.418711 -0.290738 2.707731 0.075924 -0.028093 641263.000000 0 1 0
10.684756 -3.350682 -20.837944 23.656098 -0.303882 2.648493 0.063976 -0.031770 534442.000000 0 1 0
11.749756 -2.375982 -20.303844 23.578552 -0.199525 2.608255 0.061577 -0.023096 -1396070.000000 0 1 0
11.669556 -2.156782 -18.905544 22.321511 -0.182759 2.581047 0.063828 -0.016965 62323.000000 0 1 0
12.677556 -1.431882 -18.245844 22.263907 -0.112470 2.531379 0.059657 -0.020281 -353857.000000 0 1 0
12.789856 0.103818 -18.498144 22.489387 0.008117 2.536638 0.049040 -0.015288 -323648.000000 0 1 0
13.354956 0.465618 -19.703844 23.807837 0.034851 2.545651 0.061228 -0.017919 213254.000000 0 1 0
13.102056 1.812218 -19.900344 23.895014 0.137443 2.554987 0.060381 -0.020720 -116129.000000 0 1 0
13.609956 2.403918 -21.235144 25.336556 0.174826 2.564629 0.069685 -0.020586 -286344.000000 0 0 1
14.988456 2.498118 -21.490644 26.319996 0.165151 2.526143 0.080535 -0.019877 -63929.900000 0 0 1
15.240156 3.530718 -22.373544 27.300253 0.227656 2.531397 0.093837 -0.028931 399993.000000 0 0 1
16.698456 3.552018 -22.950844 28.604134 0.209591 2.502037 0.079117 -0.024919 718248.000000 0 0 1
17.131856 2.523418 -23.834544 29.461053 0.146242 2.513277 0.070254 -0.019032 252993.000000 0 0 1
17.546656 1.330918 -23.210844 29.127303 0.075705 2.492903 0.060556 -0.017875 -559048.000000 0 0 1
10.165220 26.813518 3.234436 28.857547 1.208429 1.458477 0.015087 -0.021174 280199.000000 0 0 1
9.753920 27.196518 4.544536 29.247946 1.226440 1.414785 0.022007 -0.020958 100217.000000 0 0 1
10.776420 27.958318 5.135136 30.400138 1.202899 1.401064 0.024213 -0.015960 -580384.000000 0 0 1
10.512120 28.319018 6.557836 30.910785 1.215358 1.357018 0.025764 -0.016188 -52140.300000 0 0 1
10.592020 27.274118 7.506736 30.206282 1.200370 1.319649 0.018314 -0.022511 -41618.200000 0 0 1
10.373720 27.796618 8.766036 30.937185 1.213604 1.283511 0.025424 -0.017440 -670005.000000 0 0 1
10.345620 26.704018 9.942336 30.314790 1.201183 1.236643 0.039282 -0.022779 972309.000000 0 0 1
11.619620 26.077718 10.209836 30.320021 1.151627 1.227348 0.043247 -0.018963 1201930.000000 0 0 1
12.274820 25.393418 9.087436 29.632387 1.120528 1.259101 0.040682 -0.023766 75381.800000 0 0 1
13.600220 24.708718 9.525336 29.769426 1.067629 1.245098 0.059915 -0.027806 766234.000000 0 0 1
14.705720 25.633118 9.697836 31.102459 1.049940 1.253706 0.067071 -0.028558 804735.000000 0 0 1
15.671320 24.966618 10.532536 31.302661 1.010264 1.227626 0.072183 -0.031372 83472.300000 0 0 1
16.938120 25.782718 10.769136 32.674497 0.989546 1.234929 0.071325 -0.030475 -1047430.000000 0 0 1
17.665120 26.136818 9.612936 32.978755 0.976448 1.275014 0.059237 -0.029362 849810.000000 0 0 1
19.084220 26.163918 9.821436 33.841080 0.940604 1.276337 0.053948 -0.040725 1098120.000000 0 0 1
19.732820 27.208218 10.842936 35.316293 0.943323 1.258732 0.060493 -0.034188 -610006.000000 0 0 1
19.682820 28.640018 10.482636 36.298067 0.968680 1.277830 0.065209 -0.043995 899172.000000 0 0 1
18.453820 29.255518 10.921736 36.272760 1.008051 1.264950 0.052597 -0.022941 1030230.000000 0 0 1
18.768620 30.729218 11.286436 37.734991 1.022492 1.267050 0.059782 -0.009268 -252207.000000 0 0 1
19.348420 31.569318 10.334736 38.442034 1.020955 1.298608 0.065909 -0.028389 206682.000000 0 0 1
18.547320 31.860018 9.176736 37.990477 1.043605 1.326830 0.083363 -0.030509 755065.000000 0 0 1
17.158620 32.549618 9.334136 37.960795 1.085663 1.322360 0.075413 -0.020215 265694.000000 0 0 1
17.230420 33.895418 9.763636 39.257042 1.100498 1.319448 0.064302 -0.018676 -322889.000000 0 0 1
15.966920 -33.615853 9.987836 38.532130 -1.127363 1.308594 0.070187 -0.006866 -99049.600000 0 0 1
16.049320 -32.093253 9.920336 37.228627 -1.107082 1.301067 0.085003 0.000546 173755.000000 0 0 1
16.440720 -31.569453 8.611136 36.620750 -1.090664 1.333430 0.086408 -0.019042 153391.000000 0 0 1
16.483920 -30.154653 8.696936 35.449393 -1.070532 1.322932 0.074244 -0.024812 -190336.000000 0 0 1
17.199020 -29.567053 7.506436 35.019473 -1.043945 1.354770 0.069982 -0.025185 91088.100000 0 0 1
16.375420 -29.644353 6.362836 34.459074 -1.066115 1.385082 0.073183 -0.016395 -57937.400000 0 0 1
17.116520 -29.306753 5.208536 34.336422 -1.042190 1.418517 0.068772 -0.019192 -193358.000000 0 0 1
16.559120 -29.734353 3.870536 34.253719 -1.062670 1.457558 0.068986 -0.026864 -281202.000000 0 0 1
16.778720 -31.102153 3.593436 35.521573 -1.076072 1.469461 0.070623 -0.025471 61205.800000 0 0 1
16.712120 -31.289653 2.228536 35.542984 -1.080234 1.508055 0.066903 -0.030974 -29650.700000 0 0 1
17.126520 -32.777953 1.882036 37.030447 -1.089310 1.519950 0.057374 -0.023015 558979.000000 0 0 1
18.473720 -33.107453 2.273636 37.980932 -1.061837 1.510898 0.061409 -0.006547 716775.000000 0 0 1
18.864120 33.732718 1.647036 38.684157 1.060900 1.528207 0.084131 -0.010000 342908.000000 0 0 1
20.356220 33.364318 1.881736 39.129201 1.022969 1.522687 0.095576 -0.010891 411277.000000 0 0 1
20.642920 33.028618 3.258036 39.084966 1.012196 1.487342 0.083301 -0.028869 -314307.000000 0 0 1
21.938420 32.581518 3.539936 39.438316 0.978188 1.480917 0.050849 -0.009673 -379959.000000 0 0 1
22.312820 32.627918 5.052536 39.849355 0.970987 1.443663 0.054003 0.004776 -69153.100000 0 0 1
21.728420 31.653018 5.912436 38.845781 0.969218 1.418000 0.074070 -0.012268 -99813.500000 0 0 1
22.415720 30.460318 5.757636 38.255011 0.936381 1.419716 0.058527 -0.017671 4763.440000 0 0 1
21.754220 29.315018 6.563236 37.090328 0.932380 1.392907 0.070752 -0.033267 183865.000000 0 0 1
20.502120 28.859518 6.137736 35.928826 0.953117 1.399124 0.071270 -0.030312 -335507.000000 0 0 1
19.515720 28.759518 7.131636 35.480043 0.974589 1.368413 0.062009 -0.042351 580446.000000 0 0 1
18.045620 28.794518 6.601236 34.617120 1.010973 1.378928 0.076418 -0.029318 285907.000000 0 0 1
17.618820 30.051718 6.241236 35.390417 1.040524 1.393515 0.072228 -0.035906 -264602.000000 0 0 1
17.903520 30.567818 4.937936 35.767454 1.040959 1.432297 0.077845 -0.032397 -194496.000000 0 0 1
17.865320 32.063218 5.044536 37.049520 1.062449 1.434216 0.089765 -0.029560 356444.000000 0 0 1
16.602020 32.660318 5.305636 37.019903 1.100512 1.426983 0.088349 -0.025771 -23792.800000 0 0 1
16.682420 34.025518 5.258736 38.258245 1.114946 1.432906 0.086435 -0.028848 905125.000000 0 0 1
15.318220 -33.358153 5.708636 37.148389 -1.140314 1.416514 0.079344 -0.030118 1653740.000000 0 0 1
14.287820 -33.500053 4.691536 36.720647 -1.167655 1.442683 0.072256 -0.026408 -1944.830000 0 0 1
13.384120 -32.439953 4.851136 35.426244 -1.179491 1.433428 0.058340 -0.023829 -532006.000000 0 0 1
12.416020 -32.453753 3.686536 34.942728 -1.205400 1.465097 0.052641 -0.026341 -386440.000000 0 0 1
11.455220 -31.423353 3.684436 33.648541 -1.221223 1.461079 0.052120 -0.030130 -180664.000000 0 0 1
10.879820 -31.272753 2.413436 33.199100 -1.235993 1.498036 0.052050 -0.019340 -458725.000000 0 0 1
9.979020 -30.003853 2.335136 31.705913 -1.249714 1.497080 0.060880 -0.015372 -373677.000000 0 0 1
9.435620 -29.637353 1.101636 31.122616 -1.262573 1.535392 0.070810 -0.000465 243481.000000 0 0 1
8.387720 -30.494153 0.615536 31.632675 -1.302374 1.551336 0.057502 -0.008437 -224271.000000 0 0 1
8.464620 -31.049953 -0.813564 32.193342 -1.304651 1.596070 0.083935 -0.014723 249392.000000 0 0 1
9.534620 -31.999953 -0.822564 33.400339 -1.281215 1.595426 0.072310 -0.019719 211335.000000 0 0 1
9.524620 -32.784953 -2.006964 34.199407 -1.288061 1.629514 0.077936 -0.010452 602477.000000 0 0 1
10.914120 -33.512153 -2.056364 35.304548 -1.255953 1.629076 0.071659 -0.011325 657578.000000 0 0 1
11.026620 33.621818 -1.027664 35.398716 1.253889 1.599832 0.069214 -0.013369 -560388.000000 0 0 1
12.259920 32.996018 -1.155764 35.219010 1.215047 1.603619 0.078800 -0.017921 -839875.000000 0 0 1
12.554620 31.988718 0.003336 34.364176 1.196798 1.570699 0.070655 -0.024863 -979243.000000 0 0 1
12.789120 32.763418 1.194036 35.191318 1.198639 1.536860 0.056990 -0.024276 580284.000000 0 0 1
14.088020 33.340518 1.431036 36.223063 1.171003 1.531280 0.069049 -0.019548 615877.000000 0 0 1
15.233120 32.287718 1.600636 35.736630 1.129968 1.525992 0.080776 -0.025250 -651824.000000 0 0 1
15.566920 31.755218 0.332836 35.367127 1.115006 1.561385 0.085462 -0.022204 -409247.000000 0 0 1
16.405820 30.636418 0.448036 34.755457 1.079153 1.557905 0.093178 -0.017012 -158664.000000 0 0 1
17.179120 30.158718 -0.839364 34.718510 1.053012 1.594975 0.086043 -0.014384 542552.000000 0 0 1
18.325820 30.916718 -1.191164 35.959672 1.035726 1.603927 0.062555 -0.003166 332344.000000 0 0 1
18.047620 31.801818 -2.270164 36.636401 1.054615 1.632801 0.073650 -0.012491 105512.000000 0 0 1
19.367220 32.468718 -2.709164 37.903119 1.032963 1.642333 0.070098 -0.005657 -192695.000000 0 0 1
20.028320 33.180818 -1.718464 38.795018 1.027726 1.615107 0.055996 0.000746 -141129.000000 0 0 1
20.942820 -34.013953 -2.379064 40.015131 -1.018903 1.630286 0.056813 0.007723 -1360620.000000 0 0 1
21.880020 -33.316753 -1.415064 39.884129 -0.989706 1.606283 0.058496 0.008287 -1365580.000000 0 0 1
22.830720 -34.030353 -0.694464 40.985229 -0.979874 1.587741 0.050906 0.005519 712097.000000 0 0 1
23.781220 33.182018 -1.378864 40.847203 0.948957 1.604559 0.059701 0.009405 343000.000000 0 0 1
24.664620 33.832218 -2.476164 41.941553 0.940853 1.629869 0.057512 0.006893 -1148700.000000 0 0 1
23.954520 -33.967453 -3.662664 41.725556 -0.956576 1.658689 0.051503 -0.004321 -24422.700000 0 0 1
24.749220 -33.438753 -4.727164 41.869084 -0.933638 1.683941 0.054763 -0.004895 -385074.000000 0 0 1
24.021520 -33.043253 -5.987364 41.288480 -0.942197 1.716322 0.048370 -0.019397 -598703.000000 0 0 1
23.100620 -32.015853 -5.777564 39.900298 -0.945762 1.716107 0.054895 -0.016181 230553.000000 0 0 1
22.492020 -31.448953 -6.966564 39.286902 -0.949947 1.749064 0.057256 -0.022023 29085.200000 0 0 1
21.570620 -30.282053 -6.647964 37.768900 -0.951847 1.747735 0.063579 -0.018321 45072.200000 0 0 1
20.332120 -30.627953 -6.050064 37.256810 -0.984752 1.733907 0.072009 -0.014595 -116993.000000 0 0 1
19.572020 -29.439053 -5.956164 35.849655 -0.984065 1.737713 0.080740 -0.025683 819465.000000 0 0 1
18.293020 -29.508153 -5.040464 35.082360 -1.015850 1.714970 0.063853 -0.013515 261148.000000 0 0 1
17.179420 -30.119553 -5.582764 35.121037 -1.052445 1.730431 0.073723 -0.021572 -284262.000000 0 0 1
16.043220 -29.922053 -4.719864 34.278146 -1.078635 1.708928 0.061326 -0.018260 -316370.000000 0 0 1
14.859320 -30.704453 -5.184964 34.502851 -1.120074 1.721644 0.056922 -0.013266 -1226470.000000 0 0 1
14.991520 -32.081653 -5.106864 35.777901 -1.133655 1.714023 0.054625 -0.004540 673563.000000 0 0 1
13.703120 -32.717853 -5.240364 35.856587 -1.174166 1.717470 0.067491 -0.002972 738493.000000 0 0 1
13.721520 33.808918 -5.243764 36.862177 1.185253 1.713534 0.070761 -0.010655 -16843.200000 0 0 1
14.050720 33.248518 -3.971164 36.313315 1.170963 1.680374 0.082825 -0.020596 -4826.800000 0 0 1
14.399220 31.829218 -4.030064 35.166434 1.145957 1.685648 0.079568 -0.012340 565955.000000 0 0 1
13.316620 30.725218 -4.488664 33.786380 1.161824 1.704045 0.079330 -0.013870 579723.000000 0 0 1
12.377020 30.408618 -3.498364 33.016863 1.184250 1.676952 0.074175 -0.017670 -211579.000000 0 0 1
12.759020 29.297318 -2.686964 32.067822 1.160065 1.654685 0.070039 -0.020496 -532600.000000 0 0 1
11.592420 28.495318 -2.144664 30.837752 1.184426 1.640399 0.056799 -0.016565 -27094.900000 0 0 1
10.789120 29.194618 -1.195164 31.147379 1.216805 1.609177 0.045340 -0.015489 96470.200000 0 0 1
9.899920 28.420418 -0.419964 30.098255 1.235603 1.584750 0.031748 -0.012696 153734.000000 0 0 1
8.744620 29.249418 0.197436 30.529262 1.280287 1.564329 0.028314 -0.006739 698600.000000 0 0 1
7.909720 28.495618 1.122336 29.594316 1.300036 1.532863 0.021983 -0.016764 110296.000000 0 0 1
6.667120 29.146318 1.242936 29.924960 1.345919 1.529249 0.031681 -0.012942 367478.000000 0 0 1
5.663920 28.371318 2.205236 29.015078 1.373751 1.494720 0.033930 -0.023092 555809.000000 0 0 1
5.268520 27.195818 1.543036 27.744383 1.379441 1.515151 0.045203 -0.035038 252372.000000 0 0 1
4.073020 26.658918 2.127836 27.052081 1.419186 1.492058 0.048875 -0.040215 613984.000000 0 0 1
3.345420 25.777018 1.088936 26.016000 1.441735 1.528928 0.063155 -0.039091 307701.000000 0 0 1
2.052720 25.350918 1.500436 25.478108 1.490000 1.511871 0.071242 -0.039264 444854.000000 0 0 1
1.427820 24.545118 0.505636 24.591811 1.512691 1.550234 0.061591 -0.036155 400031.000000 0 1 0
0.034520 23.959118 0.859236 23.974545 1.569356 1.534949 0.062097 -0.026533 322105.000000 0 1 0
-0.985180 24.931118 0.901336 24.966851 -1.531301 1.534687 0.078838 -0.034431 -340636.000000 0 1 0
-2.211780 24.271418 1.117936 24.397612 -1.479920 1.524959 0.068403 -0.026408 -424849.000000 0 1 0
-3.410180 25.166618 1.463936 25.438771 -1.436113 1.513217 0.097356 -0.043598 350808.000000 0 0 1
-4.599280 24.354118 1.405336 24.824411 -1.384144 1.514155 0.088340 -0.034409 144962.000000 0 1 0
-5.628680 24.800318 2.230136 25.528637 -1.347617 1.483327 0.072773 -0.031892 349439.000000 0 0 1
-6.952380 25.057018 1.429136 26.042891 -1.300142 1.515893 0.083167 -0.032923 417139.000000 0 0 1
-6.777180 26.175618 0.600936 27.045411 -1.317448 1.548575 0.102325 -0.040761 789508.000000 0 0 1
-7.973380 26.436118 -0.162964 27.612853 -1.277864 1.576698 0.100406 -0.034681 541960.000000 0 0 1
-7.760280 27.654518 -1.107664 28.744064 -1.297217 1.609341 0.096826 -0.033914 -43987.700000 0 0 1
-7.976680 28.915218 -0.512364 29.999663 -1.301627 1.587876 0.108277 -0.040211 -65042.000000 0 0 1
-7.842780 29.768818 -1.566364 30.824426 -1.313194 1.621634 0.107957 -0.037856 -113108.000000 0 0 1
-8.046680 31.270018 -1.228864 32.312121 -1.318932 1.608837 0.099330 -0.037694 -724009.000000 0 0 1
-7.973480 32.266218 -2.257964 33.313415 -1.328534 1.638628 0.082791 -0.030175 820538.000000 0 0 1
-6.781780 32.381418 -3.097164 33.228620 -1.364346 1.664140 0.069683 -0.027721 2035140.000000 0 0 1
-5.477780 32.801118 -2.269864 33.332742 -1.405324 1.638946 0.088522 -0.037466 340047.000000 0 0 1
-5.288380 -33.865953 -2.342764 34.356343 1.415891 1.639039 0.089713 -0.034726 -408885.000000 0 0 1
-4.410480 -33.493953 -1.342164 33.809742 1.439870 1.610504 0.094047 -0.035993 -458095.000000 0 0 1
-4.169780 -31.974353 -1.338064 32.272849 1.441118 1.612269 0.088186 -0.037612 309022.000000 0 0 1
-5.278180 -31.183653 -0.918664 31.640534 1.403124 1.599835 0.092274 -0.037344 -55283.500000 0 0 1
-5.425880 -29.962653 -1.582564 30.491069 1.391650 1.622722 0.098452 -0.035089 276429.000000 0 0 1
-6.898180 -29.462553 -1.523564 30.297660 1.340805 1.621104 0.115231 -0.031408 263729.000000 0 0 1
-7.231180 -29.240853 -0.193764 30.122334 1.328363 1.577229 0.108560 -0.028911 -619035.000000 0 0 1
-8.376080 -28.431753 -0.146764 29.640257 1.284298 1.575748 0.089562 -0.020481 -81908.100000 0 0 1
-8.585180 -27.779853 1.219436 29.101763 1.271064 1.528882 0.091990 -0.014659 906060.000000 0 0 1
-7.555880 -26.778053 1.468836 27.862393 1.295779 1.518054 0.104434 -0.019281 567996.000000 0 0 1
-7.455280 -26.342753 2.828536 27.523126 1.294998 1.467845 0.100731 -0.012395 -352709.000000 0 0 1
-8.361680 -25.191053 3.178936 26.732237 1.250309 1.451597 0.088024 -0.009491 -381628.000000 0 0 1
-7.894080 -23.898253 2.951136 25.340722 1.251760 1.454073 0.089379 -0.013348 -688646.000000 0 0 1
-8.855380 -22.972253 3.347836 24.846533 1.202868 1.435645 0.085046 -0.018301 -311617.000000 0 1 0
-8.202380 -21.612753 3.539236 23.386242 1.208073 1.418874 0.049813 -0.006548 168563.000000 0 1 0
-7.469680 -21.688453 4.750236 23.425411 1.239112 1.366599 0.046462 -0.001994 -359313.000000 0 1 0
-6.833980 -20.450753 5.067836 22.149934 1.248295 1.339955 0.028720 -0.006338 275261.000000 0 1 0
-7.769080 -19.330253 5.665636 21.589737 1.188642 1.305264 0.036316 -0.014052 434388.000000 0 1 0
-8.404980 -19.738653 6.862836 22.524579 1.168237 1.261192 0.051471 -0.009688 256537.000000 0 1 0
-9.015380 -18.720153 7.690836 22.155590 1.121987 1.216289 0.038824 -0.014513 -48423.500000 0 1 0
-28.276860 29.207218 -5.785664 41.062346 -0.801581 1.712166 0.082757 -0.012491 38738.500000 0 0 1
-27.296650 29.861518 -4.990864 40.764274 -0.830241 1.693537 0.089666 -0.021063 -137350.000000 0 0 1
-26.384510 29.060218 -4.332564 39.489362 -0.833620 1.680732 0.071121 -0.020232 222162.000000 0 0 1
-25.371960 29.854718 -3.441664 39.330466 -0.866391 1.658415 0.061846 -0.014103 -75608.100000 0 0 1
-26.014430 30.443818 -2.332864 40.112577 -0.863692 1.628987 0.057364 -0.019000 -220259.000000 0 0 1
-25.296870 31.340318 -1.544064 40.305475 -0.891701 1.609115 0.062930 -0.017676 -341967.000000 0 0 1
-24.147080 30.833818 -0.646764 39.169173 -0.906423 1.587309 0.055853 -0.012477 -88423.700000 0 0 1
-23.071180 30.383918 -1.420564 38.176954 -0.921356 1.608015 0.070679 -0.020278 -74557.500000 0 0 1
-21.851480 30.411818 -0.674964 37.454258 -0.947749 1.588818 0.055131 -0.012127 631351.000000 0 0 1
-20.626180 29.916818 -1.488964 36.368562 -0.967185 1.611749 0.044071 -0.012528 -1296060.000000 0 0 1
-19.432980 30.203918 -0.934864 35.927585 -0.999080 1.596820 0.056076 -0.009224 -1839880.000000 0 0 1
-18.416580 29.479318 -1.551264 34.793778 -1.012392 1.615396 0.052451 -0.010212 561085.000000 0 0 1
-16.979280 29.746718 -0.960264 34.264928 -1.052128 1.598825 0.055716 -0.014582 736083.000000 0 0 1
-16.750480 29.337318 0.355336 33.784361 -1.052002 1.560278 0.048125 -0.018477 606228.000000 0 0 1
-15.522580 29.836818 0.917736 33.645630 -1.091081 1.543516 0.051378 -0.021686 540670.000000 0 0 1
-14.902480 28.853418 1.907036 32.530607 -1.094045 1.512140 0.072157 -0.026830 -555030.000000 0 0 1
-15.562380 28.792718 3.150436 32.880595 -1.075278 1.474835 0.056185 -0.023797 -255921.000000 0 0 1
-14.941180 28.141518 4.245736 32.143587 -1.082712 1.438323 0.065944 -0.025997 38894.900000 0 0 1
-13.642980 28.729318 4.854836 32.172567 -1.127446 1.419318 0.082896 -0.026346 167385.000000 0 0 1
-13.778580 29.950018 5.555536 33.432272 -1.139614 1.403849 0.093940 -0.024305 -349429.000000 0 0 1
-13.887080 31.108118 4.728036 34.393609 -1.150929 1.432891 0.105394 -0.028752 2168.950000 0 0 1
-13.730880 32.428418 5.504036 35.643145 -1.170264 1.415755 0.104090 -0.023609 55403.100000 0 0 1
-14.845980 32.773318 6.285936 36.524053 -1.145459 1.397831 0.097008 -0.021006 -92136.900000 0 0 1
-14.553780 33.998618 6.949836 37.630025 -1.166328 1.385041 0.113718 -0.025030 -111462.000000 0 0 1
-15.659180 -33.649053 7.895936 37.944888 1.135236 1.361175 0.093722 -0.020932 -237089.000000 0 0 1
-15.708880 33.788118 9.182836 38.376168 -1.135602 1.329167 0.065149 -0.014142 410638.000000 0 0 1
-16.912080 -33.992053 9.906636 39.237986 1.109126 1.315558 0.075801 -0.016821 27054.800000 0 0 1
-17.115880 33.230018 11.184136 39.016309 -1.095163 1.280065 0.067401 -0.009752 394141.000000 0 0 1
-16.357780 33.652618 12.348936 39.402689 -1.118349 1.252021 0.068735 -0.014826 476065.000000 0 0 1
-15.043880 33.111618 12.276836 38.385131 -1.144340 1.245243 0.065205 -0.011604 -13990.100000 0 0 1
-14.267080 32.996518 13.626936 38.444937 -1.162690 1.208467 0.051873 -0.014037 -202752.000000 0 0 1
-14.694080 32.053418 14.633036 38.176738 -1.140959 1.177433 0.039741 -0.006982 -232793.000000 0 0 1
-14.082280 30.804418 14.593036 36.880611 -1.142011 1.163985 0.026054 -0.012643 -465207.000000 0 0 1
-14.821880 29.719118 13.803336 35.964513 -1.108164 1.176884 0.032301 -0.010999 -80621.600000 0 0 1
-14.762580 29.936918 12.405136 35.609552 -1.112666 1.214970 0.038682 -0.007143 6303.980000 0 0 1
-15.955780 29.506518 11.821336 35.566353 -1.075079 1.231977 0.031929 -0.006611 -280600.000000 0 0 1
-15.837280 29.314518 10.317036 34.879817 -1.075467 1.270516 0.032706 -0.004824 -535699.000000 0 0 1
-15.093180 28.217718 10.042136 33.539353 -1.079633 1.266718 0.030239 -0.001037 -466812.000000 0 0 1
-14.929080 28.069918 8.641336 32.946478 -1.081992 1.305408 0.036438 -0.005942 -462899.000000 0 0 1
-14.066880 26.886818 8.199836 31.432712 -1.088770 1.306874 0.043915 -0.007906 523643.000000 0 0 1
-12.658880 27.154718 8.291136 31.086474 -1.134572 1.300816 0.051212 -0.007611 616269.000000 0 0 1
-11.996980 25.943318 7.971736 29.673757 -1.137653 1.298809 0.055149 -0.010028 798773.000000 0 0 1
-10.769780 26.181118 6.993236 29.160666 -1.180538 1.328619 0.072825 -0.018246 513568.000000 0 0 1
-11.231780 26.354418 5.705736 29.210677 -1.167925 1.374202 0.083630 -0.025630 466420.000000 0 0 1
-10.277580 26.049918 4.669836 28.390742 -1.195011 1.405561 0.102703 -0.020918 198428.000000 0 0 1
-10.704080 26.362918 3.224236 28.635231 -1.185104 1.457960 0.091966 -0.032080 -36707.000000 0 0 1
-10.441380 27.746318 3.017236 29.799065 -1.210873 1.469370 0.107652 -0.029950 141737.000000 0 0 1
-10.843980 28.172918 1.715236 30.236522 -1.203368 1.514039 0.104950 -0.034575 46682.900000 0 0 1
-10.426280 29.605918 1.314336 31.415683 -1.232191 1.528947 0.132653 -0.041899 106138.000000 0 0 1
-11.172080 30.615318 2.004436 32.651659 -1.220894 1.509369 0.113120 -0.044065 56236.800000 0 0 1
-10.710480 31.935418 1.673936 33.725174 -1.247205 1.521141 0.115554 -0.041221 -344659.000000 0 0 1
-11.276780 33.114218 2.437836 35.066512 -1.242572 1.501220 0.105073 -0.038995 298732.000000 0 0 1
-12.623780 33.473318 2.171536 35.840458 -1.210160 1.510170 0.119087 -0.038212 7170.130000 0 0 1
-12.911680 -34.000153 0.873536 36.379733 1.207865 1.546782 0.103579 -0.035670 -649127.000000 0 0 1
-14.378980 -33.584853 0.705736 36.540327 1.166270 1.551481 0.108675 -0.028749 623410.000000 0 0 1
-15.280380 33.469118 0.171536 36.792680 -1.142507 1.566134 0.092368 -0.022498 484170.000000 0 0 1
-15.454780 33.492318 -1.279464 36.908300 -1.138468 1.605469 0.080218 -0.020997 -841223.000000 0 0 1
-14.252180 33.258418 -2.159664 36.247912 -1.165941 1.630412 0.084540 -0.019630 -603223.000000 0 0 1
-13.928480 31.859618 -2.168964 34.838803 -1.158652 1.633094 0.076888 -0.014187 749162.000000 0 0 1
-12.504580 31.686618 -2.234764 34.137962 -1.194925 1.636306 0.083761 -0.011655 801322.000000 0 0 1
-11.965480 30.191918 -2.189464 32.550244 -1.193472 1.638111 0.073812 -0.015736 233665.000000 0 0 1
-12.103780 29.524918 -3.407264 32.090991 -1.181741 1.677172 0.062548 -0.010927 -564034.000000 0 0 1
-11.043380 29.807218 -4.252564 32.070404 -1.215982 1.703789 0.065893 -0.014751 -456992.000000 0 0 1
-11.161580 29.131318 -5.640164 31.702145 -1.204902 1.749660 0.071299 -0.006931 10799.400000 0 0 1
-11.207780 27.699518 -5.676964 30.415548 -1.186314 1.758544 0.061973 0.006656 51548.500000 0 0 1
-10.977980 27.179118 -6.973664 30.130591 -1.186922 1.804362 0.059473 0.004407 14684.100000 0 0 1
-11.409180 25.696218 -7.139864 29.007631 -1.152941 1.819489 0.072061 -0.005013 241184.000000 0 0 1
-10.718480 24.719418 -6.381964 27.688714 -1.161659 1.803377 0.046196 -0.003652 -84953.800000 0 0 1
-11.253680 23.482218 -6.720364 26.892809 -1.123892 1.823368 0.094170 -0.014678 -109029.000000 0 0 1
-10.877680 22.296718 -5.798864 25.477331 -1.116908 1.800418 0.075097 -0.021134 16093.100000 0 0 1
-9.496480 21.988818 -5.826564 24.650357 -1.163115 1.809423 0.075329 -0.025114 190505.000000 0 1 0
-9.076580 20.799118 -5.161564 23.272932 -1.159316 1.794440 0.075604 -0.023838 -497010.000000 0 1 0
-8.960280 20.706718 -3.573164 22.843430 -1.162402 1.727861 0.067945 -0.034440 684219.000000 0 1 0
-10.187080 20.640718 -2.806664 23.188212 -1.112328 1.692132 0.081425 -0.033366 853139.000000 0 1 0
-11.002680 19.482018 -3.100564 22.588083 -1.056691 1.708497 0.089254 -0.028957 354835.000000 0 1 0
-12.195980 19.488918 -2.069864 23.083418 -1.011629 1.660586 0.083657 -0.020888 84063.000000 0 1 0
-11.920980 19.299218 -0.644664 22.693285 -1.017469 1.599208 0.068230 -0.027429 72012.100000 0 1 0
-11.606780 17.992618 -0.245264 21.412889 -0.997884 1.582251 0.066649 -0.023874 -87519.100000 0 1 0
-11.245480 17.888018 1.267736 21.167172 -1.009569 1.510869 0.060030 -0.033183 456137.000000 0 1 0
-12.400680 18.057118 2.094236 22.005049 -0.969020 1.475481 0.072145 -0.030482 813343.000000 0 1 0
-12.012980 18.174118 3.456336 22.058026 -0.986731 1.413455 0.067005 -0.024838 666766.000000 0 1 0
-13.296380 18.062018 4.350836 22.846444 -0.936217 1.379188 0.066232 -0.026630 688711.000000 0 1 0
-13.847580 16.764418 4.383736 22.181486 -0.880396 1.371856 0.045659 -0.029036 393970.000000 0 1 0
-15.080180 16.782018 5.090236 23.129169 -0.838760 1.348901 0.065118 -0.036272 301018.000000 0 1 0
-15.491880 15.398318 5.727636 22.581239 -0.782369 1.314349 0.046307 -0.035199 -739416.000000 0 1 0
-14.691680 15.028718 6.790336 22.086568 -0.796738 1.258293 0.048521 -0.028122 -199121.000000 0 1 0
-15.032180 15.581718 8.070336 23.105988 -0.803347 1.213999 0.039563 -0.025145 -731258.000000 0 1 0
-13.835780 15.518818 9.041736 22.671910 -0.842670 1.160580 0.031854 -0.016081 -5364.980000 0 1 0
-12.746680 16.332818 8.729036 22.481878 -0.908101 1.172043 0.039659 -0.031746 -32441.000000 0 1 0
-11.896980 15.948018 7.647836 21.315881 -0.929870 1.203830 0.037124 -0.027401 -896687.000000 0 1 0
-10.761880 16.959618 7.435036 21.417900 -1.005353 1.216275 0.046768 -0.034340 -248658.000000 0 1 0
-9.832180 16.882118 8.480836 21.297940 -1.043417 1.161243 0.049618 -0.033647 -412459.000000 0 1 0
-9.209580 18.110218 8.731636 22.114199 -1.100348 1.164899 0.042628 -0.027239 311596.000000 0 1 0
-7.901180 18.178518 9.592636 22.020577 -1.160786 1.120068 0.043764 -0.023740 -645078.000000 0 1 0
-6.975680 17.295518 8.979836 20.698611 -1.187429 1.122049 0.034323 -0.020406 -430075.000000 0 1 0
-5.677280 17.464018 9.502436 20.676550 -1.256488 1.093279 0.029974 -0.021986 21985.900000 0 1 0
-4.936980 18.688318 8.943936 21.298380 -1.312522 1.137423 0.021735 -0.015876 -1797990.000000 0 1 0
-5.302580 20.003118 9.373836 22.718074 -1.311669 1.145472 0.033773 -0.018518 -303346.000000 0 1 0
-4.737180 21.082918 8.690136 23.290529 -1.349774 1.188428 0.031984 -0.014553 505283.000000 0 1 0
-3.265980 21.495718 9.058036 23.553779 -1.420013 1.176056 0.034091 -0.013549 807374.000000 0 1 0
-2.267380 20.582318 8.596736 22.420453 -1.461077 1.177286 0.022940 0.000568 354225.000000 0 1 0
-1.105480 21.395718 8.347236 22.992938 -1.519174 1.199274 0.021510 -0.003871 683074.000000 0 1 0
0.174620 20.549518 8.118836 22.095897 1.562299 1.194545 0.019569 0.001800 457374.000000 0 1 0
0.642920 19.734818 9.187836 21.778262 1.538230 1.135277 0.015683 -0.009614 -94463.700000 0 1 0
2.042220 19.488318 9.127136 21.616424 1.466385 1.134891 0.007810 -0.006702 657728.000000 0 1 0
2.584820 18.732718 10.429836 21.595775 1.433678 1.066768 -0.000433 -0.024074 -273601.000000 0 1 0
3.979220 18.610318 10.509536 21.740020 1.360150 1.066240 0.015922 -0.000340 -318113.000000 0 1 0
4.313120 18.114918 11.803836 22.047308 1.337051 1.005831 0.007429 -0.002511 797447.000000 0 1 0
5.870020 18.193618 11.949436 22.544487 1.258699 1.012151 0.030181 -0.005475 944160.000000 0 1 0
6.666420 17.235418 11.270536 21.645456 1.201733 1.023139 0.021235 -0.006542 315651.000000 0 1 0
7.660920 16.642118 12.104336 21.958250 1.139383 0.986943 0.023010 0.000881 724656.000000 0 1 0
8.931520 16.074118 11.387736 21.629375 1.063629 1.016325 0.037407 -0.008185 444142.000000 0 1 0
9.858220 17.046218 10.996936 22.554171 1.046468 1.061482 0.049667 -0.014919 862180.000000 0 1 0
11.059120 16.474918 10.410236 22.407590 0.979613 1.087630 0.050665 -0.017656 1217460.000000 0 1 0
11.935120 17.498618 9.626936 23.266427 0.972212 1.144206 0.060331 -0.011787 273902.000000 0 1 0
12.996620 16.882418 8.941236 23.105711 0.914723 1.173452 0.061242 -0.015504 -604859.000000 0 1 0
13.950720 17.775418 8.491836 24.139166 0.905373 1.211317 0.069670 -0.015737 25374.500000 0 1 0
14.977520 17.200018 7.437136 23.989117 0.854358 1.255581 0.068072 -0.025850 777330.000000 0 1 0
16.157520 16.740618 8.097836 24.635111 0.803121 1.235858 0.084256 -0.021927 -5632.350000 0 1 0
17.112920 16.308018 7.174636 24.703823 0.761319 1.276124 0.109030 -0.020984 30984.400000 0 1 0
18.510620 15.983918 7.772236 25.661963 0.712279 1.263094 0.085117 -0.022670 52325.600000 0 0 1
18.652320 14.890318 8.610236 25.372560 0.673709 1.224568 0.085225 -0.018190 42287.500000 0 0 1
19.794920 15.092318 9.424836 26.616620 0.651411 1.208849 0.092364 -0.020013 -158294.000000 0 0 1
20.056520 13.837218 10.247436 26.433739 0.603923 1.172699 0.079607 -0.025677 45038.800000 0 0 1
20.816120 12.751918 9.704536 26.269760 0.549631 1.192413 0.086923 -0.032664 591712.000000 0 0 1
20.757320 11.687418 10.641736 26.090393 0.512807 1.150666 0.084692 -0.035678 -593024.000000 0 0 1
21.761520 10.649318 10.191936 26.283974 0.455103 1.172594 0.073498 -0.026132 -1484540.000000 0 0 1
23.084520 11.043718 10.449736 27.641558 0.446222 1.183113 0.066343 -0.033828 707299.000000 0 0 1
24.136920 10.335518 9.796836 28.024843 0.404581 1.213677 0.090109 -0.029268 96497.200000 0 0 1
24.218220 8.813918 10.056436 27.664765 0.349037 1.198763 0.105244 -0.032431 -1242530.000000 0 0 1
23.270620 8.131018 9.286936 26.341647 0.336150 1.210494 0.115319 -0.039620 319563.000000 0 0 1
23.241720 6.779418 9.615836 26.049997 0.283817 1.192724 0.111840 -0.037777 197087.000000 0 0 1
24.269920 5.955118 8.768936 26.483706 0.240617 1.233320 0.129282 -0.041689 778420.000000 0 0 1
23.800120 5.829118 7.422536 25.603093 0.240192 1.276666 0.117665 -0.032793 609027.000000 0 0 1
24.827120 5.136418 6.776536 26.242906 0.204009 1.309613 0.122679 -0.040510 -234077.000000 0 0 1
24.471820 4.786318 5.360936 25.505263 0.193147 1.359028 0.124812 -0.048900 295917.000000 0 0 1
23.702720 3.537818 5.175036 24.517669 0.148164 1.358123 0.133283 -0.051430 802022.000000 0 1 0
23.392520 3.369118 3.883136 23.950777 0.143042 1.407948 0.127942 -0.037684 -872698.000000 0 1 0
22.362820 2.321218 3.656736 22.778400 0.103428 1.409563 0.119849 -0.031926 -782849.000000 0 1 0
22.944020 1.057718 3.917236 23.300034 0.046067 1.401873 0.129594 -0.033856 448665.000000 0 1 0
22.074820 0.031518 3.546436 22.357904 0.001428 1.411502 0.098565 -0.030902 -283723.000000 0 1 0
22.653420 -1.348282 3.960236 23.036466 -0.059448 1.398026 0.108250 -0.038368 -1127920.000000 0 1 0
22.530320 -1.719182 5.320336 23.213722 -0.076158 1.339552 0.098390 -0.039742 714142.000000 0 1 0
22.838820 -3.082382 5.510736 23.695590 -0.134152 1.336083 0.104042 -0.040221 -282552.000000 0 1 0
22.398020 -3.502482 6.955936 23.713366 -0.155118 1.273084 0.115636 -0.044434 -73113.400000 0 1 0
22.614120 -4.872582 7.235336 24.238205 -0.212222 1.267666 0.113911 -0.042743 587459.000000 0 1 0
22.469520 -5.119082 8.615836 24.603190 -0.224000 1.213020 0.135136 -0.044955 -122117.000000 0 1 0
22.349320 -6.591182 9.002536 24.979621 -0.286786 1.202105 0.137834 -0.046852 44916.100000 0 1 0
21.137420 -7.131582 8.519636 23.879577 -0.325398 1.205983 0.139400 -0.042896 445895.000000 0 1 0
20.740020 -8.123582 9.472436 24.204712 -0.373319 1.168702 0.120559 -0.030981 -65890.300000 0 1 0
-26.979010 -32.970753 5.344036 42.935955 0.885013 1.446007 0.050443 -0.018002 99218.500000 0 0 1
-28.027530 -33.828353 5.759736 44.306596 0.878904 1.440430 0.043562 -0.020395 -57521.000000 0 0 1
-28.083170 -33.993953 7.186936 44.675556 0.880329 1.409225 0.040607 -0.011288 -189258.000000 0 0 1
-28.903870 32.893018 7.707236 44.461059 -0.849861 1.396568 0.050977 -0.023192 679241.000000 0 0 1
-30.325720 33.021318 7.590436 45.471655 -0.827925 1.403084 0.047324 -0.018248 301423.000000 0 0 1
-30.902250 31.779318 7.943136 45.032960 -0.799390 1.393484 0.071767 -0.031430 -1408600.000000 0 0 1
-32.392680 31.842518 7.990536 46.120281 -0.776834 1.396663 0.078761 -0.030959 -1713430.000000 0 0 1
-32.873680 31.995718 6.675436 46.356944 -0.771865 1.426293 0.061659 -0.023069 -385763.000000 0 0 1
-34.265599 32.213718 6.757736 47.513386 -0.754543 1.428084 0.058548 -0.024004 -168327.000000 0 0 1
-34.825980 32.221318 5.307836 47.741338 -0.746570 1.459387 0.043046 -0.017431 -417834.000000 0 0 1
-34.758238 30.901518 4.787236 46.754214 -0.726728 1.468225 0.051473 -0.024351 24818.700000 0 0 1
-35.226111 30.866818 3.492436 46.966333 -0.719537 1.496367 0.066123 -0.017521 -188103.000000 0 0 1
-34.889472 29.481618 2.883736 45.768515 -0.701584 1.507748 0.066827 -0.025784 130660.000000 0 0 1
-35.604077 28.445918 3.537236 45.709218 -0.674101 1.493333 0.083463 -0.032042 168026.000000 0 0 1
-34.984785 27.242418 3.154136 44.452594 -0.661613 1.499782 0.082487 -0.032046 94095.800000 0 0 1
-35.577127 25.972118 3.847636 44.216368 -0.630593 1.483668 0.099948 -0.034438 1132070.000000 0 0 1
-36.870440 25.459218 3.429936 44.937352 -0.604325 1.494395 0.094796 -0.030843 608478.000000 0 0 1
36.440716 24.669118 4.438836 44.228887 0.595099 1.470267 0.106268 -0.026431 -581374.000000 0 0 1
34.963396 24.359718 4.196736 42.818775 0.608522 1.472627 0.129466 -0.027586 -1066160.000000 0 0 1
34.645776 23.441018 3.170536 41.950726 0.594842 1.495147 0.094091 -0.025843 19797.100000 0 0 1
35.008456 22.096218 3.463336 41.543104 0.563022 1.487332 0.082660 -0.022245 -525410.000000 0 0 1
34.324056 21.123118 2.431436 40.376216 0.551668 1.510540 0.086847 -0.025446 1005040.000000 0 0 1
32.937426 20.828418 2.669036 39.061756 0.563877 1.502414 0.076120 -0.031690 902291.000000 0 0 1
32.621296 19.957618 3.774836 38.427918 0.549049 1.472406 0.057043 -0.020324 -185756.000000 0 0 1
33.055106 18.449018 3.638336 38.029512 0.509063 1.474978 0.052284 -0.025112 -397193.000000 0 0 1
32.436986 17.852918 2.548736 37.113081 0.503141 1.502067 0.043873 -0.034201 104683.000000 0 0 1
32.797166 16.465518 2.398236 36.776608 0.465279 1.505539 0.042779 -0.031960 -225931.000000 0 0 1
32.067026 15.441318 3.353936 35.748809 0.448765 1.476839 0.062410 -0.030066 489677.000000 0 0 1
30.645966 15.447518 3.174736 34.465635 0.466893 1.478552 0.068395 -0.026461 344161.000000 0 0 1
30.052946 14.751918 4.188236 33.739294 0.456312 1.446340 0.097938 -0.039841 -21398.000000 0 0 1
28.512356 14.866018 4.288536 32.439859 0.480612 1.438209 0.086592 -0.032910 -1458.610000 0 0 1
27.773756 14.289918 3.264136 31.404424 0.475189 1.466670 0.084908 -0.032437 -431803.000000 0 0 1
26.415456 14.646618 3.376436 30.392434 0.506270 1.459472 0.059999 -0.019803 95548.100000 0 0 1
25.605556 13.941618 2.219336 29.239334 0.498592 1.494821 0.067449 -0.026373 -128759.000000 0 0 1
25.791756 14.513418 0.928636 29.609396 0.512553 1.539428 0.077886 -0.026755 69059.300000 0 0 1
26.971456 14.022518 0.342236 30.400782 0.479442 1.559539 0.079171 -0.024669 -447001.000000 0 0 1
27.544056 14.871518 -0.847264 31.313814 0.495069 1.597857 0.094587 -0.026856 449616.000000 0 0 1
28.147156 16.173718 -0.631764 32.469226 0.521543 1.590255 0.060602 -0.024980 1146750.000000 0 0 1
29.180556 16.302618 0.373036 33.427823 0.509484 1.559637 0.053665 -0.019040 149483.000000 0 0 1
29.783776 17.723918 0.390436 34.660684 0.536799 1.559532 0.060319 -0.016095 -350145.000000 0 0 1
30.453316 17.955718 -0.797964 35.361688 0.532748 1.593364 0.045854 -0.010400 -546810.000000 0 0 1
31.226396 19.078318 -0.647164 36.599028 0.548445 1.588480 0.032328 0.001387 -309302.000000 0 0 1
31.449346 19.714318 -2.045164 37.173894 0.559935 1.625840 0.048806 -0.007186 591917.000000 0 0 1
32.381816 20.806218 -2.081264 38.546237 0.571104 1.624817 -0.000302 -0.001838 957118.000000 0 0 1
31.741976 21.796618 -2.913764 38.615225 0.601731 1.646324 0.038197 -0.011272 527755.000000 0 0 1
32.605696 23.109218 -3.098464 40.084509 0.616573 1.648172 0.030376 -0.006265 180362.000000 0 0 1
32.726136 23.927318 -1.940864 40.586740 0.631320 1.618635 0.040279 -0.002346 497829.000000 0 0 1
33.533506 23.430718 -0.853564 40.917272 0.609870 1.591659 0.042687 0.002482 -260626.000000 0 0 1
33.594316 24.315018 0.433636 41.472716 0.626510 1.560340 0.051352 -0.020889 -193540.000000 0 0 1
34.183636 25.583718 0.220736 42.697732 0.642489 1.565627 0.080474 -0.020304 996337.000000 0 0 1
35.547086 25.575318 0.731436 43.797571 0.623679 1.554095 0.087082 -0.026775 1246630.000000 0 0 1
36.271906 26.914418 0.309736 45.167831 0.638373 1.563939 0.066545 -0.020899 206237.000000 0 0 1
36.808496 26.872718 -1.041564 45.586108 0.630622 1.593647 0.075750 -0.026268 272148.000000 0 0 1
35.875346 27.316318 -2.009064 45.135995 0.650772 1.615322 0.055212 -0.021085 -104898.000000 0 0 1
36.084276 26.831618 -3.443464 45.098427 0.639381 1.647225 0.073451 -0.017415 94814.400000 0 0 1
-36.851020 27.713518 -4.111064 46.291874 -0.644807 1.659721 0.062968 -0.019098 228382.000000 0 0 1
-36.543340 27.306118 -5.454764 45.943381 -0.641723 1.689805 0.061034 -0.018912 -36051.900000 0 0 1
36.190976 27.452818 -6.547064 45.894531 0.648953 1.713939 0.046215 -0.004730 297378.000000 0 0 1
35.126516 26.544318 -6.322764 44.479774 0.647125 1.713429 0.053283 -0.003950 -287832.000000 0 0 1
34.108436 26.627318 -7.297464 43.882257 0.662841 1.737869 0.031611 0.001516 -135878.000000 0 0 1
33.097876 25.498118 -6.961164 42.356596 0.656421 1.735892 0.036853 -0.006701 -761702.000000 0 0 1
33.421196 24.134018 -7.250564 41.856873 0.625416 1.744897 0.030147 -0.005776 -598761.000000 0 0 1
34.470566 23.553518 -6.544564 42.258957 0.599425 1.726290 0.049148 -0.006117 -387303.000000 0 0 1
34.478536 22.002418 -6.689364 41.444221 0.567998 1.732912 0.054497 -0.000376 -301141.000000 0 0 1
33.450326 21.283818 -6.071164 40.109653 0.566671 1.722745 0.029762 0.002488 -253300.000000 0 0 1
33.564946 19.882418 -6.334464 39.522672 0.534780 1.731765 0.048319 -0.004190 -141744.000000 0 0 1
32.471076 19.026918 -5.669864 38.059713 0.530036 1.720326 0.046853 -0.000758 313951.000000 0 0 1
31.222566 19.124518 -6.339864 37.158979 0.549576 1.742250 0.043570 -0.009002 -503144.000000 0 0 1
30.259586 18.337418 -5.745164 35.845646 0.544822 1.731766 0.074362 -0.017350 -113109.000000 0 0 1
28.952676 18.245318 -6.590664 34.850910 0.562314 1.761052 0.063376 -0.018824 300912.000000 0 0 1
29.066626 17.443618 -7.692964 34.761045 0.540512 1.793954 0.056078 -0.019699 378326.000000 0 0 1
27.813956 17.264218 -8.355764 33.785917 0.555504 1.820705 0.078257 -0.025028 332188.000000 0 0 1
27.878256 16.250218 -9.521364 33.644065 0.527751 1.857720 0.074710 -0.031992 -621655.000000 0 0 1
26.972856 16.497318 -10.535164 33.326958 0.548925 1.892428 0.075638 -0.032372 -191899.000000 0 0 1
27.282456 15.707418 -11.667564 33.573612 0.522385 1.925723 0.079564 -0.035283 -208186.000000 0 0 1
26.327256 15.993718 -12.865764 33.383399 0.545913 1.966431 0.086315 -0.028173 -380702.000000 0 0 1
25.002856 15.585518 -12.620364 32.051907 0.557412 1.975501 0.082658 -0.034989 -176637.000000 0 0 1
24.264756 15.640518 -13.832764 32.011710 0.572554 2.017634 0.074382 -0.038010 -527806.000000 0 0 1
24.242056 14.338118 -14.709464 31.774632 0.534114 2.052095 0.067136 -0.044280 24277.300000 0 0 1
25.516056 13.762118 -15.028064 32.654367 0.494631 2.049035 0.085683 -0.049806 584674.000000 0 0 1
26.187156 14.279518 -16.142664 33.915445 0.499218 2.066861 0.092418 -0.050631 1158250.000000 0 0 1
27.663656 13.730218 -16.394364 34.965296 0.460705 2.058813 0.125826 -0.048564 1459320.000000 0 0 1
27.574756 12.365818 -16.738964 34.546686 0.421562 2.076624 0.114971 -0.048782 -606948.000000 0 0 1
28.823976 11.866918 -17.052964 35.530957 0.390554 2.071390 0.103830 -0.028983 -469298.000000 0 0 1
28.659956 10.409718 -17.583864 35.198687 0.348399 2.093887 0.081287 -0.020964 -62744.600000 0 0 1
28.013956 10.370418 -18.852664 35.323508 0.354545 2.133783 0.071060 -0.025730 8532.000000 0 0 1
28.277756 9.247418 -19.638264 35.648389 0.316059 2.154224 0.051539 -0.016719 1102040.000000 0 0 1
29.752986 8.999518 -20.201464 37.071966 0.293725 2.147097 0.047373 -0.014663 669784.000000 0 0 1
30.120856 9.959718 -21.137564 38.121629 0.319341 2.158531 0.052694 -0.017319 92142.100000 0 0 1
30.558926 9.299518 -22.346264 38.983131 0.295410 2.181238 0.038164 -0.009698 -244815.000000 0 0 1
31.978026 8.696018 -22.393164 39.995858 0.265517 2.165046 0.038437 -0.005193 -1459710.000000 0 0 1
32.964326 9.612018 -22.273264 40.928425 0.283722 2.146232 0.045982 -0.004963 -1114170.000000 0 0 1
34.222386 9.004218 -22.461364 41.913727 0.257278 2.136364 0.022134 0.000396 218769.000000 0 0 1
35.414316 9.985918 -22.272664 43.011207 0.274838 2.115113 0.041472 -0.011536 122826.000000 0 0 1
35.455496 10.402218 -20.930464 42.466253 0.285380 2.086185 0.039523 -0.014113 119474.000000 0 0 1
36.335056 11.503218 -20.850064 43.442899 0.306604 2.071385 0.015340 -0.001424 -101116.000000 0 0 1
36.333446 12.354318 -19.558564 43.073030 0.327762 2.042135 0.001713 0.003707 -302932.000000 0 0 1
36.719136 11.619218 -18.440364 42.700681 0.306466 2.017341 0.012744 -0.005823 85701.600000 0 0 1
36.787106 12.345918 -17.207164 42.447607 0.323793 1.988184 0.018438 -0.002319 108054.000000 0 0 1
-36.581050 11.487518 -15.972164 41.536084 -0.304277 1.965503 0.021231 -0.004136 -88156.300000 0 0 1
36.205716 10.567618 -15.634764 40.828596 0.283988 1.963769 0.026720 -0.011242 491435.000000 0 0 1
36.689166 9.514118 -14.808064 40.692654 0.253728 1.943248 0.026932 -0.020592 12810.600000 0 0 1
35.734146 8.304818 -14.515464 39.453744 0.228352 1.947558 0.087918 -0.014425 -672399.000000 0 0 1
34.709326 8.569018 -13.647464 38.267723 0.242039 1.935456 0.105226 -0.027039 -54544.400000 0 0 1
35.122746 8.359018 -12.279664 38.134900 0.233648 1.898644 0.108793 -0.027372 -763848.000000 0 0 1
34.015466 8.789918 -11.361464 36.924212 0.252878 1.883568 0.129831 -0.025645 -687870.000000 0 0 1
33.780446 10.175318 -11.398164 37.075245 0.292575 1.883291 0.121649 -0.031184 -97766.100000 0 0 1
32.931776 10.641218 -10.381864 36.131987 0.312539 1.862236 0.104561 -0.022277 -412861.000000 0 0 1
33.493026 10.672518 -8.963464 36.277116 0.308477 1.820465 0.115300 -0.023262 -194494.000000 0 0 1
34.601626 11.500418 -8.680064 37.481671 0.320880 1.804499 0.105264 -0.019716 -16159.900000 0 0 1
34.448136 12.716818 -7.964364 37.574228 0.353639 1.784380 0.106268 -0.021611 -327266.000000 0 0 1
34.127526 12.575618 -6.451664 36.938573 0.353050 1.746356 0.091992 -0.017218 -754250.000000 0 0 1
35.197436 12.096618 -5.724464 37.655772 0.331033 1.723409 0.100931 -0.013248 -400053.000000 0 0 1
35.107796 12.464518 -4.365764 37.509751 0.341154 1.687451 0.086967 -0.011375 -104672.000000 0 0 1
36.510526 12.565318 -3.746664 38.793598 0.331459 1.667527 0.097201 -0.007814 16464.000000 0 0 1
-36.655170 13.815618 -3.924564 39.368452 -0.360442 1.670650 0.095867 -0.009303 200173.000000 0 0 1
-35.432852 13.790818 -3.208564 38.157156 -0.371170 1.654984 0.084575 -0.014466 336467.000000 0 0 1
-34.581330 15.065718 -3.212664 37.857172 -0.410865 1.655761 0.077347 -0.011725 -16009.000000 0 0 1
-35.160551 15.980218 -2.372064 38.694424 -0.426584 1.632137 0.089496 -0.012002 35980.300000 0 0 1
-34.319781 17.063218 -2.077564 38.383812 -0.461392 1.624949 0.099318 -0.014724 131901.000000 0 0 1
-35.022686 17.967518 -1.021264 39.375922 -0.474013 1.596735 0.100277 -0.013975 -121029.000000 0 0 1
-36.241240 18.480518 -1.456164 40.707216 -0.471561 1.606576 0.097356 -0.008886 -321485.000000 0 0 1
-36.808230 19.452018 -0.596964 41.636320 -0.486163 1.585134 0.078889 -0.007266 638836.000000 0 0 1
36.215046 20.520118 -1.444964 41.649642 0.515513 1.605497 0.075282 -0.010455 456414.000000 0 0 1
-36.734330 21.467318 -1.973064 42.592836 -0.528865 1.617137 0.090068 -0.006927 319197.000000 0 0 1
36.495066 22.156518 -3.054664 42.803412 0.545631 1.642222 0.076920 -0.005771 -11039.600000 0 0 1
-36.419600 23.289418 -3.536564 43.373858 -0.568941 1.652424 0.103450 -0.015058 206054.000000 0 0 1
-35.130782 22.891418 -3.968364 42.118129 -0.577503 1.665156 0.112169 -0.019971 27247.800000 0 0 1
-34.374963 24.038918 -4.324964 42.168862 -0.610266 1.673540 0.112703 -0.020487 280518.000000 0 0 1
-32.887260 23.676018 -4.564364 40.779396 -0.623967 1.682960 0.102011 -0.026694 129766.000000 0 0 1
-32.637620 22.956418 -5.760664 40.316208 -0.612986 1.714174 0.091319 -0.020729 -185286.000000 0 0 1
-31.262410 22.892318 -6.067164 39.219982 -0.632053 1.726116 0.074378 -0.011552 -281271.000000 0 0 1
-30.922250 22.274218 -7.408964 38.822919 -0.624240 1.762814 0.071379 -0.022990 -245509.000000 0 0 1
-31.590850 22.918918 -8.443264 39.931783 -0.627631 1.783847 0.078997 -0.028834 68573.300000 0 0 1
-31.124750 22.442318 -9.681264 39.574418 -0.624710 1.817939 0.030769 -0.020241 -394552.000000 0 0 1
-32.263460 22.426918 -10.683964 40.719094 -0.607442 1.836286 0.046818 -0.008776 -573978.000000 0 0 1
-32.701870 23.700618 -11.021164 41.864038 -0.627143 1.837197 0.057412 -0.009827 -146499.000000 0 0 1
-33.329070 23.621518 -12.263464 42.652029 -0.616565 1.862437 0.042574 -0.004340 -655059.000000 0 0 1
-33.662890 25.026618 -12.903164 43.886369 -0.639295 1.869219 0.066961 -0.007466 -119843.000000 0 0 1
-32.591210 25.903618 -13.136764 43.654999 -0.671564 1.876456 0.058295 -0.007627 -140938.000000 0 0 1
-31.664420 25.476818 -14.118264 43.023588 -0.677532 1.905143 0.049357 -0.010842 91203.500000 0 0 1
-30.200000 25.993218 -13.986264 42.229172 -0.710675 1.908370 0.038845 -0.008388 575522.000000 0 0 1
-29.380790 25.355418 -12.983164 40.922984 -0.711989 1.893634 0.023778 -0.011728 414972.000000 0 0 1
-29.805350 25.428218 -11.596464 40.858673 -0.706316 1.858571 0.041659 -0.009733 -784481.000000 0 0 1
-29.941090 26.825618 -10.901364 41.652399 -0.730571 1.835603 0.051880 -0.001619 644419.000000 0 0 1
-28.631120 27.254018 -10.524864 40.905932 -0.760762 1.831018 0.045589 -0.008462 262776.000000 0 0 1
-28.782910 28.438318 -9.801064 41.632375 -0.779376 1.808446 0.049989 -0.015026 -494739.000000 0 0 1
-27.572260 29.129618 -9.254464 41.163203 -0.812857 1.797558 0.071568 -0.021185 -563515.000000 0 0 1
-27.960400 30.473718 -8.984064 42.321919 -0.828383 1.784703 0.076306 -0.030910 624141.000000 0 0 1
-26.865880 31.237818 -8.440064 42.057240 -0.860500 1.772849 0.088542 -0.024872 406560.000000 0 0 1
35.053196 -24.957382 33.793699 54.713906 -0.618725 0.905053 0.032183 -0.004170 -148324.000000 0 0 1
34.709726 -23.594982 33.909926 53.957125 -0.597026 0.891224 0.031782 -0.006608 175865.000000 0 0 1
33.871606 -23.462682 -32.973594 52.773488 -0.605806 2.245689 0.027168 0.000565 201362.000000 0 0 1
33.554566 -21.991382 -32.740184 51.782714 -0.580156 2.255264 0.017800 0.003035 -381286.000000 0 0 1
32.792406 -21.487282 -33.754084 51.733774 -0.580058 2.281619 0.011879 -0.000406 -510537.000000 0 0 1
32.409436 -20.167882 -33.469744 50.767497 -0.556644 2.290651 0.009359 0.003008 -22556.600000 0 0 1
32.127626 -19.345482 33.312408 50.161225 -0.541995 0.844498 0.007967 -0.004187 33107.300000 0 0 1
33.223166 -19.241582 32.422415 50.251669 -0.524956 0.869510 0.034841 -0.018891 31568.700000 0 0 1
32.889126 -18.608482 31.176516 48.989237 -0.514888 0.880980 0.038320 -0.014940 -325274.000000 0 0 1
34.109896 -18.419782 30.278496 49.189030 -0.495143 0.907708 0.041428 -0.025975 -323336.000000 0 0 1
34.788606 -17.210882 30.483566 49.352906 -0.459421 0.905026 0.032522 -0.027514 72327.100000 0 0 1
36.109346 -17.352982 30.009196 50.055596 -0.447981 0.927898 0.053664 -0.031667 -645417.000000 0 0 1
-36.792210 -16.206882 30.277256 50.329335 0.414924 0.925315 0.063817 -0.034013 79510.500000 0 0 1
-35.451401 -16.552282 29.908056 49.247047 0.436819 0.918130 0.065078 -0.029860 534936.000000 0 0 1
-34.574840 -15.473882 30.201206 48.445571 0.420813 0.897707 0.061282 -0.032814 592824.000000 0 0 1
-33.085220 -15.968582 30.220576 47.570060 0.449672 0.882418 0.082202 -0.033761 248505.000000 0 0 1
-32.223650 -14.966282 30.712056 46.963641 0.434806 0.857997 0.079130 -0.029714 23417.400000 0 0 1
-30.975470 -15.562582 31.019506 46.517560 0.465579 0.840844 0.083109 -0.034579 -287555.000000 0 0 1
-29.956060 -14.679182 31.708706 46.024840 0.455635 0.810760 0.070042 -0.031125 -533561.000000 0 0 1
-30.330990 -14.098982 32.912234 46.925104 0.435124 0.793467 0.085053 -0.031204 563373.000000 0 0 1
-29.315970 -13.183882 33.352109 46.320665 0.422618 0.766956 0.068005 -0.027868 323482.000000 0 0 1
-29.629230 -12.627482 -33.292084 46.321781 0.402872 2.372746 0.063133 -0.013768 -152776.000000 0 0 1
-29.684100 -13.508882 -32.165964 45.807040 0.427077 2.349287 0.074488 -0.014753 251827.000000 0 0 1
-30.093450 -12.873382 -30.940974 45.040910 0.404223 2.328084 0.085999 -0.010782 -207049.000000 0 0 1
-30.363320 -13.817382 -29.734484 44.687703 0.427061 2.298804 0.087479 -0.017164 694684.000000 0 0 1
-31.621300 -14.499682 -29.831664 45.826582 0.429934 2.279656 0.085441 -0.018280 546759.000000 0 0 1
-32.148340 -15.023182 -28.624974 45.591676 0.437154 2.249591 0.090555 -0.013844 803459.000000 0 0 1
-33.483430 -15.820182 -28.813394 46.921529 0.441389 2.232011 0.082383 -0.024887 236160.000000 0 0 1
-33.311340 -16.961482 -29.599954 47.681176 0.470965 2.240545 0.093122 -0.025500 562853.000000 0 0 1
-34.214541 -18.038182 -29.244084 48.489455 0.485176 2.218181 0.073446 -0.019224 361597.000000 0 0 1
-33.882580 -19.298482 -30.037104 49.220811 0.517743 2.227175 0.078099 -0.017890 11501.500000 0 0 1
-34.825235 -20.326582 -29.826154 50.155422 0.528329 2.207657 0.033226 -0.014486 27604.700000 0 0 1
-34.408799 -21.568482 -30.376374 50.713795 0.559914 2.213019 0.039803 -0.017520 -447552.000000 0 0 1
-35.537152 -22.523682 -30.731634 52.102195 0.564907 2.201649 0.039014 -0.010330 -489796.000000 0 0 1
-36.306760 -22.887682 -29.606764 52.140074 0.562471 2.174665 0.022440 -0.013565 709384.000000 0 0 1
36.337926 -23.653882 -29.910264 52.674234 -0.577037 2.174669 0.027624 -0.009151 903289.000000 0 0 1
36.597776 -25.146912 -30.262624 53.736308 -0.602026 2.169012 0.027707 -0.005346 -221684.000000 0 0 1
-36.883280 -25.381232 -31.580774 54.789858 0.602729 2.185110 0.043429 -0.008013 -86930.500000 0 0 1
-36.177710 -26.631282 -31.614434 54.931997 0.634561 2.184036 0.028512 0.000742 197483.000000 0 0 1
-36.305600 -27.317452 -32.992924 56.150448 0.645055 2.198862 0.044615 -0.012293 428142.000000 0 0 1
36.333346 -28.062852 -33.237084 56.677504 -0.657666 2.197434 0.028943 -0.005536 -61283.800000 0 0 1
36.505236 -29.388122 -33.747684 57.751192 -0.677806 2.194892 0.036315 -0.012321 -18453.200000 0 0 1
-36.534340 -30.439172 -32.912024 57.831674 0.694640 2.176208 0.044524 -0.025825 -93932.800000 0 0 1
36.673826 -30.859792 -31.749204 57.491810 -0.699519 2.155844 0.048154 -0.026339 -442906.000000 0 0 1
-36.380340 -31.779742 -31.000464 57.397821 0.718003 2.141350 0.049416 -0.030256 -392213.000000 0 0 1
36.850226 -32.339232 -29.763314 57.355209 -0.720293 2.116395 0.040076 -0.031839 -259381.000000 0 0 1
35.861646 -33.318942 -30.022144 57.424200 -0.748660 2.120944 0.057243 -0.030441 17295.600000 0 0 1
35.339386 -33.787122 -28.805004 56.746542 -0.762947 2.103203 0.059035 -0.030277 -491879.000000 0 0 1
34.218526 33.290722 -29.004574 55.860944 0.771656 2.116744 0.069869 -0.042082 -462169.000000 0 0 1
32.994366 33.826457 -29.458974 55.683827 0.797850 2.128265 0.076665 -0.039969 -135310.000000 0 0 1
31.959246 32.934759 -29.077804 54.328726 0.800429 2.135564 0.068791 -0.043673 1224610.000000 0 0 1
30.552126 33.302325 -29.745094 54.104047 0.828441 2.152892 0.042340 -0.032823 1052340.000000 0 0 1
30.503626 33.211011 -31.145844 54.804252 0.827865 2.175248 0.048548 -0.022997 -957194.000000 0 0 1
29.410486 33.807826 -31.717244 54.899266 0.854844 2.186748 0.038317 -0.011769 -761843.000000 0 0 1
29.084296 33.194567 -33.074294 55.151469 0.851300 2.213922 0.038781 -0.017300 10853.700000 0 0 1
28.670656 31.838209 -33.116454 54.151432 0.837699 2.228818 0.028551 -0.010766 857.129000 0 0 1
28.567756 31.400129 33.575273 54.123782 0.832595 0.901617 0.033820 -0.008068 -23152.200000 0 0 1
28.567756 29.915759 33.576497 53.277110 0.808443 0.888955 0.034759 -0.016413 -21479.700000 0 0 1
29.796136 29.301559 33.911586 53.818089 0.777030 0.889095 0.041981 -0.011134 -439193.000000 0 0 1
29.691536 27.902469 -33.901844 53.004435 0.754345 2.264779 0.031746 -0.013212 -78886.100000 0 0 1
31.019226 27.176949 -33.622904 53.209761 0.719471 2.254790 0.070548 -0.015727 99655.400000 0 0 1
31.673506 27.520989 -32.402244 53.014350 0.715363 2.228369 0.076242 -0.018268 -107577.000000 0 0 1
32.952876 26.914059 -32.457204 53.513818 0.684868 2.222473 0.092507 -0.016944 623170.000000 0 0 1
33.757426 26.995679 -31.058564 53.225604 0.674556 2.193861 0.085447 -0.016779 262924.000000 0 0 1
34.395736 28.251219 -30.810094 54.133723 0.687629 2.176265 0.059328 -0.017921 -163846.000000 0 0 1
33.616156 29.396439 -30.724624 54.205158 0.718532 2.173438 0.073400 -0.015667 -674879.000000 0 0 1
32.726436 29.521899 -29.488924 53.029792 0.733964 2.160461 0.083747 -0.010838 -88827.100000 0 0 1
33.387086 29.761069 -28.260024 52.906027 0.728040 2.134304 0.073742 -0.018557 731768.000000 0 0 1
32.400146 29.999269 -27.219474 51.871239 0.746941 2.123219 0.069295 -0.020133 622044.000000 0 0 1
33.090696 30.464179 -25.875714 51.890394 0.744095 2.092850 0.093410 -0.025571 167377.000000 0 0 1
33.468176 31.813099 -26.047204 53.015554 0.760051 2.084392 0.088326 -0.030319 -103509.000000 0 0 1
34.035646 32.193680 -24.830764 53.022873 0.757593 2.058165 0.069786 -0.037347 -148142.000000 0 0 1
34.514456 33.712157 -24.868364 54.278843 0.773639 2.046720 0.076036 -0.035806 77182.300000 0 0 1
33.387036 -33.527542 -24.961364 53.496354 -0.787498 2.056238 0.080655 -0.028877 123012.000000 0 0 1
33.650776 -32.146652 -24.828364 52.746845 -0.762542 2.060889 0.062041 -0.033826 -674346.000000 0 0 1
34.436056 -31.371642 -25.913594 53.306062 -0.738866 2.078450 0.045162 -0.032640 1757530.000000 0 0 1
35.828586 -31.638382 -26.245694 54.529912 -0.723370 2.072943 0.063130 -0.035573 1918240.000000 0 0 1
36.777776 -31.326622 -25.200684 54.488866 -0.705527 2.051601 0.060137 -0.032861 -74670.900000 0 0 1
-35.583758 -31.581112 -25.551594 54.004207 0.725874 2.063649 0.024610 -0.029551 -409712.000000 0 0 1
-34.968855 -32.832812 -25.184474 54.176306 0.753904 2.054274 0.028235 -0.031198 -50443.300000 0 0 1
-34.826742 -33.245442 -23.761464 53.691420 0.762173 2.029243 0.034562 -0.028631 -500296.000000 0 0 1
-33.881600 -32.370282 -22.956664 52.180517 0.762590 2.026336 0.015335 -0.022965 -412473.000000 0 0 1
-34.239465 -31.037212 -22.986864 51.614391 0.736381 2.032370 -0.007875 -0.014232 -456418.000000 0 0 1
-33.625170 -30.391702 -21.935864 50.353647 0.734931 2.021541 0.010159 -0.014279 -845448.000000 0 0 1
-33.499070 -28.839882 -22.032664 49.389926 0.710797 2.033195 0.007136 -0.001786 723660.000000 0 0 1
-34.745358 -28.148072 -22.266564 49.953516 0.680884 2.032803 -0.005004 -0.001707 728777.000000 0 0 1
-35.180555 -28.101882 -23.650464 50.859922 0.674003 2.054444 0.000632 -0.007909 184947.000000 0 0 1
-36.515400 -27.375942 -23.962364 51.546208 0.643315 2.054286 0.002780 -0.004471 273254.000000 0 0 1
-36.421850 -25.970402 -23.526064 50.541949 0.619427 2.054969 -0.010842 0.002554 292178.000000 0 0 1
36.364906 -25.150762 -24.045064 50.330233 -0.605081 2.068883 -0.000340 -0.001295 416122.000000 0 0 1
36.882076 -24.421182 -25.345594 50.981181 -0.584864 2.091114 0.005489 -0.003122 165055.000000 0 0 1
-35.805497 -23.612282 -25.172314 49.731468 0.582997 2.101528 0.007353 -0.007866 -153884.000000 0 0 1
-35.515167 -23.044682 -26.454234 49.922049 0.575580 2.129292 0.022811 -0.015418 -48330.400000 0 0 1
-34.366027 -22.013782 -26.514524 48.668783 0.569716 2.146941 0.029844 -0.025288 -198749.000000 0 0 1
-34.507097 -20.850682 -25.768854 47.848976 0.543534 2.139506 0.021398 -0.016237 91342.600000 0 0 1
-35.525229 -19.928482 -26.170484 48.415705 0.511224 2.141872 0.018592 -0.014443 829403.000000 0 0 1
-36.732030 -19.812382 -25.165104 48.734536 0.494650 2.113404 0.007130 -0.014535 291021.000000 0 0 1
-36.486730 -19.174982 -23.912264 47.652469 0.483865 2.096481 0.005045 -0.019790 328932.000000 0 0 1
-35.559834 -19.839282 -23.000764 46.766805 0.508898 2.084973 -0.002353 -0.014393 416969.000000 0 0 1
-36.016265 -21.242982 -22.428364 47.449627 0.532898 2.063123 0.007536 -0.009877 -12123.200000 0 0 1
36.818176 -21.071882 -21.462064 47.541797 -0.519820 2.039170 0.001936 -0.010991 -339267.000000 0 0 1
36.280796 -22.297982 -21.059764 47.507997 -0.551082 2.030061 0.006193 -0.000208 -392883.000000 0 0 1
35.226306 -22.168782 -19.967664 46.163353 -0.561703 2.018108 -0.001832 -0.003164 277085.000000 0 0 1
33.973586 -21.650982 -20.457864 45.182892 -0.567387 2.040676 0.015325 -0.000945 150503.000000 0 0 1
32.993836 -21.742182 -19.474264 44.051818 -0.582660 2.028708 0.038445 -0.004769 1040610.000000 0 0 1
31.573436 -21.205982 -19.967964 42.956898 -0.591438 2.054247 0.035669 0.000933 1044020.000000 0 0 1
31.076086 -21.898382 -21.132664 43.495422 -0.613853 2.078143 0.041947 0.000914 415111.000000 0 0 1
29.781336 -21.521482 -21.572964 42.608625 -0.625766 2.101691 0.081095 -0.002991 246614.000000 0 0 1
29.752276 -20.221682 -22.430764 42.394027 -0.596950 2.128338 0.058332 -0.002260 -321181.000000 0 0 1
30.099206 -19.045982 -21.716964 41.717360 -0.564170 2.118319 0.060431 -0.004337 77876.200000 0 0 1
30.155376 -17.847282 -22.453064 41.617451 -0.534401 2.140652 0.048857 -0.002065 -176946.000000 0 0 1
30.863076 -16.692182 -21.738964 41.276397 -0.495788 2.125473 0.034659 -0.007799 -441043.000000 0 0 1
30.248216 -16.352782 -20.502264 40.033872 -0.495613 2.108451 0.037726 -0.008173 481811.000000 0 0 1
31.117276 -15.658382 -19.591964 39.966422 -0.466209 2.083128 0.026718 -0.011808 213989.000000 0 0 1
32.172946 -16.535082 -18.880564 40.804204 -0.474740 2.051847 0.034859 -0.018131 -501070.000000 0 0 1
33.257246 -16.795082 -19.719464 42.154199 -0.467644 2.057589 0.020454 -0.018648 -619925.000000 0 0 1
34.058856 -17.806582 -19.145264 42.937410 -0.481735 2.032962 0.028226 -0.018622 -540823.000000 0 0 1
35.317966 -18.092682 -19.950164 44.415233 -0.473423 2.036637 0.013899 -0.022567 -286206.000000 0 0 1
36.273136 -17.035682 -19.875664 44.732504 -0.439074 2.031214 0.018023 -0.021994 53137.100000 0 0 1
-36.619210 -17.235282 -20.896764 45.548833 0.439903 2.047415 0.014173 -0.016809 -371686.000000 0 0 1
-35.760833 -16.083782 -21.354964 44.649297 0.422654 2.069494 0.030576 -0.015709 -388979.000000 0 0 1
-34.829382 -15.644782 -20.408764 43.293911 0.422175 2.061674 0.048458 -0.021801 -664083.000000 0 0 1
-34.059080 -14.652082 -20.993864 42.608060 0.406264 2.086010 0.061881 -0.020153 -607054.000000 0 0 1
-32.790070 -14.330982 -20.166564 41.076222 0.412035 2.083982 0.065241 -0.023271 1040630.000000 0 0 1
-31.706640 -15.307382 -20.294564 40.638606 0.449778 2.093692 0.067947 -0.026167 1029070.000000 0 0 1
-31.926390 -16.511882 -19.545564 40.914126 0.477302 2.068856 0.055711 -0.023574 -335687.000000 0 0 1
-30.843930 -17.605082 -19.733664 40.628862 0.518657 2.077966 0.045406 -0.026287 104767.000000 0 0 1
-31.247310 -18.862182 -19.169164 41.226607 0.543093 2.054398 0.048906 -0.027789 505375.000000 0 0 1
-30.240580 -19.832282 -19.413164 41.044890 0.580454 2.063459 0.056083 -0.032237 140684.000000 0 0 1
-30.789430 -21.189382 -18.978764 41.918640 0.602765 2.040646 0.047950 -0.013735 142946.000000 0 0 1
-31.742810 -21.744682 -19.885264 43.311210 0.600606 2.047806 0.038665 -0.015785 372944.000000 0 0 1
-32.161490 -23.001582 -19.460864 44.069938 0.620848 2.028167 0.036507 -0.004418 -176119.000000 0 0 1
-33.149220 -23.668882 -20.447164 45.576016 0.620067 2.036038 0.017636 -0.001978 -67367.000000 0 0 1
-32.591060 -24.074682 -21.707264 45.967084 0.636223 2.062621 0.028015 -0.014122 318938.000000 0 0 1
-33.423990 -24.975282 -22.441064 47.376462 0.641724 2.064256 0.021937 -0.010464 108377.000000 0 0 1
-32.901210 -25.110432 -23.886564 47.786937 0.651900 2.094228 0.022248 -0.005544 -148243.000000 0 0 1
-31.555500 -25.465062 -24.046664 47.142985 0.678990 2.106073 0.036884 -0.009634 -475633.000000 0 0 1
-31.217680 -25.928702 -25.366604 47.857139 0.693110 2.129454 0.032749 -0.006266 -546014.000000 0 0 1
-29.710440 -26.006582 -25.529294 47.019117 0.719020 2.144749 0.046226 -0.009124 -438981.000000 0 0 1
-29.055820 -24.794382 -25.913154 46.157270 0.706428 2.166885 0.057081 -0.006145 823049.000000 0 0 1
-27.632090 -24.977682 -25.958594 45.401163 0.734986 2.179447 0.053250 -0.000014 1107330.000000 0 0 1
-26.758030 -23.714382 -26.021744 44.220982 0.725168 2.199934 0.072753 0.002785 52034.900000 0 0 1
-27.030250 -23.114382 -27.278424 44.822109 0.707465 2.225083 0.063362 -0.001821 247259.000000 0 0 1
-25.933190 -22.310482 -27.653164 43.988469 0.710447 2.250607 0.079992 -0.017260 74024.300000 0 0 1
-25.895360 -21.872082 -29.140544 44.700436 0.701370 2.280893 0.052877 -0.004132 -28471.300000 0 0 1
-25.584570 -22.921382 -30.043474 45.635187 0.730549 2.289408 0.060449 -0.001962 120303.000000 0 0 1
-25.176060 -22.362382 -31.274144 45.956308 0.726280 2.319267 0.056003 0.002321 -41486.300000 0 0 1
-24.768180 -23.457282 -32.277234 46.963035 0.758222 2.328548 0.047533 -0.001560 -130566.000000 0 0 1
-25.839510 -24.098982 -32.904524 48.281973 0.750559 2.320617 0.015270 -0.002146 -229243.000000 0 0 1
-25.350310 -25.131492 -33.793104 49.154898 0.781064 2.328812 0.070442 0.001923 407800.000000 0 0 1
-20.033480 -15.473582 -12.058564 28.038920 0.657675 2.015361 0.059668 -0.013708 -170574.000000 0 0 1
-20.371880 -14.715382 -10.900864 27.393152 0.625561 1.980068 0.077742 -0.022263 841931.000000 0 0 1
-19.360480 -14.990582 -9.888864 26.407108 0.658865 1.954629 0.043594 -0.017010 677561.000000 0 0 1
-19.564280 -14.178282 -8.594864 25.644813 0.627113 1.912561 0.079598 -0.024246 -192084.000000 0 0 1
-20.751080 -14.548382 -7.941564 26.558072 0.611457 1.874469 0.133477 -0.039273 -77906.400000 0 0 1
-20.989180 -13.824582 -6.751364 26.023944 0.582434 1.833227 0.095962 -0.033310 677748.000000 0 0 1
-22.311080 -14.378882 -6.078864 27.230298 0.572480 1.795932 0.135037 -0.036645 579520.000000 0 0 1
-22.287380 -15.714982 -5.584164 27.836502 0.614145 1.772773 0.113075 -0.026688 247583.000000 0 0 1
-22.134780 -15.782882 -4.176764 27.504422 0.619421 1.723244 0.123199 -0.030151 -30105.800000 0 0 1
-21.750180 -17.176682 -3.589064 27.946200 0.668445 1.699580 0.093886 -0.021970 552625.000000 0 0 1
-22.926380 -17.971082 -3.452564 29.334261 0.664822 1.688767 0.114439 -0.023663 667788.000000 0 0 1
-22.584280 -18.971482 -2.524064 29.603002 0.698678 1.656164 0.092024 -0.019997 648796.000000 0 0 1
-23.829080 -19.873682 -2.210364 31.107459 0.695137 1.641912 0.100287 -0.028564 780189.000000 0 0 1
-24.311280 -20.572582 -3.392764 32.027805 0.702293 1.676927 0.072432 -0.028078 268388.000000 0 0 1
-25.503540 -21.304782 -3.178464 33.383033 0.695936 1.666153 0.073481 -0.025663 253341.000000 0 0 1
-25.511210 -22.466882 -4.213764 34.254028 0.722031 1.694124 0.071239 -0.023852 -33230.200000 0 0 1
-24.422980 -23.349282 -3.986464 34.022975 0.762927 1.688236 0.071563 -0.023482 -175644.000000 0 0 1
-24.169480 -24.093982 -5.141164 34.512538 0.783834 1.720318 0.073010 -0.018384 155602.000000 0 0 1
-22.669380 -24.210182 -5.550464 33.627985 0.818254 1.736610 0.071287 -0.019332 492225.000000 0 0 1
-22.073380 -23.044982 -6.078364 32.484640 0.806929 1.759021 0.058316 -0.019102 87865.400000 0 0 1
-21.873280 -21.918882 -5.196364 31.398725 0.786439 1.737057 0.059843 -0.012160 -771226.000000 0 0 1
-21.759480 -20.520882 -5.833764 30.473175 0.756112 1.763425 0.077342 -0.010537 -56696.300000 0 0 1
-20.528180 -20.386382 -6.502664 29.652915 0.781932 1.791886 0.047295 -0.007820 -219223.000000 0 0 1
-20.462980 -19.191482 -7.276364 28.982616 0.753345 1.824571 0.038907 -0.016079 -100812.000000 0 0 1
-19.194380 -18.876482 -8.079764 28.107444 0.777048 1.862370 0.043143 -0.017464 -539728.000000 0 0 1
-19.057680 -19.831582 -9.072364 28.961951 0.805296 1.889411 0.047441 -0.015865 375007.000000 0 0 1
-17.771980 -19.793682 -9.700664 28.314943 0.839164 1.920478 0.059842 -0.009977 283597.000000 0 0 1
-17.422980 -18.568182 -10.604064 27.582309 0.817206 1.965410 0.061880 -0.014861 -731117.000000 0 0 1
-17.167680 -17.358982 -9.922564 26.353762 0.790939 1.956827 0.068493 -0.013377 -199433.000000 0 0 1
-15.907680 -17.323282 -9.296564 25.289849 0.827971 1.947224 0.082397 -0.010917 -586627.000000 0 0 1
-15.708480 -16.099282 -8.384164 24.004946 0.797684 1.927586 0.071656 -0.011146 -425379.000000 0 1 0
-16.452780 -16.162582 -7.224864 24.168610 0.776501 1.874374 0.054137 -0.009665 -202579.000000 0 1 0
-16.421380 -15.055982 -6.392964 23.177884 0.742048 1.850241 0.059536 -0.011455 -111607.000000 0 1 0
-17.437180 -15.335882 -5.277364 23.813758 0.721369 1.794261 0.080061 -0.012640 -109629.000000 0 1 0
-17.824380 -14.251282 -4.456064 23.252184 0.674460 1.763630 0.085856 -0.010342 103146.000000 0 1 0
-18.356580 -14.752782 -3.221164 23.769403 0.676980 1.706732 0.085672 -0.003280 -92358.000000 0 1 0
-19.073480 -13.640782 -2.417664 23.573580 0.620835 1.673535 0.092422 -0.010113 101682.000000 0 1 0
-20.311180 -13.280882 -3.032164 24.456489 0.579091 1.695098 0.119614 -0.025236 345210.000000 0 1 0
-20.974280 -12.337982 -2.256164 24.438422 0.531730 1.663248 0.125706 -0.023392 -492377.000000 0 1 0
-22.489680 -12.291482 -2.500764 25.751117 0.500182 1.668062 0.123304 -0.020667 -254164.000000 0 0 1
-22.913980 -11.602382 -3.674864 25.945527 0.468711 1.712912 0.127283 -0.028352 114119.000000 0 0 1
-24.278580 -11.832282 -3.934464 27.293449 0.453480 1.715454 0.125134 -0.024066 -155927.000000 0 0 1
-24.734880 -11.007082 -5.167364 27.562144 0.418690 1.759393 0.136143 -0.039624 -105885.000000 0 0 1
-24.247080 -11.520182 -6.397264 27.596385 0.443543 1.804740 0.148792 -0.045884 94342.400000 0 0 1
-24.864280 -10.964782 -7.503264 28.191450 0.415332 1.840197 0.157584 -0.048491 -535442.000000 0 0 1
-24.029580 -11.175282 -8.729164 27.901719 0.435310 1.888993 0.177439 -0.057556 -1643520.000000 0 0 1
-22.741480 -10.742682 -8.684364 26.608238 0.441311 1.903266 0.142252 -0.052358 -1171620.000000 0 0 1
-22.054280 -11.171882 -9.835264 26.607041 0.468884 1.949427 0.109974 -0.040545 292014.000000 0 0 1
-20.642080 -10.505482 -9.938464 25.203843 0.470770 1.976128 0.089404 -0.036384 277656.000000 0 0 1
-20.732980 -9.171682 -10.400564 24.942894 0.416492 2.000911 0.096611 -0.039658 396999.000000 0 1 0
-19.606280 -8.426482 -10.016864 23.574337 0.405916 2.009654 0.094100 -0.035448 -152054.000000 0 1 0
-19.808280 -6.985782 -10.606264 23.530022 0.339051 2.038407 0.092869 -0.041955 -21537.500000 0 1 0
-19.632280 -6.997982 -12.021864 24.060827 0.342412 2.093985 0.120875 -0.037468 502661.000000 0 1 0
-19.952980 -5.747582 -12.585764 24.280807 0.280464 2.115707 0.132805 -0.040573 -434481.000000 0 1 0
-19.494580 -5.613882 -14.010364 24.654505 0.280385 2.175196 0.187788 -0.038233 -314592.000000 0 1 0
-20.062380 -6.505882 -14.931164 25.841154 0.313583 2.186834 0.150918 -0.045073 218000.000000 0 0 1
-19.503380 -6.294682 -16.204764 26.126600 0.312194 2.239845 0.146734 -0.050642 -341694.000000 0 0 1
-19.942080 -7.298482 -17.248164 27.357879 0.350843 2.252947 0.118185 -0.039928 -151192.000000 0 0 1
-21.331980 -7.167882 -17.468964 28.488535 0.324163 2.230892 0.109381 -0.040271 427734.000000 0 0 1
-21.787180 -7.897882 -18.616264 29.725798 0.347768 2.247551 0.096642 -0.040323 116655.000000 0 0 1
-23.219280 -7.497082 -19.048864 30.954813 0.312315 2.233660 0.090659 -0.037412 -679293.000000 0 0 1
-23.223980 -6.305682 -19.797064 31.161493 0.265124 2.259200 0.089774 -0.036131 163994.000000 0 0 1
-24.457780 -6.020082 -20.390464 32.406719 0.241344 2.251326 0.060558 -0.032350 -447922.000000 0 0 1
-25.696830 -5.718582 -19.562764 32.798338 0.218972 2.209875 0.059476 -0.028265 -970714.000000 0 0 1
-25.774540 -4.368182 -19.240564 32.459317 0.167881 2.205277 0.076459 -0.029479 102636.000000 0 0 1
-26.942680 -4.100682 -18.505364 32.941950 0.151041 2.167304 0.095514 -0.025409 -527368.000000 0 0 1
-27.096430 -2.615682 -18.013064 32.642438 0.096234 2.155353 0.091319 -0.019535 5184.530000 0 0 1
-27.308100 -1.618082 -19.014464 33.315167 0.059184 2.178209 0.102083 -0.022783 99528.400000 0 0 1
-28.624720 -1.658482 -19.519064 34.686006 0.057874 2.168488 0.101860 -0.021280 -118485.000000 0 0 1
-28.998640 -0.541982 -20.533764 35.536605 0.018688 2.186852 0.108514 -0.012872 -93397.700000 0 0 1
-28.391420 -0.662082 -21.823664 35.815966 0.023316 2.226009 0.110646 -0.015792 216889.000000 0 0 1
-28.884910 -1.676982 -22.687364 36.767741 0.057992 2.235779 0.106008 -0.009965 107695.000000 0 0 1
-27.983730 -1.736782 -23.960764 36.881212 0.061984 2.277952 0.108963 -0.013101 -389518.000000 0 0 1
-28.167840 -0.629182 -24.864064 37.577184 0.022333 2.293853 0.128894 -0.014673 119893.000000 0 0 1
-27.713440 0.689418 -24.559464 37.036162 -0.024872 2.295777 0.127647 -0.009676 -94183.600000 0 0 1
-26.257670 0.772518 -24.050764 35.616025 -0.029412 2.312140 0.127342 -0.018230 -502112.000000 0 0 1
-25.272660 0.316318 -24.920364 35.494111 -0.012516 2.349137 0.111482 -0.022153 -136709.000000 0 0 1
-23.956680 0.510918 -24.432864 34.222046 -0.021324 2.365921 0.099287 -0.026724 824386.000000 0 0 1
-22.788880 0.062918 -25.381894 34.111253 -0.002761 2.409970 0.085281 -0.018196 439480.000000 0 0 1
-22.570280 0.875818 -26.567214 34.871212 -0.038785 2.436986 0.064767 -0.013426 8474.100000 0 0 1
-21.766180 0.224318 -27.505214 35.076398 -0.010305 2.472124 0.045145 -0.015748 -219640.000000 0 0 1
-21.550280 1.002418 -28.880774 36.048835 -0.046482 2.500022 0.047004 0.005150 -176954.000000 0 0 1
-20.489080 1.941418 -28.886154 35.468034 -0.094472 2.522539 0.054695 0.004088 373484.000000 0 0 1
-20.495780 2.810918 -30.019884 36.457807 -0.136296 2.538199 0.037772 0.003211 -21448.100000 0 0 1
-19.884380 2.172718 -31.310624 37.154602 -0.108836 2.573097 0.037748 0.004929 289189.000000 0 0 1
-18.472280 2.069118 -31.246174 36.356977 -0.111547 2.604945 0.025492 0.009725 323497.000000 0 0 1
-17.804480 1.554118 -32.388614 36.992393 -0.087067 2.637365 0.006368 0.010042 -192334.000000 0 0 1
-16.279180 1.543418 -32.319474 36.220743 -0.094527 2.673193 0.008851 -0.005344 -454760.000000 0 0 1
-15.788180 2.871018 -32.267694 36.037667 -0.179880 2.680098 0.009307 0.004401 -543236.000000 0 0 1
-14.390080 2.773918 -32.334594 35.500634 -0.190430 2.716056 0.017244 -0.003268 -337101.000000 0 0 1
-13.824780 4.088818 -32.977614 35.991193 -0.287562 2.729461 0.042422 -0.007068 -261746.000000 0 0 1
-13.890880 5.153618 -32.034024 35.294405 -0.355266 2.708384 0.051286 -0.020703 327979.000000 0 0 1
-13.263180 6.338518 -32.522794 35.690628 -0.445815 2.717086 0.069463 -0.014541 -64982.100000 0 0 1
-12.933880 7.456318 -31.540504 34.895348 -0.522957 2.699504 0.077292 -0.015781 260085.000000 0 0 1
-11.906480 7.203918 -30.578274 33.596005 -0.544118 2.714505 0.107092 -0.032509 578424.000000 0 0 1
-12.303980 6.258018 -29.557454 32.621984 -0.470518 2.704673 0.111400 -0.036602 -934159.000000 0 0 1
-11.085880 5.568718 -29.001214 31.543268 -0.465506 2.737375 0.135329 -0.036753 -535703.000000 0 0 1
-10.375080 4.800018 -29.952914 32.060248 -0.433323 2.777001 0.096353 -0.046554 267803.000000 0 0 1
-11.001180 3.566018 -30.235574 32.371784 -0.313462 2.776274 0.091391 -0.044950 -200209.000000 0 0 1
-10.346080 2.870618 -31.487974 33.268218 -0.270651 2.812971 0.074853 -0.036227 247217.000000 0 0 1
-10.933980 1.594718 -31.732864 33.601633 -0.144829 2.806514 0.076792 -0.029530 590159.000000 0 0 1
-10.329080 0.926518 -32.867474 34.464753 -0.089461 2.835953 0.055921 -0.023822 -367092.000000 0 0 1
-10.746780 1.448618 33.745729 35.445253 -0.133988 0.310921 0.061898 -0.025639 -716336.000000 0 0 1
-12.066580 1.243718 33.363190 35.500023 -0.102709 0.348730 0.024384 -0.016968 -679207.000000 0 0 1
-12.259380 1.606218 31.959106 34.267430 -0.130277 0.369140 0.008767 -0.007199 -327642.000000 0 0 1
-13.709380 1.219218 31.675806 34.536796 -0.088700 0.409899 0.002462 -0.002951 -226185.000000 0 0 1
-14.686980 2.235318 31.875816 35.167764 -0.151038 0.436131 0.001606 0.004043 872955.000000 0 0 1
-15.957280 1.633518 31.531216 35.376839 -0.102013 0.470602 0.005666 0.008334 856144.000000 0 0 1
-17.104380 2.663418 31.323226 35.788239 -0.154475 0.504869 0.019748 0.011935 47199.300000 0 0 1
-17.618980 3.316318 32.509513 37.125393 -0.186047 0.503979 0.016399 0.005652 486078.000000 0 0 1
-17.002080 4.595318 32.706509 37.147051 -0.263973 0.493964 0.017720 0.005360 -140956.000000 0 0 1
-17.595180 5.381518 33.900742 38.572158 -0.296817 0.497263 0.011876 0.007313 217148.000000 0 0 1
-18.958580 5.700618 33.711848 39.094929 -0.292088 0.530988 0.004130 0.009264 -378549.000000 0 0 1
-19.785280 5.243418 -33.266544 39.059105 -0.259061 2.590013 -0.000523 0.017937 -71727.800000 0 0 1
-21.171480 5.904318 -33.423904 40.003124 -0.271971 2.559897 0.002764 0.013800 -395744.000000 0 0 1
-21.304080 7.332518 -33.264024 40.176174 -0.331484 2.546246 0.004377 0.002655 78563.300000 0 0 1
-20.729980 8.062118 33.711440 40.388005 -0.370911 0.583228 -0.006704 0.001908 -467561.000000 0 0 1
-20.615180 9.573018 33.989865 40.889353 -0.434737 0.589418 0.007769 -0.002824 -359776.000000 0 0 1
-19.855980 9.871218 -32.880514 39.658909 -0.461358 2.548261 0.005955 -0.002225 191993.000000 0 0 1
-19.780080 11.233718 -32.521724 39.687662 -0.516505 2.531233 0.022131 -0.011821 -88872.600000 0 0 1
-18.969780 12.187618 -33.434404 40.326790 -0.571067 2.548269 0.016701 -0.024150 -304774.000000 0 0 1
-19.675180 12.463318 33.428616 40.742108 -0.564655 0.608523 0.030509 -0.022933 715269.000000 0 0 1
-18.777880 12.818018 32.349341 39.539729 -0.598961 0.612614 0.030921 -0.018604 943970.000000 0 0 1
-19.453380 12.334418 30.981846 38.606303 -0.565081 0.639310 0.041780 -0.021739 451064.000000 0 0 1
-19.575780 10.914818 30.770646 38.068058 -0.508635 0.629527 0.021784 -0.002614 5510.190000 0 0 1
-18.340680 10.248318 30.578286 37.100406 -0.509555 0.602002 0.022250 -0.006618 230224.000000 0 0 1
-18.337680 8.739618 30.810266 36.904253 -0.444748 0.582899 0.024563 0.003072 -208576.000000 0 0 1
-19.192080 8.153918 29.872146 36.430309 -0.401751 0.609419 0.024689 -0.010283 -17937.200000 0 0 1
-19.311380 6.739318 30.042956 36.344559 -0.335767 0.597731 0.026276 -0.009453 69331.000000 0 0 1
-19.744780 6.048918 28.682706 35.343222 -0.297277 0.624000 0.030753 -0.010587 403536.000000 0 0 1
-21.152880 6.013618 28.517516 36.011896 -0.276985 0.656896 0.052020 -0.018812 202393.000000 0 0 1
-21.574980 5.083818 27.481006 35.306241 -0.231414 0.678745 0.045417 -0.016884 -244587.000000 0 0 1
-23.100180 5.158518 27.321186 36.147971 -0.219706 0.713898 0.051441 -0.017552 -265604.000000 0 0 1
-23.452180 6.124018 26.315866 35.777550 -0.255424 0.744331 0.064875 -0.024062 478371.000000 0 0 1
-24.864180 6.261918 26.252636 36.696593 -0.246714 0.773604 0.071562 -0.023639 12448.800000 0 0 1
-25.368700 6.935918 24.962816 36.260448 -0.266882 0.811473 0.077353 -0.031978 -384920.000000 0 0 1
-25.247140 6.242918 23.728926 35.205880 -0.242410 0.831180 0.083439 -0.027356 48170.800000 0 0 1
-26.155260 5.210418 23.505406 35.549264 -0.196637 0.848370 0.089463 -0.025903 -689868.000000 0 0 1
-26.179710 4.606518 22.027016 34.522263 -0.174175 0.878830 0.099295 -0.013352 28190.300000 0 0 1
-27.006770 5.309018 21.099216 34.680372 -0.194106 0.916765 0.112497 -0.014331 175801.000000 0 0 1
-27.174130 4.521718 19.958716 34.018077 -0.164887 0.943807 0.121356 -0.020732 146980.000000 0 0 1
-28.257000 5.037318 18.959816 34.399233 -0.176415 0.987031 0.167757 -0.035794 167228.000000 0 0 1
-29.565600 4.942718 19.489016 35.754397 -0.165646 0.994311 0.186013 -0.032487 -407682.000000 0 0 1
-30.433410 5.181518 18.428716 35.953555 -0.168640 1.032621 0.194848 -0.036711 -790624.000000 0 0 1
-31.924550 4.989918 18.703816 37.335089 -0.155049 1.046075 0.182821 -0.040473 -481393.000000 0 0 1
-32.434840 6.078018 19.396316 38.277646 -0.185243 1.039412 0.166395 -0.026805 308594.000000 0 0 1
-33.814890 5.855418 19.693516 39.567250 -0.171461 1.049825 0.165711 -0.020539 257163.000000 0 0 1
-34.560017 6.984918 20.369916 40.719987 -0.199423 1.046916 0.134799 -0.014961 -223679.000000 0 0 1
-34.126675 7.260418 21.680516 41.077833 -0.209624 1.014798 0.132342 -0.027379 -31384.100000 0 0 1
-34.713566 8.418818 22.143416 42.026646 -0.237929 1.015859 0.113899 -0.025251 -101000.000000 0 0 1
-0.545880 32.303118 11.149336 34.177436 -1.553899 1.238495 0.069568 -0.012968 2556.580000 0 0 1
-0.846780 32.470618 12.540636 34.818467 -1.544724 1.202344 0.054025 -0.007233 147735.000000 0 0 1
-0.499180 33.788518 12.986536 36.201702 -1.556024 1.203892 0.048269 -0.018754 -156700.000000 0 0 1
-0.371780 33.965718 14.496236 36.931681 -1.559851 1.167432 0.045565 -0.008177 498345.000000 0 0 1
-1.578880 -34.018053 15.273636 37.322979 1.524417 1.149188 0.035241 0.006019 310137.000000 0 0 1
-1.360880 -33.856653 16.702536 37.776973 1.530623 1.112818 0.029714 -0.006565 -296876.000000 0 0 1
-2.588380 -33.474253 17.521436 37.871177 1.493625 1.089804 0.028645 -0.001288 -306719.000000 0 0 1
-3.538180 33.595718 17.795936 38.182277 -1.465867 1.085943 0.025754 0.002741 134440.000000 0 0 1
-4.333780 33.995518 18.900136 39.136837 -1.443999 1.066805 0.025159 0.000332 -218777.000000 0 0 1
-5.379480 33.000318 19.399836 38.656350 -1.409205 1.045056 0.015858 -0.003482 -574385.000000 0 0 1
-6.413480 32.852918 18.478636 38.234891 -1.378003 1.066385 0.021419 -0.012109 -566187.000000 0 0 1
-7.399280 32.003618 19.035136 37.964685 -1.343587 1.045591 0.029618 -0.027046 3880.100000 0 0 1
-8.482480 31.697018 17.950036 37.401299 -1.309312 1.070220 0.020841 -0.032264 -436590.000000 0 0 1
-9.195280 32.858118 17.648736 38.414671 -1.297929 1.093446 0.031058 -0.026382 -222901.000000 0 0 1
-9.859580 32.686418 16.373236 37.864179 -1.277834 1.123621 0.033915 -0.016322 -269482.000000 0 0 1
-10.904080 33.764518 16.133336 38.977252 -1.258424 1.144044 0.060232 -0.026896 -49520.200000 0 0 1
-12.133780 33.534318 16.810036 39.425327 -1.223620 1.130313 0.052884 -0.020282 -13928.500000 0 0 1
-12.971680 -33.435253 16.669836 39.548250 1.200709 1.135691 0.044011 -0.020699 451337.000000 0 0 1
-14.404180 -33.602453 17.293036 40.443224 1.165826 1.128973 0.069510 -0.017923 755649.000000 0 0 1
-14.416080 -33.278453 18.705136 40.806383 1.162004 1.094616 0.068244 -0.017404 -745972.000000 0 0 1
-15.661080 -33.432853 19.281136 41.650778 1.132719 1.089505 0.057471 -0.021985 -551917.000000 0 0 1
-15.559680 -33.037753 20.823836 42.038422 1.130644 1.052556 0.056424 -0.040371 65782.200000 0 0 1
-15.399180 -31.650453 21.096636 41.036008 1.117975 1.030838 0.067596 -0.032401 65375.900000 0 0 1
-15.270680 -31.401553 22.502136 41.540310 1.118166 0.998345 0.055950 -0.028133 160578.000000 0 0 1
-15.280280 -29.920953 22.893336 40.655322 1.098635 0.972654 0.069663 -0.033092 -109019.000000 0 0 1
-15.232780 -29.578653 24.295836 41.197354 1.095227 0.940056 0.068977 -0.041544 -228421.000000 0 0 1
-15.043680 -28.206653 24.440636 40.240182 1.080835 0.918052 0.063915 -0.013437 -231310.000000 0 0 1
-16.222080 -27.244353 24.234236 39.908757 1.033745 0.918213 0.080632 -0.016787 227194.000000 0 0 1
-17.325180 -27.359553 25.131636 40.991537 1.006293 0.910826 0.091546 -0.019095 456406.000000 0 0 1
-18.381780 -26.494353 24.770936 40.662512 0.964244 0.915766 0.095498 -0.018145 -1085820.000000 0 0 1
-19.453380 -26.327253 25.860736 41.717334 0.934433 0.902176 0.105286 -0.017114 -116721.000000 0 0 1
-20.333580 -27.394353 26.096736 42.952819 0.932271 0.917802 0.119813 -0.016212 450504.000000 0 0 1
-21.087280 -27.883353 24.972436 42.962511 0.923296 0.950519 0.106770 -0.020602 -282961.000000 0 0 1
-22.544180 -27.370253 24.742936 43.238683 0.881785 0.961561 0.081255 -0.009098 99576.200000 0 0 1
-22.800080 -26.031553 24.418536 42.352689 0.851478 0.956294 0.103201 -0.016798 1447490.000000 0 0 1
-24.150080 -25.970053 23.866336 42.746602 0.821694 0.978435 0.101966 -0.015457 1290570.000000 0 0 1
-24.691780 -24.624953 23.358036 41.972255 0.784043 0.980615 0.099504 -0.004911 -60082.400000 0 0 1
-24.931980 -23.682953 24.398236 42.163489 0.759712 0.953714 0.089337 -0.006459 220540.000000 0 0 1
-25.651590 -22.549753 23.975136 41.728918 0.721135 0.958748 0.067892 -0.002550 83995.600000 0 0 1
-26.298380 -21.679353 25.054836 42.300638 0.689420 0.936881 0.069529 -0.002236 241287.000000 0 0 1
-27.423680 -22.242653 25.711436 43.679192 0.681457 0.941418 0.058679 0.000577 475672.000000 0 0 1
-27.889450 -21.385553 26.753136 44.168921 0.654165 0.920150 0.055121 -0.011322 46672.700000 0 0 1
-29.013050 -22.005353 27.683436 45.742379 0.648896 0.920775 0.042414 -0.014728 1661520.000000 0 0 1
-30.416760 -21.969653 27.373236 46.445010 0.625528 0.940519 0.038944 -0.016489 1188890.000000 0 0 1
-30.770760 -22.520053 26.110136 46.213977 0.631794 0.970383 0.042476 -0.011781 -359177.000000 0 0 1
-32.275630 -22.938953 26.104936 47.427624 0.617885 0.987934 0.051613 -0.019786 571643.000000 0 0 1
-32.873790 -23.558953 24.974736 47.533649 0.621812 1.017597 0.040860 -0.014737 177061.000000 0 0 1
-32.386070 -24.832753 24.673136 47.689483 0.654149 1.027021 0.035098 -0.014968 -673940.000000 0 0 1
-32.738570 -25.277453 23.240736 47.443602 0.657496 1.058867 0.036776 -0.004986 642862.000000 0 0 1
-34.110726 -25.653453 23.120436 48.540662 0.644821 1.074342 0.050853 -0.010685 436551.000000 0 0 1
-34.473733 -26.295753 21.880836 48.566201 0.651628 1.103430 0.053208 -0.010523 216211.000000 0 0 1
-35.992962 -26.615353 21.824636 49.801456 0.636721 1.117165 0.060455 -0.014432 48222.800000 0 0 1
-36.496160 -27.720953 22.586036 51.093541 0.649590 1.112911 0.067434 -0.009405 -43496.600000 0 0 1
-35.898411 -28.943653 22.449136 51.287373 0.678550 1.117743 0.056802 -0.010088 -1325280.000000 0 0 1
-36.251510 -29.720753 21.159136 51.431548 0.686727 1.146803 0.078377 -0.009470 -456924.000000 0 0 1
-36.025050 -29.082753 19.967336 50.421278 0.679172 1.163629 0.071328 -0.001310 380411.000000 0 0 1
-36.105980 -30.072653 18.905936 50.650179 0.694482 1.188270 0.064033 0.005435 -443945.000000 0 0 1
-36.301090 -29.553553 17.492136 49.971557 0.683293 1.213181 0.063145 0.012937 -222261.000000 0 0 1
-35.090992 -29.283853 16.817036 48.700457 0.695433 1.218221 0.072419 0.009346 242105.000000 0 0 1
-35.367298 -28.762653 15.510736 48.153078 0.682772 1.242836 0.057188 0.001506 50822.100000 0 0 1
-35.976603 -29.714853 14.452136 48.848262 0.690365 1.270443 0.044513 0.000033 373732.000000 0 0 1
-35.147660 -30.800053 13.988936 48.782083 0.719568 1.279949 0.054619 -0.005115 40095.700000 0 0 1
-35.831876 -31.673153 13.141236 49.596412 0.723870 1.302630 0.056689 -0.009811 -61879.800000 0 0 1
-36.021406 -31.242753 11.689636 49.094795 0.714474 1.330384 0.058291 -0.015649 -206513.000000 0 0 1
36.696516 -30.431253 11.477336 49.034933 -0.692334 1.334540 0.060316 -0.019061 -219547.000000 0 0 1
36.712056 -29.729453 10.271036 48.343662 -0.680689 1.356706 0.048984 -0.014542 -541970.000000 0 0 1
35.602806 -28.715353 10.209336 46.865359 -0.678721 1.351191 0.066269 -0.009745 -426078.000000 0 0 1
35.763586 -27.760653 9.163636 46.191560 -0.660076 1.371088 0.074170 -0.048525 1835650.000000 0 0 1
34.545346 -26.909753 9.072236 44.719361 -0.661785 1.366508 0.053549 -0.043718 1966120.000000 0 0 1
34.754956 -25.888653 7.857136 44.043886 -0.640223 1.391443 0.034388 -0.035120 329094.000000 0 0 1
35.542766 -24.753953 8.173836 44.077863 -0.608343 1.384276 0.055352 -0.043118 -63742.900000 0 0 1
35.715486 -23.970153 7.024936 43.583413 -0.591094 1.408906 0.046288 -0.035706 57436.200000 0 0 1
36.251866 -22.532053 7.206736 43.287738 -0.556109 1.403533 0.052378 -0.040027 10701.500000 0 0 1
35.334606 -21.707353 7.956436 42.226158 -0.550895 1.381239 0.054415 -0.033685 102259.000000 0 0 1
35.940656 -20.431453 8.095336 42.127301 -0.516919 1.377430 0.064308 -0.032280 133435.000000 0 0 1
35.171946 -19.497553 9.015336 41.212821 -0.506176 1.350262 0.071571 -0.027691 78862.700000 0 0 1
35.529596 -19.574153 10.407936 41.878691 -0.503553 1.319638 0.060010 -0.039719 59581.000000 0 0 1
34.590236 -18.846453 11.200336 40.952665 -0.498880 1.293772 0.079713 -0.026496 258008.000000 0 0 1
34.963796 -18.734053 12.670536 41.641017 -0.491886 1.261614 0.070568 -0.037803 216661.000000 0 0 1
36.165086 -18.004153 12.869136 42.399029 -0.461912 1.262407 0.026042 -0.023169 293736.000000 0 0 1
36.548506 -18.197253 14.243836 43.241417 -0.461961 1.235126 0.032444 -0.019263 76674.800000 0 0 1
-36.050049 -17.354253 14.660536 42.611119 0.448652 1.219565 0.049294 -0.019494 576106.000000 0 0 1
-34.814762 -17.793053 14.107836 41.565508 0.472471 1.224505 0.047046 -0.023891 848774.000000 0 0 1
-33.695740 -17.153853 14.744836 40.584083 0.470886 1.198972 0.033574 -0.022273 779914.000000 0 0 1
-32.342610 -17.196253 13.977336 39.206141 0.488677 1.206268 0.055746 -0.019109 335574.000000 0 0 1
-31.920250 -18.550853 13.807136 39.416665 0.526453 1.212919 0.044363 -0.020128 773257.000000 0 0 1
-30.681410 -18.572953 13.062336 38.169728 0.544343 1.221521 0.020871 -0.008752 602085.000000 0 0 1
-30.120910 -19.999853 12.797836 38.354243 0.586144 1.230597 0.016630 -0.014813 -125428.000000 0 0 1
-30.889230 -20.858953 11.976736 39.149491 0.593944 1.259888 0.021348 -0.020656 -548459.000000 0 0 1
-30.077680 -21.628953 11.099436 38.673970 0.623432 1.279703 0.022589 -0.021474 -407320.000000 0 0 1
-30.747620 -22.276053 9.862736 39.228972 0.626968 1.316655 0.026019 -0.019824 221311.000000 0 0 1
-31.451130 -23.502553 10.002536 40.516593 0.641753 1.321342 0.032228 -0.023458 345338.000000 0 0 1
-32.757400 -23.291853 10.535436 41.551812 0.618098 1.314449 0.058137 -0.028733 -478452.000000 0 0 1
-33.589650 -24.544053 10.712736 42.958560 0.631036 1.318763 0.088553 -0.030222 -421361.000000 0 0 1
-34.108641 -24.974553 9.466236 43.321326 0.632015 1.350507 0.085814 -0.020408 -213120.000000 0 0 1
-34.541109 -26.307453 9.546836 44.455735 0.650901 1.354361 0.091836 -0.018904 95250.300000 0 0 1
-34.722650 -27.007253 8.182436 44.743786 0.661057 1.386888 0.085583 -0.017342 893080.000000 0 0 1
-33.499690 -27.491253 7.593636 43.996154 0.687201 1.397330 0.073107 -0.017500 411101.000000 0 0 1
-33.691730 -27.951653 6.272036 44.224043 0.692548 1.428492 0.063025 -0.014986 -95614.200000 0 0 1
-32.391770 -28.431153 5.616836 43.463848 0.720373 1.441204 0.066019 -0.011615 51037.100000 0 0 1
-31.491950 -27.390053 5.237936 42.064164 0.715848 1.445950 0.087143 -0.007255 17756.800000 0 0 1
-30.363640 -27.949853 4.585336 41.523129 0.744029 1.460142 0.079674 -0.013112 -136297.000000 0 0 1
-29.509670 -26.853553 3.981336 40.097194 0.738308 1.471340 0.086080 -0.017077 -33056.000000 0 0 1
-30.155020 -26.302453 2.823736 40.113810 0.717265 1.500345 0.089741 -0.017504 342737.000000 0 0 1
-29.541590 -25.047853 2.511436 38.812470 0.703265 1.506044 0.082142 -0.021335 28427.800000 0 0 1
-29.746530 -24.510753 1.056936 38.558400 0.689197 1.543382 0.090921 -0.022915 -159978.000000 0 0 1
-28.962060 -25.133553 0.059436 38.347098 0.714743 1.569246 0.100224 -0.025824 -111275.000000 0 0 1
-28.921510 -24.448853 -1.223764 37.890603 0.701789 1.603099 0.100129 -0.033767 -601796.000000 0 0 1
-30.216110 -24.388953 -2.017864 38.883237 0.679086 1.622715 0.123188 -0.034285 -459173.000000 0 0 1
-31.185360 -23.509753 -1.481664 39.082355 0.645974 1.608717 0.104833 -0.028965 -211103.000000 0 0 1
-32.437160 -23.889953 -2.032564 40.336467 0.634805 1.621208 0.112589 -0.030986 84332.100000 0 0 1
-33.438760 -22.730253 -2.107264 40.487722 0.597011 1.622867 0.087315 -0.030784 -136209.000000 0 0 1
-33.762550 -22.164253 -0.855564 40.396731 0.580913 1.591977 0.093105 -0.035883 823673.000000 0 0 1
-34.864772 -21.223753 -0.967064 40.828118 0.546825 1.594485 0.092335 -0.023773 704867.000000 0 0 1
-35.254627 -20.508253 0.368036 40.787408 0.526868 1.561773 0.097319 -0.036713 -282211.000000 0 0 1
-35.886298 -21.369253 1.240136 41.785276 0.537083 1.541113 0.085576 -0.037188 -166289.000000 0 0 1
-35.927416 -20.892653 2.601636 41.641934 0.526723 1.508279 0.080144 -0.029335 -906701.000000 0 0 1
36.866886 -21.686853 3.408836 42.908123 -0.531733 1.491268 0.083280 -0.014914 505595.000000 0 0 1
35.523586 -21.424353 3.030636 41.594625 -0.542697 1.497870 0.067623 -0.014463 149902.000000 0 0 1
34.982756 -20.185253 3.523036 40.541947 -0.523340 1.483788 0.068248 -0.021635 -946989.000000 0 0 1
33.681116 -19.810953 2.822136 39.177237 -0.531692 1.498699 0.059042 -0.010986 326122.000000 0 0 1
32.609136 -20.743753 3.102836 38.772241 -0.566565 1.490683 0.056539 -0.008073 412960.000000 0 0 1
31.434416 -20.311253 2.431536 37.504425 -0.573662 1.505918 0.057582 -0.019313 219259.000000 0 0 1
30.171816 -21.124753 2.727536 36.932819 -0.610826 1.496878 0.045243 -0.002230 -103893.000000 0 0 1
30.251886 -22.401253 2.138136 37.703639 -0.637388 1.514057 0.035091 -0.007769 420119.000000 0 0 1
28.998786 -23.023853 2.442436 37.107855 -0.671047 1.504929 0.029502 -0.003568 616273.000000 0 0 1
28.565556 -24.246153 1.583936 37.501677 -0.703791 1.528547 0.029517 -0.007595 -37398.200000 0 0 1
28.173656 -23.989453 0.268736 37.004337 -0.705356 1.563534 0.030001 -0.010553 -218151.000000 0 0 1
27.574856 -25.040953 -0.379964 37.250052 -0.737277 1.580997 0.020969 -0.016258 -505475.000000 0 0 1
26.712356 -24.532253 -1.561164 36.301772 -0.742881 1.613815 0.045045 -0.017963 -172141.000000 0 0 1
27.362656 -24.151953 -2.763164 36.601460 -0.723153 1.646361 0.023103 -0.026424 -1041.150000 0 0 1
27.760156 -25.158753 -3.693864 37.646165 -0.736279 1.669075 0.024090 -0.025223 -465651.000000 0 0 1
26.639856 -25.746153 -4.589964 37.331141 -0.768340 1.694061 0.034653 -0.025189 87502.200000 0 0 1
26.191856 -24.827353 -5.602264 36.521174 -0.758660 1.724802 0.040546 -0.034522 1139470.000000 0 0 1
25.107856 -23.977253 -5.129664 35.094538 -0.762369 1.717489 0.052841 -0.037065 264457.000000 0 0 1
24.517956 -22.944753 -6.086964 34.126866 -0.752264 1.750119 0.060253 -0.041250 -139305.000000 0 0 1
23.781756 -23.460853 -7.163764 34.165817 -0.778606 1.782040 0.069949 -0.038378 217049.000000 0 0 1
22.871156 -22.512353 -7.755264 33.015753 -0.777492 1.807908 0.075739 -0.035900 132939.000000 0 0 1
23.354056 -21.225353 -8.440864 32.667656 -0.737684 1.832147 0.073801 -0.032172 -315841.000000 0 0 1
24.016156 -21.522853 -9.690564 33.673669 -0.730702 1.862703 0.075545 -0.030343 410710.000000 0 0 1
23.764156 -20.482253 -10.600164 33.115273 -0.711360 1.896630 0.071152 -0.029384 162818.000000 0 0 1
24.639156 -20.605853 -11.885864 34.248547 -0.696490 1.925217 0.052896 -0.014618 859814.000000 0 0 1
26.056456 -20.590653 -11.741464 35.224649 -0.668757 1.910631 0.063453 -0.024894 276823.000000 0 0 1
26.707656 -20.110353 -12.858464 35.819901 -0.645406 1.937966 0.061848 -0.026186 1273970.000000 0 0 1
28.300356 -20.229653 -12.794264 37.065378 -0.620603 1.923228 0.049395 -0.025233 1144190.000000 0 0 1
28.809676 -21.464053 -13.101264 38.240635 -0.640312 1.920480 0.046703 -0.023103 -29606.700000 0 0 1
28.857266 -22.429153 -12.087564 38.495687 -0.660711 1.890197 0.055134 -0.030500 -456748.000000 0 0 1
28.906146 -23.849153 -12.568664 39.526178 -0.689833 1.894398 0.040182 -0.027476 639186.000000 0 0 1
30.185016 -24.250653 -13.104964 40.877493 -0.676811 1.897150 0.036521 -0.032158 901165.000000 0 0 1
30.159946 -25.604153 -13.586764 41.830553 -0.703882 1.901602 0.033978 -0.022516 -223853.000000 0 0 1
-3.562080 -8.989182 -27.760914 29.396635 1.193516 2.806430 0.098750 -0.026655 16947.900000 0 0 1
-3.251680 -7.791582 -27.179644 28.460767 1.175438 2.840410 0.089691 -0.020437 9089.180000 0 0 1
-4.003780 -6.729782 -27.749044 28.832788 1.034110 2.866547 0.079826 -0.020476 85241.000000 0 0 1
-3.948080 -5.394482 -26.982714 27.798465 0.938997 2.898735 0.077689 -0.026923 202076.000000 0 0 1
-4.729780 -5.461082 -25.766204 26.759886 0.857036 2.868223 0.057498 -0.024457 582085.000000 0 0 1
-4.907780 -4.162182 -25.223654 26.031573 0.703377 2.891801 0.069546 -0.026407 -87311.400000 0 0 1
-5.697180 -4.174482 -23.916764 24.937838 0.632355 2.854444 0.059295 -0.017339 195809.000000 0 1 0
-4.994280 -4.902482 -22.891064 23.936958 0.776123 2.844892 0.053883 -0.028482 720569.000000 0 1 0
-5.658680 -4.783682 -21.653564 22.886265 0.701800 2.811888 0.051468 -0.013309 -192179.000000 0 1 0
-5.095280 -5.852482 -20.708364 22.114470 0.854453 2.783072 0.049094 -0.014897 -239888.000000 0 1 0
-5.545680 -7.169782 -20.959364 22.835395 0.912437 2.733414 0.047811 -0.013932 866352.000000 0 1 0
-4.743380 -8.183882 -20.252264 22.352400 1.045512 2.704637 0.056482 -0.021630 -660396.000000 0 1 0
-5.403780 -9.576082 -20.183664 22.984397 1.057041 2.642770 0.062919 -0.022688 615285.000000 0 1 0
-6.534780 -9.751182 -19.317864 22.604618 0.980384 2.595573 0.061003 -0.019476 352586.000000 0 1 0
-7.676180 -9.024082 -19.689664 22.979136 0.865935 2.599924 0.046109 -0.018870 -1762050.000000 0 1 0
-8.784680 -9.279282 -18.686264 22.637406 0.812772 2.541812 0.040402 -0.010290 -866117.000000 0 1 0
-9.361880 -10.574082 -18.780264 23.497964 0.846128 2.496808 0.061649 -0.007070 -19740.900000 0 1 0
-9.937780 -10.990282 -17.564164 22.979243 0.835647 2.440828 0.062220 -0.011858 -251782.000000 0 1 0
-10.829780 -12.231182 -17.755364 24.127555 0.846093 2.397785 0.067773 0.002477 663706.000000 0 1 0
-12.098580 -12.094182 -18.410764 25.131675 0.785216 2.392889 0.092632 -0.016145 563560.000000 0 0 1
-12.023480 -11.760182 -19.843264 26.011941 0.774328 2.438509 0.086388 -0.024592 -1559790.000000 0 0 1
-13.399280 -11.401582 -20.360964 26.909211 0.705022 2.428977 0.087003 -0.021307 -13938.100000 0 0 1
-14.325080 -12.514182 -20.465664 27.940223 0.718028 2.392755 0.082661 -0.022514 570751.000000 0 0 1
-15.023480 -12.877682 -19.286064 27.631357 0.708642 2.343366 0.076886 -0.019556 -63399.200000 0 0 1
-16.141280 -13.945182 -19.531364 28.922019 0.712534 2.312183 0.082224 -0.011383 330983.000000 0 0 1
-15.668480 -15.175382 -19.834164 29.481987 0.769413 2.308723 0.080948 -0.004012 -487599.000000 0 0 1
-16.696980 -15.912082 -20.455364 30.828646 0.761333 2.296308 0.083016 -0.011775 -54738.800000 0 0 1
-16.410580 -17.351582 -20.799664 31.670342 0.813262 2.287304 0.066682 -0.005023 -106062.000000 0 0 1
-16.495680 -18.357182 -19.810964 31.647557 0.838758 2.247193 0.077730 -0.000882 11144.700000 0 0 1
-15.988380 -19.621382 -20.215864 32.393025 0.887069 2.244751 0.068957 -0.004214 -162108.000000 0 0 1
-16.785580 -20.853382 -19.737064 33.259148 0.893055 2.206113 0.079862 -0.011044 -222592.000000 0 0 1
-16.273580 -22.066082 -20.188564 34.048781 0.935348 2.205490 0.076026 -0.007419 1361.580000 0 0 1
-17.144180 -23.122082 -19.861564 34.971922 0.932781 2.174784 0.091080 -0.010379 16703.200000 0 0 1
-16.603380 -24.519582 -20.257764 35.878394 0.975573 2.170773 0.088859 -0.008719 -71719.800000 0 0 1
-16.700780 -24.788582 -21.656264 36.910481 0.977921 2.197804 0.070628 -0.010294 286669.000000 0 0 1
-16.054280 -26.032952 -21.956364 37.650185 1.018195 2.193419 0.075875 -0.010269 402.728000 0 0 1
-16.355380 -26.576982 -23.376464 38.990941 1.019133 2.213717 0.072511 -0.008086 -475276.000000 0 0 1
-17.652280 -27.076912 -23.604064 40.023918 0.993065 2.201544 0.094887 -0.007997 -221617.000000 0 0 1
-17.745280 -28.459252 -23.445864 40.921052 1.013253 2.180901 0.094583 -0.003154 -85837.400000 0 0 1
-18.808980 -29.194202 -24.301764 42.386966 0.998459 2.181362 0.097882 -0.009673 -90375.600000 0 0 1
-18.474280 -29.214052 -25.716564 43.082497 1.006910 2.210446 0.089913 -0.000978 246858.000000 0 0 1
-18.571380 -27.987072 -26.429514 42.739812 0.984941 2.237478 0.110689 -0.009169 821853.000000 0 0 1
-17.236080 -27.682612 -27.223004 42.479423 1.013902 2.266403 0.126073 -0.013778 402668.000000 0 0 1
-17.193080 -28.323062 -28.493274 43.699708 1.025220 2.281048 0.133334 -0.005194 145641.000000 0 0 1
-16.022480 -28.083992 -29.244354 43.596591 1.052335 2.306076 0.086353 0.000738 -111894.000000 0 0 1
-16.214680 -28.276172 -30.766574 44.822314 1.050135 2.327340 0.107374 -0.001621 2092.750000 0 0 1
-16.203680 -29.609362 -31.175214 45.947443 1.070068 2.316511 0.075678 -0.000126 190684.000000 0 0 1
-16.828180 -29.853222 -32.419014 47.174092 1.057498 2.328453 0.079411 0.004507 82031.400000 0 0 1
-16.930780 -31.256502 -32.970494 48.483747 1.074369 2.318602 0.068341 0.001024 -20951.700000 0 0 1
-15.655980 -31.747692 -33.313624 48.608880 1.112654 2.325867 0.065189 -0.003481 -172407.000000 0 0 1
-15.664580 -33.022782 -33.977134 49.903195 1.127873 2.319734 0.049746 -0.003106 -593832.000000 0 0 1
-14.341780 -33.381562 33.408924 49.357588 1.165009 0.827287 0.042081 -0.012325 -595327.000000 0 0 1
-13.376380 -33.945482 -33.793174 49.731297 1.195426 2.317898 0.061538 -0.011059 -312138.000000 0 0 1
-12.534280 33.235863 33.505865 48.830050 -1.210159 0.814581 0.068292 -0.017941 -45337.600000 0 0 1
-11.553680 32.591127 -33.533064 48.167785 -1.230115 2.340848 0.083999 -0.022381 -723202.000000 0 0 1
-10.723980 33.533406 -32.980574 48.241179 -1.261275 2.323563 0.090634 -0.021435 -968849.000000 0 0 1
-9.894980 32.922754 -32.046754 46.998008 -1.278834 2.321119 0.095671 -0.023808 -371003.000000 0 0 1
-9.261580 34.031349 -31.174574 47.071899 -1.305083 2.294648 0.085862 -0.012867 -583201.000000 0 0 1
-10.110580 -33.406252 -30.314964 46.229845 1.276905 2.285965 0.098061 -0.021358 -714162.000000 0 0 1
-9.477080 -32.280902 -29.751734 44.911439 1.285238 2.294885 0.095254 -0.024659 201856.000000 0 0 1
-10.443480 -31.383412 -28.875024 43.906171 1.249552 2.288495 0.095378 -0.018203 668148.000000 0 0 1
-10.834580 -31.754292 -27.543704 43.409432 1.241982 2.258170 0.129945 -0.023858 -17575.700000 0 0 1
-11.439880 -32.988872 -27.383304 44.373211 1.236993 2.235865 0.122796 -0.029698 -372506.000000 0 0 1
-11.722580 -33.309752 -25.922634 43.805724 1.232406 2.204041 0.133944 -0.026543 746128.000000 0 0 1
-10.517780 -33.498352 -25.181834 43.207500 1.266565 2.192981 0.134152 -0.039385 554546.000000 0 0 1
-10.992880 -33.800092 -23.877364 42.818432 1.256354 2.162339 0.139654 -0.044209 1357040.000000 0 0 1
-9.891080 -33.699472 -22.699664 41.818209 1.285306 2.144585 0.137971 -0.046203 1180660.000000 0 0 1
-8.988580 33.285384 -22.749064 41.306553 -1.307042 2.154044 0.114545 -0.041661 376026.000000 0 0 1
-8.025380 33.255389 -21.686464 40.504696 -1.333998 2.135785 0.123409 -0.043372 463584.000000 0 0 1
-7.213980 31.935009 -21.480664 39.157442 -1.348630 2.151451 0.124895 -0.046384 -398300.000000 0 0 1
-6.239080 31.834699 -22.477964 39.466860 -1.377266 2.176743 0.102781 -0.055649 210294.000000 0 0 1
-5.513080 30.573239 -22.301964 38.242576 -1.392390 2.193423 0.083238 -0.047474 694152.000000 0 0 1
-4.008380 30.581069 -22.692764 38.291389 -1.440465 2.205121 0.091154 -0.052068 364822.000000 0 0 1
-3.825880 30.689859 -24.091564 39.203422 -1.446773 2.232583 0.103950 -0.047080 9816.020000 0 0 1
-2.597080 31.308939 -24.423664 39.793340 -1.488036 2.231614 0.090350 -0.051558 101832.000000 0 0 1
-2.474480 31.470989 -25.983144 40.886061 -1.492330 2.259454 0.096085 -0.027193 -768884.000000 0 0 1
-1.574480 32.420978 -26.378124 41.825880 -1.522271 2.253206 0.094418 -0.042343 -726885.000000 0 0 1
-2.051280 33.749063 -26.420814 42.909981 -1.510091 2.234104 0.090456 -0.029282 115863.000000 0 0 1
-0.982580 -33.320372 -26.978554 42.884205 1.541316 2.251194 0.028035 -0.008325 1146960.000000 0 0 1
0.205120 -33.259122 -26.141494 42.303534 -1.564629 2.236930 0.054266 -0.026069 964624.000000 0 0 1
1.083420 -32.303272 -26.751874 41.956382 -1.537270 2.262190 0.033619 -0.009026 -123281.000000 0 0 1
2.274720 -31.845242 -25.917244 41.121738 -1.499487 2.252680 0.027847 -0.015273 -575057.000000 0 0 1
2.035220 -31.063142 -24.741864 39.764567 -1.505371 2.242357 0.020786 -0.005081 276875.000000 0 0 1
3.280820 -30.573312 -24.268364 39.171989 -1.463895 2.238945 0.008459 -0.006338 104269.000000 0 0 1
3.205320 -29.827942 -22.944764 37.768273 -1.463747 2.223724 0.020970 -0.005581 -164582.000000 0 0 1
3.270820 -30.767722 -21.825064 37.864025 -1.464887 2.185120 0.031468 -0.005899 425708.000000 0 0 1
3.308120 -29.995692 -20.622764 36.551109 -1.460954 2.170281 0.038889 0.000543 -475415.000000 0 0 1
3.157120 -30.702772 -19.239464 36.370106 -1.468328 2.128208 0.046855 0.006039 96844.600000 0 0 1
1.897520 -31.318092 -18.993564 36.676681 -1.510282 2.115149 0.046666 0.002851 393663.000000 0 0 1
1.731820 -32.655362 -19.451164 38.048911 -1.517813 2.107394 0.048195 0.004542 -387303.000000 0 0 1
2.466620 -33.690762 -18.562564 38.545044 -1.497713 2.073254 0.019294 -0.003780 1548770.000000 0 0 1
3.905720 -33.781662 -18.798164 38.856484 -1.455691 2.075770 0.031441 -0.002567 1481450.000000 0 0 1
4.373420 33.363270 -17.791464 38.062722 1.440455 2.057172 0.038039 -0.014120 114936.000000 0 0 1
5.433120 32.408963 -18.373564 37.649005 1.404698 2.080619 0.059192 -0.018240 1164870.000000 0 0 1
6.772820 32.940077 -18.574464 38.417841 1.368012 2.075428 0.098403 -0.021603 972870.000000 0 0 1
7.567320 31.912799 -19.112064 37.960007 1.337972 2.098417 0.085312 -0.040126 -387620.000000 0 0 1
8.995720 32.249682 -19.563864 38.777697 1.298771 2.099615 0.090798 -0.039619 -110217.000000 0 0 1
9.788320 32.487189 -18.399364 38.597478 1.278149 2.067692 0.085284 -0.033756 102501.000000 0 0 1
10.845720 33.377308 -18.753064 39.791353 1.256616 2.061543 0.078938 -0.022084 -148843.000000 0 0 1
11.851020 33.661251 -17.639964 39.808226 1.232281 2.029876 0.061718 -0.017592 -350050.000000 0 0 1
12.466620 32.458381 -17.236264 38.807885 1.204089 2.031014 0.066516 -0.025509 -140676.000000 0 0 1
13.236220 32.694618 -16.077064 38.763483 1.186121 1.998462 0.054297 -0.029978 -425118.000000 0 0 1
14.438020 31.791109 -15.869664 38.353322 1.144494 1.997394 0.052846 -0.030199 -358880.000000 0 0 1
14.253820 30.525999 -15.295764 36.999573 1.133944 1.996985 0.069142 -0.026500 77534.100000 0 0 1
15.515220 29.897979 -15.044164 36.890895 1.092113 1.990841 0.071100 -0.022412 502542.000000 0 0 1
15.407720 28.588939 -14.161964 35.430023 1.076484 1.982004 0.076238 -0.016150 -212281.000000 0 0 1
15.423220 28.884639 -12.720264 35.128382 1.080352 1.941325 0.072080 -0.017504 612908.000000 0 0 1
14.106720 29.039569 -12.157564 34.497862 1.118593 1.930947 0.078556 -0.019721 899525.000000 0 0 1
13.348420 27.738639 -11.732564 32.943368 1.122284 1.934934 0.081581 -0.017945 -556815.000000 0 0 1
12.682820 27.088389 -12.778764 32.525860 1.132910 1.974558 0.085212 -0.025207 -143559.000000 0 0 1
12.247720 25.783469 -12.453964 31.143140 1.127330 1.982198 0.106016 -0.028780 409308.000000 0 0 1
11.263620 25.542169 -11.261764 30.101477 1.155468 1.954251 0.104759 -0.022489 -489183.000000 0 0 1
10.071220 26.254929 -11.370964 30.332320 1.204513 1.955063 0.106225 -0.024752 -370507.000000 0 0 1
9.304020 26.266129 -10.176364 29.665346 1.230366 1.920946 0.080138 -0.012691 59274.500000 0 0 1
8.217020 27.342539 -10.163664 30.305675 1.278861 1.912796 0.087223 -0.017321 -96253.500000 0 0 1
8.771620 28.642899 -10.330464 31.687150 1.273624 1.902881 0.092223 -0.018867 -131290.000000 0 0 1
7.810020 29.681919 -10.394364 32.404561 1.313504 1.897337 0.083731 -0.015014 294241.000000 0 0 1
8.414020 31.032549 -10.801564 33.918854 1.306027 1.894894 0.102107 -0.020877 -430432.000000 0 0 1
9.246020 31.731649 -9.884264 34.497611 1.287265 1.861389 0.083389 -0.017151 62424.900000 0 0 1
9.950920 32.847147 -10.404064 35.863637 1.276639 1.865128 0.101737 -0.017691 699615.000000 0 0 1
11.036320 32.490465 -11.482464 36.183942 1.243346 1.893715 0.082607 -0.024307 -417203.000000 0 0 1
12.344220 32.233860 -11.027764 36.235523 1.205067 1.880037 0.065944 -0.014540 118895.000000 0 0 1
13.308820 32.827089 -11.894664 37.366101 1.185625 1.894761 0.082597 -0.014555 1079290.000000 0 0 1
14.802120 32.718167 -11.422564 37.683633 1.145938 1.878759 0.081287 -0.017969 831259.000000 0 0 1
15.092920 33.632356 -10.338964 38.286105 1.148972 1.844236 0.084105 -0.016469 652273.000000 0 0 1
16.517520 33.778689 -10.346464 38.998431 1.115994 1.839316 0.073679 -0.021375 805839.000000 0 0 1
17.096020 -33.345022 -9.253364 38.597787 -1.097040 1.812893 0.083040 -0.024619 -45127.500000 0 0 1
16.925020 -33.872782 -7.954964 38.692417 -1.107417 1.777868 0.071189 -0.028967 194779.000000 0 0 1
17.482220 -33.087892 -6.919564 38.056760 -1.084721 1.753636 0.063998 -0.026337 -1328790.000000 0 0 1
17.845220 -33.798142 -5.667564 38.637903 -1.085005 1.718012 0.061766 -0.016677 147139.000000 0 0 1
18.820920 33.256217 -5.757664 38.643935 1.055800 1.720346 0.047102 -0.018610 359665.000000 0 0 1
20.128320 33.737767 -6.086064 39.754577 1.032873 1.724492 0.052494 -0.013760 -821523.000000 0 0 1
20.869020 32.693115 -6.924664 39.399324 1.002668 1.747470 0.039995 -0.005342 -16588.400000 0 0 1
21.158920 31.378479 -6.390564 38.381613 0.977519 1.738076 0.046333 0.001950 88803.300000 0 0 1
22.141620 31.424629 -5.356964 38.813087 0.956993 1.709258 0.051601 0.001004 -228895.000000 0 0 1
22.503120 30.020239 -4.893964 37.835910 0.927552 1.700507 0.045221 -0.002933 -281369.000000 0 0 1
23.276120 29.294159 -5.824664 37.866242 0.899378 1.725232 0.051019 -0.001631 -87385.800000 0 0 1
23.494920 28.012859 -5.315364 36.945699 0.872888 1.715167 0.059804 -0.000738 -306578.000000 0 0 1
24.525720 27.234869 -6.165264 37.165300 0.837690 1.737454 0.052228 0.005893 370164.000000 0 0 1
25.847820 27.741409 -5.996164 38.388144 0.820719 1.727637 0.068499 0.000869 -116097.000000 0 0 1
26.790620 27.083629 -6.763764 38.691198 0.790837 1.746513 0.047095 -0.001178 406184.000000 0 0 1
27.708020 25.960799 -6.010164 38.442419 0.752854 1.727782 0.044188 -0.000598 72631.500000 0 0 1
28.668320 26.633579 -5.259764 39.482721 0.748621 1.704410 0.049945 -0.002345 -411345.000000 0 0 1
29.260820 25.694309 -4.349364 39.183033 0.720590 1.682027 0.041847 0.000019 438827.000000 0 0 1
30.688920 26.057549 -3.850364 40.442935 0.703964 1.666146 0.045453 -0.003372 236184.000000 0 0 1
30.657120 27.063369 -2.811564 40.990119 0.723217 1.639441 0.067493 -0.010716 116062.000000 0 0 1
31.878620 27.122679 -2.093564 41.907865 0.704965 1.620773 0.077498 -0.030500 165766.000000 0 0 1
32.050220 28.336769 -1.163664 42.796533 0.723981 1.597990 0.074735 -0.014607 75477.800000 0 0 1
32.217020 29.545809 -1.888464 43.754514 0.742176 1.613970 0.046126 -0.004389 -4547.760000 0 0 1
31.704520 30.638399 -1.157164 44.104729 0.768299 1.597036 0.076703 -0.006282 49869.200000 0 0 1
33.556476 22.628318 18.890416 44.664591 0.593293 1.134110 0.145267 -0.031406 -68875.300000 0 0 1
33.848356 22.513818 20.254116 45.418195 0.586943 1.108564 0.125264 -0.027665 258157.000000 0 0 1
34.669726 23.581518 20.713716 46.766825 0.597297 1.111949 0.122723 -0.020710 99959.100000 0 0 1
34.750936 23.561518 22.252916 47.518048 0.595815 1.083425 0.091678 -0.008502 40858.500000 0 0 1
33.596266 24.186618 22.777416 47.249468 0.623970 1.067784 0.090276 -0.010109 360884.000000 0 0 1
33.716656 24.217218 24.202946 48.052774 0.622874 1.042950 0.089616 -0.015346 738626.000000 0 0 1
32.368906 24.722718 24.842426 47.708542 0.652262 1.023111 0.076357 -0.013099 838289.000000 0 0 1
32.180036 26.120918 24.822896 48.311833 0.681842 1.031181 0.050532 -0.014932 -186304.000000 0 0 1
30.845306 26.421118 25.132016 47.761141 0.708295 1.016668 0.041506 -0.014497 -291064.000000 0 0 1
30.530166 27.907218 25.401486 48.540079 0.740544 1.020066 0.034920 -0.007194 -211562.000000 0 0 1
30.206546 28.606918 24.242266 48.150583 0.758207 1.043189 0.029615 -0.005154 -29629.800000 0 0 1
29.790416 29.857618 24.618346 48.836556 0.786525 1.042461 0.024431 0.002080 -196262.000000 0 0 1
29.952036 30.968618 23.487036 49.069549 0.802084 1.071682 0.027271 0.000192 81175.600000 0 0 1
31.324726 31.209218 23.257526 49.961648 0.783551 1.086588 0.034273 -0.008820 -5359.870000 0 0 1
31.456316 31.903218 21.993116 49.910042 0.792451 1.114468 0.026679 0.004201 1122030.000000 0 0 1
32.960236 32.219018 21.616616 50.908942 0.774027 1.132262 0.029560 -0.007640 1398430.000000 0 0 1
33.585266 33.043318 22.622716 52.264885 0.777264 1.123147 0.038445 0.007030 6633.590000 0 0 1
34.988396 33.131618 22.548016 53.200611 0.758147 1.133127 0.040197 0.004535 30053.700000 0 0 1
35.497596 -33.695553 23.267256 54.192572 -0.759360 1.127030 0.059685 0.008498 -112894.000000 0 0 1
35.139426 -32.487853 22.654216 52.947647 -0.746210 1.128672 0.044661 0.003529 47473.300000 0 0 1
35.409726 -31.405853 23.494006 52.840748 -0.725546 1.110047 0.051969 -0.005415 -970061.000000 0 0 1
34.582966 -30.136753 23.265556 51.434342 -0.716806 1.101415 0.053647 -0.012522 -424578.000000 0 0 1
33.264256 -30.311553 23.749166 50.885399 -0.738988 1.085219 0.047703 -0.008523 56104.900000 0 0 1
32.294056 -30.421853 22.745716 49.857425 -0.755555 1.097059 0.043635 0.000433 -597973.000000 0 0 1
31.447816 -31.709653 22.765016 50.126971 -0.789544 1.099382 0.033977 0.007640 242692.000000 0 0 1
30.427986 -31.642853 23.783516 49.927829 -0.804968 1.074289 0.040909 -0.005321 421545.000000 0 0 1
30.049866 -32.960353 24.061736 50.678856 -0.831556 1.076073 0.025708 0.002101 -313367.000000 0 0 1
28.956496 -33.121453 25.123766 50.662737 -0.852390 1.051923 0.009704 0.000368 -169530.000000 0 0 1
28.809156 33.622018 25.589186 51.139163 0.862337 1.046755 0.004441 -0.002216 -240282.000000 0 0 1
27.778256 33.628518 26.525216 51.049934 0.880382 1.024421 0.007780 -0.005030 -870037.000000 0 0 1
27.350956 32.227818 26.940216 50.124667 0.867072 1.003369 0.004290 0.007813 254650.000000 0 0 1
26.778756 31.376918 25.965866 48.742578 0.864300 1.008992 -0.000165 0.003499 -525848.000000 0 0 1
25.445056 31.669718 25.661496 48.051371 0.893955 1.007421 0.001771 0.002555 -652830.000000 0 0 1
24.901456 31.189418 24.301296 46.727029 0.897035 1.023864 0.031992 -0.012466 -103187.000000 0 0 1
25.044356 31.907818 23.096206 46.677225 0.905333 1.053184 0.027512 -0.014642 107282.000000 0 0 1
26.375156 32.201218 22.692116 47.407799 0.884533 1.071671 0.010508 -0.003734 -15277.900000 0 0 1
26.474556 33.006818 21.393816 47.413579 0.894780 1.102668 0.018374 -0.009912 621338.000000 0 0 1
27.830256 33.261318 20.995316 48.183417 0.874065 1.119939 0.029551 -0.009752 749977.000000 0 0 1
27.931456 33.942018 19.719916 48.177815 0.882237 1.149093 0.032796 -0.006802 641917.000000 0 0 1
29.440976 -33.792153 19.431716 48.849486 -0.854102 1.161692 0.050179 -0.013864 1229280.000000 0 0 1
30.243316 33.184718 18.959116 48.737375 0.831739 1.171244 0.059395 -0.011814 666317.000000 0 0 1
31.390106 33.715218 18.264016 49.554303 0.821096 1.193331 0.063871 -0.007355 457764.000000 0 0 1
32.231516 32.620018 17.605416 49.121145 0.791389 1.204234 0.056045 0.000868 -384523.000000 0 0 1
32.992256 31.828418 18.465816 49.421893 0.767445 1.187870 0.051130 -0.000139 222808.000000 0 0 1
33.950786 31.078718 17.701916 49.314302 0.741261 1.203642 0.061731 0.001966 710809.000000 0 0 1
34.991066 30.312918 18.570516 49.880976 0.713884 1.189314 0.064798 -0.001097 402313.000000 0 0 1
35.960056 31.099218 19.237116 51.286973 0.713039 1.186305 0.071017 -0.000381 79972.800000 0 0 1
-36.911090 30.348118 19.911716 51.767878 -0.688129 1.175984 0.094786 -0.008861 109520.000000 0 0 1
-35.791366 31.151318 20.614416 51.733747 -0.716195 1.160947 0.125423 -0.006092 241325.000000 0 0 1
-34.975655 31.884318 19.718816 51.271219 -0.739195 1.176024 0.124822 -0.006036 879499.000000 0 0 1
-33.727520 32.356918 20.269516 50.944764 -0.764661 1.161600 0.112261 0.000277 861020.000000 0 0 1
-33.719160 33.767718 20.952316 52.117560 -0.786118 1.157074 0.103926 0.004075 -224064.000000 0 0 1
-34.075520 33.662718 22.326116 52.846713 -0.779304 1.134628 0.115664 0.002340 271064.000000 0 0 1
-33.886440 -33.170853 22.984716 52.696238 0.774727 1.119454 0.107332 -0.000448 36873.300000 0 0 1
-33.885370 -33.246053 24.496196 53.418929 0.775875 1.094414 0.113671 -0.017842 1110420.000000 0 0 1
-35.197953 -33.627953 24.987146 54.718302 0.762591 1.096570 0.105880 -0.009006 927226.000000 0 0 1
-35.263680 -33.889553 26.398046 55.577745 0.765530 1.075861 0.106428 -0.009917 1315210.000000 0 0 1
-36.655740 33.613718 26.921076 56.553246 -0.742134 1.074661 0.074911 -0.011395 1292430.000000 0 0 1
-36.506980 33.104918 28.223766 56.791514 -0.736565 1.050691 0.091609 -0.019135 276843.000000 0 0 1
36.083646 32.747918 28.830866 56.618676 0.736974 1.036528 0.085672 -0.023999 453400.000000 0 0 1
36.341256 31.650218 29.891276 56.709008 0.716513 1.015613 0.080692 -0.019088 98737.600000 0 0 1
36.275216 30.274418 29.531976 55.718662 0.695471 1.012173 0.072396 -0.024224 303451.000000 0 0 1
-36.498170 29.861518 28.688186 55.198176 -0.685719 1.024261 0.074473 -0.025505 -81008.100000 0 0 1
-36.718020 28.435518 28.218766 54.342344 -0.658954 1.024791 0.070642 -0.020510 -23779.500000 0 0 1
35.915376 28.292618 27.439796 53.322874 0.667231 1.030259 0.067272 -0.023934 743406.000000 0 0 1
35.565186 26.969118 27.050776 52.191572 0.648793 1.025937 0.077944 -0.025515 -3587.430000 0 0 1
35.048656 26.040718 28.151076 51.952000 0.638998 0.998139 0.071568 -0.032043 53411.900000 0 0 1
36.081556 25.543318 29.055116 52.901224 0.616030 0.989350 0.045199 -0.026315 564548.000000 0 0 1
36.014476 24.209518 29.492136 52.468365 0.591835 0.973881 0.042254 -0.019387 -330463.000000 0 0 1
36.551186 23.229918 28.483576 51.835628 0.566146 0.989033 0.068520 -0.020211 -450426.000000 0 0 1
35.888026 23.249718 27.261176 50.711650 0.574856 1.003241 0.083161 -0.020128 -311930.000000 0 0 1
36.489346 22.457918 26.256906 50.251921 0.551713 1.021009 0.082520 -0.023706 -196729.000000 0 0 1
36.174706 20.906718 26.369706 49.407100 0.524039 1.007799 0.083469 -0.023355 282342.000000 0 0 1
34.840376 20.540018 26.009856 48.085931 0.532698 0.999285 0.102130 -0.007584 485820.000000 0 0 1
34.553116 19.167818 26.279366 47.454485 0.506471 0.983899 0.101164 -0.004782 -299299.000000 0 0 1
34.009566 18.815718 27.721186 47.740402 0.505333 0.951251 0.084865 -0.002003 735490.000000 0 0 1
32.794426 19.399318 28.228216 47.419828 0.534178 0.933179 0.071845 -0.008298 902820.000000 0 0 1
32.859596 20.805218 28.232726 48.059306 0.564442 0.942885 0.072742 -0.019594 -703618.000000 0 0 1
31.858326 21.471218 29.209956 48.261658 0.593034 0.920727 0.077423 -0.023559 1292200.000000 0 0 1
30.436496 21.462318 28.970516 47.183706 0.614174 0.909685 0.080128 -0.032772 1378690.000000 0 0 1
29.906536 22.300418 27.888976 46.577940 0.640724 0.928845 0.075686 -0.027385 74981.200000 0 0 1
29.793706 23.853418 28.063866 47.373315 0.675118 0.936764 0.068813 -0.018613 -401566.000000 0 0 1
31.049656 24.474218 28.155596 48.536646 0.667522 0.951958 0.070751 -0.022942 -381411.000000 0 0 1
31.154556 25.555418 29.105966 49.707575 0.686984 0.945246 0.055607 -0.017527 5084.300000 0 0 1
31.414836 25.326918 30.579106 50.630291 0.678515 0.922325 0.057424 -0.024785 -214768.000000 0 0 1
32.711586 24.824618 30.774626 51.316538 0.649169 0.927668 0.058277 -0.017548 -412069.000000 0 0 1
33.097606 24.726318 32.141571 52.344273 0.641625 0.909625 0.072772 -0.014444 -161989.000000 0 0 1
32.614756 23.496018 32.937325 51.967803 0.624293 0.884337 0.074839 -0.011806 -160454.000000 0 0 1
32.924526 23.569018 -33.724874 52.696206 0.621284 2.265277 0.061060 -0.014221 185840.000000 0 0 1
32.359416 22.466518 -33.072674 51.436155 0.606877 2.269186 0.051673 -0.015671 -141187.000000 0 0 1
32.903576 22.280818 -31.618554 50.782016 0.595229 2.242899 0.049511 -0.016212 -220474.000000 0 0 1
32.429746 23.194518 -30.614284 50.268365 0.620870 2.225617 0.035130 -0.022764 321227.000000 0 0 1
32.934796 23.041318 -29.261634 49.717666 0.610460 2.200068 0.076175 -0.033303 526043.000000 0 0 1
34.335456 23.643118 -28.899964 50.726014 0.603028 2.176970 0.076278 -0.007366 479529.000000 0 0 1
34.963296 23.040918 -27.840294 50.283178 0.582678 2.157561 0.080434 -0.017998 -875517.000000 0 0 1
36.037636 23.810918 -27.382574 51.141728 0.583877 2.135808 0.092969 -0.018798 -136492.000000 0 0 1
36.903606 23.006718 -26.379904 50.863391 0.557468 2.116058 0.082852 -0.020843 177779.000000 0 0 1
-36.000652 22.051618 -26.912054 50.065751 -0.549585 2.138307 0.059223 -0.018459 352932.000000 0 0 1
-36.084790 20.787718 -26.282124 49.244201 -0.522645 2.133778 0.037458 -0.009353 -197646.000000 0 0 1
-34.867660 19.875318 -26.551994 48.122660 -0.518085 2.155265 0.045320 -0.003437 -553766.000000 0 0 1
-33.720510 20.217018 -25.839104 47.047422 -0.540086 2.152220 0.059244 -0.012669 -722538.000000 0 0 1
-32.882760 19.077218 -25.930564 46.017500 -0.525703 2.169405 0.031624 -0.013760 -1080030.000000 0 0 1
-31.602060 19.196518 -25.187754 44.739462 -0.545876 2.168792 0.035827 -0.018603 -1215350.000000 0 0 1
-31.852690 19.226018 -23.805364 44.169322 -0.543056 2.139995 0.031660 -0.018004 61176.500000 0 0 1
-30.667750 19.252418 -23.045964 42.921824 -0.560592 2.137589 0.036119 -0.005884 99928.900000 0 0 1
-31.026650 19.558218 -21.606664 42.567885 -0.562450 2.103172 0.030442 -0.000897 84416.000000 0 0 1
-31.874590 18.657718 -20.935464 42.454606 -0.529576 2.086476 0.009774 -0.003640 -70792.400000 0 0 1
-32.347230 19.166118 -19.723064 42.458010 -0.534895 2.053901 0.011350 0.002396 -1000340.000000 0 0 1
-33.433750 18.270018 -19.123864 42.630170 -0.500117 2.035994 -0.002624 0.000445 -225319.000000 0 0 1
-34.187893 18.863918 -18.089564 43.033612 -0.504203 2.004637 0.011609 -0.004194 91782.500000 0 0 1
-35.228250 19.715218 -18.492764 44.403848 -0.510216 2.000353 0.024533 -0.002251 -1325700.000000 0 0 1
-36.292360 19.829118 -17.436864 44.881773 -0.500053 1.969807 0.023231 -0.006841 -787097.000000 0 0 1
-35.853172 20.407118 -16.255664 44.341256 -0.517454 1.946152 0.025852 -0.008717 -316017.000000 0 0 1
-36.916640 20.414818 -15.353964 44.892620 -0.505142 1.919857 0.035893 -0.002594 -816523.000000 0 0 1
-36.757760 21.184918 -14.040164 44.688476 -0.522840 1.890388 0.055328 -0.004181 -373583.000000 0 0 1
36.873766 22.579518 -13.935864 45.428158 0.549448 1.882591 0.069717 -0.010097 363320.000000 0 0 1
35.554726 23.065318 -14.144864 44.679129 0.575480 1.892926 0.072773 -0.008786 201992.000000 0 0 1
35.431746 24.547518 -14.570364 45.500382 0.605885 1.896763 0.062619 -0.014142 -167749.000000 0 0 1
35.776206 25.410018 -13.537164 45.922334 0.617571 1.870026 0.070963 -0.009353 -90584.300000 0 0 1
35.730996 26.807718 -13.911064 46.785420 0.643671 1.872699 0.059565 0.003112 142357.000000 0 0 1
36.899066 27.452218 -14.718464 48.288700 0.639638 1.880526 0.083707 0.003562 216227.000000 0 0 1
-36.747950 27.042718 -16.049964 48.366536 -0.634414 1.909050 0.088413 -0.001409 633271.000000 0 0 1
-35.787911 27.939018 -16.699364 48.375945 -0.662851 1.923248 0.097313 -0.007544 184569.000000 0 0 1
-35.568884 27.499618 -18.231464 48.515572 -0.658145 1.956041 0.092391 -0.013489 266502.000000 0 0 1
-34.948226 26.203918 -18.434364 47.411492 -0.643368 1.970143 0.081914 -0.015801 474573.000000 0 0 1
-33.650330 25.985518 -17.922064 46.138836 -0.657572 1.969732 0.073179 -0.005437 -153097.000000 0 0 1
-33.019070 24.652618 -18.335964 45.102307 -0.641333 1.989462 0.057892 -0.006044 -83126.200000 0 0 1
-32.683480 24.608718 -19.713064 45.413696 -0.645380 2.019810 0.048688 -0.006630 221565.000000 0 0 1
-32.236420 23.357718 -20.216264 44.648260 -0.627030 2.040688 0.033112 -0.003851 -22166.300000 0 0 1
-31.895230 23.359318 -21.745864 45.120351 -0.632126 2.073678 0.030299 -0.004295 685089.000000 0 0 1
-33.077750 23.482818 -22.550764 46.412469 -0.617358 2.078163 0.049278 -0.012015 853368.000000 0 0 1
-32.771410 23.255618 -23.924164 46.767026 -0.617161 2.107796 0.049322 -0.008768 -283159.000000 0 0 1
-33.761730 24.005618 -24.789164 48.276565 -0.618091 2.110034 0.039551 -0.006243 -500638.000000 0 0 1
-33.564520 25.399918 -24.651364 48.779325 -0.647807 2.100601 0.031880 -0.004381 -184808.000000 0 0 1
-34.297852 26.209418 -25.540764 50.155826 -0.652509 2.105084 0.039291 -0.014599 -571305.000000 0 0 1
-33.771380 27.618218 -25.867374 50.718765 -0.685500 2.106000 0.031760 -0.006968 1040830.000000 0 0 1
-32.469770 27.475918 -26.496414 50.112593 -0.702284 2.127909 0.010092 -0.012358 578334.000000 0 0 1
-31.907050 28.741118 -26.768354 50.602930 -0.733244 2.128204 0.015488 -0.015241 -805633.000000 0 0 1
-30.636380 28.678918 -27.546074 50.198150 -0.752409 2.151661 0.026247 -0.011828 -1495640.000000 0 0 1
-29.596430 28.078018 -26.858364 48.843582 -0.759077 2.153023 0.007371 -0.004042 978446.000000 0 0 1
-28.243830 28.122318 -27.402224 48.367971 -0.783242 2.173093 0.016424 0.001565 1899060.000000 0 0 1
-27.508520 29.507818 -27.353954 48.740833 -0.820449 2.166646 0.010248 -0.007784 -405106.000000 0 0 1
-27.016240 30.025418 -26.053614 48.064475 -0.838103 2.143678 0.016410 -0.005129 724521.000000 0 0 1
-27.946860 30.032718 -24.949764 48.015434 -0.821358 2.117202 0.019324 -0.002272 516974.000000 0 0 1
-27.253030 30.654318 -23.676664 47.360313 -0.844067 2.094310 0.001450 -0.009855 298434.000000 0 0 1
-26.866400 32.010518 -23.767764 48.076848 -0.872548 2.087907 0.016692 -0.011866 18895.700000 0 0 1
-26.196130 32.322618 -22.569764 47.332685 -0.889711 2.067844 0.033740 0.002054 38961.400000 0 0 1
-25.402500 33.648518 -22.512464 47.794569 -0.924143 2.061249 0.027648 0.012070 -28619.200000 0 0 1
-26.291080 -33.366553 -22.563664 48.100590 0.903448 2.059060 0.016959 -0.007026 219338.000000 0 0 1
-25.512020 -32.159953 -22.554564 46.838383 0.900163 2.073208 0.036689 -0.000854 478304.000000 0 0 1
16.887120 8.958318 -25.348384 31.748494 0.487735 2.495450 0.076659 -0.022336 1220520.000000 0 0 1
15.575120 8.319318 -25.273994 30.831319 0.490586 2.531772 0.077161 -0.026670 1217950.000000 0 0 1
15.616020 6.855918 -25.309794 30.519656 0.413695 2.548641 0.096462 -0.039644 24448.500000 0 0 1
14.241620 6.147518 -25.332484 29.704385 0.407497 2.592158 0.088891 -0.037905 -3860.280000 0 0 1
13.513420 6.332918 -24.156964 28.395022 0.438246 2.588200 0.085157 -0.034459 -189912.000000 0 0 1
12.277520 5.664918 -24.239064 27.755378 0.432298 2.632753 0.072082 -0.033429 -589118.000000 0 0 1
11.425420 5.666618 -23.005264 26.303858 0.460415 2.635399 0.073635 -0.039497 -499910.000000 0 0 1
12.039320 5.144018 -21.822464 25.448499 0.403790 2.601216 0.071474 -0.026666 120422.000000 0 0 1
11.336820 5.392218 -20.606764 24.129613 0.443968 2.594428 0.079043 -0.023976 -252272.000000 0 1 0
11.442820 6.766018 -19.950164 23.973447 0.533990 2.553819 0.078095 -0.030879 -17978.400000 0 1 0
11.076220 6.692518 -18.592664 22.653027 0.543520 2.533534 0.065438 -0.018459 -269987.000000 0 1 0
10.995920 7.962418 -17.951064 22.506689 0.626734 2.494082 0.060246 -0.025824 582991.000000 0 1 0
12.407820 8.505718 -17.535564 23.104053 0.600937 2.432545 0.047908 -0.024718 660025.000000 0 1 0
13.020420 7.744718 -16.525964 22.419177 0.536597 2.399617 0.058121 -0.022626 524130.000000 0 1 0
14.310120 8.202318 -16.125564 23.067106 0.520468 2.344895 0.053778 -0.025690 313579.000000 0 1 0
14.868820 7.519218 -14.838664 22.311576 0.468200 2.298378 0.057900 -0.036605 -299193.000000 0 1 0
16.125920 8.100518 -14.606164 23.216454 0.465509 2.251230 0.040782 -0.041808 59201.800000 0 1 0
16.612020 7.869118 -13.274264 22.673516 0.442387 2.196234 0.023598 -0.041234 31784.200000 0 1 0
17.477020 9.023918 -12.764264 23.447895 0.476626 2.146431 0.073601 -0.050850 -163517.000000 0 1 0
16.697120 10.177418 -12.863164 23.405868 0.547398 2.152646 0.094425 -0.036484 230270.000000 0 1 0
17.331320 11.274418 -12.248564 24.031531 0.576743 2.105618 0.133030 -0.063008 -195439.000000 0 1 0
16.467720 12.563918 -12.133164 24.005239 0.651733 2.100686 0.147730 -0.049420 335639.000000 0 1 0
15.436420 12.572518 -11.130164 22.808591 0.683503 2.080572 0.150626 -0.038009 624599.000000 0 1 0
15.438520 13.671218 -10.161864 22.989423 0.724761 2.028650 0.111815 -0.037057 -297331.000000 0 1 0
14.967420 15.011618 -10.746164 23.766623 0.786872 2.039975 0.106515 -0.037346 -388756.000000 0 1 0
13.866320 15.513118 -10.036364 23.101088 0.841392 2.020229 0.135705 -0.042068 -8354.490000 0 1 0
13.525120 16.815318 -10.471564 23.986193 0.893419 2.022575 0.130573 -0.037441 681299.000000 0 1 0
12.321920 17.319518 -9.579364 23.314365 0.952429 1.994213 0.124489 -0.031080 526908.000000 0 1 0
12.712720 17.399818 -8.194764 23.054741 0.939812 1.934190 0.120084 -0.027344 222151.000000 0 1 0
11.700120 17.635718 -7.231264 22.365208 0.985036 1.900039 0.107629 -0.025990 -122746.000000 0 1 0
12.179420 17.428118 -5.815664 22.043129 0.960851 1.837788 0.100272 -0.022525 -131824.000000 0 1 0
13.303420 18.203818 -5.505864 23.209363 0.939694 1.810306 0.124694 -0.031805 7299.080000 0 1 0
13.959120 17.668918 -4.354164 22.934830 0.902159 1.761805 0.136871 -0.031845 -689185.000000 0 1 0
15.119020 18.503718 -3.906864 24.212310 0.885727 1.732863 0.129527 -0.039907 -584476.000000 0 1 0
16.360420 18.301918 -4.559164 24.968170 0.841351 1.754426 0.146084 -0.052047 741105.000000 0 1 0
17.194220 19.477518 -4.458264 26.360786 0.847581 1.740738 0.101158 -0.039261 945369.000000 0 0 1
18.577620 19.445618 -5.216964 27.394831 0.808222 1.762403 0.106691 -0.027502 1113500.000000 0 0 1
19.535620 18.611818 -4.552864 27.363640 0.761186 1.737957 0.107418 -0.037806 217801.000000 0 0 1
19.651920 17.333418 -5.103464 26.696267 0.722793 1.763148 0.134685 -0.045010 297858.000000 0 0 1
20.801820 16.480418 -4.429164 26.906085 0.670003 1.736165 0.130571 -0.041189 -51995.800000 0 0 1
22.085320 16.873218 -4.766864 28.199111 0.652402 1.740655 0.096910 -0.034454 -691226.000000 0 0 1
23.004920 16.096118 -4.060864 28.369032 0.610512 1.714434 0.094008 -0.035978 -569688.000000 0 0 1
24.515920 16.253618 -4.227464 29.716694 0.585447 1.713539 0.089750 -0.027955 -328063.000000 0 0 1
25.047220 17.439318 -3.734964 30.748057 0.608210 1.692567 0.085132 -0.026644 71751.700000 0 0 1
26.436320 17.246018 -3.514064 31.759295 0.578033 1.681670 0.070816 -0.015514 215424.000000 0 0 1
27.052420 18.565418 -2.929364 32.940695 0.601456 1.659842 0.086360 -0.022317 -180898.000000 0 0 1
27.301320 19.652818 -3.801764 33.853342 0.623923 1.683335 0.084649 -0.020521 198615.000000 0 0 1
27.636220 20.775218 -2.986164 34.702846 0.644613 1.656952 0.119515 -0.012537 -110335.000000 0 0 1
27.612220 22.078118 -3.841364 35.561694 0.674483 1.679027 0.089305 -0.012622 -326122.000000 0 0 1
28.722020 22.342618 -4.646564 36.684296 0.661114 1.697801 0.068845 0.000059 -269701.000000 0 0 1
28.646820 21.799918 -5.926864 36.482934 0.650497 1.733975 0.068551 -0.003559 -252521.000000 0 0 1
29.677820 22.307218 -6.916564 37.765379 0.644554 1.754982 0.053334 -0.001313 -196273.000000 0 0 1
29.129520 23.324218 -7.720564 38.107154 0.675172 1.774810 0.043425 -0.003088 1006770.000000 0 0 1
30.175320 24.098918 -8.368164 39.513719 0.673905 1.784191 0.033516 0.005259 843174.000000 0 0 1
31.065920 23.524318 -9.498464 40.108674 0.648118 1.809886 0.027637 -0.007081 180894.000000 0 0 1
30.321320 23.448318 -10.686864 39.792149 0.658264 1.842702 0.031931 -0.007153 40131.300000 0 0 1
31.095820 22.850718 -11.733864 40.333471 0.633733 1.865986 0.020988 -0.012745 110447.000000 0 0 1
30.357320 22.440218 -13.030664 39.936556 0.636555 1.903166 0.046821 -0.012609 -99330.200000 0 0 1
30.461620 23.354418 -14.097764 40.891149 0.654093 1.922783 0.045817 -0.019031 26142.600000 0 0 1
30.265220 22.626918 -15.307864 40.771211 0.641977 1.955687 0.046388 -0.018774 -204856.000000 0 0 1
30.610220 23.396518 -16.609464 41.955416 0.652614 1.977826 0.036723 -0.018820 -1190710.000000 0 0 1
31.912220 23.844818 -16.654764 43.178077 0.641707 1.966787 0.041797 -0.011067 -984780.000000 0 0 1
32.069020 24.807318 -17.723064 44.248526 0.658410 1.982897 0.055397 -0.018804 685703.000000 0 0 1
33.586720 25.155218 -17.865664 45.607398 0.642837 1.973305 0.058732 -0.023939 611548.000000 0 0 1
34.387020 24.084618 -18.273264 45.786987 0.610993 1.981324 0.063352 -0.018220 -338492.000000 0 0 1
35.746420 24.437018 -18.417164 47.054929 0.599649 1.972946 0.074794 -0.018678 -93721.700000 0 0 1
36.753120 23.287718 -18.477564 47.270816 0.564778 1.972392 0.068815 -0.024918 -291384.000000 0 0 1
36.760120 22.464018 -19.651964 47.351222 0.548540 1.998767 0.057775 -0.013441 193969.000000 0 0 1
-36.117316 23.011518 -20.559264 47.504461 -0.567276 2.018377 0.066478 -0.016073 110004.000000 0 0 1
-35.986716 22.084618 -21.822764 47.529013 -0.550424 2.047830 0.062913 -0.016340 1110.110000 0 0 1
-35.518416 20.764118 -21.600264 46.468030 -0.529020 2.054252 0.040955 -0.013102 198386.000000 0 0 1
-35.256816 20.049018 -22.811464 46.533526 -0.517054 2.083134 0.044818 -0.020784 117072.000000 0 0 1
-35.089216 18.515618 -22.624564 45.672224 -0.485540 2.089055 0.021551 -0.014703 -219639.000000 0 0 1
-36.318216 17.853618 -22.525164 46.315737 -0.456896 2.078692 0.025825 -0.012967 -358863.000000 0 0 1
-36.178016 16.495218 -22.313564 45.594256 -0.427788 2.082191 0.013204 -0.012048 -703770.000000 0 0 1
36.347720 15.789518 -22.029264 45.340425 0.409807 2.078147 0.029426 -0.008735 -469479.000000 0 0 1
35.384120 15.921818 -23.092464 45.153097 0.422830 2.107640 0.067626 -0.012212 566696.000000 0 0 1
34.269820 15.053018 -22.969964 43.916206 0.413878 2.121211 0.083696 -0.005257 98012.500000 0 0 1
34.616220 13.604818 -23.384264 43.934014 0.374473 2.132063 0.047442 -0.010099 -527136.000000 0 0 1
34.742920 13.541418 -24.784764 44.774156 0.371648 2.157418 0.050873 0.002994 425089.000000 0 0 1
35.337120 12.335618 -25.329044 45.193362 0.335858 2.165737 0.038224 0.002180 116910.000000 0 0 1
35.215620 12.393218 -26.908904 46.019788 0.338388 2.195337 0.059578 -0.005253 561417.000000 0 0 1
33.893520 12.092318 -27.393294 45.225960 0.342697 2.221440 0.052541 -0.001546 734869.000000 0 0 1
33.265620 13.170918 -28.008714 45.437459 0.376994 2.234989 0.054943 0.001400 -167973.000000 0 0 1
33.652920 13.414618 -29.502414 46.721124 0.379313 2.254228 0.056651 -0.005713 -1326550.000000 0 0 1
34.920620 13.922318 -29.643754 47.875180 0.379372 2.238505 0.059091 -0.004630 -1280250.000000 0 0 1
35.211620 13.846918 -30.991874 48.909013 0.374673 2.257076 0.067747 -0.006520 -216896.000000 0 0 1
36.721920 14.027118 -31.350934 50.280618 0.364878 2.244032 0.079721 -0.015363 1139830.000000 0 0 1
-36.244016 12.906318 -30.988894 49.401551 -0.342094 2.248860 0.062913 -0.015629 511949.000000 0 0 1
-36.022616 12.802118 -29.560254 48.325270 -0.341470 2.228996 0.043183 -0.013533 -1058410.000000 0 0 1
-34.968316 11.760818 -29.138944 47.012530 -0.324443 2.239300 0.041734 -0.016784 -302510.000000 0 0 1
-35.117416 10.459318 -29.680404 47.154603 -0.289473 2.251613 0.044899 -0.021185 1003500.000000 0 0 1
-34.077716 9.474818 -29.301044 45.930535 -0.271186 2.262620 0.040673 -0.026668 962647.000000 0 0 1
-34.408816 8.142318 -29.942464 46.333736 -0.232360 2.273436 0.047323 -0.023677 -608162.000000 0 0 1
-34.233016 8.235518 -31.373984 47.159835 -0.236086 2.298651 0.054263 -0.029370 -81578.000000 0 0 1
-34.611516 7.123118 -32.153424 47.775920 -0.202968 2.309060 0.062576 -0.026725 266555.000000 0 0 1
-36.030916 6.478118 -31.964294 48.599475 -0.177893 2.288569 0.066571 -0.000960 287966.000000 0 0 1
-36.258916 5.937818 -30.680884 47.867351 -0.162321 2.266540 0.054891 -0.002016 -904563.000000 0 0 1
36.239920 5.657618 -30.467694 47.682500 0.154866 2.263955 0.041953 0.017916 -1029790.000000 0 0 1
35.911220 4.995118 -29.143324 46.517742 0.138210 2.247850 0.052042 -0.005278 -313107.000000 0 0 1
36.521320 3.757518 -28.985334 46.776868 0.102525 2.239094 0.056889 0.001099 106206.000000 0 0 1
36.221820 3.098918 -27.761384 45.741863 0.085346 2.222968 0.058222 0.004886 -243273.000000 0 0 1
36.836620 1.715718 -27.550554 46.031656 0.046543 2.212440 0.116501 -0.001204 -295931.000000 0 0 1
-35.746216 1.696618 -26.902144 44.770479 -0.047427 2.215411 0.121083 -0.007996 -44425.600000 0 0 1
-35.195716 0.388218 -27.012254 44.368356 -0.011030 2.225366 0.142471 -0.006097 1613970.000000 0 0 1
-33.848716 0.251518 -26.109014 42.749028 -0.007431 2.227805 0.134536 -0.015123 1609260.000000 0 0 1
-34.058616 0.129318 -24.692764 42.068261 -0.003797 2.198106 0.122770 -0.008703 480094.000000 0 0 1
-32.848416 0.326118 -23.969464 40.665218 -0.009928 2.201154 0.147149 -0.005018 323321.000000 0 0 1
-33.067016 0.165718 -22.423564 39.953363 -0.005012 2.166684 0.135658 0.001990 -213733.000000 0 0 1
-33.350016 -1.132882 -21.997064 39.967209 0.033956 2.153613 0.143697 -0.013556 248459.000000 0 0 1
-33.558216 -1.152682 -20.568264 39.376846 0.034335 2.120394 0.105905 -0.004606 659734.000000 0 0 1
-35.054616 -0.992882 -20.102864 40.421987 0.028316 2.091309 0.096616 -0.000621 584243.000000 0 0 1
-35.744116 -2.210682 -20.365864 41.198269 0.061769 2.087869 0.099831 -0.008441 239130.000000 0 0 1
36.757920 -2.131782 -19.875364 41.841598 -0.057930 2.065777 0.093211 -0.007854 381886.000000 0 0 1
36.148420 -3.543782 -19.596164 41.270768 -0.097722 2.065555 0.112273 -0.015264 2636.590000 0 0 1
35.640220 -4.320182 -20.643164 41.412915 -0.120628 2.092631 0.108891 -0.009817 873037.000000 0 0 1
36.710020 -4.783982 -21.472964 42.797199 -0.129588 2.096403 0.098702 -0.016480 511103.000000 0 0 1
36.077620 -5.499182 -22.669164 42.961921 -0.151262 2.126636 0.096184 -0.017829 -188458.000000 0 0 1
35.489620 -6.750382 -22.413764 42.514205 -0.187962 2.126106 0.114386 -0.015197 155353.000000 0 0 1
35.072720 -7.388282 -23.617864 42.924188 -0.207620 2.153427 0.106991 -0.011584 275468.000000 0 0 1
33.559320 -7.164682 -23.870464 41.801432 -0.210335 2.178574 0.069454 -0.003001 -299951.000000 0 0 1
33.209120 -5.984782 -24.565764 41.738951 -0.178301 2.200069 0.078785 -0.011251 156389.000000 0 0 1
31.849620 -6.004282 -24.956464 40.905682 -0.186333 2.226980 0.025470 -0.007726 159331.000000 0 0 1
31.362320 -4.722282 -25.636624 40.781510 -0.149449 2.250591 0.038840 -0.029230 -235739.000000 0 0 1
31.917520 -4.618682 -26.919084 42.008302 -0.143709 2.266341 0.052508 -0.031707 167320.000000 0 0 1
31.204520 -3.792682 -27.794324 41.959873 -0.120949 2.294818 0.064476 -0.034263 -265300.000000 0 0 1
32.031020 -3.419982 -29.093484 43.406375 -0.106368 2.305353 0.072171 -0.036344 -28456.900000 0 0 1
31.351220 -2.810682 -30.158974 43.593149 -0.089412 2.334814 0.062226 -0.038671 -177044.000000 0 0 1
30.576520 -3.676182 -30.985784 43.687032 -0.119655 2.359255 0.067399 -0.039330 -173927.000000 0 0 1
29.833320 -2.816482 -32.084194 43.901652 -0.094128 2.390318 0.078323 -0.029125 -804037.000000 0 0 1
28.855720 -1.933582 -31.550074 42.799515 -0.066909 2.399653 0.059199 -0.027187 157277.000000 0 0 1
27.574420 -2.511382 -31.365444 41.838341 -0.090826 2.418378 0.062764 -0.028188 -39025.900000 0 0 1
26.829320 -2.669582 -32.734244 42.408370 -0.099176 2.452592 0.080237 -0.033618 -1686080.000000 0 0 1
27.101620 -3.921482 -33.308274 43.119798 -0.143698 2.453500 0.102181 -0.040623 347650.000000 0 0 1
26.511120 -4.129482 33.408359 42.848694 -0.154522 0.676638 0.107062 -0.030117 -396334.000000 0 0 1
27.327520 -5.127082 32.601460 42.847818 -0.185460 0.706149 0.089830 -0.037725 -1196760.000000 0 0 1
28.638120 -4.834982 32.334053 43.462742 -0.167253 0.731836 0.098072 -0.027581 -1189860.000000 0 0 1
28.903120 -3.904382 31.295556 42.779041 -0.134272 0.750185 0.115456 -0.032840 -341166.000000 0 0 1
29.737620 -2.688782 31.716336 43.560091 -0.090172 0.755242 0.088588 -0.030896 408026.000000 0 0 1
31.125920 -2.856982 31.989896 44.725146 -0.091531 0.773807 0.091365 -0.029436 423512.000000 0 0 1
31.699120 -1.596682 32.333439 45.308221 -0.050327 0.776126 0.071028 -0.022918 -528204.000000 0 0 1
33.165020 -1.717782 32.711187 46.614280 -0.051749 0.792957 0.063855 -0.026102 -878829.000000 0 0 1
34.028020 -2.019982 31.682286 46.537659 -0.059293 0.821958 0.078112 -0.020875 -710588.000000 0 0 1
35.339020 -2.254582 32.126539 47.812592 -0.063712 0.833990 0.069245 -0.018161 85923.400000 0 0 1
36.281820 -2.763182 30.992406 47.796808 -0.076012 0.865289 0.071784 -0.009562 138836.000000 0 0 1
36.596220 -1.833082 29.963096 47.333187 -0.050048 0.885342 0.068393 -0.004387 -639260.000000 0 0 1
-36.252716 -2.322782 29.143456 46.572478 0.063984 0.894684 0.076087 -0.011234 -505060.000000 0 0 1
-36.033716 -1.462582 27.890596 45.590055 0.040567 0.912501 0.090871 -0.011868 589664.000000 0 0 1
36.667920 -1.456982 27.010236 45.565469 -0.039714 0.936292 0.086601 -0.024720 287649.000000 0 0 1
-36.806116 -0.906882 25.755916 44.931946 0.024634 0.960365 0.105427 -0.037162 136803.000000 0 0 1
-26.588460 14.895518 12.738736 33.031773 -0.510660 1.174883 0.113257 -0.024370 -681643.000000 0 0 1
-27.842020 14.349218 12.918936 33.881810 -0.475876 1.179601 0.099848 -0.020777 -421572.000000 0 0 1
-28.821290 15.241318 13.430236 35.260966 -0.486438 1.180047 0.103425 -0.021067 497313.000000 0 0 1
-30.154210 14.472418 13.660536 36.129455 -0.447477 1.183054 0.096523 -0.017686 222840.000000 0 0 1
-31.240910 15.252618 14.135036 37.529136 -0.454184 1.184628 0.090866 -0.017966 -628695.000000 0 0 1
-32.290370 14.392518 14.455536 38.193914 -0.419290 1.182645 0.095650 -0.025149 -419103.000000 0 0 1
-33.304050 15.153918 15.325236 39.669432 -0.427018 1.174154 0.080916 -0.026568 94391.400000 0 0 1
-32.712080 15.486018 16.553136 39.798282 -0.442145 1.141836 0.066384 -0.021896 42823.500000 0 0 1
-33.775380 15.565618 17.447636 41.079006 -0.431846 1.132129 0.072796 -0.027759 -55422.300000 0 0 1
-33.266490 15.926918 18.851936 41.421269 -0.446518 1.098282 0.082844 -0.014177 260062.000000 0 0 1
-32.430310 14.908918 19.420736 40.634540 -0.430909 1.072492 0.078098 -0.019251 357353.000000 0 0 1
-31.337750 15.427318 20.178936 40.339139 -0.457462 1.046929 0.076503 -0.012289 183618.000000 0 0 1
-31.541770 15.934518 21.633136 41.434100 -0.467789 1.021474 0.084959 -0.023276 -466722.000000 0 0 1
-32.294320 17.123918 21.692736 42.505605 -0.487550 1.035205 0.073029 -0.016601 51749.300000 0 0 1
-32.517920 17.719318 22.995036 43.590836 -0.498926 1.015118 0.069298 -0.028460 -422069.000000 0 0 1
-33.420980 16.897818 23.972836 44.465661 -0.468122 1.001391 0.074235 -0.027032 1646650.000000 0 0 1
-34.791111 16.654218 23.515436 45.174773 -0.446456 1.023309 0.123429 -0.020128 2024090.000000 0 0 1
-35.697434 17.767818 23.622736 46.346907 -0.461833 1.035967 0.131703 -0.026274 436071.000000 0 0 1
36.648516 17.433418 23.312836 46.803056 0.444013 1.049384 0.093940 -0.030114 359214.000000 0 0 1
36.045296 16.452518 24.118436 46.385856 0.428197 1.024001 0.105146 -0.025277 628597.000000 0 0 1
34.687486 16.223218 23.693836 45.031237 0.437473 1.016712 0.127910 -0.030772 1200310.000000 0 0 1
33.907906 15.263118 24.673936 44.626359 0.422966 0.984955 0.088720 -0.004174 61227.500000 0 0 1
33.462856 15.872218 25.860236 45.171250 0.442896 0.961253 0.094555 -0.016359 223954.000000 0 0 1
33.158886 15.065918 27.031536 45.356339 0.426470 0.932309 0.085079 -0.016053 271529.000000 0 0 1
32.321586 13.746418 27.005036 44.304863 0.402126 0.915332 0.079806 -0.017991 149354.000000 0 0 1
33.081256 12.643618 26.577036 44.278317 0.365067 0.927012 0.080595 -0.016190 238504.000000 0 0 1
32.372556 11.412218 26.904336 43.612663 0.338925 0.906008 0.059837 -0.012678 353035.000000 0 0 1
33.163736 10.092318 26.762536 43.794082 0.295413 0.913348 0.063314 -0.021579 -285737.000000 0 0 1
34.182146 9.850518 27.712036 45.093334 0.280575 0.908983 0.070023 -0.016560 -119797.000000 0 0 1
34.635426 8.545418 27.700936 45.166124 0.241894 0.910549 0.086719 -0.012949 -221006.000000 0 0 1
35.579396 8.256618 28.889936 46.569234 0.228026 0.901588 0.091634 -0.020865 504478.000000 0 0 1
36.849096 8.918518 28.815236 47.620517 0.237462 0.920903 0.091670 -0.018694 -293585.000000 0 0 1
-36.022239 7.961718 28.995736 46.922738 -0.217525 0.904668 0.108620 -0.026722 25527.600000 0 0 1
-34.517055 8.425518 28.933736 45.821147 -0.239415 0.887375 0.130194 -0.025042 980580.000000 0 0 1
-34.237089 8.924718 27.645136 44.900806 -0.254999 0.907531 0.102331 -0.024748 -1166310.000000 0 0 1
-32.980140 9.459218 27.680836 44.083955 -0.279318 0.891929 0.086491 -0.013374 -939521.000000 0 0 1
-32.282860 10.005918 26.398036 42.885402 -0.300556 0.907715 0.079038 -0.016566 143848.000000 0 0 1
-31.574900 9.001618 25.692836 41.690829 -0.277720 0.906798 0.087561 -0.022535 376657.000000 0 0 1
-30.688510 9.625218 24.763436 40.591344 -0.303925 0.914651 0.090369 -0.017695 254782.000000 0 0 1
-29.825130 8.627418 23.968536 39.223225 -0.281581 0.913372 0.090903 -0.017766 -131471.000000 0 0 1
-28.690510 9.206118 23.398936 38.149812 -0.310498 0.910510 0.101109 -0.022696 -158740.000000 0 0 1
-27.962930 8.290318 22.586136 36.888865 -0.288220 0.911861 0.087289 -0.019136 96726.700000 0 0 1
-26.913500 9.060718 21.746736 35.768053 -0.324742 0.917266 0.091992 -0.014626 -447144.000000 0 0 1
-25.718860 9.427418 22.451736 35.417741 -0.351348 0.884195 0.091574 -0.017825 619692.000000 0 0 1
-24.723680 10.049118 21.686336 34.388112 -0.386061 0.888426 0.086993 -0.012855 273543.000000 0 0 1
-24.069280 9.210718 20.510436 32.936993 -0.365483 0.898586 0.075710 -0.012127 -263309.000000 0 0 1
-24.980780 8.987018 19.396436 32.878984 -0.345341 0.939819 0.082434 -0.014694 926128.000000 0 0 1
-24.343580 8.303818 18.292836 31.562495 -0.328732 0.952589 0.079440 -0.018180 68701.100000 0 0 1
-24.079880 6.803218 18.407136 31.063597 -0.275351 0.936560 0.078036 -0.010889 -203333.000000 0 0 1
-22.919780 6.485118 19.156036 30.566759 -0.275741 0.893492 0.037633 -0.001892 393890.000000 0 0 1
-22.857080 5.170618 19.721936 30.629008 -0.222471 0.871215 0.039606 -0.005525 -349479.000000 0 0 1
-22.904980 3.898718 18.825136 29.903576 -0.168597 0.889851 0.063792 -0.005288 -282729.000000 0 0 1
-24.207380 3.703718 18.299436 30.570969 -0.151822 0.929058 0.115308 -0.014680 555589.000000 0 0 1
-24.300880 2.752118 17.269836 29.939174 -0.112771 0.955953 0.105435 -0.014743 -138768.000000 0 0 1
-24.308780 1.244018 17.647936 30.065162 -0.051131 0.943461 0.107517 -0.012240 -328267.000000 0 0 1
-23.064880 0.784818 18.120136 29.341846 -0.034013 0.905169 0.061399 -0.006004 195526.000000 0 0 1
-23.066680 -0.542082 18.487336 29.565980 0.023496 0.895292 0.087920 -0.014640 -602520.000000 0 0 1
-21.723080 -1.211782 18.804536 28.757107 0.055725 0.858056 0.083690 -0.005017 -142492.000000 0 0 1
-21.102180 -0.698882 20.002636 29.084289 0.033107 0.812415 0.053192 -0.000292 -443079.000000 0 0 1
-20.012180 -1.452082 20.354236 28.581302 0.072433 0.778237 0.042594 -0.003634 -350046.000000 0 0 1
-19.048180 -0.996682 21.488536 28.732972 0.052277 0.725948 0.042276 -0.004501 591517.000000 0 0 1
-19.632080 -1.077882 22.755436 30.073082 0.054849 0.712590 0.048286 -0.003177 613237.000000 0 0 1
-18.528580 -1.169982 23.677536 30.088251 0.063061 0.664968 0.046358 -0.008080 341593.000000 0 0 1
-19.018680 -1.175082 25.124836 31.533290 0.061707 0.648862 0.052762 -0.005371 88877.200000 0 0 1
-19.788580 -0.067282 25.546536 32.314361 0.003400 0.659069 0.055019 -0.018474 606026.000000 0 0 1
-21.195580 -0.246782 25.321036 33.022240 0.011643 0.696975 0.071132 -0.024078 282350.000000 0 0 1
-22.000580 0.919618 25.879036 33.979342 -0.041775 0.705001 0.064335 -0.030222 -501295.000000 0 0 1
-21.734980 2.118618 25.162336 33.317278 -0.097168 0.714786 0.055133 -0.025591 499198.000000 0 0 1
-22.874280 2.620818 24.464236 33.594645 -0.114077 0.755078 0.054453 -0.022091 -296376.000000 0 0 1
-22.520780 3.777818 23.479436 32.752730 -0.166201 0.771494 0.053185 -0.018985 -66976.700000 0 0 1
-21.924580 3.402818 22.246036 31.418983 -0.153977 0.784071 0.051672 -0.014401 403932.000000 0 0 1
-20.559280 3.062618 22.358936 30.528440 -0.147878 0.748961 0.039785 -0.010573 -621352.000000 0 0 1
-19.956280 2.381818 21.127036 29.159523 -0.118790 0.760440 0.023550 -0.009514 -224882.000000 0 0 1
-19.463680 3.234718 20.103636 28.168323 -0.164687 0.776035 0.015594 -0.002520 403489.000000 0 0 1
-19.093680 2.354618 19.002136 27.040599 -0.122700 0.791574 0.021196 -0.004910 72681.600000 0 0 1
-18.736380 3.077218 17.630936 25.910830 -0.162784 0.822424 0.018954 0.002822 -1746850.000000 0 0 1
-17.505980 3.614918 17.730336 25.177207 -0.203634 0.789470 0.025295 -0.014302 -1416830.000000 0 0 1
-17.052480 4.072918 16.427836 24.026018 -0.234454 0.817904 0.033611 -0.016599 -430143.000000 0 1 0
-15.636880 4.639118 16.319736 23.073084 -0.288406 0.785116 0.043373 -0.018326 -543330.000000 0 1 0
-15.265680 5.819918 17.121536 23.665574 -0.364232 0.761968 0.045294 -0.025518 126008.000000 0 1 0
-16.027180 6.994718 16.969236 24.367017 -0.411511 0.800425 0.046975 -0.034233 -436634.000000 0 1 0
-15.609980 7.862518 15.751236 23.528538 -0.466592 0.837325 0.048474 -0.030044 104788.000000 0 1 0
-16.029180 7.479618 14.421836 22.822547 -0.436593 0.886779 0.062278 -0.025065 1174670.000000 0 1 0
-17.448880 7.685218 14.208136 23.778080 -0.414877 0.930378 0.035465 -0.018569 896436.000000 0 1 0
-17.830580 6.917818 12.942836 23.093349 -0.370097 0.975858 0.045138 -0.018206 -151034.000000 0 1 0
-17.618780 5.559018 13.173736 22.690778 -0.305631 0.951360 0.046662 -0.019619 191051.000000 0 1 0
-17.901880 4.820418 12.004636 22.086761 -0.263030 0.996169 0.036785 -0.030569 87595.700000 0 1 0
-17.471580 3.347718 12.212736 21.578096 -0.189315 0.969177 0.039238 -0.018695 -186052.000000 0 1 0
-18.132780 2.694218 13.265036 22.627808 -0.147504 0.944402 0.042355 -0.017668 111306.000000 0 1 0
-17.742580 1.356918 13.421936 22.288758 -0.076329 0.924562 0.039089 -0.014513 -367639.000000 0 1 0
-18.585780 0.646518 14.475836 23.566905 -0.034772 0.909368 0.046213 -0.022006 818198.000000 0 1 0
-19.914280 0.223418 14.111436 24.408217 -0.011219 0.954346 0.066884 -0.016150 1248770.000000 0 1 0
-20.712980 -0.178082 15.217836 25.702953 0.008597 0.937177 0.080290 -0.020710 -362054.000000 0 0 1
-22.158780 -0.472182 14.838336 26.672283 0.021306 0.980845 0.101589 -0.018768 -730738.000000 0 0 1
-22.265180 -1.654682 14.036636 26.372398 0.074181 1.009544 0.120839 -0.031381 2261670.000000 0 0 1
-23.644680 -1.693182 13.484536 27.272155 0.071487 1.053602 0.160023 -0.034638 2078910.000000 0 0 1
-23.795780 -2.939682 12.591436 27.081823 0.122915 1.087229 0.157978 -0.042816 -280757.000000 0 0 1
-23.710880 -4.154482 13.251636 27.478562 0.173453 1.067571 0.138481 -0.040616 287999.000000 0 0 1
-23.837580 -5.240482 12.322936 27.341317 0.216399 1.103239 0.158155 -0.053428 -193801.000000 0 0 1
-23.889480 -6.670782 12.879136 27.947786 0.272299 1.091868 0.142954 -0.049828 -679133.000000 0 0 1
-25.131450 -6.971782 13.403636 29.323250 0.270608 1.096065 0.137665 -0.045439 -431081.000000 0 0 1
-25.106000 -8.334982 13.807436 29.840048 0.320543 1.089741 0.147722 -0.053778 -23129.900000 0 0 1
-26.269500 -8.533682 14.786036 31.329494 0.314097 1.079292 0.148360 -0.046064 -624659.000000 0 0 1
-27.559600 -8.306982 14.331736 32.154877 0.292758 1.108830 0.111162 -0.037139 -396318.000000 0 0 1
-28.471890 -8.431982 15.423236 33.460769 0.287922 1.091748 0.112071 -0.030244 110840.000000 0 0 1
-29.865620 -7.749482 15.235636 34.411253 0.253879 1.112131 0.085140 -0.031070 912655.000000 0 0 1
-30.943580 -8.449282 14.573836 35.231977 0.266557 1.144333 0.077415 -0.018786 1251290.000000 0 0 1
-31.328490 -9.810382 14.852436 36.032107 0.303473 1.145929 0.075517 -0.015460 -409440.000000 0 0 1
-31.698300 -10.053682 16.301336 37.035014 0.307132 1.115019 0.071401 -0.021648 30082.000000 0 0 1
-30.489140 -10.091282 17.088836 36.379251 0.319631 1.081799 0.081021 -0.012709 843841.000000 0 0 1
-30.703720 -10.544282 18.397136 37.314272 0.330801 1.055225 0.090982 -0.008217 175938.000000 0 0 1
-29.378570 -10.528682 19.223836 36.653913 0.344120 1.018705 0.108485 -0.011794 982840.000000 0 0 1
-28.544290 -11.676982 18.808636 36.123305 0.388312 1.023151 0.122200 -0.012233 165123.000000 0 0 1
-27.336190 -11.671582 19.497636 35.547868 0.403533 0.990240 0.119256 -0.020172 -324655.000000 0 0 1
-26.144030 -12.518082 19.011436 34.664786 0.446554 0.990303 0.132773 -0.020367 -102832.000000 0 0 1
-25.697610 -12.062882 17.804036 33.509162 0.438883 1.010640 0.121075 -0.014820 16414.400000 0 0 1
-24.846580 -13.025982 17.216936 32.915826 0.482864 1.020360 0.109558 -0.021976 -223980.000000 0 0 1
-24.526980 -12.815882 15.695436 31.814561 0.481502 1.054869 0.090282 -0.028879 -399200.000000 0 0 1
-23.615980 -11.780882 15.514836 30.613948 0.462729 1.039339 0.087833 -0.033022 -391720.000000 0 0 1
-23.232480 -11.732382 14.167036 29.632783 0.467639 1.072321 0.083104 -0.032799 -234288.000000 0 0 1
-21.906080 -11.051982 13.843436 28.172031 0.467254 1.057112 0.085740 -0.039877 -605428.000000 0 0 1
-21.967080 -9.654582 13.684536 27.622999 0.414090 1.052497 0.104371 -0.053261 -153863.000000 0 0 1
-20.718180 -9.019182 13.801636 26.477798 0.410585 1.022478 0.116162 -0.049362 -63598.100000 0 0 1
-19.881780 -8.983882 12.500336 25.144656 0.424404 1.050500 0.125845 -0.033348 -551003.000000 0 0 1
-19.305080 -10.167482 12.083136 24.941250 0.484758 1.065046 0.118156 -0.038541 41765.400000 0 1 0
-19.186580 -10.089482 10.720336 24.183633 0.484122 1.111532 0.141350 -0.020443 -961038.000000 0 1 0
-18.690980 -11.393882 10.008336 24.069484 0.547443 1.141963 0.131049 -0.018777 750718.000000 0 1 0
-17.286380 -11.628782 9.981036 23.101268 0.592177 1.124025 0.131916 -0.033189 706093.000000 0 1 0
-16.545080 -11.634682 11.177136 23.109173 0.612878 1.065957 0.117185 -0.032733 -198359.000000 0 1 0
-15.032980 -11.982482 10.995836 22.146755 0.672958 1.051236 0.117170 -0.038280 564641.000000 0 1 0
-14.726380 -13.357582 10.729736 22.592443 0.736697 1.075917 0.105226 -0.040911 85316.500000 0 1 0
-13.346180 -13.620382 10.863336 21.946466 0.795566 1.052970 0.115942 -0.040906 136173.000000 0 1 0
-12.874880 -15.099782 10.707636 22.548158 0.864764 1.075970 0.120254 -0.042114 745.910000 0 1 0
-12.707080 -15.682382 9.440536 22.282969 0.889820 1.133308 0.082342 -0.038052 -7410.560000 0 1 0
-12.789280 -17.107082 9.672336 23.447218 0.928832 1.145583 0.084852 -0.030307 128600.000000 0 1 0
-13.197480 -17.962982 8.452136 23.838641 0.937157 1.208357 0.068792 -0.020618 -307241.000000 0 1 0
-12.322980 -17.693682 7.433736 22.807513 0.962449 1.238797 0.068897 -0.021085 -445430.000000 0 1 0
-12.652980 -18.526182 6.320436 23.308051 0.971586 1.296188 0.048652 -0.015259 156404.000000 0 1 0
-11.701180 -18.257382 5.132436 22.284333 1.000844 1.338394 0.052211 -0.018005 111262.000000 0 1 0
-12.032280 -19.002182 3.933336 22.832648 1.006318 1.397665 0.062169 -0.020990 150907.000000 0 1 0
-11.040080 -18.776282 2.969136 21.982900 1.039262 1.435317 0.061230 -0.028510 67778.500000 0 1 0
-11.359580 -19.556882 1.683336 22.679182 1.044578 1.496504 0.077604 -0.026588 144025.000000 0 1 0
-11.083080 -20.970582 1.796436 23.787122 1.084605 1.495203 0.068935 -0.028359 -60004.000000 0 1 0
-11.840680 -21.705782 0.846636 24.739836 1.071408 1.536568 0.094918 -0.029218 -241323.000000 0 1 0
-11.211880 -21.822782 -0.553164 24.540702 1.096194 1.593339 0.115973 -0.025851 -175570.000000 0 1 0
-11.179980 -20.617982 -1.250064 23.487354 1.073927 1.624044 0.108023 -0.042801 579564.000000 0 1 0
-12.263580 -20.552082 -2.195664 24.033402 1.032801 1.662283 0.124870 -0.038743 1222450.000000 0 1 0
-13.615580 -19.933782 -1.719864 24.201190 0.971544 1.641922 0.144649 -0.030320 102776.000000 0 1 0
-14.227680 -20.558082 -0.642664 25.009491 0.965411 1.596496 0.128756 -0.020646 -691682.000000 0 0 1
-15.314080 -19.770982 -0.245864 25.009463 0.911753 1.580627 0.132853 -0.011508 -230303.000000 0 0 1
26.538520 -20.251382 -4.300564 33.658675 -0.651829 1.698916 0.057326 -0.015780 -14154.400000 0 0 1
25.406720 -20.132082 -3.477464 32.602069 -0.670085 1.677664 0.055482 -0.019869 -186776.000000 0 0 1
25.439620 -21.220482 -2.588864 33.229285 -0.695221 1.648784 0.047788 -0.022548 -159690.000000 0 0 1
24.165820 -21.430682 -1.743264 32.346560 -0.725484 1.624716 0.047130 -0.017581 93456.700000 0 0 1
23.143320 -21.999082 -2.536664 32.031353 -0.760056 1.650073 0.055378 -0.020362 -123190.000000 0 0 1
22.022620 -22.489982 -1.817064 31.529301 -0.795897 1.628459 0.054779 -0.019793 376361.000000 0 0 1
21.045320 -23.212882 -2.781464 31.456000 -0.834334 1.659336 0.066526 -0.024558 160721.000000 0 0 1
20.370620 -22.313082 -3.635064 30.431061 -0.830875 1.690535 0.068906 -0.027762 -196404.000000 0 0 1
19.439420 -22.952582 -4.472064 30.409068 -0.868082 1.718395 0.073439 -0.025079 -200482.000000 0 0 1
18.410020 -22.109982 -5.208764 29.238867 -0.876458 1.749898 0.068760 -0.014334 562651.000000 0 0 1
17.278520 -21.592482 -4.450264 28.010487 -0.895927 1.730351 0.067214 -0.010474 979603.000000 0 0 1
17.552720 -20.572982 -3.540164 27.274133 -0.864452 1.700963 0.056877 -0.017067 -753841.000000 0 0 1
16.358420 -20.110882 -2.707664 26.064860 -0.887931 1.674866 0.053153 -0.006226 -248149.000000 0 0 1
16.096720 -20.984982 -1.645364 26.498700 -0.916467 1.632929 0.057307 -0.014150 281516.000000 0 0 1
15.195420 -20.430782 -0.686564 25.471337 -0.931306 1.597754 0.062570 -0.001282 87831.900000 0 0 1
14.932020 -21.184382 0.626836 25.925590 -0.956816 1.546616 0.052511 -0.001105 -118401.000000 0 0 1
14.193120 -22.368282 0.461636 26.495241 -1.005381 1.553372 0.058923 -0.001338 -442630.000000 0 0 1
13.330120 -22.520882 1.557736 26.216574 -1.036354 1.511343 0.044330 -0.001824 -168477.000000 0 0 1
12.478520 -23.778782 1.452736 26.893389 -1.087525 1.516752 0.048990 -0.006333 -147650.000000 0 0 1
13.265720 -24.950482 1.558036 28.300766 -1.082126 1.515716 0.040242 -0.009679 -153364.000000 0 0 1
12.586420 -26.100202 1.177136 29.000417 -1.121462 1.530195 0.033901 -0.009800 -135319.000000 0 0 1
12.986420 -27.310292 1.993636 30.306332 -1.126929 1.504966 0.036354 -0.006219 -76959.400000 0 0 1
12.318320 -27.323832 3.212836 30.143907 -1.147255 1.464010 0.063940 -0.021056 277108.000000 0 0 1
12.947020 -28.316402 4.013536 31.393509 -1.141949 1.442599 0.061530 -0.025534 112083.000000 0 0 1
12.155720 -28.580052 5.302536 31.507107 -1.168653 1.401695 0.067459 -0.025532 255440.000000 0 0 1
12.862420 -29.502612 6.141536 32.765293 -1.159666 1.382241 0.061675 -0.024604 217666.000000 0 0 1
12.167320 -29.700992 7.362836 32.930289 -1.181990 1.345302 0.060338 -0.028032 -462814.000000 0 0 1
12.853320 -30.738182 8.238636 34.320822 -1.174738 1.328381 0.066082 -0.015896 -233142.000000 0 0 1
12.362320 -31.055052 9.557136 34.764667 -1.191948 1.292301 0.055411 -0.006250 -328906.000000 0 0 1
11.398920 -32.054882 9.644136 35.361847 -1.229136 1.294570 0.052440 -0.006006 -268129.000000 0 0 1
10.953120 -32.412632 11.091236 35.966166 -1.244917 1.257307 0.054040 0.002032 -511377.000000 0 0 1
11.993020 -33.017732 11.813536 37.061608 -1.222385 1.246382 0.040104 0.001312 -135242.000000 0 0 1
11.823020 -33.333432 13.219936 37.758022 -1.229950 1.213094 0.052712 0.003941 -830731.000000 0 0 1
10.843020 33.661743 13.574236 37.880654 1.259174 1.204305 0.047871 -0.005390 -641736.000000 0 0 1
11.201820 32.398738 13.024836 36.671588 1.237914 1.207695 0.059565 -0.006991 -525501.000000 0 0 1
10.293620 31.399279 13.289936 35.615948 1.254007 1.188399 0.065359 -0.010939 -681634.000000 0 0 1
10.447920 30.156989 12.325236 34.212782 1.237287 1.202258 0.071738 -0.013745 -168230.000000 0 0 1
10.105220 30.289549 10.960436 33.759494 1.248787 1.240142 0.058035 -0.005753 78667.600000 0 0 1
10.937420 31.217829 10.289936 34.641923 1.233803 1.269208 0.036777 -0.003352 61970.000000 0 0 1
10.477620 31.458359 8.813236 34.308629 1.249289 1.311003 0.032225 -0.008387 -272444.000000 0 0 1
9.350520 32.274215 8.787136 34.731412 1.288796 1.315014 0.039319 -0.011447 -621198.000000 0 0 1
8.820220 32.510667 7.496036 34.509858 1.305871 1.351837 0.030139 -0.015051 16989.100000 0 0 1
9.416820 33.678649 6.695036 35.605497 1.298151 1.381637 0.035651 -0.007883 200942.000000 0 0 1
8.876920 -33.146262 7.230636 35.067884 -1.309126 1.363117 0.036537 -0.011220 221511.000000 0 0 1
9.241520 -31.975432 6.516936 33.916138 -1.289444 1.377445 0.054669 -0.021908 -3098.660000 0 0 1
8.515120 -30.684622 7.068936 32.619368 -1.300103 1.352353 0.049884 -0.016588 38430.600000 0 0 1
8.864520 -30.250202 8.367336 32.613904 -1.285737 1.311338 0.055961 -0.018165 -105836.000000 0 0 1
8.239420 -29.003942 8.665336 31.372038 -1.294009 1.290946 0.072427 -0.017759 231348.000000 0 0 1
8.950720 -27.714862 8.083636 30.225389 -1.258413 1.300056 0.075044 -0.025660 1021170.000000 0 0 1
10.039620 -27.133262 8.868936 30.259972 -1.216406 1.273338 0.081217 -0.023299 1157660.000000 0 0 1
10.817620 -26.057452 8.288236 29.405893 -1.177303 1.285068 0.079208 -0.035426 410990.000000 0 0 1
10.075120 -24.962182 7.501336 27.944384 -1.187177 1.299025 0.088064 -0.034028 -475499.000000 0 0 1
9.720820 -25.392572 6.200936 27.887787 -1.205186 1.346569 0.079901 -0.030270 -437082.000000 0 0 1
9.144320 -24.381582 5.444636 26.603086 -1.211982 1.364678 0.078467 -0.023554 23411.100000 0 0 1
8.838220 -24.804382 3.986136 26.631950 -1.228505 1.420557 0.067022 -0.017946 548009.000000 0 0 1
7.882420 -25.864342 3.875136 27.315077 -1.274978 1.428448 0.074167 -0.020680 -22052.400000 0 0 1
8.453920 -27.136192 4.030036 28.706844 -1.268789 1.429945 0.073431 -0.016315 321356.000000 0 0 1
7.449120 -28.307422 3.753736 29.510847 -1.313479 1.443252 0.069996 -0.017823 97560.000000 0 0 1
6.343820 -28.393352 4.647236 29.462235 -1.350980 1.412399 0.063843 -0.015395 486820.000000 0 0 1
5.242120 -29.130582 4.102836 29.881498 -1.392749 1.433058 0.050665 -0.013379 656090.000000 0 0 1
5.308020 -30.623822 4.437036 31.395554 -1.399172 1.428995 0.045349 -0.015676 62983.700000 0 0 1
6.281220 -31.222652 3.577836 32.048536 -1.372271 1.458925 0.048952 -0.012524 221099.000000 0 0 1
6.463620 -32.567372 3.937336 33.435232 -1.374873 1.452762 0.041702 -0.011322 247506.000000 0 0 1
7.516220 -33.315432 3.049136 34.288610 -1.348903 1.481753 0.043790 -0.012322 265069.000000 0 0 1
7.030520 -33.680962 1.811436 34.454560 -1.365012 1.518197 0.050125 -0.011633 -99019.400000 0 0 1
7.876320 33.417550 1.215436 34.354714 1.339327 1.535410 0.038597 -0.011872 -150066.000000 0 0 1
7.428420 32.988890 -0.178964 33.815386 1.349311 1.576089 0.058666 -0.009487 310998.000000 0 0 1
6.371820 32.051599 -0.213464 32.679515 1.374556 1.577328 0.041304 -0.009219 -88288.200000 0 0 1
5.068620 32.597397 -0.293064 32.990409 1.416540 1.579680 0.040957 -0.014123 624492.000000 0 0 1
3.916220 31.572839 0.031836 31.814808 1.447389 1.569796 0.046467 -0.019174 534692.000000 0 0 1
3.713820 30.605019 -0.995164 30.845584 1.450040 1.603065 0.051610 -0.016982 -192585.000000 0 0 1
2.735020 29.698929 -0.548964 29.829651 1.478964 1.589201 0.060085 -0.031860 -132610.000000 0 0 1
2.470520 28.598589 -1.573864 28.748214 1.484624 1.625570 0.060170 -0.021738 107162.000000 0 0 1
1.827620 29.115259 -2.768264 29.303614 1.508107 1.665406 0.063710 -0.027598 303726.000000 0 0 1
1.874320 28.239859 -3.861164 28.564162 1.504522 1.706387 0.068157 -0.037107 -153144.000000 0 0 1
1.587320 28.877879 -5.246464 29.393484 1.515885 1.750249 0.074164 -0.038740 142954.000000 0 0 1
0.262220 29.383429 -5.327064 29.863561 1.561872 1.750136 0.074793 -0.040324 303850.000000 0 0 1
0.109020 30.289019 -6.385064 30.954897 1.567197 1.778558 0.057017 -0.031935 -244728.000000 0 0 1
0.029420 29.674619 -7.879464 30.702929 1.569805 1.830336 0.058651 -0.036817 738170.000000 0 0 1
-1.241680 28.989989 -8.118564 30.130920 -1.527991 1.843611 0.050488 -0.031808 1315830.000000 0 0 1
-1.407680 28.618919 -9.466864 30.176906 -1.521649 1.889896 0.047174 -0.024859 13894.800000 0 0 1
-1.623280 29.791119 -10.495264 31.627463 -1.516361 1.909050 0.027734 -0.023535 -751270.000000 0 0 1
-0.458180 30.445719 -10.915664 32.346615 -1.555748 1.915013 0.037598 -0.021418 -374139.000000 0 0 1
-0.686380 31.783649 -11.377864 33.765771 -1.549204 1.914487 0.016418 -0.019804 16215.400000 0 0 1
-0.868280 32.793754 -10.270064 34.375259 -1.544326 1.874193 0.021798 -0.025456 797186.000000 0 0 1
0.299420 32.913517 -9.431464 34.239477 1.561699 1.849860 0.025517 -0.031493 740557.000000 0 0 1
-0.095680 33.681835 -8.295664 34.688517 -1.567956 1.812284 0.032189 -0.020991 46353.300000 0 0 1
1.098720 34.019181 -7.369364 34.825557 1.538510 1.784016 0.042073 -0.024949 334171.000000 0 0 1
2.106220 -33.233832 -7.953464 34.237134 -1.507505 1.805243 0.051811 -0.021328 -358592.000000 0 0 1
2.793820 -32.630072 -6.900064 33.468462 -1.485384 1.778452 0.059186 -0.025779 -857193.000000 0 0 1
3.977620 -31.817712 -7.493264 32.929277 -1.446429 1.800364 0.039685 -0.021555 323410.000000 0 0 1
4.836120 -32.719432 -8.198564 34.075882 -1.424053 1.813777 0.053343 -0.016278 818895.000000 0 0 1
5.797820 -33.549812 -7.483364 34.859796 -1.399674 1.787151 0.082136 -0.010997 38727.500000 0 0 1
6.263520 33.279307 -8.306464 34.867482 1.384762 1.811339 0.090327 -0.011645 367803.000000 0 0 1
5.238420 32.290524 -8.435664 33.782828 1.409970 1.823170 0.069552 -0.014385 111885.000000 0 0 1
4.257320 32.646702 -9.394864 34.237340 1.441122 1.848766 0.069128 -0.015783 -100921.000000 0 0 1
3.287020 31.494799 -9.707264 33.120354 1.466806 1.868254 0.054031 -0.024838 -190144.000000 0 0 1
3.865720 30.452819 -10.452964 32.428112 1.444530 1.899000 0.070130 -0.026408 -27315.300000 0 0 1
3.095420 29.246169 -10.417364 31.200024 1.465349 1.911223 0.050105 -0.026440 225699.000000 0 0 1
3.643720 28.156509 -11.345264 30.574184 1.442102 1.950961 0.058342 -0.025899 -4697.030000 0 0 1
3.640620 28.532469 -12.705464 31.444948 1.443886 1.986741 0.053857 -0.018823 627688.000000 0 0 1
4.815620 28.119619 -13.430264 31.532129 1.401187 2.010778 0.068188 -0.029610 606931.000000 0 0 1
4.807220 28.588239 -14.934764 32.610489 1.404201 2.046511 0.072731 -0.022842 125401.000000 0 0 1
3.857220 27.991119 -15.825164 32.385440 1.433857 2.081339 0.049424 -0.015286 298534.000000 0 0 1
3.697120 28.684799 -17.069064 33.583320 1.442615 2.103960 0.089050 -0.024046 118675.000000 0 0 1
2.769120 28.006199 -18.102164 33.461972 1.472241 2.142395 0.076503 -0.028551 -109383.000000 0 0 1
3.267520 26.837009 -18.671764 32.856301 1.449638 2.175217 0.093036 -0.018498 -249399.000000 0 0 1
2.474420 26.364329 -19.721564 33.017279 1.477216 2.210940 0.100822 -0.024783 -43037.100000 0 0 1
3.165020 25.176019 -20.371664 32.540037 1.445737 2.247273 0.119377 -0.029923 163914.000000 0 0 1
3.271420 24.032849 -19.502464 31.122759 1.435505 2.248018 0.107484 -0.027241 114492.000000 0 0 1
4.242420 23.152959 -20.047564 30.918643 1.389572 2.276274 0.115398 -0.023366 385746.000000 0 0 1
4.732620 22.064589 -19.085664 29.555141 1.359508 2.272821 0.116939 -0.023189 83108.700000 0 0 1
3.786720 21.031689 -19.002164 28.596389 1.392657 2.297614 0.126729 -0.016998 -180279.000000 0 0 1
4.384320 19.935389 -18.342764 27.442650 1.354316 2.302857 0.099895 -0.006388 210175.000000 0 0 1
3.417720 18.779689 -18.009064 26.242788 1.390776 2.327115 0.092392 -0.016477 -210002.000000 0 0 1
2.615020 18.984289 -16.888264 25.543200 1.433911 2.293167 0.076302 -0.008110 -990041.000000 0 0 1
1.836020 17.853389 -16.686864 24.506446 1.468318 2.319811 0.055500 -0.004018 -380882.000000 0 1 0
2.371220 16.645589 -15.835164 23.096553 1.429295 2.326234 0.033525 -0.004801 -544411.000000 0 1 0
3.420020 15.898189 -16.357764 23.065676 1.358905 2.359134 0.045606 -0.009119 -911085.000000 0 1 0
3.115720 14.932789 -17.389364 23.131924 1.365098 2.421504 0.055294 -0.013617 -213744.000000 0 1 0
3.115520 15.419489 -18.873664 24.569947 1.371430 2.446760 0.069285 -0.018147 -476288.000000 0 1 0
4.362320 15.257789 -19.482764 25.127835 1.292318 2.458059 0.078849 -0.016646 -615189.000000 0 0 1
4.433820 15.833989 -20.759964 26.483015 1.297770 2.471714 0.099898 -0.033047 -516254.000000 0 0 1
4.453820 14.789089 -21.886664 26.787679 1.278279 2.527059 0.078158 -0.054364 781674.000000 0 0 1
3.312820 13.989889 -22.250964 26.491455 1.338278 2.567950 0.069558 -0.040266 836125.000000 0 0 1
2.009220 14.546489 -22.393064 26.778474 1.433541 2.561175 0.073008 -0.048442 -161302.000000 0 0 1
1.021220 13.503389 -22.822264 26.537524 1.495313 2.606066 0.069289 -0.038198 -880465.000000 0 0 1
0.621020 12.571989 -21.834164 25.202605 1.521439 2.618634 0.063100 -0.027758 -137653.000000 0 0 1
-0.247580 11.642189 -22.429564 25.272262 -1.549534 2.662725 0.030252 -0.017948 -363268.000000 0 0 1
-0.800980 10.597689 -21.451164 23.939612 -1.495359 2.681594 0.019132 -0.014883 -550123.000000 0 1 0
-1.781380 11.236889 -20.647064 23.574186 -1.413575 2.637957 0.019891 -0.010388 -18624.000000 0 1 0
-2.302280 10.427389 -19.556864 22.282322 -1.353491 2.641807 0.010882 -0.002042 378261.000000 0 1 0
-3.303880 9.309989 -19.969964 22.279834 -1.229785 2.682206 0.012300 -0.003756 -675288.000000 0 1 0
-2.786580 8.302889 -20.790064 22.559472 -1.246993 2.742894 0.010159 -0.001611 -634416.000000 0 1 0
-3.690180 7.241189 -20.940964 22.462774 -1.099491 2.771384 0.012056 -0.002960 -380222.000000 0 1 0
-3.082780 6.030489 -21.632664 22.668094 -1.098230 2.838179 0.014595 -0.018861 168599.000000 0 1 0
-2.100480 5.272989 -20.925464 21.681593 -1.191716 2.876720 0.016888 -0.009948 203179.000000 0 1 0
-1.874080 4.076789 -21.577864 22.039433 -1.139909 2.936574 0.037414 -0.020101 -194831.000000 0 1 0
-1.033780 3.000889 -20.796464 21.037276 -1.239038 2.990141 0.037410 -0.020538 -1556380.000000 0 1 0
0.289520 3.240789 -20.980764 21.231557 1.481697 2.987738 0.033643 -0.010967 -2066060.000000 0 1 0
0.948520 2.371389 -20.108864 20.270412 1.190303 3.015258 0.035373 -0.010437 -3877.990000 0 1 0
2.490820 2.437589 -20.029864 20.330801 0.774598 2.969321 0.027065 -0.015648 379315.000000 0 1 0
3.164520 2.030589 -21.208364 21.539085 0.570500 2.966128 0.040333 -0.014364 -386656.000000 0 1 0
4.565920 2.087889 -21.103264 21.692272 0.428889 2.908026 0.064212 -0.015341 -88948.300000 0 1 0
5.204820 1.332489 -22.292164 22.930466 0.250628 2.905091 0.057767 -0.011762 -443066.000000 0 1 0
6.603620 1.233389 -22.220364 23.213652 0.184647 2.848002 0.055188 -0.016287 -269067.000000 0 1 0
7.024320 0.694389 -23.436364 24.476242 0.098535 2.849054 0.047435 -0.016507 -1791970.000000 0 1 0
8.487720 0.740189 -23.660864 25.148077 0.086987 2.795961 0.042076 -0.019654 -1590270.000000 0 0 1
8.960620 2.068389 -23.933064 25.639082 0.226858 2.774738 0.050128 -0.020674 197274.000000 0 0 1
10.371620 1.931189 -24.069464 26.280013 0.184091 2.728503 0.058976 -0.028986 -49071.400000 0 0 1
14.354220 -20.759082 22.298116 33.677724 -0.965820 0.847175 0.085765 -0.013517 -781143.000000 0 0 1
13.256420 -21.462482 22.873316 34.052304 -1.017496 0.834280 0.074384 -0.008482 1967220.000000 0 0 1
11.944320 -20.860282 22.566916 32.970954 -1.050778 0.816950 0.060580 -0.012472 1956850.000000 0 0 1
11.494220 -20.875682 21.077216 31.814466 -1.067490 0.846639 0.075410 -0.029500 -773110.000000 0 0 1
12.179620 -19.926082 20.295716 30.940394 -1.022153 0.855340 0.060140 -0.032471 140787.000000 0 0 1
11.585020 -19.890882 18.972816 29.829978 -1.043397 0.881451 0.093851 -0.040894 363260.000000 0 0 1
11.672620 -18.472582 18.362116 28.542138 -1.007259 0.871952 0.101864 -0.042942 145237.000000 0 0 1
10.745220 -17.514882 18.863816 27.893985 -1.020516 0.828111 0.105574 -0.042982 125505.000000 0 0 1
11.038820 -16.263682 18.271816 26.836955 -0.974481 0.821880 0.102752 -0.041192 -369065.000000 0 0 1
9.980120 -15.256982 18.617516 26.057440 -0.991520 0.774916 0.103859 -0.035543 139994.000000 0 0 1
8.634020 -15.577682 18.287916 25.527600 -1.064692 0.772171 0.084950 -0.031481 125681.000000 0 0 1
7.753420 -14.541882 18.713716 24.935617 -1.080959 0.722006 0.058175 -0.026374 535114.000000 0 1 0
6.289120 -14.907182 18.322416 24.443568 -1.171567 0.723369 0.038945 -0.018335 259479.000000 0 1 0
6.096220 -14.938182 16.920616 23.379915 -1.183330 0.761612 0.035890 -0.018538 -171159.000000 0 1 0
4.732920 -15.132082 16.621516 22.970747 -1.267662 0.761800 0.011534 -0.014840 90738.600000 0 1 0
4.103420 -16.577282 16.589816 23.808955 -1.328141 0.799885 0.009760 -0.010437 -229775.000000 0 1 0
2.797220 -16.616482 16.077416 23.289809 -1.404020 0.808865 0.013708 -0.012008 -410190.000000 0 1 0
2.227020 -17.904582 16.275816 24.298886 -1.447049 0.836834 0.020676 -0.017393 43254.000000 0 1 0
0.714320 -17.966582 15.999816 24.068702 -1.531059 0.843629 0.022964 -0.007217 67962.200000 0 1 0
0.401920 -17.713982 14.666616 23.001224 -1.548111 0.879359 0.026373 -0.009299 -958992.000000 0 1 0
-0.963680 -17.830082 14.450316 22.970680 1.516801 0.890432 0.027984 -0.009288 -961993.000000 0 1 0
-1.519680 -17.714382 13.017416 22.035468 1.485218 0.938810 0.029184 -0.031278 96805.900000 0 1 0
-2.798880 -18.271382 12.785316 22.475352 1.418794 0.965678 0.036502 -0.026477 31558.300000 0 1 0
-2.808580 -19.651182 12.549316 23.484940 1.428836 1.007051 0.040931 -0.020868 228211.000000 0 1 0
-4.278680 -20.171082 12.514816 24.120536 1.361775 1.025297 0.035097 -0.014554 689841.000000 0 1 0
-4.882680 -20.360082 13.785016 25.067911 1.335425 0.988544 0.039153 -0.029811 -1110450.000000 0 0 1
-6.200080 -20.675082 13.543916 25.482105 1.279448 1.010418 0.031400 -0.022950 -999397.000000 0 0 1
-6.917580 -21.465782 14.651016 26.893958 1.259044 0.994682 0.036595 -0.016155 549357.000000 0 0 1
-8.333180 -21.385482 14.528716 27.163658 1.199231 1.006456 0.048030 -0.012762 557396.000000 0 0 1
-9.059580 -22.157282 15.488816 28.511832 1.182662 0.996503 0.049412 -0.020668 810948.000000 0 0 1
-10.555980 -21.739982 15.623116 28.777374 1.118771 0.996915 0.058355 -0.013939 475133.000000 0 0 1
-10.743880 -20.426482 16.094416 28.137206 1.086583 0.961857 0.048228 -0.010049 -321981.000000 0 0 1
-12.094080 -20.031582 16.022816 28.359508 1.027624 0.970376 0.072340 -0.016952 -54614.300000 0 0 1
-12.432480 -18.765682 16.851016 28.118928 0.985676 0.928199 0.078599 -0.012556 -137027.000000 0 0 1
-12.514680 -19.057582 18.200316 29.172935 0.989741 0.897103 0.058291 -0.003354 -33765.000000 0 0 1
-13.037380 -17.977682 18.965516 29.203786 0.943358 0.863975 0.056757 -0.008509 -12755.900000 0 0 1
-13.431680 -18.434982 20.394716 30.597435 0.941134 0.841225 0.049383 -0.007026 -202882.000000 0 0 1
-14.505280 -19.347882 20.336416 31.596099 0.927482 0.871555 0.062975 -0.009846 -92862.500000 0 0 1
-14.705380 -20.045282 21.524416 32.884069 0.937869 0.857203 0.048203 -0.000540 -355862.000000 0 0 1
-15.976180 -20.899882 21.510116 33.981296 0.918133 0.885376 0.054592 -0.005468 -955439.000000 0 0 1
-16.012880 -21.971682 20.605516 34.113845 0.941004 0.922258 0.047710 -0.008012 -233947.000000 0 0 1
-17.215880 -22.184982 19.923316 34.431068 0.910852 0.953732 0.076374 -0.003124 9452.100000 0 0 1
-18.345780 -22.818182 20.798616 35.914057 0.893622 0.953145 0.077636 -0.010651 -283770.000000 0 0 1
-19.062080 -21.920782 21.616516 36.209906 0.855039 0.931067 0.078289 -0.009457 -3412.470000 0 0 1
-19.974780 -22.552782 22.492416 37.596922 0.845944 0.929479 0.098321 -0.014079 99604.800000 0 0 1
-20.642580 -21.454982 23.362216 37.844755 0.804694 0.905468 0.090206 -0.008191 -128095.000000 0 0 1
-21.612080 -20.608382 22.788816 37.564844 0.761630 0.918953 0.094177 -0.009667 231450.000000 0 0 1
-21.948380 -19.573882 23.723546 37.784585 0.728274 0.891992 0.087366 -0.007229 254579.000000 0 0 1
-22.971980 -18.507482 23.314166 37.600387 0.678179 0.901988 0.080267 -0.004162 369303.000000 0 0 1
-22.314680 -17.594982 22.412616 36.191901 0.667685 0.902982 0.091230 -0.000242 183092.000000 0 0 1
-23.201180 -16.574482 21.986616 36.005825 0.620313 0.913927 0.093253 -0.006794 -398579.000000 0 0 1
-22.974980 -16.048182 20.545016 34.748979 0.609723 0.938200 0.106671 -0.006695 261197.000000 0 0 1
-21.937680 -15.076182 20.374616 33.521307 0.602102 0.917495 0.097261 -0.008848 97980.200000 0 0 1
-21.761980 -14.901782 18.976016 32.492092 0.600426 0.947125 0.084691 -0.011191 -13515.500000 0 0 1
-20.414180 -14.213982 18.684016 31.110584 0.608225 0.926585 0.069043 -0.023435 8419.120000 0 0 1
-20.013680 -14.212682 17.315716 30.039669 0.617505 0.956445 0.074683 -0.016908 204660.000000 0 0 1
-19.041880 -13.184182 17.122516 28.802715 0.605592 0.934183 0.073594 -0.031181 -121435.000000 0 0 1
-18.506680 -13.110382 15.673716 27.568908 0.616350 0.966080 0.061015 -0.036293 -67956.100000 0 0 1
-18.201480 -11.826682 15.137116 26.463117 0.576210 0.961844 0.066849 -0.038483 153735.000000 0 0 1
-16.965380 -11.291682 15.547516 25.633015 0.587244 0.919092 0.071537 -0.047430 -451918.000000 0 0 1
-16.640580 -9.955782 14.892816 24.450408 0.539156 0.915867 0.088707 -0.056692 148973.000000 0 1 0
-17.363180 -8.794982 15.313116 24.765364 0.468858 0.904183 0.099917 -0.047745 460337.000000 0 1 0
-16.818280 -7.702082 14.574716 23.549924 0.429453 0.903473 0.087642 -0.045757 -306614.000000 0 1 0
-17.077480 -6.302282 15.194816 23.711632 0.353536 0.875234 0.093012 -0.037751 439570.000000 0 1 0
-16.437380 -6.012882 16.482316 24.041816 0.350685 0.815412 0.085987 -0.024753 -320543.000000 0 1 0
-15.048980 -6.038482 16.404716 23.066204 0.381588 0.779591 0.080975 -0.023778 -1222200.000000 0 1 0
-14.224280 -6.072082 17.692116 23.499176 0.403463 0.718366 0.068231 -0.015240 -124192.000000 0 1 0
-14.381780 -7.199082 18.547316 24.549242 0.464103 0.714357 0.052868 -0.022106 327053.000000 0 1 0
-13.665480 -8.353282 18.051916 24.132847 0.548664 0.725719 0.061185 -0.027552 -370729.000000 0 1 0
-13.613780 -9.544882 19.062616 25.294725 0.611477 0.717244 0.045322 -0.030015 -41991.000000 0 0 1
-14.816980 -10.245382 19.228016 26.348194 0.604973 0.752817 0.042571 -0.027276 -111935.000000 0 0 1
-15.812480 -9.555482 19.966216 27.202785 0.543575 0.746637 0.033671 -0.017577 -612564.000000 0 0 1
-17.192680 -10.264082 20.026516 28.319621 0.538213 0.785322 0.041832 -0.016125 -194396.000000 0 0 1
-18.057880 -10.307182 18.981616 28.153628 0.518661 0.830894 0.061073 -0.026349 -320205.000000 0 0 1
-18.443280 -9.077782 18.357116 27.559833 0.457388 0.841852 0.064710 -0.026893 -1112980.000000 0 0 1
-19.736380 -9.214682 17.574916 27.987724 0.436809 0.891879 0.102279 -0.026805 -1373580.000000 0 0 1
-20.914580 -9.048482 18.263716 29.203732 0.408324 0.895165 0.101224 -0.031370 -404290.000000 0 0 1
-22.012280 -8.991382 17.339816 29.428806 0.387788 0.940713 0.137546 -0.045933 1041910.000000 0 0 1
-23.411780 -9.246082 18.001716 30.946134 0.376131 0.949965 0.140046 -0.036851 332208.000000 0 0 1
-23.902080 -8.159982 18.756416 31.459464 0.328986 0.932026 0.129602 -0.026064 -647098.000000 0 0 1
-25.227650 -8.462382 18.987016 32.688729 0.323646 0.951033 0.116790 -0.014387 -1156700.000000 0 0 1
-26.081810 -7.416382 19.699816 33.516358 0.277039 0.942500 0.118736 -0.021343 -251018.000000 0 0 1
-25.850380 -7.380582 21.116216 34.184934 0.278112 0.904975 0.133066 -0.021260 40718.000000 0 0 1
-26.458850 -6.279082 21.696516 34.788452 0.233005 0.897367 0.118030 -0.019049 -906902.000000 0 0 1
-26.448500 -6.376082 23.255006 35.790681 0.236562 0.863540 0.107337 -0.015578 754208.000000 0 0 1
-25.208570 -6.005982 23.866146 35.229770 0.233891 0.826516 0.089641 -0.022545 758824.000000 0 0 1
-24.116480 -6.888882 23.627586 34.457570 0.278241 0.815230 0.097258 -0.017523 -42978.200000 0 0 1
-22.982680 -6.730982 24.709236 34.410115 0.284905 0.769756 0.086824 -0.012944 243596.000000 0 0 1
-22.463080 -5.437982 24.644396 33.786208 0.237516 0.753320 0.073027 -0.011158 324228.000000 0 0 1
-21.599080 -5.277882 25.792516 34.053343 0.239660 0.711451 0.080464 -0.017725 557334.000000 0 0 1
-20.962280 -3.873682 26.007316 33.627415 0.182732 0.686615 0.076389 -0.017651 -357812.000000 0 0 1
-20.167280 -3.665582 27.132056 34.004472 0.179796 0.646998 0.062050 -0.018309 -440646.000000 0 0 1
-20.776880 -3.622382 28.409076 35.381859 0.172612 0.638606 0.069541 -0.024106 -92902.900000 0 0 1
-21.649580 -2.399782 28.724356 36.049298 0.110396 0.648803 0.082007 -0.033387 376467.000000 0 0 1
-22.900280 -2.347282 28.056526 36.291889 0.102143 0.687114 0.086582 -0.032721 -75754.800000 0 0 1
-23.651380 -1.254582 28.578596 37.117353 0.052995 0.692030 0.082345 -0.033002 1246560.000000 0 0 1
-25.055380 -1.083182 27.874626 37.495868 0.043205 0.732649 0.087593 -0.033853 630793.000000 0 0 1
-24.749380 -0.462482 26.636726 36.362905 0.018684 0.748773 0.085513 -0.037252 694934.000000 0 0 1
-25.898590 0.056318 25.947996 36.661132 -0.002175 0.784446 0.086932 -0.029629 787528.000000 0 0 1
-26.866440 -1.009582 25.304316 36.920634 0.037560 0.815684 0.080330 -0.026291 319419.000000 0 0 1
-27.784020 -1.675082 26.174136 38.207892 0.060217 0.816130 0.074417 -0.026436 239565.000000 0 0 1
-28.051850 -3.043482 25.809526 38.240040 0.108072 0.829920 0.069055 -0.021229 272784.000000 0 0 1
-26.850590 -4.011982 26.010376 37.597737 0.148321 0.806808 0.068258 -0.025676 368724.000000 0 0 1
-26.586190 -4.267482 27.359956 38.387551 0.159157 0.777414 0.053575 -0.024196 -486046.000000 0 0 1
-25.452690 -5.079682 27.484426 37.802596 0.196985 0.756779 0.078831 -0.024214 -281117.000000 0 0 1
-25.266280 -5.467582 28.942536 38.806568 0.213112 0.729038 0.047919 -0.015760 69918.900000 0 0 1
-26.336990 -6.147082 29.586646 40.084826 0.229296 0.740545 0.058685 -0.017584 196001.000000 0 0 1
-25.897680 -6.914782 30.667586 40.730883 0.260917 0.718290 0.048160 -0.011265 -670986.000000 0 0 1
-27.066860 -7.506582 31.429886 42.152122 0.270536 0.729317 0.037415 -0.006514 -131479.000000 0 0 1
-27.797170 -8.529882 30.708996 42.290471 0.297740 0.758099 0.034902 -0.007828 1181400.000000 0 0 1
-29.108670 -8.638882 31.316396 43.619509 0.288500 0.769951 0.034972 -0.004473 965235.000000 0 0 1
-30.117410 -9.341482 30.381696 43.787773 0.300760 0.803989 0.029691 -0.014044 -70743.100000 0 0 1
-29.763660 -10.690182 30.147956 43.692730 0.344820 0.809308 0.037012 -0.014681 743948.000000 0 0 1
-30.835550 -11.301682 29.401536 44.079581 0.351311 0.840608 0.036314 -0.014952 482460.000000 0 0 1
-30.439320 -12.600182 28.695476 43.689210 0.392469 0.854217 0.041814 -0.023148 148723.000000 0 0 1
-29.460990 -12.280982 27.711136 42.269132 0.394952 0.855835 0.048489 -0.019586 261723.000000 0 0 1
-28.596420 -13.375582 27.389936 41.795574 0.437505 0.856176 0.065112 -0.026589 -50231.000000 0 0 1
-27.225110 -12.818182 26.986776 40.420273 0.440034 0.839743 0.067450 -0.025091 -488413.000000 0 0 1
-26.340350 -12.193982 27.904066 40.263434 0.433562 0.805102 0.058027 -0.023802 151948.000000 0 0 1
-26.612600 -10.867182 28.392326 40.403592 0.387682 0.791586 0.061675 -0.023183 -568319.000000 0 0 1
-26.462550 -9.645682 27.489476 39.357045 0.349536 0.797548 0.071885 -0.015193 267588.000000 0 0 1
-25.172990 -9.463582 26.920106 38.051687 0.359596 0.784896 0.059969 -0.023623 87064.000000 0 0 1
-24.884980 -10.175682 25.698396 37.191589 0.388163 0.807962 0.055622 -0.026445 149582.000000 0 0 1
-25.779540 -9.897282 24.403166 36.851803 0.366568 0.847049 0.076859 -0.021682 -264001.000000 0 0 1
-27.027370 -10.506382 24.495406 37.959026 0.370754 0.869365 0.076826 -0.020457 -797387.000000 0 0 1
-27.693150 -10.346582 23.267566 37.621030 0.357556 0.903999 0.103134 -0.014316 184452.000000 0 0 1
-28.937450 -11.314982 23.125216 38.732163 0.372737 0.930972 0.099996 -0.020841 609545.000000 0 0 1
-30.137270 -11.005282 23.779296 39.935275 0.350126 0.932976 0.097743 -0.021570 -238258.000000 0 0 1
-30.110830 -10.896382 25.180416 40.736305 0.347215 0.904432 0.093632 -0.021403 -970847.000000 0 0 1
-31.489170 -10.586782 25.780056 42.050672 0.324332 0.910854 0.047088 -0.016636 -316585.000000 0 0 1
-31.990030 -9.300482 25.552196 41.985422 0.282931 0.916505 0.058808 -0.022812 -296614.000000 0 0 1
-33.288840 -8.959982 25.968156 43.159857 0.262928 0.925201 0.050835 -0.012913 315937.000000 0 0 1
-33.842090 -9.110782 27.468456 44.528749 0.262980 0.906036 0.036894 -0.009435 -145827.000000 0 0 1
-34.067080 -10.446882 27.877376 45.242141 0.297552 0.906911 0.037016 -0.021675 256698.000000 0 0 1
-34.609502 -10.487782 29.202296 46.482096 0.294236 0.891497 0.041302 -0.021706 -854654.000000 0 0 1
-35.061663 -11.895782 29.656366 47.437642 0.327095 0.895453 0.050289 -0.023622 470657.000000 0 0 1
-36.303440 -12.415582 29.202106 48.216692 0.329525 0.920223 0.034831 -0.024292 -132779.000000 0 0 1
36.380786 -11.772282 29.627156 48.372684 -0.312952 0.911606 0.041111 -0.018586 -565154.000000 0 0 1
35.084116 -12.273382 28.921596 47.095539 -0.336521 0.909545 0.037872 -0.019179 323042.000000 0 0 1
35.074266 -11.947482 27.560026 46.179015 -0.328307 0.931279 0.038739 -0.013350 -120213.000000 0 0 1
33.899456 -12.405082 26.914036 45.026931 -0.350802 0.930127 0.047048 -0.005976 -60036.000000 0 0 1
33.799496 -11.914982 25.405276 43.929497 -0.338918 0.954129 0.047539 -0.013207 -150700.000000 0 0 1
33.450556 -10.576682 25.293856 43.250260 -0.306242 0.946131 0.069433 -0.028193 -6353.850000 0 0 1
33.076126 -10.306182 23.912126 42.095573 -0.302055 0.966669 0.066492 -0.024965 -108221.000000 0 0 1
32.899726 -8.840382 23.605326 41.445817 -0.262506 0.964842 0.101923 -0.010722 1381160.000000 0 0 1
31.499706 -8.461682 23.763736 40.355256 -0.262432 0.941144 0.114039 -0.021919 1150050.000000 0 0 1
31.226866 -7.198482 23.092526 39.499368 -0.226564 0.946372 0.125034 -0.017829 132552.000000 0 0 1
29.714246 -6.910182 22.965116 38.184860 -0.228493 0.925520 0.125511 -0.015484 83609.400000 0 0 1
29.152816 -7.827982 22.034216 37.372057 -0.262328 0.940244 0.124353 -0.012236 -1559350.000000 0 0 1
27.859556 -7.455182 21.830316 36.170392 -0.261472 0.922862 0.119284 -0.028172 -1752600.000000 0 0 1
14.539120 -16.854882 26.614126 34.695601 -0.859029 0.696527 0.064731 -0.011642 196350.000000 0 0 1
13.873920 -18.081082 26.405356 34.880568 -0.916304 0.712053 0.043530 -0.005145 54083.300000 0 0 1
14.867720 -19.041082 26.285556 35.700733 -0.907858 0.743247 0.057526 -0.001754 -816767.000000 0 0 1
14.340820 -20.442582 25.992546 36.044011 -0.959053 0.765359 0.033668 -0.012632 262939.000000 0 0 1
13.628820 -21.037482 27.085526 36.904554 -0.995944 0.746700 0.039403 -0.009462 484894.000000 0 0 1
12.277120 -20.668182 27.289266 36.367643 -1.034792 0.722171 0.049146 -0.009029 -173144.000000 0 0 1
11.745520 -21.380982 28.577426 37.573566 -1.068457 0.706602 0.048236 -0.006868 -38218.300000 0 0 1
12.247820 -20.853682 29.832806 38.404185 -1.039751 0.681210 0.049582 -0.015649 211495.000000 0 0 1
11.433620 -19.891982 30.495176 38.162473 -1.049123 0.645020 0.043789 -0.020564 -115638.000000 0 0 1
11.096220 -18.438682 29.897916 36.837433 -1.029061 0.623880 0.038388 -0.014479 512875.000000 0 0 1
12.174520 -17.506482 30.012046 36.816012 -0.963145 0.617739 0.031806 -0.004747 -74176.700000 0 0 1
11.915220 -16.222882 29.490626 35.705061 -0.937309 0.598910 0.040974 -0.002751 -73830.900000 0 0 1
13.012720 -15.189382 29.830386 35.915180 -0.862426 0.590650 0.045258 -0.007557 457772.000000 0 0 1
12.595620 -13.865182 29.377166 34.841222 -0.833340 0.567639 0.072317 -0.011133 246679.000000 0 0 1
13.475620 -12.927082 29.925336 35.273609 -0.764625 0.557883 0.072369 -0.007638 115967.000000 0 0 1
12.931020 -11.435082 29.659216 34.316781 -0.724081 0.527084 0.071116 -0.009264 290785.000000 0 0 1
12.980520 -10.962182 28.299636 33.008070 -0.701298 0.540687 0.090646 -0.012504 -455308.000000 0 0 1
14.293720 -10.825282 27.866426 33.136609 -0.648186 0.571749 0.104767 -0.011313 -610895.000000 0 0 1
14.458820 -9.523482 26.938076 32.022088 -0.582441 0.571234 0.103701 -0.011161 147393.000000 0 0 1
14.854520 -8.238982 27.452316 32.282615 -0.506402 0.554100 0.096564 -0.011414 1455290.000000 0 0 1
16.266420 -7.872282 27.465996 32.877807 -0.450733 0.581943 0.095859 -0.015590 1071530.000000 0 0 1
16.677420 -6.450982 27.801946 33.056008 -0.369084 0.571564 0.085034 -0.016879 491196.000000 0 0 1
18.090820 -6.384582 27.588926 33.603415 -0.339272 0.607609 0.079985 -0.024253 425351.000000 0 0 1
18.556820 -5.089082 27.522586 33.581945 -0.267662 0.610145 0.075222 -0.021912 1268930.000000 0 0 1
20.099820 -4.909882 27.162906 34.145763 -0.239583 0.650966 0.064360 -0.019411 495986.000000 0 0 1
20.438920 -5.627082 25.997876 33.545537 -0.268656 0.684077 0.065859 -0.019696 288458.000000 0 0 1
21.796620 -5.542982 25.590986 34.069280 -0.249026 0.721001 0.071861 -0.019273 1181570.000000 0 0 1
22.928920 -6.050482 26.594276 35.631436 -0.257999 0.728204 0.068133 -0.023503 -381146.000000 0 0 1
23.285220 -5.106782 27.564936 36.443194 -0.215896 0.713034 0.064146 -0.016683 230609.000000 0 0 1
24.314120 -5.639282 28.426226 37.828934 -0.227905 0.720552 0.090113 -0.026694 566303.000000 0 0 1
25.034520 -4.478282 29.199486 38.721986 -0.177012 0.716544 0.092523 -0.020853 180692.000000 0 0 1
25.832620 -3.671782 28.339386 38.521773 -0.141192 0.744138 0.092556 -0.014061 75087.800000 0 0 1
26.178720 -2.393182 28.901686 39.068659 -0.091164 0.738073 0.078629 -0.021226 189936.000000 0 0 1
27.155420 -1.561082 27.995486 39.033332 -0.057424 0.770992 0.075729 -0.021124 1317190.000000 0 0 1
28.547720 -1.880282 28.183026 40.159566 -0.065770 0.792909 0.095033 -0.019444 276709.000000 0 0 1
29.281420 -1.363282 27.126156 39.938558 -0.046524 0.824128 0.093239 -0.012026 995334.000000 0 0 1
30.823420 -1.175982 27.421586 41.272382 -0.038134 0.844099 0.079044 -0.013242 1012300.000000 0 0 1
31.084620 -0.141582 28.279676 42.023966 -0.004555 0.832618 0.060583 -0.009401 -534957.000000 0 0 1
32.404120 -0.122282 28.735356 43.310075 -0.003774 0.845336 0.079471 -0.016390 -207056.000000 0 0 1
32.721320 1.126518 29.686376 44.195415 0.034414 0.834286 0.077841 -0.022159 -79861.900000 0 0 1
32.529320 2.358718 29.093656 43.705389 0.072384 0.842396 0.075083 -0.021340 114339.000000 0 0 1
32.715620 3.426918 30.009376 44.526601 0.104368 0.831233 0.068423 -0.015759 -35114.900000 0 0 1
32.790520 4.757018 29.231376 44.185074 0.144068 0.847890 0.075946 -0.019018 -190508.000000 0 0 1
32.926720 5.965118 29.964506 44.917960 0.179220 0.840495 0.079974 -0.018359 -309756.000000 0 0 1
31.780120 6.459218 30.575556 44.570866 0.200516 0.814821 0.073523 -0.016242 -835266.000000 0 0 1
32.102020 7.324118 31.861326 45.818408 0.224312 0.801844 0.053646 -0.021224 -220638.000000 0 0 1
32.694720 6.613918 32.880571 46.838238 0.199600 0.792591 0.057250 -0.012085 -70217.400000 0 0 1
32.840320 7.447118 -34.008950 47.859742 0.222996 2.361142 0.064728 -0.021032 -38693.900000 0 0 1
33.557520 6.825718 -32.812254 47.427224 0.200666 2.334837 0.055467 -0.003972 167699.000000 0 0 1
32.752120 5.828218 -32.149414 46.262883 0.176106 2.339117 0.029957 0.002180 642520.000000 0 0 1
32.959620 4.583818 -32.748794 46.688665 0.138187 2.348197 0.043911 0.005819 -77543.000000 0 0 1
32.445620 3.488418 -31.806924 45.569373 0.107104 2.343382 0.039308 0.001337 21145.700000 0 0 1
32.705720 2.127218 -32.209074 45.952298 0.064950 2.347489 0.033724 -0.002407 220443.000000 0 0 1
33.160220 1.422818 -31.069154 45.463358 0.042881 2.323191 0.017045 -0.003681 -107339.000000 0 0 1
33.156320 -0.124682 -31.122414 45.474848 -0.003760 2.324560 0.023892 -0.013759 -341244.000000 0 0 1
34.114720 -0.697882 -32.021744 46.794159 -0.020454 2.324454 0.029958 -0.014673 285780.000000 0 0 1
34.476820 -2.055282 -31.740404 46.907660 -0.059543 2.314009 0.025040 -0.015085 512982.000000 0 0 1
35.577620 -2.131082 -30.658874 47.013563 -0.059828 2.281185 0.039833 -0.008855 -61662.700000 0 0 1
34.929120 -1.882582 -29.426794 45.711309 -0.053845 2.270189 0.041778 -0.013703 255374.000000 0 0 1
35.834420 -1.891182 -28.341354 45.726520 -0.052727 2.239286 0.071099 -0.018275 -38207.100000 0 0 1
35.041620 -1.718482 -27.032974 44.290518 -0.049002 2.227306 0.057356 -0.021282 55920.900000 0 0 1
34.603320 -0.380782 -26.932084 43.850564 -0.011004 2.232141 0.028960 -0.012839 250362.000000 0 0 1
33.616320 -0.240382 -25.924674 42.452367 -0.007151 2.227711 0.022234 -0.006470 282817.000000 0 0 1
32.958720 1.203718 -25.826544 41.889576 0.036506 2.235135 -0.007530 0.005090 179669.000000 0 0 1
32.209620 1.685018 -26.920804 42.012244 0.052266 2.266316 0.005765 -0.003868 470250.000000 0 0 1
31.615320 2.960918 -26.706994 41.491674 0.093382 2.270082 0.002596 0.010818 60649.300000 0 0 1
30.806120 3.412718 -27.930524 41.722630 0.110331 2.304242 0.013584 0.009075 57326.700000 0 0 1
29.824720 4.390018 -27.616224 40.883273 0.146145 2.312425 0.019076 0.005080 239519.000000 0 0 1
29.163220 4.889418 -28.744744 41.239061 0.166112 2.342039 0.029522 0.001870 -109701.000000 0 0 1
27.942120 5.800118 -28.480944 40.318329 0.204670 2.355198 0.035233 -0.006686 137518.000000 0 0 1
26.845420 5.064718 -27.960614 39.091225 0.186471 2.367801 0.047174 -0.007568 4636.820000 0 0 1
25.733720 5.872418 -27.720784 38.277298 0.224358 2.380684 0.047705 -0.016600 191504.000000 0 0 1
24.420120 5.122318 -27.299554 36.984403 0.206760 2.401101 0.063112 -0.013483 519558.000000 0 0 1
23.732620 4.680018 -28.460694 37.351719 0.194700 2.437138 0.067715 -0.016532 937471.000000 0 0 1
22.388020 4.232518 -28.189224 36.245966 0.186848 2.461827 0.074867 -0.021006 1023860.000000 0 0 1
21.548320 3.966218 -29.481784 36.731956 0.182024 2.502470 0.073043 -0.023427 17710.700000 0 0 1
21.720920 2.712618 -30.030264 37.161451 0.124242 2.511720 0.071066 -0.025774 -117149.000000 0 0 1
21.085520 2.467618 -31.268234 37.794057 0.116499 2.545138 0.053406 -0.026762 -379142.000000 0 0 1
21.489620 3.265218 -32.509514 39.106699 0.150791 2.552244 0.052496 -0.023481 812053.000000 0 0 1
22.851020 3.022618 -32.927224 40.193376 0.131512 2.530846 0.044771 -0.021302 658790.000000 0 0 1
23.134520 3.625218 33.860696 41.169102 0.155438 0.605042 0.052631 -0.024771 38574.800000 0 0 1
24.499320 3.090718 33.391008 41.529852 0.125492 0.636764 0.071238 -0.010537 172243.000000 0 0 1
24.372420 1.731018 33.053820 41.104335 0.070905 0.636562 0.080896 -0.019844 -508952.000000 0 0 1
25.655320 1.293318 32.757446 41.628336 0.050369 0.665023 0.092063 -0.024104 -779502.000000 0 0 1
25.693320 -0.233182 32.432429 41.377089 -0.009075 0.669993 0.074533 -0.022608 82159.100000 0 0 1
25.001420 -0.667482 31.215146 39.998773 -0.026691 0.675487 0.073871 -0.025262 1602080.000000 0 0 1
23.557420 -0.665882 31.230046 39.124304 -0.028259 0.646452 0.090854 -0.027185 1093320.000000 0 0 1
22.789520 -1.690682 32.141279 39.437069 -0.074051 0.618064 0.091943 -0.037152 -351031.000000 0 0 1
22.768520 -3.021782 31.632946 39.091942 -0.131946 0.628018 0.096445 -0.045294 137542.000000 0 0 1
22.646020 -3.832482 32.738401 39.991662 -0.167646 0.611774 0.083794 -0.034652 -139732.000000 0 0 1
22.586220 -5.319482 32.319470 39.786711 -0.231304 0.622680 0.080482 -0.030977 -554540.000000 0 0 1
23.829820 -5.932882 32.321044 40.591985 -0.244008 0.649739 0.095180 -0.029706 -615751.000000 0 0 1
23.693520 -7.306782 32.050766 40.521890 -0.299134 0.658437 0.102913 -0.036708 -594561.000000 0 0 1
25.052720 -8.000382 31.975666 41.401547 -0.309106 0.688295 0.096235 -0.030909 -213534.000000 0 0 1
25.770920 -7.619582 30.824636 40.894456 -0.287476 0.717030 0.113887 -0.031547 -697959.000000 0 0 1
26.842420 -8.441682 30.515176 41.508475 -0.304697 0.744901 0.102075 -0.030092 -383417.000000 0 0 1
27.265320 -8.304482 29.069886 40.711428 -0.295654 0.775534 0.115646 -0.025514 -332657.000000 0 0 1
26.327720 -8.784382 28.172226 39.547295 -0.322040 0.777930 0.102073 -0.024462 -488701.000000 0 0 1
26.789720 -8.705982 26.812186 38.889286 -0.314209 0.810068 0.123308 -0.019237 -55988.100000 0 0 1
25.942920 -9.518582 25.842236 37.834636 -0.351655 0.818892 0.094643 -0.029339 -382172.000000 0 0 1
24.693420 -8.929982 25.598016 36.671078 -0.347001 0.798135 0.093384 -0.034678 -750745.000000 0 0 1
23.984520 -9.618782 24.655666 35.716663 -0.381404 0.808875 0.100473 -0.036562 -1485770.000000 0 0 1
22.679220 -9.097182 24.185886 34.381140 -0.381475 0.790537 0.063402 -0.028248 -1805310.000000 0 0 1
21.645720 -9.371282 25.058246 34.413279 -0.408576 0.755168 0.056890 -0.016384 -593045.000000 0 0 1
20.412920 -8.874382 24.560696 33.146187 -0.410094 0.736266 0.061093 -0.014333 792294.000000 0 0 1
19.245920 -8.964782 25.613996 33.269348 -0.435917 0.692115 0.067257 -0.014241 261254.000000 0 0 1
18.693520 -10.195582 26.043926 33.640506 -0.499310 0.685372 0.085502 -0.013619 -20076.600000 0 0 1
19.492320 -10.912682 26.921606 34.982996 -0.510370 0.692640 0.077532 -0.015794 -489785.000000 0 0 1
18.640220 -11.798182 27.827866 35.511196 -0.564290 0.670298 0.081477 -0.012701 483136.000000 0 0 1
17.757920 -12.654082 27.054786 34.748107 -0.619124 0.678369 0.088629 -0.014553 1010720.000000 0 0 1
16.969020 -13.564182 27.861516 35.329856 -0.674344 0.662249 0.090792 -0.010514 232603.000000 0 0 1
17.695520 -14.874882 28.303716 36.544410 -0.699012 0.684869 0.094409 -0.004140 -165593.000000 0 0 1
16.830220 -15.838482 28.871626 36.982220 -0.755050 0.675028 0.078715 -0.001395 399162.000000 0 0 1
17.495020 -17.043582 29.356006 38.188146 -0.772328 0.693958 0.093403 -0.008354 85655.400000 0 0 1
17.897520 -18.149382 28.362156 38.133098 -0.792385 0.732107 0.083591 -0.006871 -58382.200000 0 0 1
18.949920 -17.723182 27.522736 37.824749 -0.751960 0.755924 0.087452 -0.009423 293865.000000 0 0 1
19.350820 -18.777582 26.646876 37.909205 -0.770365 0.791312 0.077678 0.000093 72595.000000 0 0 1
20.525320 -18.415182 25.707126 37.699655 -0.731262 0.820449 0.076068 -0.004529 116560.000000 0 0 1
21.784020 -18.301882 26.340956 38.773037 -0.698749 0.823903 0.101982 -0.010301 -255275.000000 0 0 1
22.647420 -17.526582 25.556536 38.382590 -0.658615 0.842182 0.089107 -0.009157 -557295.000000 0 0 1
24.027320 -17.375982 26.180006 39.555399 -0.626112 0.847503 0.085814 -0.015187 -716675.000000 0 0 1
24.802920 -18.517882 26.157496 40.525441 -0.641322 0.869173 0.071512 -0.014911 -436929.000000 0 0 1
26.168520 -18.226382 26.244226 41.300749 -0.608373 0.882216 0.072000 -0.015398 81592.200000 0 0 1
27.195220 -19.372482 26.452196 42.598025 -0.618966 0.900814 0.052884 -0.013260 174912.000000 0 0 1
26.988420 -20.000882 27.644246 43.504189 -0.637775 0.882220 0.061372 -0.012900 251425.000000 0 0 1
27.765020 -21.190282 27.720876 44.591158 -0.651896 0.899926 0.051946 -0.011065 124470.000000 0 0 1
27.052020 -22.232282 28.612516 45.219047 -0.687914 0.885692 0.055772 -0.003490 155276.000000 0 0 1
26.769520 -21.917582 29.935726 45.750795 -0.686071 0.857511 0.058981 -0.009341 -186234.000000 0 0 1
26.498320 -23.132482 30.536346 46.580480 -0.717684 0.855871 0.063819 -0.004495 -130483.000000 0 0 1
25.890020 -23.081482 31.981056 47.178765 -0.728110 0.825935 0.055427 -0.007684 54916.800000 0 0 1
25.465120 -24.258482 32.615053 47.965487 -0.761136 0.823076 0.046879 -0.006011 -29321.400000 0 0 1
25.157620 -24.088182 33.952416 48.640651 -0.763685 0.798160 0.047471 -0.001274 -45878.400000 0 0 1
25.107320 -25.483912 -33.307374 48.879326 -0.792842 2.320498 0.049517 -0.006144 -244624.000000 0 0 1
24.031420 -26.338652 -33.513754 48.932663 -0.831172 2.325256 0.075354 -0.015970 -712741.000000 0 0 1
24.040720 -26.994912 33.250509 49.114945 -0.843219 0.827126 0.063410 -0.014497 204446.000000 0 0 1
22.638920 -27.589572 32.956406 48.578080 -0.883643 0.825185 0.088308 -0.018055 232335.000000 0 0 1
22.474420 -28.886222 33.485054 49.606070 -0.909594 0.829805 0.090252 -0.031308 -482439.000000 0 0 1
21.157520 -29.273822 33.727839 49.418260 -0.944968 0.819622 0.103037 -0.032711 -555151.000000 0 0 1
20.926220 -30.828042 33.943281 50.402591 -0.974437 0.831940 0.074369 -0.032759 212610.000000 0 0 1
21.614420 -31.327052 -32.895014 50.305559 -0.966840 2.283530 0.067049 -0.038002 -441654.000000 0 0 1
22.851720 -31.861722 -33.133914 51.334459 -0.948610 2.272411 0.041200 -0.027630 -921572.000000 0 0 1
23.552420 -32.429382 -31.823444 51.177270 -0.942658 2.241871 0.033351 -0.026814 -331784.000000 0 0 1
24.799620 -33.057052 -32.042184 52.292365 -0.927163 2.230333 0.028069 -0.014130 440046.000000 0 0 1
25.347220 -33.672242 -30.826334 52.216514 -0.925529 2.202296 0.023086 -0.013876 85594.500000 0 0 1
26.076920 -32.686872 -29.941594 51.428945 -0.897411 2.192220 0.021881 -0.022894 -779415.000000 0 0 1
26.550420 -33.308842 -28.733394 51.381044 -0.897827 2.164243 0.040944 -0.023037 229569.000000 0 0 1
27.092920 -32.355242 -27.808034 50.538844 -0.873688 2.153437 0.042310 -0.018625 -391183.000000 0 0 1
27.429420 -32.795572 -26.379704 50.237550 -0.874265 2.123628 0.047120 -0.022826 760014.000000 0 0 1
28.601020 -33.606272 -26.212394 51.327278 -0.865686 2.106785 0.043916 -0.009217 228374.000000 0 0 1
29.836420 -32.971702 -26.058254 51.540059 -0.835275 2.100865 0.052296 -0.025816 -109616.000000 0 0 1
-27.362170 -30.746453 9.590836 42.261293 0.843573 1.341860 0.044667 -0.019781 -133968.000000 0 0 1
-27.213870 -31.945153 10.315236 43.214484 0.865204 1.329771 0.051087 -0.024690 -236640.000000 0 0 1
-25.925310 -32.093653 10.872036 42.665272 0.891316 1.313133 0.049455 -0.020739 -123117.000000 0 0 1
-25.700550 -33.217353 11.929936 43.660442 0.912294 1.294033 0.048322 -0.021147 -269723.000000 0 0 1
-25.937930 33.495118 11.607136 43.925218 -0.911874 1.303373 0.049569 -0.007160 244324.000000 0 0 1
-27.302590 33.121418 11.456536 44.426478 -0.881402 1.309973 0.044447 -0.021068 319862.000000 0 0 1
-27.411470 31.677918 11.018336 43.316081 -0.857476 1.313600 0.049455 -0.016268 -38637.700000 0 0 1
-26.762170 31.398818 9.828836 42.411149 -0.864951 1.336919 0.069824 -0.027162 -346014.000000 0 0 1
-27.065710 30.118418 9.354336 41.559299 -0.838731 1.343767 0.087256 -0.022719 -78328.100000 0 0 1
-26.401520 29.603718 8.065236 40.477999 -0.842513 1.370204 0.064480 -0.012327 -228932.000000 0 0 1
-25.038580 29.266318 8.157336 39.369912 -0.863093 1.362087 0.054822 -0.007624 -139483.000000 0 0 1
-24.512980 29.152018 6.843136 38.698254 -0.871628 1.393028 0.042852 -0.005515 580618.000000 0 0 1
-23.030380 28.635418 6.823636 37.375762 -0.893462 1.387198 0.065389 -0.002355 608681.000000 0 0 1
-22.919080 27.200218 7.025036 36.255858 -0.870610 1.375800 0.058228 -0.003838 132210.000000 0 0 1
-23.560380 26.426918 6.027436 35.913834 -0.842681 1.402168 0.050073 -0.005962 -455230.000000 0 0 1
-23.640380 24.952618 6.306136 34.946646 -0.812396 1.389352 0.065187 0.000749 -209912.000000 0 0 1
-24.701680 24.630818 7.207536 35.620201 -0.783962 1.367045 0.087675 -0.004697 576754.000000 0 0 1
-24.709180 23.227218 7.467436 34.724772 -0.754493 1.354057 0.102813 -0.015827 62550.300000 0 0 1
-25.424010 22.431418 6.300336 34.485403 -0.722945 1.387069 0.105380 -0.029530 -286237.000000 0 0 1
-26.837950 22.563918 6.210936 35.608730 -0.699097 1.395478 0.101230 -0.030846 379993.000000 0 0 1
-27.339400 22.125918 4.946436 35.517126 -0.680389 1.431073 0.093312 -0.026251 28248.500000 0 0 1
-27.132390 23.109618 3.781136 35.840173 -0.705501 1.465100 0.080007 -0.028650 -35609.800000 0 0 1
-25.763370 23.315018 3.455536 34.918219 -0.735553 1.471673 0.073801 -0.024631 412565.000000 0 0 1
-25.505540 24.178618 2.369836 35.224342 -0.758697 1.503467 0.054136 -0.016203 382233.000000 0 0 1
-24.046080 24.728918 2.289836 34.568435 -0.799397 1.504507 0.043713 -0.009986 524355.000000 0 0 1
-23.815780 25.583018 1.174436 34.972296 -0.821158 1.537208 0.024241 -0.012829 170422.000000 0 0 1
-22.533780 26.183318 1.344536 34.570871 -0.860171 1.531894 0.036519 -0.014893 -62611.700000 0 0 1
-21.886380 26.782218 0.081536 34.587678 -0.885656 1.568439 0.040995 -0.013958 78924.400000 0 0 1
-21.527980 25.931718 -0.977964 33.717419 -0.877922 1.599805 0.035335 -0.009465 440452.000000 0 0 1
-20.563880 24.912718 -0.672764 32.310513 -0.880736 1.591620 0.041532 -0.016240 -29124.800000 0 0 1
-20.182880 24.091418 -1.901764 31.485898 -0.873450 1.631234 0.042531 -0.021498 658291.000000 0 0 1
-21.331480 23.343418 -2.395564 31.712551 -0.830403 1.646408 0.032310 -0.020770 1128630.000000 0 0 1
-20.997280 22.339218 -3.381964 30.844191 -0.816354 1.680664 0.030918 -0.017880 528088.000000 0 0 1
-22.317380 21.866818 -4.095464 31.511839 -0.775201 1.701131 0.043600 -0.014763 836632.000000 0 0 1
-22.754280 22.768418 -5.111664 32.592748 -0.785709 1.728281 0.031592 -0.005807 53267.800000 0 0 1
-23.947480 22.343218 -5.733164 33.250118 -0.750756 1.744088 0.028758 -0.001177 132385.000000 0 0 1
-24.126080 23.013118 -7.067564 34.082573 -0.761792 1.779678 0.020473 -0.010026 300700.000000 0 0 1
-23.230580 22.427918 -8.016164 33.270561 -0.767820 1.814129 0.032335 -0.009482 282285.000000 0 0 1
-23.486580 22.917618 -9.291364 34.105221 -0.773138 1.846716 0.028476 -0.012919 -275495.000000 0 0 1
-22.595080 22.382218 -10.416664 33.466524 -0.780666 1.887311 0.036020 -0.017253 -125025.000000 0 0 1
-22.957880 21.077818 -10.828864 32.993984 -0.742730 1.905201 0.034556 -0.020954 623577.000000 0 0 1
-22.228480 20.705518 -12.012064 32.666703 -0.749941 1.947348 0.041300 -0.019718 1140770.000000 0 0 1
-23.318580 20.673918 -13.172964 33.833327 -0.725354 1.970721 0.028899 -0.018184 1302560.000000 0 0 1
-24.332680 19.692718 -12.986564 33.890018 -0.680393 1.964052 0.025488 -0.011016 856171.000000 0 0 1
-25.417230 19.886418 -13.929164 35.150061 -0.663916 1.978255 0.034398 -0.012532 708935.000000 0 0 1
-26.298610 18.632118 -14.064464 35.165066 -0.616397 1.982265 0.075084 -0.018101 -121102.000000 0 0 1
-25.814060 17.694918 -14.975864 34.695134 -0.600912 2.017108 0.065601 -0.015767 -441083.000000 0 0 1
-26.782920 16.766318 -15.303064 35.108660 -0.559324 2.021809 0.077796 -0.023302 -389813.000000 0 0 1
-26.372390 16.054318 -16.599164 35.053906 -0.546832 2.064093 0.086345 -0.023450 180205.000000 0 0 1
-25.355260 15.080618 -16.568164 33.835164 -0.536567 2.082511 0.098242 -0.021573 -28438.900000 0 0 1
-24.868780 14.862018 -17.879164 34.044093 -0.538666 2.123719 0.083853 -0.021366 160763.000000 0 0 1
-23.975380 13.598018 -17.995264 32.917388 -0.515927 2.149190 0.081461 -0.021625 -482542.000000 0 0 1
-22.728680 13.715618 -17.407464 31.744777 -0.542952 2.151194 0.094074 -0.029946 -967744.000000 0 0 1
-22.008380 12.538618 -17.370764 30.713664 -0.517857 2.171922 0.105799 -0.012707 -12544.400000 0 0 1
-20.936580 12.445918 -16.254064 29.282006 -0.536335 2.159264 0.110474 -0.026797 734533.000000 0 0 1
-19.811180 13.294018 -16.490564 29.002629 -0.591022 2.175585 0.097903 -0.017973 834545.000000 0 0 1
-18.640780 13.031118 -15.714664 27.644880 -0.610098 2.175414 0.093640 -0.012264 994563.000000 0 0 1
-17.596980 14.206618 -15.881764 27.635342 -0.679196 2.183022 0.089749 -0.011684 505599.000000 0 0 1
-16.930780 14.160218 -17.166864 27.961837 -0.696522 2.231838 0.112178 -0.025640 145015.000000 0 0 1
-16.228880 15.360218 -17.434164 28.341893 -0.757906 2.233357 0.098988 -0.011625 -432549.000000 0 0 1
-15.316280 15.160418 -18.637364 28.491719 -0.780284 2.283832 0.118750 -0.018112 69053.600000 0 0 1
-14.185880 14.328618 -18.395264 27.293483 -0.790404 2.310380 0.121069 -0.015134 -39301.600000 0 0 1
-13.314780 14.485018 -19.503664 27.703646 -0.827469 2.351826 0.142559 -0.020536 1685590.000000 0 0 1
-11.979580 13.586618 -19.507764 26.620657 -0.848173 2.393232 0.126162 -0.014375 1712910.000000 0 0 1
-12.316680 12.336418 -20.082964 26.593482 -0.786199 2.426731 0.142680 -0.017860 952183.000000 0 0 1
-11.276280 11.367818 -19.765564 25.437360 -0.789441 2.460728 0.112179 -0.011104 743645.000000 0 0 1
-11.483780 10.008018 -20.476364 25.520954 -0.716839 2.501994 0.120737 -0.021903 -29192.100000 0 0 1
-11.418180 10.179418 -21.849064 26.671651 -0.728104 2.530788 0.137551 -0.029078 152067.000000 0 0 1
-11.801780 8.988918 -22.564564 27.004485 -0.650920 2.559995 0.130701 -0.014186 121948.000000 0 0 1
-11.776480 9.188718 -24.092764 28.347474 -0.662588 2.586608 0.114698 -0.016963 1044790.000000 0 0 1
-10.420280 9.326018 -24.591764 28.289781 -0.730039 2.624542 0.105647 -0.015295 1007060.000000 0 0 1
-10.191280 8.538418 -25.751434 28.981082 -0.697378 2.664993 0.080683 -0.019392 8708.890000 0 0 1
-9.689880 9.331018 -27.002204 30.167544 -0.766534 2.679395 0.106780 -0.024664 968459.000000 0 0 1
-8.356180 9.892318 -26.962194 29.910594 -0.869379 2.693849 0.086609 -0.024403 986254.000000 0 0 1
-8.161880 11.056318 -26.189234 29.575910 -0.934884 2.658348 0.061591 -0.016268 -493589.000000 0 0 1
-6.777780 11.641118 -26.475304 29.705145 -1.043547 2.670934 0.052506 -0.022655 -365585.000000 0 0 1
-6.616280 12.378718 -27.655304 31.013282 -1.079940 2.671938 0.058123 -0.044626 -392469.000000 0 0 1
-5.264380 12.690018 -27.789994 31.000549 -1.177559 2.682456 0.071602 -0.038097 -686671.000000 0 0 1
-4.677780 12.731618 -29.212534 32.207885 -1.218693 2.706900 0.077233 -0.040115 -92005.100000 0 0 1
-3.268480 12.688118 -29.224704 32.027404 -1.318676 2.720128 0.102222 -0.054848 78597.800000 0 0 1
-2.702680 12.600918 -30.527294 33.136133 -1.359515 2.742127 0.105710 -0.052504 555427.000000 0 0 1
-1.151680 12.616718 -30.602104 33.120941 -1.479767 2.749079 0.136749 -0.064813 -170768.000000 0 0 1
-0.552780 11.519918 -29.914894 32.061113 -1.522848 2.773620 0.110811 -0.039150 546804.000000 0 0 1
0.874620 11.473918 -29.962404 32.096128 1.494717 2.774907 0.133627 -0.044089 851407.000000 0 0 1
1.389620 10.892318 -31.325504 33.194289 1.443904 2.804444 0.145869 -0.043166 -633985.000000 0 0 1
1.385120 11.854018 -32.343904 34.475563 1.454476 2.788099 0.148273 -0.053395 11567.800000 0 0 1
1.432020 11.213518 -33.574284 35.426349 1.443779 2.816812 0.151212 -0.045479 -95280.400000 0 0 1
1.794120 12.080018 33.290120 35.459523 1.423354 0.351608 0.139467 -0.045497 -150990.000000 0 0 1
3.146420 12.473618 33.356097 35.750808 1.323705 0.368089 0.143441 -0.052661 -249447.000000 0 0 1
3.476820 13.443818 32.349517 35.203917 1.317723 0.405467 0.141079 -0.047195 -659613.000000 0 0 1
4.987520 13.485418 32.229039 35.290831 1.216552 0.419627 0.142941 -0.042595 -1061620.000000 0 0 1
5.521320 12.405818 31.531806 34.331386 1.152059 0.406642 0.139239 -0.046321 -156675.000000 0 0 1
6.913720 12.522518 31.359646 34.467961 1.066340 0.427946 0.125062 -0.035713 -16868.000000 0 0 1
7.648620 11.204618 31.015556 33.852763 0.971823 0.412329 0.100811 -0.031645 -146242.000000 0 0 1
7.378520 10.718918 29.687456 32.414237 0.967922 0.413109 0.098858 -0.033039 -464524.000000 0 0 1
8.262620 9.780718 29.239166 31.919620 0.869337 0.412741 0.087487 -0.028382 -458182.000000 0 0 1
7.587820 8.904218 28.183286 30.514877 0.865049 0.393451 0.079505 -0.022248 204607.000000 0 0 1
6.643920 7.961918 28.650656 30.469557 0.875392 0.347273 0.080129 -0.026619 -58313.700000 0 0 1
6.179120 7.155018 27.599486 29.173745 0.858456 0.330012 0.093727 -0.028252 -200079.000000 0 0 1
5.310620 5.934318 28.045686 29.154404 0.840806 0.276668 0.103525 -0.034997 449350.000000 0 0 1
6.044220 4.796418 28.535866 29.560681 0.670798 0.264085 0.081367 -0.033093 14209.200000 0 0 1
5.532520 4.446318 29.751806 30.586737 0.676974 0.234189 0.080211 -0.037392 -368410.000000 0 0 1
6.295320 3.321018 30.470286 31.290550 0.485434 0.229477 0.091320 -0.036725 -69795.100000 0 0 1
6.242720 2.047818 29.794046 30.509839 0.316973 0.217041 0.078335 -0.026751 -466561.000000 0 0 1
7.296020 1.874818 28.904236 29.869745 0.251523 0.254950 0.074414 -0.023736 -591545.000000 0 0 1
7.124620 0.556918 28.131706 29.025217 0.078009 0.248770 0.054455 -0.028820 16433.600000 0 0 1
7.483920 -0.541882 28.936126 29.893178 -0.072280 0.253724 0.036564 -0.020413 -56633.700000 0 0 1
7.504420 -1.751582 28.175176 29.210013 -0.229302 0.266978 0.038217 -0.011809 -233768.000000 0 0 1
8.146520 -2.918082 28.929776 30.196240 -0.343961 0.290646 0.042362 -0.008608 731699.000000 0 0 1
9.571620 -2.840082 29.090916 30.756517 -0.288444 0.330607 0.043195 -0.011809 861319.000000 0 0 1
10.254120 -4.007282 28.622376 30.666687 -0.372548 0.367196 0.047048 -0.007604 1362280.000000 0 0 1
11.837320 -3.948882 28.654886 31.254092 -0.321987 0.410713 0.054100 -0.007229 1586060.000000 0 0 1
12.621620 -5.093682 28.350246 31.448169 -0.383578 0.447594 0.071659 -0.008077 319412.000000 0 0 1
12.884720 -5.990282 29.428966 32.679711 -0.435187 0.449816 0.079380 -0.005902 -198796.000000 0 0 1
12.197120 -7.385582 29.212066 32.506328 -0.544467 0.454096 0.082133 -0.004146 -162384.000000 0 0 1
10.796120 -7.285582 29.124216 31.903853 -0.593635 0.420525 0.061091 -0.003292 -338196.000000 0 0 1
10.232920 -8.560282 28.774406 31.716833 -0.696630 0.434149 0.051239 -0.001566 -57900.300000 0 0 1
8.749120 -8.405082 28.394246 30.877592 -0.765345 0.403800 0.038910 -0.005337 35946.100000 0 0 1
8.053020 -8.010282 29.590906 31.696016 -0.782738 0.366508 0.045831 -0.013605 258201.000000 0 0 1
6.704720 -7.613782 29.357836 31.061318 -0.848802 0.332720 0.040709 -0.016406 587953.000000 0 0 1
6.052720 -6.900182 30.583396 31.931051 -0.850731 0.291566 0.039233 -0.024103 78953.700000 0 0 1
5.859720 -7.606282 31.755216 33.175074 -0.914380 0.293625 0.049280 -0.028304 411748.000000 0 0 1
5.124920 -6.931982 32.816979 33.930389 -0.934169 0.256887 0.052920 -0.024385 262924.000000 0 0 1
5.864320 -5.790482 33.569013 34.565858 -0.779063 0.240743 0.060423 -0.019332 -112254.000000 0 0 1
5.923020 -4.644382 32.724756 33.579191 -0.664985 0.226071 0.059359 -0.015386 -127017.000000 0 0 1
6.362420 -3.498782 33.408171 34.188123 -0.502777 0.214013 0.057254 -0.002485 -185227.000000 0 0 1
6.392820 -2.348982 32.417436 33.125157 -0.352127 0.207082 0.059154 -0.007357 715449.000000 0 0 1
5.091520 -1.809282 32.125996 32.577242 -0.341435 0.166635 0.048102 -0.010972 569456.000000 0 0 1
5.138420 -0.628082 31.315786 31.740767 -0.121629 0.163824 0.049327 -0.017663 -453181.000000 0 0 1
3.736020 -0.221582 30.842576 31.068817 -0.059240 0.120754 0.063388 -0.023253 306048.000000 0 0 1
2.992920 0.061918 32.074387 32.213781 0.020685 0.093062 0.061248 -0.020273 -73028.500000 0 0 1
1.660620 0.437518 31.820316 31.866622 0.257612 0.053916 0.072784 -0.023454 285115.000000 0 0 1
0.763220 0.796918 33.055196 33.073608 0.806994 0.033369 0.076199 -0.021669 122180.000000 0 0 1
1.122320 1.938618 33.742400 33.816673 1.046015 0.066290 0.065895 -0.016225 -461849.000000 0 0 1
0.357220 2.164618 -33.170324 33.242798 1.407244 3.075549 0.048305 -0.016266 -460215.000000 0 0 1
0.871420 3.383118 -32.359744 32.547779 1.318697 3.034050 0.054000 -0.015243 508614.000000 0 0 1
2.061320 3.043418 -31.653294 31.866008 0.975465 3.025984 0.027222 0.000825 283797.000000 0 0 1
2.812220 4.161518 -31.197494 31.599216 0.976519 2.981968 0.034061 -0.004896 235593.000000 0 0 1
3.937820 3.824518 -30.197574 30.692456 0.770803 2.961774 0.031443 0.001348 38020.300000 0 0 1
3.362820 3.251718 -29.046754 29.421016 0.768603 2.981918 0.023028 -0.005067 115609.000000 0 0 1
4.308620 3.110718 -28.024244 28.523658 0.625323 2.954189 0.031724 -0.012276 -342913.000000 0 0 1
3.774420 2.296218 -26.861914 27.222808 0.546546 2.978581 0.015304 -0.019310 -255083.000000 0 0 1
3.855320 0.842818 -27.016834 27.303538 0.215226 2.996548 0.032111 -0.017336 30251.000000 0 0 1
3.530220 0.253018 -25.779264 26.021086 0.071550 3.005154 0.042650 -0.021578 -169890.000000 0 0 1
3.944520 -1.247282 -25.560844 25.893468 -0.306258 2.981134 0.043611 -0.022524 -56987.500000 0 0 1
5.297220 -1.446782 -25.242824 25.833194 -0.266618 2.927393 0.032088 -0.021575 -176836.000000 0 0 1
5.697520 -2.799882 -25.166774 25.955107 -0.456761 2.894498 0.034944 -0.018179 -626006.000000 0 0 1
7.111620 -3.094282 -24.692464 25.881799 -0.410396 2.837261 0.042857 -0.018118 -96662.300000 0 0 1
8.174920 -2.436082 -25.341974 26.739100 -0.289616 2.816903 0.032221 -0.015724 -260552.000000 0 0 1
9.414320 -2.880682 -24.832264 26.712714 -0.296943 2.764135 0.033152 -0.013398 97447.600000 0 0 1
-29.930730 -4.294382 17.940216 35.158806 0.142505 1.035306 0.138885 -0.022854 -19095.900000 0 0 1
-31.336670 -4.213282 17.864516 36.316381 0.133651 1.056510 0.115585 -0.012074 -190905.000000 0 0 1
-31.883800 -4.977582 18.928716 37.411887 0.154866 1.040308 0.100059 -0.016802 454917.000000 0 0 1
-33.384250 -4.632282 19.176116 38.777437 0.137876 1.053517 0.078973 -0.014403 289939.000000 0 0 1
-34.236283 -4.951482 18.118216 39.050096 0.143631 1.088321 0.065551 -0.015264 -592725.000000 0 0 1
-35.564701 -4.819882 18.527716 40.390042 0.134704 1.094242 0.068674 -0.005697 -394521.000000 0 0 1
-36.635800 -4.738482 17.408216 40.837250 0.128626 1.130417 0.047000 -0.002566 160572.000000 0 0 1
35.896126 -4.903382 17.925116 40.421341 -0.135759 1.111345 0.064808 -0.003077 -70545.000000 0 0 1
34.931766 -4.507482 16.964716 39.094082 -0.128328 1.121928 0.034335 -0.009062 1307220.000000 0 0 1
33.455416 -5.072882 17.154916 37.937977 -0.150485 1.101585 0.037153 -0.004173 1070030.000000 0 0 1
32.906066 -4.442482 18.274616 37.901272 -0.134194 1.067674 0.057453 -0.012566 -780586.000000 0 0 1
31.824796 -5.174282 18.707816 37.276979 -0.161176 1.045049 0.115604 -0.015377 -774194.000000 0 0 1
30.982156 -4.591982 19.876416 37.095177 -0.147143 1.005315 0.136074 -0.019107 606069.000000 0 0 1
30.058566 -3.488782 19.617616 36.062998 -0.115549 0.995621 0.141675 -0.018591 1069190.000000 0 0 1
30.682246 -2.240282 19.294116 36.313661 -0.072886 1.010640 0.109614 -0.010308 253011.000000 0 0 1
29.533076 -1.182082 19.169916 35.229044 -0.040004 0.995420 0.113795 0.004204 811673.000000 0 0 1
29.984426 0.147718 18.843816 35.414362 0.004926 1.009723 0.086531 -0.000589 92698.000000 0 0 1
29.063396 1.065918 19.387016 34.952447 0.036659 0.982832 0.081572 0.002953 235537.000000 0 0 1
29.249496 2.483818 18.875716 34.899785 0.084715 0.999343 0.071392 0.002541 75433.000000 0 0 1
29.230706 2.454018 17.461516 34.137383 0.083757 1.033858 0.069709 0.003087 127805.000000 0 0 1
29.057466 3.748218 16.964316 33.855184 0.128285 1.045945 0.071264 0.004849 108930.000000 0 0 1
28.944696 3.679018 15.407716 32.995883 0.126427 1.084948 0.077241 0.002955 -31995.700000 0 0 1
28.612456 4.929118 14.820416 32.597754 0.170597 1.098822 0.062281 0.000775 106404.000000 0 0 1
28.046156 4.701518 13.573916 31.510987 0.166091 1.125453 0.083918 -0.002307 -668629.000000 0 0 1
27.369956 5.897718 12.966816 30.855079 0.212236 1.137077 0.087002 -0.000759 52603.000000 0 0 1
26.119856 6.181318 13.595216 30.087962 0.232377 1.101959 0.079080 -0.003698 435920.000000 0 0 1
25.647456 7.420018 13.167416 29.769607 0.281619 1.112623 0.097069 -0.020575 873731.000000 0 0 1
24.305956 7.850518 13.914816 29.086633 0.312411 1.071974 0.098439 -0.026145 885075.000000 0 0 1
23.039956 7.337418 13.637916 27.760944 0.308310 1.057258 0.101792 -0.018340 317030.000000 0 0 1
22.774756 5.982118 13.908916 27.348367 0.256862 1.037258 0.113446 -0.016834 -900700.000000 0 0 1
21.372156 5.438518 13.620216 25.920201 0.249179 1.017532 0.127720 -0.022145 -575265.000000 0 0 1
21.035856 5.528818 12.277316 24.976139 0.257015 1.056914 0.126658 -0.032021 1038930.000000 0 1 0
19.860856 4.748918 12.011416 23.691347 0.234703 1.039100 0.104120 -0.026507 246570.000000 0 1 0
19.614956 4.479118 10.492316 22.691357 0.224503 1.090105 0.108411 -0.028180 -110074.000000 0 1 0
20.638856 3.712418 9.902316 23.190521 0.177972 1.129626 0.120562 -0.033564 508003.000000 0 1 0
20.321256 3.485818 8.568516 22.327647 0.169882 1.176929 0.125058 -0.031752 531800.000000 0 1 0
21.533056 2.836418 7.792816 23.074786 0.130970 1.226303 0.127091 -0.034836 -549330.000000 0 1 0
21.775656 1.461118 8.066916 23.267771 0.066998 1.216747 0.127205 -0.041564 834082.000000 0 1 0
22.706056 0.870518 7.147616 23.820394 0.038320 1.266038 0.126017 -0.037188 377284.000000 0 1 0
24.194056 1.309518 7.270916 25.296905 0.054073 1.279261 0.126076 -0.040421 -196424.000000 0 0 1
25.011756 0.729618 8.285416 26.358460 0.029163 1.251039 0.125168 -0.024317 799482.000000 0 0 1
24.893856 1.523718 9.456016 26.672870 0.061132 1.208398 0.127740 -0.028039 -451744.000000 0 0 1
25.553056 0.809118 10.667416 27.702114 0.031654 1.175506 0.118038 -0.018868 -518927.000000 0 0 1
26.943556 0.851018 10.569616 28.955072 0.031575 1.197126 0.110224 -0.025818 -551235.000000 0 0 1
27.527356 -0.000782 11.516216 29.839212 -0.000028 1.174567 0.117789 -0.020440 333215.000000 0 0 1
29.087676 0.023718 11.554316 31.298493 0.000815 1.192686 0.121541 -0.020139 507783.000000 0 0 1
29.642716 1.267818 11.870916 31.956480 0.042744 1.190203 0.103655 -0.009514 888455.000000 0 0 1
30.981516 1.071118 12.373216 33.378108 0.034559 1.191035 0.097847 -0.017999 663878.000000 0 0 1
31.718326 2.292518 12.944516 34.334652 0.072152 1.184230 0.081204 -0.009436 -285717.000000 0 0 1
32.241356 3.106218 11.958916 34.527804 0.096046 1.217112 0.097013 -0.026922 -107246.000000 0 0 1
32.701626 4.325118 12.513316 35.280108 0.131497 1.208219 0.093175 -0.021028 660885.000000 0 0 1
34.111546 4.611918 11.857316 36.406913 0.134386 1.239056 0.096132 -0.016947 501846.000000 0 0 1
35.117166 3.747718 12.342916 37.411339 0.106318 1.234573 0.088975 -0.026351 -770018.000000 0 0 1
36.339806 4.195018 11.851216 38.452971 0.114930 1.257496 0.100661 -0.016867 -885161.000000 0 0 1
-36.353820 3.337218 12.417516 38.560756 -0.091542 1.242929 0.125372 -0.010872 -850029.000000 0 0 1
-36.218850 1.952118 12.139216 38.248875 -0.053846 1.247837 0.106622 -0.013741 479859.000000 0 0 1
36.554936 1.044218 12.467616 38.636708 0.028558 1.242228 0.083438 -0.007100 -75186.700000 0 0 1
36.020836 0.902518 13.910916 38.624199 0.025050 1.202356 0.087791 -0.001169 -51247.700000 0 0 1
36.783446 0.066818 14.789816 39.645492 0.001817 1.188500 0.087049 -0.008129 209748.000000 0 0 1
36.246136 -0.028382 16.077916 39.652018 -0.000783 1.153298 0.085242 -0.017949 -175231.000000 0 0 1
-36.728600 -0.826682 17.121616 40.531755 0.022504 1.134678 0.093085 -0.012023 634318.000000 0 0 1
-35.482461 -0.163282 17.398816 39.518989 0.004602 1.114903 0.126808 -0.022125 473237.000000 0 0 1
-34.692497 -0.831682 18.349516 39.255137 0.023968 1.084401 0.107671 -0.014146 -36858.600000 0 0 1
-35.007105 -0.545182 19.851116 40.247502 0.015572 1.055002 0.135781 -0.031689 -620654.000000 0 0 1
-35.892240 -1.453882 20.426816 41.323377 0.040485 1.053748 0.106043 -0.028756 -245664.000000 0 0 1
-35.859486 -1.440982 21.838616 42.010764 0.040163 1.024140 0.109819 -0.025938 -18405.700000 0 0 1
-35.959746 -2.864482 22.459216 42.493822 0.079490 1.013930 0.071540 -0.023357 208339.000000 0 0 1
-34.812971 -3.743282 22.355716 41.541944 0.107114 1.002558 0.091803 -0.027217 661978.000000 0 0 1
-35.081760 -5.102482 22.775116 42.136339 0.144433 0.999753 0.081912 -0.021180 -45397.600000 0 0 1
-35.138385 -5.338382 24.310386 43.060414 0.150772 0.970891 0.076634 -0.031019 599733.000000 0 0 1
-33.893440 -5.079782 24.962426 42.399200 0.148768 0.941288 0.087793 -0.028762 313847.000000 0 0 1
-34.154689 -4.725082 26.354506 43.398492 0.137471 0.918179 0.087314 -0.031337 778191.000000 0 0 1
-32.905940 -4.052482 27.046256 42.786954 0.122537 0.886517 0.088942 -0.026590 704949.000000 0 0 1
-32.763500 -2.647182 26.898776 42.473505 0.080622 0.884977 0.088382 -0.026079 -246716.000000 0 0 1
-32.219380 -2.260182 25.672346 41.258529 0.070035 0.899207 0.100057 -0.031917 -372254.000000 0 0 1
-32.174160 -0.707282 25.436686 41.020748 0.021979 0.901935 0.111953 -0.031482 131210.000000 0 0 1
-33.417270 -0.033782 25.464036 42.013476 0.001011 0.919658 0.120102 -0.042462 -211068.000000 0 0 1
-33.351380 1.337718 25.100726 41.763027 -0.040088 0.926010 0.130764 -0.031038 -954699.000000 0 0 1
-34.678150 2.035918 24.938306 42.762579 -0.058642 0.948158 0.133536 -0.028244 -765318.000000 0 0 1
-35.441055 1.389318 23.914226 42.777199 -0.039181 0.977567 0.133465 -0.021613 165389.000000 0 0 1
-36.488170 2.174518 23.331716 43.364548 -0.059525 1.002690 0.113848 -0.015220 496134.000000 0 0 1
-36.019112 3.339418 22.477916 42.588553 -0.092448 1.014797 0.114174 -0.005936 -166698.000000 0 0 1
-35.558268 2.983118 21.169216 41.490060 -0.083698 1.035351 0.137679 -0.032320 850538.000000 0 0 1
-36.606360 3.303318 20.192116 41.936369 -0.089995 1.068438 0.115111 -0.022083 898463.000000 0 0 1
-36.412970 2.818218 18.777716 41.066401 -0.077242 1.095893 0.132163 -0.021544 278598.000000 0 0 1
-35.284212 3.418518 18.130516 39.816799 -0.096584 1.098033 0.163423 -0.034987 385874.000000 0 0 1
-35.152292 2.889518 16.789216 39.062907 -0.082016 1.126526 0.184650 -0.026086 365408.000000 0 0 1
-33.945510 3.433818 15.940116 37.658678 -0.100814 1.133735 0.175347 -0.030336 356858.000000 0 0 1
-34.128679 4.793218 15.543516 37.806647 -0.139533 1.147101 0.176872 -0.038691 122917.000000 0 0 1
-33.184230 5.253218 14.625616 36.642844 -0.157002 1.160218 0.188401 -0.035684 -387822.000000 0 0 1
-33.808260 6.524318 14.010716 37.173449 -0.190637 1.184348 0.189365 -0.040557 545189.000000 0 0 1
-32.947560 7.070218 13.009216 36.121592 -0.211384 1.202367 0.206061 -0.035313 614025.000000 0 0 1
-33.353570 8.404918 12.772216 36.691045 -0.246855 1.215251 0.169639 -0.034032 406491.000000 0 0 1
-32.317300 9.130518 11.846316 35.610524 -0.275351 1.231670 0.183426 -0.033130 437248.000000 0 0 1
-32.578380 10.537218 11.857116 36.234997 -0.312822 1.237427 0.153472 -0.027201 482312.000000 0 0 1
-31.743460 11.256418 10.914716 35.404593 -0.340772 1.257406 0.148223 -0.035549 301402.000000 0 0 1
-31.973420 12.766018 10.769316 36.072828 -0.379877 1.267630 0.119677 -0.023105 -100191.000000 0 0 1
-31.294210 13.280918 9.651616 35.339270 -0.401353 1.294169 0.129735 -0.018022 -124603.000000 0 0 1
-31.459310 14.677818 9.542116 36.002479 -0.436544 1.302550 0.104840 -0.015559 -89812.800000 0 0 1
-30.553060 15.523018 8.612216 35.335871 -0.470081 1.324592 0.114185 -0.016244 1297820.000000 0 0 1
-29.143990 15.424018 8.946516 34.165957 -0.486761 1.305853 0.135520 -0.010742 1308020.000000 0 0 1
-28.303960 16.366018 8.298716 33.731726 -0.524254 1.322223 0.122550 -0.030770 649760.000000 0 0 1
-26.917360 16.465818 9.024016 32.819206 -0.548991 1.292247 0.132977 -0.025566 267485.000000 0 0 1
-26.886370 16.952718 10.370016 33.433647 -0.562568 1.255428 0.128809 -0.028083 178530.000000 0 0 1
-27.260360 18.345818 10.594416 34.524454 -0.592364 1.258897 0.127475 -0.031681 38695.800000 0 0 1
-27.012080 18.809018 12.059016 35.054978 -0.608251 1.219620 0.120539 -0.025999 182582.000000 0 0 1
-25.627660 18.705418 12.374916 34.055956 -0.630507 1.198914 0.100327 -0.018919 511822.000000 0 0 1
-25.300790 19.169518 13.716616 34.579559 -0.648389 1.162912 0.097827 -0.018174 232812.000000 0 0 1
-25.827650 18.298818 14.929316 34.997124 -0.616406 1.130081 0.088325 -0.015775 409800.000000 0 0 1
-24.968380 17.155718 15.085316 33.842361 -0.602014 1.108782 0.096870 -0.019188 439454.000000 0 0 1
-25.318670 16.439818 16.242116 34.279863 -0.575894 1.077185 0.105096 -0.016433 578400.000000 0 0 1
-24.307480 15.257218 16.577116 33.142677 -0.560521 1.046996 0.098712 -0.015959 571240.000000 0 0 1
-23.092380 15.702618 17.142416 32.767249 -0.597171 1.020245 0.088649 -0.004665 11492.400000 0 0 1
-22.297880 14.623418 17.687716 31.998361 -0.580456 0.985112 0.079536 -0.008165 -64994.400000 0 0 1
-22.745880 13.686318 18.811416 32.535515 -0.541673 0.954299 0.084789 -0.022577 -637098.000000 0 0 1
-22.638780 14.209118 20.073216 33.426746 -0.560499 0.926653 0.082311 -0.020589 193721.000000 0 0 1
-22.887280 13.174918 21.040016 33.765194 -0.522318 0.898061 0.077736 -0.023705 -406647.000000 0 0 1
-22.241380 13.537118 22.414316 34.355991 -0.546752 0.860031 0.075249 -0.010196 -546546.000000 0 0 1
-20.865280 13.732618 22.337316 33.509706 -0.582088 0.841168 0.091091 -0.017266 -627398.000000 0 0 1
-20.544680 15.092518 22.459416 33.974892 -0.633585 0.848567 0.064504 -0.008811 -100073.000000 0 0 1
-19.017880 15.220418 22.723616 33.312214 -0.674937 0.820110 0.051622 -0.011994 566774.000000 0 0 1
-18.150280 14.649718 21.750616 31.892572 -0.679076 0.820308 0.043621 -0.012881 16969.200000 0 0 1
-17.953380 15.374818 20.508016 31.293571 -0.708183 0.856160 0.053201 -0.006919 -1325740.000000 0 0 1
-16.808680 14.771418 19.661416 29.787544 -0.720976 0.849904 0.042367 0.004449 1619400.000000 0 0 1
-15.522980 14.638718 20.337716 29.476731 -0.756089 0.809365 0.047779 0.002938 1316390.000000 0 0 1
-14.916380 15.741718 20.962016 30.161336 -0.812312 0.802382 0.029902 -0.000083 -1477770.000000 0 0 1
-13.815380 15.347918 21.915516 30.111678 -0.837900 0.755676 0.020396 -0.008093 -674667.000000 0 0 1
-12.641280 14.876318 21.314816 28.903774 -0.866442 0.741523 0.001836 0.003085 -408163.000000 0 0 1
-11.809180 14.270018 22.313016 28.999324 -0.879480 0.692845 0.014910 -0.001875 522856.000000 0 0 1
-10.589380 13.595718 21.602316 27.634011 -0.909069 0.673362 0.012518 -0.004591 -1108430.000000 0 0 1
-10.208680 12.474318 22.365416 27.568779 -0.884951 0.624494 0.019511 -0.007911 736896.000000 0 0 1
-8.964480 11.876818 21.972216 26.536747 -0.924238 0.595279 0.025417 -0.006479 625818.000000 0 0 1
-7.672780 12.626518 22.348316 26.790814 -1.024755 0.584155 0.022522 -0.002155 -751353.000000 0 0 1
-7.454380 13.718918 21.440416 26.522970 -1.073061 0.629416 0.016971 0.001147 -774986.000000 0 0 1
-6.897380 14.802218 22.060116 27.446825 -1.134742 0.637241 0.019898 0.009879 -524571.000000 0 0 1
-7.781480 15.838918 22.839416 28.862808 -1.114142 0.657848 0.028643 -0.015011 608043.000000 0 0 1
-8.695380 16.470618 21.912716 28.758616 -1.085053 0.704473 -0.014168 -0.004734 -19309.600000 0 0 1
-8.078680 17.567918 21.224616 28.712038 -1.139778 0.738880 0.021835 0.010505 -932779.000000 0 0 1
-8.790980 18.057318 19.877016 28.256748 -1.117734 0.790566 0.022619 0.016180 1213350.000000 0 0 1
-10.014380 18.791818 19.968816 29.192016 -1.081167 0.817495 0.006208 0.010695 337690.000000 0 0 1
-11.023480 18.119518 20.709216 29.642970 -1.024241 0.797327 0.003247 0.006457 -447044.000000 0 0 1
-12.398380 18.881518 20.780116 30.692747 -0.989767 0.827068 0.005595 0.003124 804103.000000 0 0 1
-13.108280 18.922118 19.553016 30.202549 -0.964953 0.866633 0.010178 0.006506 503281.000000 0 0 1
-14.401080 19.491118 19.716816 31.241760 -0.934467 0.887820 0.013317 0.005613 451030.000000 0 0 1
-15.404680 19.521718 18.551416 31.025097 -0.902734 0.929857 0.027756 0.010989 -123533.000000 0 0 1
-15.993780 18.292818 18.282216 30.408347 -0.852351 0.925765 0.038739 0.013938 3244.070000 0 0 1
-16.612680 18.328018 17.011716 30.021590 -0.834452 0.968363 0.041739 0.006780 -734867.000000 0 0 1
-17.202080 16.982818 16.555416 29.298625 -0.778984 0.970293 0.043586 0.000996 746178.000000 0 0 1
-18.292380 16.376118 17.265316 30.014655 -0.730180 0.957912 0.053241 -0.001904 1068850.000000 0 0 1
-19.527480 17.104918 17.273416 31.181270 -0.719363 0.983674 0.063061 -0.004818 162877.000000 0 0 1
35.235416 -9.560582 11.705036 38.339889 -0.264955 1.260547 0.053001 -0.015800 898498.000000 0 0 1
33.838726 -9.874082 11.497936 37.077748 -0.283915 1.255495 0.069838 -0.015554 961780.000000 0 0 1
33.536856 -11.022182 12.245636 37.365289 -0.317538 1.236899 0.045882 -0.007742 615563.000000 0 0 1
32.014136 -11.413682 12.183336 36.105550 -0.342471 1.226604 0.075989 -0.004592 333094.000000 0 0 1
31.182296 -10.386482 12.711436 35.239114 -0.321531 1.201757 0.085918 -0.013155 -139081.000000 0 0 1
29.841696 -10.799982 12.668236 34.170903 -0.347245 1.191000 0.097018 -0.016079 -192587.000000 0 0 1
29.227336 -11.706882 13.753336 34.357568 -0.380977 1.158952 0.090822 -0.007292 -891381.000000 0 0 1
29.164176 -11.049582 15.006136 34.609631 -0.362164 1.122332 0.104219 -0.015741 122285.000000 0 0 1
28.489556 -11.745482 16.050936 34.745412 -0.391042 1.090594 0.110350 -0.022939 458695.000000 0 0 1
26.929756 -11.706082 16.034636 33.456743 -0.410049 1.070980 0.118363 -0.033162 350838.000000 0 0 1
26.472056 -10.409582 16.424136 32.846330 -0.374656 1.047163 0.114710 -0.032472 -155449.000000 0 0 1
25.962956 -9.699582 15.336536 31.675958 -0.357537 1.065382 0.131047 -0.025927 -60059.200000 0 0 1
25.592056 -8.285682 15.741936 31.167521 -0.313110 1.041327 0.169530 -0.029641 984143.000000 0 0 1
26.779156 -7.496182 15.993436 32.079681 -0.272940 1.048867 0.152212 -0.023187 984913.000000 0 0 1
26.412356 -6.166982 16.363836 31.676795 -0.229379 1.027936 0.147405 -0.025990 79134.000000 0 0 1
27.465556 -5.121682 15.973036 32.182701 -0.184359 1.051437 0.155130 -0.025806 -23658.600000 0 0 1
27.675356 -4.929182 14.564836 31.660016 -0.176259 1.092757 0.168216 -0.032829 140824.000000 0 0 1
28.929646 -4.330582 14.348336 32.581484 -0.148590 1.114771 0.145272 -0.024738 -82166.400000 0 0 1
29.077526 -3.734582 12.915236 32.035183 -0.127736 1.155831 0.148558 -0.031791 -30914.400000 0 0 1
29.505716 -4.631982 11.875136 32.141272 -0.155715 1.192361 0.130357 -0.048639 104486.000000 0 0 1
30.110626 -3.827182 10.911036 32.254423 -0.126426 1.225707 0.128608 -0.047289 -123648.000000 0 0 1
30.838596 -4.611482 9.820936 32.691521 -0.148436 1.265671 0.143598 -0.046739 815126.000000 0 0 1
32.078786 -5.279082 10.151736 34.058405 -0.163104 1.268128 0.126974 -0.050327 869112.000000 0 0 1
32.601586 -5.915482 8.996436 34.333543 -0.179495 1.305671 0.122506 -0.053469 -142960.000000 0 0 1
34.018106 -6.459782 9.269736 35.845339 -0.187658 1.309220 0.107776 -0.040901 152333.000000 0 0 1
35.013976 -5.433982 9.266836 36.624867 -0.153966 1.314995 0.115928 -0.044415 833340.000000 0 0 1
36.304816 -6.070382 9.083036 37.912936 -0.165673 1.328867 0.109068 -0.031659 1068730.000000 0 0 1
-36.412910 -5.114682 8.650636 37.774244 0.139550 1.339737 0.091585 -0.035944 85730.300000 0 0 1
-36.696600 -4.632982 7.379136 37.716795 0.125587 1.373880 0.094020 -0.035513 310581.000000 0 0 1
-35.661474 -3.706582 7.054536 36.541017 0.103566 1.376518 0.092123 -0.031500 263064.000000 0 0 1
-35.720062 -3.152882 5.613836 36.295711 0.088038 1.415504 0.103550 -0.037572 -111501.000000 0 0 1
-34.969384 -3.850282 4.636436 35.484912 0.109663 1.439762 0.113274 -0.042320 247616.000000 0 0 1
-34.908903 -3.126182 3.406736 35.213781 0.089314 1.473900 0.122492 -0.033345 -109959.000000 0 0 1
-34.318308 -3.943882 2.277536 34.619180 0.114419 1.504961 0.137251 -0.038945 -274425.000000 0 0 1
-35.093937 -5.078882 2.048936 35.518694 0.143725 1.513078 0.137469 -0.028223 -235816.000000 0 0 1
-36.053979 -5.034982 1.019736 36.418131 0.138754 1.542792 0.126178 -0.022708 -360138.000000 0 0 1
-35.581034 -5.270382 -0.437964 35.971916 0.147054 1.582972 0.145098 -0.032608 -1665140.000000 0 0 1
-35.215951 -6.586982 -0.742564 35.834382 0.184909 1.591520 0.136448 -0.045170 318930.000000 0 0 1
-34.210870 -6.707182 -1.727464 34.904929 0.193599 1.620307 0.130855 -0.048585 544029.000000 0 0 1
-32.853320 -5.936582 -1.552464 33.421457 0.178771 1.617264 0.117788 -0.045781 -637422.000000 0 0 1
-32.017670 -6.680782 -0.702564 32.714792 0.205708 1.592273 0.128522 -0.040375 638936.000000 0 0 1
-30.725190 -6.058982 -0.484264 31.320649 0.194701 1.586258 0.136276 -0.047704 812219.000000 0 0 1
-29.876150 -6.971182 0.419236 30.681549 0.229234 1.557132 0.126535 -0.044617 -574567.000000 0 0 1
-29.641430 -8.179882 -0.269864 30.750572 0.269260 1.579572 0.134453 -0.038264 551194.000000 0 0 1
-29.143550 -9.142282 0.702536 30.551946 0.303976 1.547800 0.129509 -0.028263 -69311.500000 0 0 1
-28.774690 -10.599082 0.198436 30.665334 0.352926 1.564325 0.111290 -0.031302 464853.000000 0 0 1
-27.640810 -10.563782 -0.688564 29.598682 0.365051 1.594062 0.125172 -0.033877 920061.000000 0 0 1
-27.117490 -11.821382 -1.215064 29.607089 0.411094 1.611847 0.106149 -0.016765 -168951.000000 0 0 1
-28.007540 -12.802882 -1.975664 30.858375 0.428761 1.634864 0.116931 -0.022342 -652287.000000 0 0 1
-28.966030 -13.524282 -1.238864 31.991747 0.436820 1.609531 0.124725 -0.032385 273968.000000 0 0 1
-29.757530 -14.229182 -2.184864 33.056827 0.446032 1.636939 0.121912 -0.031297 -67226.900000 0 0 1
-30.848940 -15.127082 -1.547664 34.393037 0.455906 1.615811 0.117853 -0.028769 220165.000000 0 0 1
-30.411500 -16.458482 -1.317064 34.604561 0.496056 1.608866 0.082142 -0.021765 205659.000000 0 0 1
-31.400250 -17.041182 -0.519364 35.730202 0.497228 1.585333 0.088981 -0.011661 -126499.000000 0 0 1
-31.582900 -18.534482 -0.531264 36.623610 0.530696 1.585303 0.086664 -0.010637 -1214180.000000 0 0 1
-30.545400 -19.163482 0.092836 36.059244 0.560307 1.568222 0.109644 -0.023728 -664464.000000 0 0 1
-30.521060 -20.568182 0.014236 36.804693 0.592994 1.570410 0.101090 -0.027006 -231938.000000 0 0 1
-31.403440 -21.286882 1.048236 37.952683 0.595706 1.543173 0.099069 -0.022878 -328272.000000 0 0 1
-30.791340 -21.569982 2.289536 37.664475 0.611076 1.509971 0.095984 -0.021910 682591.000000 0 0 1
-31.749880 -21.600482 3.377236 38.549208 0.597404 1.483075 0.088605 -0.020776 483344.000000 0 0 1
-30.970510 -21.829682 4.643836 38.174241 0.613976 1.448846 0.063602 -0.008199 -199325.000000 0 0 1
-30.195280 -20.743382 5.036136 36.978446 0.601930 1.434181 0.052868 -0.007668 -248461.000000 0 0 1
-29.529700 -20.956682 6.257136 36.746938 0.617194 1.399686 0.049494 -0.009361 57142.100000 0 0 1
-28.722570 -19.734682 6.733736 35.493477 0.602002 1.379922 0.053584 -0.007884 99089.800000 0 0 1
-28.106870 -19.994882 7.988236 35.406261 0.618328 1.343221 0.048757 -0.014490 -312595.000000 0 0 1
-27.203010 -18.982282 8.331236 34.201466 0.609248 1.324728 0.060739 -0.007321 -314734.000000 0 0 1
-26.271460 -19.315682 9.457736 33.951936 0.633984 1.288499 0.068317 -0.000636 269197.000000 0 0 1
-27.023940 -19.505382 10.686236 34.999270 0.625195 1.260514 0.052917 -0.008027 628991.000000 0 0 1
-26.100820 -19.866782 11.691636 34.822926 0.650602 1.228400 0.059082 -0.001122 137978.000000 0 0 1
-25.703280 -18.717282 12.626436 34.211433 0.629406 1.192787 0.054608 0.000010 -312235.000000 0 0 1
-24.940480 -17.718082 11.980736 32.855684 0.617682 1.197542 0.058604 0.005787 51474.200000 0 0 1
-24.536580 -16.539282 12.695736 32.198964 0.593108 1.165501 0.070233 0.007209 420376.000000 0 0 1
-23.694980 -16.675182 13.988736 32.174501 0.613234 1.121006 0.069890 -0.002515 -529578.000000 0 0 1
-24.415780 -17.250182 15.034536 33.462462 0.615087 1.104820 0.076244 -0.007062 -480662.000000 0 0 1
-23.690480 -17.424182 16.238636 33.593664 0.634152 1.066280 0.084778 -0.005210 -383576.000000 0 0 1
-24.417680 -18.028882 17.466736 35.019288 0.636006 1.048612 0.092841 0.003794 -30704.600000 0 0 1
-25.292360 -17.146982 18.149236 35.540360 0.595774 1.034838 0.096142 0.005096 -241390.000000 0 0 1
-26.080690 -17.881582 19.011236 36.896889 0.601013 1.029493 0.075336 0.011931 -466282.000000 0 0 1
-27.057280 -16.969582 19.769436 37.561865 0.560160 1.016533 0.081463 0.008745 -59260.000000 0 0 1
-26.353160 -16.114582 20.632636 37.146661 0.548822 0.981908 0.084798 0.002881 628306.000000 0 0 1
-27.289220 -15.370782 21.410236 37.938907 0.512963 0.971169 0.088552 -0.008681 508816.000000 0 0 1
-26.552190 -14.644582 22.565836 37.798142 0.504024 0.931029 0.092689 -0.014825 -43644.600000 0 0 1
-25.818500 -13.542082 22.109636 36.589874 0.483063 0.921965 0.103228 -0.013469 847119.000000 0 0 1
-24.754180 -13.200482 23.063636 36.317399 0.489902 0.882713 0.088992 -0.018817 538052.000000 0 0 1
-23.529580 -12.682382 22.315836 34.820690 0.494357 0.875154 0.088334 -0.012613 -683808.000000 0 0 1
-23.643480 -11.422882 21.712536 34.072431 0.450061 0.879876 0.115547 -0.015233 -6862.400000 0 0 1
-22.478680 -10.942182 21.089436 32.707594 0.453016 0.870052 0.099391 -0.017046 -560942.000000 0 0 1
-22.011480 -9.511482 21.568636 32.251815 0.407881 0.838260 0.102145 -0.012242 189147.000000 0 0 1
-21.496080 -9.526782 22.914036 32.831297 0.417174 0.798290 0.097735 -0.014067 803559.000000 0 0 1
-20.122480 -9.909482 22.971536 32.106128 0.457596 0.773475 0.068561 -0.009187 398950.000000 0 0 1
-19.443880 -9.993782 24.386336 32.751084 0.474770 0.730866 0.050853 -0.005302 305937.000000 0 0 1
-19.847780 -11.191182 25.058536 33.868970 0.513415 0.737924 0.048429 -0.007428 -18118.700000 0 0 1
-19.317380 -11.326382 26.353836 34.582839 0.530308 0.704324 0.052786 -0.008836 -768260.000000 0 0 1
-19.657780 -12.606382 27.095336 35.770189 0.570229 0.711346 0.047404 -0.033179 1510650.000000 0 0 1
-20.982380 -12.507682 27.678636 36.916246 0.537550 0.723084 0.046595 -0.022470 1261780.000000 0 0 1
-22.139880 -12.821582 26.888136 37.115214 0.524923 0.760559 0.048283 -0.019085 498450.000000 0 0 1
-23.267780 -13.330282 27.821436 38.640889 0.520260 0.766994 0.044269 -0.025048 -302766.000000 0 0 1
-23.048780 -14.535982 28.507936 39.436575 0.562660 0.762834 0.032395 -0.020954 138711.000000 0 0 1
-22.168580 -14.559882 29.641636 39.775151 0.581127 0.729917 0.029342 -0.018421 157619.000000 0 0 1
-22.559980 -15.661582 30.593236 41.111846 0.606836 0.731540 0.017911 -0.020466 -804280.000000 0 0 1
-22.420880 -17.049182 30.173736 41.277413 0.650134 0.751012 0.030521 -0.015775 -87806.100000 0 0 1
-22.605680 -18.050882 31.204936 42.551135 0.673832 0.747558 0.031306 -0.017421 -57283.500000 0 0 1
-24.022280 -18.166882 31.841136 43.828797 0.647490 0.757598 0.039876 -0.014570 279046.000000 0 0 1
-24.498880 -17.051882 32.628136 44.221681 0.608055 0.740945 0.038873 -0.015681 945551.000000 0 0 1
-25.865250 -17.269082 33.040436 45.375134 0.588687 0.755160 0.051997 -0.024283 1108490.000000 0 0 1
-26.643720 -16.096482 33.697636 45.874995 0.543457 0.745788 0.056832 -0.021879 274079.000000 0 0 1
-26.091480 -15.882082 -33.047744 45.001769 0.546798 2.395528 0.070623 -0.020310 -65438.200000 0 0 1
-26.926490 -15.060582 -32.300744 44.667606 0.509972 2.379128 0.076841 -0.014948 -340868.000000 0 0 1
-26.303220 -14.597482 -30.932444 43.148140 0.506650 2.370127 0.072921 -0.005909 -18424.700000 0 0 1
-26.488150 -15.413982 -29.803944 42.749129 0.527019 2.342256 0.089756 -0.003152 120902.000000 0 0 1
-25.893590 -14.806482 -28.679344 41.378916 0.519441 2.336564 0.099747 -0.006680 -293946.000000 0 0 1
-26.146760 -15.576382 -27.395344 40.948524 0.537273 2.303685 0.090966 -0.011102 917057.000000 0 0 1
-27.515610 -15.516482 -26.918444 41.502682 0.513464 2.276534 0.093436 -0.020618 1244180.000000 0 0 1
-27.937800 -14.401582 -26.175744 40.903494 0.475961 2.265215 0.083342 -0.021289 -379413.000000 0 0 1
-27.315130 -14.332882 -24.776244 39.565264 0.483230 2.247481 0.079964 -0.025331 684081.000000 0 0 1
-25.948050 -13.849382 -24.816544 38.483341 0.490270 2.271642 0.068053 -0.023542 1669590.000000 0 0 1
-25.197290 -14.015482 -23.576644 37.245071 0.507614 2.256236 0.046494 -0.018122 678865.000000 0 0 1
-24.419180 -15.387282 -23.549844 37.251308 0.562281 2.255171 0.048995 -0.016504 441043.000000 0 0 1
-23.205980 -15.506282 -24.320144 37.019342 0.589065 2.287573 0.052145 -0.013518 874617.000000 0 0 1
-22.884980 -16.897482 -24.441244 37.504955 0.636013 2.280594 0.068298 -0.017336 35109.500000 0 0 1
-22.004580 -17.133782 -25.720344 37.938162 0.661584 2.315773 0.053123 -0.014182 363325.000000 0 0 1
-22.662080 -17.247082 -27.007144 39.248153 0.650539 2.329681 0.058734 -0.016133 473074.000000 0 0 1
-23.460380 -18.424382 -27.227544 40.387949 0.665738 2.310610 0.073604 -0.019756 16347.800000 0 0 1
-24.222180 -18.308982 -28.568044 41.690118 0.647252 2.325740 0.069328 -0.014800 -63446.300000 0 0 1
-23.377680 -18.353282 -29.705444 42.021093 0.665575 2.355927 0.062098 -0.004567 476537.000000 0 0 1
-24.157280 -18.069682 -30.875844 43.167179 0.642221 2.367795 0.047354 -0.008477 -385821.000000 0 0 1
-23.655180 -18.651782 -32.237344 44.121456 0.667681 2.390070 0.047175 -0.009247 893952.000000 0 0 1
-22.366280 -18.150382 -32.675344 43.558753 0.681718 2.419076 0.036688 -0.006925 1267310.000000 0 0 1
-21.227780 -18.804182 -32.126544 42.852430 0.724930 2.418408 0.055345 -0.012530 62717.300000 0 0 1
-20.633580 -19.938282 -33.023044 43.747013 0.768262 2.426243 0.068528 -0.015301 -144321.000000 0 0 1
-20.111580 -19.488082 33.760636 43.863898 0.769654 0.692475 0.061390 -0.018234 -41116.200000 0 0 1
-19.705380 -20.505982 32.894736 43.484031 0.805305 0.712884 0.068478 -0.018814 -106531.000000 0 0 1
-20.845580 -21.134382 32.053436 43.687791 0.792278 0.747055 0.062783 -0.014738 -299630.000000 0 0 1
-21.663180 -21.913382 32.888836 45.068450 0.791140 0.752836 0.064170 -0.011355 -75402.000000 0 0 1
-22.868580 -22.314482 32.236236 45.388137 0.773135 0.780965 0.064100 0.001121 221707.000000 0 0 1
-22.744180 -23.458482 31.226536 45.196179 0.800857 0.808048 0.076567 -0.002428 -671045.000000 0 0 1
-22.430380 -24.679182 31.819536 46.094108 0.833098 0.808870 0.080601 0.002251 -22161.800000 0 0 1
-22.283380 -25.742262 30.882636 45.966839 0.857296 0.834098 0.097072 0.000715 185382.000000 0 0 1
-21.748980 -27.014002 31.628936 46.937874 0.892953 0.831394 0.094535 -0.011545 316752.000000 0 0 1
-22.760780 -27.613042 32.409736 48.279645 0.881427 0.834846 0.086373 -0.008226 1914.010000 0 0 1
-22.195680 -28.614652 33.223336 49.145056 0.911064 0.828440 0.091872 -0.013776 -394167.000000 0 0 1
-23.170580 -29.364502 -33.841044 50.441709 0.902757 2.306210 0.079352 -0.007622 19742.700000 0 0 1
-24.142380 -30.080362 33.433036 51.043614 0.894474 0.856627 0.069295 -0.012844 1433600.000000 0 0 1
-25.379890 -29.405572 33.066336 51.011852 0.858747 0.865566 0.060126 -0.006464 993322.000000 0 0 1
-26.412390 -29.063202 -33.852744 51.848745 0.833145 2.282221 0.040694 -0.003749 -747779.000000 0 0 1
-27.339460 -28.137352 33.771036 51.765234 0.799780 0.860065 0.035004 -0.001314 -133699.000000 0 0 1
-28.324680 -27.862072 -33.265144 51.818456 0.777165 2.267842 0.030826 0.010495 606057.000000 0 0 1
-29.556810 -27.011742 -33.668344 52.314402 0.740438 2.269959 0.022569 0.003202 538850.000000 0 0 1
-30.484480 -27.628192 33.474936 53.039531 0.736287 0.887785 0.030592 -0.004486 -352219.000000 0 0 1
-31.449780 -26.760892 32.995336 52.857603 0.705021 0.896650 0.028808 -0.006585 -508979.000000 0 0 1
