# x y z rho theta phi s1 s2 stress_xx np intf bulk
-0.828322 -10.620116 -14.386539 17.900992 1.492958 2.504238 -0.004416 -0.001540 883718.000000 1 0 0
2.018378 -13.352516 -13.026939 18.763387 -1.420771 2.338208 -0.001670 0.006841 825124.000000 1 0 0
2.070778 -11.095716 -14.744139 18.568594 -1.386290 2.488217 -0.007322 0.004760 -334917.000000 1 0 0
-5.548622 -6.259516 -16.479639 18.480997 0.845529 2.671900 0.007626 -0.000136 -1215510.000000 1 0 0
4.495878 -14.080216 -11.548339 18.757120 -1.261724 2.234042 0.000003 0.008627 1351190.000000 1 0 0
13.946078 -10.755016 -7.875439 19.292123 -0.656923 1.991300 0.015256 0.007006 -729167.000000 1 0 0
6.939978 10.805184 -10.906339 16.848250 0.999866 2.274870 0.012377 -0.004884 85130.000000 1 0 0
5.723178 -4.172016 -12.608639 14.461614 -0.629905 2.629803 -0.003055 0.000766 2647610.000000 1 0 0
13.722678 0.456184 -10.117739 17.055458 0.033231 2.205856 0.007619 0.001625 1469490.000000 1 0 0
14.037678 4.965284 -10.377339 18.149370 0.339977 2.179463 0.005016 -0.004206 204188.000000 1 0 0
4.094778 4.299584 -13.544539 14.788785 0.809791 2.728455 0.006378 -0.001851 1054050.000000 1 0 0
10.289078 -5.035316 -13.756239 17.901219 -0.455119 2.447216 0.020000 -0.000649 97620.600000 1 0 0
2.521378 -7.567416 -12.049539 14.450416 -1.249176 2.556850 -0.004621 0.001784 720926.000000 1 0 0
-5.531022 -1.976516 -15.171739 16.269004 0.343209 2.772222 0.006947 0.000565 966798.000000 1 0 0
10.721178 0.076684 -9.752139 14.493231 0.007152 2.308885 0.003713 -0.000319 3515530.000000 1 0 0
-1.687622 -9.559516 -16.959339 19.541024 1.396058 2.621723 -0.001136 -0.002828 554600.000000 1 0 0
8.642578 1.643484 -17.825239 19.877987 0.187918 2.683127 0.016309 -0.000983 244256.000000 1 0 0
16.418778 -5.889216 -8.886839 19.576390 -0.344393 2.041998 0.013402 0.002771 -525128.000000 1 0 0
10.140278 7.586684 -9.993139 16.132137 0.642331 2.238845 0.010204 -0.000955 422785.000000 1 0 0
13.786478 -2.313316 -10.761039 17.641382 -0.166247 2.226842 0.013137 0.004696 -918777.000000 1 0 0
7.209178 -1.846916 -13.748939 15.633831 -0.250796 2.645470 0.005283 -0.006291 -295370.000000 1 0 0
-2.793622 6.661184 -13.752039 15.533650 -1.173688 2.657949 0.000344 -0.003326 -378175.000000 1 0 0
11.238278 1.647884 -13.961239 17.998073 0.145594 2.458632 0.007964 -0.001191 410158.000000 1 0 0
-2.285922 10.693784 -12.868839 16.887554 -1.360204 2.437240 -0.001031 0.001113 -2176260.000000 1 0 0
2.802678 -1.041416 -15.200939 15.492195 -0.355768 2.947380 0.002644 -0.007251 -368405.000000 1 0 0
-9.027322 0.468184 -15.172839 17.661449 -0.051817 2.604293 0.000560 0.002871 -1043660.000000 1 0 0
2.316778 -1.739116 -18.006439 18.237978 -0.643924 2.982079 0.011723 -0.013329 547613.000000 1 0 0
1.066278 7.818184 -13.128439 15.317208 1.435248 2.600418 0.002985 -0.005767 -820957.000000 1 0 0
9.372678 -9.222316 -10.008139 16.524559 -0.777312 2.221382 0.009046 0.009669 -296836.000000 1 0 0
3.924378 7.275784 -13.558239 15.879661 1.076147 2.594060 0.000022 -0.002556 1661760.000000 1 0 0
-2.656222 9.147284 -15.451539 18.151539 -1.288185 2.589163 -0.005236 -0.001312 309281.000000 1 0 0
5.444778 -7.572516 -15.295639 17.914943 -0.947420 2.594023 -0.008949 0.003344 321049.000000 1 0 0
4.198278 7.289984 -16.430939 18.459284 1.048288 2.668400 0.010629 0.000231 -868980.000000 1 0 0
-0.213422 5.098884 -13.468539 14.402976 -1.528964 2.779399 0.004722 -0.006982 2493230.000000 1 0 0
8.682578 4.370484 -16.748839 19.365224 0.466334 2.615733 0.013275 0.008749 201423.000000 1 0 0
5.281578 0.300384 -14.348639 15.292768 0.056813 2.788371 0.003276 -0.002951 1136700.000000 1 0 0
6.241878 7.887184 -11.661839 15.400234 0.901324 2.429890 0.001209 -0.000760 104269.000000 1 0 0
2.683278 -8.313316 -15.038639 17.391719 -1.258584 2.615351 -0.010433 -0.001105 403631.000000 1 0 0
3.881478 11.524784 -13.844339 18.426943 1.245934 2.420841 0.002389 -0.003282 -1385300.000000 1 0 0
0.591178 -4.468116 -13.691139 14.413912 -1.439250 2.823571 0.000440 -0.002408 1592980.000000 1 0 0
8.507878 -0.026416 -11.760639 14.515417 -0.003105 2.515319 0.001078 -0.003606 115805.000000 1 0 0
-0.870922 -5.116816 -16.250639 17.059414 1.402204 2.832437 0.002889 -0.006089 221359.000000 1 0 0
4.405478 1.002984 -11.709539 12.550997 0.223852 2.773338 0.006511 -0.006521 339063.000000 1 0 0
-2.945022 -7.231816 -15.564239 17.413152 1.184072 2.676591 0.002137 -0.002966 1195070.000000 1 0 0
11.418078 -3.855516 -11.456239 16.627776 -0.325646 2.330880 0.016488 0.001780 891192.000000 1 0 0
6.487378 -7.050616 -12.552839 15.791486 -0.826978 2.489659 -0.004915 0.006643 -1166710.000000 1 0 0
3.415678 -4.003316 -14.625839 15.543763 -0.864440 2.796210 -0.000448 -0.002660 805685.000000 1 0 0
-0.626222 -1.479716 -18.313239 18.383592 1.170448 3.054079 0.011576 -0.011527 322126.000000 1 0 0
14.882278 2.863484 -8.545439 17.398456 0.190086 2.084218 0.003988 0.001393 -1000050.000000 1 0 0
6.901678 4.325284 -14.389639 16.534901 0.559821 2.626523 0.009187 0.002093 2845610.000000 1 0 0
9.931978 -9.776016 -14.235339 19.921334 -0.777485 2.366816 0.019181 0.006885 -80080.100000 1 0 0
8.903178 -3.164416 -15.659439 18.289291 -0.341500 2.598681 0.015821 -0.011065 45230.000000 1 0 0
-5.418922 -2.003016 -18.105539 19.004930 0.354058 2.832717 0.000487 0.009819 -231433.000000 1 0 0
5.072878 -9.086116 -11.147539 15.249893 -1.061595 2.390570 -0.003973 0.005557 2880070.000000 1 0 0
-2.555422 4.074484 -17.194939 17.854902 -1.010633 2.868856 0.011255 0.001338 623248.000000 1 0 0
9.422578 9.335684 -14.543939 19.684160 0.780766 2.402181 0.022661 0.001402 -780592.000000 1 0 0
9.737578 10.035584 -11.700239 18.232635 0.800468 2.267535 0.015528 -0.000930 335637.000000 1 0 0
12.002378 -5.946816 -9.717239 16.548306 -0.460017 2.198397 0.016911 0.004835 -213916.000000 1 0 0
8.159578 6.860784 -13.672039 17.337062 0.699144 2.479328 0.010126 0.004986 -115959.000000 1 0 0
3.862078 -4.227316 -17.560839 18.470759 -0.830518 2.826402 0.003872 -0.010669 488425.000000 1 0 0
9.269178 -7.583816 -12.479439 17.296483 -0.685726 2.376765 0.011717 0.006310 -674391.000000 1 0 0
11.981378 -8.716116 -8.879239 17.273245 -0.628927 2.110691 0.013379 0.009025 402825.000000 1 0 0
-2.910622 -2.485516 -13.962039 14.477156 0.706781 2.874032 0.003323 -0.004597 -3660410.000000 1 0 0
-0.341522 6.194184 -17.610739 18.671440 -1.515716 2.802904 0.017386 -0.003563 778939.000000 1 0 0
1.017378 -8.463516 -17.470439 19.439198 -1.451163 2.687643 -0.006014 -0.005007 1410790.000000 1 0 0
0.083278 8.518384 -15.964539 18.095201 1.561020 2.651422 0.001340 -0.001958 -646249.000000 1 0 0
1.740778 3.419684 -15.007439 15.490248 1.099938 2.891266 0.010951 -0.002878 1278780.000000 1 0 0
-1.901022 -0.366216 -15.863639 15.981334 0.190310 3.020155 0.009910 -0.004060 150349.000000 1 0 0
14.097378 -4.225816 -8.535839 17.013352 -0.291236 2.096376 0.013951 0.002489 49547.800000 1 0 0
0.517978 0.650084 -14.607839 14.631469 0.898018 3.084752 0.007373 -0.004982 736933.000000 1 0 0
8.812878 2.765684 -12.684539 15.691187 0.304090 2.512202 0.006404 -0.000941 1207550.000000 1 0 0
5.874978 0.938684 -17.107739 18.112737 0.158437 2.806909 0.014304 -0.000042 -274327.000000 1 0 0
15.372578 1.580784 -12.380039 19.801020 0.102471 2.246213 0.009335 -0.002012 -698897.000000 1 0 0
8.765878 -11.351216 -12.065939 18.742402 -0.913212 2.270221 0.012774 0.009035 737061.000000 1 0 0
-4.611622 0.798484 -15.126739 15.834231 -0.171446 2.841533 0.007902 0.000924 1757590.000000 1 0 0
2.418378 5.106784 -17.340939 18.238310 1.128522 2.826596 0.010385 -0.000491 3597230.000000 1 0 0
5.917278 -11.721316 -12.468039 18.106779 -1.103292 2.330331 -0.002887 0.008241 -1274990.000000 1 0 0
12.794078 7.122684 -8.655339 17.009878 0.507986 2.104635 0.007324 -0.002288 13742.900000 1 0 0
-5.102922 3.644284 -15.686639 16.893527 -0.620164 2.761308 0.005331 0.002688 2171660.000000 1 0 0
-0.699122 -4.314716 -19.073039 19.567483 1.410160 2.916312 0.010467 -0.010486 -485322.000000 1 0 0
9.758778 4.421084 -10.360939 14.903986 0.425376 2.339465 -0.000727 0.003089 2313710.000000 1 0 0
13.221678 3.536084 -12.897939 18.806209 0.261330 2.326546 0.003201 -0.003776 677658.000000 1 0 0
-6.085522 5.973684 -17.093939 19.102912 -0.776124 2.678856 -0.005878 0.004565 -1006950.000000 1 0 0
-10.207922 3.201384 -15.381639 18.736205 -0.303903 2.533883 0.000329 0.003866 -272992.000000 1 0 0
10.722978 13.530484 -8.472439 19.231185 0.900642 2.027016 0.031107 0.002999 -825113.000000 1 0 0
7.300978 13.422384 -12.359239 19.652365 1.072617 2.250925 0.020902 -0.006509 -78116.000000 1 0 0
5.193278 15.087784 -11.155139 19.469168 1.239294 2.180915 0.010128 -0.011981 587121.000000 1 0 0
14.134578 9.513684 -9.803739 19.657308 0.592429 2.092932 0.023495 -0.002468 -1875460.000000 1 0 0
8.186778 -17.388516 -2.191439 19.343894 -1.130768 1.684328 0.003408 0.004411 -398604.000000 1 0 0
0.614478 -15.929416 -0.066539 15.941403 -1.532240 1.574970 0.004406 -0.006825 1513820.000000 1 0 0
-9.052822 -11.669116 7.561761 16.592230 0.910991 1.097592 0.005529 -0.006324 -591354.000000 1 0 0
1.945678 -15.892516 -2.641339 16.227582 -1.448975 1.734292 0.002940 -0.003529 3664700.000000 1 0 0
-1.395922 -11.019716 -9.494139 14.612372 1.444792 2.278029 0.005081 -0.001587 95236.000000 1 0 0
-4.923122 -12.636416 -13.002139 18.787543 1.199289 2.335138 0.011959 -0.000558 -1003970.000000 1 0 0
-8.149622 -17.712216 -1.793239 19.579445 1.139564 1.662513 0.006232 -0.011921 -825639.000000 1 0 0
-11.419622 -7.090916 -8.878939 16.109762 0.555675 2.154541 0.009742 -0.001331 2129430.000000 1 0 0
-13.560922 -11.457116 -4.584739 18.335320 0.701504 1.823528 -0.002880 -0.000980 -2155600.000000 1 0 0
-5.694322 -13.404616 9.664461 17.478868 1.169092 0.984929 0.001457 -0.007849 84227.000000 1 0 0
0.085278 -13.973816 -3.779239 14.476100 -1.564694 1.834924 0.002590 -0.002375 -550993.000000 1 0 0
-14.749222 -11.532616 1.948761 18.823880 0.663615 1.467085 0.002235 -0.001755 889100.000000 1 0 0
-3.969422 -16.454316 -7.533339 18.527062 1.334080 1.989540 -0.001073 -0.003968 1431620.000000 1 0 0
0.414878 -15.215716 -9.351739 17.864635 -1.543537 2.121724 0.004218 0.006874 1764950.000000 1 0 0
4.421778 -14.195716 -2.641139 15.101195 -1.268835 1.746597 -0.004854 0.003702 297394.000000 1 0 0
-3.585422 -18.049316 -2.449239 18.564263 1.374703 1.703115 -0.003922 -0.009111 961550.000000 1 0 0
-0.945022 -13.439316 0.701861 13.490771 1.500594 1.518748 -0.000012 -0.001228 2363370.000000 1 0 0
-8.594422 -11.300916 -10.490839 17.653116 0.920605 2.207163 0.011933 -0.005745 2457150.000000 1 0 0
-3.761322 -14.069116 -0.405739 14.568878 1.309560 1.598650 -0.005350 -0.000025 5524290.000000 1 0 0
-1.542722 -14.883416 -7.338539 16.665840 1.467511 2.026767 -0.003766 0.003300 1201540.000000 1 0 0
-14.194022 -7.935716 -1.717639 16.352252 0.509794 1.676030 0.000952 0.001660 1023230.000000 1 0 0
-10.820622 -7.249816 -11.687339 17.499703 0.590307 2.302125 0.009801 -0.001886 1885160.000000 1 0 0
-9.445022 -14.641216 6.794161 18.701184 0.997875 1.198988 0.000700 -0.002448 -746524.000000 1 0 0
-2.674522 -14.301816 -12.351239 19.085286 1.385926 2.274650 0.016886 -0.002460 -931855.000000 1 0 0
2.317478 -17.876216 -4.675539 18.622311 -1.441875 1.824584 0.005025 -0.004892 23790.100000 1 0 0
-6.687122 -9.629516 -9.218139 14.913728 0.963812 2.237117 0.008701 -0.004526 1192300.000000 1 0 0
-10.957722 -15.410016 0.537161 18.916364 0.952674 1.542396 0.000671 -0.007169 722808.000000 1 0 0
-12.584222 -10.964016 3.991061 17.161027 0.716703 1.336082 0.008716 -0.007822 3262720.000000 1 0 0
-17.017122 -8.943716 -1.596639 19.290458 0.483895 1.653659 -0.003963 0.004476 806055.000000 1 0 0
-1.477022 -19.211116 -4.014539 19.681593 1.494064 1.776212 -0.005924 -0.005469 -163374.000000 1 0 0
3.179778 -14.273316 -8.877939 17.107202 -1.351598 2.116429 0.000509 0.011452 1349260.000000 1 0 0
-4.369122 -8.009216 -13.062439 15.933113 1.071405 2.531910 0.005759 -0.002012 1314230.000000 1 0 0
5.454678 -16.660016 1.167961 17.569115 -1.254385 1.504269 0.006494 -0.003651 4106130.000000 1 0 0
-2.800922 -13.717216 -3.248139 14.372112 1.369375 1.798769 -0.001938 -0.003436 -881522.000000 1 0 0
-0.423322 -13.967116 3.663261 14.445727 1.540497 1.314409 -0.004034 0.002802 -4379920.000000 1 0 0
1.184078 -16.203916 6.948061 17.670441 -1.497852 1.166684 0.001519 -0.003519 59541.000000 1 0 0
-5.611522 -10.308516 -14.668139 18.785872 1.072295 2.466753 0.013944 -0.003235 -2116340.000000 1 0 0
-0.317222 -17.315116 -5.932639 18.306012 1.552478 1.900837 0.002328 0.000239 573979.000000 1 0 0
-6.536222 -13.303416 -1.282539 14.877768 1.114118 1.657109 0.002491 -0.005189 3015400.000000 1 0 0
-1.696822 -17.783216 -0.246839 17.865691 1.475667 1.584613 -0.004088 -0.001955 1897380.000000 1 0 0
-9.503822 -9.750416 -4.811339 14.440992 0.798205 1.910463 0.009788 -0.006831 1934750.000000 1 0 0
-0.880622 -16.670916 4.823461 17.377017 1.518022 1.289525 0.000935 -0.003108 2751430.000000 1 0 0
-6.761122 -9.831916 -6.297939 13.492346 0.968393 2.056441 0.014323 -0.007785 4160380.000000 1 0 0
-6.149122 -14.534916 -8.613239 17.979527 1.170571 2.070378 0.008816 -0.008029 -825483.000000 1 0 0
-5.844722 -12.095816 -10.305039 16.931137 1.120677 2.225147 0.009190 -0.005815 720073.000000 1 0 0
-10.696322 -12.325016 -8.766839 18.524978 0.856028 2.063766 0.011875 -0.010523 115059.000000 1 0 0
4.002278 -17.094416 6.376461 18.678773 -1.340811 1.222417 0.014071 -0.003854 1901100.000000 1 0 0
-6.730722 -14.302116 -4.151439 16.342815 1.130936 1.827633 0.006745 -0.011180 -519102.000000 1 0 0
-2.867222 -12.159316 -7.130439 14.384474 1.339222 2.089441 0.006854 -0.003418 3148430.000000 1 0 0
-6.966422 -12.748316 4.433261 15.188957 1.070676 1.274611 -0.000001 -0.002145 908117.000000 1 0 0
2.472078 -16.448116 2.275961 16.787844 -1.421617 1.434806 -0.000194 -0.005032 3979350.000000 1 0 0
-6.147222 -11.855616 7.188961 15.166579 1.092453 1.076968 -0.001367 -0.001306 2045440.000000 1 0 0
-11.240222 -12.864616 -0.893139 17.106684 0.852685 1.623030 0.005285 -0.004158 -411086.000000 1 0 0
-14.247522 -8.704916 4.541961 17.303088 0.548452 1.305190 0.007344 -0.005034 -28891.700000 1 0 0
-7.897122 -15.549016 4.489361 18.008076 1.100860 1.318842 -0.002116 0.003338 877384.000000 1 0 0
-16.551222 -9.090916 1.231161 18.923622 0.502275 1.505691 -0.004105 0.005526 -71569.000000 1 0 0
-6.636122 -17.006916 2.292361 18.399137 1.198765 1.445881 -0.003124 -0.002223 2148100.000000 1 0 0
-11.606022 -14.921616 -4.622939 19.460883 0.909740 1.810640 0.012679 -0.004401 -181631.000000 1 0 0
-10.140122 -9.913416 -12.635039 18.993212 0.774094 2.298611 0.010027 -0.000681 -741027.000000 1 0 0
-4.390022 -15.951916 -4.535839 17.155459 1.302241 1.838374 -0.002533 -0.007548 -445080.000000 1 0 0
-11.764322 -8.234816 0.052561 14.360161 0.610714 1.567136 0.004648 -0.002790 1240220.000000 1 0 0
-9.539222 -11.159916 3.520561 15.097511 0.863536 1.335441 0.002872 -0.002058 2314030.000000 1 0 0
-14.193922 -12.876916 -0.564639 19.172929 0.736786 1.600250 -0.000396 0.000620 924003.000000 1 0 0
5.451478 -14.885216 -7.117439 17.376600 -1.219733 1.992811 -0.006610 0.001198 324691.000000 1 0 0
-7.562222 -10.540316 -1.278039 13.035293 0.948450 1.668999 -0.000428 -0.003710 1977870.000000 1 0 0
-11.595322 -8.129416 -6.037939 15.394662 0.611460 1.973829 0.001109 -0.004496 607513.000000 1 0 0
-14.429022 -6.722116 -9.203839 18.387338 0.435977 2.095034 0.002925 -0.003138 2056410.000000 1 0 0
-3.909022 -16.466416 1.315361 16.975084 1.337717 1.493231 -0.006997 -0.001189 1786890.000000 1 0 0
-7.912222 -15.468216 0.105261 17.374696 1.097979 1.564738 0.005356 -0.007053 1849320.000000 1 0 0
0.867278 -18.653816 3.547561 19.007952 -1.524336 1.383060 0.000513 -0.005672 643820.000000 1 0 0
-14.095222 -8.620216 -4.509939 17.126674 0.548884 1.837267 -0.003257 -0.003548 382848.000000 1 0 0
-3.310322 -14.404216 11.137561 18.506349 1.344903 0.925014 0.002363 -0.014075 497133.000000 1 0 0
-10.842122 -12.121816 -3.729139 16.685219 0.841067 1.796200 0.009493 -0.007199 1328770.000000 1 0 0
-10.009222 -10.671216 0.553061 14.641218 0.817398 1.533013 0.005324 -0.001359 724083.000000 1 0 0
-0.252522 -13.091916 -11.219339 17.243422 1.551510 2.279229 0.006623 0.001210 2166470.000000 1 0 0
-5.918022 -12.589416 -6.376539 15.302831 1.131371 2.000598 0.001597 -0.007815 1605490.000000 1 0 0
1.795378 -15.964516 9.817961 18.827679 -1.458806 1.022230 0.002764 -0.000545 366944.000000 1 0 0
-8.999222 -15.583516 -5.553639 18.832814 1.047098 1.870138 0.018957 -0.009826 962297.000000 1 0 0
-3.287422 -15.477316 5.932161 16.898077 1.361504 1.212098 -0.004796 0.005288 -45470.500000 1 0 0
-17.426422 -5.434416 -6.423339 19.351288 0.302292 1.909149 -0.002041 -0.001978 -273778.000000 1 0 0
18.897878 5.608584 -2.778139 19.907387 0.288504 1.710806 -0.008881 0.017398 74084.000000 1 0 0
12.743278 -12.534916 -5.885239 18.818908 -0.777156 1.888862 0.015104 0.002860 -1019390.000000 1 0 0
10.861978 -13.584216 -1.735039 17.479241 -0.896298 1.670223 0.009570 -0.000407 693933.000000 1 0 0
18.685078 -2.974616 4.586861 19.468430 -0.157873 1.332955 0.007584 -0.009905 -1126450.000000 1 0 0
8.474378 -16.883316 4.912261 19.519010 -1.105600 1.316396 0.016039 -0.005950 -587168.000000 1 0 0
18.145478 -1.068416 6.616161 19.343564 -0.058813 1.221716 0.029685 -0.008646 -324557.000000 1 0 0
17.953178 -4.296716 -5.104839 19.153009 -0.234910 1.840587 0.007212 0.003116 1446210.000000 1 0 0
5.363178 -11.743816 14.790761 19.632817 -1.142400 0.717626 0.001479 -0.005013 72767.800000 1 0 0
15.896578 -8.902416 -0.832439 18.238617 -0.510504 1.616454 0.013182 0.003666 -538722.000000 1 0 0
13.674878 -12.614116 -1.440039 18.659902 -0.745070 1.648046 0.013239 0.001666 1184510.000000 1 0 0
11.262178 -2.093816 13.759661 17.903882 -0.183817 0.694257 0.009012 -0.006212 -2339990.000000 1 0 0
16.850578 -6.199116 -1.392539 18.008614 -0.352520 1.648200 0.005086 0.000655 -1725620.000000 1 0 0
17.818878 3.657784 -0.824839 18.209123 0.202463 1.616110 -0.007930 0.007647 -616417.000000 1 0 0
9.686778 -11.065416 9.506561 17.511476 -0.851734 0.996938 0.014531 -0.002541 -1009300.000000 1 0 0
8.982478 -11.113016 4.295361 14.920930 -0.891024 1.278789 0.002167 0.001781 -660474.000000 1 0 0
14.064878 -10.179016 6.974561 18.710362 -0.626468 1.188810 0.017351 -0.002311 576061.000000 1 0 0
16.308478 -0.517316 -4.686239 16.976304 -0.031710 1.850474 -0.000969 0.007105 929738.000000 1 0 0
15.735078 -0.486616 -1.678639 15.831845 -0.030916 1.677025 -0.003161 0.004432 -66948.400000 1 0 0
12.855178 -5.127316 -0.243639 13.842122 -0.379517 1.588399 0.003382 -0.001865 785608.000000 1 0 0
14.254378 -7.536416 1.050061 16.158202 -0.486350 1.505764 0.010945 -0.000379 1372580.000000 1 0 0
15.586478 2.421584 3.622761 16.184151 0.154132 1.345037 0.009274 -0.005280 899231.000000 1 0 0
15.836678 -7.084216 5.089461 18.080075 -0.420631 1.285444 0.017966 -0.006619 -1303820.000000 1 0 0
13.580478 -12.077516 3.377961 18.485302 -0.726888 1.387026 0.015661 -0.003196 1034950.000000 1 0 0
14.027578 -0.969116 9.140361 16.770758 -0.068977 0.994386 0.017280 -0.008113 -595206.000000 1 0 0
14.183078 -2.813816 -1.593339 14.547027 -0.195849 1.680547 -0.002216 0.003396 703302.000000 1 0 0
15.020278 1.808584 9.134461 17.672524 0.119833 1.027602 0.026654 -0.007420 -2555380.000000 1 0 0
14.247478 -10.171216 -2.989639 17.759004 -0.619991 1.739947 0.015278 0.003411 475966.000000 1 0 0
7.200178 -12.631516 6.123961 15.776586 -1.052715 1.172154 0.000876 -0.001804 809341.000000 1 0 0
12.534078 -4.661016 7.032761 15.109199 -0.356022 1.086640 0.007363 -0.001689 1746780.000000 1 0 0
14.900378 -9.058216 -5.714839 18.350257 -0.546222 1.887495 0.020456 0.004083 92344.900000 1 0 0
14.346578 -4.481716 4.674661 15.740474 -0.302784 1.269264 0.009320 -0.003917 469814.000000 1 0 0
17.048778 -4.341216 0.976261 17.619877 -0.249336 1.515361 0.001077 -0.006890 -2649470.000000 1 0 0
10.177778 -14.511916 1.086361 17.758464 -0.959172 1.509584 0.018279 -0.001169 390898.000000 1 0 0
16.454278 -2.474116 8.568361 18.715804 -0.149245 1.095261 0.026762 -0.008612 980210.000000 1 0 0
16.068178 -2.587716 3.163261 16.579772 -0.159675 1.378829 0.006962 -0.007114 2842430.000000 1 0 0
7.787478 -15.246416 2.593961 17.315503 -1.098566 1.420425 0.007473 -0.003395 3774040.000000 1 0 0
16.572778 -6.983916 7.882161 19.635695 -0.398825 1.157730 0.023484 -0.003000 -1367290.000000 1 0 0
10.240578 -8.580616 5.156061 14.320662 -0.697429 1.202482 0.002652 0.001014 2222640.000000 1 0 0
10.842878 -11.909016 2.173461 16.251665 -0.832223 1.436657 0.009707 -0.001369 1997300.000000 1 0 0
12.304778 -7.402916 12.078161 18.764133 -0.541617 0.871495 0.006150 -0.007251 660350.000000 1 0 0
14.980678 -9.793316 4.354561 18.419879 -0.578993 1.332132 0.009911 -0.006873 651504.000000 1 0 0
7.361078 -10.297516 7.819261 14.878345 -0.950180 1.017439 0.000309 0.002962 41256.900000 1 0 0
15.184378 -3.290916 -4.413539 16.151619 -0.213430 1.847573 0.004643 0.003106 529309.000000 1 0 0
11.752178 -9.114216 9.823861 17.823885 -0.659644 0.987039 0.003621 -0.003940 -3104480.000000 1 0 0
16.887478 -6.767216 2.465561 18.359224 -0.381130 1.436094 0.016295 -0.000295 714210.000000 1 0 0
17.651878 4.047084 2.153661 18.237487 0.225377 1.452430 0.004665 0.000301 1881500.000000 1 0 0
14.776778 -4.843416 8.874161 17.904261 -0.316737 1.052219 0.017485 -0.003586 653506.000000 1 0 0
12.769878 -12.687916 6.197861 19.038552 -0.782179 1.239211 0.013236 0.002396 -2223540.000000 1 0 0
18.154378 0.706984 -0.687939 18.181158 0.038923 1.608643 -0.007658 0.003768 76277.500000 1 0 0
11.724278 -2.160416 10.876461 16.137642 -0.182224 0.831212 0.009234 -0.005723 1390280.000000 1 0 0
5.763678 -12.477016 10.587261 17.348948 -1.138055 0.914415 -0.005859 0.001216 -2253570.000000 1 0 0
10.799778 -5.049116 11.153761 16.325904 -0.437328 0.818669 0.007859 -0.001707 1239450.000000 1 0 0
17.840578 1.240484 4.987161 18.566012 0.069420 1.298839 0.023150 -0.011490 -1843130.000000 1 0 0
12.277478 -7.787616 7.246061 16.244655 -0.565260 1.108440 0.009753 -0.001976 -843081.000000 1 0 0
10.625878 -7.925716 14.384461 19.561160 -0.640864 0.744601 0.011013 -0.006551 -1281060.000000 1 0 0
14.255978 -0.281916 3.621061 14.711372 -0.019773 1.322100 0.005406 -0.005829 522987.000000 1 0 0
11.625278 -7.653616 2.501961 14.141596 -0.582230 1.392938 0.004360 0.001949 1929310.000000 1 0 0
9.256178 6.010384 3.497661 11.577356 0.575909 1.263889 0.002664 -0.001932 1406840.000000 1 0 0
-3.911122 14.772284 -9.798539 18.152923 -1.311974 2.140969 -0.006505 0.000042 1008120.000000 1 0 0
8.881778 -6.520716 9.383161 14.472368 -0.633291 0.865381 0.008744 -0.000843 -241576.000000 1 0 0
5.861478 -10.618916 -8.550339 14.840034 -1.066431 2.184828 -0.006713 0.004325 971801.000000 1 0 0
5.361378 0.994984 0.451361 5.471571 0.183496 1.488211 0.001144 0.001534 4060120.000000 1 0 0
-0.504522 9.913984 10.929061 14.764348 -1.519950 0.737379 -0.002628 0.004531 -1352050.000000 1 0 0
-6.295622 -5.164016 1.077261 8.213551 0.686970 1.439261 0.006022 -0.003585 3267020.000000 1 0 0
-1.124722 3.941684 -10.846039 11.594759 -1.292842 2.780259 0.009268 -0.005399 989415.000000 1 0 0
10.957578 5.722784 1.267661 12.426815 0.481302 1.468608 0.004016 -0.001448 2852210.000000 1 0 0
-10.057222 -1.814416 -13.597539 17.009788 0.178489 2.497084 0.007275 -0.005095 1509500.000000 1 0 0
7.475478 10.886884 -6.114739 14.553249 0.969086 2.004421 0.009809 -0.001974 866259.000000 1 0 0
-12.437622 -2.907716 -9.597339 15.976801 0.229659 2.215179 0.008676 -0.005525 1871920.000000 1 0 0
-3.916622 -8.598216 2.352061 9.736603 1.143365 1.326814 0.003397 -0.001335 -347111.000000 1 0 0
8.033178 -6.762716 -5.869639 12.029919 -0.699742 2.080502 -0.003997 0.002654 2884850.000000 1 0 0
14.388078 3.185984 -4.159439 15.312355 0.217916 1.845892 0.005428 0.003448 2346450.000000 1 0 0
-2.491922 -4.918416 9.793461 11.238877 1.101842 0.512765 0.000021 0.001323 2647930.000000 1 0 0
3.527378 -1.892516 -4.595739 6.094656 -0.492437 2.425019 0.003627 -0.000451 -976239.000000 1 0 0
-3.989622 8.431184 -3.395539 9.926310 -1.128819 1.919920 0.001014 -0.003214 238452.000000 1 0 0
5.860978 0.020984 11.753161 13.133480 0.003580 0.462588 0.000200 -0.000674 763921.000000 1 0 0
7.139978 4.734584 12.338861 15.021420 0.585536 0.606904 -0.000772 0.006098 507371.000000 1 0 0
1.188978 -14.556916 12.371861 19.141066 -1.489299 0.868003 -0.002708 -0.002301 827332.000000 1 0 0
3.009978 8.737184 -9.102939 12.971579 1.239028 2.348662 0.003911 -0.004185 884275.000000 1 0 0
-4.400122 -8.818516 -4.543039 10.852028 1.107978 2.002738 0.009020 -0.005950 426188.000000 1 0 0
5.680578 -6.642716 -3.989339 9.607782 -0.863315 1.998981 -0.000739 -0.001548 1869670.000000 1 0 0
-3.093022 3.412984 8.640861 9.791819 -0.834538 0.489736 -0.001762 0.000931 2147860.000000 1 0 0
-3.866122 3.140584 -11.081239 12.149240 -0.682217 2.719157 0.003345 -0.005765 -1022960.000000 1 0 0
2.981078 -6.115016 8.534961 10.914477 -1.117198 0.672952 -0.001066 0.002474 869528.000000 1 0 0
-5.121022 -8.643016 10.504161 14.534923 1.035907 0.763118 0.005515 -0.003461 1253030.000000 1 0 0
-13.236022 -2.417616 6.567561 14.972308 0.180663 1.116704 -0.001021 -0.003049 -194929.000000 1 0 0
3.972378 -5.896216 -8.335739 10.955807 -0.977929 2.435420 0.003697 -0.000807 1677170.000000 1 0 0
2.998878 -0.542616 12.425761 12.794031 -0.179003 0.240515 -0.002476 -0.000982 579426.000000 1 0 0
1.510678 -1.474416 -7.533639 7.823795 -0.773251 2.868397 0.006177 -0.005047 -532286.000000 1 0 0
3.645078 -3.551516 3.336261 6.085269 -0.772398 0.990524 0.001070 -0.000224 1640320.000000 1 0 0
1.498278 0.432184 -11.866039 11.968062 0.280830 3.010927 0.006098 -0.008061 -86082.900000 1 0 0
3.984978 3.677084 -10.667039 11.966065 0.745236 2.671311 0.004392 -0.004221 402148.000000 1 0 0
2.830678 3.232584 3.367461 5.459132 0.851587 0.906063 -0.005630 0.003310 -448903.000000 1 0 0
-5.241022 0.883584 2.567161 5.902486 -0.167019 1.120837 0.005555 -0.002640 1189290.000000 1 0 0
-9.350722 -9.218316 5.746861 14.333170 0.778268 1.158245 0.005605 -0.003282 -1221630.000000 1 0 0
-3.038122 3.857784 -0.543439 4.940446 -0.903705 1.681017 0.002548 -0.003200 -72565.000000 1 0 0
-15.839622 -6.526616 4.968761 17.837571 0.390846 1.288506 0.002477 -0.002770 -525634.000000 1 0 0
0.986378 6.734884 -8.120639 10.596055 1.425372 2.443988 0.006183 -0.005258 491438.000000 1 0 0
-1.703422 6.496684 -9.424839 11.573078 -1.314370 2.522450 0.004670 -0.004681 1226860.000000 1 0 0
2.097778 -0.378716 5.228161 5.646040 -0.178608 0.387154 -0.003450 0.002007 2488140.000000 1 0 0
-3.406422 -0.668816 -6.335939 7.224621 0.193874 2.640363 0.009682 -0.008405 176461.000000 1 0 0
1.962778 -1.190416 -2.428139 3.341474 -0.545182 2.384254 0.007824 -0.001027 825837.000000 1 0 0
2.450278 -8.612216 -7.649739 11.776784 -1.293609 2.277803 -0.000989 0.000703 3994180.000000 1 0 0
-2.455422 14.009284 -5.466739 15.237269 -1.397288 1.937751 -0.004131 0.001073 3700750.000000 1 0 0
6.851778 -5.134916 -8.214839 11.865825 -0.643135 2.335483 -0.000925 0.002497 2527060.000000 1 0 0
-14.149022 -4.975316 -2.125039 15.148082 0.338132 1.711545 0.005308 -0.003766 -1675430.000000 1 0 0
-2.817422 6.881584 -6.743339 10.038261 -1.182200 2.307383 0.003310 -0.003936 -1128920.000000 1 0 0
-5.684422 -1.169316 -8.110739 9.973166 0.202875 2.520523 0.009094 -0.011005 -488748.000000 1 0 0
-5.706922 -10.585416 3.356361 12.485398 1.076336 1.298626 0.001991 -0.001664 -2967570.000000 1 0 0
8.119178 -7.579816 6.821061 13.034628 -0.751055 1.020074 0.000925 -0.000382 1738340.000000 1 0 0
8.808678 -5.901016 13.285761 16.997830 -0.590244 0.673545 0.007525 -0.002214 628260.000000 1 0 0
-4.704422 9.534784 -0.712739 10.656063 -1.112446 1.637732 -0.002069 0.000106 1214480.000000 1 0 0
2.753778 6.590684 12.104861 14.055179 1.175015 0.533095 -0.003034 0.004808 1346270.000000 1 0 0
6.010978 -2.896816 10.931961 12.807465 -0.449080 0.548013 0.004317 -0.000326 1180400.000000 1 0 0
-9.665022 -6.475716 -1.069239 11.682929 0.590318 1.662446 0.006016 -0.005457 -797558.000000 1 0 0
0.933678 -13.337616 6.260161 14.763244 -1.500907 1.132898 -0.004366 0.001872 527310.000000 1 0 0
-0.491222 -3.153116 8.754861 9.318317 1.416249 0.349534 -0.001817 -0.000606 651978.000000 1 0 0
4.237678 0.650684 3.352061 5.442207 0.152357 0.907221 -0.003497 0.002376 719159.000000 1 0 0
-10.207822 5.560384 8.255961 14.257573 -0.498779 0.953224 0.005175 -0.002391 316143.000000 1 0 0
9.388278 7.902184 0.021061 12.271296 0.699660 1.569080 0.001416 -0.000602 -816164.000000 1 0 0
4.268478 2.778984 8.193561 9.647647 0.577112 0.556175 -0.006768 0.003045 2997230.000000 1 0 0
1.289178 2.631884 -9.815339 10.243519 1.115317 2.851439 0.011081 -0.006925 1273510.000000 1 0 0
-1.452822 -10.112516 2.956461 10.635522 1.428107 1.289106 0.000085 0.000249 -2903070.000000 1 0 0
-9.824422 9.606884 9.059061 16.458374 -0.774203 0.987926 0.004654 -0.010425 2331750.000000 1 0 0
9.869878 -1.973316 -7.759839 12.709192 -0.197331 2.227575 0.003813 0.002783 515561.000000 1 0 0
-5.111922 -1.819016 6.661861 8.591912 0.341866 0.683505 0.005137 -0.003049 1325440.000000 1 0 0
3.166378 -7.826216 -4.931039 9.777053 -1.186343 2.099423 -0.002902 -0.001063 1512010.000000 1 0 0
-5.108722 4.934084 -13.075839 14.880249 -0.768011 2.644008 -0.000709 -0.005290 2011350.000000 1 0 0
-5.698122 9.593984 5.541361 12.458724 -1.034855 1.109870 -0.006318 -0.000974 1650470.000000 1 0 0
-0.465922 -1.732216 -9.412639 9.582037 1.308041 2.953279 0.007571 -0.008989 876483.000000 1 0 0
-16.789922 0.046484 6.458361 17.989276 -0.002769 1.203588 -0.007546 0.003322 -113419.000000 1 0 0
-5.973722 -2.843316 4.111061 7.789135 0.444240 1.014795 0.000607 -0.001705 2211270.000000 1 0 0
1.004678 -5.737716 -5.189939 7.801682 -1.397453 2.298603 0.004481 -0.003545 1612040.000000 1 0 0
-7.021322 1.399184 -8.459939 11.082746 -0.196700 2.439269 0.004987 -0.005711 2386330.000000 1 0 0
7.960478 1.954984 4.736461 9.467060 0.240820 1.046840 -0.001061 -0.000853 -195028.000000 1 0 0
0.490478 -8.023416 -0.515239 8.054890 -1.509741 1.634806 0.001021 -0.001891 1157750.000000 1 0 0
5.470178 5.525584 -3.410639 8.490429 0.790437 1.984173 0.002198 0.001079 -511504.000000 1 0 0
-0.709822 -0.369916 -1.264139 1.496240 0.480416 2.577132 0.005651 -0.002433 654261.000000 1 0 0
9.065878 6.405384 -6.427839 12.827167 0.615100 2.095679 0.002211 -0.000408 -851271.000000 1 0 0
-15.011522 -7.023716 2.440661 16.752170 0.437630 1.424584 -0.001626 -0.002812 238636.000000 1 0 0
-6.363222 6.846384 8.945561 12.937798 -0.821958 0.807332 0.000290 -0.000669 170673.000000 1 0 0
-9.419622 -3.184316 -9.632939 13.844229 0.325991 2.340342 0.012767 -0.005892 1760550.000000 1 0 0
14.969678 3.407484 -1.115639 15.393078 0.223812 1.643337 -0.003257 0.002829 2041140.000000 1 0 0
12.109278 1.674284 -5.803339 13.532058 0.137393 2.014025 0.004179 0.003027 926219.000000 1 0 0
1.651678 -9.383316 12.713361 15.887234 -1.396558 0.643126 -0.002855 -0.004019 1247610.000000 1 0 0
-3.581022 6.350584 7.946061 10.783947 -1.057353 0.742410 -0.004413 0.000447 1401700.000000 1 0 0
-3.982222 13.114784 -12.289439 18.408856 -1.276000 2.301754 -0.003085 0.001323 1502260.000000 1 0 0
-10.134322 7.791884 6.506761 14.344193 -0.655463 1.099977 -0.002519 -0.004358 682651.000000 1 0 0
8.103178 -9.391316 -7.236639 14.360615 -0.858897 2.098931 -0.000732 0.003463 -526804.000000 1 0 0
5.935578 -3.863616 -0.354239 7.091128 -0.577025 1.620772 0.003032 -0.000531 -1219730.000000 1 0 0
-1.599422 -4.454616 4.107961 6.267144 1.226084 0.855984 0.002266 -0.001322 774610.000000 1 0 0
9.930678 -2.103716 -2.571539 10.471714 -0.208754 1.818904 0.000288 0.000704 -1865250.000000 1 0 0
13.589778 7.098184 1.466461 15.401843 0.481342 1.475439 0.005545 0.000159 -446201.000000 1 0 0
5.467178 -3.717016 -3.288839 7.383949 -0.597094 2.032422 0.004369 -0.002827 -1334700.000000 1 0 0
-12.178622 -5.950216 1.905461 13.687757 0.454469 1.431134 0.000590 -0.001681 1887630.000000 1 0 0
3.802178 -5.759116 -0.251439 6.905592 -0.987283 1.607215 0.003496 -0.002754 685771.000000 1 0 0
-5.217722 3.705484 -8.625339 10.740191 -0.617521 2.503259 0.005328 -0.005636 684034.000000 1 0 0
-1.698322 -9.196416 7.217861 11.813377 1.388182 0.913485 -0.000485 0.002187 2836860.000000 1 0 0
-7.413422 -7.440116 2.526961 10.802763 0.787195 1.334691 0.007726 -0.004709 -2968890.000000 1 0 0
-5.765322 13.074084 -8.443239 16.596954 -1.155474 2.104496 0.003477 -0.005407 2098930.000000 1 0 0
9.146178 -14.075616 -4.271439 17.321107 -0.994570 1.819970 0.004770 0.005392 450425.000000 1 0 0
-6.582422 -5.176616 -6.800939 10.787883 0.666412 2.252896 0.007646 -0.005931 1677530.000000 1 0 0
3.489478 0.386584 -6.351439 7.257182 0.110336 2.636632 0.003961 -0.002031 1762080.000000 1 0 0
-3.576622 5.746284 5.000861 8.415498 -1.014052 0.934471 -0.002744 0.001158 -1375270.000000 1 0 0
-2.585022 -10.769216 -2.903639 11.449431 1.335215 1.827202 0.003803 -0.002438 1797530.000000 1 0 0
-12.570422 -0.397716 1.766161 12.700119 0.031629 1.431278 -0.001573 -0.001437 129330.000000 1 0 0
8.338678 -12.143416 -6.150139 15.963093 -0.969064 1.966299 -0.000694 0.004135 195062.000000 1 0 0
6.169778 3.881384 0.932261 7.348497 0.561539 1.443589 -0.001053 0.001537 -161017.000000 1 0 0
3.436178 -4.812016 -10.932639 12.429216 -0.950681 2.645800 -0.001719 -0.000853 991630.000000 1 0 0
-7.616322 4.194984 8.677661 12.284464 -0.503448 0.786407 0.003289 -0.000810 2115410.000000 1 0 0
8.167778 8.657684 4.101361 12.589251 0.814507 1.238957 0.003987 -0.000188 359551.000000 1 0 0
0.238678 10.481984 -6.301939 12.232881 1.548030 2.111995 0.002468 -0.002444 2789480.000000 1 0 0
5.416278 8.045184 3.189961 10.209647 0.978262 1.253030 0.001152 0.000727 3654760.000000 1 0 0
8.026478 6.715784 -3.813439 11.138600 0.696724 1.920227 0.002101 -0.000100 1177760.000000 1 0 0
10.516678 2.499784 -8.301639 13.629624 0.233366 2.225706 -0.000898 0.000215 644933.000000 1 0 0
3.236178 -12.558916 -0.336439 12.973528 -1.318603 1.596732 -0.004707 -0.000218 -2033030.000000 1 0 0
0.677078 2.079284 5.270461 5.706103 1.255994 0.393290 -0.002779 0.002907 1274060.000000 1 0 0
-4.932222 13.453184 1.505761 14.407716 -1.219392 1.466094 -0.005136 0.004977 1621250.000000 1 0 0
8.213978 4.062384 -8.097039 12.228428 0.459294 2.294479 -0.002497 0.001831 886479.000000 1 0 0
-13.877222 -0.499016 -3.617839 14.349741 0.035944 1.825665 0.000410 -0.004437 729476.000000 1 0 0
-8.558922 0.066184 -0.535939 8.575941 -0.007733 1.633330 0.001789 -0.002156 -242657.000000 1 0 0
1.830578 -3.881016 -1.175239 4.449100 -1.130064 1.838121 0.006729 -0.001650 -2000480.000000 1 0 0
8.140678 -5.708516 -0.329239 9.948175 -0.611553 1.603898 0.002143 0.000555 2250940.000000 1 0 0
-2.243422 -1.133016 7.393161 7.808681 0.467671 0.327693 0.000845 -0.001242 2042020.000000 1 0 0
-5.836822 8.886184 -11.650739 15.772523 -0.989626 2.401896 0.000877 -0.002317 -643254.000000 1 0 0
-6.260922 9.165984 -8.774139 14.149202 -0.971530 2.239686 -0.001108 -0.004290 -941758.000000 1 0 0
-1.488722 13.900684 -8.305739 16.261322 -1.464106 2.106872 -0.002290 -0.001037 50623.500000 1 0 0
-1.446022 7.174484 9.814361 12.242789 -1.371910 0.640756 -0.005771 0.002521 122758.000000 1 0 0
10.037078 2.262384 -4.029739 11.049892 0.221698 1.944092 -0.000134 0.002015 -2352600.000000 1 0 0
-3.040322 -7.477516 -6.994939 10.681104 1.184617 2.284832 0.009816 -0.005966 2166050.000000 1 0 0
-5.517722 -4.947416 -1.609739 7.583762 0.730956 1.784685 0.007162 -0.005607 106225.000000 1 0 0
5.707278 7.426684 -8.814039 12.861413 0.915571 2.325824 0.001584 -0.001995 -969972.000000 1 0 0
-9.636122 5.259184 -7.498439 13.294377 -0.499596 2.170056 0.000124 -0.001858 1688920.000000 1 0 0
-0.403022 6.217884 -5.353539 8.214919 -1.506070 2.280600 0.007725 -0.002635 -532958.000000 1 0 0
-8.277322 2.819984 -6.343439 10.803036 -0.328355 2.198380 0.004567 -0.003146 1188550.000000 1 0 0
3.706378 1.417084 -2.092239 4.485848 0.365187 2.056023 0.001521 0.001002 3264810.000000 1 0 0
-6.768022 12.447984 -3.368239 14.563772 -1.072800 1.804185 -0.001473 0.001482 1510080.000000 1 0 0
-6.564922 3.186384 -2.372339 7.673281 -0.451871 1.885115 0.004585 -0.002262 -15883.600000 1 0 0
12.145378 4.070484 -0.893339 12.840448 0.323382 1.640425 0.005692 -0.001655 535123.000000 1 0 0
2.136878 12.417384 -5.559339 13.771852 1.400378 1.986325 0.007509 -0.003704 466003.000000 1 0 0
-9.164422 -1.419616 -4.261339 10.205927 0.153684 2.001528 0.004794 -0.002727 -1230100.000000 1 0 0
-1.169822 5.714584 3.437361 6.770554 -1.368878 1.038292 -0.001269 0.001062 1580690.000000 1 0 0
11.574578 2.538384 12.008561 16.870678 0.215889 0.778738 0.007977 0.001797 830995.000000 1 0 0
-7.052322 -2.397216 -5.750739 9.410255 0.327666 2.228264 0.009233 -0.006461 467419.000000 1 0 0
7.530978 -7.444716 10.985061 15.258145 -0.779638 0.767070 0.007969 -0.002244 -432797.000000 1 0 0
-5.479522 -1.985916 -10.969039 12.421306 0.347701 2.653188 0.009710 -0.007119 -78602.800000 1 0 0
0.845078 -6.160716 4.466061 7.655996 -1.434475 0.947960 -0.000440 0.001010 -117320.000000 1 0 0
-4.809722 -9.233516 7.400761 12.773508 1.090570 0.952824 0.002596 -0.000101 1941340.000000 1 0 0
-8.747522 9.376184 1.547961 12.916197 -0.820072 1.450661 -0.007687 0.001173 109910.000000 1 0 0
-8.153222 7.201584 -9.059839 14.156925 -0.723501 2.265240 0.000065 -0.002783 112874.000000 1 0 0
-1.260722 -10.605516 -0.144239 10.681161 1.452477 1.584301 0.000347 -0.001100 -929776.000000 1 0 0
-3.985922 10.298584 7.811761 13.526715 -1.201516 0.955126 -0.002510 0.000353 1871780.000000 1 0 0
-7.488222 11.986684 2.019961 14.277055 -1.012404 1.428837 -0.009156 -0.000092 749545.000000 1 0 0
-8.148022 -8.211916 -2.816139 11.906153 0.789304 1.809587 0.010239 -0.005450 37587.500000 1 0 0
5.432578 4.582384 -8.156039 10.818139 0.700709 2.424809 0.002371 -0.000087 1234480.000000 1 0 0
-8.944422 -0.134016 -10.184639 13.555350 0.014982 2.420882 0.006806 -0.006914 -1313380.000000 1 0 0
-15.198122 -2.190116 -1.537239 15.431871 0.143119 1.670576 0.001987 -0.005531 -241019.000000 1 0 0
-7.194122 -5.670916 8.742961 12.663098 0.667548 0.808715 0.007961 0.000459 -1851480.000000 1 0 0
8.140678 3.432384 -0.971439 8.887946 0.399016 1.680314 0.000385 0.002059 480611.000000 1 0 0
11.871978 7.210084 -5.860039 15.075451 0.545784 1.970032 0.004606 0.000208 702004.000000 1 0 0
3.673178 13.234384 -9.435739 16.663563 1.300063 2.172745 -0.001661 -0.006595 1257840.000000 1 0 0
-9.791222 5.461284 -0.504539 11.222665 -0.508792 1.615769 -0.000645 -0.002002 2058600.000000 1 0 0
11.285878 -1.262716 -5.151239 12.469994 -0.111421 1.996642 0.005345 0.001262 -333755.000000 1 0 0
10.621678 1.747384 -1.185539 10.829538 0.163051 1.680489 0.002830 -0.000056 665863.000000 1 0 0
14.553678 5.031984 4.843561 16.142815 0.332887 1.266057 0.006103 -0.004899 3018150.000000 1 0 0
0.884978 -0.825816 10.402261 10.472449 -0.750831 0.115842 -0.002309 0.000670 1982820.000000 1 0 0
-7.978722 1.420784 -12.549539 14.938861 -0.176224 2.568190 0.002505 -0.000208 -1590460.000000 1 0 0
3.099178 -11.552216 -7.970939 14.373395 -1.308692 2.158633 -0.002501 0.005717 663369.000000 1 0 0
2.843378 5.019384 -6.852939 8.957778 1.055389 2.441879 0.005844 -0.001303 -1710430.000000 1 0 0
6.498378 7.956784 0.515961 10.286182 0.885950 1.520615 0.003554 -0.002236 638821.000000 1 0 0
-9.109322 -5.415116 6.803961 12.593535 0.536335 1.000034 0.003407 -0.001985 -1649080.000000 1 0 0
-0.258022 -6.885516 -11.827139 13.687883 1.533341 2.614075 0.001555 -0.000618 2413220.000000 1 0 0
6.388678 -13.467116 -4.639639 15.611044 -1.127845 1.872558 -0.005228 0.002918 2114730.000000 1 0 0
-3.168422 -0.303116 10.068461 10.559578 0.095378 0.306184 0.001119 0.000507 -225041.000000 1 0 0
8.644678 8.380584 7.042061 13.948307 0.769888 1.041567 -0.000187 0.003180 -327349.000000 1 0 0
-7.983622 5.732784 -2.707339 10.194740 -0.622750 1.839584 0.004064 -0.004121 1978000.000000 1 0 0
-5.396622 5.791184 -6.404539 10.182311 -0.820651 2.251046 0.005210 -0.003906 -669273.000000 1 0 0
3.251978 -13.713216 2.501561 14.313821 -1.337956 1.395129 -0.003386 -0.003465 -2454300.000000 1 0 0
-11.311522 -7.074016 6.527761 14.852740 0.558874 1.115756 0.008108 -0.003090 -556634.000000 1 0 0
-12.830922 -3.700516 -6.740139 14.958471 0.280787 2.038223 0.005271 -0.003365 660999.000000 1 0 0
6.151378 0.343084 -7.383639 9.616407 0.055716 2.446223 -0.000209 0.002979 640040.000000 1 0 0
-1.469222 2.183084 -2.552039 3.665702 -0.978420 2.340878 0.005895 -0.003785 2866950.000000 1 0 0
7.628678 0.893684 -5.087539 9.212950 0.116616 2.155816 0.001552 0.003254 172650.000000 1 0 0
3.618978 -4.523716 10.971661 12.407189 -0.896055 0.485807 -0.001691 0.002045 1026010.000000 1 0 0
6.077678 -2.556616 2.036761 6.900931 -0.398186 1.271191 0.004332 -0.001645 -1041560.000000 1 0 0
-6.314922 7.745584 1.168361 10.061679 -0.886800 1.454414 -0.005942 -0.001420 1673660.000000 1 0 0
6.051978 -3.466116 7.925061 10.556845 -0.520123 0.721670 0.003216 -0.001516 -115421.000000 1 0 0
6.851878 -2.245716 -7.978939 10.754299 -0.316719 2.406741 0.000416 0.000099 63181.300000 1 0 0
12.059278 -8.198616 -5.883639 15.724526 -0.597081 1.954297 0.011137 0.003806 -585100.000000 1 0 0
5.615878 -9.747916 10.062661 15.093611 -1.048128 0.841046 -0.006365 0.005272 529028.000000 1 0 0
-6.607522 7.556684 -4.468139 10.987588 -0.852309 1.989584 0.002931 -0.003590 945977.000000 1 0 0
-1.254922 -7.509816 9.683661 12.318500 1.405222 0.666311 0.005427 -0.000339 -363733.000000 1 0 0
9.988078 -9.330516 0.718261 13.687079 -0.751374 1.518295 0.003262 -0.000027 989497.000000 1 0 0
11.093778 5.977684 9.896061 16.023003 0.494229 0.905089 0.002690 0.003105 1688280.000000 1 0 0
-15.253422 -4.197316 -4.970239 16.582751 0.268526 1.875199 -0.000849 -0.001153 2029860.000000 1 0 0
-4.696022 -4.531316 7.821161 10.186069 0.767550 0.695351 0.004983 -0.001258 -9709.980000 1 0 0
2.939878 10.880584 -11.099839 15.818863 1.306903 2.348554 -0.003267 -0.004609 -1395480.000000 1 0 0
9.957478 -1.300016 1.569761 10.163934 -0.129822 1.415731 0.001501 -0.002221 -927138.000000 1 0 0
-1.592022 -2.621116 0.639461 3.132682 1.024966 1.365226 0.004064 -0.004155 1091710.000000 1 0 0
1.587578 2.972384 0.836761 3.472123 1.080235 1.327406 -0.001639 0.001929 447247.000000 1 0 0
-9.009322 -2.417216 4.411361 10.318475 0.262128 1.129048 0.002861 -0.002205 4395950.000000 1 0 0
9.931678 4.847584 -2.794339 11.399370 0.454077 1.818451 -0.000584 -0.000048 1636430.000000 1 0 0
2.505678 8.455884 2.495961 9.165708 1.282716 1.294998 -0.001920 -0.000509 1600040.000000 1 0 0
-8.068722 -0.106516 2.491961 8.445442 0.013200 1.271272 0.000508 -0.002530 1785050.000000 1 0 0
6.934278 2.046984 13.767861 15.550831 0.287045 0.483559 -0.001173 0.001079 -185043.000000 1 0 0
6.718278 4.357284 3.684061 8.814391 0.575370 1.139598 -0.002911 0.000515 448500.000000 1 0 0
-0.261422 3.362884 7.857861 8.551216 -1.493215 0.405470 -0.004920 0.001854 -976288.000000 1 0 0
2.759978 -10.223716 9.242961 14.056108 -1.307123 0.853199 -0.007275 -0.000636 1850240.000000 1 0 0
1.364478 -4.586216 6.896061 8.393499 -1.281619 0.606592 -0.002409 0.002215 175353.000000 1 0 0
-0.165722 10.793384 -1.992039 10.976922 -1.555443 1.753283 0.004037 -0.001833 3661010.000000 1 0 0
8.813278 5.446384 8.048861 13.119494 0.553532 0.910306 -0.003479 0.002043 -267137.000000 1 0 0
2.610178 11.441384 -2.939239 12.097827 1.346500 1.816208 0.007312 -0.007319 1772220.000000 1 0 0
1.454178 2.438484 -6.817939 7.385468 1.033069 2.747007 0.008496 -0.002925 2387220.000000 1 0 0
-13.575022 -2.174116 3.616561 14.215749 0.158807 1.313564 -0.000695 -0.003313 1305170.000000 1 0 0
-0.935722 -10.534716 -5.353339 11.853863 1.482206 2.039367 0.004673 0.000138 620463.000000 1 0 0
-5.691322 2.888084 0.430661 6.396690 -0.469593 1.503420 0.005264 -0.002811 1644810.000000 1 0 0
3.771678 7.307084 -5.045139 9.647407 1.094299 2.121108 0.006422 -0.003579 -1656120.000000 1 0 0
3.002078 9.814884 -6.478039 12.137109 1.273963 2.133811 0.006938 -0.004238 1218940.000000 1 0 0
-12.221822 1.693384 -2.565639 12.602499 -0.137678 1.775811 0.002151 -0.002212 494976.000000 1 0 0
-2.529422 9.671984 -5.666039 11.491268 -1.315005 2.086415 -0.002164 -0.001255 265088.000000 1 0 0
-1.322522 3.382284 1.712961 4.015363 -1.198060 1.130064 -0.000892 -0.001056 363802.000000 1 0 0
12.829278 3.696784 9.661661 16.480421 0.280552 0.944373 0.013811 0.001495 729120.000000 1 0 0
-2.546622 -9.581316 11.507761 15.189321 1.311012 0.711135 -0.000962 -0.005353 948384.000000 1 0 0
-0.419322 -8.873016 -7.569139 11.670395 1.523573 2.276509 0.007494 -0.003016 1644330.000000 1 0 0
2.357478 7.667984 -0.472939 8.036128 1.272524 1.629682 0.001506 -0.000806 1888170.000000 1 0 0
-11.830822 -1.280316 -5.508139 13.112862 0.107799 2.004304 0.004866 -0.001772 -616535.000000 1 0 0
-6.229622 -7.125016 -10.947039 14.471065 0.852345 2.428707 0.007453 -0.003726 859719.000000 1 0 0
-4.761222 -2.250116 -1.353539 5.437309 0.441482 1.822377 0.003678 -0.004244 -1027540.000000 1 0 0
-10.482622 3.675284 4.490361 11.981503 -0.337216 1.186643 0.000625 -0.000991 2252040.000000 1 0 0
6.785778 9.354084 -3.625439 12.111543 0.943203 1.874795 0.005903 -0.000603 -251830.000000 1 0 0
1.275178 -2.686916 -11.534639 11.911906 -1.127684 2.889244 0.003771 -0.006669 -811458.000000 1 0 0
1.236678 8.770784 7.524461 11.622114 1.430720 0.866594 -0.006100 0.004793 973648.000000 1 0 0
10.383878 0.352884 10.406061 14.704950 0.033971 0.784620 0.004210 -0.002550 1195920.000000 1 0 0
-5.240422 -0.939616 -3.932339 6.618776 0.177416 2.206966 0.008173 -0.005874 -356508.000000 1 0 0
11.661578 5.610284 5.395961 14.020844 0.448407 1.175748 0.000701 -0.002864 1918410.000000 1 0 0
9.993678 -3.417716 3.686761 11.186894 -0.329519 1.234958 0.006914 -0.002326 -1290760.000000 1 0 0
7.368978 -1.719216 -3.482539 8.329803 -0.229205 2.002129 0.001003 0.002263 -3850330.000000 1 0 0
2.362078 9.232884 10.373261 14.086522 1.320335 0.743068 -0.004614 0.005501 812115.000000 1 0 0
2.428278 -10.858916 6.341161 12.807143 -1.350795 1.052815 -0.010325 0.002425 1810170.000000 1 0 0
5.864478 -7.624416 -1.216439 9.695543 -0.915138 1.696592 -0.001422 -0.002213 996708.000000 1 0 0
-0.256622 -5.602816 -2.400539 6.100819 1.525026 1.975208 0.005522 -0.003440 2831170.000000 1 0 0
7.781578 -5.085816 2.604061 9.653995 -0.578882 1.297674 0.004688 -0.000510 1343120.000000 1 0 0
-2.739122 -12.466316 4.644461 13.582446 1.354511 1.221810 -0.004036 0.001304 -206756.000000 1 0 0
4.817578 -10.355416 -1.170039 11.480971 -1.135355 1.672885 -0.003983 -0.002643 1504070.000000 1 0 0
0.966978 0.264984 1.081661 1.474874 0.267467 0.747498 -0.000005 0.001421 -1864130.000000 1 0 0
-1.675522 8.515384 2.492061 9.029369 -1.376514 1.291172 -0.001340 0.000308 527552.000000 1 0 0
-7.408922 0.626284 -3.072539 8.045176 -0.084331 1.962659 0.003710 -0.001703 -650568.000000 1 0 0
4.419478 -6.399716 12.944261 15.101061 -0.966425 0.541036 0.001494 -0.003636 -581825.000000 1 0 0
-5.085122 12.975984 8.509661 16.329389 -1.197303 1.022627 0.000019 -0.006876 1287450.000000 1 0 0
0.638778 6.066884 8.262061 10.270188 1.465894 0.636013 -0.006860 0.004620 -299645.000000 1 0 0
7.973978 -0.577316 -0.758239 8.030725 -0.072274 1.665354 0.001900 0.000393 4013780.000000 1 0 0
2.422778 -9.221816 -2.419139 9.836869 -1.313880 1.819271 -0.004170 -0.002652 -920279.000000 1 0 0
-7.126722 12.109684 4.888461 14.877219 -1.038865 1.235989 -0.010003 -0.002126 52059.400000 1 0 0
-14.906222 0.257384 0.205561 14.909861 -0.017265 1.557009 -0.002087 -0.003728 462722.000000 1 0 0
6.940878 -0.552116 3.921361 7.991101 -0.079378 1.057885 0.001811 0.000840 1667710.000000 1 0 0
-4.148122 -5.068616 5.082861 8.290552 0.884940 0.910829 0.004493 -0.003192 197664.000000 1 0 0
2.918578 5.113484 6.859261 9.039650 1.052153 0.709332 -0.007914 0.003280 -857807.000000 1 0 0
2.027478 -7.170816 1.813061 7.669320 -1.295248 1.332133 -0.000580 -0.002050 631398.000000 1 0 0
-2.439522 6.439484 -1.761939 7.107929 -1.208665 1.821291 0.001723 -0.001682 2306800.000000 1 0 0
2.688878 -3.796716 -6.541039 8.026850 -0.954581 2.523344 0.004220 -0.002861 -1758130.000000 1 0 0
-5.175422 0.877984 -12.214639 13.294859 -0.168045 2.735697 0.004762 -0.002731 720017.000000 1 0 0
-7.495222 6.425384 -11.836739 15.413381 -0.708696 2.446434 -0.004213 -0.005917 2285460.000000 1 0 0
-1.079422 11.018884 -8.965439 14.246405 -1.473147 2.251464 -0.003550 -0.003306 458946.000000 1 0 0
4.627178 5.849984 -0.652439 7.487240 0.901584 1.658047 0.001886 0.000876 -230751.000000 1 0 0
-2.682722 13.330584 3.663561 14.082725 -1.372203 1.307623 -0.003189 0.004030 842393.000000 1 0 0
1.469578 -7.821716 10.305961 13.021203 -1.385077 0.657577 -0.006021 -0.002018 530476.000000 1 0 0
12.983978 -0.244916 -1.135639 13.035848 -0.018861 1.658024 0.005467 -0.000258 -112779.000000 1 0 0
-1.046822 3.213084 -5.503639 6.458312 -1.255841 2.590932 0.008720 -0.006083 784739.000000 1 0 0
6.501878 1.038384 7.278761 9.814938 0.158368 0.735344 -0.001002 0.000691 1693420.000000 1 0 0
5.472178 -6.171216 6.848561 10.720607 -0.845364 0.877830 -0.001204 0.002058 2123970.000000 1 0 0
12.267478 -4.845916 2.637461 13.451027 -0.376207 1.373439 0.002275 -0.000274 476049.000000 1 0 0
4.445778 -9.208416 13.918461 17.270884 -1.121007 0.633616 -0.003869 -0.003023 2019660.000000 1 0 0
-2.703822 -4.254116 -1.473239 5.251532 1.004627 1.855148 0.007562 -0.006329 3167800.000000 1 0 0
-9.366022 -5.217116 -7.633039 13.160698 0.508221 2.189510 0.010700 -0.004077 -921512.000000 1 0 0
-10.629022 -3.223516 7.914961 13.638687 0.294459 0.951661 0.006183 -0.002502 -224885.000000 1 0 0
12.091778 -0.585816 1.640861 12.216657 -0.048410 1.436076 0.002841 -0.003842 323422.000000 1 0 0
-7.637522 4.673984 4.399961 9.976849 -0.549179 1.114065 0.001950 -0.002959 2756100.000000 1 0 0
-1.140122 10.636884 6.972661 12.769541 -1.464018 0.993168 -0.002148 0.003549 1747030.000000 1 0 0
7.294578 -10.025916 1.890561 12.542093 -0.941804 1.419482 -0.001274 -0.001407 3045440.000000 1 0 0
-4.317322 -1.734016 1.714161 4.958269 0.381921 1.217793 0.002441 -0.001863 1575860.000000 1 0 0
6.643678 -15.050516 -0.943939 16.478699 -1.155096 1.628110 0.001086 0.000109 -289553.000000 1 0 0
-10.391522 1.630484 2.368961 10.782123 -0.155636 1.349277 -0.004114 0.000155 -93075.400000 1 0 0
-3.029422 8.288284 -11.354739 14.380652 -1.220375 2.480928 -0.002369 -0.002641 -781907.000000 1 0 0
-1.326222 -5.123116 -6.915539 8.708035 1.317487 2.488414 0.004150 -0.006924 826794.000000 1 0 0
12.809878 -0.499316 6.342961 14.302987 -0.038959 1.111329 0.008948 -0.008323 3242470.000000 1 0 0
5.912578 -13.298516 3.627761 14.998992 -1.152438 1.326507 -0.001094 -0.001381 2116100.000000 1 0 0
-5.537222 3.439184 -4.958439 8.189929 -0.555792 2.221104 0.005574 -0.004726 2514050.000000 1 0 0
-4.400622 8.030984 3.413761 9.773225 -1.069524 1.213975 -0.004379 0.000118 -1391410.000000 1 0 0
14.000678 6.163184 -3.985139 15.807756 0.414680 1.825646 0.011678 0.003976 534000.000000 1 0 0
-6.667622 -8.410916 5.278561 11.960932 0.900501 1.113731 0.009415 -0.003056 1803160.000000 1 0 0
1.691978 11.342384 2.715261 11.784952 1.422715 1.338307 0.001145 -0.001950 708548.000000 1 0 0
-7.353922 7.195584 6.014961 11.917900 -0.774516 1.041762 -0.001705 -0.003218 -2046300.000000 1 0 0
-17.358722 -4.054516 5.274661 18.589954 0.229459 1.283107 -0.008269 -0.006260 -1119320.000000 1 0 0
7.441078 -13.175316 -8.594639 17.401909 -1.056681 2.087355 0.000212 0.007398 -1844670.000000 1 0 0
-2.362022 12.800784 -2.689039 13.291732 -1.388327 1.774512 -0.004827 0.002920 264160.000000 1 0 0
-5.515522 13.928484 -5.667639 16.017046 -1.193753 1.932481 0.002111 0.001991 1981470.000000 1 0 0
-5.630022 2.431784 7.443261 9.644317 -0.407727 0.689166 0.004888 -0.001135 2157400.000000 1 0 0
-7.425822 5.085984 1.476761 9.120904 -0.600523 1.408171 -0.000456 -0.001379 1358840.000000 1 0 0
10.776878 -5.735816 -5.135839 13.244528 -0.489101 1.969008 0.001384 0.002346 2119700.000000 1 0 0
-9.595722 -0.768216 6.898661 11.843123 0.079888 0.948991 0.004198 -0.001021 692285.000000 1 0 0
-11.270822 -4.529716 -2.583739 12.418755 0.382141 1.780379 0.001111 -0.002618 1575460.000000 1 0 0
6.503278 -4.357516 13.570261 15.666287 -0.590341 0.523234 0.007146 -0.006593 -1722810.000000 1 0 0
0.212778 10.257384 -11.619339 15.500588 1.550055 2.418263 -0.003600 -0.001618 -778491.000000 1 0 0
-11.769422 -3.168116 1.456561 12.275090 0.262949 1.451856 0.002009 -0.003058 2262840.000000 1 0 0
5.199978 5.950584 5.381461 9.560823 0.852612 0.972947 -0.003750 0.002077 -4602510.000000 1 0 0
-7.085822 -0.039616 8.089061 10.753760 0.005591 0.719390 0.005826 -0.001152 1293030.000000 1 0 0
1.721878 2.005984 9.686361 10.040638 0.861463 0.266435 -0.005320 0.001233 1624990.000000 1 0 0
10.524478 -5.028116 -2.083539 11.848533 -0.445693 1.747563 -0.001404 0.000856 1863890.000000 1 0 0
-9.645522 -2.369616 -1.698439 10.076501 0.240899 1.740159 0.002147 -0.001754 -623898.000000 1 0 0
-2.032422 -5.184816 -10.003639 11.449273 1.197210 2.633627 0.009394 -0.009102 1978030.000000 1 0 0
7.699478 -1.594716 6.603361 10.267885 -0.204232 0.872246 0.006563 -0.001688 -81540.900000 1 0 0
1.431078 -11.836416 -2.630139 12.209274 -1.450476 1.787920 -0.005363 0.002346 -3914450.000000 1 0 0
-0.745022 -1.481816 4.773061 5.053014 1.104930 0.334432 0.002095 -0.001012 3100860.000000 1 0 0
7.604578 1.461784 9.884061 12.556316 0.189908 0.664576 0.000753 0.000911 1381390.000000 1 0 0
-3.903422 10.746584 -7.851939 13.870065 -1.222389 2.172572 -0.000512 -0.000871 3071740.000000 1 0 0
-9.498922 12.624884 6.432661 17.058615 -0.925763 1.184142 -0.001074 -0.007492 1137520.000000 1 0 0
-2.508322 -2.395516 -11.190139 11.715349 0.762399 2.841027 0.010075 -0.009226 -988618.000000 1 0 0
1.222978 -11.958016 11.048961 16.326952 -1.468878 0.827482 -0.006948 -0.000186 1124790.000000 1 0 0
1.422378 3.427984 -2.051939 4.240836 1.177485 2.075848 0.002229 0.000319 3177890.000000 1 0 0
-1.994122 -9.380216 -12.043139 15.394875 1.361327 2.469118 0.003826 -0.001631 572774.000000 1 0 0
1.348378 -2.677916 1.500761 3.352856 -1.104339 1.106709 0.006278 -0.001476 2640190.000000 1 0 0
-1.041922 -2.208216 -6.668839 7.101777 1.129930 2.790618 0.008138 -0.009093 1029300.000000 1 0 0
1.831078 5.806484 4.072661 7.324934 1.265317 0.981231 -0.007916 0.003027 -857768.000000 1 0 0
-10.826622 8.562884 3.597361 14.264632 -0.669174 1.315856 -0.008110 -0.001230 1816930.000000 1 0 0
-16.351322 -1.543916 3.993561 16.902602 0.094142 1.332272 -0.004585 -0.000946 -75200.800000 1 0 0
-12.236022 0.373584 6.870461 14.037914 -0.030522 1.059370 -0.000295 0.000140 15241.600000 1 0 0
-5.137322 3.061484 4.680061 7.593927 -0.537421 0.906773 0.002547 -0.000533 904933.000000 1 0 0
5.237478 -6.009916 3.899861 8.874637 -0.853968 1.115822 -0.002664 0.001660 1563380.000000 1 0 0
9.888278 3.355384 6.339161 12.215629 0.327137 1.025188 -0.001096 0.002292 779266.000000 1 0 0
-12.172522 5.873584 3.197161 13.888525 -0.449573 1.338511 -0.005105 -0.000435 1214580.000000 1 0 0
-4.871922 12.295884 -1.172839 13.277798 -1.193550 1.659242 -0.012025 0.004939 1499840.000000 1 0 0
-1.679822 -12.240616 10.271061 16.067021 1.434415 0.877256 0.004126 -0.006226 192724.000000 1 0 0
5.270178 6.394984 13.862061 16.150149 0.881525 0.538802 -0.002370 0.002914 1956420.000000 1 0 0
12.908178 -3.670316 -5.993739 14.697523 -0.277029 1.990846 0.002728 0.001931 1218660.000000 1 0 0
3.579078 -2.582816 6.353561 7.736179 -0.625104 0.607147 -0.003444 0.004000 1843410.000000 1 0 0
7.148978 -11.937516 -0.679439 13.931038 -1.031211 1.619587 0.000237 0.001075 -2537950.000000 1 0 0
-6.097022 -6.451516 -4.145339 9.796917 0.813640 2.007690 0.009362 -0.006742 1196390.000000 1 0 0
0.297878 -8.944716 4.954861 10.229728 -1.537507 1.065166 -0.004068 0.001039 2367870.000000 1 0 0
-10.276322 2.502184 -0.431739 10.585373 -0.238842 1.611594 -0.002712 0.001094 -982526.000000 1 0 0
-1.849322 8.940284 -0.307039 9.134711 -1.366820 1.604415 0.002233 -0.001116 -141877.000000 1 0 0
-3.472922 2.285984 -6.646539 7.839859 -0.582140 2.582597 0.010950 -0.008191 166080.000000 1 0 0
-12.762622 3.118584 6.398861 14.613538 -0.239657 1.117566 0.000761 -0.000198 64008.900000 1 0 0
11.414878 1.554384 7.877861 13.956226 0.135339 0.971006 0.008805 -0.005408 -2354720.000000 1 0 0
6.098978 2.581384 -3.214939 7.361855 0.400386 2.022726 0.000677 0.002720 1202400.000000 1 0 0
10.518678 -2.439416 6.409261 12.556750 -0.227884 1.035119 0.009794 -0.005045 2940760.000000 1 0 0
-0.949322 10.961184 4.125261 11.750172 -1.484404 1.212071 0.000916 0.001580 803922.000000 1 0 0
-1.561222 -12.181816 7.387761 14.332239 1.443331 1.029247 -0.006358 0.002694 871670.000000 1 0 0
8.122578 8.698184 -7.882339 14.274661 0.819605 2.155786 0.007445 -0.003905 1000410.000000 1 0 0
-4.701322 -5.881016 -8.813339 11.591537 0.896417 2.434610 0.010720 -0.008318 780673.000000 1 0 0
-8.544422 -5.318916 -11.705039 15.437162 0.556801 2.431402 0.014658 -0.004401 3344780.000000 1 0 0
6.112678 -0.521116 -10.017739 11.746978 -0.085046 2.592106 0.003060 -0.001376 -4213.890000 1 0 0
-11.099522 -5.436716 -5.333939 13.461359 0.455467 1.978215 0.003779 -0.005860 -723467.000000 1 0 0
3.924978 8.970784 -2.746339 10.169700 1.158362 1.844243 0.007892 -0.002463 1102770.000000 1 0 0
11.519878 -10.427916 -4.031639 16.053135 -0.735686 1.824658 0.007072 0.003548 1056510.000000 1 0 0
3.891278 -11.337916 3.904361 12.606920 -1.240184 1.255919 -0.007796 -0.000650 -939423.000000 1 0 0
-1.020322 0.869384 3.167861 3.439800 -0.705693 0.400302 0.001005 0.000157 -576080.000000 1 0 0
-10.613322 -5.123916 4.538061 12.628979 0.449778 1.203239 0.005419 -0.004779 2863860.000000 1 0 0
4.511278 -8.660016 2.805061 10.159521 -1.090544 1.291061 -0.005653 -0.000352 6210930.000000 1 0 0
-3.702722 -5.712716 2.587861 7.283015 0.995720 1.207531 0.003848 -0.002205 918479.000000 1 0 0
10.024678 4.951684 12.371861 16.675619 0.458795 0.734877 0.001926 0.004787 834106.000000 1 0 0
1.584478 -12.274516 -5.385839 13.497466 -1.442419 1.981251 -0.001872 0.002136 589511.000000 1 0 0
9.698678 -10.813816 -1.741439 14.629955 -0.839709 1.690112 0.004094 -0.001250 1455650.000000 1 0 0
9.619178 -4.471216 -9.269139 14.086778 -0.435112 2.288960 0.003154 0.005889 3466050.000000 1 0 0
-7.362322 -3.058816 -13.138339 15.368022 0.393770 2.596182 0.009371 -0.000765 969150.000000 1 0 0
0.472578 6.211984 -2.541139 6.728258 1.494867 1.958087 0.003715 -0.001300 1364430.000000 1 0 0
-5.979222 -9.433216 0.872961 11.202621 1.005860 1.492793 0.002201 -0.002417 241876.000000 1 0 0
-8.966622 -4.024316 0.625961 9.848211 0.421864 1.507193 0.000877 -0.003220 2838630.000000 1 0 0
1.911578 3.798684 12.101061 12.826527 1.104575 0.337938 -0.004502 0.001104 317709.000000 1 0 0
6.613578 4.247684 9.611761 12.416448 0.570920 0.685480 -0.007401 0.004586 2428730.000000 1 0 0
-8.244122 9.830084 -3.663539 13.342324 -0.872921 1.848950 -0.002463 -0.000692 3106130.000000 1 0 0
16.361778 2.173684 -6.076539 17.588548 0.132078 1.923549 -0.001506 0.004282 -436017.000000 1 0 0
-11.003622 2.665484 -5.110139 12.421676 -0.237659 1.994774 0.004904 -0.001422 2349220.000000 1 0 0
-13.792422 4.060184 1.466561 14.452225 -0.286291 1.469145 -0.004885 0.003346 1168400.000000 1 0 0
-17.400122 10.546284 3.386361 20.626580 -0.544896 1.405875 0.037266 -0.002940 762422.000000 1 0 0
-14.337122 2.949284 -1.205539 14.686888 -0.202879 1.652971 -0.001250 -0.001308 656496.000000 1 0 0
-14.400422 5.217484 5.131061 16.153083 -0.347603 1.247544 0.000168 0.003651 212121.000000 1 0 0
-17.462022 7.624684 3.047361 19.296228 -0.411692 1.412207 0.023207 0.002167 -1468600.000000 1 0 0
-14.926722 12.731084 -3.420339 19.914473 -0.706178 1.743404 0.024509 -0.006111 -374787.000000 1 0 0
-8.438122 12.431484 -9.548239 17.802038 -0.974461 2.136911 -0.003558 -0.012356 -1578990.000000 1 0 0
-12.476422 8.850884 -9.812239 18.173588 -0.617013 2.141136 0.003321 -0.000938 -1343290.000000 1 0 0
-13.910222 -3.452716 -12.145539 18.786422 0.243297 2.273792 0.004958 -0.002944 -73947.800000 1 0 0
-14.912222 5.707984 -7.619939 17.692341 -0.365567 2.016055 0.010236 0.004525 -1896010.000000 1 0 0
-10.817022 13.612684 -8.336839 19.282531 -0.899339 2.017896 0.005488 -0.008523 1920750.000000 1 0 0
-10.750222 13.492384 3.949061 17.697649 -0.898033 1.345761 0.001538 -0.005972 -1437460.000000 1 0 0
-15.180322 3.297784 3.088661 15.838478 -0.213917 1.374529 -0.003154 0.004163 814495.000000 1 0 0
-11.093922 9.414684 -12.451339 19.150646 -0.703701 2.278616 -0.000210 -0.003783 -144454.000000 1 0 0
-13.041722 11.705484 -9.129339 19.759800 -0.731455 2.051063 -0.000473 -0.002974 1593100.000000 1 0 0
-8.817422 14.619684 -3.458939 17.419711 -1.028086 1.770690 0.007893 -0.001947 850410.000000 1 0 0
-16.795522 8.235084 -4.088639 19.147405 -0.455869 1.785988 0.017085 -0.000450 -861873.000000 1 0 0
-16.812322 6.805084 0.290061 18.139666 -0.384610 1.554805 0.013592 0.000635 -244418.000000 1 0 0
-10.488822 2.847884 -12.502639 16.566286 -0.265124 2.425999 0.004102 -0.003147 870465.000000 1 0 0
-16.784422 0.869684 2.469361 16.987375 -0.051769 1.424915 -0.003890 -0.001531 -96317.200000 1 0 0
-12.720522 1.162584 -7.014739 14.572915 -0.091141 2.072996 0.008111 -0.004295 836966.000000 1 0 0
-12.311122 9.010084 -5.426839 16.192465 -0.631794 1.912556 0.005603 -0.001440 -2165270.000000 1 0 0
-9.537422 13.952484 1.333261 16.953224 -0.971186 1.492072 0.007530 -0.004003 -286436.000000 1 0 0
-12.091822 11.067084 2.747361 16.620484 -0.741179 1.404734 0.001348 -0.001704 -101525.000000 1 0 0
-12.600122 6.888584 -3.664839 14.820483 -0.500312 1.820671 0.000860 0.003879 994782.000000 1 0 0
-15.893622 3.631884 -9.312439 18.775498 -0.224655 2.089770 0.012391 -0.003320 -1913490.000000 1 0 0
-15.162722 5.843484 -4.636339 16.898227 -0.367844 1.848729 0.005869 0.004607 1598220.000000 1 0 0
-17.818422 5.224984 7.590261 20.060127 -0.285239 1.182756 -0.000329 0.009144 -572089.000000 1 0 0
-15.734422 10.185084 -2.232839 18.875739 -0.574483 1.689365 0.020217 -0.003315 -886378.000000 1 0 0
-8.840422 9.889884 -8.348639 15.673629 -0.841370 2.132531 0.004008 -0.006336 -427823.000000 1 0 0
-16.982622 4.223384 -1.226739 17.542842 -0.243744 1.640782 -0.000966 0.001112 -726623.000000 1 0 0
-10.267222 5.467884 -4.612539 12.513557 -0.489353 1.948302 0.002954 -0.002923 1007700.000000 1 0 0
-18.144422 2.673084 6.303261 19.393208 -0.146270 1.239759 -0.009737 0.009463 -113094.000000 1 0 0
-10.383922 10.145584 -5.777539 15.624937 -0.773789 1.949551 0.000246 -0.003830 964731.000000 1 0 0
-15.418222 0.447684 -5.927839 16.524566 -0.029028 1.937702 0.003567 -0.002187 777532.000000 1 0 0
-16.404322 -4.209216 -8.850439 19.108887 0.251173 2.052352 -0.003542 -0.004569 72109.700000 1 0 0
-9.925422 9.600984 -1.153639 13.857264 -0.768784 1.654144 -0.006035 0.001880 1353330.000000 1 0 0
-17.296122 -2.966616 -3.189339 17.836158 0.169866 1.750576 -0.000097 -0.004341 -1050680.000000 1 0 0
-11.932922 5.060284 -11.461639 17.302320 -0.401075 2.294859 0.006588 -0.005102 -21841.800000 1 0 0
-16.404922 7.046584 5.776061 18.765359 -0.405710 1.257912 0.015074 0.008051 -528174.000000 1 0 0
-12.259522 6.033184 -8.830539 16.268793 -0.457326 2.144552 0.008901 -0.002671 2012020.000000 1 0 0
-14.494322 8.490684 -0.146939 16.798770 -0.529908 1.579543 0.010515 -0.002653 1682970.000000 1 0 0
-14.773822 11.914184 3.854661 19.366776 -0.678655 1.370423 0.013227 -0.009279 1382860.000000 1 0 0
-17.335022 4.066384 -4.003239 18.250052 -0.230410 1.791950 0.003611 -0.000804 -960621.000000 1 0 0
-13.674522 13.486784 -0.810739 19.223506 -0.778486 1.612983 0.023179 -0.007558 -497347.000000 1 0 0
-10.032622 6.892184 -13.035739 17.834971 -0.601932 2.390449 -0.004747 -0.005747 1702750.000000 1 0 0
-15.882822 -1.191416 -8.372739 17.994062 0.074873 2.054776 0.001809 -0.006038 406131.000000 1 0 0
-11.336022 12.008684 -0.065739 16.514182 -0.814205 1.574777 0.007841 -0.003398 858016.000000 1 0 0
-11.945422 7.434184 -0.947439 14.101696 -0.556688 1.638033 -0.002393 0.004022 849633.000000 1 0 0
-11.435522 0.164884 -11.686439 16.351490 -0.014418 2.366994 0.006997 -0.008126 -403416.000000 1 0 0
-19.009922 -1.318116 -4.645139 19.613564 0.069228 1.809901 0.001117 -0.007233 -1397550.000000 1 0 0
-18.009222 1.401584 -4.982639 18.738282 -0.077669 1.839941 -0.000974 -0.003085 -1970030.000000 1 0 0
-13.313922 -0.106116 -9.566239 16.394655 0.007970 2.193825 0.007860 -0.005881 -366098.000000 1 0 0
-6.046622 11.236984 -13.180439 18.345447 -1.077135 2.372380 -0.010324 -0.001443 850196.000000 1 0 0
16.211678 5.762584 7.110661 18.616857 0.341530 1.178894 0.020009 -0.005407 -402946.000000 1 0 0
14.944778 10.104184 -5.430939 18.839746 0.594506 1.863216 0.034846 0.002788 617712.000000 1 0 0
2.451478 16.854784 4.310661 17.569157 1.426362 1.322912 0.010689 -0.002574 1559320.000000 1 0 0
-3.774922 18.330084 -5.853039 19.608673 -1.367695 1.873909 0.002254 0.000203 69903.600000 1 0 0
5.502878 14.506484 5.695761 16.527596 1.208227 1.218961 0.003550 -0.000587 378267.000000 1 0 0
9.876378 6.040184 15.124061 19.046361 0.548890 0.653328 0.008629 -0.000206 -1133980.000000 1 0 0
4.696778 12.754684 -1.224639 13.647030 1.217966 1.660654 0.004646 -0.006792 1820020.000000 1 0 0
3.621678 13.528884 12.975561 19.092208 1.309230 0.823544 -0.005762 -0.000976 -1094320.000000 1 0 0
-0.755322 12.371584 9.185561 15.427285 -1.509819 0.933020 0.000510 0.002424 645084.000000 1 0 0
-7.756022 13.854084 8.382861 17.954494 -1.060432 1.085020 0.003911 -0.016213 1555040.000000 1 0 0
11.419778 12.755584 -4.082039 17.600548 0.840597 1.804854 0.026102 -0.001122 -26736.000000 1 0 0
-5.689922 16.207384 0.830161 17.197199 -1.233169 1.522505 -0.003105 0.004563 731411.000000 1 0 0
3.225378 10.548684 6.725561 12.919402 1.274062 1.023268 -0.000104 0.006375 2157940.000000 1 0 0
-1.174422 15.523984 2.554661 15.776553 -1.495288 1.408153 -0.000505 0.001425 -1607910.000000 1 0 0
9.934478 8.736784 9.620761 16.358003 0.721340 0.942042 0.005700 0.004920 1697550.000000 1 0 0
7.235378 12.147484 6.166161 15.425096 1.033598 1.159554 -0.001451 0.003101 1988430.000000 1 0 0
11.864878 13.944584 -1.466139 18.367806 0.865804 1.650702 0.023774 -0.000592 499333.000000 1 0 0
9.643278 15.856884 -1.183739 18.596634 1.024410 1.634493 0.008557 -0.000804 -174815.000000 1 0 0
10.065978 13.693084 2.985261 17.255035 0.936891 1.396913 0.007682 -0.004857 2224330.000000 1 0 0
-6.019322 14.556584 6.319761 16.972500 -1.178696 1.189253 -0.009524 -0.004973 1084060.000000 1 0 0
-0.886622 18.210384 -6.147539 19.240489 -1.522147 1.896009 0.007787 0.002493 862789.000000 1 0 0
-3.515222 15.785284 5.496661 17.080552 -1.351682 1.243158 -0.008236 0.002289 3181840.000000 1 0 0
7.045278 12.281884 10.597261 17.685659 1.049991 0.928294 -0.006293 0.006956 3341010.000000 1 0 0
1.485678 14.586784 6.267161 15.945495 1.469295 1.166865 0.004836 0.001585 2080580.000000 1 0 0
17.469978 7.662184 -1.390839 19.127039 0.413326 1.643576 0.001572 0.014650 935212.000000 1 0 0
2.162178 16.182484 -3.309639 16.658376 1.437971 1.770804 -0.002705 -0.002203 3234330.000000 1 0 0
6.728878 11.122184 0.554261 13.011071 1.026711 1.528184 0.007020 -0.003440 815835.000000 1 0 0
12.660678 9.275984 3.270961 16.032337 0.632311 1.365331 0.005659 0.000598 -1567880.000000 1 0 0
6.075378 14.257684 -3.508239 15.890233 1.167984 1.793410 0.000454 -0.003917 87531.400000 1 0 0
3.142078 16.477584 1.520461 16.843254 1.382370 1.480402 0.004928 -0.007199 -1836930.000000 1 0 0
2.912678 18.773484 -2.380139 19.146604 1.416875 1.695430 0.009643 -0.015007 -118103.000000 1 0 0
3.965978 11.881684 10.625861 16.425964 1.248636 0.867292 -0.002694 0.002500 2036720.000000 1 0 0
8.010678 11.430784 3.329461 14.349881 0.959535 1.336642 0.001350 0.001308 111019.000000 1 0 0
0.728578 12.467984 0.231561 12.491400 1.512427 1.552258 0.005281 -0.004336 -1464680.000000 1 0 0
12.051178 9.807784 -4.549739 16.190233 0.683126 1.855651 0.021200 0.002333 636785.000000 1 0 0
-1.312922 16.514384 9.965961 19.333106 -1.491461 1.029221 0.003958 -0.002624 -512289.000000 1 0 0
8.099178 14.715584 -8.058739 18.630308 1.067661 2.018127 0.022330 -0.000339 1542560.000000 1 0 0
14.533878 7.640384 -1.337539 16.474164 0.483992 1.652076 0.015318 0.004842 588279.000000 1 0 0
12.414978 8.255984 5.995161 16.069689 0.586849 1.188478 0.002262 0.002125 -1503690.000000 1 0 0
-2.977422 14.237484 10.235161 17.785654 -1.364642 0.957614 0.000308 -0.006763 2378320.000000 1 0 0
-4.467222 17.227584 -3.128239 18.070185 -1.317078 1.744789 0.002283 0.000974 -433550.000000 1 0 0
-6.981222 16.532784 -1.816539 18.038021 -1.171244 1.671673 -0.001095 0.004333 560430.000000 1 0 0
8.350178 11.167684 -1.830739 14.063934 0.928763 1.701339 0.008922 -0.003615 -1932800.000000 1 0 0
8.614178 12.878984 -4.195139 16.052149 0.981280 1.835211 0.022726 -0.003603 1182930.000000 1 0 0
2.525578 14.891184 -7.278239 16.765997 1.402793 2.019843 -0.007453 -0.000955 715647.000000 1 0 0
11.439378 11.203484 9.778261 18.761444 0.774981 1.022553 0.013936 0.001895 221937.000000 1 0 0
8.585078 15.668284 1.415461 17.922115 1.069546 1.491736 0.002032 -0.003049 47043.800000 1 0 0
6.052878 9.833984 7.719761 13.890258 1.019053 0.981510 -0.001814 0.007917 3405410.000000 1 0 0
14.422678 11.437184 2.854061 18.627090 0.670458 1.416969 0.015835 -0.000630 2676660.000000 1 0 0
12.171178 12.587284 1.248861 17.553830 0.802203 1.499592 0.021359 -0.001728 2312650.000000 1 0 0
5.423178 15.874284 8.233461 18.686723 1.241595 1.114524 0.010337 0.001380 -598480.000000 1 0 0
11.451378 15.111384 5.134061 19.642977 0.922323 1.306356 0.019432 -0.001184 1051010.000000 1 0 0
5.979278 16.716484 1.691461 17.834058 1.227289 1.475809 -0.001821 -0.011562 -125828.000000 1 0 0
-0.665822 16.157284 -4.104639 16.683801 -1.529611 1.819374 -0.001178 -0.003303 383073.000000 1 0 0
15.993678 6.473684 2.649561 17.456417 0.384608 1.418426 -0.002167 -0.004233 -1526180.000000 1 0 0
7.679978 16.677384 -3.160739 18.630820 1.139243 1.741272 -0.003843 -0.000218 -963177.000000 1 0 0
14.737878 8.169284 7.493561 18.441684 0.506143 1.152353 0.016169 -0.001568 177797.000000 1 0 0
2.141978 12.977084 8.551361 15.688166 1.407213 0.994308 0.002759 0.003807 1841850.000000 1 0 0
15.986078 7.461784 -5.871139 18.593095 0.436710 1.892064 0.009302 0.005096 -697867.000000 1 0 0
-2.889122 17.042484 0.754861 17.302112 -1.402868 1.527154 -0.007354 0.002996 21072.000000 1 0 0
-2.837222 18.550484 4.650961 19.333952 -1.419026 1.327854 -0.008028 -0.003579 1346910.000000 1 0 0
-0.814522 19.186184 0.957661 19.227330 -1.528368 1.520968 0.000729 -0.002045 -754606.000000 1 0 0
7.103678 16.750284 -6.069439 19.179998 1.169694 1.892777 0.003739 0.002663 821956.000000 1 0 0
10.997378 9.993384 0.839061 14.883348 0.737604 1.514391 0.007193 0.000622 -2267320.000000 1 0 0
9.040278 8.728884 14.264961 19.010764 0.767876 0.722186 -0.000967 0.002116 82278.500000 1 0 0
6.322878 12.293784 -8.393739 16.173149 1.095762 2.116468 0.013000 -0.005574 420292.000000 1 0 0
6.297878 9.092984 13.334061 17.324630 0.965048 0.692489 -0.005424 0.000020 1255030.000000 1 0 0
16.619778 9.419884 3.125661 19.357711 0.515641 1.408618 0.013387 -0.000103 -1631820.000000 1 0 0
2.618778 14.695184 -0.749939 14.945529 1.394441 1.620996 0.002419 -0.005075 445412.000000 1 0 0
9.143878 12.808284 8.338461 17.809901 0.950800 1.083552 0.005903 -0.001294 3394460.000000 1 0 0
7.252878 9.410384 10.548261 15.887900 0.914159 0.844751 -0.003898 0.004499 2618690.000000 1 0 0
4.429178 15.809784 -5.364339 17.272609 1.297645 1.886588 -0.000212 -0.000869 1421510.000000 1 0 0
0.180378 16.382484 -8.176139 18.310313 1.559786 2.033682 -0.003365 0.005494 211294.000000 1 0 0
-2.384022 15.654584 -1.885839 15.946973 -1.419668 1.689331 -0.007823 0.001958 728513.000000 1 0 0
13.231978 10.527184 7.576461 18.528615 0.672044 1.149541 0.011620 -0.003203 3148840.000000 1 0 0
-0.973422 15.950984 7.100661 17.487161 -1.509846 1.152669 0.004001 0.000119 3077420.000000 1 0 0
13.224378 13.396284 6.761261 20.001481 0.791856 1.225965 0.018413 -0.002226 -289721.000000 1 0 0
5.430778 17.255484 4.548361 18.652953 1.265883 1.324472 0.008707 -0.007436 -281396.000000 1 0 0
10.848578 9.415784 -1.800539 14.477243 0.714811 1.695490 0.009163 0.001414 1757920.000000 1 0 0
3.280178 12.725084 4.770361 13.980117 1.318516 1.222577 0.003978 0.002519 2140510.000000 1 0 0
-0.101122 17.961884 3.566561 18.312833 -1.565167 1.374786 0.005534 -0.005480 1995300.000000 1 0 0
-7.662222 15.944384 -5.799139 18.616204 -1.122822 1.887578 0.017226 -0.005542 -4136.800000 1 0 0
-12.482122 -9.147416 8.268661 17.545636 0.632429 1.080071 0.011743 -0.004751 1624290.000000 1 0 0
-13.190722 -11.726116 6.842661 18.929315 0.726686 1.200936 0.012849 -0.005738 -185670.000000 1 0 0
-6.683622 -12.294716 12.180261 18.552348 1.072867 0.854581 0.012925 -0.009387 -129377.000000 1 0 0
-1.780622 -10.774916 14.270261 17.969690 1.407020 0.653222 -0.001234 -0.008033 -140111.000000 1 0 0
-8.846522 2.840684 11.078661 14.459155 -0.310707 0.697884 0.012736 -0.000053 2231360.000000 1 0 0
0.698878 10.105384 15.098261 18.181438 1.501747 0.590932 -0.007757 -0.005573 1034200.000000 1 0 0
1.016878 -6.949816 16.595261 18.020451 -1.425510 0.400381 -0.006096 -0.007382 214107.000000 1 0 0
6.209778 2.281284 17.778461 18.969430 0.352064 0.356235 0.006725 0.000160 2575150.000000 1 0 0
-4.995622 -3.073816 17.765261 18.708529 0.551595 0.318900 0.013105 -0.009522 -136837.000000 1 0 0
-4.195822 8.182784 13.062461 15.974691 -1.096991 0.613397 -0.005590 0.000883 -370469.000000 1 0 0
0.122078 -5.024616 18.601361 19.268427 -1.546505 0.263899 0.002658 -0.011701 -1128240.000000 1 0 0
-11.692622 2.100484 11.190061 16.320138 -0.177746 0.815287 0.017586 -0.000184 -269883.000000 1 0 0
-3.415722 -6.141116 14.324861 15.955629 1.063201 0.456063 0.010208 -0.008702 1292110.000000 1 0 0
-7.483722 -2.243216 14.704261 16.650928 0.291224 0.488390 0.016547 -0.004470 -101133.000000 1 0 0
-6.067222 -1.087316 10.583361 12.247488 0.177329 0.527387 0.007748 -0.001045 1957800.000000 1 0 0
-3.932422 2.363184 11.144061 12.051501 -0.541117 0.390541 -0.001234 0.001849 -27199.400000 1 0 0
-6.313222 6.297684 13.469861 16.154094 -0.784166 0.584776 -0.002909 -0.001718 1443060.000000 1 0 0
-8.939222 5.466384 12.481861 16.296867 -0.548837 0.698348 0.010361 -0.003413 987828.000000 1 0 0
-12.279622 -2.041616 15.881061 20.178340 0.164753 0.664808 0.011164 0.002262 1175620.000000 1 0 0
-3.334422 -7.680216 16.865961 18.829889 1.161195 0.460790 0.005332 -0.008774 -1612770.000000 1 0 0
-0.556122 -5.387516 14.494661 15.473519 1.467936 0.357599 0.000764 -0.001927 2206610.000000 1 0 0
-14.276022 -2.208516 13.725061 19.926355 0.153484 0.810979 -0.001314 -0.002131 -864155.000000 1 0 0
-6.462322 1.410784 12.249661 13.921426 -0.214937 0.495115 0.008410 -0.001601 1745680.000000 1 0 0
2.214078 -2.303216 14.614761 14.959886 -0.805128 0.215217 -0.001819 -0.002529 -1412330.000000 1 0 0
-12.612522 4.058584 9.157061 16.105886 -0.311326 0.966050 0.007568 0.000198 303346.000000 1 0 0
-9.045622 -2.917216 12.565161 15.754894 0.311969 0.647590 0.008201 0.002751 1413640.000000 1 0 0
-7.144222 -7.152116 15.426961 18.444072 0.785950 0.580081 0.021615 -0.006718 -1451360.000000 1 0 0
-3.094422 6.038584 19.505861 20.652325 -1.097245 0.334765 0.008317 -0.005876 -543829.000000 1 0 0
0.678078 5.528984 16.189061 17.120606 1.448765 0.331395 -0.003857 -0.003000 2957120.000000 1 0 0
3.526178 1.553684 16.836461 17.271777 0.415021 0.224991 0.002998 -0.000841 730147.000000 1 0 0
-11.669622 11.448084 7.828161 18.125088 -0.775815 1.124202 0.007870 -0.015138 -782395.000000 1 0 0
0.564978 -9.526916 15.392161 18.110769 -1.511562 0.555020 -0.013879 -0.004688 -1030090.000000 1 0 0
-2.376922 -3.704016 18.862461 19.369097 1.000268 0.229224 0.011809 -0.014921 585680.000000 1 0 0
-12.927522 2.343384 13.763961 19.027845 -0.179324 0.762142 0.015024 -0.003837 94413.600000 1 0 0
-5.315522 -0.657716 15.885061 16.763726 0.123109 0.325205 0.012563 -0.004236 -1425030.000000 1 0 0
-4.451322 -5.965316 11.657161 13.830714 0.929731 0.568247 0.009059 -0.002640 1859680.000000 1 0 0
2.484778 1.862184 14.084461 14.422686 0.643140 0.216994 -0.000143 -0.001647 111827.000000 1 0 0
0.123778 3.333684 14.348461 14.731161 1.533684 0.228439 0.002228 -0.003641 1299530.000000 1 0 0
-12.936022 7.237384 12.275361 19.245905 -0.510089 0.879136 0.015976 -0.000419 1483980.000000 1 0 0
0.923178 1.475884 18.235861 18.318764 1.011831 0.095174 0.005382 -0.001984 1448880.000000 1 0 0
-1.935622 6.389884 12.532961 14.200435 -1.276663 0.489483 -0.004200 0.001726 523643.000000 1 0 0
-13.450722 -2.615716 10.939461 17.533844 0.192069 0.897066 0.000558 -0.002971 -364656.000000 1 0 0
-2.508722 3.515484 13.443161 14.119875 -0.950987 0.310851 -0.004632 0.002065 -782670.000000 1 0 0
3.589978 6.139284 16.375561 17.853228 1.041662 0.409720 -0.003226 0.000219 582112.000000 1 0 0
-3.675622 12.467784 12.380261 17.950674 -1.284108 0.809746 0.003498 -0.000042 1797870.000000 1 0 0
3.776078 -1.399816 17.049561 17.518726 -0.355001 0.231953 0.007115 -0.006002 458846.000000 1 0 0
-15.964722 0.286884 9.255261 18.455744 -0.017968 1.045483 -0.009628 0.001988 1204580.000000 1 0 0
-4.610522 4.582084 15.137361 16.473982 -0.782305 0.405603 0.007574 -0.006671 436420.000000 1 0 0
-7.977922 -8.079316 10.491461 15.459409 0.791713 0.824879 0.007345 -0.004087 2855000.000000 1 0 0
-2.616622 -0.492416 14.788861 15.026629 0.186012 0.178129 0.005433 -0.002673 2465610.000000 1 0 0
-1.818222 1.024384 17.230861 17.356781 -0.513072 0.120529 0.004827 -0.006284 -57604.000000 1 0 0
-0.746222 -2.554816 14.479961 14.722540 1.286617 0.181781 0.002738 -0.003149 1232340.000000 1 0 0
5.019478 -8.255816 16.610561 19.216253 -1.024520 0.526837 -0.001617 -0.006251 1238370.000000 1 0 0
-4.389822 10.046684 10.740961 15.348441 -1.158854 0.795668 -0.003966 0.000245 -1603670.000000 1 0 0
-6.055222 2.050584 15.252561 16.538174 -0.326525 0.396900 0.011663 -0.001531 573066.000000 1 0 0
-4.843222 6.769284 17.268661 19.169941 -0.949763 0.449143 0.008482 -0.005686 -1159040.000000 1 0 0
-3.960722 9.081484 15.897861 18.732395 -1.159535 0.557307 -0.001471 -0.000929 -490335.000000 1 0 0
-4.538022 -9.857116 18.323161 21.295413 1.139344 0.534688 0.005995 -0.009152 -1269330.000000 1 0 0
-6.810722 -4.017816 11.144161 13.664593 0.532979 0.617117 0.010255 0.001306 473085.000000 1 0 0
-2.264522 -0.849416 19.565161 19.714083 0.358856 0.122993 0.010310 -0.009116 92763.600000 1 0 0
-5.745322 -4.545116 15.386661 17.041600 0.669290 0.444355 0.014655 -0.006628 1376780.000000 1 0 0
-12.977022 0.074784 9.767461 16.242290 -0.005763 0.925594 0.000034 0.001000 2627080.000000 1 0 0
-14.474022 8.915784 10.537761 20.000823 -0.552090 1.015887 0.014614 -0.000669 -935861.000000 1 0 0
-8.377822 10.456684 12.888861 18.591742 -0.895328 0.804797 0.011166 -0.014398 -1709110.000000 1 0 0
-10.429822 7.238984 10.758761 16.641364 -0.606732 0.867799 0.014474 -0.002388 -821132.000000 1 0 0
-9.889622 -6.489416 14.806261 18.951055 0.580711 0.674067 0.016585 -0.007169 400658.000000 1 0 0
-0.738922 -13.512316 14.385361 19.750122 1.516166 0.754859 -0.004221 -0.011373 1756930.000000 1 0 0
3.759378 -5.696516 16.973161 18.294026 -0.987463 0.382330 0.001519 -0.009189 1233790.000000 1 0 0
-7.224222 9.403084 10.391261 15.766600 -0.915697 0.851218 0.001144 -0.005428 252298.000000 1 0 0
-10.276422 -6.679516 11.868161 17.060892 0.576364 0.801492 0.006986 -0.006101 3424360.000000 1 0 0
-10.903922 -3.960116 10.782761 15.838117 0.348370 0.821927 0.005614 0.002777 -203925.000000 1 0 0
-10.031122 -10.152116 9.792461 17.308413 0.791393 0.969438 0.007775 -0.008663 652296.000000 1 0 0
-9.885322 -3.556716 15.294461 18.555063 0.345376 0.601877 0.017352 -0.007165 1926300.000000 1 0 0
5.586978 -3.386316 16.101161 17.376100 -0.544899 0.385457 0.006507 -0.006469 1642180.000000 1 0 0
-11.233022 0.621084 15.368861 19.046480 -0.055235 0.631889 0.016115 -0.001277 -115500.000000 1 0 0
-3.080522 3.243484 18.721761 19.248743 -0.811161 0.234535 0.007721 -0.009219 472050.000000 1 0 0
0.561178 7.320584 13.945761 15.760397 1.494288 0.484601 -0.006053 -0.004589 4487.450000 1 0 0
-13.181022 -7.354216 12.116761 19.355612 0.508919 0.894373 -0.004685 -0.005346 125483.000000 1 0 0
-1.519822 -1.125816 12.230961 12.376337 0.637558 0.153424 0.000801 -0.001331 1059790.000000 1 0 0
2.026278 -4.967416 13.270061 14.313474 -1.183486 0.384189 -0.001879 -0.004648 81726.100000 1 0 0
-14.580622 -3.978516 8.649261 17.413582 0.266379 1.051008 -0.008572 -0.007539 -75593.100000 1 0 0
8.162378 0.809084 16.133161 18.098561 0.098801 0.470359 0.004322 -0.002754 1478120.000000 1 0 0
-1.254922 11.428784 13.357561 17.624311 -1.461431 0.710700 -0.008879 0.002062 -20934.300000 1 0 0
2.753778 -12.152316 -13.756439 18.560757 -1.347955 2.405589 -0.005077 0.007312 -350417.000000 1 0 0
0.749478 -10.662516 -14.022639 17.631942 -1.500621 2.490294 -0.007063 0.004621 -1317700.000000 1 0 0
3.119778 -14.254516 -12.310639 19.091257 -1.355331 2.271599 -0.000058 0.004182 -799316.000000 1 0 0
-5.132022 -10.135916 -16.179239 19.769730 1.102105 2.529390 0.007798 -0.007249 -669129.000000 1 0 0
-1.240622 -12.064816 -15.018439 19.304208 1.468327 2.462253 -0.000243 -0.002410 225245.000000 1 0 0
5.666278 -15.066616 -12.186639 20.189696 -1.211078 2.218814 -0.001662 0.018404 1279730.000000 1 0 0
1.910278 -11.916816 -16.109939 20.129327 -1.411848 2.498628 -0.003395 0.005010 -390657.000000 1 0 0
1.241378 -14.290516 -14.088439 20.105820 -1.484147 2.347195 0.006609 0.009459 -334130.000000 1 0 0
-1.188622 -10.705616 -15.943039 19.240674 1.460221 2.547419 -0.004091 -0.003258 -340528.000000 1 0 0
-5.939222 -5.705516 -15.083639 17.185559 0.765331 2.641822 0.014813 0.001435 -442332.000000 1 0 0
-6.411222 -7.534016 -16.841039 19.531661 0.865739 2.610478 0.013276 0.009458 182780.000000 1 0 0
4.991678 -12.570716 -11.516739 17.764432 -1.192803 2.276150 -0.005452 0.010841 -391042.000000 1 0 0
-2.028722 -15.461816 -13.186639 20.422315 1.440333 2.272733 0.009937 -0.001365 -276264.000000 1 0 0
15.642278 -7.280716 -8.969039 19.445651 -0.435629 2.050184 -0.000600 0.009030 -7626.670000 1 0 0
19.301478 -3.658316 -4.437539 20.140062 -0.187314 1.792953 -0.003869 0.002914 1377510.000000 1 0 0
14.710978 -11.726216 -8.861939 20.795456 -0.672974 2.011027 0.007182 0.003021 -91623.600000 1 0 0
17.910678 -3.703016 -6.591439 19.440982 -0.203877 1.916702 0.021243 0.002259 536153.000000 1 0 0
9.235378 -9.171916 -15.537739 20.269129 -0.781951 2.444282 0.021840 -0.003473 -123322.000000 1 0 0
1.296178 1.887484 -15.240139 15.411182 0.969037 2.992467 0.008187 -0.005684 -141282.000000 1 0 0
4.761978 -4.311316 -13.896439 15.309308 -0.735770 2.708594 -0.004795 0.001111 -1236660.000000 1 0 0
13.094278 -5.418016 -8.674839 16.615290 -0.392320 2.120107 0.016391 0.004120 -1045370.000000 1 0 0
2.912378 0.997684 -12.255339 12.636086 0.330037 2.895486 0.006618 -0.008219 -2907430.000000 1 0 0
0.664578 6.276684 -12.815939 14.285892 1.465309 2.683968 0.008949 -0.009243 232137.000000 1 0 0
3.101678 -1.184016 -16.749539 17.075402 -0.364661 2.945915 0.008494 -0.010873 -857.904000 1 0 0
13.122278 4.121884 -11.408639 17.870119 0.304354 2.263240 0.004551 -0.003169 654030.000000 1 0 0
-3.826122 9.547784 -16.476139 19.423248 -1.189657 2.583504 -0.002089 0.000747 -86796.800000 1 0 0
-0.228822 -5.079216 -17.732539 18.447053 1.525776 2.862359 0.000947 -0.006518 592800.000000 1 0 0
-0.569522 -8.614416 -17.554039 19.562127 1.504780 2.684520 0.000642 -0.003368 -1768870.000000 1 0 0
5.670378 -10.148216 -12.218339 16.864972 -1.061255 2.381076 0.000672 0.004520 216935.000000 1 0 0
1.710978 -9.836416 -17.968439 20.555956 -1.398576 2.634424 -0.008416 -0.005232 -408692.000000 1 0 0
10.958678 8.887384 -14.649439 20.339230 0.681407 2.374967 0.030574 -0.001341 -268790.000000 1 0 0
11.032078 -3.857316 -12.971739 17.460002 -0.336359 2.408249 0.020716 -0.003447 325673.000000 1 0 0
4.949578 7.254584 -12.326539 15.135088 0.972070 2.522550 -0.002732 -0.002597 -648825.000000 1 0 0
9.699978 -6.062216 -12.676239 17.074164 -0.558579 2.407475 0.017481 0.001013 -1049860.000000 1 0 0
-3.294722 0.351284 -15.933139 16.274014 -0.106219 2.936559 0.009424 0.000171 -1880680.000000 1 0 0
-0.715622 10.765084 -12.812939 16.750240 -1.504418 2.441745 -0.009586 0.001091 -2056640.000000 1 0 0
6.701878 -5.474816 -12.535739 15.232647 -0.684966 2.537384 -0.001827 0.004125 700535.000000 1 0 0
17.818078 -6.182316 -8.118339 20.533202 -0.333972 1.977274 0.003771 0.001945 737298.000000 1 0 0
12.931078 4.660084 -13.997539 19.617856 0.345891 2.365292 -0.002648 -0.005171 269600.000000 1 0 0
14.276978 0.828184 -11.545939 18.380063 0.057943 2.250005 0.014388 -0.002223 -656045.000000 1 0 0
14.810478 6.032284 -11.255639 19.555769 0.386782 2.184093 -0.003224 -0.003970 -207969.000000 1 0 0
8.258178 1.544784 -11.750539 14.445035 0.184924 2.520882 -0.000305 -0.000583 1073840.000000 1 0 0
9.860378 1.210684 -8.975839 13.388745 0.122171 2.305547 -0.000645 0.001117 894382.000000 1 0 0
-0.156222 -5.721916 -12.975139 14.181642 1.543501 2.726118 -0.002489 -0.002769 235981.000000 1 0 0
10.562278 -5.759116 -9.130839 15.103025 -0.499192 2.220023 0.007687 0.005484 -1715340.000000 1 0 0
10.272978 8.592984 -11.222839 17.473568 0.696583 2.268259 0.015167 -0.002050 758719.000000 1 0 0
8.438678 8.083984 -14.661839 18.749176 0.763934 2.468663 0.020161 0.004665 800254.000000 1 0 0
8.518878 10.515584 -10.774939 17.298789 0.889915 2.243205 0.021625 -0.003464 -21750.600000 1 0 0
7.052378 1.722984 -17.832839 19.253957 0.239619 2.754978 0.016101 0.001167 -1305780.000000 1 0 0
12.154078 2.391484 -12.937939 17.911758 0.194282 2.377941 0.005998 -0.002601 -1897430.000000 1 0 0
2.642678 -0.757616 -19.220039 19.415655 -0.279197 2.999522 0.015892 -0.017199 -813362.000000 1 0 0
10.220978 -2.230716 -15.726439 18.888234 -0.214879 2.554591 0.020162 -0.002997 357511.000000 1 0 0
8.282778 -0.855016 -13.145839 15.561123 -0.102864 2.576964 0.005851 -0.005163 75799.800000 1 0 0
0.532378 4.409684 -14.713339 15.369160 1.450649 2.848409 0.007690 -0.004251 -331350.000000 1 0 0
3.915578 -7.631416 -15.716939 17.905096 -1.096734 2.642028 -0.013222 -0.000442 -2021020.000000 1 0 0
11.269378 -5.746816 -14.765939 19.443707 -0.471576 2.433217 0.025685 0.003302 -1337530.000000 1 0 0
-5.979122 4.400784 -16.765639 18.335852 -0.634497 2.724730 0.006553 0.001274 -247953.000000 1 0 0
11.429178 7.780884 -9.098839 16.551651 0.597717 2.152830 0.011121 -0.002516 -1807560.000000 1 0 0
9.603978 6.178784 -13.487739 17.672942 0.571691 2.439025 0.015329 0.002659 -66171.300000 1 0 0
12.145678 0.707784 -10.246939 15.906546 0.058209 2.270768 0.004434 0.000787 1533.770000 1 0 0
5.480978 -7.252116 -13.759439 16.491103 -0.923609 2.557759 -0.009679 0.004402 -931030.000000 1 0 0
8.633678 -10.351516 -10.856139 17.307514 -0.875635 2.248814 0.008502 0.009074 -89209.600000 1 0 0
9.980978 5.025784 -16.042839 19.551243 0.466473 2.533175 0.017968 0.009162 495920.000000 1 0 0
9.936978 -0.281016 -11.095739 14.897581 -0.028272 2.411033 0.005034 -0.001335 -389592.000000 1 0 0
-1.691222 5.536884 -13.962039 15.114756 -1.274350 2.748518 0.004040 -0.005279 532994.000000 1 0 0
1.288378 -0.709716 -14.964639 15.036756 -0.503504 3.043614 0.007870 -0.006495 -1636180.000000 1 0 0
11.306478 -10.511116 -14.625539 21.265616 -0.748959 2.329189 0.027096 0.007770 316064.000000 1 0 0
9.420078 -7.918016 -10.937739 16.464112 -0.698980 2.297404 0.008446 0.008738 -49216.500000 1 0 0
14.036878 -1.096416 -9.827439 17.170167 -0.077951 2.180172 0.004831 0.003575 727462.000000 1 0 0
3.944078 11.231184 -12.279139 17.101827 1.233078 2.371723 0.002061 -0.004706 -1314140.000000 1 0 0
-1.487022 2.902084 -16.995939 17.305932 -1.097280 2.952034 0.009086 -0.003824 252557.000000 1 0 0
5.939778 -0.567316 -17.647339 18.628779 -0.095223 2.815546 0.003482 0.000611 -102475.000000 1 0 0
6.275978 -6.460516 -16.113539 18.460019 -0.799886 2.631888 -0.000340 0.001835 175529.000000 1 0 0
-1.923122 -5.174816 -19.709539 20.468099 1.214983 2.868493 0.010748 -0.014695 -463801.000000 1 0 0
0.027178 -4.348216 -15.194139 15.804101 -1.564546 2.862860 -0.001772 -0.005416 -369142.000000 1 0 0
0.445478 0.709384 -13.008139 13.035082 1.010058 3.077286 0.007182 -0.009245 273176.000000 1 0 0
15.877078 0.528284 -13.518539 20.859329 0.033261 2.275859 0.014189 -0.003412 612033.000000 1 0 0
-0.175822 6.969484 -16.241739 17.674804 -1.545574 2.736131 0.006246 -0.004333 -112210.000000 1 0 0
-5.091222 -0.496416 -18.466439 19.161846 0.097197 2.871360 0.005004 0.008228 -186324.000000 1 0 0
10.245378 -8.572316 -13.199039 18.779431 -0.696722 2.350186 0.014075 -0.000302 -134726.000000 1 0 0
4.035978 8.541384 -17.392739 19.792719 1.129373 2.644021 0.014423 -0.005223 -567422.000000 1 0 0
9.107278 0.552884 -16.715839 19.043830 0.060633 2.641955 0.012393 -0.006726 -574397.000000 1 0 0
3.373478 4.848284 -18.637039 19.550587 0.962889 2.834686 0.018550 0.000897 -118431.000000 1 0 0
1.362078 -8.167316 -15.955439 17.975994 -1.405545 2.662898 -0.009523 -0.004416 507861.000000 1 0 0
4.525678 7.829184 -14.941539 17.465036 1.046671 2.597334 0.004255 0.001722 865769.000000 1 0 0
-5.687422 -0.419616 -15.189839 16.225106 0.073646 2.782436 0.004686 0.002632 -108356.000000 1 0 0
2.869478 3.372884 -13.910039 14.597926 0.865868 2.833382 0.006122 -0.005068 -881130.000000 1 0 0
-2.406822 -10.259516 -18.217839 21.046143 1.340369 2.617172 0.002708 -0.001617 -18650.000000 1 0 0
6.050378 -9.024516 -15.542439 18.963554 -0.980187 2.531501 -0.012828 0.003302 -264193.000000 1 0 0
-1.721422 5.420684 -17.459139 18.362153 -1.263303 2.826675 0.010544 -0.002260 139734.000000 1 0 0
10.015678 -12.346316 -11.882439 19.847864 -0.889246 2.212643 0.015606 0.015936 128817.000000 1 0 0
10.870578 3.585184 -9.465839 14.853455 0.318573 2.261762 -0.001735 0.001630 -616846.000000 1 0 0
4.797978 -0.354816 -10.938139 11.949451 -0.073817 2.727216 0.006003 -0.005995 863404.000000 1 0 0
6.227278 9.485484 -11.468139 16.132936 0.989861 2.361506 0.006860 -0.006090 15244.200000 1 0 0
10.831178 -9.619916 -9.525839 17.337786 -0.726240 2.152474 0.017533 0.009421 -1279110.000000 1 0 0
3.236078 -2.425616 -14.451939 15.007144 -0.643216 2.868732 0.000934 -0.006227 -61576.200000 1 0 0
9.100678 -4.466216 -14.707139 17.862513 -0.456225 2.538089 0.013488 -0.005623 575041.000000 1 0 0
-4.008822 -6.569416 -16.508539 18.214273 1.022892 2.705364 -0.005076 -0.002505 -2380290.000000 1 0 0
5.912978 -7.746416 -11.221039 14.862099 -0.918826 2.426466 -0.003064 0.006078 -31703.300000 1 0 0
5.504378 6.486184 -16.896039 18.916789 0.867097 2.675157 0.015057 -0.001744 -677166.000000 1 0 0
9.289778 1.272084 -19.251539 21.413546 0.136087 2.688358 0.034143 -0.010698 424407.000000 1 0 0
13.027078 5.724284 -9.376139 17.040662 0.414016 2.153426 0.001001 -0.003252 718737.000000 1 0 0
-1.532422 -0.525116 -17.418739 17.493900 0.330131 3.048862 0.008398 -0.001823 247467.000000 1 0 0
-0.341422 -0.661816 -19.681739 19.695823 1.094520 3.103774 0.012217 -0.008198 -603327.000000 1 0 0
2.929978 6.362884 -16.488939 17.915250 1.139262 2.739862 0.008151 -0.003924 -1252310.000000 1 0 0
7.486978 3.920084 -15.806039 17.923526 0.482339 2.650589 0.011183 0.005784 -255076.000000 1 0 0
3.062878 -9.895016 -14.980939 18.213213 -1.270613 2.536644 -0.008563 0.004117 182662.000000 1 0 0
8.795178 -10.669916 -13.514739 19.335213 -0.881415 2.344753 0.011703 0.008707 269299.000000 1 0 0
3.751678 0.156684 -14.808539 15.277188 0.041739 2.893260 0.003493 -0.005716 -1659620.000000 1 0 0
-1.248322 -2.876316 -18.662339 18.923911 1.161327 2.975134 0.010092 -0.010149 -99055.200000 1 0 0
9.168578 10.139784 -13.191239 18.997022 0.835656 2.338361 0.021340 -0.002946 438391.000000 1 0 0
4.554578 2.221584 -10.707139 11.845778 0.453815 2.699546 0.004028 -0.004274 -86573.500000 1 0 0
-0.399322 7.154784 -18.880539 20.194681 -1.515042 2.778848 0.023476 -0.008791 121745.000000 1 0 0
0.778978 -1.743416 -17.665239 17.768145 -1.150597 3.033915 0.011347 -0.010444 -3079810.000000 1 0 0
-4.413522 -2.342316 -14.128239 14.985752 0.487916 2.801663 0.008181 -0.002911 -5567640.000000 1 0 0
10.056078 6.024784 -10.434039 15.693690 0.539771 2.298097 0.004856 0.003367 88588.800000 1 0 0
8.072778 5.265284 -17.932739 20.358686 0.577939 2.648429 0.021425 0.008710 47904.900000 1 0 0
11.493378 0.082584 -13.747739 17.919400 0.007185 2.445258 0.009656 0.002366 436260.000000 1 0 0
6.661678 12.008084 -11.941139 18.197880 1.064301 2.286546 0.015295 -0.008150 -557585.000000 1 0 0
-0.977422 0.614484 -15.074239 15.118387 -0.561240 3.065152 0.008510 -0.005501 -1677480.000000 1 0 0
-4.508322 -2.956216 -19.072339 19.819645 0.580389 2.866113 0.000759 0.007485 444399.000000 1 0 0
5.656178 -12.197816 -13.982739 19.398352 -1.136605 2.375782 -0.005819 0.009149 -239408.000000 1 0 0
2.175778 -4.703516 -13.922839 14.856060 -1.137526 2.785260 -0.001878 -0.002809 -489361.000000 1 0 0
11.727678 1.934584 -15.480139 19.517063 0.163487 2.486775 0.012078 0.001415 362043.000000 1 0 0
9.721978 2.204784 -13.883539 17.091828 0.223011 2.518866 0.009240 0.000739 649838.000000 1 0 0
-2.179622 -4.237216 -16.350739 17.030896 1.095696 2.858025 -0.003020 -0.005781 -1680190.000000 1 0 0
-2.809422 10.159884 -14.286039 17.754070 -1.301017 2.505904 -0.004988 -0.000673 264620.000000 1 0 0
3.502678 5.760884 -13.768539 15.330662 1.024508 2.686237 0.001481 -0.000394 -243736.000000 1 0 0
-5.059522 -2.481416 -16.624739 17.553864 0.455974 2.814779 0.002619 0.003305 450688.000000 1 0 0
-4.263022 6.115484 -13.685139 15.583823 -0.962028 2.642805 -0.001260 0.000121 -1365090.000000 1 0 0
5.864378 -1.123716 -14.077839 15.291803 -0.189322 2.740445 0.006166 -0.005538 -2103820.000000 1 0 0
6.758178 -2.945816 -12.680639 14.667972 -0.411058 2.614975 0.000284 -0.002308 1204560.000000 1 0 0
2.876478 -3.192416 -18.303939 18.801591 -0.837410 2.911001 0.007268 -0.015243 -8299.990000 1 0 0
7.389078 -12.122916 -12.128639 18.672639 -1.023411 2.277777 0.005040 0.011946 -2632220.000000 1 0 0
-6.047122 -5.223516 -17.620439 19.347679 0.712452 2.715835 0.016354 0.000612 403109.000000 1 0 0
0.528678 8.675084 -11.863939 14.706789 1.509929 2.509340 -0.000524 -0.005516 276369.000000 1 0 0
0.493378 8.546784 -14.410839 16.761958 1.513134 2.605547 0.000709 -0.004191 125787.000000 1 0 0
7.609678 -2.378616 -15.199939 17.164008 -0.302956 2.658517 0.005678 -0.006765 -33982.200000 1 0 0
14.281078 1.417684 -8.942639 16.909459 0.098946 2.128046 0.003667 -0.000478 467255.000000 1 0 0
2.654778 10.756384 -14.548239 18.286577 1.328823 2.490743 -0.001093 0.000416 -369722.000000 1 0 0
6.091678 1.049184 -15.542039 16.726157 0.170559 2.763054 0.009426 -0.001297 626346.000000 1 0 0
16.797778 -5.422116 -10.375539 20.474777 -0.312230 2.102204 0.033072 -0.007291 607536.000000 1 0 0
4.912478 -4.245816 -11.256739 12.995137 -0.712733 2.618397 -0.002736 0.002663 -541540.000000 1 0 0
8.573478 -3.672416 -17.157739 19.528932 -0.404701 2.643678 0.007751 -0.009676 423528.000000 1 0 0
13.290778 -9.609416 -8.815139 18.619676 -0.626005 2.063979 0.018835 0.008239 -260179.000000 1 0 0
2.284178 -7.740616 -13.644439 15.852613 -1.283850 2.607451 -0.005719 0.000334 91428.100000 1 0 0
-6.943322 -2.372116 -18.437139 19.843507 0.329208 2.762841 0.006984 0.008493 -822407.000000 1 0 0
-1.552722 -6.469016 -15.735639 17.084188 1.335228 2.741602 -0.001696 -0.003369 258530.000000 1 0 0
1.474878 -7.270716 -18.470039 19.904294 -1.370660 2.759650 -0.007963 -0.004679 -556868.000000 1 0 0
5.195578 10.870284 -14.486939 18.842200 1.124934 2.447846 0.014117 -0.009444 -610979.000000 1 0 0
5.322578 -3.585416 -17.358839 18.507143 -0.592804 2.787477 0.005347 -0.009298 -630924.000000 1 0 0
3.835978 13.090484 -14.133839 19.642833 1.285741 2.373939 0.001219 -0.002222 -262817.000000 1 0 0
8.995678 10.326384 -15.737439 20.862009 0.854159 2.425473 0.025400 -0.005622 457696.000000 1 0 0
2.487678 3.835384 -16.368739 16.995127 0.995397 2.869249 0.010508 -0.000041 378099.000000 1 0 0
16.633778 2.060484 -11.522339 20.339431 0.123246 2.173052 0.003527 0.003739 -5648.560000 1 0 0
10.027078 -3.701716 -10.625139 15.071117 -0.353651 2.353220 0.009204 0.000674 722925.000000 1 0 0
14.689978 -2.163216 -12.064439 19.131797 -0.146207 2.253118 0.018320 -0.000200 59177.300000 1 0 0
-2.725622 -8.698116 -16.093639 18.495715 1.267130 2.626258 0.002375 0.000941 -652325.000000 1 0 0
14.008178 8.104084 -9.038539 18.536462 0.524480 2.080145 0.023408 -0.000940 727826.000000 1 0 0
-8.208322 0.076384 -16.504539 18.433182 -0.009305 2.680060 -0.000546 0.001398 -270245.000000 1 0 0
-3.593722 4.185084 -15.984439 16.909526 -0.861274 2.809285 0.009668 0.000905 114639.000000 1 0 0
15.124278 3.983284 -9.686839 18.396880 0.257522 2.125331 0.009143 -0.000774 768820.000000 1 0 0
5.337978 1.124684 -12.962139 14.063285 0.207657 2.743239 0.005235 -0.004095 -230857.000000 1 0 0
7.789478 -7.810516 -12.969739 17.026282 -0.786747 2.436804 0.002987 0.007316 -3646660.000000 1 0 0
3.226178 -6.139916 -11.874139 13.751436 -1.087002 2.612932 -0.002281 0.001144 -699308.000000 1 0 0
-3.330622 3.748584 -18.515539 19.182547 -0.844370 2.877112 0.017524 -0.001328 -451776.000000 1 0 0
0.875178 5.216384 -17.857239 18.624113 1.404570 2.853627 0.012049 -0.006363 15108.500000 1 0 0
6.386678 7.185784 -10.260039 14.060354 0.844207 2.388700 -0.000682 0.000773 488477.000000 1 0 0
9.681378 3.782784 -11.840739 15.755686 0.372488 2.421162 0.007444 0.000888 113262.000000 1 0 0
4.513278 1.675984 -17.505839 18.155798 0.355563 2.873210 0.011005 -0.001652 -792237.000000 1 0 0
2.619178 8.088284 -13.123639 15.636826 1.257629 2.566750 -0.001290 -0.006439 -1583020.000000 1 0 0
14.306578 -3.575816 -9.982339 17.807631 -0.244924 2.165865 0.014200 0.004463 -304033.000000 1 0 0
-1.262122 9.281584 -16.205139 18.717566 -1.435644 2.617487 0.001267 -0.000724 -2106130.000000 1 0 0
-5.265922 2.056284 -15.851039 16.828954 -0.372280 2.799012 0.006950 0.002344 431493.000000 1 0 0
4.538278 4.215684 -12.036839 13.537114 0.748564 2.666331 0.001456 -0.003719 443656.000000 1 0 0
9.288778 3.049784 -17.450339 20.002423 0.317241 2.630910 0.017696 0.001975 1051070.000000 1 0 0
-4.146022 14.280984 -13.365039 19.994006 -1.288246 2.302922 0.005664 0.003781 -286688.000000 1 0 0
15.530778 -4.786916 -8.167939 18.188866 -0.298982 2.036512 0.013136 0.002702 -587071.000000 1 0 0
1.239378 9.179184 -16.910639 19.281162 1.436587 2.640493 0.005176 0.000117 -382872.000000 1 0 0
0.404378 -3.144316 -12.825439 13.211440 -1.442892 2.899268 0.000769 -0.002990 141880.000000 1 0 0
7.479078 3.491884 -13.159939 15.534280 0.436808 2.581404 0.003852 0.002046 -144304.000000 1 0 0
-2.845822 7.607084 -15.013239 17.069381 -1.212814 2.645695 -0.005450 -0.000825 39684.700000 1 0 0
12.180578 -5.201816 -11.111939 17.288741 -0.403613 2.268849 0.023597 0.005276 -1117030.000000 1 0 0
0.535978 -4.372216 -20.099239 20.576272 -1.448818 2.925844 0.009438 -0.009610 -406553.000000 1 0 0
3.330878 -4.609116 -16.137039 17.109726 -0.945016 2.802780 -0.003110 -0.007854 196141.000000 1 0 0
-5.786522 4.119484 -14.276239 15.945689 -0.618675 2.679910 -0.000264 -0.000313 996587.000000 1 0 0
12.309578 -7.521816 -9.917439 17.505971 -0.548508 2.173070 0.019509 0.008618 319366.000000 1 0 0
-2.114022 -1.811116 -15.182439 15.435534 0.708380 2.960254 0.007686 -0.001357 529876.000000 1 0 0
7.124478 5.885984 -14.316739 17.040306 0.690492 2.568391 0.014181 0.000135 -658008.000000 1 0 0
4.058078 -5.504516 -18.489839 19.714001 -0.935520 2.787334 0.002465 -0.009663 -80734.100000 1 0 0
7.633478 7.382084 -12.276339 16.231871 0.768657 2.428452 0.005652 -0.000026 -18093.500000 1 0 0
12.258978 -2.532716 -11.172939 16.778908 -0.203734 2.299485 0.013548 0.001272 -929814.000000 1 0 0
7.490578 -0.607216 -10.727939 13.098326 -0.080887 2.530517 0.001451 -0.002251 -2228620.000000 1 0 0
5.306178 4.138584 -14.554639 16.034991 0.662399 2.708519 0.003893 -0.000811 -308423.000000 1 0 0
14.684178 2.844384 -13.090139 19.876301 0.191334 2.289727 -0.000759 -0.002308 1055720.000000 1 0 0
-6.185222 6.989984 -15.814439 18.363369 -0.846404 2.608412 -0.008565 0.008030 429365.000000 1 0 0
-11.293822 3.856484 -16.339239 20.233478 -0.329054 2.510757 0.011583 -0.008058 -163750.000000 1 0 0
-4.926322 6.495984 -18.087339 19.839816 -0.921964 2.718123 0.003141 0.013732 -57056.800000 1 0 0
-10.029522 1.647584 -15.546939 18.574530 -0.162819 2.562580 0.006396 -0.003256 -15946.300000 1 0 0
-7.505622 6.125284 -17.827539 20.289766 -0.684477 2.643817 -0.006287 0.000206 -219172.000000 1 0 0
-8.754822 3.860584 -15.592039 18.293789 -0.415316 2.591189 -0.004181 0.007619 -430707.000000 1 0 0
8.877978 13.456184 -12.099539 20.156543 0.987584 2.214646 0.036215 -0.010682 -817885.000000 1 0 0
13.662178 9.259484 -11.307339 20.006226 0.595634 2.171461 0.010307 -0.009243 294682.000000 1 0 0
8.335878 15.929384 -9.088639 20.145359 1.088681 2.038853 0.033341 -0.004960 111719.000000 1 0 0
7.115678 13.746184 -13.900239 20.804016 1.093131 2.302518 0.021212 -0.004862 165919.000000 1 0 0
4.615678 15.868184 -12.435139 20.681790 1.287731 2.215874 0.025891 -0.014837 12625.600000 1 0 0
10.948378 11.080984 -11.630739 19.440403 0.791418 2.212145 0.021960 0.000097 231909.000000 1 0 0
15.667878 9.970684 -9.806439 21.001504 0.566739 2.056623 0.025602 0.004402 -240162.000000 1 0 0
13.264678 10.606984 -9.081539 19.259651 0.674522 2.061823 0.041035 -0.001472 -59092.500000 1 0 0
10.373878 11.935284 -8.426439 17.918516 0.855274 2.060387 0.021149 0.007425 278048.000000 1 0 0
5.308878 16.120284 -9.931339 19.664161 1.252654 2.100234 0.008158 -0.011366 31826.800000 1 0 0
6.692678 14.595084 -11.509039 19.755161 1.140849 2.192701 0.018980 -0.004184 322781.000000 1 0 0
10.791578 14.068084 -9.985639 20.349008 0.916443 2.083711 0.042517 0.004637 -277978.000000 1 0 0
8.160278 -18.785016 -1.454639 20.532485 -1.160988 1.641701 0.007555 0.004673 -519951.000000 1 0 0
7.084378 -17.511516 -3.351139 19.185196 -1.186369 1.746370 0.005023 0.001042 -336452.000000 1 0 0
4.476478 -18.349416 5.481361 19.666857 -1.331513 1.288345 0.013563 0.005723 183565.000000 1 0 0
9.597678 -17.225916 -2.937139 19.936760 -1.062469 1.718657 0.004390 0.004218 -853598.000000 1 0 0
-9.833222 -12.275716 -10.110239 18.697658 0.895427 2.142092 0.018088 -0.005699 441947.000000 1 0 0
-5.128522 -7.024916 -12.104439 14.905323 0.940188 2.518518 0.003959 -0.003883 -129638.000000 1 0 0
-10.782822 -9.421916 -5.658239 15.396669 0.718144 1.947113 0.001584 -0.004350 -1397820.000000 1 0 0
-4.754022 -11.462816 -14.031939 18.732117 1.177653 2.417475 0.014384 -0.005297 163153.000000 1 0 0
-2.899622 -15.421716 7.506961 17.395160 1.384944 1.124581 -0.002979 0.004360 67215.300000 1 0 0
-4.942422 -11.860816 -11.598739 17.310033 1.175975 2.305084 0.008476 -0.002035 256632.000000 1 0 0
-14.345622 -12.761116 -4.169239 19.647532 0.727010 1.784624 -0.007760 -0.003810 -615893.000000 1 0 0
-3.198122 -12.166316 -3.396539 13.030108 1.313745 1.834511 0.003618 -0.004561 731656.000000 1 0 0
-2.441722 -17.344816 -1.612439 17.589901 1.430940 1.662594 -0.009496 -0.004532 -1014000.000000 1 0 0
-5.722822 -12.096616 3.700261 13.884191 1.128905 1.301027 0.001247 -0.002802 -549888.000000 1 0 0
-8.895422 -10.426816 -11.812339 18.093601 0.864488 2.282132 0.009033 -0.004554 -105047.000000 1 0 0
-9.838122 -11.982616 -7.486939 17.217026 0.883361 2.020675 0.007791 -0.007220 -446504.000000 1 0 0
-10.816122 -14.977716 6.027861 19.433363 0.945360 1.255413 0.009790 -0.012606 -883068.000000 1 0 0
-9.412522 -15.776516 0.643461 18.382276 1.032869 1.535785 0.006623 -0.001754 -469659.000000 1 0 0
-14.727222 -7.806216 -8.070339 18.519138 0.487400 2.021705 -0.010892 -0.004688 -108475.000000 1 0 0
-2.459422 -16.563416 5.117261 17.509480 1.423388 1.274211 -0.002520 0.003753 -158466.000000 1 0 0
4.336778 -15.780116 5.515261 17.269563 -1.302592 1.245739 0.007197 -0.000483 -191605.000000 1 0 0
4.200278 -14.600116 -10.080439 18.232416 -1.290673 2.156620 0.001150 0.009310 55404.600000 1 0 0
-7.583222 -13.977516 -0.265339 15.904296 1.073706 1.587481 0.004636 -0.004143 789709.000000 1 0 0
3.069178 -14.993916 9.533161 18.031044 -1.368891 1.013718 0.004505 -0.001997 255114.000000 1 0 0
2.357378 -17.429316 10.236361 20.349972 -1.436359 1.043712 0.012741 0.001538 -227120.000000 1 0 0
-8.245022 -16.951116 -6.031239 19.791326 1.118088 1.880463 0.018696 -0.010041 -57674.900000 1 0 0
-6.524222 -9.047816 -7.715039 13.562827 0.946061 2.175888 0.013310 -0.007437 370633.000000 1 0 0
-6.020222 -13.036316 -4.823439 15.147745 1.138170 1.894865 0.003173 -0.008705 208560.000000 1 0 0
2.161278 -19.473716 -4.667639 20.141589 -1.460264 1.804664 -0.000906 -0.007630 95197.900000 1 0 0
-5.394822 -12.766016 8.287061 16.147775 1.170967 1.031886 0.000652 -0.003151 798534.000000 1 0 0
2.048278 -17.598416 3.294161 18.020854 -1.454928 1.386966 0.001169 -0.004223 248522.000000 1 0 0
-17.533822 -10.204216 -2.519639 20.442836 0.527059 1.694363 -0.009040 0.001542 568734.000000 1 0 0
-3.595022 -15.561516 2.558461 16.175002 1.343759 1.411955 -0.009759 0.004194 -92512.900000 1 0 0
-10.037622 -10.431316 -14.118339 20.221121 0.804630 2.343673 0.004040 -0.005369 -331976.000000 1 0 0
5.934378 -14.620916 -5.655639 16.762288 -1.185229 1.914953 -0.009445 0.003750 286466.000000 1 0 0
-7.353122 -12.282216 -10.782539 17.921618 1.031348 2.216361 0.009344 -0.004773 -1423740.000000 1 0 0
-7.022422 -14.290416 4.088861 16.439258 1.114046 1.319432 -0.004296 0.002047 399554.000000 1 0 0
3.186478 -15.014916 -3.177239 15.674699 -1.361678 1.774909 -0.000440 0.000238 -595729.000000 1 0 0
-7.534622 -11.298016 7.779661 15.650521 0.982634 1.050559 0.001054 -0.004738 -1840890.000000 1 0 0
-12.718122 -12.335116 -0.931539 17.741857 0.770112 1.623326 -0.001529 0.001818 -1445470.000000 1 0 0
-1.927422 -13.681416 3.956061 14.371727 1.430839 1.291929 -0.008322 0.004050 -2645570.000000 1 0 0
-3.048422 -13.999516 5.230861 15.252581 1.356391 1.220742 -0.006745 0.005365 -595708.000000 1 0 0
-14.467022 -10.191416 -4.369739 18.227845 0.613712 1.812883 -0.006210 -0.001264 648969.000000 1 0 0
-6.373322 -8.637416 -10.436939 14.971770 0.935101 2.342152 0.008906 -0.002497 355504.000000 1 0 0
0.523678 -19.597916 2.268461 19.735716 -1.544082 1.455600 0.001848 -0.009462 186775.000000 1 0 0
6.212978 -14.036016 -8.197439 17.401404 -1.154075 2.061310 -0.003564 0.005809 -3414060.000000 1 0 0
-4.030122 -16.652916 -5.949039 18.137050 1.333355 1.904987 -0.002823 -0.007585 225074.000000 1 0 0
-3.783922 -13.711516 -13.267939 19.451528 1.301532 2.321431 0.018512 -0.000917 -2159800.000000 1 0 0
-8.224722 -14.577216 -4.592039 17.355924 1.057103 1.838565 0.012374 -0.011309 -1456790.000000 1 0 0
-4.506622 -14.333116 10.100361 18.104285 1.266163 0.978944 0.003260 -0.003812 -1484020.000000 1 0 0
-0.391022 -12.127716 -9.989339 15.716911 1.538565 2.259555 0.007246 0.001411 168399.000000 1 0 0
2.430678 -17.153416 6.797161 18.610462 -1.430031 1.196913 0.005952 -0.004880 -206665.000000 1 0 0
-2.935322 -19.083716 -3.447039 19.613425 1.418179 1.747463 -0.005045 -0.011161 -1354060.000000 1 0 0
0.497378 -15.384916 -3.182639 15.718531 -1.538479 1.774683 0.003270 -0.003928 957139.000000 1 0 0
5.917378 -18.024116 0.522361 18.977803 -1.253580 1.543268 0.008121 -0.006401 -522585.000000 1 0 0
-6.972222 -16.746916 3.884261 18.551511 1.176293 1.359858 -0.003062 0.004281 745615.000000 1 0 0
-5.379622 -13.441716 -9.513739 17.324298 1.190102 2.152150 0.006220 -0.006432 84196.600000 1 0 0
5.558378 -15.211916 -2.129339 16.334995 -1.220472 1.701523 -0.000818 0.001826 333266.000000 1 0 0
-8.962522 -10.264316 -0.572939 13.638594 0.853002 1.612817 0.002182 -0.003026 -821746.000000 1 0 0
-7.421222 -17.877316 -3.223339 19.623019 1.177324 1.735807 0.011980 -0.023367 88206.900000 1 0 0
7.769378 -16.162316 -1.261939 17.977102 -1.122700 1.641051 0.004444 0.003176 -182075.000000 1 0 0
-8.213322 -10.147716 -9.393839 16.083502 0.890364 2.194526 0.010225 -0.005426 213756.000000 1 0 0
-9.234122 -14.931116 -7.038139 18.914086 1.016922 1.952079 0.016769 -0.008010 -654597.000000 1 0 0
-11.517822 -10.421316 -11.980139 19.616009 0.735460 2.227782 0.010217 0.004724 -22728.900000 1 0 0
6.518378 -16.290816 2.319761 17.699187 -1.190181 1.439352 0.009979 -0.001922 1500700.000000 1 0 0
-2.227722 -11.006916 -6.187039 12.821638 1.371101 2.074356 0.008044 -0.002180 -138852.000000 1 0 0
-12.350922 -15.258116 -3.262139 19.899672 0.890310 1.735469 0.000475 -0.011063 -411871.000000 1 0 0
-0.376422 -19.561516 -2.845639 19.770996 1.551556 1.715228 -0.000725 -0.013934 431216.000000 1 0 0
-5.903222 -15.562716 -4.645139 17.280726 1.208245 1.842948 0.001292 -0.011182 -2793530.000000 1 0 0
1.870278 -15.894116 -1.056539 16.038614 -1.453664 1.636719 0.003056 -0.008306 216081.000000 1 0 0
-13.149922 -11.880016 5.226461 18.476231 0.734706 1.284006 0.015604 -0.008811 376466.000000 1 0 0
1.987578 -15.318316 -9.031139 17.893092 -1.441765 2.099863 0.003811 0.013214 -864763.000000 1 0 0
-11.846922 -16.732916 0.334261 20.504921 0.954721 1.554494 0.008264 -0.010491 173452.000000 1 0 0
-7.504222 -16.523316 -0.940639 18.171905 1.144489 1.622583 0.008462 -0.007139 268883.000000 1 0 0
-2.997822 -14.316416 -1.802839 14.737603 1.364381 1.693433 -0.005366 -0.003024 442770.000000 1 0 0
-1.916722 -10.431216 -13.259939 16.979696 1.389075 2.466948 0.008234 -0.000002 -108805.000000 1 0 0
1.312378 -19.588316 4.818261 20.214849 -1.503898 1.330127 0.007670 -0.006443 84313.900000 1 0 0
-17.450122 -9.286116 2.546561 19.930471 0.489037 1.442674 -0.004645 0.003134 -607838.000000 1 0 0
-2.740622 -15.625516 -8.123839 17.823146 1.397168 2.044070 -0.000758 -0.000221 -89001.300000 1 0 0
-10.489822 -12.152816 0.308661 16.056855 0.858712 1.551572 0.003773 -0.003599 224827.000000 1 0 0
-6.906322 -11.408216 -6.582139 14.871760 1.026429 2.029285 0.008254 -0.006891 -226389.000000 1 0 0
-2.144922 -13.506516 -6.737139 15.245187 1.413305 2.028533 -0.001241 -0.000407 592092.000000 1 0 0
-14.219322 -14.430916 -0.963339 20.282221 0.792783 1.618311 0.001491 0.001524 -172715.000000 1 0 0
-9.588522 -11.256016 -4.253639 15.386069 0.865225 1.850905 0.009815 -0.009130 1074880.000000 1 0 0
9.362378 -15.368016 -5.212239 18.734927 -1.023631 1.852726 0.003585 0.010809 120146.000000 1 0 0
-5.662222 -10.839516 -9.373439 15.408350 1.089414 2.224757 0.007730 -0.005642 -440600.000000 1 0 0
-10.426222 -15.968116 -4.884639 19.686202 0.992357 1.821541 0.015313 -0.006151 -94975.400000 1 0 0
2.238978 -17.360816 -3.171639 17.789611 -1.442537 1.750041 0.003735 -0.002448 485592.000000 1 0 0
-0.314122 -14.449616 -8.200539 16.617428 1.549061 2.086894 0.005232 0.003499 -1101110.000000 1 0 0
-0.628122 -18.307216 -7.178639 19.674389 1.536500 1.944292 -0.000306 0.003560 27593.800000 1 0 0
-1.847822 -9.973916 -10.565939 14.646929 1.387608 2.376583 0.007853 -0.003242 29190.800000 1 0 0
-5.136522 -17.371116 1.816261 18.205448 1.283295 1.470865 -0.004946 -0.002625 6249.700000 1 0 0
0.158678 -12.772116 -2.715939 13.058655 -1.558373 1.780306 -0.001484 -0.001561 -2071490.000000 1 0 0
2.523878 -15.029516 3.052361 15.542626 -1.404421 1.373125 -0.000616 -0.000695 -955413.000000 1 0 0
-9.292522 -13.049916 6.762261 17.389061 0.952012 1.171381 0.002209 -0.005707 -832656.000000 1 0 0
-1.002322 -17.822816 -4.618539 18.438773 1.514617 1.823972 -0.004517 -0.003999 -336920.000000 1 0 0
-9.687122 -17.420316 -2.143639 20.047517 1.063296 1.677929 0.012348 -0.016539 -532286.000000 1 0 0
1.159678 -16.232016 1.363961 16.330450 -1.499474 1.487176 0.001028 -0.008809 400151.000000 1 0 0
-0.513322 -17.985116 4.022061 18.436509 1.542263 1.350870 0.008034 -0.008643 283948.000000 1 0 0
-17.445222 -9.137216 -0.121039 19.693632 0.482479 1.576942 -0.007764 0.002572 728511.000000 1 0 0
-14.915422 -7.305716 -10.623139 19.715334 0.455462 2.139839 0.012604 -0.005570 523820.000000 1 0 0
2.767978 -12.690016 -9.045839 15.827995 -1.356038 2.179140 -0.001412 0.007800 395072.000000 1 0 0
-11.524922 -14.632216 1.815561 18.714215 0.903637 1.473628 -0.001614 -0.006136 -212775.000000 1 0 0
-2.240222 -15.538416 10.703061 19.000434 1.427610 0.972415 0.006278 0.003046 306448.000000 1 0 0
-7.039222 -15.754916 1.384461 17.311406 1.150611 1.490737 0.002584 -0.007263 -1430450.000000 1 0 0
-12.581222 -14.985016 -5.916439 20.441187 0.872379 1.864435 0.009605 -0.004624 234680.000000 1 0 0
0.847778 -13.690516 -5.161539 14.655731 -1.508951 1.930702 0.001453 0.002921 342265.000000 1 0 0
5.885478 -16.356516 -7.483439 18.925547 -1.225396 1.977316 0.000777 -0.000707 70674.500000 1 0 0
-6.525322 -12.734716 5.954061 15.498505 1.097275 1.176488 0.002043 -0.002991 -567929.000000 1 0 0
-2.573822 -13.563816 0.641161 13.820737 1.383269 1.524388 -0.001078 -0.001406 2717210.000000 1 0 0
-4.294222 -15.500216 0.089861 16.084313 1.300532 1.565209 -0.007726 0.000014 162986.000000 1 0 0
-17.596822 -7.573416 -2.220739 19.285654 0.406423 1.686202 -0.014725 0.005958 504147.000000 1 0 0
1.021678 -12.629416 -12.008739 17.457256 -1.490075 2.329380 0.001563 0.005987 -598139.000000 1 0 0
1.258578 -17.204016 -5.649939 18.151694 -1.497770 1.887317 0.004959 0.000916 -643342.000000 1 0 0
-12.839522 -6.444816 -9.267839 17.096252 0.465208 2.143728 0.004226 0.002773 194442.000000 1 0 0
-11.503022 -13.699516 -8.601339 19.848912 0.872332 2.018993 0.015253 -0.010338 72008.500000 1 0 0
-4.337922 -9.756116 3.424261 11.212713 1.152412 1.260447 0.001699 -0.000178 -4194120.000000 1 0 0
-7.008522 -14.306516 9.427961 18.511678 1.115275 1.036427 0.000631 -0.007325 -636057.000000 1 0 0
-5.358322 -15.810916 -8.079239 18.546450 1.244044 2.021525 0.003161 -0.010463 185915.000000 1 0 0
-0.258722 -13.407116 2.155661 13.581774 1.551501 1.411405 -0.003920 -0.001142 565397.000000 1 0 0
-11.082222 -13.404816 -4.585439 17.986968 0.879965 1.828573 0.013096 -0.006795 -919169.000000 1 0 0
-9.630522 -10.539016 6.626161 15.739245 0.830411 1.136253 0.007630 -0.003297 -47999.800000 1 0 0
-15.552622 -7.992716 -4.798839 18.132745 0.474717 1.838638 0.004741 0.002596 455287.000000 1 0 0
-14.535322 -7.352116 5.390761 17.157783 0.468285 1.251196 0.010381 -0.002841 -673559.000000 1 0 0
-1.599822 -19.396716 -0.219139 19.463814 1.488504 1.582055 -0.002685 -0.003664 -634521.000000 1 0 0
-15.300122 -12.033116 -1.345739 19.511551 0.666438 1.639823 -0.008775 0.005620 -85542.600000 1 0 0
-4.455722 -12.130016 -6.869839 14.635076 1.218767 2.059418 0.002520 -0.005283 41238.000000 1 0 0
-7.645422 -18.239316 2.013261 19.879093 1.173872 1.469347 0.001578 -0.001913 237958.000000 1 0 0
-2.544822 -11.797916 -8.676439 14.864304 1.358350 2.194086 0.003965 -0.001773 212863.000000 1 0 0
-1.454822 -20.341316 -5.118739 21.025869 1.499397 1.816717 -0.001685 -0.001853 -159083.000000 1 0 0
-5.450122 -8.902916 -13.862539 17.353263 1.021474 2.496166 0.009447 -0.003213 750157.000000 1 0 0
-8.135022 -19.078516 -0.958639 20.762643 1.167743 1.616984 0.004026 0.001343 101093.000000 1 0 0
-17.127822 -7.305716 5.563461 19.434193 0.403175 1.280463 0.004720 -0.004714 -152565.000000 1 0 0
-3.594922 -14.601116 -4.346739 15.652802 1.329389 1.852193 -0.002837 -0.006221 -2197520.000000 1 0 0
-3.099722 -14.917316 -10.944139 18.759232 1.365918 2.193705 0.009133 -0.001990 -331999.000000 1 0 0
-0.100322 -16.728216 6.256361 17.860161 1.564799 1.212908 0.003795 -0.004011 -1369400.000000 1 0 0
-11.066122 -11.514816 3.841361 16.425776 0.805266 1.334749 0.005901 -0.006197 118246.000000 1 0 0
-0.218922 -14.589116 -0.134139 14.591375 1.555792 1.579990 0.000640 -0.002066 203165.000000 1 0 0
-7.349222 -9.544616 -2.466839 12.296181 0.914626 1.772785 0.006192 -0.002087 -159045.000000 1 0 0
-11.125522 -14.461816 -0.701039 18.259596 0.915055 1.609199 0.000719 -0.011481 126167.000000 1 0 0
0.216778 -14.547316 -10.768939 18.100869 -1.555896 2.207988 0.004720 0.006252 -201882.000000 1 0 0
-1.452922 -13.998716 -3.988439 14.628147 1.467377 1.846948 -0.003770 -0.002991 -4318240.000000 1 0 0
-11.397722 -8.049816 -7.613839 15.895854 0.614919 2.070292 0.005059 -0.004378 446902.000000 1 0 0
-0.240422 -17.208416 -0.444039 17.215823 1.556826 1.596592 0.002961 -0.006877 -1426960.000000 1 0 0
-12.814222 -9.423716 4.421061 16.509285 0.634098 1.299695 0.009734 -0.006597 -130371.000000 1 0 0
3.876478 -16.859716 1.528861 17.367053 -1.344799 1.482650 0.004998 -0.008305 2713230.000000 1 0 0
-3.739922 -17.846516 -8.242339 20.010530 1.364225 1.995335 0.007564 -0.003780 -33403.700000 1 0 0
-13.340922 -11.174916 2.565461 17.590922 0.697276 1.424434 0.002007 -0.003505 -329294.000000 1 0 0
-8.453422 -12.237816 4.079361 15.422895 0.966297 1.303111 0.003686 -0.006112 516533.000000 1 0 0
-8.257522 -9.408916 -5.820239 13.805418 0.850480 2.005995 0.013635 -0.008883 1570540.000000 1 0 0
3.806978 -17.578816 -5.216039 18.727384 -1.357524 1.853054 -0.001983 0.005512 153668.000000 1 0 0
-2.598622 -12.993016 11.278761 17.400625 1.373399 0.865603 0.005665 -0.011275 -275451.000000 1 0 0
-0.075922 -16.756416 -9.495839 19.260172 1.566265 2.086365 0.002679 0.007574 -129395.000000 1 0 0
-7.133522 -10.683816 -14.670539 19.500149 0.982083 2.422388 0.013856 0.007874 -2197410.000000 1 0 0
-4.632222 -18.686316 -1.439839 19.305674 1.327801 1.645447 0.004188 -0.013875 -912417.000000 1 0 0
-2.544622 -17.292916 1.042461 17.510191 1.424697 1.511227 -0.001166 -0.004952 956030.000000 1 0 0
3.895178 -14.675916 -7.440439 16.909023 -1.311365 2.026426 -0.003766 0.008760 379213.000000 1 0 0
-0.907922 -15.845916 -6.208539 17.042985 1.513562 1.943663 0.000455 0.000352 384392.000000 1 0 0
-9.575922 -15.176516 8.301661 19.772266 1.007916 1.137501 0.006088 -0.000856 -455981.000000 1 0 0
-7.363222 -12.002916 -1.791539 14.194952 1.020544 1.697343 0.001238 -0.005838 1168430.000000 1 0 0
-7.445422 -15.011316 -9.370239 19.198315 1.110364 2.080680 0.012667 -0.008967 -963113.000000 1 0 0
-5.076722 -13.114916 -0.572039 14.074849 1.201464 1.611450 -0.000952 -0.001661 2324070.000000 1 0 0
-6.559322 -13.698416 -7.318939 16.859365 1.124221 2.019854 0.006365 -0.006816 216577.000000 1 0 0
5.592678 -15.432416 0.190361 16.415656 -1.223119 1.559200 0.001256 -0.001397 649430.000000 1 0 0
-14.365922 -12.737816 0.978461 19.224699 0.725401 1.519878 -0.005387 -0.007009 1038960.000000 1 0 0
0.960178 -15.343316 11.008961 18.908636 -1.508298 0.949341 0.006600 -0.005788 -153422.000000 1 0 0
-9.291122 -10.666316 1.976161 14.282873 0.854196 1.431992 0.004110 -0.001444 -47221.500000 1 0 0
-9.447322 -8.751116 -3.588039 13.368170 0.747160 1.842530 0.007931 -0.004224 -335817.000000 1 0 0
-12.344422 -7.063416 -12.301439 18.804308 0.519724 2.283897 0.007342 -0.000357 1460570.000000 1 0 0
-13.278922 -8.371116 -0.423539 15.703017 0.562478 1.597771 0.000566 -0.001154 -112533.000000 1 0 0
-11.232722 -9.660116 0.497861 14.823622 0.710270 1.537204 0.003727 -0.000559 -149408.000000 1 0 0
-15.807222 -12.105416 3.029461 20.139191 0.653546 1.419797 0.009326 0.001906 198674.000000 1 0 0
-10.489022 -12.461816 -2.227639 16.440159 0.871145 1.706714 0.010999 -0.010066 486082.000000 1 0 0
-3.467722 -8.832816 -12.085239 15.365440 1.196690 2.475951 0.003903 -0.001583 -1771910.000000 1 0 0
-0.300422 -15.547416 3.808861 16.009991 1.551476 1.330588 0.001524 -0.000841 -870394.000000 1 0 0
-15.816622 -7.618216 1.202461 17.596837 0.448867 1.502409 -0.003261 -0.000016 635144.000000 1 0 0
-6.274922 -13.401016 -13.344139 19.925560 1.132876 2.304601 0.010797 -0.001432 -944441.000000 1 0 0
-15.432722 -10.274016 1.134661 18.574493 0.587353 1.509671 0.001179 -0.000861 913577.000000 1 0 0
-10.036922 -8.324216 -12.574839 18.115158 0.692388 2.338050 0.015723 0.001521 391792.000000 1 0 0
-13.224822 -11.622616 -6.145439 18.647991 0.721006 1.906623 0.000925 -0.003954 -13121.700000 1 0 0
-12.243922 -11.355916 -3.750939 17.115490 0.747788 1.791744 0.002094 -0.001358 -1760280.000000 1 0 0
-11.819822 -11.135016 -8.834139 18.486179 0.755574 2.069034 0.007385 -0.008372 1052130.000000 1 0 0
-13.146122 -8.399316 -5.774939 16.634872 0.568546 1.925336 -0.002673 -0.003514 -829662.000000 1 0 0
-13.475822 -8.103516 -3.139939 16.035086 0.541402 1.767887 0.003610 -0.004488 198214.000000 1 0 0
-4.385422 -16.901416 -3.239439 17.759047 1.316924 1.754234 -0.000522 -0.010252 305148.000000 1 0 0
-15.406322 -8.910116 -1.706739 17.878979 0.524342 1.666403 -0.003422 0.001058 -1604150.000000 1 0 0
-9.207622 -15.385716 3.551661 18.278809 1.031515 1.375248 -0.002960 -0.011002 -1088440.000000 1 0 0
4.889978 -17.018616 7.715861 19.315271 -1.291003 1.159858 0.021588 -0.026461 123024.000000 1 0 0
-8.311622 -15.474116 6.019061 18.567725 1.077887 1.240664 0.000935 0.005093 -232305.000000 1 0 0
0.888778 -15.997316 8.513561 18.143450 -1.515295 1.082371 0.000512 -0.002075 326039.000000 1 0 0
-10.971222 -7.795016 -10.203539 16.889115 0.617736 2.219494 0.010026 0.001388 690596.000000 1 0 0
-4.840622 -15.913616 5.778261 17.608609 1.275508 1.236452 -0.003355 0.003085 -272718.000000 1 0 0
-1.644922 -13.134616 -12.065639 17.910990 1.446209 2.309925 0.008167 -0.001678 323438.000000 1 0 0
-6.521222 -14.210116 -2.579839 15.846429 1.140554 1.734327 0.006192 -0.007021 440097.000000 1 0 0
-17.706422 -6.919816 -6.985139 20.253232 0.372557 1.922918 0.001061 -0.004651 369897.000000 1 0 0
-17.301322 -4.223316 -10.234939 20.540841 0.239422 2.092402 -0.005064 -0.002488 963485.000000 1 0 0
-15.265622 -5.382116 -8.863639 18.454552 0.338958 2.071788 -0.007663 -0.010263 589042.000000 1 0 0
-16.024922 -5.406316 -5.663139 17.835289 0.325378 1.893914 -0.002210 -0.000618 -172447.000000 1 0 0
-15.242922 -4.340416 -12.359239 20.098176 0.277408 2.233110 0.009028 -0.005214 -147620.000000 1 0 0
-18.645622 -5.088716 -5.452839 20.082025 0.266429 1.845777 -0.002592 -0.001333 -405384.000000 1 0 0
-17.379222 -4.357916 -7.603139 19.463723 0.245689 1.972114 -0.010764 -0.003667 466436.000000 1 0 0
12.178478 -7.917416 8.820561 16.994208 -0.576456 1.025077 0.009571 -0.003413 107636.000000 1 0 0
15.989178 -3.411716 1.737561 16.441190 -0.210224 1.464915 0.005391 -0.003276 56660.300000 1 0 0
12.085678 -2.188216 12.427461 17.472655 -0.179118 0.779519 0.010099 -0.007879 -204692.000000 1 0 0
9.643778 -10.038016 5.195061 14.857755 -0.805426 1.213595 0.002336 -0.000389 228666.000000 1 0 0
16.920178 -1.821316 7.260061 18.501840 -0.107229 1.167561 0.020432 -0.010749 35961.200000 1 0 0
5.165078 -12.784216 9.095361 16.517863 -1.186829 0.987668 -0.003650 0.002864 -98608.500000 1 0 0
14.957878 -9.031516 -2.093739 17.598015 -0.543206 1.690055 0.007641 0.002322 456712.000000 1 0 0
11.105778 -8.545816 6.532861 15.461163 -0.655860 1.134557 0.007934 -0.003649 -2287420.000000 1 0 0
20.012978 -3.342916 3.819661 20.646651 -0.165509 1.384723 0.016093 -0.011134 -299782.000000 1 0 0
13.608578 -8.616416 6.957661 17.545514 -0.564446 1.163041 0.013031 -0.002911 -1584770.000000 1 0 0
8.296378 -11.103216 8.786561 16.410818 -0.929086 1.005800 0.003165 0.001428 -2569820.000000 1 0 0
16.716778 0.018484 -0.547239 16.725743 0.001106 1.603521 -0.004297 0.003903 -873934.000000 1 0 0
12.390478 -12.358216 2.394361 17.663024 -0.784095 1.434820 0.013584 -0.002427 -416438.000000 1 0 0
10.241278 -11.685116 3.624961 15.955126 -0.851153 1.341598 0.007358 0.000138 -1498020.000000 1 0 0
16.389478 3.002784 2.374461 16.830620 0.181204 1.429244 0.004706 -0.004099 411664.000000 1 0 0
18.224578 -3.422816 0.496861 18.549873 -0.185650 1.544008 -0.004162 -0.005033 -739836.000000 1 0 0
13.378978 -11.656816 -0.160039 17.745535 -0.716718 1.579815 0.014867 0.001270 -176864.000000 1 0 0
16.905078 -7.660016 -0.806239 18.577070 -0.425445 1.614210 0.016963 -0.000389 180417.000000 1 0 0
10.135878 -5.718516 9.874161 15.262257 -0.513669 0.867198 0.007214 -0.001680 -1167220.000000 1 0 0
11.269278 -13.061316 6.136061 18.309720 -0.858919 1.229058 0.014816 -0.001988 -2761040.000000 1 0 0
13.044178 -1.813216 10.044961 16.563199 -0.138121 0.919192 0.015706 -0.007494 -427674.000000 1 0 0
15.570678 -2.046316 -1.400239 15.766867 -0.130672 1.659722 -0.002950 -0.001180 -459013.000000 1 0 0
10.489578 -12.369616 9.052461 18.573791 -0.867458 1.061712 0.020932 -0.008051 -259320.000000 1 0 0
14.526678 1.262084 3.196961 14.927752 0.086663 1.354962 0.006153 -0.004922 1166450.000000 1 0 0
15.006178 -5.774716 5.340461 16.942646 -0.367354 1.250120 0.015037 -0.004471 -1365280.000000 1 0 0
14.387178 -3.403416 -3.050839 15.095753 -0.232289 1.774297 0.003047 0.003225 663093.000000 1 0 0
14.067078 0.604584 9.539161 17.007169 0.042952 0.975335 0.018929 -0.007552 -308138.000000 1 0 0
15.402578 -3.340116 4.449861 16.376723 -0.213548 1.295618 0.008170 -0.005782 -1069170.000000 1 0 0
18.613178 4.780084 -4.070439 19.643525 0.251379 1.779524 -0.013920 0.006700 510756.000000 1 0 0
18.140278 -5.896416 -5.218639 19.775530 -0.314273 1.837853 0.024955 -0.002784 405593.000000 1 0 0
17.322178 -0.074316 5.687261 18.232068 -0.004290 1.253565 0.023383 -0.015150 1299770.000000 1 0 0
16.962978 -6.774616 4.023661 18.703687 -0.379969 1.353975 0.012396 -0.003049 93153.200000 1 0 0
9.623178 -6.696616 14.416261 18.581679 -0.607958 0.682764 0.003040 -0.003076 -142184.000000 1 0 0
8.499778 -12.290616 5.231761 15.832776 -0.965753 1.234028 0.001883 -0.002119 -862656.000000 1 0 0
16.703878 -10.254816 -0.612439 19.610096 -0.550591 1.602032 0.013436 0.005860 -146192.000000 1 0 0
14.900778 -8.823216 0.379461 17.321268 -0.534614 1.548887 0.020255 -0.002758 -188972.000000 1 0 0
9.951178 -12.974116 1.409161 16.411562 -0.916502 1.484827 0.009781 -0.002832 10645.100000 1 0 0
16.782878 -8.198216 8.909661 20.694390 -0.454395 1.125711 0.023320 -0.005849 537594.000000 1 0 0
19.023078 -0.177116 -1.706439 19.100283 -0.009310 1.660257 -0.004141 0.005093 -625062.000000 1 0 0
13.545478 -1.109016 7.613561 15.578068 -0.081691 1.060156 0.013499 -0.008388 -49123.100000 1 0 0
12.703678 -9.790616 -3.152239 16.345526 -0.656613 1.764862 0.008676 0.002734 -908269.000000 1 0 0
8.841278 -15.341016 1.373561 17.759551 -1.047973 1.493377 0.012402 0.002914 -315011.000000 1 0 0
11.452378 -8.393216 11.220761 18.097196 -0.632454 0.902018 0.011017 -0.007000 -662858.000000 1 0 0
13.917278 -3.959916 -0.519439 14.478998 -0.277207 1.606679 0.002376 -0.002676 -818209.000000 1 0 0
7.064178 -13.382016 10.796661 18.588944 -1.085090 0.951072 0.004825 0.008041 -245915.000000 1 0 0
15.363278 -6.868816 1.981661 16.945145 -0.420434 1.453582 0.009947 -0.001629 -896843.000000 1 0 0
15.889778 -6.161716 -2.650839 17.247572 -0.369927 1.725101 0.010882 0.000986 -353025.000000 1 0 0
11.166378 -8.488516 3.810961 14.535003 -0.649988 1.305503 0.007570 -0.003286 979471.000000 1 0 0
10.627478 -14.537516 -0.476039 18.014141 -0.939542 1.597225 0.019665 -0.003233 782708.000000 1 0 0
13.306878 -12.905916 4.691961 19.121981 -0.770103 1.322895 0.013589 0.000665 345712.000000 1 0 0
12.854878 -11.206916 6.763161 18.346204 -0.717016 1.193250 0.012994 -0.001342 37580.400000 1 0 0
10.739478 -10.588716 1.292061 15.136932 -0.778330 1.485334 0.005300 -0.000977 33033.300000 1 0 0
13.907578 -7.727716 12.027561 19.944938 -0.507169 0.923492 0.010983 -0.007274 958593.000000 1 0 0
15.235278 -1.730016 -4.858639 16.084559 -0.113069 1.877658 0.003343 0.004863 100353.000000 1 0 0
12.799178 -11.533516 -7.102239 18.635524 -0.733430 1.961796 0.016651 0.007492 142110.000000 1 0 0
17.511478 -5.386216 2.059661 18.436523 -0.298398 1.458846 0.004466 -0.005422 160099.000000 1 0 0
10.493978 -9.774816 9.168961 17.021764 -0.749932 1.001949 0.005519 -0.000944 -2803930.000000 1 0 0
16.325078 1.780184 10.000961 19.227492 0.108617 1.023783 0.029930 -0.002231 -569954.000000 1 0 0
18.320978 3.793584 0.720861 18.723492 0.204177 1.532286 -0.002957 0.005533 905691.000000 1 0 0
13.310178 -4.064616 5.787161 15.072265 -0.296382 1.176714 0.011237 -0.007318 -2184180.000000 1 0 0
12.277778 -6.238816 6.730161 15.328461 -0.470137 1.116241 0.010847 -0.004293 -323758.000000 1 0 0
16.383178 -10.116616 3.558661 19.581075 -0.553188 1.388041 0.004859 -0.005545 1295780.000000 1 0 0
16.178678 -8.139516 -5.589539 18.953741 -0.466126 1.870152 0.014002 0.000273 -595495.000000 1 0 0
13.943678 -0.359416 5.186461 14.881354 -0.025771 1.214804 0.009401 -0.008945 1036120.000000 1 0 0
18.104578 -4.369416 5.140861 19.320869 -0.236815 1.301474 0.008349 -0.009488 -5794.620000 1 0 0
13.534378 -13.657716 7.249461 20.549143 -0.789934 1.210249 0.018249 0.005200 299396.000000 1 0 0
14.802178 -13.569216 -0.795039 20.096273 -0.741968 1.610368 0.011973 0.002943 531228.000000 1 0 0
17.812278 -5.976716 7.965961 20.407227 -0.323734 1.169785 0.031052 0.000570 -458544.000000 1 0 0
14.324878 3.270484 9.258461 17.367132 0.224461 1.008533 0.019241 -0.005607 6730.390000 1 0 0
18.765678 3.901984 3.301261 19.449279 0.205011 1.400234 0.014643 -0.002698 -56164.200000 1 0 0
14.937178 -10.512016 8.271661 20.050989 -0.613237 1.145565 0.022376 -0.006673 -371954.000000 1 0 0
14.983178 -4.805716 10.454661 18.891545 -0.310375 0.984350 0.019140 -0.004956 158612.000000 1 0 0
17.834778 -7.957416 1.929461 19.624541 -0.419668 1.472318 0.024088 -0.006387 197996.000000 1 0 0
18.333978 -5.801716 -1.850539 19.318881 -0.306476 1.666733 0.001450 -0.001748 -231458.000000 1 0 0
14.235178 -12.993116 -5.551239 20.056860 -0.739813 1.851233 0.014848 0.000872 -741863.000000 1 0 0
15.473678 -1.494016 9.381161 18.156899 -0.096254 1.027837 0.024401 -0.007099 -1375150.000000 1 0 0
12.822178 -10.253016 10.080761 19.265366 -0.674516 1.020126 -0.003281 -0.011625 -2424650.000000 1 0 0
16.496378 2.016684 4.828061 17.306290 0.121646 1.288067 0.014870 -0.009465 -2163060.000000 1 0 0
14.998878 2.278184 0.062161 15.171036 0.150738 1.566699 -0.000492 0.002101 -1011220.000000 1 0 0
15.012178 -10.007416 -6.975239 19.343418 -0.587970 1.939708 0.018173 0.004907 525424.000000 1 0 0
16.289978 -0.106116 -3.137139 16.589644 -0.006514 1.761044 0.000612 0.007605 -111181.000000 1 0 0
11.934478 2.348684 13.583061 18.233146 0.194315 0.730314 0.012839 0.001813 -254421.000000 1 0 0
17.696078 -2.924716 9.518161 20.305185 -0.163794 1.082915 0.023262 -0.008782 683742.000000 1 0 0
7.691278 -18.207616 4.435361 20.256986 -1.171112 1.350053 0.022675 -0.004531 -299186.000000 1 0 0
6.715278 -11.236716 6.667461 14.690602 -1.032129 1.099705 -0.000475 0.000391 178039.000000 1 0 0
18.147678 2.188984 -1.331339 18.327638 0.120041 1.643501 -0.000359 0.009277 518794.000000 1 0 0
17.619378 -2.324216 3.585361 18.130065 -0.131155 1.371726 0.010275 -0.008141 669526.000000 1 0 0
12.421078 -13.510116 -1.965739 18.457263 -0.827371 1.677501 0.007249 0.003247 -475818.000000 1 0 0
14.836178 -8.201716 4.509861 17.541926 -0.505005 1.310786 0.013682 -0.005613 -87503.900000 1 0 0
11.704878 -3.248916 14.830861 19.170656 -0.270753 0.686257 0.005642 -0.006061 13356.600000 1 0 0
11.918178 -13.781216 -6.438439 19.324037 -0.857765 1.910474 0.008746 0.000316 -580211.000000 1 0 0
10.462178 -12.145216 -1.286439 16.081616 -0.859707 1.650876 0.007782 -0.002371 -1127810.000000 1 0 0
13.114978 -8.034816 2.029261 15.513827 -0.549665 1.439617 0.006821 0.000657 -784010.000000 1 0 0
8.823478 -7.910816 10.180961 15.623275 -0.730914 0.861034 0.011649 -0.002327 -2346850.000000 1 0 0
15.677078 -3.760416 8.197161 18.086043 -0.235419 1.100409 0.023863 -0.005740 -1195290.000000 1 0 0
9.884078 -17.286116 5.561761 20.674574 -1.051376 1.298427 0.020090 -0.001056 -598890.000000 1 0 0
15.237178 -6.256516 8.361661 18.472492 -0.389618 1.101056 0.018861 -0.000682 -635101.000000 1 0 0
16.413678 -5.130016 -0.271939 17.198833 -0.302926 1.586608 -0.002382 -0.003209 -983987.000000 1 0 0
13.757578 -10.484216 3.633661 17.674649 -0.651180 1.363734 0.010223 -0.004187 -372554.000000 1 0 0
14.862678 -10.015816 -4.457839 18.468571 -0.592987 1.814578 0.020142 -0.000435 505187.000000 1 0 0
13.650178 -6.502716 -0.032839 15.119979 -0.444576 1.572968 0.010146 -0.001768 -35428.600000 1 0 0
17.811278 -1.009016 -5.073539 18.547251 -0.056590 1.847875 -0.005197 0.009688 582205.000000 1 0 0
14.358178 0.262884 -1.706839 14.461662 0.018307 1.689097 0.002321 0.003010 -3024510.000000 1 0 0
4.754078 -12.841016 11.726861 18.028095 -1.216218 0.862584 -0.009012 0.002614 -1284560.000000 1 0 0
11.902378 -7.556616 13.588861 19.581271 -0.565675 0.803805 0.006037 -0.009957 -1278570.000000 1 0 0
12.085278 -5.915316 11.569261 17.745216 -0.455184 0.860623 0.009547 -0.004213 583288.000000 1 0 0
13.262378 -4.597416 8.458061 16.387974 -0.333688 1.028489 0.014228 -0.005753 -1489650.000000 1 0 0
15.475278 -1.123816 3.085661 15.819876 -0.072493 1.374488 0.005258 -0.005550 -450750.000000 1 0 0
15.167578 -10.388416 5.825161 19.284893 -0.600526 1.263945 0.022721 -0.005772 586655.000000 1 0 0
13.626078 -8.043616 -5.791039 16.849507 -0.533264 1.921642 0.017510 0.002839 -1130790.000000 1 0 0
9.735178 -2.215816 13.414961 16.722581 -0.223797 0.639815 0.009472 -0.009248 -1957670.000000 1 0 0
9.807678 -9.158716 13.786661 19.239144 -0.751195 0.771889 0.013257 -0.003019 -113705.000000 1 0 0
20.334378 6.370084 -2.814639 21.493885 0.303583 1.702124 0.009859 0.015395 313942.000000 1 0 0
11.314878 -3.647316 10.522961 15.876463 -0.311830 0.846241 0.013165 -0.004025 665310.000000 1 0 0
10.054778 -14.230916 -2.967439 17.675498 -0.955691 1.739479 0.005013 0.004508 205307.000000 1 0 0
14.892878 -12.693616 2.611261 19.741945 -0.705844 1.438138 0.014613 0.007428 585733.000000 1 0 0
11.615978 -0.722016 14.474161 18.572926 -0.062077 0.677224 0.022740 -0.000250 -7124.080000 1 0 0
19.120678 -1.964516 5.735061 20.058678 -0.102384 1.280836 0.025024 -0.013097 894877.000000 1 0 0
19.013778 -0.341916 7.772961 20.544089 -0.017981 1.182778 0.039524 -0.007909 538796.000000 1 0 0
18.921378 0.727784 0.717161 18.948945 0.038445 1.532940 -0.001652 -0.003177 45172.000000 1 0 0
18.453878 0.767384 3.567761 18.811257 0.041560 1.379980 0.012097 -0.009926 -48422.800000 1 0 0
16.653078 -3.916416 -4.221639 17.620600 -0.230979 1.812735 -0.001109 0.002485 166393.000000 1 0 0
11.054478 -8.322716 15.868561 21.054223 -0.645343 0.717123 0.017146 -0.008169 211180.000000 1 0 0
16.550878 -7.556016 6.435661 19.298774 -0.428273 1.230809 0.021057 -0.003441 381214.000000 1 0 0
18.816578 2.105384 5.886161 19.827837 0.111426 1.269390 0.031199 -0.013159 -10339.700000 1 0 0
15.557078 1.761884 7.621961 17.413248 0.112772 1.117746 0.033836 -0.008076 555136.000000 1 0 0
8.672778 -15.857516 3.747661 18.458680 -1.070322 1.366345 0.012982 -0.004311 362788.000000 1 0 0
11.356078 -15.144116 2.011261 19.035491 -0.927380 1.464940 0.011869 0.003746 525007.000000 1 0 0
7.615578 -16.155816 6.037561 18.853635 -1.130303 1.244821 0.009743 -0.003742 -454389.000000 1 0 0
14.480078 -11.672116 -2.521839 18.768874 -0.678438 1.705567 0.013160 0.001464 1377870.000000 1 0 0
13.741178 -4.912716 3.256961 14.952008 -0.343356 1.351208 0.002965 -0.001498 -1189250.000000 1 0 0
-1.033122 10.101184 -5.412539 11.506382 -1.468873 2.060534 -0.000024 0.000822 -1311370.000000 1 0 0
8.353278 -1.744616 -8.094439 11.761840 -0.205894 2.329795 -0.000680 0.001338 -3633820.000000 1 0 0
2.920778 -10.125916 7.674361 13.036907 -1.289973 0.941391 -0.006583 0.000735 567293.000000 1 0 0
-6.254422 1.260584 8.342061 10.502230 -0.198886 0.652920 0.003584 -0.001149 -547026.000000 1 0 0
7.243478 -6.272016 -7.173139 11.969131 -0.713644 2.213427 -0.003916 0.003471 185458.000000 1 0 0
-11.228422 -4.423716 -4.140639 12.758982 0.375302 1.901308 0.004030 -0.003791 212618.000000 1 0 0
2.139678 -3.290716 2.832461 4.840441 -0.994269 0.945712 0.002930 0.000487 1132990.000000 1 0 0
-3.544222 -4.188516 8.831061 10.396769 0.868526 0.555941 0.003608 -0.001246 -2423360.000000 1 0 0
-4.819422 -1.016016 -2.392239 5.475576 0.207775 2.022938 0.004155 -0.003406 -711381.000000 1 0 0
5.040178 -5.246916 -3.633839 8.132546 -0.805492 2.034011 0.003343 -0.002363 8753.160000 1 0 0
2.593078 14.178384 -8.711439 16.841609 1.389906 2.114439 -0.000983 -0.005187 197311.000000 1 0 0
5.408278 -5.461716 13.749961 15.752499 -0.790314 0.509733 0.006146 -0.006021 -1465720.000000 1 0 0
-4.648022 -0.782316 9.863361 10.931698 0.166749 0.445787 0.006421 -0.000196 -2389660.000000 1 0 0
-1.006922 11.980584 -2.595539 12.299801 -1.486947 1.783418 -0.003965 -0.000039 -470931.000000 1 0 0
3.172478 9.389384 -10.552039 14.476556 1.244960 2.387518 0.002049 -0.004540 -243398.000000 1 0 0
-10.637922 2.601984 1.154661 11.012218 -0.239885 1.465751 -0.004629 0.000857 307004.000000 1 0 0
5.585178 -9.056716 -0.619639 10.658437 -1.018196 1.628965 -0.004137 -0.001629 514165.000000 1 0 0
-6.985922 5.463484 9.412661 12.932554 -0.663712 0.755649 0.002551 -0.000926 319405.000000 1 0 0
-5.324722 -1.761116 5.087061 7.571815 0.319418 0.834104 0.007025 -0.003953 987348.000000 1 0 0
6.676178 -3.737416 -7.467539 10.691294 -0.510347 2.344052 0.000460 0.000801 437536.000000 1 0 0
6.261078 4.888984 11.025261 13.588953 0.662957 0.624356 -0.003329 0.003029 -68927.400000 1 0 0
3.670278 -9.902316 3.314861 11.068654 -1.215846 1.266647 -0.007153 0.000870 1094660.000000 1 0 0
-6.658922 6.582484 -5.761839 10.994050 -0.779626 2.122439 0.002802 -0.005511 313131.000000 1 0 0
-10.839122 8.425684 5.216861 14.686536 -0.660770 1.207654 -0.002044 -0.002785 127352.000000 1 0 0
-9.187122 -5.516516 5.192161 11.907716 0.540759 1.119610 0.003074 -0.003392 -900850.000000 1 0 0
3.119778 9.866884 -8.044439 13.107304 1.264556 2.231582 0.003853 -0.004954 358369.000000 1 0 0
-8.047722 -8.457316 6.167961 13.203627 0.810209 1.084741 0.004249 -0.003279 -946828.000000 1 0 0
-7.874122 -5.746916 -7.615739 12.370462 0.630479 2.233993 0.010089 -0.006023 -440156.000000 1 0 0
9.234578 -1.670916 6.983361 11.697723 -0.179005 0.931059 0.008464 -0.006835 -434432.000000 1 0 0
-4.060822 -0.496616 -4.910539 6.391424 0.121690 2.446979 0.009711 -0.007856 -708646.000000 1 0 0
9.117378 1.114784 -4.603739 10.274422 0.121666 2.035410 -0.001459 0.003458 -3357920.000000 1 0 0
-1.887322 -10.705516 10.548361 15.147210 1.396295 0.800442 -0.004020 -0.003584 613464.000000 1 0 0
-12.953922 0.327684 -2.597539 13.215850 -0.025291 1.768632 0.000042 -0.003629 -993493.000000 1 0 0
-9.759222 -5.134116 -6.079239 12.592010 0.484292 2.074629 0.010638 -0.004731 -2029300.000000 1 0 0
-5.547422 8.312184 -0.090939 9.993726 -0.982297 1.579896 -0.003900 0.000150 510052.000000 1 0 0
6.327178 9.558884 0.383161 11.469623 0.986090 1.537384 0.007381 -0.003933 231977.000000 1 0 0
-0.640722 -12.074916 -0.017839 12.091917 1.517784 1.572272 0.001592 -0.000261 -458246.000000 1 0 0
6.090578 4.682784 2.287561 8.016017 0.655461 1.281400 -0.001062 -0.000700 195997.000000 1 0 0
3.481878 -7.472016 -8.287339 11.689076 -1.134726 2.358849 0.001340 -0.000730 1135020.000000 1 0 0
-6.458822 -9.778916 4.523861 12.562201 0.987086 1.202403 0.002889 -0.002672 -2267020.000000 1 0 0
-0.126122 6.557884 -9.228539 11.322000 -1.551567 2.523695 0.005776 -0.004842 -1340570.000000 1 0 0
-17.274022 -2.814916 4.303661 18.023237 0.161537 1.329683 -0.003051 -0.002926 478239.000000 1 0 0
-8.383222 0.876884 -9.164839 12.451571 -0.104221 2.397996 0.006841 -0.005278 1153540.000000 1 0 0
-10.089422 -5.795216 -11.833339 16.595448 0.521372 2.364631 0.015767 -0.000633 717671.000000 1 0 0
2.147978 9.407484 6.365361 11.559947 1.346318 0.987666 -0.003227 0.004049 158160.000000 1 0 0
-11.371822 1.662084 -1.245139 11.559898 -0.145130 1.678718 -0.000871 -0.001274 -1749180.000000 1 0 0
-6.072422 -5.249616 -3.095039 8.603026 0.712853 1.938809 0.009742 -0.006303 751471.000000 1 0 0
-6.953722 -8.228316 1.208561 10.840667 0.869156 1.459080 0.006474 -0.003292 -369011.000000 1 0 0
-0.002022 10.782984 -7.851439 13.338585 -1.570609 2.200155 0.000073 -0.001671 22999.900000 1 0 0
-2.905722 9.275984 -4.185939 10.583439 -1.267226 1.977428 0.001598 -0.002564 -283839.000000 1 0 0
3.368178 -4.808016 9.430561 11.108426 -0.959712 0.556790 0.000319 -0.000302 -508765.000000 1 0 0
-8.961422 1.621484 -0.545739 9.123274 -0.179004 1.630650 0.000387 -0.000578 -1965730.000000 1 0 0
2.417578 3.561084 -10.492739 11.341234 0.974380 2.752319 0.007779 -0.005771 -857856.000000 1 0 0
-13.565622 0.546684 0.996661 13.613166 -0.040277 1.497518 -0.000409 -0.002254 -1256760.000000 1 0 0
9.399178 -12.775316 -5.134739 16.670897 -0.936491 1.883893 0.005905 0.004171 -1984730.000000 1 0 0
-4.838622 9.500284 -8.179239 13.437545 -1.099726 2.225199 -0.001479 -0.002896 -1307890.000000 1 0 0
-2.247522 7.077584 8.390561 11.204689 -1.263313 0.724481 -0.004244 0.002459 -2020720.000000 1 0 0
-10.677022 -1.158616 -4.438739 11.620826 0.108092 1.962717 0.004381 -0.003134 -3613000.000000 1 0 0
2.774378 -7.188216 9.648561 12.347565 -1.202450 0.673868 -0.002934 0.001328 -384307.000000 1 0 0
-16.108622 -6.459316 3.381761 17.681821 0.381355 1.378354 -0.000161 -0.002157 -839439.000000 1 0 0
-10.817922 0.034284 6.247161 12.492223 -0.003169 1.047101 0.002127 -0.001536 -1418380.000000 1 0 0
-8.268122 10.005084 9.362661 16.003842 -0.880169 0.945884 -0.001039 -0.008345 1114310.000000 1 0 0
0.191078 -6.081416 -3.844839 7.197425 -1.539387 2.134353 0.001885 -0.002695 487061.000000 1 0 0
5.045078 1.379584 -2.985939 6.022615 0.266926 2.089538 -0.000759 0.003520 405036.000000 1 0 0
0.345878 5.318384 3.797461 6.544123 1.505853 0.951717 -0.004028 0.003253 -970077.000000 1 0 0
5.965678 -11.380416 -1.487439 12.935056 -1.087972 1.686044 -0.004347 -0.000346 -3829700.000000 1 0 0
6.117978 -13.415016 5.210361 15.637780 -1.142919 1.231111 0.000017 -0.002479 148141.000000 1 0 0
8.163678 -8.354216 -6.047639 13.153422 -0.796933 2.048540 -0.003371 0.002286 643111.000000 1 0 0
-13.121222 -1.377116 -4.669739 13.995334 0.104571 1.910984 0.002149 -0.002272 -3675820.000000 1 0 0
-6.763122 -1.562116 -7.061039 9.901429 0.226995 2.364754 0.008977 -0.006880 -1144220.000000 1 0 0
-5.661722 12.863584 -4.476039 14.749977 -1.156176 1.879119 -0.001668 0.000646 771531.000000 1 0 0
-4.383822 6.915384 -6.757539 10.616250 -1.005806 2.260784 0.005452 -0.004237 -3214420.000000 1 0 0
-9.391122 -3.695316 -8.157139 12.976419 0.374882 2.250564 0.010748 -0.004457 537238.000000 1 0 0
-2.212922 -6.372916 9.161161 11.377080 1.236584 0.634734 0.002345 0.001300 -622565.000000 1 0 0
7.472978 -6.119116 10.089961 13.967687 -0.686119 0.763560 0.005489 -0.000932 655746.000000 1 0 0
9.763978 -5.001016 12.369461 16.533269 -0.473352 0.725518 0.012186 0.000709 -265139.000000 1 0 0
-6.505122 2.801184 -9.058539 11.498712 -0.406614 2.478005 0.002714 -0.005635 354563.000000 1 0 0
7.425378 5.433284 8.871561 12.781291 0.631698 0.803620 -0.004189 0.003320 276621.000000 1 0 0
12.695878 3.278084 11.186661 17.235792 0.252682 0.864479 0.015838 0.002130 -907444.000000 1 0 0
-7.444022 -7.300316 -3.863239 11.119024 0.775652 1.925640 0.010921 -0.007747 -480509.000000 1 0 0
2.325978 1.388184 -5.966539 6.552619 0.538076 2.715428 0.007084 -0.001493 213040.000000 1 0 0
12.792278 6.825784 -7.120539 16.153507 0.490154 2.027291 0.006530 -0.000510 392821.000000 1 0 0
0.786978 -7.775916 1.025261 7.882599 -1.469933 1.440360 0.001143 -0.002274 361089.000000 1 0 0
-10.318122 -5.984816 -8.574239 14.690107 0.525606 2.194043 0.009450 -0.002742 -1216190.000000 1 0 0
-6.607822 0.226084 3.096461 7.300856 -0.034201 1.132803 0.003599 -0.003715 -45960.900000 1 0 0
10.662478 -8.022316 1.303361 13.406892 -0.645027 1.473427 0.000614 0.000339 -421562.000000 1 0 0
6.220678 0.997484 10.519361 12.261678 0.158996 0.539617 0.000836 0.000897 -282070.000000 1 0 0
-12.968522 5.371384 1.899061 14.164772 -0.392676 1.436322 -0.005671 0.002633 143770.000000 1 0 0
1.998578 7.372184 3.610761 8.448728 1.306062 1.129211 -0.005702 0.002640 231262.000000 1 0 0
9.934278 -9.504516 -0.867139 13.775980 -0.763293 1.633784 -0.000484 -0.000505 672147.000000 1 0 0
6.840578 -11.778716 -9.069639 16.364291 -1.044646 2.158238 -0.003605 0.006342 -137668.000000 1 0 0
10.217978 3.419684 11.953161 16.092836 0.322956 0.733609 -0.003074 0.002510 -356753.000000 1 0 0
-11.051222 -3.080916 -1.873339 11.624584 0.271882 1.732655 -0.001235 -0.001231 -507695.000000 1 0 0
12.414678 0.988384 6.775361 14.177681 0.079447 1.072546 0.010457 -0.005814 -384008.000000 1 0 0
-9.453222 9.174884 2.975261 13.505335 -0.770457 1.348672 -0.007655 -0.000630 440200.000000 1 0 0
-6.644722 7.642084 -8.785339 13.406564 -0.855095 2.285378 0.001993 -0.005462 -992508.000000 1 0 0
8.526878 5.391384 11.982061 15.663475 0.563818 0.699804 -0.000399 0.006311 -2251360.000000 1 0 0
1.371378 4.880684 -2.781139 5.782429 1.296878 2.072550 0.002916 -0.000927 704755.000000 1 0 0
1.237178 0.465484 9.507061 9.598515 0.359863 0.138153 -0.002943 0.001454 577244.000000 1 0 0
2.453178 12.604284 -4.013139 13.453302 1.378569 1.873709 0.006191 -0.006456 636161.000000 1 0 0
2.205778 0.653584 13.104561 13.304967 0.288064 0.173784 -0.002629 -0.002330 -222893.000000 1 0 0
-12.266622 -1.757816 0.878961 12.423064 0.142332 1.499985 -0.004210 -0.002440 -111485.000000 1 0 0
3.262278 8.803184 -1.223939 9.467657 1.215907 1.700435 0.005731 -0.001316 894006.000000 1 0 0
3.643278 -2.890016 -5.778539 7.417357 -0.670609 2.463956 0.004197 -0.001788 -1985030.000000 1 0 0
-7.769922 -7.061116 9.265761 14.003049 0.737642 0.847718 0.005751 -0.000334 -49895.500000 1 0 0
-7.005822 10.855084 -3.538039 13.395227 -0.997665 1.838095 -0.000689 0.000795 637050.000000 1 0 0
0.365478 0.468984 2.468961 2.539545 0.908807 0.236320 -0.000651 0.001841 -1788760.000000 1 0 0
-7.187222 4.587284 -1.975839 8.752330 -0.568075 1.798509 0.005236 -0.003060 -863505.000000 1 0 0
-6.909822 -3.910216 -5.956139 9.925272 0.514963 2.214420 0.006604 -0.006408 -19628.600000 1 0 0
2.968278 -6.189316 13.563461 15.201506 -1.123617 0.468505 -0.002493 -0.004364 -1661230.000000 1 0 0
-5.541922 -0.634816 -11.780239 13.034183 0.114051 2.699354 0.009877 -0.007700 -740120.000000 1 0 0
11.938578 2.489084 -0.730839 12.217173 0.205546 1.630653 0.003200 -0.001628 -1687960.000000 1 0 0
6.159378 -11.002516 10.845161 16.631621 -1.060449 0.860471 -0.000685 0.001803 194359.000000 1 0 0
-8.136322 6.301484 -10.393539 14.626486 -0.658990 2.361143 0.000781 -0.005273 248484.000000 1 0 0
2.831578 7.906084 11.138361 13.949447 1.226878 0.646029 -0.005993 0.006596 598427.000000 1 0 0
-6.218722 -10.155816 -0.456839 11.917290 1.021359 1.609140 0.005822 -0.001177 1181430.000000 1 0 0
11.199978 4.292084 6.166161 13.486401 0.365960 1.095937 -0.001377 -0.002533 250199.000000 1 0 0
-7.870922 10.690784 1.294661 13.338681 -0.936164 1.473583 -0.008569 0.004056 335832.000000 1 0 0
4.398878 -2.609516 -3.567139 6.235719 -0.535422 2.179799 0.007491 -0.001245 -5389620.000000 1 0 0
6.468278 6.277984 6.222161 10.952944 0.770470 0.966624 -0.001438 0.001563 -4500110.000000 1 0 0
-0.387722 10.326684 -10.165539 14.495824 -1.533268 2.347979 -0.003055 -0.001785 -552328.000000 1 0 0
13.989978 6.645884 -2.452839 15.681316 0.443486 1.727859 0.011157 0.003461 671285.000000 1 0 0
1.477578 9.444684 -6.112639 11.346790 1.415609 2.139703 0.004499 -0.004967 -17312.000000 1 0 0
0.587178 7.332284 7.258361 10.333971 1.490886 0.792063 -0.008290 0.004399 30313.200000 1 0 0
12.320578 6.296784 1.890561 13.964968 0.472471 1.435001 0.005804 -0.003338 -1018990.000000 1 0 0
-6.766322 6.686384 -3.135639 10.016141 -0.779456 1.889208 0.000847 -0.003707 754366.000000 1 0 0
1.058078 9.819484 11.025661 14.802263 1.463458 0.730467 -0.003808 0.004700 -2637180.000000 1 0 0
-3.506822 13.775384 -10.976639 17.959555 -1.321520 2.228355 -0.009409 0.008844 131768.000000 1 0 0
-10.043822 -5.528016 -2.280939 11.689312 0.503142 1.767187 0.002098 -0.001939 379521.000000 1 0 0
-4.081222 3.891784 -12.452039 13.669515 -0.761643 2.716341 0.002030 -0.007415 -474577.000000 1 0 0
-3.265422 8.451884 2.470661 9.391564 -1.202108 1.304591 -0.000881 0.001667 -3180490.000000 1 0 0
7.112878 8.807884 7.150861 13.390544 0.891464 1.007444 -0.002008 0.003666 -1028870.000000 1 0 0
-1.394622 -2.157216 -8.216339 8.608530 0.996891 2.838579 0.007812 -0.009506 -1436460.000000 1 0 0
0.880878 -1.327316 4.838161 5.093674 -0.984883 0.318082 -0.000232 0.000625 261971.000000 1 0 0
2.723678 -8.837916 -6.064339 11.059087 -1.271851 2.151196 -0.002531 -0.000881 177085.000000 1 0 0
5.267678 3.836184 8.814661 10.961888 0.629435 0.636605 -0.004115 0.003187 -153175.000000 1 0 0
6.087678 -7.543716 -2.743639 10.074474 -0.891810 1.846616 -0.001829 -0.001381 864485.000000 1 0 0
1.835478 2.318484 -8.390939 8.896753 0.901154 2.802769 0.008325 -0.006862 179117.000000 1 0 0
-5.408722 10.930384 -0.536739 12.207197 -1.111290 1.614780 -0.006221 0.003243 408623.000000 1 0 0
-5.327022 3.341284 -3.387539 7.142602 -0.560203 2.064934 0.005184 -0.002001 893529.000000 1 0 0
1.955878 13.818984 -6.284139 15.306214 1.430195 1.993866 -0.003857 -0.002164 463366.000000 1 0 0
-5.365822 -2.516116 2.671661 6.500820 0.438472 1.147275 -0.001571 -0.003066 426396.000000 1 0 0
10.419678 -3.468616 -1.852239 11.136955 -0.321352 1.737887 -0.002867 0.002111 -32260.400000 1 0 0
2.328578 -3.363416 7.011861 8.117945 -0.965240 0.528135 -0.003035 0.001975 -1401190.000000 1 0 0
-2.890222 9.867384 -11.695939 15.572849 -1.285860 2.420442 -0.003371 0.001081 -2941860.000000 1 0 0
0.511078 -2.031116 9.379361 9.610361 -1.324290 0.219698 -0.001700 -0.000104 283585.000000 1 0 0
9.317478 2.742284 4.985561 10.917478 0.286234 1.096561 -0.001285 -0.004217 -711133.000000 1 0 0
13.419278 2.103684 -4.934239 14.451617 0.155500 1.919236 0.005637 0.003564 -293264.000000 1 0 0
-6.409122 3.777784 7.778761 10.763717 -0.532618 0.763119 0.002063 -0.000451 -748241.000000 1 0 0
10.659778 0.113184 1.910861 10.830285 0.010617 1.393431 -0.000139 -0.001416 1324370.000000 1 0 0
15.385678 6.702584 -4.573839 17.394359 0.410846 1.836874 0.011345 0.005778 311647.000000 1 0 0
8.049678 -4.948316 -9.274339 13.239959 -0.551174 2.346868 0.000633 0.005749 1769010.000000 1 0 0
4.412878 5.564884 -2.233539 7.445141 0.900347 1.875489 0.001865 -0.000049 38602.200000 1 0 0
-1.610422 -10.480416 1.416861 10.697667 1.418329 1.437960 -0.000955 -0.000202 -867630.000000 1 0 0
-2.717322 12.174684 -12.672639 17.782085 -1.351201 2.364084 -0.006157 -0.001520 542991.000000 1 0 0
8.300478 4.124984 -9.681139 13.402906 0.461211 2.377942 -0.001264 0.003064 115496.000000 1 0 0
4.179978 7.653584 -8.952139 12.497614 1.070916 2.369293 0.005391 -0.004788 -2586870.000000 1 0 0
-1.739622 -4.940716 -2.559139 5.829765 1.232253 2.025257 0.008232 -0.005223 882568.000000 1 0 0
-3.273922 -8.900816 7.166861 11.887262 1.218333 0.923662 0.002715 0.003943 -928937.000000 1 0 0
1.082978 7.194984 -1.381639 7.406049 1.421399 1.758451 0.003617 -0.001693 1002650.000000 1 0 0
0.427578 -0.946216 -2.185239 2.419384 -1.146379 2.698013 0.007295 -0.000899 -2174980.000000 1 0 0
4.071478 -6.625916 7.492761 10.799128 -1.019799 0.804002 0.000913 0.003040 -459131.000000 1 0 0
-14.003122 3.973284 5.986061 15.738721 -0.276476 1.180633 0.001517 0.004687 -1327750.000000 1 0 0
4.249378 6.358284 12.629361 14.764340 0.981649 0.544481 -0.002857 0.005149 -822701.000000 1 0 0
8.310678 10.156084 -7.253139 14.994047 0.884999 2.075713 0.014802 -0.004591 -344583.000000 1 0 0
12.453878 5.240684 9.535061 16.537268 0.398314 0.956259 0.012524 0.002947 -477506.000000 1 0 0
7.594978 4.124984 0.270761 8.647109 0.497546 1.539479 0.002466 0.000152 -1392740.000000 1 0 0
-10.900122 -7.467316 -1.010839 13.251237 0.600634 1.647153 0.002572 -0.002942 -1438680.000000 1 0 0
10.504478 6.842384 0.219861 12.538366 0.577343 1.553260 0.003592 -0.001668 -1156910.000000 1 0 0
14.732378 3.645084 4.128061 15.728016 0.242549 1.305220 0.008546 -0.007138 86229.900000 1 0 0
2.167278 5.580884 8.236561 10.182548 1.200382 0.628535 -0.009153 0.005119 -74593.100000 1 0 0
4.297378 0.050584 11.781861 12.541222 0.011770 0.349772 0.001680 -0.000425 -3223550.000000 1 0 0
-1.571922 -1.448116 -0.465239 2.187333 0.744426 1.785131 0.008574 -0.004971 -838857.000000 1 0 0
3.102278 -5.173416 -9.435439 11.198923 -1.030629 2.572761 -0.001495 0.000108 413937.000000 1 0 0
-3.957322 -5.278616 -1.429339 6.750348 0.927494 1.784154 0.006517 -0.007219 -180767.000000 1 0 0
-1.027822 -8.518016 8.520061 12.091503 1.450712 0.788892 0.002923 0.004718 -474808.000000 1 0 0
3.989578 8.643684 -5.943539 11.222997 1.138371 2.128908 0.007779 -0.003252 128256.000000 1 0 0
-14.328022 -1.706716 -2.753739 14.689730 0.118559 1.759372 0.001345 -0.004381 -1344970.000000 1 0 0
8.829078 -10.739216 -6.731939 15.446760 -0.882704 2.021741 -0.006219 0.003751 304688.000000 1 0 0
14.841278 6.094684 1.629461 16.126495 0.389660 1.469581 -0.000620 -0.001936 -780182.000000 1 0 0
-5.764922 0.356884 -8.465839 10.248518 -0.061827 2.542868 0.007957 -0.008564 699543.000000 1 0 0
-7.980722 -4.497916 -13.048339 15.943097 0.513223 2.529473 0.011438 -0.002376 572113.000000 1 0 0
1.006878 -10.641316 11.946261 16.030114 -1.476458 0.729904 -0.004638 -0.002572 -484223.000000 1 0 0
0.274178 11.629184 3.345561 12.103961 1.547224 1.290748 0.000307 0.001154 -1248930.000000 1 0 0
5.101778 -13.221516 -3.707939 14.648735 -1.202531 1.826704 -0.007931 0.002247 941315.000000 1 0 0
-7.558322 1.576784 -6.955439 10.391950 -0.205666 2.304076 0.002413 -0.004318 814902.000000 1 0 0
1.473978 2.696384 4.057961 5.090200 1.070529 0.648136 -0.004354 0.002351 -1268760.000000 1 0 0
17.219078 5.601884 2.274161 18.249645 0.314530 1.445858 -0.001146 -0.003828 -1155880.000000 1 0 0
2.528178 -8.108016 -3.539439 9.201046 -1.268538 1.965655 -0.004923 -0.000013 199777.000000 1 0 0
-0.346022 -9.388416 -0.659939 9.417941 1.533957 1.640926 0.003165 -0.001420 -1219870.000000 1 0 0
0.652478 11.875584 -5.720239 13.197589 1.515909 2.019092 -0.000802 -0.001133 -744433.000000 1 0 0
5.973178 -5.051116 7.867761 11.094787 -0.701953 0.782518 0.001683 0.000159 -806475.000000 1 0 0
-5.960422 -2.000916 -9.464739 11.362728 0.323879 2.555239 0.010779 -0.007878 -442224.000000 1 0 0
2.166178 -1.244716 11.251661 11.525689 -0.521544 0.218496 -0.006232 -0.001308 -888887.000000 1 0 0
17.972478 2.225084 -5.937139 19.058084 0.123178 1.887598 -0.013042 0.012824 -39131.900000 1 0 0
-8.911022 4.726584 7.824861 12.766180 -0.487686 0.911024 0.006680 -0.003241 325074.000000 1 0 0
11.560078 -7.074916 -4.931539 14.422549 -0.549206 1.919769 0.004176 0.001590 -286742.000000 1 0 0
10.894578 0.455284 8.911361 14.082310 0.041766 0.885625 0.006553 -0.003635 -95230.100000 1 0 0
-8.446522 -7.358016 -1.525039 11.305303 0.716634 1.706105 0.007688 -0.006544 -1193510.000000 1 0 0
10.117978 -10.469316 -3.262039 14.920488 -0.802462 1.791205 0.007777 0.001952 549418.000000 1 0 0
7.623578 -14.049116 -3.823739 16.435255 -1.073623 1.805603 0.000724 0.000988 -2200130.000000 1 0 0
1.809678 -1.136216 -11.662439 11.856577 -0.560650 2.960382 0.004112 -0.008073 339359.000000 1 0 0
-11.725222 -2.592016 -6.378739 13.597342 0.217564 2.059087 0.007316 -0.003109 276976.000000 1 0 0
2.665978 -12.079916 -6.508239 13.978161 -1.353583 2.055109 -0.003820 0.004194 133844.000000 1 0 0
-5.526222 1.495984 1.141261 5.837771 -0.264370 1.374033 0.004049 -0.002419 366972.000000 1 0 0
0.188778 6.862984 -3.936139 7.913872 1.543297 2.091363 0.006505 -0.002882 1119310.000000 1 0 0
5.372978 -11.768616 3.588861 13.425690 -1.142508 1.300193 -0.009398 -0.003708 -3112360.000000 1 0 0
-4.405122 -9.220716 0.924561 10.260678 1.125113 1.480567 0.004350 -0.001840 -609822.000000 1 0 0
7.115878 -6.347616 -4.609239 10.591177 -0.728397 2.021052 0.000411 0.001329 173020.000000 1 0 0
-6.890722 -6.034216 2.205461 9.421140 0.719227 1.334507 0.005365 -0.003187 -323860.000000 1 0 0
-6.317122 -0.864916 6.961861 9.440425 0.136070 0.741506 0.004994 -0.001149 -1508930.000000 1 0 0
4.246678 -5.013416 3.140761 7.282376 -0.868010 1.124883 -0.002055 0.000869 -1010600.000000 1 0 0
-2.562522 10.495484 -8.738839 13.895647 -1.331327 2.250922 -0.003627 -0.002858 315738.000000 1 0 0
-2.334822 -4.873816 2.741561 6.059838 1.124045 1.101325 0.003472 -0.001045 -240867.000000 1 0 0
14.990878 5.007884 6.408961 17.055207 0.322406 1.185561 0.010098 -0.004843 32995.900000 1 0 0
6.841878 0.342684 0.034761 6.850543 0.050044 1.565722 0.001215 0.000957 4650990.000000 1 0 0
-9.786822 9.242484 0.382861 13.466699 -0.756801 1.542362 -0.010309 0.001502 -2219220.000000 1 0 0
7.207478 10.421484 -2.543439 12.923782 0.965732 1.768892 0.004619 -0.002294 -1158280.000000 1 0 0
1.624578 -4.261716 -5.429539 7.090936 -1.206599 2.442927 0.005835 -0.003173 -396022.000000 1 0 0
0.908078 -8.116816 -7.951539 11.398872 -1.459383 2.342800 0.002387 -0.002066 572991.000000 1 0 0
-10.462222 0.213884 -10.423939 14.770320 -0.020441 2.354257 0.007210 -0.006523 -4265430.000000 1 0 0
5.843078 -2.514916 0.449161 6.377155 -0.406444 1.500305 0.002733 -0.000158 131878.000000 1 0 0
-3.313222 5.292784 -1.121539 6.344198 -1.011486 1.748512 0.003939 -0.003789 815526.000000 1 0 0
-0.322322 4.649484 -5.209239 6.989833 -1.501583 2.411720 0.006764 -0.004215 -1079100.000000 1 0 0
4.050778 -9.738316 10.072561 14.584241 -1.176605 0.808413 -0.006698 0.002037 -2429000.000000 1 0 0
7.177878 -13.507616 -0.758339 15.315114 -1.082349 1.620332 0.002318 -0.000076 255363.000000 1 0 0
13.026678 -0.074316 0.459561 13.034994 -0.005705 1.535533 0.000186 -0.002028 295672.000000 1 0 0
9.359278 2.499484 -0.585639 9.704972 0.260969 1.631177 0.002768 -0.000490 -1034390.000000 1 0 0
-0.680522 -5.684616 4.561861 7.320420 1.451650 0.898008 -0.000227 0.001986 -518771.000000 1 0 0
11.504178 -3.675516 3.348961 12.532800 -0.309244 1.300294 0.005255 -0.003077 -2165030.000000 1 0 0
1.811478 -8.099616 11.788661 14.417273 -1.350767 0.613434 -0.005637 -0.001445 -61968.200000 1 0 0
9.452278 -6.016916 -5.941739 12.682788 -0.566867 2.058375 -0.002544 0.002526 -1224240.000000 1 0 0
3.227378 6.352384 -0.181839 7.127539 1.100723 1.596311 -0.000772 0.001159 -1609460.000000 1 0 0
6.347778 -1.449016 11.499761 13.215083 -0.224426 0.515189 0.003295 -0.000607 247046.000000 1 0 0
-4.857022 -7.411416 -3.878339 9.672708 0.990674 1.983358 0.010588 -0.006166 -178430.000000 1 0 0
-3.475922 -8.450516 -5.772639 10.808174 1.180564 2.134238 0.011043 -0.004713 -884037.000000 1 0 0
9.761378 5.247884 2.209161 11.300671 0.493287 1.374040 0.002566 -0.003509 162997.000000 1 0 0
8.929078 -1.361516 0.304461 9.037414 -0.151316 1.537101 0.001240 -0.000978 1101150.000000 1 0 0
-3.975722 9.669284 9.253761 13.961859 -1.180698 0.846260 -0.003071 0.001562 87109.500000 1 0 0
-14.302622 -3.501116 -6.107139 15.941141 0.240068 1.963952 -0.000722 -0.001608 430499.000000 1 0 0
10.568578 6.298384 -6.029939 13.701264 0.537439 2.026507 0.004260 -0.002127 -2357470.000000 1 0 0
-1.807122 4.523784 2.649661 5.545359 -1.190746 1.072630 -0.000253 -0.000221 -2002.800000 1 0 0
7.030078 -3.720516 2.626761 8.376402 -0.486756 1.251824 0.002932 -0.001551 -1685480.000000 1 0 0
8.158178 -11.240616 -1.680339 13.990385 -0.942979 1.691194 0.003935 -0.002005 -1710120.000000 1 0 0
4.471978 0.452584 1.691961 4.802723 0.100861 1.210777 0.001090 0.001660 290567.000000 1 0 0
-10.770022 2.284684 3.771061 11.637614 -0.209035 1.240799 -0.002399 0.000048 292763.000000 1 0 0
-0.885922 -3.003816 4.304461 5.323171 1.283995 0.628982 0.001959 -0.001595 728315.000000 1 0 0
8.638378 -8.819116 -8.640339 15.068306 -0.795751 2.181460 0.001469 0.007645 -793462.000000 1 0 0
12.059978 -4.691816 1.069061 12.984572 -0.371023 1.488370 -0.000404 0.001023 123136.000000 1 0 0
2.941878 4.811584 3.455561 6.614143 1.022025 1.021074 -0.006515 0.001609 -526575.000000 1 0 0
6.134578 7.431184 1.891661 9.820077 0.880688 1.376953 0.000575 -0.000965 -15314.000000 1 0 0
-1.595622 -1.239616 -10.436739 10.630531 0.660487 2.950358 0.010118 -0.008724 1776480.000000 1 0 0
-1.013922 -8.659116 5.863761 10.506761 1.454234 0.978709 -0.004849 0.002175 497702.000000 1 0 0
-4.141522 -0.224616 2.237661 4.712726 0.054182 1.076045 0.002409 -0.001833 217871.000000 1 0 0
-8.464322 6.229284 -7.886639 13.139551 -0.634446 2.214574 -0.001513 -0.003724 -1076170.000000 1 0 0
6.383778 11.090684 -9.451939 15.908961 1.048513 2.206976 0.008690 -0.007192 69208.100000 1 0 0
-11.116522 -5.731616 3.132261 12.893392 0.476045 1.325406 0.003674 -0.002764 571014.000000 1 0 0
1.558178 -6.279616 3.068561 7.160835 -1.327576 1.127942 -0.001848 -0.000359 34496.400000 1 0 0
10.143678 2.058484 7.142361 12.575566 0.200214 0.966777 0.000422 -0.001170 -2098510.000000 1 0 0
-3.991122 -2.424216 -10.671939 11.648870 0.545845 2.729127 0.008647 -0.009501 -2772660.000000 1 0 0
-8.238222 11.779684 5.968661 15.564516 -0.960501 1.177236 -0.007066 -0.003210 -837237.000000 1 0 0
6.885378 5.990984 -2.940839 9.588996 0.716049 1.882509 0.004293 0.000896 -3394780.000000 1 0 0
3.870678 -9.838216 -2.358839 10.832210 -1.195964 1.790317 -0.006832 -0.002879 -1708480.000000 1 0 0
8.447878 -13.042516 -7.430239 17.224469 -0.996027 2.016815 -0.000860 0.007157 -397879.000000 1 0 0
-1.210222 9.429784 3.734961 10.214470 -1.443154 1.196461 -0.002498 0.000175 214444.000000 1 0 0
0.476378 -13.148816 4.709961 13.975050 -1.534582 1.227040 -0.003446 0.002545 -941102.000000 1 0 0
-11.180822 -6.960616 -5.049139 14.105133 0.556835 1.936884 0.000963 -0.003926 -53289.200000 1 0 0
3.521178 10.323784 -3.454039 11.441573 1.242095 1.877466 0.006844 -0.006496 -939562.000000 1 0 0
11.617778 -8.138216 -7.419539 16.007901 -0.611059 2.052729 0.015573 0.005241 75481.900000 1 0 0
11.730978 -4.739416 -5.976439 13.992703 -0.383957 2.012092 0.004658 0.001226 -51386.100000 1 0 0
1.292278 -10.237916 -2.682039 10.662000 -1.445236 1.825079 -0.007804 0.001856 -2149510.000000 1 0 0
2.276978 -11.957716 -3.975539 12.805332 -1.382630 1.886473 -0.003410 0.003021 -1574640.000000 1 0 0
-7.666422 -5.726616 7.242761 12.001073 0.641562 0.922901 0.003259 0.000534 -2654350.000000 1 0 0
-7.203522 -0.840016 9.486561 11.941155 0.116088 0.652707 0.007259 -0.001119 342646.000000 1 0 0
16.152978 2.578484 -7.626339 18.047945 0.158294 2.007064 -0.002532 0.006184 -531501.000000 1 0 0
-1.992222 6.402584 -5.478439 8.658829 -1.269134 2.255831 0.005081 -0.003853 -274455.000000 1 0 0
7.651078 1.240484 8.333861 11.381170 0.160733 0.749177 0.000775 -0.000752 -323716.000000 1 0 0
7.973378 8.320884 -3.726039 12.111781 0.806722 1.883506 0.005463 0.000837 -134295.000000 1 0 0
8.091878 0.554584 4.028261 9.056099 0.068429 1.109832 0.002392 -0.001373 423245.000000 1 0 0
-6.976422 5.801784 5.341661 10.529221 -0.693731 1.038727 0.003329 -0.004694 61186.400000 1 0 0
-6.018522 -2.168916 -4.546239 7.848254 0.345886 2.188626 0.007928 -0.005458 -744709.000000 1 0 0
-15.114222 -2.154416 3.157461 15.590086 0.141589 1.366856 0.000185 -0.002822 -598667.000000 1 0 0
1.136978 1.192784 -10.519539 10.647824 0.809347 2.986208 0.008616 -0.009192 236380.000000 1 0 0
1.573078 -9.182316 9.414361 13.244610 -1.401127 0.780152 -0.005894 -0.001284 -1122640.000000 1 0 0
-0.230422 -6.750716 -1.195239 6.859582 1.536677 1.745934 0.003549 -0.002424 499040.000000 1 0 0
-0.489622 -10.211316 -8.464239 13.272304 1.522884 2.262353 0.004941 -0.002881 -212285.000000 1 0 0
-4.350222 6.514184 3.813561 8.712191 -0.982004 1.117727 -0.001903 0.000630 -83437.600000 1 0 0
10.879678 -1.173016 -8.718439 13.991231 -0.107402 2.243542 0.006283 0.001731 505891.000000 1 0 0
3.176678 -1.063116 6.184061 7.033072 -0.322947 0.496442 -0.005358 0.002784 607781.000000 1 0 0
2.018578 -12.315716 6.782561 14.204037 -1.408338 1.072978 -0.009834 0.001365 -316485.000000 1 0 0
2.980378 -4.958016 -1.310239 5.931383 -1.029551 1.793533 0.006951 -0.003181 -1466780.000000 1 0 0
-1.062422 9.434684 -1.599339 9.628078 -1.458661 1.737682 0.002534 -0.003501 703846.000000 1 0 0
4.626078 -2.546916 2.615861 5.893225 -0.503270 1.110877 0.001556 0.000394 -1848080.000000 1 0 0
17.761878 6.718884 -2.627639 19.171129 0.361639 1.708291 -0.008410 0.016961 65331.100000 1 0 0
-7.089222 3.452484 -5.422139 9.569551 -0.453197 2.173174 0.004711 -0.004425 788062.000000 1 0 0
-13.763322 -6.042716 2.273261 15.202341 0.413706 1.420700 -0.000891 -0.003036 1574250.000000 1 0 0
6.714678 -6.084916 3.231361 9.620540 -0.736236 1.228255 0.000363 -0.000657 455765.000000 1 0 0
-4.663122 1.984984 3.596261 6.214335 -0.402444 0.953658 0.005454 -0.002767 498073.000000 1 0 0
6.867678 -12.163616 -5.449139 14.993721 -1.056807 1.942741 -0.002445 0.002084 445616.000000 1 0 0
2.878678 -12.408816 3.324061 13.164911 -1.342842 1.315539 -0.006148 -0.002280 -1157050.000000 1 0 0
3.248478 11.388184 -6.140639 13.339820 1.292926 2.049156 0.004334 -0.001798 -187567.000000 1 0 0
-5.517522 -8.223316 6.383261 11.781850 0.979827 0.998234 0.006767 0.001405 -539717.000000 1 0 0
-3.934122 6.492584 6.394461 9.925729 -1.026020 0.870779 -0.000640 0.000093 293639.000000 1 0 0
4.251078 4.360884 -7.113639 9.364445 0.798148 2.433561 0.004236 -0.000639 -1599300.000000 1 0 0
-0.243922 -2.642216 1.554461 3.075248 1.478740 1.040864 0.003492 -0.001735 -327576.000000 1 0 0
-13.133122 -0.850516 6.563861 14.706684 0.064671 1.108150 -0.005091 -0.001775 -899064.000000 1 0 0
-0.434922 -9.184016 -5.980339 10.968125 1.523475 2.147480 0.002481 -0.001168 241094.000000 1 0 0
2.075478 -1.568716 -3.933139 4.715725 -0.647224 2.557201 0.007673 -0.001095 445821.000000 1 0 0
11.365478 -1.934116 1.092661 11.580535 -0.168560 1.476303 -0.000839 -0.002496 493964.000000 1 0 0
0.575178 -4.291016 -1.977039 4.759447 -1.437548 1.999171 0.006352 -0.004205 -1985400.000000 1 0 0
1.143878 -7.479516 -11.312039 13.609330 -1.419037 2.552054 -0.002652 -0.002002 -1562670.000000 1 0 0
-4.479322 4.094784 -9.950239 11.654992 -0.740579 2.593907 0.002504 -0.005115 -254508.000000 1 0 0
-0.989422 5.856084 -2.105139 6.301134 -1.403421 1.911435 0.004766 -0.002008 -1825270.000000 1 0 0
-11.310422 1.723484 -3.897639 12.086672 -0.151217 1.899138 0.003183 -0.001537 349162.000000 1 0 0
-1.811122 -11.258716 4.084861 12.113007 1.411299 1.226824 -0.001353 0.000605 -235296.000000 1 0 0
-3.623222 -5.365416 -9.883739 11.815402 0.976846 2.561685 0.008172 -0.006050 -358115.000000 1 0 0
-12.874822 -3.742216 -8.331939 15.785640 0.282868 2.126825 0.006461 -0.002531 217849.000000 1 0 0
11.508878 4.467184 0.471361 12.354440 0.370250 1.532634 0.006389 -0.001041 94408.500000 1 0 0
-8.848322 -2.384416 -3.065639 9.663146 0.263224 1.893625 0.006427 -0.003525 -148447.000000 1 0 0
-2.549322 -6.058016 -6.421839 9.189049 1.172473 2.344596 0.007020 -0.006438 234467.000000 1 0 0
-0.029922 2.752284 -2.050139 3.432059 -1.559925 2.210989 0.003977 -0.001500 459578.000000 1 0 0
8.056778 6.115684 -5.285039 11.412489 0.649283 2.052278 0.003183 0.000423 -821901.000000 1 0 0
-9.757022 -0.870916 -1.086339 9.855867 0.089025 1.681243 0.000546 -0.001149 162099.000000 1 0 0
6.311978 0.654584 -8.933039 10.957588 0.103336 2.523936 0.001522 0.001310 618101.000000 1 0 0
-4.085022 2.488284 7.839261 9.183298 -0.547101 0.547856 -0.000207 -0.000245 -1033420.000000 1 0 0
-10.166122 -3.321116 1.519861 10.802307 0.315755 1.429630 0.001174 -0.003416 1185730.000000 1 0 0
-1.799522 -8.076816 -7.852739 11.407838 1.351576 2.330027 0.006374 -0.006268 911835.000000 1 0 0
-9.306922 -9.801316 4.266561 14.173501 0.811266 1.265030 0.004773 -0.005179 -683969.000000 1 0 0
-1.147822 -10.647116 7.437061 13.037962 1.463405 0.963784 -0.002452 -0.000418 56144.300000 1 0 0
9.458378 3.741384 -3.820239 10.865224 0.376675 1.930079 0.000079 0.002997 -669393.000000 1 0 0
12.932078 -0.810816 2.941161 13.287080 -0.062616 1.347593 0.002579 -0.004504 -1205760.000000 1 0 0
6.504378 11.933884 -6.868539 15.228307 1.071773 2.038724 0.008515 -0.003030 578936.000000 1 0 0
-11.849922 -0.056916 -6.511339 13.521148 0.004803 2.073238 0.007115 -0.002353 434825.000000 1 0 0
-7.620422 -6.642216 -11.537539 15.339644 0.716920 2.422098 0.014457 -0.003249 -1042300.000000 1 0 0
4.111678 6.035784 6.535161 9.800250 0.972788 0.840841 -0.006408 0.003307 -2941170.000000 1 0 0
-4.293622 -1.476016 -7.394639 8.677241 0.331114 2.590949 0.007714 -0.010594 -1195220.000000 1 0 0
9.622378 9.235784 0.908861 13.368466 0.764901 1.502758 0.005579 -0.000886 -2150080.000000 1 0 0
-8.964922 3.865984 4.898061 10.922759 -0.407139 1.105792 0.002996 -0.002387 328604.000000 1 0 0
-7.085422 7.945984 -11.956339 16.009245 -0.842587 2.414093 -0.000395 -0.007006 -574528.000000 1 0 0
11.260178 -3.677716 7.221261 13.873133 -0.315690 1.023335 0.008654 -0.002621 297445.000000 1 0 0
11.824878 6.833384 6.445061 15.101711 0.523997 1.129871 0.004348 -0.000608 -289396.000000 1 0 0
-9.910122 -0.766416 -14.795439 17.824223 0.077183 2.550038 -0.001879 0.003197 203913.000000 1 0 0
1.769478 -13.105916 12.025061 17.874512 -1.436594 0.832878 -0.005263 -0.001342 -54141.300000 1 0 0
2.992478 3.090584 13.088461 13.777316 0.801524 0.317558 -0.002249 -0.001456 -451225.000000 1 0 0
-2.595722 -1.338916 11.079661 11.458157 0.476221 0.257745 0.002853 -0.000905 -484125.000000 1 0 0
2.526578 -10.080816 -8.292139 13.295339 -1.325223 2.244248 -0.004411 0.002304 -784683.000000 1 0 0
13.916678 3.581584 -7.497839 16.208617 0.251893 2.051703 0.006150 0.000870 -3459680.000000 1 0 0
7.294078 -1.559516 5.084861 9.027263 -0.210634 0.972448 0.002938 -0.000222 635476.000000 1 0 0
-1.209922 8.686584 10.209861 13.459640 -1.432400 0.709706 -0.004497 0.003148 -80604.300000 1 0 0
-12.251722 -4.590516 0.946861 13.117701 0.358493 1.498552 -0.000072 -0.003640 90257.200000 1 0 0
-4.856122 4.847484 -5.278839 8.657145 -0.784508 2.226563 0.006636 -0.004210 -241515.000000 1 0 0
-11.172822 0.292084 1.991261 11.352638 -0.026136 1.394484 -0.006585 0.000652 -2307500.000000 1 0 0
-1.504422 2.394584 -4.153839 5.025107 -1.009856 2.543866 0.007434 -0.005914 806649.000000 1 0 0
3.131678 -9.874216 13.201061 16.780213 -1.263674 0.665345 -0.004677 -0.001498 743541.000000 1 0 0
8.906978 4.655384 -1.604839 10.177542 0.481616 1.729142 0.001986 -0.001113 -850592.000000 1 0 0
4.050878 2.248584 3.683761 5.919107 0.506739 0.899054 -0.006238 0.003702 -135749.000000 1 0 0
-5.473322 -3.190116 7.473461 9.797281 0.527712 0.703149 0.004736 -0.001112 248535.000000 1 0 0
1.609578 -5.857816 7.760161 9.855194 -1.302640 0.664187 -0.002927 0.001835 -356474.000000 1 0 0
-5.918022 -6.181316 -9.753439 12.975409 0.807156 2.421412 0.007615 -0.004128 -1017670.000000 1 0 0
-11.729322 -5.884016 5.475461 14.218977 0.464967 1.175501 0.006675 -0.005469 -850063.000000 1 0 0
10.456778 6.098284 4.499761 12.914376 0.527967 1.214900 0.002786 -0.001396 -1748970.000000 1 0 0
1.371178 -3.779116 0.331661 4.033838 -1.222737 1.488484 0.012738 -0.002663 -719609.000000 1 0 0
8.764278 4.263484 6.994961 11.996638 0.452758 0.948286 -0.001898 0.004148 -257669.000000 1 0 0
-7.851522 11.844584 3.534461 14.643530 -0.985421 1.327022 -0.010621 -0.000902 -422670.000000 1 0 0
-6.223922 13.289784 -6.936139 16.231623 -1.132809 2.012326 0.005982 -0.003402 370939.000000 1 0 0
4.457378 -6.977516 -0.980039 8.337531 -1.002321 1.688614 0.002084 -0.004000 -1355230.000000 1 0 0
-1.891722 -8.205816 11.009561 13.860897 1.344221 0.652960 0.002115 -0.004844 -187453.000000 1 0 0
11.619778 8.761184 -5.680139 15.621830 0.646049 1.942929 0.016313 0.001172 484802.000000 1 0 0
-3.368022 -2.853316 -1.909939 4.809663 0.702854 1.979156 0.007028 -0.005083 -1692230.000000 1 0 0
-2.057722 5.886584 4.724961 7.823768 -1.234512 0.922381 -0.002035 0.000572 -2443810.000000 1 0 0
0.348778 -11.393616 -5.720239 12.753716 -1.540194 2.035900 -0.000835 -0.001904 -1143500.000000 1 0 0
-8.985122 6.318484 -1.616039 11.102578 -0.612881 1.716871 0.002451 -0.001396 -785972.000000 1 0 0
2.903578 -0.048516 3.857061 4.828047 -0.016708 0.645355 -0.003360 0.002337 -389298.000000 1 0 0
-10.205422 3.993884 -1.045539 11.008855 -0.373027 1.665912 -0.000127 -0.001868 -21538.000000 1 0 0
6.566278 5.474084 13.612361 16.074140 0.694935 0.560765 0.001585 0.006591 -159245.000000 1 0 0
-8.852322 -1.555816 5.727161 10.657605 0.173976 1.003472 0.003548 -0.002597 -19491.200000 1 0 0
12.943478 -1.778216 -1.528639 13.154178 -0.136529 1.687269 -0.000214 0.000120 -1722070.000000 1 0 0
5.250778 -5.511216 5.432361 9.351723 -0.809593 0.950970 -0.002650 0.001057 135542.000000 1 0 0
-8.961222 -1.245116 3.242261 9.610727 0.138061 1.226687 -0.000570 -0.000599 648991.000000 1 0 0
1.969778 5.457084 5.627861 8.082859 1.224393 0.800607 -0.005172 0.002148 -1433000.000000 1 0 0
9.312678 3.116184 -7.472439 12.339932 0.322906 2.221252 -0.001510 0.000127 -1339850.000000 1 0 0
2.368178 -2.433616 -1.543239 3.729925 -0.799025 1.997361 0.006395 -0.001070 44608.800000 1 0 0
-6.165522 0.284784 -3.957439 7.331855 -0.046157 2.140948 0.005802 -0.002247 -3202760.000000 1 0 0
-4.023822 4.206884 4.973661 7.656782 -0.807636 0.863770 0.000750 -0.000496 592585.000000 1 0 0
-6.488922 1.817684 -12.354739 14.073012 -0.273121 2.642261 0.000795 -0.001440 -2751370.000000 1 0 0
-0.038322 3.082284 6.323261 7.034598 -1.558364 0.453589 -0.005523 0.001333 1260240.000000 1 0 0
-8.666322 9.423884 -2.163039 12.984354 -0.827251 1.738165 -0.004437 0.000634 608191.000000 1 0 0
-1.280122 -3.715616 -6.157839 7.305033 1.239007 2.573555 0.004005 -0.006184 328315.000000 1 0 0
-3.384522 7.038384 -2.941639 8.345482 -1.122572 1.931019 0.004093 -0.001563 929958.000000 1 0 0
7.119478 -0.464616 -4.435339 8.400897 -0.065167 2.126993 0.001309 0.003255 -200473.000000 1 0 0
-5.070422 -10.732216 6.854661 13.706787 1.129432 1.047091 0.002019 -0.001061 342799.000000 1 0 0
9.754378 8.290984 -1.445639 12.883252 0.704480 1.683244 0.007744 -0.000965 688251.000000 1 0 0
13.785478 4.629984 -4.282839 15.159778 0.324022 1.857209 0.003242 0.000996 431774.000000 1 0 0
4.830078 1.076784 -6.872439 8.468739 0.219346 2.517522 -0.001833 0.000486 -641390.000000 1 0 0
8.998378 -4.654916 3.529061 10.728155 -0.477396 1.235601 0.003247 -0.001398 -293674.000000 1 0 0
-8.726922 -3.215216 -0.701539 9.326786 0.352994 1.646085 0.000784 -0.001674 601224.000000 1 0 0
-8.538122 -4.267616 -10.493439 14.185357 0.463512 2.403476 0.011562 -0.004802 276498.000000 1 0 0
10.427978 -1.230316 10.600261 14.920520 -0.117439 0.780661 0.005998 -0.003668 1283140.000000 1 0 0
2.256378 -11.631816 9.889561 15.433529 -1.379193 0.875277 -0.006709 -0.001392 -95296.700000 1 0 0
-6.442322 -10.508816 1.965761 12.482105 1.020844 1.412652 0.005263 -0.002510 -941178.000000 1 0 0
-3.743422 -1.049716 6.885961 7.907690 0.273395 0.513984 0.006608 0.001493 -1140230.000000 1 0 0
4.752078 -7.526916 3.912961 9.723578 -1.007648 1.156638 -0.006029 0.002269 267102.000000 1 0 0
11.373578 -9.532016 -5.357639 15.777259 -0.697536 1.917266 0.008783 0.003703 604209.000000 1 0 0
11.385878 1.062484 11.409261 16.153585 0.093046 0.786540 0.006183 -0.002517 -257164.000000 1 0 0
-10.262522 -3.509616 4.449561 11.723283 0.329516 1.181488 0.005512 -0.002537 1063370.000000 1 0 0
2.032378 8.762784 8.916061 12.665428 1.342893 0.789827 -0.004089 0.006733 -493846.000000 1 0 0
6.578978 8.712184 4.113761 11.666539 0.924009 1.210435 0.001323 0.001462 -341293.000000 1 0 0
-4.279022 3.635284 0.446961 5.632503 -0.704238 1.491359 0.004532 -0.003599 -415416.000000 1 0 0
4.883278 6.915784 4.178861 9.441258 0.955984 1.112281 -0.001314 0.001256 -1172310.000000 1 0 0
-8.129222 13.198584 1.227161 15.549688 -1.018756 1.491796 -0.006463 0.003011 -649433.000000 1 0 0
8.886078 8.178284 -9.186639 15.173696 0.743944 2.221105 0.004431 -0.001932 -1050790.000000 1 0 0
6.984978 1.871484 5.996861 9.394398 0.261781 0.878451 -0.003790 0.000698 -198050.000000 1 0 0
11.479378 -6.177216 2.908161 13.356329 -0.493672 1.351302 0.004588 -0.000479 -171840.000000 1 0 0
11.416578 4.745984 -2.171539 12.553015 0.393976 1.744660 0.006164 -0.000448 261577.000000 1 0 0
-3.986622 14.369484 -5.869839 16.025924 -1.300166 1.945795 -0.004086 0.002904 534220.000000 1 0 0
7.140878 -3.059116 6.910261 10.397213 -0.404743 0.843803 0.005214 -0.002649 -1444240.000000 1 0 0
-8.054822 -0.367216 0.907061 8.114047 0.045558 1.458773 0.001175 -0.000649 174076.000000 1 0 0
-3.168722 1.125784 10.657061 11.175023 -0.341371 0.305655 0.000529 0.002694 -228818.000000 1 0 0
7.117078 -1.261116 -1.950739 7.486561 -0.175375 1.834404 0.003597 0.000460 -1447980.000000 1 0 0
-7.809922 5.359284 2.994761 9.934052 -0.601414 1.264568 0.000509 -0.002139 765932.000000 1 0 0
9.457978 -2.186116 2.809561 10.105745 -0.227151 1.289068 0.002190 -0.001988 -1806060.000000 1 0 0
0.261478 3.425384 1.615161 3.796099 1.494609 1.131305 -0.000855 0.000962 -2891790.000000 1 0 0
-7.552622 -3.116316 4.184861 9.179683 0.391333 1.097432 0.001927 -0.001685 1089660.000000 1 0 0
-2.408522 8.416484 -6.614839 10.972433 -1.292078 2.217877 -0.002524 -0.003112 -461176.000000 1 0 0
4.501478 9.686184 7.285861 12.929394 1.135759 0.972166 -0.002342 0.007550 1472540.000000 1 0 0
-11.855322 -3.148316 6.881261 14.064576 0.259570 1.059553 0.005338 -0.005424 -1334920.000000 1 0 0
-4.747222 2.237084 -5.686639 7.738122 -0.440377 2.396295 0.009437 -0.006303 70968.100000 1 0 0
-2.697822 2.852784 -1.772839 4.308083 -0.813309 1.994912 0.006513 -0.002911 681140.000000 1 0 0
2.356378 5.170484 11.415661 12.751617 1.143182 0.461844 -0.004516 0.001979 185061.000000 1 0 0
-0.628922 1.575084 4.508361 4.816819 -1.190898 0.359814 -0.001547 0.000285 25376.800000 1 0 0
5.004178 1.435184 7.704861 9.298733 0.279300 0.594207 -0.006897 0.004305 387341.000000 1 0 0
3.239478 -8.167216 1.915961 8.992694 -1.193186 1.356093 -0.003830 -0.001166 1313560.000000 1 0 0
5.068178 6.438084 -4.732439 9.462100 0.903898 2.094565 0.006374 -0.001526 -2411650.000000 1 0 0
-4.129322 2.793784 -7.970939 9.401723 -0.594829 2.582651 0.009798 -0.008029 -762172.000000 1 0 0
-8.593822 -2.081416 -12.989839 15.713752 0.237623 2.543932 0.006853 -0.003714 -396826.000000 1 0 0
-7.850122 8.153884 1.221961 11.384350 -0.804376 1.463252 -0.003403 -0.000612 -1539100.000000 1 0 0
7.472678 0.906484 -6.663039 10.052797 0.120717 2.295354 -0.000490 0.003600 461460.000000 1 0 0
8.928678 8.774484 5.528161 13.684788 0.776688 1.154950 0.001889 0.003180 561120.000000 1 0 0
9.431878 -1.085716 -1.388539 9.595162 -0.114607 1.716019 0.000401 0.000604 845710.000000 1 0 0
5.471678 0.115284 4.207361 6.903219 0.021066 0.915394 -0.002092 0.002491 -370401.000000 1 0 0
-4.241522 -7.170416 -8.005939 11.554239 1.036627 2.336300 0.012141 -0.009404 -595873.000000 1 0 0
-2.200622 7.419184 -0.499239 7.754758 -1.282450 1.635219 0.002251 -0.002063 120382.000000 1 0 0
13.381478 -3.242616 -7.457239 15.658510 -0.237739 2.067172 0.005714 0.002981 1306870.000000 1 0 0
-4.770922 -5.012616 1.576361 7.097389 0.810097 1.346824 0.005617 -0.003435 653238.000000 1 0 0
-8.858622 1.305884 2.518361 9.301756 -0.146360 1.296634 -0.000276 -0.001724 -1433120.000000 1 0 0
-1.019522 11.196484 10.164461 15.156416 -1.479989 0.835728 -0.002492 0.002470 246498.000000 1 0 0
-8.557022 0.277584 7.522161 11.396604 -0.032428 0.849931 0.004198 -0.001700 193662.000000 1 0 0
-6.101022 12.840084 -2.000839 14.355960 -1.127222 1.710625 -0.005378 0.003181 -37318.400000 1 0 0
-13.059822 -0.728416 3.290161 13.487576 0.055718 1.324370 -0.001234 -0.002732 197151.000000 1 0 0
-6.647722 12.692384 8.734461 16.780334 -1.088324 1.023339 0.001475 -0.011032 709238.000000 1 0 0
-7.994222 0.994384 -14.077439 16.219454 -0.123752 2.621827 -0.000471 0.003780 -168278.000000 1 0 0
7.126278 2.818484 3.708561 8.513584 0.376626 1.120086 -0.002146 0.000468 -361044.000000 1 0 0
-1.531822 0.630684 -2.198939 2.753103 -0.390570 2.495950 0.004539 -0.004665 538910.000000 1 0 0
-6.221522 9.714884 -10.297139 15.463421 -1.001191 2.299500 -0.000747 -0.001721 -193731.000000 1 0 0
-9.947922 13.710584 5.334861 17.759561 -0.943118 1.265691 -0.007587 -0.002248 514762.000000 1 0 0
-5.692422 8.228684 2.559661 10.327960 -0.965610 1.320348 -0.007455 -0.000829 -1611960.000000 1 0 0
-2.417522 -10.664416 -1.271139 11.008632 1.347873 1.686522 0.001885 -0.000944 -126551.000000 1 0 0
-2.247222 -12.509116 8.791961 15.454015 1.393046 0.965615 -0.000446 0.000645 544862.000000 1 0 0
-14.742122 -6.394516 -1.621039 16.150782 0.409265 1.671335 0.009365 -0.002411 800734.000000 1 0 0
-2.680722 -9.183016 3.190461 10.084300 1.286767 1.248886 -0.000220 0.000117 -973907.000000 1 0 0
4.727378 -2.681216 7.462661 9.231919 -0.515928 0.629445 -0.001572 0.003225 -1408120.000000 1 0 0
-14.985722 -1.282716 -0.239139 15.042421 0.085388 1.586695 0.000108 -0.005445 -169973.000000 1 0 0
5.510378 8.830984 -2.875139 10.798933 1.012929 1.840289 0.004196 0.000068 -2177540.000000 1 0 0
-5.655422 -5.573516 8.579261 11.689807 0.778104 0.746736 0.006434 0.002701 -3328380.000000 1 0 0
3.436678 3.574984 7.072961 8.638173 0.805121 0.611474 -0.007178 0.003337 258677.000000 1 0 0
3.274278 2.214484 9.378461 10.177444 0.594661 0.398885 -0.004943 0.000580 140872.000000 1 0 0
9.921878 -3.355916 5.242861 11.712960 -0.326155 1.106703 0.010340 -0.004130 -50004.500000 1 0 0
6.562978 9.991684 -5.068339 12.984394 0.989625 1.971798 0.006256 -0.002498 858816.000000 1 0 0
-4.480922 12.101284 -8.367439 15.379654 -1.216166 2.146064 -0.005155 -0.002184 -284778.000000 1 0 0
-3.459322 -7.110416 1.956161 8.145643 1.117995 1.328278 0.002608 -0.000415 819608.000000 1 0 0
-7.473722 -4.003616 1.223461 8.566348 0.491792 1.427485 0.002370 -0.003976 2516910.000000 1 0 0
-1.982922 -3.917816 -10.967239 11.813619 1.102257 2.760760 0.008310 -0.006427 -732146.000000 1 0 0
-5.183422 8.222284 -4.414439 10.675256 -1.008315 1.997114 0.003878 -0.004249 -1712450.000000 1 0 0
-10.941522 -3.227316 -10.151339 15.270303 0.286827 2.297991 0.009329 -0.004545 791061.000000 1 0 0
4.671778 -11.402416 -7.806939 14.587286 -1.181940 2.135527 -0.004848 0.003608 -1317470.000000 1 0 0
-9.385922 -3.929716 7.260761 12.500274 0.396507 0.951026 0.005198 -0.003654 -853037.000000 1 0 0
-5.618622 -9.636316 -5.140439 12.282167 1.042920 2.002621 0.010136 -0.007728 129506.000000 1 0 0
4.790378 4.550984 -9.627139 11.676514 0.759776 2.540092 0.002611 -0.002405 418050.000000 1 0 0
-3.380322 -7.177616 -14.028039 16.116161 1.130655 2.626878 -0.001661 -0.000483 156996.000000 1 0 0
0.698478 -0.852616 -8.783739 8.852621 -0.884447 3.016764 0.008013 -0.009844 32677.500000 1 0 0
-7.696922 2.198184 -2.957439 8.533526 -0.278187 1.924705 0.003655 -0.002466 39594.300000 1 0 0
-2.355722 7.466484 -12.500239 14.749705 -1.265175 2.582037 -0.001424 -0.004253 -21140.200000 1 0 0
-9.654222 8.822184 7.692261 15.172535 -0.740396 1.039112 -0.001409 -0.008645 -129956.000000 1 0 0
-10.614922 -3.153816 -14.366139 18.138608 0.288805 2.484907 0.009012 0.001844 -274126.000000 1 0 0
-3.238722 4.829984 7.956361 9.855036 -0.980113 0.631167 -0.003138 0.000212 -120618.000000 1 0 0
8.772178 -2.345316 -3.591139 9.764625 -0.261248 1.947407 -0.000548 0.002864 -5805960.000000 1 0 0
1.907378 -8.383016 -1.177239 8.677496 -1.347076 1.706882 -0.000227 -0.001344 -386283.000000 1 0 0
-13.525922 -2.851016 5.093461 14.731673 0.207741 1.217759 0.000688 -0.004014 397480.000000 1 0 0
7.144378 2.666484 -1.967239 7.875424 0.357216 1.823265 0.000382 0.001383 220553.000000 1 0 0
-11.077722 4.394384 8.817261 14.824663 -0.377647 0.933817 0.008440 -0.001265 -1528640.000000 1 0 0
-1.717722 -2.457816 8.031061 8.572594 0.960822 0.357342 0.000853 -0.001500 -1236280.000000 1 0 0
2.928778 11.889584 -9.876839 15.731875 1.329273 2.249550 -0.000626 -0.007125 826157.000000 1 0 0
3.627178 -4.968216 -7.068139 9.370069 -0.940169 2.425432 0.003094 -0.002476 -162901.000000 1 0 0
8.041678 -14.007916 -9.843039 18.914960 -1.049653 2.118097 -0.000974 0.015095 41006.300000 1 0 0
-6.245422 -5.703116 -0.430739 8.468552 0.740043 1.621682 0.008624 -0.004590 -364050.000000 1 0 0
-1.109622 -4.052516 9.865761 10.723217 1.303536 0.402620 -0.001928 0.000948 1041040.000000 1 0 0
2.817678 3.234484 1.796861 4.650796 0.854159 1.174119 -0.004522 0.003248 -387074.000000 1 0 0
-9.154022 13.322884 7.802161 17.949069 -0.968787 1.121110 0.001469 -0.017645 -418203.000000 1 0 0
3.849678 -11.110116 -0.110339 11.758694 -1.237241 1.580180 -0.003544 -0.001856 133170.000000 1 0 0
-12.540222 -1.412416 -9.089039 15.551936 0.112158 2.194975 0.009138 -0.005279 -45710.800000 1 0 0
-4.321322 1.026284 -13.572139 14.280408 -0.233173 2.825325 0.005362 -0.002883 451026.000000 1 0 0
3.948878 -3.144716 4.877161 7.019229 -0.672516 0.802615 -0.001330 0.003843 -69008.900000 1 0 0
1.720678 -1.175416 1.007761 2.314718 -0.599302 1.120346 0.005423 0.000276 389079.000000 1 0 0
8.171278 -9.034316 7.411061 14.258768 -0.835516 1.024233 0.003621 0.003164 -1522610.000000 1 0 0
-0.106722 2.335584 -6.462039 6.871993 -1.525134 2.794437 0.008444 -0.006570 -450301.000000 1 0 0
-3.692922 -9.639316 -3.336239 10.848253 1.204934 1.883400 0.010337 -0.003644 963183.000000 1 0 0
-9.491922 2.311984 -5.549139 11.235426 -0.238921 2.087362 0.004882 -0.003042 -951477.000000 1 0 0
8.940978 -7.672216 5.446161 12.979393 -0.709175 1.137791 0.000293 0.001782 867848.000000 1 0 0
-5.442622 -4.256716 4.623761 8.313900 0.663735 0.981052 0.003773 -0.002283 -563087.000000 1 0 0
-0.130122 -12.469916 10.378761 16.224501 1.560362 0.876693 0.004178 -0.002445 -2154050.000000 1 0 0
-14.271522 -8.270416 3.034161 16.771472 0.525213 1.388883 0.003052 -0.004849 -1680760.000000 1 0 0
10.901478 -1.273716 -3.580339 11.544843 -0.116312 1.886120 0.002405 0.003255 -549520.000000 1 0 0
-13.631722 3.032684 2.689461 14.221611 -0.218907 1.380540 -0.005225 0.002680 -609810.000000 1 0 0
-6.400922 6.167384 0.949861 8.939276 -0.766819 1.464338 -0.002524 -0.001877 183082.000000 1 0 0
7.161878 -6.962316 -0.510339 10.001339 -0.771270 1.621846 0.000595 -0.001519 384190.000000 1 0 0
-6.812022 7.897384 10.070661 14.497949 -0.859052 0.802896 0.001782 -0.000730 352128.000000 1 0 0
-12.614222 -5.108716 -1.969339 13.751214 0.384806 1.714502 0.002544 -0.005292 -3538790.000000 1 0 0
-9.403722 -5.525916 0.193161 10.908852 0.531275 1.553089 0.004608 -0.004604 -993650.000000 1 0 0
-1.797422 1.881484 2.147361 3.373702 -0.808244 0.880845 0.002594 -0.000274 212768.000000 1 0 0
-7.036322 7.335384 7.595461 12.688921 -0.806204 0.929057 -0.000867 -0.003803 -416296.000000 1 0 0
5.603378 7.088784 -0.502839 9.049947 0.901902 1.626388 0.003518 -0.001601 -1553290.000000 1 0 0
-0.009722 -3.967216 7.438161 8.430014 1.568346 0.489979 -0.001805 0.000028 -484262.000000 1 0 0
6.560578 0.618884 13.063261 14.631233 0.094055 0.467198 0.001146 -0.001652 459504.000000 1 0 0
5.822878 6.110384 -7.920239 11.574666 0.809486 2.324404 0.000126 -0.002105 -550764.000000 1 0 0
9.917178 5.164884 9.147061 14.446285 0.480150 0.885145 -0.001172 0.002960 -1798590.000000 1 0 0
-1.327622 -4.883916 -8.539839 9.926937 1.305374 2.606594 0.008110 -0.007428 914914.000000 1 0 0
10.034778 -3.553516 -8.041339 13.341191 -0.340341 2.217733 0.003980 0.001549 406821.000000 1 0 0
8.435178 -5.633016 1.221561 10.216424 -0.588787 1.450941 0.003016 0.000033 1002910.000000 1 0 0
15.772378 3.193084 -5.019539 16.857030 0.199748 1.873153 0.002403 0.005124 416706.000000 1 0 0
-6.973922 3.565884 1.125161 7.913097 -0.472660 1.428123 0.001676 -0.002804 626683.000000 1 0 0
-1.722122 3.809584 0.278561 4.190015 -1.146239 1.504265 0.003907 -0.002648 -1543960.000000 1 0 0
-2.623722 10.063284 7.003261 12.537913 -1.315752 0.978140 -0.005167 0.003084 -610166.000000 1 0 0
5.507978 -5.797916 -8.704439 11.820360 -0.811037 2.398521 -0.001116 0.002379 -2206930.000000 1 0 0
-1.167022 -0.925116 6.224361 6.400035 0.670283 0.234842 0.000228 -0.000235 367013.000000 1 0 0
-5.708922 4.996984 -7.768739 10.858865 -0.718996 2.368033 0.003956 -0.005039 148729.000000 1 0 0
6.837778 -1.275716 2.503061 7.392427 -0.184448 1.225370 0.000569 0.000875 -1617120.000000 1 0 0
8.780978 7.446584 3.249461 11.963117 0.703353 1.295717 0.001871 -0.000630 -81225.600000 1 0 0
-5.321722 -4.867316 -7.767539 10.599347 0.740830 2.393271 0.008945 -0.010299 1152010.000000 1 0 0
-2.256822 7.867284 -10.008139 12.928660 -1.291436 2.456096 -0.000746 -0.003334 388279.000000 1 0 0
-2.866422 -2.390616 1.600361 4.061105 0.695136 1.165740 0.002065 0.000009 97274.800000 1 0 0
6.107278 -2.024316 -9.375939 11.371233 -0.320063 2.540170 0.000390 0.000470 1044260.000000 1 0 0
1.155778 -7.603516 4.997761 9.172071 -1.419945 0.994540 -0.004945 0.002171 500593.000000 1 0 0
1.739578 11.757484 1.209161 11.946825 1.423907 1.469411 0.004303 -0.002589 260984.000000 1 0 0
-1.097322 7.029584 2.575761 7.566618 -1.415945 1.223442 -0.000130 0.000816 536814.000000 1 0 0
8.738578 7.898684 -6.677839 13.540513 0.734958 2.086532 0.007727 -0.002921 -54732.300000 1 0 0
3.706378 -11.265416 5.492761 13.069708 -1.252946 1.137057 -0.007959 0.001021 -48552.600000 1 0 0
7.927478 -6.966616 12.477761 16.342373 -0.720975 0.702047 0.007001 -0.001564 17960.100000 1 0 0
-8.627822 0.015384 -3.920239 9.476699 -0.001783 1.997279 0.005157 -0.003241 -527807.000000 1 0 0
-3.192022 -5.043016 11.179161 12.672595 1.006494 0.490383 0.005161 -0.002613 644424.000000 1 0 0
-8.205222 0.204884 -11.545439 14.165621 -0.024965 2.523581 0.005394 -0.004354 -2119270.000000 1 0 0
1.452278 -5.082416 5.394061 7.552215 -1.292468 0.775265 -0.001081 0.003322 -750644.000000 1 0 0
6.684978 3.708884 -7.787239 10.912646 0.506528 2.365417 -0.001862 0.001796 -649241.000000 1 0 0
16.376478 4.207784 -0.988039 16.937258 0.251500 1.629165 -0.009435 0.009849 -1531140.000000 1 0 0
7.927178 7.385684 0.137461 10.835468 0.750051 1.558110 0.003402 -0.002230 -2755190.000000 1 0 0
5.513978 -10.400516 13.978461 18.274902 -1.083310 0.699911 0.003622 -0.004147 183955.000000 1 0 0
-5.265522 -9.127116 8.964361 13.834368 1.047528 0.865870 0.004905 -0.000213 331601.000000 1 0 0
-12.609622 -3.189416 2.857561 13.316929 0.247739 1.354533 0.003221 -0.002964 238596.000000 1 0 0
-2.160822 -1.507516 -5.856339 6.421718 0.609153 2.718828 0.008614 -0.008833 -1610550.000000 1 0 0
-2.598022 12.960684 -4.246839 13.883972 -1.372964 1.881660 -0.002967 0.002134 463204.000000 1 0 0
3.946978 -0.465116 -5.073539 6.444825 -0.117300 2.477095 0.004691 0.000587 -159956.000000 1 0 0
-8.973822 3.791384 -7.384839 12.224562 -0.399746 2.219430 0.001959 -0.003462 728575.000000 1 0 0
-4.581222 8.008984 -11.217639 14.524698 -1.051212 2.453273 0.001813 -0.006171 -2136720.000000 1 0 0
-10.202022 -6.388216 7.429361 14.145175 0.559441 1.017820 0.002765 0.001047 -1556990.000000 1 0 0
8.028778 5.191184 4.048661 10.382741 0.573962 1.170228 -0.000215 -0.000875 -1604510.000000 1 0 0
-6.678222 -7.479316 3.952261 10.777717 0.841922 1.195330 0.008709 -0.003114 -825692.000000 1 0 0
-4.076122 11.861684 8.042561 14.899567 -1.239801 1.000615 -0.002412 -0.002951 -315112.000000 1 0 0
-7.323022 9.954284 -7.854639 14.642738 -0.936533 2.136984 0.003634 -0.007082 -1171300.000000 1 0 0
12.996178 5.431084 4.557661 14.804377 0.395840 1.257854 -0.002350 -0.005098 546463.000000 1 0 0
5.498178 4.003584 -3.726839 7.755512 0.629380 2.072067 0.000511 0.002545 511331.000000 1 0 0
-2.799922 -4.247616 5.089361 7.196068 0.987998 0.785207 0.004694 -0.001204 -2169950.000000 1 0 0
12.437678 -2.353616 -5.218739 13.691990 -0.187021 1.961839 0.002692 0.001948 -2521790.000000 1 0 0
-5.319522 9.835284 7.048961 13.218092 -1.074997 1.008322 -0.007071 0.001153 71509.900000 1 0 0
1.720778 3.805684 -0.508239 4.207447 1.146148 1.691887 0.000455 0.001428 464546.000000 1 0 0
-0.089922 9.634884 7.696461 12.331852 -1.561464 0.896801 -0.003360 0.003891 235640.000000 1 0 0
-5.598922 2.163984 5.911861 8.425013 -0.368815 0.793011 0.004750 -0.001886 658717.000000 1 0 0
8.896978 0.900884 10.638761 13.897879 0.100913 0.698986 0.002467 0.000401 -486306.000000 1 0 0
0.444878 -2.858916 -10.170639 10.574177 -1.416424 2.864436 0.005722 -0.006704 -1239790.000000 1 0 0
1.212878 10.591084 -2.800639 11.022055 1.456774 1.827707 0.006335 -0.004269 813172.000000 1 0 0
2.211578 -4.440216 11.770161 12.772755 -1.108687 0.398858 -0.002533 -0.001126 405028.000000 1 0 0
6.528778 -3.051016 9.416161 11.857391 -0.437162 0.653242 0.005308 -0.001298 445619.000000 1 0 0
-10.620422 -8.249916 5.686061 14.600883 0.660432 1.170781 0.005724 -0.002773 -791106.000000 1 0 0
-2.903322 0.806784 -6.891239 7.521260 -0.271044 2.729375 0.009983 -0.007735 806558.000000 1 0 0
11.007778 2.606884 -5.138939 12.424802 0.232538 1.997205 0.004641 0.002276 -2965860.000000 1 0 0
-1.927822 -4.057316 -0.043939 4.492243 1.127228 1.580578 0.005078 -0.004356 1369270.000000 1 0 0
-1.209522 -6.403216 -10.625139 12.464257 1.384103 2.591448 0.006647 -0.005091 991464.000000 1 0 0
0.339578 6.880384 -6.635739 9.564937 1.521482 2.337488 0.007237 -0.003172 -2098170.000000 1 0 0
1.960778 3.864084 -6.280539 7.630267 1.101217 2.537660 0.005251 -0.001816 -2525000.000000 1 0 0
1.530578 -14.817316 6.289861 16.169659 -1.467865 1.171260 -0.003749 0.001176 -192342.000000 1 0 0
-1.793822 5.318884 -10.457139 11.868449 -1.245520 2.648953 0.006093 -0.003424 -385952.000000 1 0 0
13.713878 4.325284 -0.822639 14.403307 0.305520 1.627942 0.005745 -0.001047 -1046080.000000 1 0 0
-2.374222 3.393484 -6.336239 7.569715 -0.960311 2.562667 0.009851 -0.008319 -1130210.000000 1 0 0
5.744278 7.849984 14.172261 17.189297 0.939074 0.601511 -0.000404 0.001074 260016.000000 1 0 0
15.880578 0.657984 -5.713339 16.889877 0.041410 1.915874 -0.002046 0.003896 348276.000000 1 0 0
6.260978 -8.439916 10.757361 15.038379 -0.932545 0.773704 -0.000738 0.001978 1165750.000000 1 0 0
-0.001522 -5.926016 -6.453739 8.761759 1.570539 2.398797 0.004476 -0.004986 357263.000000 1 0 0
8.632478 5.528384 -7.631839 12.779972 0.569609 2.210767 -0.000994 0.000915 -597303.000000 1 0 0
-16.023822 -0.814316 5.371661 16.919832 0.050775 1.247728 -0.008342 0.000082 -383250.000000 1 0 0
-0.503122 4.015684 -12.343039 12.989591 -1.446157 2.824755 0.007956 -0.006650 946303.000000 1 0 0
-11.464722 3.827884 5.757561 13.388131 -0.322246 1.126249 0.002806 0.000836 -149260.000000 1 0 0
5.219178 -9.648416 -9.646039 14.607458 -1.074938 2.292081 -0.005538 0.003917 147832.000000 1 0 0
1.508778 11.178484 -11.668539 16.229286 1.436635 2.373131 -0.005581 -0.000660 -2696840.000000 1 0 0
5.967278 2.298984 1.182061 6.503153 0.367740 1.388013 0.000417 0.001839 -58445.700000 1 0 0
5.594978 4.528284 4.820861 8.663130 0.680415 0.980653 -0.005044 0.001212 -102151.000000 1 0 0
0.426678 -1.516716 -6.388839 6.580255 -1.296567 2.899802 0.007339 -0.004566 576949.000000 1 0 0
12.650378 6.712584 -4.589039 15.038289 0.487845 1.880900 0.005794 0.000026 -361848.000000 1 0 0
7.298578 3.156084 12.655861 14.946602 0.408142 0.560972 -0.001123 0.002229 -481202.000000 1 0 0
-2.304522 -0.209016 8.690461 8.993254 0.090451 0.260229 -0.002917 -0.000207 989378.000000 1 0 0
2.319478 -15.334916 13.216661 20.376942 -1.420680 0.865041 -0.000198 -0.002176 107819.000000 1 0 0
18.897478 4.548484 -1.605539 19.503362 0.236200 1.653211 -0.005015 0.011311 1052140.000000 1 0 0
-0.378922 -13.283716 7.134261 15.083049 1.542279 1.078105 -0.007501 0.000968 -1062150.000000 1 0 0
4.370878 1.686584 -0.635639 4.727915 0.368265 1.705649 0.001169 0.000354 589915.000000 1 0 0
2.818078 -0.564816 -7.469239 8.003132 -0.197805 2.774263 0.002745 -0.003715 511087.000000 1 0 0
7.195178 -11.311416 0.843061 13.432404 -1.004256 1.507992 -0.004099 0.001888 174995.000000 1 0 0
-11.766222 -7.344916 1.339661 13.935080 0.558051 1.474512 0.001901 -0.001392 296883.000000 1 0 0
0.150378 -6.929716 10.129061 12.273608 -1.549099 0.600113 -0.002650 -0.002174 -1389020.000000 1 0 0
-4.659422 -7.107616 10.544761 13.543279 0.990527 0.678369 0.007219 -0.000903 -1330330.000000 1 0 0
11.862478 0.768884 -1.705539 12.009098 0.064726 1.713299 0.003391 0.000181 1180110.000000 1 0 0
6.575778 -9.673516 -7.462739 13.874806 -0.973776 2.138696 -0.007048 0.002093 -1605180.000000 1 0 0
-11.025522 4.817984 3.500061 12.530983 -0.411978 1.287718 -0.003253 -0.000762 574420.000000 1 0 0
5.939778 -9.079916 2.055761 11.043188 -0.991498 1.383548 -0.005433 -0.002369 3967810.000000 1 0 0
11.507178 -1.354616 5.863361 12.985728 -0.117180 1.102324 0.011958 -0.007252 -59910.300000 1 0 0
-6.466022 3.654584 4.101961 8.484781 -0.514437 1.066206 0.002873 -0.002098 -1740190.000000 1 0 0
9.468378 6.287084 -3.248439 11.820743 0.586160 1.849187 0.004969 -0.000323 361028.000000 1 0 0
-2.312022 6.549384 10.992461 13.002848 -1.231439 0.563504 -0.006229 0.001016 208896.000000 1 0 0
1.919878 9.817784 3.026961 10.451665 1.377682 1.276972 -0.001916 -0.000972 -75605.700000 1 0 0
2.856778 6.137084 -5.682639 8.838403 1.135132 2.269138 0.004443 -0.000999 -1818360.000000 1 0 0
11.956578 0.073284 -5.690339 13.241793 0.006129 2.014985 0.005967 0.001687 182532.000000 1 0 0
-2.672822 -12.417716 6.280861 14.170140 1.358788 1.111580 -0.002654 0.001696 -245863.000000 1 0 0
10.779878 1.735284 -2.753239 11.260431 0.159605 1.817806 0.004849 0.001021 77041.300000 1 0 0
-8.872622 5.285384 0.836061 10.361356 -0.537249 1.490018 0.000510 -0.002538 49699.700000 1 0 0
1.160578 -10.157816 5.592561 11.653536 -1.457035 1.070253 -0.008484 0.000856 691105.000000 1 0 0
9.393178 -5.895416 -1.341139 11.170782 -0.560486 1.691144 0.001126 -0.000371 508837.000000 1 0 0
-7.841722 8.571284 -4.557339 12.479137 -0.829819 1.944640 -0.000464 -0.003254 7017.060000 1 0 0
-7.406922 -0.044416 -1.609339 7.579871 0.005997 1.784742 0.003112 -0.002103 -2054190.000000 1 0 0
4.090678 8.794784 2.686661 10.064791 1.135435 1.300583 0.001978 -0.001628 1007090.000000 1 0 0
-1.288622 -10.366016 -3.789839 11.112053 1.447119 1.918837 0.005184 0.000358 -686838.000000 1 0 0
3.301178 7.861184 -3.685139 9.288500 1.173224 1.978761 0.006386 -0.003610 -652742.000000 1 0 0
-4.460722 1.703884 -11.028639 12.017993 -0.364872 2.732991 0.002526 -0.006257 -452331.000000 1 0 0
1.365778 2.653484 11.103061 11.497142 1.095449 0.262580 -0.004078 0.000562 558082.000000 1 0 0
2.136278 5.665984 -8.125039 10.133278 1.210242 2.501127 0.007288 -0.003779 -572820.000000 1 0 0
15.514278 6.077084 4.122061 17.164357 0.373339 1.328274 0.007237 -0.004932 -14766.500000 1 0 0
-4.471422 9.000084 4.680661 11.086194 -1.109696 1.134919 -0.004959 0.000241 169466.000000 1 0 0
-1.015422 -8.176616 -12.415039 14.900380 1.447243 2.555671 0.001974 -0.001097 -515511.000000 1 0 0
14.281478 -4.201316 -5.363439 15.823342 -0.286108 1.916605 0.005822 0.002454 525426.000000 1 0 0
-6.075222 -6.231416 -5.720739 10.414688 0.798089 2.152317 0.009199 -0.006311 475768.000000 1 0 0
-8.926322 2.656384 -12.194139 15.343814 -0.289244 2.489354 0.003270 -0.001953 -259880.000000 1 0 0
10.481678 5.348584 13.840761 18.166991 0.471837 0.704612 0.005000 0.001479 268834.000000 1 0 0
-0.502722 10.954184 5.598361 12.312129 -1.524935 1.098758 -0.000223 0.002501 352650.000000 1 0 0
0.457178 11.217484 -0.611339 11.243429 1.530063 1.625196 0.004204 -0.002435 5944.200000 1 0 0
-1.456222 -0.586116 3.607061 3.933828 0.382652 0.410468 0.002096 -0.000192 219109.000000 1 0 0
-4.779822 6.780784 8.949861 12.203513 -0.956785 0.747510 -0.003361 -0.001618 -850716.000000 1 0 0
3.492978 -8.734216 -11.472939 14.836299 -1.190360 2.454829 -0.009624 0.004431 2231720.000000 1 0 0
6.714278 -3.878616 11.995861 14.283762 -0.523836 0.573836 0.009822 -0.002719 -243834.000000 1 0 0
-2.354022 -1.826816 -12.664139 13.009962 0.659960 2.910508 0.008545 -0.008548 899343.000000 1 0 0
-16.063122 -4.993416 5.356361 17.653575 0.301392 1.262522 -0.003966 -0.004795 162984.000000 1 0 0
-8.872122 7.154284 5.759261 12.769785 -0.678618 1.102903 -0.003378 -0.000282 -4498810.000000 1 0 0
-12.923322 1.577384 6.070161 14.364792 -0.121456 1.134515 -0.000065 -0.002372 509466.000000 1 0 0
-3.486122 3.588184 10.160361 11.325239 -0.799824 0.457537 -0.003249 0.002697 511676.000000 1 0 0
1.968578 -12.239516 -1.227039 12.457395 -1.411324 1.669455 -0.002273 0.000773 -2673570.000000 1 0 0
10.408578 -5.177816 -3.687139 12.196035 -0.461611 1.877925 -0.000613 0.003049 508098.000000 1 0 0
2.920878 -13.460416 0.960861 13.807157 -1.357112 1.501149 -0.004870 0.000251 404494.000000 1 0 0
10.091978 -1.633616 -6.190039 11.951289 -0.160481 2.115236 0.002195 0.002944 407788.000000 1 0 0
11.986478 -5.414716 -1.555539 13.244414 -0.424296 1.688517 0.002303 0.000507 -641367.000000 1 0 0
1.564478 0.935684 5.933861 6.207560 0.539007 0.298057 -0.004812 0.001278 234156.000000 1 0 0
-10.705222 11.562784 6.594661 17.081841 -0.823890 1.174437 -0.000118 -0.012879 -117754.000000 1 0 0
4.742378 -14.067516 2.829761 15.112667 -1.245646 1.382440 -0.002322 -0.002824 -3010620.000000 1 0 0
5.411278 -3.513216 -1.787839 6.694848 -0.575841 1.841124 0.003477 -0.000381 -1341720.000000 1 0 0
2.047678 -2.945116 -7.732039 8.523563 -0.963246 2.707227 0.003468 -0.003232 -322489.000000 1 0 0
-2.803622 14.695584 -8.686939 17.299809 -1.382282 2.096869 -0.005908 -0.004081 -1977950.000000 1 0 0
-2.358522 6.088284 -8.039639 10.356912 -1.201210 2.459505 0.008430 -0.006191 -410064.000000 1 0 0
2.600378 -3.502716 -11.317839 12.129488 -0.932184 2.773693 -0.003435 -0.002162 -1533350.000000 1 0 0
14.787478 2.860384 -2.628539 15.289229 0.191073 1.743576 0.005279 0.002856 767449.000000 1 0 0
-3.583222 13.120284 2.324061 13.797920 -1.304192 1.401554 -0.007329 0.003953 197861.000000 1 0 0
7.862978 -4.926216 14.087061 16.868293 -0.559683 0.582444 0.005526 -0.003453 -1854750.000000 1 0 0
-11.321122 7.167584 2.910661 13.711820 -0.564414 1.356895 -0.006788 0.002300 1083520.000000 1 0 0
-2.269222 11.832484 4.110661 12.730066 -1.381318 1.241994 -0.003699 0.003604 -398767.000000 1 0 0
1.844878 1.445984 0.643661 2.430790 0.664774 1.302805 -0.001982 0.002126 -1869050.000000 1 0 0
-6.887322 8.545084 5.326661 12.199466 -0.892409 1.118946 -0.006403 -0.001906 -967458.000000 1 0 0
-1.161622 9.173184 1.134161 9.315739 -1.444834 1.448747 0.001276 -0.000269 322844.000000 1 0 0
4.849578 12.844584 -8.453339 16.123296 1.209785 2.122682 0.003614 -0.011877 -1984150.000000 1 0 0
8.938478 6.823684 7.224361 13.366018 0.652026 0.999763 -0.004993 0.001205 -1510050.000000 1 0 0
7.294878 -13.716616 2.885061 15.801404 -1.082012 1.387184 0.002913 -0.001525 617878.000000 1 0 0
4.084278 -13.432216 -1.321239 14.101469 -1.275614 1.664629 -0.007229 0.005275 -2972910.000000 1 0 0
12.025978 -11.840216 -4.608439 17.494359 -0.777615 1.837367 0.010005 0.003056 -517362.000000 1 0 0
2.971578 -0.009816 -1.947039 3.552652 -0.003303 2.150830 0.005121 -0.000451 1217930.000000 1 0 0
-13.632022 -3.255016 -10.615939 17.581960 0.234388 2.219053 0.005819 -0.008046 342692.000000 1 0 0
-6.523222 13.657784 5.075361 15.963921 -1.125213 1.247254 -0.004097 -0.004676 870153.000000 1 0 0
7.425378 -4.326816 -0.608539 8.615561 -0.527607 1.641488 0.003182 0.000395 -1527430.000000 1 0 0
11.743678 2.128284 -7.319739 14.000791 0.179282 2.120939 0.006098 0.000725 -1145280.000000 1 0 0
-7.515822 -4.507416 9.757261 13.115202 0.540216 0.731811 0.008826 0.000413 552967.000000 1 0 0
0.990078 2.960684 8.705161 9.248012 1.248078 0.344333 -0.004838 0.001300 -2286280.000000 1 0 0
1.640078 8.037784 -8.731739 11.980780 1.369513 2.387382 0.004077 -0.004700 -972012.000000 1 0 0
-8.602122 -2.076416 -5.555039 10.448276 0.236853 2.131368 0.008500 -0.005112 -621620.000000 1 0 0
6.794778 -0.509516 7.262761 9.958730 -0.074846 0.753519 0.003337 0.000788 -203430.000000 1 0 0
-10.870522 6.511784 7.135861 14.542767 -0.539707 1.057925 0.002958 -0.002193 333867.000000 1 0 0
-5.928822 11.052284 4.914461 13.470554 -1.078428 1.197346 -0.011920 0.000506 20824.800000 1 0 0
6.097378 -1.227316 -7.028139 9.385045 -0.198632 2.417145 0.001112 0.002337 -627807.000000 1 0 0
4.421978 -5.799316 11.477661 13.598627 -0.919343 0.566041 0.000947 -0.002459 -1622840.000000 1 0 0
-8.999022 -7.354616 2.752761 11.943637 0.685182 1.338226 0.005348 -0.005030 -1634880.000000 1 0 0
-1.292522 12.601884 -9.216339 15.665854 -1.468588 2.199761 -0.000496 -0.003542 674711.000000 1 0 0
-4.710422 9.196584 -2.237139 10.572134 -1.097442 1.784015 -0.001789 -0.002534 363199.000000 1 0 0
-3.205522 9.724584 -0.170639 10.240704 -1.252382 1.587460 -0.000845 -0.001531 -1779120.000000 1 0 0
-3.477722 10.761784 -6.306039 12.949003 -1.258234 2.079437 -0.001252 -0.000447 289994.000000 1 0 0
5.018778 -4.932516 0.352861 7.045733 -0.776730 1.520694 0.001164 -0.001337 -1412760.000000 1 0 0
-2.330622 2.942784 -10.822739 11.455281 -0.900966 2.807724 0.007825 -0.004982 -2308290.000000 1 0 0
-3.597522 12.012884 -2.155239 12.723859 -1.279824 1.741003 -0.007180 0.003789 -699812.000000 1 0 0
-0.168822 0.436984 -0.017239 0.468778 -1.202125 1.607580 0.000615 -0.000142 -1478200.000000 1 0 0
-4.816122 -1.677416 0.148661 5.102044 0.335152 1.541655 0.002507 -0.002507 193035.000000 1 0 0
2.676178 2.558084 -2.607439 4.528185 0.762840 2.184408 -0.004637 0.002349 1565750.000000 1 0 0
6.146278 -9.677316 8.609461 14.337015 -1.004951 0.926663 -0.002975 0.003740 -861488.000000 1 0 0
-4.248722 -5.450616 6.614161 9.565980 0.908685 0.807336 0.003861 -0.001695 165687.000000 1 0 0
-6.196722 5.473684 -12.012539 14.582924 -0.723522 2.538773 -0.003532 -0.006264 843350.000000 1 0 0
-13.030722 3.173484 7.956161 15.593948 -0.238888 1.035369 0.005464 0.000269 523763.000000 1 0 0
4.715678 -7.453716 -4.982839 10.130360 -1.006707 2.085035 -0.002286 -0.001151 -289131.000000 1 0 0
-5.973322 2.534684 -1.086039 6.579109 -0.401306 1.736629 0.005572 -0.003166 -644187.000000 1 0 0
-6.838622 -2.778216 -14.641839 16.397216 0.385886 2.674645 0.008700 0.002392 339863.000000 1 0 0
2.754378 -6.062716 0.929361 6.723603 -1.144361 1.432129 0.001765 -0.002478 367848.000000 1 0 0
4.921178 -7.906916 13.118761 16.088480 -1.014077 0.617354 -0.002339 -0.002242 -202395.000000 1 0 0
-10.102622 -1.774116 8.045161 13.035915 0.173837 0.905676 0.011224 -0.003285 110788.000000 1 0 0
-4.476322 13.353584 -0.038539 14.083932 -1.247353 1.573533 -0.009351 0.006761 452238.000000 1 0 0
6.863978 2.147784 -4.487939 8.477545 0.303255 2.128679 0.000811 0.004440 -1759860.000000 1 0 0
5.063278 4.462784 -0.004839 6.749314 0.722444 1.571513 -0.001131 0.001251 -1254160.000000 1 0 0
-5.910222 12.236584 1.914561 13.723347 -1.120844 1.430829 -0.009313 0.004203 -675612.000000 1 0 0
6.530278 -7.329916 6.621661 11.841393 -0.843027 0.977381 -0.001266 0.001130 174479.000000 1 0 0
-0.305922 4.919084 7.697461 9.140124 -1.508685 0.569517 -0.007039 0.002502 -944675.000000 1 0 0
-5.837422 -3.396616 -1.639239 6.949792 0.526981 1.808909 0.002644 -0.003997 -616840.000000 1 0 0
2.326278 -6.555516 -5.280139 8.733054 -1.229800 2.220079 0.003141 -0.001678 -1446610.000000 1 0 0
-14.435722 -4.825416 -3.692239 15.662291 0.322593 1.808777 0.003612 -0.003641 290067.000000 1 0 0
-12.325922 -5.111216 -6.299139 14.755746 0.393090 2.011852 0.005185 -0.004839 -1198460.000000 1 0 0
-14.807722 -3.754316 -1.294639 15.331002 0.248306 1.655343 0.005311 -0.006807 137293.000000 1 0 0
11.869878 2.881684 8.730761 15.014136 0.238165 0.950222 0.007647 -0.000309 -1760820.000000 1 0 0
8.846078 -6.600716 7.829561 13.532353 -0.641048 0.953809 0.005969 -0.003514 191624.000000 1 0 0
-8.792222 -1.699016 -9.756239 13.242886 0.190888 2.398996 0.009100 -0.005778 -34932.500000 1 0 0
-8.838622 5.127284 -3.935239 10.949721 -0.525659 1.938412 0.004768 -0.003817 237636.000000 1 0 0
-4.072422 -6.237216 4.059461 8.483320 0.992369 1.071825 0.005222 -0.001820 -1347220.000000 1 0 0
-0.156322 -9.319416 3.461761 9.942824 1.554024 1.215182 -0.003970 -0.000471 158257.000000 1 0 0
7.816078 -10.467016 3.343061 13.484271 -0.929389 1.320261 -0.001640 0.001354 578518.000000 1 0 0
-0.018322 6.504484 9.651961 11.639115 -1.567979 0.592997 -0.007863 0.002815 -749799.000000 1 0 0
-0.078422 3.424184 -9.763139 10.346501 -1.547898 2.804190 0.010883 -0.007190 -996769.000000 1 0 0
4.423278 -3.138416 11.126861 12.378290 -0.617089 0.453541 0.001882 -0.001412 -611914.000000 1 0 0
8.506378 -9.158216 1.309261 12.567639 -0.822282 1.466430 -0.002059 0.001682 -383644.000000 1 0 0
-0.217022 -0.483016 11.551361 11.563492 1.148520 0.045809 0.001106 -0.000469 -865480.000000 1 0 0
10.899578 5.821284 11.463961 16.855579 0.490541 0.822858 0.006602 0.004258 -981776.000000 1 0 0
-6.248022 -2.994616 -11.966739 13.827811 0.446943 2.616766 0.009302 -0.006503 176474.000000 1 0 0
-1.610022 2.818984 8.446661 9.049028 -1.051871 0.366931 -0.002172 0.000435 -1004900.000000 1 0 0
-1.654022 13.497784 -6.791339 15.200271 -1.448864 2.033971 -0.003743 -0.000140 953727.000000 1 0 0
7.598278 3.014584 9.842361 12.794280 0.377698 0.693086 -0.001904 0.003194 322487.000000 1 0 0
6.553478 8.418284 -7.947239 13.303165 0.909315 2.211045 0.006987 -0.001686 -815031.000000 1 0 0
6.739878 -3.078016 -3.985439 8.413315 -0.428401 2.064291 0.002351 0.000888 -1789320.000000 1 0 0
1.968978 8.262984 0.994961 8.552410 1.336870 1.454195 0.000279 0.000538 705762.000000 1 0 0
-17.613122 6.144084 6.335761 19.700601 -0.335637 1.243375 0.013415 0.006847 167754.000000 1 0 0
-14.595022 3.172984 -10.097839 18.029111 -0.214071 2.165285 0.009106 -0.005386 -1381650.000000 1 0 0
-18.258422 0.017184 -4.301739 18.758338 -0.000941 1.802180 0.009795 -0.008294 -113351.000000 1 0 0
-12.953622 8.104284 0.081161 15.280128 -0.559058 1.565485 -0.002663 0.003386 -528022.000000 1 0 0
-12.711422 -4.221016 -12.886639 18.586627 0.320608 2.336894 0.009175 0.004628 -511988.000000 1 0 0
-17.407322 -0.800216 -8.715039 19.483509 0.045938 2.034544 -0.007006 -0.008827 13621.900000 1 0 0
-16.701522 -1.980516 -2.037439 16.941501 0.118032 1.691351 0.007877 -0.006704 -197535.000000 1 0 0
-15.402722 4.048084 1.700561 16.016327 -0.257004 1.464419 -0.000576 0.002622 -178508.000000 1 0 0
-13.218922 5.983584 4.402061 15.163156 -0.425058 1.276242 -0.004441 0.004459 -333974.000000 1 0 0
-9.846722 14.194084 2.851461 17.508877 -0.964297 1.407210 0.004092 -0.004443 -137055.000000 1 0 0
-12.000222 2.442384 -6.361639 13.800037 -0.200786 2.049904 0.008473 0.000041 683351.000000 1 0 0
-15.842122 10.708784 3.794761 19.494899 -0.594415 1.374892 0.022548 -0.002636 880680.000000 1 0 0
-12.826422 1.114184 -8.617439 15.492539 -0.086649 2.160641 0.007385 -0.003297 594996.000000 1 0 0
-12.156722 14.232884 4.027061 19.146229 -0.863910 1.358882 0.010742 -0.011249 -623046.000000 1 0 0
-10.328922 11.144284 -1.027839 15.229516 -0.823351 1.638338 -0.001672 -0.000666 657439.000000 1 0 0
-16.934222 5.724684 8.819161 19.932824 -0.325993 1.112474 0.001732 0.005566 116121.000000 1 0 0
-11.729822 12.659584 -9.247739 19.579951 -0.823501 2.062702 0.004813 -0.004655 173543.000000 1 0 0
-17.170122 -0.524016 3.131861 17.461278 0.030510 1.390460 -0.000587 0.000135 646574.000000 1 0 0
-12.939522 14.940584 -0.857739 19.783528 -0.857049 1.614166 0.017947 -0.006040 288573.000000 1 0 0
-16.734322 4.529084 -10.376539 20.204522 -0.264314 2.110143 0.024066 -0.000068 606023.000000 1 0 0
-12.027022 7.624784 -8.919239 16.802959 -0.565024 2.130357 0.009038 -0.001800 -109086.000000 1 0 0
-14.793022 13.446684 -1.980239 20.089006 -0.737759 1.669530 0.027827 -0.014677 905149.000000 1 0 0
-11.915022 10.563184 -5.450639 16.830272 -0.725331 1.900602 0.004168 -0.006327 1269420.000000 1 0 0
-17.612122 2.905584 -0.592139 17.860008 -0.163504 1.603957 -0.000283 -0.003189 -384779.000000 1 0 0
-9.382122 15.371884 0.667661 18.021232 -1.022806 1.533739 0.011243 -0.005197 211954.000000 1 0 0
-8.146022 13.181184 -3.642339 15.917535 -1.017244 1.801667 0.002053 -0.001949 -437755.000000 1 0 0
-17.714622 11.598484 2.210461 21.288936 -0.579701 1.466777 0.040451 0.002070 89043.900000 1 0 0
-8.097122 15.633884 -7.348039 19.078139 -1.092915 1.966172 0.020598 -0.014466 248589.000000 1 0 0
-6.272822 15.303284 -5.403339 17.399278 -1.181784 1.886568 0.004335 0.001109 -1040500.000000 1 0 0
-17.274922 5.310484 -0.075039 18.072902 -0.298241 1.574948 0.008895 -0.001138 332807.000000 1 0 0
-5.307122 12.216984 -12.154739 18.032136 -1.160986 2.310488 -0.013546 -0.002662 -287424.000000 1 0 0
-11.195722 3.643984 -11.319539 16.332629 -0.314666 2.336526 0.007553 -0.006293 201160.000000 1 0 0
-11.775922 11.130784 1.174761 16.246438 -0.757242 1.498424 0.005049 -0.001996 284563.000000 1 0 0
-12.925822 0.078184 -11.101539 17.038990 -0.006049 2.280406 0.008819 -0.010565 378667.000000 1 0 0
-14.316522 -2.084016 -12.871939 19.364730 0.144552 2.297903 0.011354 -0.009329 398270.000000 1 0 0
-18.735122 -2.515316 -3.656439 19.253601 0.133459 1.761866 0.006749 -0.003302 -93971.500000 1 0 0
-18.382422 4.727184 -5.009839 19.630542 -0.251704 1.828857 0.023213 -0.002282 71439.300000 1 0 0
-8.094022 15.489284 -2.323239 17.630330 -1.089267 1.702956 0.012065 -0.001184 178471.000000 1 0 0
-16.280322 9.028284 -5.386439 19.379694 -0.506331 1.852448 0.021203 -0.000556 111725.000000 1 0 0
-18.208322 1.578284 2.277361 18.417935 -0.086463 1.446830 0.006444 -0.005235 -314127.000000 1 0 0
-15.729922 -2.743516 -8.756639 18.210878 0.172677 2.072416 -0.001865 -0.004626 -380045.000000 1 0 0
-9.717722 10.551684 -7.186739 16.044356 -0.826519 2.035244 0.001792 -0.006057 -28212.100000 1 0 0
-13.913522 12.094984 -7.806239 20.020292 -0.715591 1.971337 0.005338 -0.006814 326380.000000 1 0 0
-11.047722 6.591984 -3.919839 13.448849 -0.537977 1.866552 0.001642 0.000900 -1213950.000000 1 0 0
-13.098422 4.979084 -12.562239 18.819399 -0.363259 2.301663 0.010252 -0.008354 315577.000000 1 0 0
-17.692922 9.175584 2.657661 20.107063 -0.478418 1.438233 0.034232 -0.005677 958831.000000 1 0 0
-13.433722 8.747584 -6.554939 17.319132 -0.577194 1.958950 0.003730 0.000582 -384173.000000 1 0 0
-15.845122 6.999484 -3.760139 17.725668 -0.415967 1.784550 0.008663 0.004516 -684226.000000 1 0 0
-14.892522 -0.364016 -9.372939 17.600333 0.024438 2.132399 0.003757 -0.007886 665503.000000 1 0 0
-10.070322 5.851384 -6.108439 13.151544 -0.526371 2.053827 0.003418 -0.002602 288398.000000 1 0 0
-12.623622 12.334884 -0.939039 17.674473 -0.773830 1.623951 0.017766 -0.008591 -927822.000000 1 0 0
-10.754422 3.542684 -13.914439 17.939337 -0.318221 2.458522 0.001913 -0.000659 532733.000000 1 0 0
-10.958322 6.289984 -11.876039 17.340387 -0.521076 2.325232 -0.001714 -0.005264 -287257.000000 1 0 0
-5.654622 11.720384 -14.660039 19.602523 -1.121279 2.415636 -0.003589 -0.003021 -475543.000000 1 0 0
-15.288422 13.389484 3.464461 20.615931 -0.719279 1.401947 0.000346 -0.004058 147732.000000 1 0 0
-15.091122 11.168584 -3.305039 19.063119 -0.637120 1.745050 0.026573 -0.001818 667739.000000 1 0 0
-18.297722 7.737384 -4.323839 20.331486 -0.400057 1.785100 0.027903 -0.000961 -207425.000000 1 0 0
-3.866422 16.305384 -10.272739 19.655634 -1.337971 2.120736 0.002110 -0.002212 206757.000000 1 0 0
-15.834622 4.398284 -4.428239 17.020266 -0.270934 1.833999 0.001471 0.004878 -172248.000000 1 0 0
-18.679222 -1.697416 -6.163539 19.742942 0.090623 1.888293 0.002228 -0.004145 424053.000000 1 0 0
-10.875722 8.585784 -5.905639 15.062323 -0.668272 1.973688 0.003443 -0.000857 -835258.000000 1 0 0
-11.352222 13.729984 -6.820839 19.076406 -0.879914 1.936443 0.007335 -0.000605 323467.000000 1 0 0
-9.518022 10.441484 -4.470439 14.818980 -0.831632 1.877240 -0.005907 -0.000970 75966.200000 1 0 0
-11.056122 6.383684 -0.190639 12.768148 -0.523628 1.585728 -0.004373 0.002369 -1088210.000000 1 0 0
-14.573622 9.407084 -1.458839 17.407237 -0.573196 1.654701 0.015422 -0.002599 267556.000000 1 0 0
-18.548822 3.364184 4.903961 19.478844 -0.179419 1.316300 -0.010080 0.010711 235421.000000 1 0 0
-14.482522 13.381784 0.544061 19.725911 -0.745915 1.543212 0.013254 -0.003835 -290307.000000 1 0 0
-16.711422 2.302584 -9.017339 19.128145 -0.136923 2.061694 -0.000975 -0.003758 -12245.500000 1 0 0
-9.171522 8.458884 -8.959239 15.360257 -0.744999 2.193550 0.005832 -0.001985 -2361770.000000 1 0 0
-17.719622 4.660184 -2.562239 18.500470 -0.257172 1.709739 0.005683 0.001096 813089.000000 1 0 0
-13.581222 5.849784 -4.427239 15.435997 -0.406710 1.861694 0.002164 0.007226 -592816.000000 1 0 0
-12.052622 9.538884 3.280061 15.716704 -0.669497 1.360552 -0.004020 0.000075 755698.000000 1 0 0
-17.552222 2.482884 -3.932239 18.157856 -0.140525 1.789084 0.005212 -0.000862 983816.000000 1 0 0
-11.213122 1.436184 -12.610939 16.936131 -0.127387 2.410758 0.005400 -0.005346 -318236.000000 1 0 0
-11.005222 11.955884 3.556961 16.634604 -0.826778 1.355303 0.001898 -0.005283 440139.000000 1 0 0
-16.215822 13.321484 -4.179039 21.398112 -0.687721 1.767359 0.015988 -0.001334 293546.000000 1 0 0
-11.173122 4.144484 -4.586339 12.769100 -0.355201 1.938180 0.001669 -0.000797 26232.900000 1 0 0
-10.946322 15.127184 -8.949839 20.706358 -0.944394 2.017757 0.005604 -0.012833 100717.000000 1 0 0
-15.371722 7.145684 -0.298539 16.954049 -0.435142 1.588406 0.006070 0.003333 -605752.000000 1 0 0
-12.842722 8.433284 -4.018339 15.880895 -0.581042 1.826607 0.001277 0.001846 771941.000000 1 0 0
-19.275622 1.880184 -5.782939 20.212053 -0.097234 1.860965 0.017855 -0.011471 -553378.000000 1 0 0
-12.593322 10.148184 -8.916739 18.468504 -0.678291 2.074655 0.000037 -0.003434 466910.000000 1 0 0
-16.511622 11.072184 -1.148139 19.913441 -0.590699 1.628485 0.019451 -0.004242 197941.000000 1 0 0
-10.727922 6.592384 -14.479039 19.188288 -0.551018 2.425805 -0.002398 -0.006313 160794.000000 1 0 0
-13.642222 13.061984 -4.354439 19.382641 -0.763673 1.797387 0.015701 -0.004580 756854.000000 1 0 0
-17.888422 7.853284 -0.288339 19.538497 -0.413681 1.585554 0.020809 -0.003498 -13706.000000 1 0 0
-12.714322 6.660584 -2.105839 14.506961 -0.482557 1.716472 -0.002569 0.005489 250388.000000 1 0 0
-13.799222 8.414984 -10.584939 19.320233 -0.547606 2.150610 0.003718 -0.002419 -1199040.000000 1 0 0
-14.949622 1.463784 -0.879539 15.046842 -0.097603 1.629283 -0.002010 -0.002351 -690269.000000 1 0 0
-13.298522 2.863084 -2.414739 13.815893 -0.212057 1.746478 0.000225 0.000099 103884.000000 1 0 0
-11.349622 9.163684 -10.911139 18.216476 -0.679237 2.213012 0.002582 -0.006228 -141819.000000 1 0 0
-15.676522 4.365684 -7.947239 18.109974 -0.271604 2.025095 0.022769 -0.000315 537936.000000 1 0 0
-18.417022 10.708984 4.643761 21.804439 -0.526685 1.356179 0.043160 -0.002830 836538.000000 1 0 0
-15.321622 6.182684 -6.175939 17.638591 -0.383543 1.928515 0.004347 0.007206 682677.000000 1 0 0
-7.677522 11.387384 -13.039539 18.937963 -0.977588 2.330270 -0.009603 0.003051 1118370.000000 1 0 0
-16.832122 9.205284 -2.850939 19.395500 -0.500451 1.718321 0.019797 -0.004690 891836.000000 1 0 0
-20.587922 -1.024016 -4.559639 21.111643 0.049698 1.788489 0.007990 -0.011488 264579.000000 1 0 0
-15.434622 4.403584 4.182761 16.586579 -0.277922 1.315867 0.003282 0.006584 237204.000000 1 0 0
-6.923322 12.490984 -9.363039 17.076989 -1.064684 2.151107 0.002847 -0.008789 -3397780.000000 1 0 0
-17.237022 1.450884 5.903061 18.277476 -0.083975 1.241931 -0.005492 0.004451 -299093.000000 1 0 0
-10.379622 14.518384 -3.099739 18.114315 -0.950121 1.742764 0.016621 -0.005272 54683.400000 1 0 0
-9.884522 8.507884 -12.918839 18.357131 -0.710689 2.351459 -0.012671 -0.005481 -170505.000000 1 0 0
-13.530222 11.722084 2.869761 18.130353 -0.713917 1.411843 0.015257 -0.003793 -742421.000000 1 0 0
-16.694622 6.875084 1.868961 18.151314 -0.390649 1.467648 0.009170 0.001252 1030930.000000 1 0 0
-9.283022 13.082684 -8.379539 18.098281 -0.953679 2.052175 0.007449 -0.016295 359432.000000 1 0 0
-5.572922 9.790084 -12.936539 17.153928 -1.053300 2.425147 -0.004293 0.000158 -646021.000000 1 0 0
-15.918822 1.892284 3.326061 16.372303 -0.118316 1.366221 -0.003699 0.003701 -324442.000000 1 0 0
-18.553822 -4.956416 4.695861 19.770217 0.261042 1.330982 -0.006875 0.001486 -805493.000000 1 0 0
-5.337822 14.436584 -9.137139 17.899570 -1.216643 2.106524 0.003006 -0.002985 228835.000000 1 0 0
-15.540622 -0.853616 -6.830639 16.996977 0.054873 1.984359 0.009262 -0.005030 804500.000000 1 0 0
-8.832422 10.865084 -9.582139 16.967001 -0.888228 2.170928 -0.004218 -0.009748 -10642.700000 1 0 0
-16.818022 1.255084 -6.022839 17.907979 -0.074489 1.913805 0.001063 -0.003603 326398.000000 1 0 0
-11.104422 8.666684 -1.629839 14.180126 -0.662719 1.685989 -0.000575 -0.000613 -1153800.000000 1 0 0
-10.715622 10.959484 -12.662739 19.881645 -0.796648 2.261275 0.000495 -0.004105 -290379.000000 1 0 0
-13.972522 11.786884 -10.453939 21.058178 -0.700753 2.090279 0.002588 -0.005160 262730.000000 1 0 0
-13.370122 5.586784 -7.742039 16.428983 -0.395804 2.061496 0.010030 0.004115 -1769210.000000 1 0 0
-8.871322 15.388784 -4.856439 18.414669 -1.047851 1.837680 0.011969 -0.006633 1487050.000000 1 0 0
-8.595422 6.173384 -12.970639 16.740055 -0.622848 2.457237 -0.007680 -0.004953 -72787.100000 1 0 0
-16.402422 7.463984 4.228961 18.510392 -0.427049 1.340297 0.020229 0.004938 186172.000000 1 0 0
-12.752222 5.480084 -10.193839 17.221058 -0.405875 2.204260 0.009216 -0.002438 313639.000000 1 0 0
-12.460722 9.225484 -13.279339 20.413721 -0.637306 2.279053 0.011319 -0.004870 -461290.000000 1 0 0
-10.892322 5.252984 -8.518839 14.792131 -0.449359 2.184505 0.003423 0.000723 45976.300000 1 0 0
-17.467122 -4.382916 -2.520139 18.184098 0.245848 1.709834 -0.014823 -0.004757 -372433.000000 1 0 0
-8.818222 13.093984 -10.983839 19.231697 -0.978108 2.178681 0.004734 -0.013159 52916.800000 1 0 0
-15.092022 6.238884 6.098561 17.432305 -0.391996 1.213393 0.007053 0.004321 -1608210.000000 1 0 0
-16.267922 -3.098816 -4.429539 17.142601 0.188231 1.832155 -0.005212 -0.002820 -800502.000000 1 0 0
-11.089622 -1.159516 -12.538639 16.779204 0.104180 2.414745 0.004344 -0.004323 556858.000000 1 0 0
-15.429222 6.873484 -8.599939 18.954277 -0.419093 2.041732 0.009028 0.004646 -101955.000000 1 0 0
-15.010922 9.406484 1.035361 17.744906 -0.559780 1.512416 0.018789 -0.005067 -198007.000000 1 0 0
-19.362822 5.192084 8.071461 21.610763 -0.261984 1.188025 0.002137 0.009129 112564.000000 1 0 0
-16.187522 0.680384 1.045061 16.235484 -0.042007 1.506383 -0.002466 -0.004557 -338853.000000 1 0 0
-17.374222 3.740084 7.217561 19.181893 -0.212031 1.185030 -0.010555 0.011777 626880.000000 1 0 0
-15.416322 4.081684 -1.424839 16.011037 -0.258825 1.659905 -0.001493 0.000963 -2068550.000000 1 0 0
-10.679422 13.343484 0.474761 17.097486 -0.895844 1.543025 0.007795 -0.007733 -1813410.000000 1 0 0
-13.433022 3.433084 0.036661 13.864829 -0.250215 1.568152 -0.001439 0.001529 -77855.300000 1 0 0
-15.102222 0.185484 -4.403539 15.732218 -0.012281 1.854492 0.002054 -0.002001 -15020.200000 1 0 0
-18.862522 6.919484 3.373661 20.372913 -0.351596 1.404435 0.020438 0.006964 244460.000000 1 0 0
-14.206322 1.265484 -6.490339 15.669893 -0.088844 1.997851 0.004816 -0.001245 -1859660.000000 1 0 0
-14.169022 12.027884 5.327561 19.334272 -0.703847 1.291634 0.013358 -0.013197 362576.000000 1 0 0
17.535978 5.401184 6.270361 19.390738 0.298785 1.241509 0.016907 -0.007570 -281866.000000 1 0 0
18.563578 7.543784 -0.170339 20.038566 0.385990 1.579297 0.008986 0.013224 1099870.000000 1 0 0
16.453678 5.239384 8.597861 19.289838 0.308280 1.108818 0.027352 0.000632 327306.000000 1 0 0
11.658578 12.211884 11.066461 20.187102 0.808574 0.990592 0.011240 0.001862 579308.000000 1 0 0
-2.227522 16.330884 -0.436839 16.487888 -1.435234 1.597294 -0.011250 0.002731 -141718.000000 1 0 0
14.928678 12.639384 3.722361 19.911690 0.702547 1.382746 0.019244 -0.004226 -48841.700000 1 0 0
13.517078 11.847084 6.714061 19.187063 0.719652 1.213304 0.014096 0.003796 780609.000000 1 0 0
-0.609522 15.918084 8.644861 18.124307 -1.532524 1.073585 0.003933 0.001695 7981.010000 1 0 0
0.729778 12.878984 9.324561 15.916916 1.514193 0.944896 -0.000587 0.000908 -1074030.000000 1 0 0
0.779278 15.505684 -3.913039 16.010789 1.520581 1.817697 -0.001552 -0.004091 1383080.000000 1 0 0
5.315278 10.386484 13.672961 17.974456 1.097793 0.706423 -0.005251 0.003568 514359.000000 1 0 0
-1.259422 16.446284 -2.666539 16.708585 -1.494368 1.731073 -0.003161 -0.001874 -682917.000000 1 0 0
8.620278 9.972984 3.426661 13.620264 0.858023 1.316478 0.003431 0.000626 465777.000000 1 0 0
12.614678 13.517884 -4.873239 19.120976 0.819947 1.828503 0.036884 -0.009008 647808.000000 1 0 0
2.418378 11.590284 7.681961 14.113672 1.365092 0.995251 0.004433 0.003905 560299.000000 1 0 0
-0.321322 14.965184 -8.636539 17.281487 -1.549328 2.094114 -0.000959 0.002723 -966152.000000 1 0 0
2.367678 15.943084 0.230561 16.119584 1.423366 1.556493 0.003302 -0.004866 -301591.000000 1 0 0
1.919978 13.336284 5.337761 14.492566 1.427812 1.193605 0.005364 0.001778 367309.000000 1 0 0
17.651778 9.160184 -2.021839 19.989549 0.478683 1.672114 0.006497 0.014595 120564.000000 1 0 0
-7.252222 14.895484 7.296461 18.102721 -1.117705 1.155940 0.001585 -0.012288 -623750.000000 1 0 0
8.486978 15.742784 -0.161539 17.885473 1.076358 1.579828 -0.000714 -0.008285 -1039640.000000 1 0 0
15.677578 10.525684 2.397061 19.034767 0.591262 1.444530 0.016103 0.002077 406737.000000 1 0 0
14.022878 7.584384 8.825461 18.222314 0.495797 1.065209 0.013444 0.003689 -677180.000000 1 0 0
4.249278 18.335584 -1.623839 18.891449 1.343066 1.656859 0.006561 -0.013067 -998915.000000 1 0 0
-0.437422 17.594584 -4.762639 18.233032 -1.545940 1.835071 0.001763 -0.000123 804411.000000 1 0 0
1.385578 13.625084 -0.645839 13.710574 1.469452 1.617919 0.004256 -0.006115 641480.000000 1 0 0
10.151578 14.647484 4.270261 18.325895 0.964744 1.335617 0.004171 -0.007235 1109430.000000 1 0 0
-1.624322 15.294684 -5.019539 16.179047 -1.464991 1.886252 -0.001118 -0.001409 17982.000000 1 0 0
15.141678 8.761584 -6.257339 18.579291 0.524566 1.914303 0.017673 0.002167 195742.000000 1 0 0
-2.231922 18.494884 0.986461 18.655168 -1.450699 1.517893 -0.006184 -0.002389 -1295990.000000 1 0 0
-3.761922 19.312284 3.584761 19.999172 -1.378411 1.390577 -0.002395 -0.007022 214999.000000 1 0 0
1.883478 17.523484 -2.555339 17.808698 1.463724 1.714782 -0.001583 -0.007162 584826.000000 1 0 0
2.893378 12.207084 3.296561 12.971193 1.338067 1.313833 0.005361 0.000218 511329.000000 1 0 0
-2.549022 16.070984 1.987461 16.392804 -1.413496 1.449258 -0.006029 -0.001250 -1080640.000000 1 0 0
11.827978 12.718084 -2.532139 17.551708 0.821645 1.715569 0.018839 0.001127 421220.000000 1 0 0
7.159478 11.534684 4.678261 14.359428 1.015301 1.238942 -0.000165 0.000407 -118946.000000 1 0 0
7.115678 15.641484 1.952261 17.294514 1.143856 1.457672 0.000048 -0.006237 -2318660.000000 1 0 0
5.489578 12.096684 10.207861 16.753079 1.144780 0.915603 -0.005223 0.007219 -483486.000000 1 0 0
-1.403822 14.098784 3.241861 14.534651 -1.471553 1.345861 -0.001293 0.001801 -1639600.000000 1 0 0
4.619178 15.958484 1.433561 16.675284 1.289047 1.484721 -0.000384 -0.008740 -2937130.000000 1 0 0
7.275078 13.265384 11.892161 19.243717 1.069163 0.904630 -0.002452 0.008270 3093.520000 1 0 0
0.599378 17.235184 -9.474639 19.676880 1.536034 2.073175 -0.002967 0.003957 361997.000000 1 0 0
9.544578 9.515884 15.565561 20.589747 0.783893 0.713637 -0.001005 0.000140 -500996.000000 1 0 0
13.591778 7.566584 -0.047139 15.556087 0.507975 1.573827 0.007045 0.000315 47437.600000 1 0 0
12.477078 13.513284 -0.033539 18.392592 0.825246 1.572620 0.028723 -0.002542 709845.000000 1 0 0
9.344978 12.278384 3.291861 15.777315 0.920234 1.360607 0.001756 0.002408 183520.000000 1 0 0
-0.705422 12.865784 0.779361 12.908657 -1.516022 1.510385 -0.000003 -0.002299 -721516.000000 1 0 0
16.015978 7.230984 -0.889439 17.595163 0.424089 1.621368 0.008055 0.006850 -904317.000000 1 0 0
-4.163022 18.557484 -2.288739 19.155920 -1.350119 1.690562 0.006482 -0.000284 241640.000000 1 0 0
11.680278 9.161484 -3.131939 15.171378 0.665128 1.778729 0.017005 0.000269 424849.000000 1 0 0
14.691078 9.758884 7.619861 19.212648 0.586343 1.162979 0.014700 -0.005563 1231540.000000 1 0 0
4.538378 13.743484 4.692961 15.215259 1.251850 1.257246 0.003410 0.003771 112062.000000 1 0 0
2.198578 15.881084 5.591461 16.979605 1.433231 1.235229 0.005817 0.003178 550217.000000 1 0 0
6.115778 18.437384 5.363061 20.151979 1.250512 1.301420 0.015711 -0.015594 -280160.000000 1 0 0
10.676378 17.070384 -0.872239 20.153011 1.011886 1.614091 0.026651 -0.010785 -297554.000000 1 0 0
10.037778 13.529984 -4.284539 17.383174 0.932505 1.819839 0.028009 -0.005622 -1587020.000000 1 0 0
16.492578 7.986084 2.454861 18.488077 0.450946 1.437622 0.002720 -0.000806 -408199.000000 1 0 0
4.036378 14.035584 -0.554539 14.614974 1.290771 1.608749 0.004179 -0.006015 -473229.000000 1 0 0
5.566278 13.112184 -2.506239 14.463542 1.169339 1.744955 0.006024 -0.006318 -354770.000000 1 0 0
-6.020922 16.966184 -3.007239 18.252298 -1.229783 1.736310 0.004425 -0.001151 -1787700.000000 1 0 0
18.120778 9.908784 2.915161 20.857726 0.500398 1.430573 0.024450 0.000522 -631360.000000 1 0 0
7.904578 12.876884 9.375061 17.781683 1.020249 1.015457 0.002632 0.004349 589186.000000 1 0 0
-2.571422 15.905184 6.800261 17.488014 -1.410511 1.171410 0.000288 0.003456 1074130.000000 1 0 0
11.067778 16.271584 6.196061 20.631319 0.973489 1.265765 0.014622 0.001394 143393.000000 1 0 0
13.593878 11.937584 1.575161 18.159861 0.720616 1.483949 0.026395 -0.001487 90736.400000 1 0 0
17.522578 7.892384 -5.724739 20.052509 0.423197 1.860311 -0.001009 0.014872 -344580.000000 1 0 0
9.566578 9.183284 8.138461 15.559134 0.764959 1.020351 0.003797 0.002989 23377.700000 1 0 0
-2.078922 14.117284 -1.821839 14.385365 -1.424586 1.697783 -0.006323 0.003194 489663.000000 1 0 0
10.980378 11.550484 0.887061 15.961493 0.810696 1.515193 0.010538 0.001273 655816.000000 1 0 0
11.781678 9.705984 -0.510639 15.273336 0.689098 1.604236 0.009893 0.003618 -1053720.000000 1 0 0
-0.370722 16.338284 11.230161 19.829106 -1.548110 0.968729 0.008967 0.002120 -791875.000000 1 0 0
2.182678 19.965084 -1.575339 20.145728 1.461904 1.649073 0.008729 -0.014825 -422458.000000 1 0 0
9.265978 14.312984 1.819461 17.147311 0.996263 1.464489 0.004895 -0.004103 -707097.000000 1 0 0
8.533178 11.608884 -5.178839 15.310182 0.936928 1.915865 0.018140 -0.003307 -835034.000000 1 0 0
10.725178 9.889484 10.371261 17.899564 0.744882 0.952787 0.007179 0.003634 477130.000000 1 0 0
-5.117622 15.811984 5.842261 17.616495 -1.257782 1.232759 -0.010216 -0.001016 1879400.000000 1 0 0
14.670878 9.144284 -1.889439 17.390301 0.557372 1.679660 0.035095 0.008682 -646685.000000 1 0 0
12.088178 9.585184 6.870861 16.888118 0.670420 1.151798 0.004282 -0.001024 -683224.000000 1 0 0
3.187678 12.991184 9.722761 16.536754 1.330178 0.942276 -0.001731 0.004489 -589851.000000 1 0 0
8.505878 12.522984 -2.639539 15.366921 0.974152 1.743420 0.011881 -0.002735 -611684.000000 1 0 0
9.344778 16.965984 2.083461 19.481024 1.067343 1.463643 0.006106 -0.008098 258452.000000 1 0 0
9.623678 14.352484 -7.731639 18.931118 0.980128 1.991507 0.034631 -0.002395 -864815.000000 1 0 0
6.331878 11.330084 7.219861 14.852268 1.061180 1.063162 -0.002474 0.004489 -725241.000000 1 0 0
5.548778 16.874684 -5.642839 18.638281 1.253111 1.878379 -0.000310 0.001672 -850171.000000 1 0 0
-3.971022 17.324484 -4.640639 18.369602 -1.345474 1.826190 0.000869 0.001512 246494.000000 1 0 0
-0.213222 18.828484 -0.508239 18.836549 -1.559472 1.597781 -0.001247 0.006151 -361611.000000 1 0 0
6.539278 15.633884 -2.793439 17.175092 1.174635 1.734167 0.001550 -0.000645 -61464.800000 1 0 0
-0.891522 20.748984 1.222861 20.804099 -1.527856 1.511983 0.002036 -0.000536 -64773.000000 1 0 0
-1.266622 18.787184 4.283161 19.310828 -1.503479 1.347135 0.004188 -0.006714 778302.000000 1 0 0
7.298678 13.775784 -4.374439 16.191931 1.083579 1.844357 0.008377 -0.001889 -749233.000000 1 0 0
-0.995422 12.011884 7.672661 14.287965 -1.488115 1.003918 0.000797 0.002264 451376.000000 1 0 0
7.726978 10.867584 10.947261 17.252625 0.952718 0.883400 -0.003872 0.007928 348842.000000 1 0 0
1.477578 16.114384 -7.250139 17.731924 1.479359 1.992017 -0.005139 0.000269 357686.000000 1 0 0
8.842978 7.174884 14.649761 18.555126 0.681633 0.660760 0.000868 -0.000817 -110085.000000 1 0 0
11.437678 11.283784 -4.734939 16.750042 0.778625 1.857386 0.025686 0.000812 -253708.000000 1 0 0
-3.329322 17.067884 4.516461 17.966509 -1.378152 1.316688 -0.011087 -0.000290 -323810.000000 1 0 0
4.000278 15.367184 -6.844039 17.291427 1.316135 1.977741 -0.000810 -0.002796 252037.000000 1 0 0
-4.396022 14.036184 9.455761 17.485733 -1.267281 0.999444 0.005011 -0.010888 581430.000000 1 0 0
6.210278 17.749984 0.398561 18.809262 1.234233 1.549605 -0.003029 -0.009389 -347546.000000 1 0 0
9.804378 10.621184 -2.085739 14.604303 0.825366 1.714103 0.014950 0.001525 -462816.000000 1 0 0
7.323578 18.122584 -2.603439 19.719045 1.186749 1.703210 -0.000719 0.002573 246.481000 1 0 0
3.463178 10.385884 10.263561 15.006694 1.248940 0.817657 -0.002330 0.004959 136765.000000 1 0 0
0.107078 18.524484 2.064761 18.639506 1.565016 1.459795 0.007467 -0.007419 55221.900000 1 0 0
-0.928322 17.139484 -7.352839 18.673187 -1.516686 1.975520 0.002376 0.002205 -309934.000000 1 0 0
10.129078 8.931384 13.122361 18.829875 0.722644 0.799744 0.009261 0.005782 -422320.000000 1 0 0
3.688878 11.334884 5.503761 13.129310 1.256162 1.138236 0.000623 0.000110 379035.000000 1 0 0
12.976778 13.913184 8.256861 20.740038 0.820208 1.161338 0.013316 -0.009746 57572.700000 1 0 0
-0.410322 17.394384 6.765361 18.668236 -1.547211 1.199955 0.000646 -0.002667 -585351.000000 1 0 0
11.977478 13.810484 5.861561 19.197587 0.856359 1.260513 0.011590 0.000575 -210202.000000 1 0 0
4.941378 14.495784 -4.581539 15.985477 1.242266 1.861479 0.003670 -0.003855 -633882.000000 1 0 0
3.869678 17.432384 4.741561 18.475519 1.352356 1.311252 0.010889 -0.009051 -1894220.000000 1 0 0
7.031078 11.524384 2.073261 13.658180 1.022980 1.418411 0.006035 -0.002034 368885.000000 1 0 0
6.393578 8.750484 11.765561 15.996163 0.939792 0.744357 -0.003335 0.002433 813947.000000 1 0 0
-5.432722 14.966084 1.817861 16.025066 -1.222585 1.457113 -0.003965 0.006401 3769.060000 1 0 0
6.832578 13.654684 6.043061 16.421117 1.106842 1.193933 -0.000902 0.001376 344470.000000 1 0 0
5.987278 15.847184 4.975961 17.656186 1.209561 1.285100 0.005315 -0.006662 503661.000000 1 0 0
1.315478 17.995384 4.318061 18.552896 1.497825 1.335899 0.018872 -0.004188 130370.000000 1 0 0
7.517678 18.020884 -6.969139 20.732502 1.175581 1.913618 0.005868 0.005980 546498.000000 1 0 0
-2.313422 18.923484 -6.015039 19.990769 -1.449149 1.876423 0.009225 0.002860 -1302800.000000 1 0 0
13.622778 10.055584 -4.539939 17.530142 0.635871 1.832761 0.026530 0.006318 -1095620.000000 1 0 0
-1.599922 18.100884 9.804961 20.647978 -1.482636 1.075988 0.011473 -0.009388 -341891.000000 1 0 0
3.440778 11.807484 -1.616539 12.404387 1.287242 1.701488 0.008175 -0.007370 603119.000000 1 0 0
4.241978 13.911984 -10.740039 18.079992 1.274836 2.206854 0.000744 -0.015221 -642347.000000 1 0 0
11.568478 13.440584 2.464361 17.903967 0.860116 1.432715 0.019574 -0.001858 331991.000000 1 0 0
15.869778 6.386484 -7.022139 18.491822 0.382600 1.960315 -0.002203 -0.001516 106675.000000 1 0 0
2.525178 16.047884 2.929561 16.507375 1.414723 1.392381 0.004413 -0.002913 -275639.000000 1 0 0
13.410378 10.556084 3.810261 17.486773 0.666861 1.351140 0.008338 0.002467 207426.000000 1 0 0
-4.791422 19.572784 -5.688339 20.938214 -1.330718 1.845927 0.002940 -0.004378 174715.000000 1 0 0
5.516178 12.061484 -0.027139 13.263044 1.141857 1.572843 0.007264 -0.006933 970860.000000 1 0 0
5.264178 15.229884 9.710761 18.813819 1.238004 1.028446 0.009745 0.001763 13367.400000 1 0 0
7.735078 9.507184 13.821861 18.473273 0.887815 0.725439 -0.003084 -0.001370 -2462710.000000 1 0 0
-4.988122 13.604784 7.097861 16.135400 -1.219371 1.115316 -0.007617 -0.000967 -1044390.000000 1 0 0
-4.438422 17.146884 0.536661 17.720136 -1.317508 1.540506 -0.002131 0.001342 -2339980.000000 1 0 0
-0.629222 16.467284 3.665061 16.881944 -1.532604 1.351954 0.004636 -0.001645 -1728290.000000 1 0 0
7.957878 16.799484 -4.735039 19.182572 1.128411 1.820215 0.003515 0.001499 625734.000000 1 0 0
3.206378 16.415884 -4.532739 17.329392 1.377903 1.835438 -0.001215 -0.000885 388879.000000 1 0 0
9.642278 14.365284 8.266661 19.174790 0.979647 1.125061 0.017237 -0.001217 421552.000000 1 0 0
12.856678 10.885484 9.125661 19.158956 0.702563 1.074340 0.015721 -0.006218 124628.000000 1 0 0
3.749078 12.176084 12.166761 17.616545 1.272103 0.808417 -0.003293 0.002677 221867.000000 1 0 0
-3.143722 19.147084 6.126661 20.347722 -1.408060 1.264952 -0.006334 -0.010651 228936.000000 1 0 0
-2.702122 15.815284 10.245161 19.036491 -1.401575 1.002514 0.008575 -0.008753 -784410.000000 1 0 0
2.194878 14.307484 7.702361 16.396583 1.418575 1.081784 0.005375 0.000705 -5945.950000 1 0 0
4.648278 17.279084 8.102561 19.642421 1.308006 1.145596 0.018918 -0.001893 71305.800000 1 0 0
-1.857922 13.497784 9.422061 16.565545 -1.434009 0.965781 0.003857 -0.002089 -1297650.000000 1 0 0
5.800278 17.561684 3.032761 18.741761 1.251796 1.408263 -0.000921 -0.014810 303077.000000 1 0 0
7.359678 15.348284 -6.810139 18.333376 1.123673 1.951379 0.010823 -0.002075 -297576.000000 1 0 0
10.953978 7.534984 9.455461 16.314759 0.602543 0.952602 0.004877 0.000613 -297967.000000 1 0 0
9.066278 16.124284 -2.630439 18.684462 1.058578 1.712048 0.007002 -0.008586 -389364.000000 1 0 0
14.670478 11.301684 -6.407839 19.596208 0.656410 1.903917 0.043533 0.000800 410089.000000 1 0 0
11.031778 6.607984 16.058961 20.573181 0.539680 0.675207 0.021166 -0.008146 -717465.000000 1 0 0
8.543278 8.421284 10.378461 15.862473 0.778207 0.857569 -0.000198 0.004340 784340.000000 1 0 0
16.361078 9.422684 4.709961 19.459074 0.522526 1.326324 0.014582 0.003870 -111855.000000 1 0 0
-3.275922 14.311984 4.799461 15.446662 -1.345779 1.254854 -0.009327 0.003161 -1006690.000000 1 0 0
4.652078 14.634084 12.447961 19.767396 1.263006 0.889601 -0.005805 -0.002970 -664929.000000 1 0 0
16.241978 10.508784 -4.581639 19.880337 0.574273 1.803348 0.038441 -0.000465 160477.000000 1 0 0
14.554578 14.154684 6.256261 21.244567 0.771470 1.271877 0.015298 0.001576 -326970.000000 1 0 0
6.227578 9.496384 9.282661 14.667373 0.990366 0.885531 -0.004591 0.006913 1082400.000000 1 0 0
10.442178 11.901784 8.768861 18.099294 0.850630 1.065020 0.007333 -0.003611 964899.000000 1 0 0
8.012178 11.344684 -0.300739 13.891986 0.955888 1.592446 0.005636 -0.003474 -1381170.000000 1 0 0
7.334178 13.445384 -8.774039 17.650843 1.071431 2.091037 0.021359 -0.003321 -307519.000000 1 0 0
2.736878 15.147484 -2.237739 15.554557 1.392043 1.715161 0.000665 -0.004927 546935.000000 1 0 0
12.147578 13.735184 -7.771339 19.915136 0.846660 1.971670 0.022856 -0.005868 41755.800000 1 0 0
-8.047922 14.649284 9.736561 19.343505 -1.068435 1.043325 0.011389 -0.022509 267479.000000 1 0 0
11.479978 9.544384 2.270361 15.100983 0.693593 1.419879 0.011084 0.000355 -1717590.000000 1 0 0
12.014378 8.593584 4.530161 15.450479 0.620904 1.273219 0.002180 0.001722 210475.000000 1 0 0
13.958078 7.896384 6.078561 17.150210 0.514833 1.208491 0.003515 -0.002356 -2483450.000000 1 0 0
16.102078 7.377884 7.278761 19.149163 0.429648 1.180883 0.025515 -0.002543 -349353.000000 1 0 0
13.632478 8.332584 2.465361 16.166459 0.548636 1.417700 0.001917 0.000186 -3079460.000000 1 0 0
-4.185822 17.538584 -7.197639 19.414660 -1.336515 1.950594 0.002598 -0.001645 228586.000000 1 0 0
3.343778 19.449584 -3.805639 20.098509 1.400540 1.761296 -0.002599 -0.003111 481879.000000 1 0 0
-0.110522 14.837484 6.335061 16.133696 -1.563348 1.167274 0.008206 0.002485 653914.000000 1 0 0
6.966378 16.258784 8.061661 19.438849 1.165991 1.143162 0.014798 0.005772 -1050770.000000 1 0 0
12.839278 15.117784 -1.983539 19.933110 0.866719 1.670471 0.040927 -0.006956 110082.000000 1 0 0
12.657478 15.685984 4.231961 20.595420 0.891845 1.363841 0.029732 -0.011817 10222.400000 1 0 0
3.097478 18.054884 1.344961 18.367964 1.400891 1.497508 0.011355 -0.008624 -886829.000000 1 0 0
10.373978 14.480984 -1.222939 17.855360 0.949157 1.639341 0.018636 0.002948 -715668.000000 1 0 0
-6.276522 15.780984 -0.603839 16.994081 -1.192251 1.606336 -0.003296 0.003808 -287948.000000 1 0 0
-3.867522 15.896684 -2.494939 16.549532 -1.332142 1.722129 -0.002735 0.001898 -180788.000000 1 0 0
-6.717622 17.180284 1.618061 18.517741 -1.198066 1.483306 -0.003273 0.004351 123564.000000 1 0 0
0.266878 19.245684 -6.530039 20.325082 1.556930 1.897877 0.007655 -0.005150 157848.000000 1 0 0
4.861478 14.869284 7.124561 17.189791 1.254804 1.143442 0.006582 0.004912 -715197.000000 1 0 0
8.704278 12.246684 6.879461 16.524911 0.952895 1.141415 0.003355 0.001578 916104.000000 1 0 0
-7.441922 17.542384 -5.707539 19.892045 -1.169582 1.861812 0.019561 -0.006672 307105.000000 1 0 0
-7.702022 17.910884 -1.306439 19.540412 -1.164682 1.637705 0.013670 0.000415 465819.000000 1 0 0
-13.785622 -9.249616 9.245461 19.002035 0.590970 1.062659 0.006460 -0.007397 862104.000000 1 0 0
-12.475422 -12.980516 7.608461 19.545297 0.805237 1.170954 0.010684 -0.006151 73387.900000 1 0 0
-3.912822 -14.744316 12.596461 19.783222 1.311397 0.880554 0.004662 -0.015262 107544.000000 1 0 0
-2.124922 -14.203316 14.930961 20.716734 1.422290 0.765956 0.004230 -0.008569 121215.000000 1 0 0
-7.126222 -13.777716 12.589061 19.977311 1.093461 0.889027 0.010945 -0.011852 -192783.000000 1 0 0
-9.880322 -11.525016 8.945461 17.620103 0.862083 1.038301 0.003450 -0.006597 611786.000000 1 0 0
-10.609522 -10.554716 11.208161 18.697242 0.782809 0.927976 0.010823 -0.009061 -213246.000000 1 0 0
-6.011422 -12.274716 10.727661 17.374941 1.115390 0.905336 0.007153 -0.005259 418171.000000 1 0 0
-12.478622 -10.343116 7.204261 17.736895 0.692097 1.152533 0.009975 -0.006717 -149925.000000 1 0 0
-8.003922 -11.380416 12.329861 18.590377 0.957855 0.845658 0.018273 -0.008949 -904672.000000 1 0 0
-14.733522 -11.575216 7.317761 20.114968 0.665922 1.198456 0.007353 -0.002835 407829.000000 1 0 0
-11.090322 -9.200616 9.093461 17.039296 0.692535 1.007855 0.005367 -0.004545 39990.100000 1 0 0
-5.636422 -11.697716 13.250561 18.552175 1.121782 0.775270 0.012953 -0.014906 -184467.000000 1 0 0
3.942278 -12.465016 14.543761 19.556052 -1.264483 0.732214 -0.006203 -0.009449 -169551.000000 1 0 0
6.541578 -12.747716 14.390461 20.307188 -1.096679 0.783229 0.008341 0.001159 -197913.000000 1 0 0
6.579278 -8.474716 16.210061 19.438976 -0.910648 0.584669 -0.000141 -0.007602 194414.000000 1 0 0
0.735878 -1.897816 14.382561 14.525883 -1.200895 0.140591 -0.001865 -0.005184 -2299990.000000 1 0 0
-0.113122 -6.429016 15.599361 16.872614 1.553203 0.390977 -0.002479 -0.006204 -321770.000000 1 0 0
-1.370922 -4.716316 18.236661 18.886473 1.287915 0.263079 0.003870 -0.018634 -2779100.000000 1 0 0
-5.174022 12.678784 13.029461 18.902087 -1.183340 0.810256 0.009423 -0.006100 1258000.000000 1 0 0
-3.865622 9.013484 11.778561 15.327114 -1.165651 0.694336 -0.006464 0.007127 -472623.000000 1 0 0
-0.638222 -3.965716 15.128461 15.652621 1.411230 0.259521 0.000696 -0.002478 13051.000000 1 0 0
-4.353822 9.149884 14.283261 17.512500 -1.126668 0.617024 -0.001187 -0.003150 404487.000000 1 0 0
-13.494022 -2.202116 16.908861 21.745057 0.161766 0.679964 0.005762 0.006617 -774916.000000 1 0 0
-0.241022 1.015184 17.213861 17.245454 -1.337695 0.060540 0.005882 -0.004841 -961954.000000 1 0 0
-3.175722 -7.358516 15.318361 17.288295 1.163373 0.482034 0.005954 -0.009355 335327.000000 1 0 0
-7.333522 5.471684 12.556661 15.536718 -0.641013 0.629720 0.005834 -0.000184 -267129.000000 1 0 0
-9.886622 10.163884 13.338161 19.466801 -0.799225 0.815953 0.019108 -0.012903 -6374.660000 1 0 0
-5.506622 2.196584 11.236961 12.705005 -0.379557 0.485479 0.004650 0.000172 -1389140.000000 1 0 0
-7.107322 -7.295416 17.015061 19.830517 0.798457 0.539386 0.010770 -0.010786 -112720.000000 1 0 0
-4.704422 3.153984 18.576561 19.420809 -0.590603 0.295939 0.011240 -0.010459 615221.000000 1 0 0
0.950678 -8.539816 16.602061 18.693867 -1.459930 0.477597 -0.006591 -0.003100 335390.000000 1 0 0
-15.014322 -3.599116 14.099761 20.909011 0.235273 0.830727 -0.001896 -0.003542 461423.000000 1 0 0
-14.371522 2.025584 13.108861 19.557246 -0.140022 0.836208 0.002056 0.000223 15822.000000 1 0 0
-5.362822 0.900384 16.233861 17.120420 -0.166342 0.323224 0.014145 -0.005293 485165.000000 1 0 0
4.562078 5.764384 15.156861 16.845507 0.901306 0.451584 -0.001660 0.004172 258824.000000 1 0 0
-0.976622 -12.055916 13.742261 18.307065 1.489965 0.721746 -0.003826 -0.008605 -282387.000000 1 0 0
-5.827322 -4.102016 16.900461 18.341477 0.613357 0.399041 0.014019 -0.006045 94340.700000 1 0 0
-12.851522 -1.490916 9.936161 16.312932 0.115495 0.915875 -0.004690 0.000019 -502963.000000 1 0 0
-14.573122 10.483284 10.328061 20.710962 -0.623600 1.048726 0.013264 0.000850 456345.000000 1 0 0
-3.457622 -3.457516 17.738561 18.400166 0.785383 0.268976 0.009249 -0.011931 -1926120.000000 1 0 0
-7.896522 9.359684 11.849961 17.040549 -0.869986 0.801823 0.005742 -0.008300 -67029.000000 1 0 0
-4.172222 10.577584 16.462661 20.007796 -1.195092 0.604454 0.000173 -0.003649 354685.000000 1 0 0
-12.288922 12.866884 8.295061 19.631157 -0.808369 1.134544 0.002468 -0.012732 -457622.000000 1 0 0
-12.667522 3.192484 10.518961 16.772197 -0.246880 0.892886 0.012930 0.000917 922675.000000 1 0 0
-10.035322 -3.408116 13.707761 17.327021 0.327391 0.658158 0.013079 -0.001012 -1935640.000000 1 0 0
-4.102622 -6.478816 17.661761 19.254723 1.006296 0.409628 0.007576 -0.009714 -199303.000000 1 0 0
1.044478 -3.813016 18.107361 18.533929 -1.303430 0.214962 0.000395 -0.006495 -892858.000000 1 0 0
-5.811622 1.687784 13.699661 14.976791 -0.282640 0.415967 0.009442 0.001436 -662063.000000 1 0 0
-10.398422 8.754584 10.270061 17.036551 -0.699781 0.923759 0.012528 -0.011107 -339105.000000 1 0 0
4.679678 2.538184 17.269461 18.071415 0.496977 0.299029 0.005077 -0.001030 83443.600000 1 0 0
0.516078 -5.417616 13.329561 14.397711 -1.475824 0.387621 -0.001405 -0.001597 -1578010.000000 1 0 0
-3.954522 5.640884 20.816161 21.926476 -0.959368 0.319598 0.013532 -0.007552 -446239.000000 1 0 0
-10.724922 10.902384 8.974961 17.732339 -0.793603 1.040099 0.011044 -0.015692 -19341.700000 1 0 0
0.695678 4.105184 13.039461 13.688098 1.402928 0.309083 -0.001754 0.000395 -3126660.000000 1 0 0
-3.037222 7.148684 13.372361 15.464425 -1.169040 0.526208 -0.002772 0.002931 -1273490.000000 1 0 0
0.666778 8.910984 14.038761 16.641425 1.496109 0.566838 -0.007934 -0.000086 23734.200000 1 0 0
-4.192222 -6.667816 13.034761 15.229560 1.009523 0.543536 0.010522 -0.006043 -24009.300000 1 0 0
-4.970022 8.234884 16.727161 19.295397 -1.027783 0.521849 0.006148 0.005193 -528638.000000 1 0 0
1.529078 -10.738216 15.659261 19.048880 -1.429351 0.605783 -0.013670 -0.005912 -671263.000000 1 0 0
-15.256722 -1.099116 14.336161 20.964282 0.071917 0.817787 0.008778 0.001096 557306.000000 1 0 0
-13.555022 -5.173916 8.257761 16.694270 0.364629 1.053368 0.001784 -0.009266 -339834.000000 1 0 0
-14.173722 -1.932216 12.157561 18.773229 0.135489 0.866365 0.000126 -0.001112 405441.000000 1 0 0
9.525678 1.169484 16.920861 19.453066 0.122160 0.515939 0.013130 -0.004015 -151540.000000 1 0 0
4.923478 -6.729516 16.935361 18.876797 -0.939160 0.457517 0.000869 -0.009149 -675299.000000 1 0 0
-6.011122 -2.646016 10.974061 12.789253 0.414663 0.539299 0.009278 -0.001010 598900.000000 1 0 0
0.597878 -6.406616 18.030361 19.144088 -1.477744 0.342780 -0.002561 -0.009830 -362977.000000 1 0 0
-8.317522 11.902884 12.185861 18.956661 -0.960888 0.872613 0.009348 -0.014460 54869.900000 1 0 0
-6.702222 -5.719716 14.921461 17.328731 0.706468 0.533402 0.020483 -0.007955 -557575.000000 1 0 0
-4.190622 -9.023516 16.975761 19.676423 1.136023 0.530120 0.005871 -0.009733 503863.000000 1 0 0
2.420878 -6.284816 16.254461 17.594518 -1.203118 0.392811 -0.006726 -0.008525 -555024.000000 1 0 0
2.292478 5.257484 16.110961 17.101451 1.159611 0.342013 -0.000714 -0.002174 -29393.700000 1 0 0
0.849178 -8.904416 13.958061 16.578214 -1.475718 0.569905 -0.005849 -0.006369 -927598.000000 1 0 0
-9.984722 -2.691816 11.274661 15.298971 0.263333 0.742241 0.004886 -0.000060 724675.000000 1 0 0
-1.128422 10.173684 12.378461 16.062486 -1.460332 0.690945 -0.007271 0.002721 -668038.000000 1 0 0
-12.377922 -3.750316 11.375961 17.224701 0.294192 0.849386 0.005269 -0.001701 -303493.000000 1 0 0
-1.764322 6.780384 19.999161 21.190867 -1.316232 0.336963 0.000709 -0.002832 -429971.000000 1 0 0
0.301578 -13.450116 15.599061 20.599206 -1.548378 0.711681 -0.008270 -0.013194 -636958.000000 1 0 0
4.024678 -8.732316 15.407461 18.161531 -1.138919 0.557922 -0.003422 -0.006264 384053.000000 1 0 0
4.313178 -4.417616 16.225861 17.360800 -0.797360 0.363590 0.001987 -0.006636 345724.000000 1 0 0
8.100178 1.794184 14.874761 17.032043 0.217980 0.508779 -0.002035 0.004383 802039.000000 1 0 0
-6.345222 -0.133916 11.887361 13.475501 0.021102 0.490397 0.007684 -0.001563 294772.000000 1 0 0
-3.250522 -10.860116 18.458061 21.661210 1.279974 0.550764 0.002052 -0.007853 964072.000000 1 0 0
3.236878 -1.592716 13.643861 14.112727 -0.457270 0.258490 0.002667 -0.002043 36733.100000 1 0 0
-2.453622 8.571484 16.210361 18.500443 -1.291998 0.502846 -0.001051 0.003603 -643790.000000 1 0 0
-3.180422 3.963384 14.835461 15.681658 -0.894563 0.330010 0.001165 -0.001675 -892150.000000 1 0 0
-4.635822 -8.923516 19.636461 22.061518 1.091666 0.473281 0.015585 -0.011268 70225.500000 1 0 0
-5.663522 -3.073416 19.216761 20.268331 0.497197 0.323535 0.007362 -0.013074 -750737.000000 1 0 0
-6.586322 -8.594116 11.100861 15.507017 0.916897 0.772941 0.010349 -0.006693 -1252460.000000 1 0 0
-11.744022 2.456684 12.739661 17.500180 -0.206212 0.755435 0.019745 -0.003728 -575281.000000 1 0 0
-11.652622 -7.519616 11.653061 18.114140 0.573075 0.871979 0.003008 -0.002528 694864.000000 1 0 0
-11.088422 -7.300116 15.490561 20.401036 0.582226 0.708556 0.022964 -0.013533 110811.000000 1 0 0
0.257578 5.799784 17.687161 18.615571 1.526414 0.317153 -0.003542 -0.002728 -182612.000000 1 0 0
-2.134022 -0.085016 13.315761 13.485947 0.039817 0.159036 0.003428 -0.002970 271812.000000 1 0 0
-5.855322 -10.670016 18.190861 21.887016 1.068902 0.589667 -0.006598 0.004176 -1863170.000000 1 0 0
0.353878 2.653584 19.208261 19.393917 1.438220 0.138479 0.007604 -0.003608 -283075.000000 1 0 0
-0.516122 11.090584 14.715661 18.434156 -1.524293 0.646358 -0.004343 0.003167 526035.000000 1 0 0
-12.833022 -2.091316 14.353061 19.366735 0.161544 0.736060 0.013458 -0.003925 -807354.000000 1 0 0
-13.596722 8.598184 11.810061 19.956882 -0.563883 0.937533 0.010007 -0.003789 -52679.900000 1 0 0
-18.155722 -0.728716 6.893661 19.434089 0.040115 1.208182 -0.000756 -0.001245 427983.000000 1 0 0
-1.920922 -7.878516 17.551661 19.334471 1.331645 0.432809 -0.002839 -0.009456 -2876620.000000 1 0 0
5.669178 2.634384 14.491861 15.782699 0.434999 0.407254 -0.000097 0.000694 -3579280.000000 1 0 0
-14.097522 -6.834916 10.925961 19.100598 0.451439 0.961828 -0.000824 -0.010462 210187.000000 1 0 0
3.307778 7.712284 16.462461 18.477915 1.165629 0.471416 -0.005230 -0.003313 -134517.000000 1 0 0
1.089078 2.171284 14.740861 14.939663 1.105884 0.163320 0.002389 -0.005571 -2721450.000000 1 0 0
-14.508622 0.580284 9.890061 17.568442 -0.039974 0.972852 -0.002033 0.002831 376345.000000 1 0 0
-9.662322 -5.108816 15.617261 19.061986 0.486371 0.610628 0.013262 -0.001036 46213.300000 1 0 0
-2.529922 -0.004416 18.198061 18.373076 0.001746 0.138136 0.008655 -0.008758 281706.000000 1 0 0
6.922478 3.688184 17.377961 19.066120 0.489529 0.423983 0.009598 -0.002866 -580807.000000 1 0 0
-4.190522 -0.906016 14.834561 15.441682 0.212929 0.281345 0.011930 -0.001894 -163056.000000 1 0 0
4.553078 -9.013716 17.975961 20.618263 -1.103055 0.511836 -0.008340 -0.001935 -64058.200000 1 0 0
1.970778 6.858784 13.457261 15.232358 1.290998 0.487588 -0.003166 0.002704 -2474510.000000 1 0 0
-3.673622 -0.959616 20.329661 20.681186 0.255509 0.184639 0.013310 -0.012722 -628247.000000 1 0 0
-10.556922 1.723984 16.349861 19.538134 -0.161875 0.579351 0.016252 -0.001698 257529.000000 1 0 0
-3.810522 6.961784 18.461361 20.094983 -1.069991 0.406007 0.009094 -0.009468 -792945.000000 1 0 0
-12.599222 1.166984 14.790861 19.464630 -0.092360 0.707662 0.015679 -0.001646 -336248.000000 1 0 0
-16.057322 -4.636116 8.577161 18.785602 0.281079 1.096647 -0.006619 -0.006861 -523265.000000 1 0 0
-2.348222 0.743984 15.761361 15.952685 -0.306823 0.155031 0.005821 -0.001993 -136161.000000 1 0 0
-13.653122 -8.803616 12.643561 20.585700 0.572715 0.909435 -0.015833 -0.005349 322225.000000 1 0 0
6.104678 -3.232516 14.590561 16.143132 -0.486980 0.442171 0.005592 -0.004916 652436.000000 1 0 0
-15.775522 0.164184 7.672061 17.542935 -0.010407 1.118168 -0.012067 0.000081 478132.000000 1 0 0
-14.063722 6.090884 12.493461 19.773055 -0.408705 0.886868 0.010014 -0.003073 313695.000000 1 0 0
0.359478 9.571584 16.582661 19.150172 1.533257 0.523795 -0.010898 -0.006951 95.353500 1 0 0
-10.355622 -5.437416 10.832361 15.941908 0.483501 0.823730 0.006246 -0.002590 -85289.800000 1 0 0
-3.159722 -11.202416 14.942361 18.940753 1.295881 0.661779 0.000166 -0.009232 -981042.000000 1 0 0
-3.440922 2.567584 12.597661 13.309150 -0.641059 0.328457 -0.001960 0.002724 -1931650.000000 1 0 0
-12.439822 -7.800016 7.447961 16.463947 0.560051 1.101364 0.006683 -0.003429 729367.000000 1 0 0
-8.139822 -1.830116 13.294861 15.695839 0.221157 0.560422 0.011716 -0.001330 -262443.000000 1 0 0
-9.846722 6.465284 9.485961 15.124195 -0.580996 0.892838 0.010063 -0.002123 -401675.000000 1 0 0
-17.729822 -3.519416 6.738861 19.291063 0.195955 1.213945 -0.017759 -0.009745 -241115.000000 1 0 0
-1.191122 -0.051416 20.488861 20.523519 0.043140 0.058124 0.008076 -0.004384 -590258.000000 1 0 0
-2.733322 2.570584 20.142661 20.489161 -0.754725 0.184170 0.010145 -0.008681 -354396.000000 1 0 0
-3.762922 11.395884 11.187561 16.406927 -1.251868 0.820466 -0.001721 -0.001401 -950608.000000 1 0 0
-4.211622 -4.879816 15.012661 16.338003 0.858763 0.405565 0.010582 -0.008419 1008800.000000 1 0 0
-0.166222 -14.444116 13.243961 19.597516 1.559289 0.828750 -0.001461 -0.012662 -22833.400000 1 0 0
-12.106322 0.564684 8.493661 14.799465 -0.046610 0.959516 0.003934 0.000452 112610.000000 1 0 0
-7.633722 1.940784 15.548061 17.429359 -0.248964 0.468910 0.011890 0.002717 -583731.000000 1 0 0
3.667678 -2.069916 18.514261 18.987213 -0.513807 0.223665 0.006874 -0.003092 -252506.000000 1 0 0
-2.067222 4.815784 12.616061 13.661265 -1.165323 0.393712 -0.005354 0.002713 -517341.000000 1 0 0
-10.353322 -6.087116 13.326961 17.940238 0.531504 0.733474 0.006054 -0.008655 -89356.800000 1 0 0
2.351278 -3.813016 14.340161 15.023575 -1.018228 0.302782 -0.002522 -0.003191 -605996.000000 1 0 0
6.853178 1.006784 17.048161 18.401615 0.145864 0.385929 0.000042 0.002634 -360906.000000 1 0 0
-1.972722 -5.736316 13.858261 15.127734 1.239566 0.412596 0.002583 -0.004893 -2026850.000000 1 0 0
-13.015522 3.733584 14.555261 19.879615 -0.279355 0.749294 0.016555 0.001342 301376.000000 1 0 0
-13.326922 -6.281416 13.337961 19.873707 0.440452 0.835056 -0.000440 -0.009857 -301485.000000 1 0 0
-9.469122 6.906684 11.965361 16.749221 -0.630180 0.775054 0.010008 -0.003331 -634115.000000 1 0 0
-1.101422 -2.529416 12.935161 13.226090 1.160112 0.210132 0.000816 -0.002235 399240.000000 1 0 0
0.162678 6.722084 15.346261 16.754718 1.546601 0.412961 -0.004236 -0.004125 272956.000000 1 0 0
-16.495122 -1.067616 9.820061 19.226608 0.064633 1.034735 -0.011687 0.003262 -694580.000000 1 0 0
-1.246322 2.691084 13.798961 14.114056 -1.137077 0.211700 -0.000454 -0.000312 -2011600.000000 1 0 0
-11.255922 -3.261716 16.072061 19.890845 0.282052 0.630025 0.018704 -0.009957 73023.000000 1 0 0
-5.103122 -1.562516 17.175261 17.985352 0.297124 0.301277 0.018495 -0.005688 442251.000000 1 0 0
-11.898322 6.788184 11.135961 17.653870 -0.518458 0.888220 0.019061 0.000026 -1392580.000000 1 0 0
-2.589422 4.738384 18.710061 19.473668 -1.070661 0.280967 0.004016 -0.005615 320975.000000 1 0 0
5.167378 -1.861616 16.377961 17.274403 -0.345789 0.323572 0.005862 -0.003515 210412.000000 1 0 0
-7.981322 -4.080516 12.211961 15.148733 0.472614 0.633201 0.013236 -0.000516 -910476.000000 1 0 0
-11.588022 -0.656516 16.253861 19.972513 0.056594 0.620115 0.024502 -0.000332 335098.000000 1 0 0
2.157778 2.053484 17.440961 17.693499 0.760638 0.169157 0.003441 -0.004635 -1946730.000000 1 0 0
-8.894422 -7.485016 11.652361 16.459457 0.699562 0.784215 0.008593 -0.007068 468754.000000 1 0 0
-7.123722 6.936084 14.714961 17.759131 -0.772053 0.594220 0.006844 -0.004557 10304.900000 1 0 0
-5.541722 3.485784 15.735561 17.043158 -0.561476 0.394270 0.008965 -0.005883 -538613.000000 1 0 0
-9.324422 4.260084 11.545861 15.440209 -0.428555 0.726086 0.011403 -0.001840 -27883.300000 1 0 0
-10.180722 0.271684 14.187561 17.464472 -0.026680 0.622597 0.015020 -0.001002 -67100.700000 1 0 0
8.200678 -0.701116 15.593161 17.632054 -0.085288 0.485666 -0.000065 -0.005290 153530.000000 1 0 0
-8.590122 -7.417016 14.924061 18.749131 0.712243 0.650160 0.019608 -0.007748 -2616110.000000 1 0 0
-0.096822 4.265784 15.613161 16.185706 -1.548103 0.266773 0.002371 -0.004769 6857.260000 1 0 0
-8.050322 3.020284 9.712861 12.971872 -0.358925 0.724602 0.005543 0.000379 -118944.000000 1 0 0
-2.148622 -9.818616 13.021661 16.449482 1.355361 0.657348 -0.003330 -0.006999 597833.000000 1 0 0
-5.954522 10.276084 10.678461 15.971342 -1.045621 0.838470 0.002641 -0.006846 -2798950.000000 1 0 0
-8.606322 -2.661616 15.740561 18.136103 0.299933 0.519811 0.016626 -0.009028 157640.000000 1 0 0
4.241878 5.667784 17.742061 19.102304 0.928308 0.379657 -0.000053 -0.002874 69974.400000 1 0 0
-6.705122 -1.016816 15.332661 16.765532 0.150501 0.416440 0.013997 -0.002058 -1887090.000000 1 0 0
-0.951222 -9.954116 15.335561 18.307613 1.475525 0.577811 -0.004889 -0.007419 -1709550.000000 1 0 0
-4.251822 5.794184 16.169061 17.694323 -0.937738 0.418254 0.005918 -0.007878 236854.000000 1 0 0
3.842878 0.144384 17.442561 17.861452 0.037554 0.217000 0.007370 -0.003350 -669328.000000 1 0 0
1.361878 0.263284 19.206461 19.256484 0.190968 0.072095 0.002564 -0.003048 -547647.000000 1 0 0
-6.259522 6.331384 17.856761 19.953244 -0.791106 0.462522 0.011406 -0.006362 -863875.000000 1 0 0
-12.292122 0.686684 11.041561 16.537347 -0.055806 0.839716 0.012748 0.001137 -513932.000000 1 0 0
-5.260722 5.176784 13.838561 15.683751 -0.777356 0.489963 0.001950 -0.000696 -1226460.000000 1 0 0
-8.687222 -9.336616 9.852161 16.115375 0.821412 0.913029 0.011173 -0.006498 -1309410.000000 1 0 0
6.814578 -3.728616 17.123961 18.803486 -0.500655 0.425869 0.001801 -0.001480 499493.000000 1 0 0
-16.949322 1.495284 9.620661 19.546675 -0.087993 1.056194 -0.002754 0.000440 -11830.100000 1 0 0
-4.128822 -9.631916 11.312061 15.420237 1.165829 0.747214 0.004420 -0.004372 -337347.000000 1 0 0
-11.125922 -3.877616 9.252661 14.981114 0.335357 0.905081 0.005949 -0.001215 -578592.000000 1 0 0
3.532078 -5.339616 18.518461 19.593888 -0.986389 0.332853 -0.010085 -0.007915 -537752.000000 1 0 0
2.548078 -1.853816 16.136761 16.441544 -0.628968 0.192847 0.002604 -0.005463 -168762.000000 1 0 0
-2.989522 -4.324416 20.199461 20.872375 0.965925 0.254614 0.006397 -0.011741 -935846.000000 1 0 0
-6.344322 -3.351316 14.473961 16.154791 0.485983 0.460220 0.019341 -0.002203 702756.000000 1 0 0
-9.556122 5.093584 13.910361 17.628449 -0.489712 0.661477 0.019726 -0.003562 392068.000000 1 0 0
-5.827422 -5.113216 11.731861 14.062019 0.720211 0.583945 0.013181 -0.002267 316891.000000 1 0 0
6.190478 1.977284 19.336961 20.399748 0.309165 0.324212 0.008084 -0.005526 218564.000000 1 0 0
-2.745022 11.870484 13.549061 18.221432 -1.343543 0.732390 -0.001518 -0.006003 -1872890.000000 1 0 0
3.489778 1.344784 15.238461 15.690688 0.367813 0.240669 0.004437 -0.001750 -1002470.000000 1 0 0
-5.518022 7.416384 12.692361 15.701826 -0.931126 0.629475 -0.009811 -0.004978 -1203520.000000 1 0 0
-1.711422 -1.653316 15.307861 15.491708 0.768131 0.154214 0.005947 -0.003721 -868305.000000 1 0 0
-7.409222 10.370684 14.123761 19.024412 -0.950445 0.734148 0.027264 -0.014741 -217885.000000 1 0 0
-10.198022 2.048584 10.751361 14.959549 -0.198242 0.768872 0.013080 -0.000383 -1665770.000000 1 0 0
-13.621522 5.265884 9.253161 17.288620 -0.368889 1.006032 0.005781 0.002599 -395768.000000 1 0 0
0.379278 -5.077616 20.176761 20.809318 -1.496239 0.247196 -0.000769 -0.008582 -184094.000000 1 0 0
-14.442022 -2.947716 7.461361 16.520682 0.201341 1.102196 -0.005300 -0.006150 359520.000000 1 0 0
-2.277822 2.458584 17.603661 17.919877 -0.823544 0.188140 0.002026 -0.007483 -122484.000000 1 0 0
-6.168022 -8.217416 14.714361 17.946666 0.926909 0.609571 0.013423 -0.009324 -117687.000000 1 0 0
-7.947422 1.975784 12.101961 14.612416 -0.243667 0.594913 0.009566 0.001154 99742.700000 1 0 0
-14.540922 -3.360616 10.093361 18.016883 0.227127 0.976149 -0.004479 -0.007165 -536115.000000 1 0 0
-0.456022 6.884684 12.821961 14.560546 -1.504656 0.493678 -0.004466 -0.001478 -1690810.000000 1 0 0
-1.702822 -2.296216 19.208561 19.420119 0.932708 0.147740 0.009679 -0.015805 13238.700000 1 0 0
-12.755322 10.311584 7.481861 18.027902 -0.679851 1.142836 0.009176 -0.013263 -43201.200000 1 0 0
-19.460822 2.079684 7.096161 20.818362 -0.106461 1.222964 -0.006937 0.009981 1178060.000000 1 0 0
-16.223822 8.378284 6.623461 19.423652 -0.476696 1.222816 0.021781 0.000405 523311.000000 1 0 0
-12.106522 7.463784 13.654461 19.715989 -0.552470 0.805768 0.016359 -0.003493 513512.000000 1 0 0
-15.965222 8.350484 10.752961 20.982017 -0.481911 1.032721 0.007887 0.008543 -140043.000000 1 0 0
2.102878 10.897684 14.882461 18.565270 1.380174 0.640781 -0.006058 -0.013003 294708.000000 1 0 0
2.174378 14.139184 12.739261 19.155500 1.418208 0.843243 -0.008604 -0.003501 -1529490.000000 1 0 0
-3.076522 13.757584 11.741261 18.346479 -1.350792 0.876333 -0.002865 -0.004640 -371403.000000 1 0 0
9.108078 4.866684 15.895461 18.955405 0.490730 0.576141 0.007545 0.006321 -338560.000000 1 0 0
-0.370222 12.656484 12.768461 17.982136 -1.541553 0.781208 -0.009916 -0.000647 -352833.000000 1 0 0
3.889978 13.371384 14.547861 20.138671 1.287692 0.763552 -0.007128 0.001514 30434.300000 1 0 0
-2.754922 -4.067216 -13.751839 14.602908 0.975435 2.798501 -0.000339 -0.004114 -553142.000000 1 0 0
5.566278 -11.416916 16.365561 20.716201 -1.117161 0.660006 -0.010786 -0.006566 -30051.100000 1 0 0
7.734478 -13.542716 7.346561 17.239468 -1.051885 1.130566 -0.001725 -0.002516 61308.600000 1 0 0
-0.054522 15.463684 1.438961 15.530586 -1.567271 1.478010 -0.001629 -0.000283 -2318530.000000 1 0 0
-13.835622 8.172884 9.240961 18.536877 -0.533563 1.048908 0.015024 0.004865 707531.000000 1 0 0
-15.462822 -9.723216 4.817961 18.890541 0.561336 1.312901 0.013024 -0.003269 -761424.000000 1 0 0
9.375078 -11.122516 11.108961 18.303318 -0.870443 0.918596 0.008517 -0.002452 121901.000000 1 0 0
-5.622622 -10.502716 -16.905339 20.681185 1.079271 2.527725 0.017447 -0.002226 -26843.300000 1 0 0
-1.880622 -12.521916 -14.485539 19.239698 1.421724 2.423251 0.005505 -0.005738 -153924.000000 1 0 0
5.507478 -15.908716 -12.596639 21.026053 -1.237518 2.213169 0.005663 0.018653 150216.000000 1 0 0
2.653978 -11.739816 -16.674039 20.564301 -1.348467 2.516356 -0.002856 -0.000265 207087.000000 1 0 0
0.391678 -13.923516 -14.302439 19.964406 -1.542673 2.369421 0.013041 0.003234 236280.000000 1 0 0
-6.820822 -5.967316 -14.845339 17.393004 0.718755 2.593507 0.022004 0.004492 54064.800000 1 0 0
-6.078122 -8.075116 -17.547339 20.249943 0.925571 2.619019 0.003141 0.005167 -114996.000000 1 0 0
-2.660922 -16.157716 -13.322539 21.110243 1.407577 2.253759 0.015591 -0.002471 348227.000000 1 0 0
16.035978 -8.065816 -8.606939 19.907018 -0.466031 2.017901 0.002071 -0.003861 -61602.200000 1 0 0
19.083978 -2.982416 -3.806339 19.687083 -0.155025 1.765364 -0.012342 0.002329 247228.000000 1 0 0
15.517978 -11.348516 -9.191439 21.309130 -0.631434 2.016772 0.002161 0.002905 205303.000000 1 0 0
17.722778 -2.772016 -6.609539 19.117190 -0.155153 1.923822 0.055852 0.002378 -116409.000000 1 0 0
8.739478 -9.871516 -15.946439 20.690922 -0.846150 2.450731 0.025024 0.006598 213459.000000 1 0 0
-4.720622 9.477184 -16.164239 19.323145 -1.108667 2.561701 0.000895 -0.004966 542909.000000 1 0 0
1.999778 -9.873316 -18.872739 21.393031 -1.370956 2.651291 -0.008883 0.017779 356499.000000 1 0 0
11.224478 8.304784 -15.351139 20.751285 0.636994 2.403522 0.031509 -0.010905 507819.000000 1 0 0
18.533178 -5.780416 -8.597639 21.232317 -0.302334 1.987701 0.007842 0.001460 148817.000000 1 0 0
12.457178 5.433384 -13.715039 19.308165 0.411289 2.360754 0.009019 -0.006448 143294.000000 1 0 0
15.730678 6.157684 -11.056039 20.189287 0.373109 2.150312 -0.009148 -0.003069 264231.000000 1 0 0
3.566878 -0.555616 -19.307439 19.642010 -0.154529 2.956758 0.018069 -0.007240 217887.000000 1 0 0
10.216078 -1.542716 -15.071339 18.272753 -0.149876 2.540642 0.017424 -0.001233 146374.000000 1 0 0
12.145478 -5.885516 -14.425839 19.754918 -0.451240 2.389470 0.029774 0.010509 90754.700000 1 0 0
10.170878 6.717984 -12.948739 17.783361 0.583729 2.386398 0.014419 -0.002010 390516.000000 1 0 0
10.474678 5.489984 -16.708639 20.470404 0.482757 2.525658 0.010686 0.011006 333491.000000 1 0 0
11.614078 -10.302616 -15.499839 21.937997 -0.725631 2.355378 0.038796 0.000056 388826.000000 1 0 0
-1.226422 2.399084 -17.758539 17.961777 -1.098225 2.991018 0.011053 -0.001690 278432.000000 1 0 0
6.042078 -1.218616 -16.963339 18.048452 -0.199018 2.793069 0.004546 -0.000905 114269.000000 1 0 0
6.177378 -5.559516 -15.829039 17.878107 -0.732804 2.658122 -0.026665 0.000282 150877.000000 1 0 0
-2.570522 -4.556016 -20.026539 20.698482 1.057113 2.886091 0.016451 -0.025031 188761.000000 1 0 0
15.903978 -0.318016 -13.087739 20.599189 -0.019993 2.259261 -0.000454 -0.002510 -54666.300000 1 0 0
-4.166622 -0.297216 -18.555839 19.020206 0.071212 2.920168 0.006312 -0.001477 182618.000000 1 0 0
3.519778 9.299284 -17.144539 19.819201 1.208961 2.616040 0.010488 -0.022707 -412751.000000 1 0 0
10.021678 0.322484 -16.830639 19.591030 0.032168 2.604303 0.028205 -0.018151 -46302.400000 1 0 0
4.174178 4.366784 -18.465339 19.428364 0.807945 2.825419 0.018206 0.001132 520272.000000 1 0 0
-2.614422 -11.166916 -18.027739 21.366670 1.340816 2.574994 0.009960 -0.011469 186695.000000 1 0 0
5.893078 -9.397716 -16.401739 19.800568 -1.010706 2.546947 -0.006529 0.005249 147301.000000 1 0 0
10.012878 -12.937416 -11.138839 19.791620 -0.912144 2.168573 -0.000265 0.033223 348542.000000 1 0 0
6.095778 7.064284 -17.363539 19.711801 0.858860 2.648494 0.018711 0.008938 341213.000000 1 0 0
8.707278 0.984084 -19.944539 21.784622 0.112541 2.727627 0.034872 -0.012171 59142.900000 1 0 0
-1.090022 -0.628116 -20.265639 20.304650 0.522767 3.079594 0.011384 -0.007387 212236.000000 1 0 0
-0.797122 6.719684 -19.625439 20.759273 -1.452723 2.809560 0.021767 -0.016020 198508.000000 1 0 0
8.560978 6.038584 -18.189739 20.990985 0.614315 2.619044 0.027550 0.002250 86078.400000 1 0 0
12.124278 -0.104416 -13.062539 17.822428 -0.008612 2.393411 0.002170 -0.004675 23561.400000 1 0 0
-4.636822 -2.644416 -19.960439 20.661854 0.518301 2.880284 0.006597 0.002416 374538.000000 1 0 0
5.489278 -11.498516 -14.603739 19.380848 -1.125400 2.424187 -0.017135 0.008566 82367.400000 1 0 0
11.575678 2.848884 -15.688339 19.703717 0.241314 2.491805 0.027092 -0.002302 68527.800000 1 0 0
-2.896522 -4.510116 -16.911039 17.740187 0.999904 2.834649 -0.003204 -0.006699 349134.000000 1 0 0
-6.978822 -5.055516 -17.541039 19.543548 0.626920 2.684946 0.021480 0.003500 57673.900000 1 0 0
2.943178 10.447784 -15.399139 18.840169 1.296209 2.527604 -0.000884 -0.004609 318797.000000 1 0 0
16.973578 -6.189416 -10.907339 21.104058 -0.349666 2.113947 0.025253 -0.003732 -54806.900000 1 0 0
9.325078 -3.636916 -17.737739 20.366925 -0.371869 2.627845 -0.000654 -0.010790 134495.000000 1 0 0
-7.602922 -1.735416 -18.188039 19.789413 0.224412 2.736534 0.015306 0.000698 653622.000000 1 0 0
1.684978 -7.427116 -19.383239 20.825733 -1.347704 2.767214 -0.006867 -0.011330 295883.000000 1 0 0
5.651078 10.445284 -13.769739 18.183629 1.074876 2.429904 0.010206 -0.008055 200070.000000 1 0 0
6.029278 -4.035916 -17.806139 19.227569 -0.589883 2.754667 0.013083 -0.019778 603725.000000 1 0 0
4.422478 13.451084 -14.788439 20.474079 1.253147 2.377919 0.006111 -0.002552 209809.000000 1 0 0
9.104178 11.225684 -15.451139 21.157498 0.889376 2.389545 0.035606 -0.010179 99666.400000 1 0 0
17.291878 1.379184 -11.450139 20.785016 0.079591 2.154220 0.018537 0.009733 55171.600000 1 0 0
14.709078 -2.949316 -12.597639 19.589690 -0.197886 2.269303 0.008451 0.006623 221170.000000 1 0 0
-8.608422 0.510084 -17.249039 19.284566 -0.059185 2.677991 0.005215 -0.004426 491501.000000 1 0 0
-3.503522 4.517284 -19.046239 19.885667 -0.911123 2.850000 0.025897 -0.003663 99312.800000 1 0 0
4.024378 1.953984 -16.740139 17.327606 0.452010 2.880453 0.009160 -0.009951 406510.000000 1 0 0
-4.974622 14.224984 -13.826239 20.451453 -1.234380 2.313187 0.005076 -0.002895 402796.000000 1 0 0
0.999978 9.171584 -17.830039 20.075562 1.462195 2.664092 0.009411 -0.010351 354982.000000 1 0 0
0.905278 -5.231316 -20.267039 20.950873 -1.399444 2.885394 -0.000199 0.009668 523159.000000 1 0 0
3.577678 -6.294416 -18.271439 19.653624 -1.053944 2.764320 -0.002458 -0.006445 -242050.000000 1 0 0
-6.785022 7.717984 -15.927839 18.955207 -0.849638 2.568611 -0.008345 0.004995 483.747000 1 0 0
-11.581922 3.233984 -16.996639 20.820310 -0.272292 2.525857 0.004509 -0.009886 194907.000000 1 0 0
-4.240122 7.007484 -17.675039 19.480515 -1.026646 2.707659 0.005347 0.022431 417387.000000 1 0 0
-8.211622 5.780984 -17.293139 19.997579 -0.613406 2.615472 0.001287 -0.009238 400963.000000 1 0 0
-8.377422 4.266884 -14.820639 17.551036 -0.471085 2.576298 -0.018757 -0.014787 466161.000000 1 0 0
9.433678 13.785984 -12.795939 21.042426 0.970689 2.224464 0.034485 -0.014771 375892.000000 1 0 0
13.961578 9.958284 -11.877039 20.860420 0.619572 2.176521 0.026943 -0.012932 20647.000000 1 0 0
8.642378 15.681784 -9.953039 20.485898 1.067102 2.078130 0.022321 -0.003900 81514.800000 1 0 0
7.545678 14.559984 -14.135539 21.650493 1.092657 2.282199 0.041728 -0.013048 133482.000000 1 0 0
3.938478 15.365584 -12.872539 20.428290 1.319880 2.252521 0.016420 -0.017011 213700.000000 1 0 0
10.900378 11.752384 -10.960439 19.418239 0.822992 2.170552 0.026652 -0.013745 281045.000000 1 0 0
15.965478 10.525584 -10.517739 21.824464 0.582865 2.073646 0.031933 0.002062 334852.000000 1 0 0
13.467778 11.494284 -9.353339 20.024599 0.706503 2.056796 0.045805 -0.000596 15841.200000 1 0 0
10.704478 11.329484 -7.773539 17.417548 0.813756 2.033428 0.015322 0.000639 34798.600000 1 0 0
4.936778 16.952584 -10.198539 20.390490 1.287422 2.094582 0.012793 -0.000036 36166.000000 1 0 0
11.677178 14.296184 -10.242639 21.110401 0.885893 2.077381 0.049055 -0.006606 -128920.000000 1 0 0
8.223878 -19.516416 -2.057539 21.278067 -1.171994 1.667645 0.003590 -0.001284 210033.000000 1 0 0
7.401378 -17.585316 -4.243639 19.545645 -1.172417 1.789654 0.005302 0.017945 234446.000000 1 0 0
3.785478 -18.661616 4.909061 19.664299 -1.370663 1.318484 0.018085 -0.017116 29927.300000 1 0 0
10.100178 -18.031116 -2.897539 20.869367 -1.060192 1.710088 0.002466 0.007702 548911.000000 1 0 0
-2.068022 -15.831316 7.714761 17.732028 1.440903 1.120675 -0.003442 0.002259 119257.000000 1 0 0
-15.232922 -12.587616 -4.460939 20.258084 0.690599 1.792821 -0.013846 0.001138 -116113.000000 1 0 0
-9.601722 -12.664516 -6.869139 17.313813 0.922094 1.978763 0.017235 -0.012491 211621.000000 1 0 0
-11.325022 -15.494016 6.641861 20.308495 0.939613 1.237618 0.003595 -0.003075 -20723.500000 1 0 0
-15.562922 -8.250016 -8.154239 19.410279 0.487442 2.004351 0.058591 -0.002732 80863.100000 1 0 0
4.425578 -14.997016 6.045661 16.764434 -1.283844 1.201859 0.002230 -0.011888 123708.000000 1 0 0
2.720778 -14.122316 9.386961 17.174326 -1.380470 0.992534 -0.003138 0.001101 465209.000000 1 0 0
3.180778 -17.365316 10.705761 20.646667 -1.389636 1.025674 0.008511 0.002296 172750.000000 1 0 0
-7.334522 -16.812916 -6.264339 19.383274 1.159441 1.899887 -0.028719 -0.005518 -4593.180000 1 0 0
2.243178 -19.910016 -3.827739 20.398338 -1.458604 1.759565 0.007881 -0.006789 85585.100000 1 0 0
-18.447022 -10.121116 -2.768039 21.222433 0.501813 1.701599 -0.000809 -0.008133 -68755.700000 1 0 0
-4.007422 -14.706116 2.530861 15.451037 1.304755 1.406256 -0.010513 0.003691 174025.000000 1 0 0
-10.328722 -9.791216 -14.757039 20.501723 0.758689 2.374303 -0.004534 0.004719 317262.000000 1 0 0
0.577378 -20.511216 2.524461 20.674048 -1.542654 1.448383 0.007873 -0.006655 295511.000000 1 0 0
6.859178 -18.122916 0.447061 19.382680 -1.208977 1.547729 0.013975 -0.009222 99054.100000 1 0 0
-7.379722 -18.795016 -3.465139 20.487072 1.196649 1.740751 -0.005260 -0.021838 64656.500000 1 0 0
-9.774622 -15.513616 -7.558639 19.833017 1.008561 1.961797 0.024520 -0.008007 95810.300000 1 0 0
-11.601322 -11.357116 -12.120739 20.260481 0.774762 2.212106 -0.012318 0.005107 183598.000000 1 0 0
-13.279222 -15.092116 -3.147239 20.347354 0.849210 1.726095 -0.002458 -0.009165 100931.000000 1 0 0
-0.404622 -20.459416 -2.536539 20.620026 1.551022 1.694122 -0.001004 -0.010267 427376.000000 1 0 0
-11.898722 -16.999116 -0.576139 20.757685 0.960096 1.598555 -0.000668 -0.001771 147636.000000 1 0 0
0.713078 -20.248316 5.146461 20.904278 -1.535594 1.322047 0.016685 -0.007703 -15598.800000 1 0 0
-18.197122 -8.699916 2.576061 20.333713 0.445969 1.443766 -0.001574 0.008155 -52850.700000 1 0 0
-15.100922 -14.761316 -0.836039 21.133700 0.774026 1.610366 0.004142 -0.002227 -89797.900000 1 0 0
10.004678 -15.967516 -4.850939 19.457306 -1.011073 1.822766 0.005225 0.013457 -226744.000000 1 0 0
-0.373522 -19.215916 -7.069039 20.478337 1.551361 1.923244 0.001363 0.003871 45079.400000 1 0 0
-9.954022 -17.778916 -2.981839 20.592809 1.060401 1.716107 0.007346 0.020483 505799.000000 1 0 0
-14.810622 -6.741316 -11.380139 19.857176 0.427143 2.181080 0.017016 -0.003911 57263.300000 1 0 0
-12.467322 -14.750216 1.834961 19.400260 0.869078 1.476070 0.007949 -0.022222 189643.000000 1 0 0
-2.663322 -16.301916 10.327961 19.481081 1.408852 1.012015 0.008236 -0.005263 306810.000000 1 0 0
-12.824822 -14.118816 -6.221239 20.062922 0.833387 1.886080 0.020857 -0.010949 108978.000000 1 0 0
5.678378 -17.060216 -6.879839 19.251679 -1.249487 1.936239 0.012242 -0.001867 -122583.000000 1 0 0
-17.182322 -7.351616 -3.046339 18.935645 0.404290 1.732377 -0.038800 0.006953 -251172.000000 1 0 0
-12.367222 -13.588816 -8.222739 20.130016 0.832427 1.991586 0.030656 -0.037602 162271.000000 1 0 0
-6.988022 -14.820316 8.629161 18.518549 1.130194 1.086061 0.000146 -0.004112 436788.000000 1 0 0
-15.720322 -7.981216 -5.733839 18.539289 0.469789 1.885233 0.005607 0.002852 279612.000000 1 0 0
-0.685422 -19.654216 -0.210739 19.667293 1.535936 1.581512 0.003666 -0.005280 221622.000000 1 0 0
-14.974922 -11.364716 -1.937339 18.898634 0.649183 1.673489 -0.004357 0.005231 103535.000000 1 0 0
-7.333822 -18.769616 1.289261 20.192712 1.198308 1.506905 0.008273 -0.008209 305018.000000 1 0 0
-2.267122 -20.392516 -5.608639 21.270905 1.460077 1.837628 -0.000192 -0.004586 84704.200000 1 0 0
-8.913222 -19.180416 -0.423339 21.154506 1.135782 1.590809 0.002058 -0.016911 130086.000000 1 0 0
-17.796722 -7.272816 4.889661 19.837489 0.387950 1.321744 0.006341 -0.000327 -28324.100000 1 0 0
-3.161722 -15.862416 -11.018139 19.570696 1.374053 2.168798 0.011031 0.007392 -13555.500000 1 0 0
-2.890722 -18.218516 -8.035039 20.120449 1.413439 1.981601 0.001891 0.000978 -106425.000000 1 0 0
4.013878 -17.956416 -6.062839 19.372716 -1.350877 1.889102 -0.003351 0.030283 301040.000000 1 0 0
0.553678 -17.373016 -9.140939 19.638865 -1.538937 2.054941 0.004987 0.009063 163340.000000 1 0 0
-7.529822 -11.217416 -13.991739 19.449869 0.979619 2.373698 0.006082 -0.026270 329160.000000 1 0 0
-5.243022 -19.260716 -1.886539 20.050524 1.305023 1.665025 0.006796 -0.015332 364462.000000 1 0 0
-10.319122 -15.754516 8.428361 20.633137 0.990918 1.150001 0.010606 -0.010313 58173.800000 1 0 0
-7.348122 -14.968116 -10.314239 19.606706 1.114440 2.124753 0.012690 -0.012212 325532.000000 1 0 0
-12.906422 -7.826916 -12.242039 19.434605 0.545138 2.252233 0.009246 -0.005728 373536.000000 1 0 0
-15.667322 -13.015916 3.261861 20.628107 0.693223 1.412003 0.008920 -0.000329 124814.000000 1 0 0
-6.317322 -14.235316 -12.891639 20.217496 1.153129 2.262237 -0.001492 0.000261 442069.000000 1 0 0
-13.866122 -11.189716 -6.696639 19.034812 0.678984 1.930300 -0.003861 -0.013424 199291.000000 1 0 0
-11.447322 -10.410516 -9.322839 18.064755 0.738000 2.113063 0.005095 0.005589 131614.000000 1 0 0
-9.734022 -14.599716 3.638961 17.920517 0.982752 1.366313 -0.001138 -0.012494 580192.000000 1 0 0
5.252978 -17.869316 7.932461 20.244263 -1.284884 1.168168 0.031345 -0.027744 279793.000000 1 0 0
-4.979722 -16.706116 5.273161 18.212583 1.281104 1.277056 -0.004238 0.013135 230732.000000 1 0 0
-18.512122 -7.330116 -6.693639 21.005573 0.377021 1.895112 0.000381 -0.005850 -21156.700000 1 0 0
-17.003522 -3.604916 -10.891739 20.512074 0.208916 2.130567 0.000772 -0.008136 -288749.000000 1 0 0
-15.769922 -4.188016 -13.134839 20.946454 0.259578 2.248579 -0.000634 -0.004900 268785.000000 1 0 0
-19.494822 -5.206016 -5.862339 21.012323 0.260957 1.853544 0.018615 0.003411 -277082.000000 1 0 0
5.230978 -13.712616 8.904861 17.166698 -1.206364 1.025433 0.004438 0.005561 234126.000000 1 0 0
19.893678 -3.485816 2.888061 20.402211 -0.173461 1.428763 0.009585 -0.007682 108849.000000 1 0 0
17.979478 -2.692216 -0.058839 18.180020 -0.148634 1.574033 -0.002568 -0.005650 267612.000000 1 0 0
14.197678 -11.381016 0.235161 18.197717 -0.675723 1.557873 0.018295 0.000996 147944.000000 1 0 0
10.980378 -13.615516 5.420661 18.312142 -0.892128 1.270279 0.010663 0.001001 490946.000000 1 0 0
9.980278 -12.938216 8.486961 18.412819 -0.913752 1.091757 0.021978 -0.013834 136604.000000 1 0 0
19.278278 4.114484 -4.201439 20.155224 0.210271 1.780790 0.055155 0.010384 46584.800000 1 0 0
19.026578 -6.200516 -5.375539 20.720847 -0.315034 1.833225 0.021160 0.002718 -99076.400000 1 0 0
17.580778 -10.021916 -0.330939 20.239370 -0.518106 1.587148 0.024827 0.001451 230395.000000 1 0 0
17.139778 -9.008116 8.564361 21.172303 -0.483892 1.154356 0.032401 -0.006287 33690.500000 1 0 0
19.794878 0.249484 -2.059839 19.903326 0.012603 1.674474 0.001275 0.008403 72310.200000 1 0 0
7.683978 -13.052816 11.436861 18.979497 -1.038739 0.924053 0.013308 -0.005401 319478.000000 1 0 0
16.426278 -6.282816 -3.425539 17.917330 -0.365317 1.763166 0.027671 0.001930 181854.000000 1 0 0
14.303678 -7.150916 11.384961 19.630286 -0.463596 0.952105 0.011670 -0.035356 377365.000000 1 0 0
16.262578 1.154784 10.713261 19.508432 0.070890 0.989437 0.026979 -0.008066 52379.900000 1 0 0
16.118378 -10.043616 2.649261 19.175373 -0.557243 1.432193 -0.016837 -0.004860 393551.000000 1 0 0
16.099878 -7.278416 -5.196039 18.416847 -0.424581 1.856815 0.012719 -0.005615 183674.000000 1 0 0
18.697378 -4.908916 5.650661 20.139994 -0.256751 1.286409 0.111624 -0.014562 -215801.000000 1 0 0
13.080578 -13.717516 8.081861 20.605539 -0.809162 1.167755 0.013903 -0.000966 231360.000000 1 0 0
15.291378 -14.041316 -1.458639 20.811353 -0.742807 1.640942 0.022979 -0.002506 172335.000000 1 0 0
18.587278 -6.404016 8.311261 21.344212 -0.331800 1.170825 0.029509 -0.002582 182336.000000 1 0 0
19.644978 3.754984 2.973061 20.220389 0.188864 1.423229 0.019953 0.000243 212843.000000 1 0 0
15.063078 -11.452016 8.328261 20.673774 -0.650042 1.156177 0.007650 -0.003479 284832.000000 1 0 0
14.479878 -4.070616 10.784561 18.507932 -0.274049 0.948750 0.021978 -0.006314 103787.000000 1 0 0
18.695478 -7.873916 2.322861 20.418500 -0.398619 1.456787 0.023018 -0.003453 -85548.000000 1 0 0
18.997478 -6.184916 -1.288939 20.020458 -0.314743 1.635222 0.007034 -0.005109 42682.300000 1 0 0
14.454578 -13.893016 -5.761939 20.860265 -0.765591 1.850651 0.010215 0.003944 437442.000000 1 0 0
13.667578 -9.832516 10.185161 19.677870 -0.623631 1.026759 -0.001486 -0.007508 348786.000000 1 0 0
14.321478 2.432684 0.710061 14.543963 0.168257 1.521955 -0.000456 -0.002629 15680.500000 1 0 0
12.575078 1.653684 13.677961 18.653521 0.130755 0.747686 -0.011872 0.007467 37999.200000 1 0 0
18.378578 -2.275816 9.643161 20.879224 -0.123203 1.090712 0.026118 -0.004212 243143.000000 1 0 0
6.901078 -18.441916 4.907661 20.293208 -1.212722 1.326537 0.008328 -0.010277 270342.000000 1 0 0
12.637278 -3.099316 14.934761 19.807918 -0.240505 0.716697 0.007970 0.001877 63947.400000 1 0 0
11.133778 -13.501616 -6.895639 18.809692 -0.881219 1.946149 -0.003271 0.002139 -15886.800000 1 0 0
10.525978 -17.210716 4.865461 20.752775 -1.021895 1.334145 0.018049 -0.001245 367788.000000 1 0 0
18.331678 -0.244016 -5.289039 19.080983 -0.013310 1.851664 -0.001413 0.005390 -4386.820000 1 0 0
4.249478 -13.590616 11.433761 18.261813 -1.267750 0.894252 -0.009235 -0.004566 136049.000000 1 0 0
9.285478 -2.864716 13.943361 16.995411 -0.299251 0.608653 0.009462 -0.008616 339144.000000 1 0 0
8.981078 -9.367716 14.205561 19.240889 -0.806467 0.740249 0.007864 -0.003031 447780.000000 1 0 0
21.082078 5.908484 -2.453639 22.031444 0.273251 1.682398 0.017608 0.017007 482575.000000 1 0 0
14.638078 -13.350916 1.974561 19.910278 -0.739442 1.471460 0.015784 0.006143 181050.000000 1 0 0
11.027378 -0.544416 15.198461 18.785437 -0.049329 0.628253 0.005013 -0.003839 41258.600000 1 0 0
19.723678 0.211584 7.469461 21.091730 0.010727 1.208800 0.071776 -0.008740 -65082.100000 1 0 0
19.790078 1.110584 0.681961 19.832944 0.056059 1.536404 0.008124 -0.004607 130660.000000 1 0 0
17.897978 0.144784 3.114161 18.167459 0.008089 1.398531 0.007339 -0.005105 5128.810000 1 0 0
10.356278 -8.614016 16.443161 21.256324 -0.693814 0.686348 0.022933 -0.000585 143411.000000 1 0 0
18.511978 3.004284 5.844561 19.643776 0.160886 1.268695 -0.000235 -0.008655 58297.800000 1 0 0
15.053778 2.238584 6.972461 16.740451 0.147624 1.141200 0.015110 -0.011875 -16219.900000 1 0 0
11.287478 -16.085416 2.119561 19.764623 -0.958916 1.463350 -0.002114 0.012723 242700.000000 1 0 0
7.588978 -16.698216 6.817061 19.567711 -1.144224 1.214951 -0.000110 0.009004 474745.000000 1 0 0
6.256878 6.627484 7.079861 11.541078 0.814154 0.910376 -0.002974 0.002738 -708355.000000 1 0 0
18.384778 2.829984 -6.542539 19.718359 0.152732 1.909007 -0.022768 0.014101 225622.000000 1 0 0
14.100378 4.478784 -7.245339 16.473467 0.307557 2.026193 0.006991 -0.003207 274481.000000 1 0 0
-10.603122 -3.998816 -13.932139 17.958876 0.360642 2.458747 0.010990 0.000118 -258420.000000 1 0 0
7.341378 -14.242416 -10.440539 19.124516 -1.094858 2.148288 -0.010979 0.015532 -154245.000000 1 0 0
1.937178 -15.719616 13.996661 21.136828 -1.448181 0.847055 -0.005218 -0.007566 472313.000000 1 0 0
-9.424522 -8.061816 2.282261 12.610441 0.707626 1.388812 0.007172 -0.003406 351596.000000 1 0 0
-13.821422 3.156884 -9.546639 17.091985 -0.224553 2.163427 0.010178 -0.005141 327942.000000 1 0 0
-13.068922 -4.823316 -13.528339 19.418472 0.353560 2.341547 0.015690 0.003882 179515.000000 1 0 0
-17.799522 -0.170816 -8.121339 19.565488 0.009596 1.998832 0.015622 -0.020585 402872.000000 1 0 0
-12.162322 14.978484 4.615761 19.838909 -0.888789 1.335982 0.008848 -0.019246 466053.000000 1 0 0
-17.402822 6.329084 9.382661 20.759331 -0.348811 1.101820 0.013001 0.003121 217439.000000 1 0 0
-13.502122 15.642984 -0.553439 20.671636 -0.858722 1.597572 0.025776 -0.006313 193415.000000 1 0 0
-16.150522 5.042384 -10.922439 20.138636 -0.302622 2.144043 0.021999 0.005592 149256.000000 1 0 0
-17.847922 2.928384 0.327861 18.089534 -0.162625 1.552671 0.006847 -0.005208 -71712.000000 1 0 0
-9.588322 15.329984 -0.258739 18.083453 -1.011865 1.585105 0.005515 -0.008857 34323.800000 1 0 0
-18.488622 12.138284 2.319761 22.238443 -0.580950 1.466293 0.050596 -0.011385 -62870.400000 1 0 0
-8.294822 16.439984 -7.810339 20.001963 -1.103514 1.971948 0.030275 -0.019076 100326.000000 1 0 0
-15.234322 -1.913216 -13.047839 20.149220 0.124932 2.275175 0.009503 -0.015044 36511.100000 1 0 0
-19.141922 5.067684 -4.552039 20.317866 -0.258805 1.796755 0.041018 -0.006199 -28014.100000 1 0 0
-16.822522 9.762384 -5.650439 20.254107 -0.525820 1.853525 0.021986 0.013459 -421224.000000 1 0 0
-18.904822 1.022484 2.606861 19.111083 -0.054033 1.433964 0.004849 -0.006553 -34741.800000 1 0 0
-13.503022 11.617884 -7.094639 19.173960 -0.710496 1.949821 0.002428 -0.007902 126165.000000 1 0 0
-12.921522 4.908884 -13.492939 19.316373 -0.363059 2.344128 0.010499 -0.009659 -226210.000000 1 0 0
-14.130322 9.392084 -6.512539 18.173894 -0.586623 1.937292 0.008354 -0.000152 212038.000000 1 0 0
-6.365922 11.575484 -15.272939 20.193550 -1.067993 2.428477 -0.001378 -0.017614 28509.100000 1 0 0
-14.580322 14.020484 3.409861 20.513091 -0.765826 1.403793 -0.007007 -0.004599 -146798.000000 1 0 0
-18.900522 8.458184 -4.463539 21.182393 -0.420782 1.783107 0.039591 -0.005933 204710.000000 1 0 0
-4.169922 16.897784 -9.594839 19.874212 -1.328857 2.074621 -0.000669 -0.003710 -56913.900000 1 0 0
-19.267922 -2.370216 -6.484839 20.467630 0.122399 1.893186 -0.003756 -0.005462 -53943.600000 1 0 0
-10.620122 13.779284 -6.217439 18.474637 -0.914159 1.914036 0.006451 -0.013493 145818.000000 1 0 0
-19.084622 2.805084 4.353561 19.774852 -0.145936 1.348822 -0.002017 0.007679 153698.000000 1 0 0
-15.061922 12.629784 0.580961 19.664955 -0.697794 1.541249 0.016988 -0.007807 72280.200000 1 0 0
-17.647122 2.388284 -9.157339 20.024527 -0.134518 2.045760 0.011115 0.001510 -29063.300000 1 0 0
-16.375322 14.220484 -3.916639 22.038906 -0.715085 1.749460 0.005155 0.044837 157694.000000 1 0 0
-10.652022 15.856384 -8.416939 20.874275 -0.979261 1.985830 0.016991 -0.013408 40636.200000 1 0 0
-19.152922 2.168084 -6.679839 20.399884 -0.112719 1.904395 0.015573 -0.010575 47477.100000 1 0 0
-16.980322 10.580584 -0.483939 20.012853 -0.557238 1.594980 0.018889 -0.002752 -41756.600000 1 0 0
-11.659822 6.749784 -14.575039 19.847992 -0.524755 2.395480 0.004992 -0.008679 435033.000000 1 0 0
-13.831022 12.696584 -5.210739 19.484666 -0.742660 1.841519 0.026250 -0.008660 380300.000000 1 0 0
-18.777822 7.588884 -0.084439 20.253515 -0.384071 1.574965 0.022232 -0.006691 67305.300000 1 0 0
-14.165022 9.172084 -11.027039 20.158635 -0.574627 2.149588 -0.002189 0.016327 404154.000000 1 0 0
-18.585622 11.627984 4.815161 22.445960 -0.559062 1.354594 0.032111 -0.002613 176425.000000 1 0 0
-7.835422 12.322284 -13.097839 19.615961 -1.004416 2.301929 -0.017442 0.005115 428908.000000 1 0 0
-21.019622 -0.855316 -5.388839 21.716254 0.040669 1.821564 0.002630 -0.007511 261005.000000 1 0 0
-10.822822 13.970484 -3.736939 18.063018 -0.911679 1.779185 0.017637 0.008285 375235.000000 1 0 0
-18.528922 -4.966816 3.746261 19.545452 0.261900 1.377934 -0.013974 -0.001519 54749.200000 1 0 0
-11.386722 11.498084 -13.065239 20.798169 -0.790264 2.250023 0.007801 -0.004035 233721.000000 1 0 0
-14.851922 11.437684 -10.369539 21.422594 -0.656251 2.076070 0.008707 -0.004481 313448.000000 1 0 0
-12.533222 9.718784 -14.088039 21.213422 -0.659586 2.297099 0.014224 -0.002186 336460.000000 1 0 0
-18.021522 -5.034616 -2.932839 18.940015 0.272422 1.726271 -0.032246 0.000604 -238404.000000 1 0 0
-9.582222 12.669484 -11.356239 19.526878 -0.923261 2.191453 0.011965 -0.011949 89707.200000 1 0 0
-15.589922 7.717484 -8.194639 19.229075 -0.459664 2.011039 -0.003375 0.004772 -21359.500000 1 0 0
-14.443122 9.339684 1.794061 17.293124 -0.574018 1.466865 0.014177 -0.000402 -96666.100000 1 0 0
-19.763522 6.025584 7.854261 22.104160 -0.295932 1.207530 0.016234 0.006886 217693.000000 1 0 0
-18.872722 6.010884 3.650761 20.140467 -0.308338 1.388524 0.011287 0.008762 199047.000000 1 0 0
-14.168422 12.847384 5.808161 19.988351 -0.736538 1.275966 0.006506 -0.011134 15951.900000 1 0 0
17.911978 6.094684 5.740961 19.772272 0.327969 1.276199 0.014871 -0.006775 271840.000000 1 0 0
18.201578 7.906084 0.629761 19.854475 0.409774 1.539072 0.006646 0.013550 28325.900000 1 0 0
16.831278 4.371784 8.513261 19.361819 0.254126 1.115539 0.031545 -0.004510 -9925.250000 1 0 0
11.860778 13.107384 10.822361 20.726916 0.835285 1.021438 0.009174 -0.000400 95244.000000 1 0 0
15.802878 12.469884 4.053161 20.534290 0.668053 1.372107 0.033183 -0.003052 224905.000000 1 0 0
4.792278 10.265684 14.456761 18.367039 1.134039 0.664697 -0.004548 -0.001293 361801.000000 1 0 0
13.260878 12.902084 -5.198439 19.218179 0.771685 1.844704 0.037180 -0.011077 110061.000000 1 0 0
17.630378 9.124884 -2.970939 20.072872 0.477601 1.719350 -0.002674 0.013028 -267453.000000 1 0 0
14.599278 7.659384 9.576861 19.066235 0.483166 1.044546 0.024254 0.002631 207775.000000 1 0 0
4.527278 19.053184 -1.066939 19.612711 1.337510 1.625224 -0.010000 -0.008168 399999.000000 1 0 0
-4.431122 19.901184 3.913261 20.760674 -1.351714 1.381168 -0.012863 0.024714 363458.000000 1 0 0
7.323878 14.196384 11.709461 19.806261 1.094512 0.938250 0.017542 0.027343 188424.000000 1 0 0
0.487778 16.692484 -10.246239 19.592406 1.541583 2.121128 -0.005365 0.003807 19892.800000 1 0 0
10.462078 9.298584 15.681861 21.019978 0.726587 0.728693 0.015171 -0.004437 5441.390000 1 0 0
-1.172022 12.132984 1.163761 12.244887 -1.474497 1.475612 -0.001907 -0.000326 511707.000000 1 0 0
-4.831022 19.191284 -2.522539 19.950122 -1.324190 1.697578 0.011424 0.004829 70105.600000 1 0 0
6.043778 18.343484 6.305661 20.316791 1.252519 1.255217 0.019148 -0.012629 218603.000000 1 0 0
11.285078 17.261684 -1.576039 20.683390 0.991779 1.647069 0.032341 -0.006027 332973.000000 1 0 0
18.457778 10.272184 3.725661 21.449659 0.507838 1.396218 0.026877 0.003683 202630.000000 1 0 0
11.561678 17.082684 6.171561 21.530876 0.975806 1.280081 0.019039 0.008271 -256342.000000 1 0 0
18.124678 7.223784 -6.029639 20.421644 0.379265 1.870521 -0.006606 0.009273 246162.000000 1 0 0
0.489778 15.950184 11.123461 19.451982 1.540099 0.962047 -0.001573 0.015454 552696.000000 1 0 0
1.357978 20.274084 -1.931639 20.411120 1.503915 1.665575 0.003871 -0.003449 387492.000000 1 0 0
14.135778 9.745984 -1.385239 17.225658 0.603614 1.651300 0.018363 0.002894 -205978.000000 1 0 0
9.700578 17.608284 1.480861 20.158021 1.067255 1.497267 0.019121 -0.012670 156889.000000 1 0 0
-0.329622 17.911384 -0.726839 17.929155 -1.552395 1.611347 -0.009060 0.002876 -145998.000000 1 0 0
0.009478 21.041584 1.294061 21.081341 1.570346 1.509374 0.009993 0.000520 226932.000000 1 0 0
6.031778 17.344184 -0.441639 18.368399 1.236110 1.594842 -0.001927 -0.015437 -291434.000000 1 0 0
6.417078 18.398884 -2.670339 19.667957 1.235213 1.706988 -0.023789 -0.003045 -243393.000000 1 0 0
10.075978 9.854784 12.905761 19.110226 0.774300 0.829381 0.006566 0.009315 241967.000000 1 0 0
13.069978 14.858084 8.289061 21.454498 0.849336 1.174119 0.018735 -0.005837 238741.000000 1 0 0
0.353678 17.582084 7.297861 19.039788 1.550683 1.177435 0.005896 -0.000708 185176.000000 1 0 0
7.679878 17.800584 -7.878839 20.926476 1.163484 1.956813 0.014990 -0.004722 4159.620000 1 0 0
-0.805322 18.533584 9.515361 20.849085 -1.527372 1.096860 0.015394 -0.009927 176045.000000 1 0 0
15.874178 6.744784 -7.901939 18.971618 0.401778 2.000404 0.017659 -0.001174 -334756.000000 1 0 0
-5.154922 19.816984 -6.531339 21.492893 -1.316310 1.879563 0.006898 -0.005708 341485.000000 1 0 0
4.387978 15.366684 10.051261 18.879014 1.292647 1.009358 0.002974 0.000161 171692.000000 1 0 0
9.319878 14.809884 7.491561 19.034607 1.009110 1.166278 0.018386 -0.001146 130791.000000 1 0 0
-2.535522 18.943784 6.827561 20.295600 -1.437743 1.227699 -0.001894 -0.011610 32619.300000 1 0 0
5.102478 17.889084 8.671761 20.524474 1.292946 1.134585 0.020999 -0.007761 288257.000000 1 0 0
15.123878 11.234684 -7.240039 20.183359 0.638906 1.937685 0.032048 -0.023828 37706.100000 1 0 0
11.853278 6.756884 15.605561 20.728946 0.518101 0.718431 0.032194 -0.007912 281102.000000 1 0 0
17.049378 9.082684 5.269561 20.023604 0.489486 1.304492 0.015768 -0.000731 112263.000000 1 0 0
5.082278 15.187184 13.089461 20.683667 1.247868 0.885580 -0.013855 0.025553 433542.000000 1 0 0
16.159778 10.403884 -3.641039 19.561094 0.572014 1.758025 0.048263 -0.006453 -16067.700000 1 0 0
15.306578 13.580784 6.343161 21.423461 0.725727 1.270205 0.017434 -0.000133 266085.000000 1 0 0
12.561178 14.494884 -8.163939 20.845497 0.856747 1.973210 0.036024 -0.010560 234529.000000 1 0 0
-8.328922 15.548084 9.611661 20.087256 -1.079008 1.071856 0.014745 -0.017033 154342.000000 1 0 0
-3.847222 16.651284 -7.223139 18.553709 -1.343734 1.970678 -0.006217 -0.000155 98618.200000 1 0 0
2.687678 19.273184 -4.469639 19.966394 1.432238 1.796568 -0.000897 -0.016851 129509.000000 1 0 0
7.554578 15.932884 8.732661 19.677088 1.128042 1.110963 0.020099 -0.018047 672603.000000 1 0 0
13.277578 15.554384 -1.262639 20.489685 0.864203 1.632459 0.049293 -0.009797 116485.000000 1 0 0
12.893278 16.569684 4.489161 21.469597 0.909537 1.360148 0.038146 -0.022618 307895.000000 1 0 0
2.474378 18.427384 0.732361 18.607186 1.437318 1.531427 0.001613 -0.010372 14169.300000 1 0 0
-6.921022 18.022184 1.227561 19.344419 -1.204134 1.507296 -0.021087 0.021229 291425.000000 1 0 0
0.618678 19.831484 -5.870039 20.691251 1.539610 1.858443 0.003859 0.001331 283348.000000 1 0 0
-6.843422 17.943284 -6.326739 20.219334 -1.206434 1.889047 0.013838 -0.014054 -56895.700000 1 0 0
-7.106822 18.620884 -1.096339 19.961117 -1.206201 1.625748 0.008529 0.000777 38262.900000 1 0 0
-14.586222 -8.825016 8.960161 19.259368 0.544106 1.086895 0.016023 -0.004848 555836.000000 1 0 0
-13.033822 -13.688616 7.907061 20.488542 0.809897 1.174585 0.007902 -0.000602 -61097.900000 1 0 0
-3.793622 -15.652216 12.849461 20.603206 1.333012 0.897376 0.020047 -0.003456 56714.200000 1 0 0
-1.953222 -14.879816 15.575461 21.629124 1.440276 0.766828 0.003251 -0.004280 555820.000000 1 0 0
-7.061822 -13.850416 13.534061 20.612476 1.099289 0.854500 -0.023531 0.000006 45786.700000 1 0 0
-10.120022 -11.308416 11.516261 19.050443 0.840800 0.921641 0.016970 -0.001453 -409535.000000 1 0 0
-8.202322 -11.238116 13.247961 19.211502 0.940306 0.809881 0.027778 0.013134 488632.000000 1 0 0
-15.134322 -12.317816 7.753961 20.997624 0.683159 1.192564 0.002705 0.006074 314524.000000 1 0 0
-4.734822 -11.945916 13.083361 18.338424 1.193436 0.776401 0.009517 -0.023884 232927.000000 1 0 0
3.557378 -12.213016 13.712561 18.704198 -1.287361 0.747887 -0.005038 -0.013615 411764.000000 1 0 0
6.314178 -13.558716 14.829761 21.062512 -1.134970 0.789665 -0.004680 0.002171 428020.000000 1 0 0
7.017678 -9.027416 16.846361 20.360302 -0.910005 0.596313 0.001667 -0.005658 552776.000000 1 0 0
-5.301422 13.478284 13.526461 19.817526 -1.196053 0.819550 0.008965 -0.005150 334920.000000 1 0 0
-13.360222 -1.723716 17.718661 22.257980 0.128310 0.650041 0.009879 -0.002121 339855.000000 1 0 0
-10.119022 9.255384 13.490161 19.236454 -0.740851 0.793603 0.013751 -0.009961 411264.000000 1 0 0
-7.146522 -8.230516 17.177561 20.344109 0.855776 0.565444 0.006751 -0.004663 -369399.000000 1 0 0
-4.997522 2.252484 18.513861 19.308339 -0.423453 0.287862 0.015337 -0.004182 499540.000000 1 0 0
-15.209122 -3.690816 15.025061 21.695437 0.238069 0.805786 -0.004438 0.002483 86876.100000 1 0 0
-14.808422 2.777684 12.726961 19.722587 -0.185420 0.869382 0.009354 0.006763 226913.000000 1 0 0
-13.840722 10.880784 9.871961 20.184466 -0.666234 1.059754 -0.038051 0.019660 -238796.000000 1 0 0
-4.202622 11.210884 15.755161 19.788154 -1.212140 0.649822 0.000153 -0.008441 159019.000000 1 0 0
-13.215622 12.740284 8.461661 20.213045 -0.767087 1.138867 0.015682 -0.026109 108456.000000 1 0 0
-3.712122 -6.242016 18.494761 19.869544 1.034284 0.374175 0.004816 -0.011149 213600.000000 1 0 0
0.589278 -3.185016 17.558761 17.855018 -1.387849 0.182420 -0.000308 -0.020032 144037.000000 1 0 0
-4.167022 6.424684 21.309061 22.643248 -0.995409 0.344993 0.009539 -0.001427 118550.000000 1 0 0
2.118778 -10.721416 16.403861 19.711028 -1.375689 0.587701 -0.013654 -0.009557 439302.000000 1 0 0
-15.222322 -0.311116 13.806661 20.553339 0.020435 0.834231 -0.005887 0.004439 113219.000000 1 0 0
-13.998522 -5.695516 7.599261 16.915859 0.386411 1.104883 0.006446 -0.005156 244351.000000 1 0 0
10.343778 1.152784 16.438361 19.456165 0.110989 0.564433 0.018624 0.003043 261615.000000 1 0 0
-7.486622 12.251284 11.884561 18.638300 -1.022263 0.879363 0.011285 -0.015654 49439.400000 1 0 0
-1.626722 7.667584 19.688661 21.191541 -1.361740 0.378876 -0.000777 -0.022105 413862.000000 1 0 0
1.222678 -13.292816 15.427861 20.401294 -1.479074 0.713280 -0.011023 -0.018838 669072.000000 1 0 0
-3.267222 -11.579216 17.837561 21.515844 1.295783 0.593402 -0.006428 -0.009455 457062.000000 1 0 0
-2.153622 8.878884 17.057661 19.350360 -1.332836 0.491732 0.000018 -0.001205 443271.000000 1 0 0
-5.202822 -9.219516 20.338861 22.928979 1.057020 0.479908 0.036721 -0.015069 79656.600000 1 0 0
-6.538522 -2.719716 19.108461 20.378479 0.394183 0.354908 0.005235 -0.016942 189456.000000 1 0 0
-10.703722 -8.048016 15.932361 20.812985 0.644709 0.698977 0.033345 -0.011120 156151.000000 1 0 0
-0.268722 6.580084 17.816561 18.994724 -1.529980 0.354056 0.000959 -0.004652 106964.000000 1 0 0
-5.905122 -11.354216 18.848061 22.782407 1.091213 0.596498 -0.006597 0.005635 321570.000000 1 0 0
0.172978 3.518584 18.859461 19.185662 1.521675 0.184666 0.006469 -0.001478 80872.700000 1 0 0
-18.219622 -1.046916 7.786561 19.841401 0.057398 1.167513 -0.023316 0.008788 98535.700000 1 0 0
-1.484322 -8.650316 17.210761 19.319458 1.400860 0.471581 -0.003351 -0.013856 -50574.200000 1 0 0
5.814778 3.413184 15.016161 16.460454 0.530794 0.422036 -0.000034 -0.000351 441637.000000 1 0 0
-13.666522 -6.967316 10.089861 18.360899 0.471464 0.988995 -0.004775 -0.005352 159475.000000 1 0 0
3.914878 8.298884 16.898161 19.228769 1.130015 0.497464 -0.006459 0.000416 24699.000000 1 0 0
6.498278 4.431284 17.790661 19.451774 0.598486 0.416270 0.009005 -0.009608 331559.000000 1 0 0
5.248378 -9.392616 18.500861 21.402069 -1.061240 0.526756 -0.001028 0.009273 333726.000000 1 0 0
-4.477422 -0.847016 19.835961 20.352643 0.186966 0.225808 0.013877 -0.013324 800097.000000 1 0 0
-11.188222 1.975784 17.013661 20.458365 -0.174793 0.588771 0.039524 -0.007712 310911.000000 1 0 0
-16.700322 -4.133516 9.063361 19.445596 0.242635 1.085932 -0.009385 -0.006074 315436.000000 1 0 0
-13.742222 -8.843416 13.588561 21.253321 0.571807 0.877128 0.025423 -0.013435 35974.200000 1 0 0
-14.862822 6.404484 12.900361 20.696381 -0.406863 0.897822 0.011716 -0.009186 277932.000000 1 0 0
1.174278 9.254784 16.954561 19.351669 1.444587 0.503023 -0.010601 -0.014918 327448.000000 1 0 0
-3.773222 -10.480216 15.010061 18.691551 1.225212 0.638417 0.002859 -0.006872 531202.000000 1 0 0
-18.593422 -3.193316 6.963161 20.109655 0.170085 1.217215 0.052488 -0.009510 -284533.000000 1 0 0
-0.756122 -0.632316 21.101861 21.124868 0.696464 0.046676 0.009765 -0.001078 378319.000000 1 0 0
-1.799722 2.421484 20.235161 20.458844 -0.931641 0.148009 0.003088 -0.013506 -129401.000000 1 0 0
-7.840922 2.032684 16.470561 18.354597 -0.253656 0.457061 0.012100 0.008394 602967.000000 1 0 0
2.749378 -2.206716 18.715561 19.044708 -0.676339 0.186187 0.003240 -0.008883 -12031.800000 1 0 0
-12.188322 4.186084 14.439261 19.353830 -0.330828 0.728660 -0.001369 0.000774 260826.000000 1 0 0
-13.579422 -5.436016 12.985761 19.559677 0.380776 0.844768 0.019126 -0.008688 52559.700000 1 0 0
-17.257822 -1.035116 10.385461 20.168334 0.059908 1.029860 -0.014536 0.002349 -324796.000000 1 0 0
-7.298922 7.861184 14.588161 18.107648 -0.822469 0.634049 0.014045 -0.007043 20335.600000 1 0 0
-9.300622 0.333784 14.539661 17.263103 -0.035873 0.569373 0.014567 0.007618 86908.500000 1 0 0
7.392178 -0.857416 15.119561 16.851723 -0.115474 0.457382 -0.002329 -0.002595 231625.000000 1 0 0
3.924578 6.252984 18.419861 19.844228 1.010306 0.381190 -0.000180 -0.001155 37773.500000 1 0 0
1.904278 0.582484 19.918061 20.017360 0.296844 0.099647 0.004418 -0.003174 245327.000000 1 0 0
-6.797322 7.114284 17.874861 20.404099 -0.808178 0.503203 0.008219 -0.004005 409194.000000 1 0 0
7.506078 -3.083916 17.216561 19.033174 -0.389830 0.440460 -0.002245 0.013511 467235.000000 1 0 0
-16.579222 2.351384 9.439861 19.222658 -0.140888 1.057467 0.007365 0.002297 231127.000000 1 0 0
3.891578 -6.020516 19.074961 20.377564 -0.996966 0.359489 -0.002672 -0.011655 70004.200000 1 0 0
-3.547422 -3.775816 20.738361 21.375701 0.816576 0.244808 0.002168 -0.008186 387058.000000 1 0 0
-9.502622 5.761684 14.583561 18.335132 -0.545058 0.651147 0.016971 -0.001152 -370.535000 1 0 0
6.912878 2.400784 19.785461 21.095405 0.334260 0.354259 0.017168 -0.006423 67206.200000 1 0 0
-7.311322 11.259684 14.444061 19.719706 -0.994888 0.748856 0.023418 -0.020106 280616.000000 1 0 0
-14.525622 4.989284 9.345761 17.978595 -0.330856 1.024148 0.005723 -0.000179 153553.000000 1 0 0
1.219878 -5.487416 20.343761 21.106123 -1.352049 0.269592 0.005105 -0.009959 310319.000000 1 0 0
-6.643422 -8.926316 14.297361 18.117083 0.930985 0.661349 0.029637 0.012167 263289.000000 1 0 0
-12.755922 10.005684 6.582461 17.497315 -0.665153 1.185107 -0.003753 -0.019816 95217.000000 1 0 0
-19.438122 1.990684 8.041661 21.129877 -0.102056 1.180370 -0.031668 0.013374 84068.600000 1 0 0
-15.782522 9.067284 6.140761 19.209700 -0.521469 1.245415 0.014461 -0.003886 21295.000000 1 0 0
-12.578822 8.072584 14.210161 20.623337 -0.570561 0.810642 0.012385 -0.004054 263143.000000 1 0 0
-16.682922 8.963984 10.647861 21.726708 -0.493052 1.058613 0.010515 -0.007213 395862.000000 1 0 0
2.580278 10.883184 15.703661 19.279691 1.338006 0.618898 -0.015903 0.002753 94637.100000 1 0 0
1.779778 14.300984 13.588161 19.807167 1.446981 0.814788 -0.009395 -0.009883 370928.000000 1 0 0
8.838178 5.163684 16.756461 19.635580 0.528756 0.548376 0.004895 0.001058 124122.000000 1 0 0
-0.220322 13.388484 13.355161 18.911910 -1.554342 0.786712 -0.008813 0.011919 63828.300000 1 0 0
4.267578 12.527184 14.765461 19.828297 1.242461 0.730762 -0.000583 0.002210 124627.000000 1 0 0
-3.513522 -4.476516 -13.352439 14.514533 0.905344 2.738713 -0.000921 -0.005582 171227.000000 1 0 0
5.605178 -12.208116 16.889961 21.580707 -1.140371 0.671898 -0.031036 0.016670 270176.000000 1 0 0
8.411778 -14.148816 7.070061 17.914597 -1.034415 1.165105 0.003661 0.004795 241841.000000 1 0 0
-0.288122 15.155584 0.571161 15.169079 -1.551788 1.533134 -0.003482 0.000749 -248965.000000 1 0 0
-14.449722 7.604984 8.790561 18.544654 -0.484471 1.076944 0.028435 0.003447 59338.300000 1 0 0
-15.649022 -9.788416 5.747261 19.332253 0.558957 1.268945 -0.002346 -0.001514 175855.000000 1 0 0
9.784478 -10.392116 11.557561 18.365982 -0.815505 0.890155 0.036932 0.005134 -55537.000000 1 0 0
-24.865522 6.402784 31.394887 40.557721 -0.252022 0.685537 0.024839 -0.004920 -477637.000000 0 0 1
-23.881022 5.401284 31.457347 39.862786 -0.222432 0.661388 0.018229 -0.005815 14903.900000 0 0 1
-22.999722 5.563884 32.525397 40.222449 -0.237351 0.628963 0.007414 -0.002722 -503898.000000 0 0 1
-21.559122 5.105584 32.327757 39.191154 -0.232534 0.600817 0.002264 -0.001641 -482231.000000 0 0 1
-21.346922 3.744984 32.616007 39.160182 -0.173667 0.586493 -0.008629 0.000408 639102.000000 0 0 1
-20.024722 3.294784 32.271537 38.122135 -0.163075 0.561363 -0.005453 0.004481 701909.000000 0 0 1
-19.772022 1.928884 32.943307 38.469662 -0.097248 0.542646 -0.002752 -0.001105 -19876.200000 0 0 1
-20.497122 0.854784 32.364827 38.318986 -0.041678 0.564949 -0.000293 -0.005082 227009.000000 0 0 1
-20.451722 -0.226616 33.298151 39.078013 0.011080 0.550823 -0.005676 -0.003513 -303661.000000 0 0 1
-21.008022 -1.596416 32.944357 39.105194 0.075845 0.568973 -0.002904 -0.013457 -481971.000000 0 0 1
-20.209122 -2.411916 32.105477 38.012992 0.118786 0.564993 0.002640 -0.014457 -79714.500000 0 0 1
-20.326622 -3.776316 32.404387 38.437955 0.183688 0.567903 0.005448 -0.017876 -424043.000000 0 0 1
-21.662022 -4.512516 32.181927 39.054864 0.205377 0.602329 0.006553 -0.012353 -554472.000000 0 0 1
-22.616522 -4.295416 33.170938 40.376587 0.187688 0.606691 0.011878 -0.011301 -301764.000000 0 0 1
-22.624622 -4.996116 34.381533 41.459914 0.217339 0.592993 0.003405 -0.007618 -563303.000000 0 0 1
-23.622222 -4.373316 -33.701429 41.387457 0.183063 2.522303 0.004243 -0.001218 -59633.600000 0 0 1
-23.710422 -4.947316 -32.444449 40.488299 0.205704 2.500310 0.004416 0.000122 66817.400000 0 0 1
-24.801922 -4.382716 -31.738539 40.517631 0.174903 2.470796 -0.006956 0.000330 -235953.000000 0 0 1
-25.024722 -4.972216 -30.302909 39.613457 0.196138 2.441783 -0.020614 0.008710 -1298640.000000 0 0 1
-25.417742 -6.331116 -30.288679 40.044335 0.244115 2.428555 -0.013686 0.001820 462634.000000 0 0 1
-25.099172 -6.915416 -29.070139 39.023896 0.268853 2.411229 -0.029333 0.007462 -275757.000000 0 0 1
-25.566082 -8.367916 -28.884359 39.470911 0.316316 2.391739 -0.026346 0.001194 37319.600000 0 0 1
-26.955812 -8.500516 -28.630419 40.231524 0.305479 2.362628 -0.005611 -0.010693 23936.400000 0 0 1
-27.239572 -9.888916 -28.696909 40.783545 0.348240 2.351303 -0.015996 -0.002482 -425970.000000 0 0 1
-28.645842 -10.193216 -28.213829 41.478984 0.341864 2.318826 0.020834 -0.006431 -537946.000000 0 0 1
-28.776632 -11.447216 -27.588719 41.476147 0.378605 2.298519 0.020870 -0.005009 -11507.900000 0 0 1
-30.145342 -11.622716 -27.250449 42.266017 0.367993 2.271475 0.020298 0.000902 264655.000000 0 0 1
-30.382232 -12.401516 -25.939419 41.829787 0.387541 2.239690 0.016593 0.008059 13797.900000 0 0 1
-29.896452 -11.660716 -24.793039 40.552003 0.371888 2.228611 0.023429 0.003876 323977.000000 0 0 1
-29.940552 -12.326016 -23.533539 40.027426 0.390537 2.199300 0.022148 0.005121 -161520.000000 0 0 1
-29.216602 -11.611516 -22.363039 38.581637 0.378288 2.189070 0.022036 0.002207 27304.200000 0 0 1
-29.065242 -12.350116 -21.125739 37.994875 0.401795 2.160381 0.015224 0.005706 526671.000000 0 0 1
-27.980382 -13.288816 -21.043339 37.447517 0.443394 2.167528 0.011744 0.005218 120584.000000 0 0 1
-27.716872 -13.523916 -19.481739 36.478206 0.453946 2.134198 0.012290 -0.006207 -146369.000000 0 0 1
-27.325282 -12.353116 -18.839539 35.414669 0.424579 2.131722 0.006949 -0.010048 155814.000000 0 0 1
-26.926592 -12.674416 -17.501839 34.525303 0.439936 2.102413 -0.010015 -0.005526 727.487000 0 0 1
-26.699502 -11.363916 -16.705839 33.482638 0.402398 2.093172 -0.005831 -0.012548 30554.300000 0 0 1
-25.459282 -10.748916 -17.004739 32.448042 0.399497 2.122408 0.015315 -0.022155 342550.000000 0 0 1
-25.424872 -9.525416 -16.281139 31.658066 0.358463 2.110965 0.029341 -0.019063 -1152070.000000 0 0 1
-24.070022 -8.879916 -16.336339 30.415372 0.353430 2.137801 0.046863 -0.021033 38799.800000 0 0 1
-23.021922 -9.581116 -15.593739 29.410396 0.394371 2.129647 0.021375 -0.029403 2026290.000000 0 0 1
-21.835122 -8.733416 -15.514039 28.173224 0.380481 2.153958 0.045186 -0.042233 1042650.000000 0 0 1
-20.781222 -9.145816 -14.446939 26.911321 0.414591 2.137478 0.019567 -0.013046 -333091.000000 0 0 1
-20.068722 -10.302016 -14.801439 26.980878 0.474260 2.151473 0.014869 -0.010569 -470345.000000 0 0 1
-19.063522 -10.377716 -13.850539 25.747860 0.498515 2.138776 0.015955 -0.000490 -273937.000000 0 0 1
-17.951222 -11.443016 -14.146339 25.559889 0.567502 2.157307 0.017888 0.001597 7894.300000 0 0 1
-17.091522 -11.204316 -15.216639 25.479461 0.580266 2.210817 0.014057 -0.007610 -583265.000000 0 0 1
-17.663022 -11.400416 -16.492539 26.719949 0.573163 2.236022 0.014044 -0.015080 -648883.000000 0 0 1
-16.912022 -10.873216 -17.719239 26.799529 0.571388 2.293183 0.001925 -0.009562 -349125.000000 0 0 1
-17.551622 -11.108816 -18.949439 28.116659 0.564276 2.310349 -0.003846 -0.004753 210034.000000 0 0 1
-16.988222 -10.385316 -20.061239 28.264957 0.548705 2.359949 -0.003301 -0.003628 87925.800000 0 0 1
-17.835522 -10.662116 -21.303639 29.759564 0.538802 2.368649 0.000041 -0.002957 749379.000000 0 0 1
-19.166322 -10.126016 -21.291939 30.384713 0.486049 2.347238 0.015160 -0.016673 458274.000000 0 0 1
-19.964022 -10.751116 -22.251339 31.769022 0.493990 2.346768 0.015811 -0.007769 -433392.000000 0 0 1
-21.159822 -9.884416 -22.609439 32.505792 0.437009 2.339983 0.018117 -0.013445 -355378.000000 0 0 1
-20.790822 -8.705216 -23.317339 32.430501 0.396526 2.373150 0.011052 -0.016852 761271.000000 0 0 1
-21.980422 -8.182216 -23.901439 33.486810 0.356358 2.365644 0.013480 -0.021725 499720.000000 0 0 1
-21.624622 -7.558816 -25.226739 34.075627 0.336271 2.404337 0.003548 -0.026816 163137.000000 0 0 1
-20.991322 -8.487516 -26.117209 34.565621 0.384237 2.427341 0.015809 -0.021874 131824.000000 0 0 1
-20.360522 -7.768516 -27.141709 34.807659 0.364499 2.465083 0.011992 -0.023492 -599231.000000 0 0 1
-19.163122 -8.414616 -27.807749 34.803763 0.413757 2.496405 0.040798 -0.017792 -677576.000000 0 0 1
-19.419522 -9.446516 -28.766759 35.970557 0.452744 2.497643 0.040668 -0.012403 405737.000000 0 0 1
-18.213722 -10.007616 -29.287809 35.911946 0.502425 2.524467 0.008696 -0.007732 218575.000000 0 0 1
-18.425822 -11.153216 -30.251359 37.135561 0.544310 2.522870 0.022943 -0.002960 -220365.000000 0 0 1
-18.824322 -10.698816 -31.534259 38.252180 0.516823 2.539899 0.025488 -0.002630 333621.000000 0 0 1
-18.810522 -11.889416 -32.303609 39.226485 0.563662 2.538376 0.002885 -0.000040 53386.700000 0 0 1
-19.270422 -11.625216 -33.770319 40.582377 0.542818 2.553756 -0.011640 -0.004221 -252217.000000 0 0 1
-18.307822 -10.926716 -34.517148 40.570963 0.538088 2.588273 0.004979 -0.006707 -194848.000000 0 0 1
-18.523822 -10.902516 33.140865 39.500807 0.531971 0.575368 0.000330 -0.012185 -642733.000000 0 0 1
-18.148222 -12.170716 32.394457 39.075377 0.590740 0.593435 0.020036 -0.011116 610581.000000 0 0 1
-16.741322 -12.209716 32.080387 38.190316 0.630131 0.573488 0.025661 -0.013730 1012510.000000 0 0 1
-16.446322 -12.876716 30.892687 37.291412 0.664260 0.594528 0.032531 -0.017727 -191615.000000 0 0 1
-16.508622 -14.444316 30.930647 37.919359 0.718805 0.616866 0.025675 -0.013559 -711500.000000 0 0 1
-17.798122 -14.987916 30.992387 38.754855 0.699894 0.643995 0.017489 -0.011119 -435157.000000 0 0 1
-17.774322 -16.379116 31.349667 39.585396 0.744570 0.656800 0.024270 -0.011523 -238848.000000 0 0 1
-17.949122 -16.650016 32.880857 40.994448 0.747868 0.640025 0.003487 -0.016602 -260948.000000 0 0 1
-16.856522 -16.153116 33.617756 40.929439 0.764092 0.607007 0.015162 -0.013145 257682.000000 0 0 1
-17.346722 -15.869616 -34.121491 41.437057 0.740958 2.538268 0.007012 -0.008123 787402.000000 0 0 1
-16.243122 -15.201316 -33.242029 39.999394 0.752279 2.551813 0.016302 -0.006283 279238.000000 0 0 1
-16.072322 -13.838016 -33.530359 39.674869 0.710837 2.577602 0.019720 -0.005630 -207371.000000 0 0 1
-14.917322 -13.305716 -32.913489 38.508004 0.728358 2.595804 0.022698 -0.003593 40418.800000 0 0 1
-15.107122 -13.008916 -31.424179 37.214729 0.710910 2.576244 0.027415 -0.007121 -159295.000000 0 0 1
-15.268622 -14.176416 -30.619439 37.035816 0.748322 2.544106 0.023630 -0.013196 -216765.000000 0 0 1
-15.715422 -13.964416 -29.323179 36.080857 0.726470 2.519580 0.029128 -0.011233 -326157.000000 0 0 1
-15.757522 -15.285616 -28.452669 35.937501 0.770198 2.484426 0.016948 0.000228 376322.000000 0 0 1
-14.489222 -15.806316 -28.066379 35.319950 0.828846 2.489198 0.021759 -0.010672 303576.000000 0 0 1
-13.828922 -16.504716 -29.132019 36.225948 0.873383 2.505083 0.015280 -0.014490 -978050.000000 0 0 1
-12.378122 -16.799716 -28.837699 35.595804 0.935793 2.515193 0.021591 -0.014435 -561946.000000 0 0 1
-11.497822 -15.666216 -28.854289 34.787933 0.937663 2.548890 0.020480 -0.015905 20969.000000 0 0 1
-10.178822 -16.122516 -28.631619 34.399325 1.007649 2.554096 0.029048 -0.020276 403334.000000 0 0 1
-9.129222 -14.988916 -28.466789 33.442016 1.023738 2.589118 0.019529 -0.017485 -178118.000000 0 0 1
-9.388322 -14.101216 -27.394129 32.209055 0.983407 2.587751 0.016730 -0.018364 -819673.000000 0 0 1
-8.328922 -13.353016 -26.895119 31.161217 1.013098 2.612164 0.010619 -0.014909 -550421.000000 0 0 1
-8.083522 -12.005116 -27.636189 31.196556 0.978188 2.659169 0.015340 -0.017483 -76959.700000 0 0 1
-7.620122 -12.126516 -29.031689 32.372174 1.009766 2.683302 0.027749 -0.015153 342616.000000 0 0 1
-7.598022 -10.879516 -29.739739 32.566024 0.961159 2.721899 0.022695 -0.018067 103928.000000 0 0 1
-6.517522 -10.797016 -30.861189 33.338666 1.027704 2.753646 0.019504 -0.003739 524718.000000 0 0 1
-5.171322 -10.786216 -30.369169 32.640029 1.123733 2.766373 0.028286 -0.005867 1158500.000000 0 0 1
-4.202622 -10.397016 -31.370069 33.314280 1.186662 2.798267 0.038139 -0.006937 568722.000000 0 0 1
-4.157022 -8.860016 -31.762419 33.236005 1.132100 2.842699 0.033667 -0.005307 89179.200000 0 0 1
-2.910022 -8.568016 -32.434659 33.673228 1.243383 2.869528 0.032972 -0.006903 927372.000000 0 0 1
-2.899822 -7.219816 -32.871759 33.779983 1.188870 2.909180 0.015720 -0.007456 -117517.000000 0 0 1
-1.476022 -6.863216 -33.320579 34.052069 1.358960 2.933945 0.025960 -0.009681 10409.000000 0 0 1
-1.098222 -7.468816 34.478252 35.295030 1.424802 0.215552 0.030807 -0.019841 145499.000000 0 0 1
0.195578 -6.956516 34.173451 34.874863 -1.542689 0.200898 0.018494 -0.005526 412076.000000 0 0 1
0.763978 -7.540616 32.864347 33.726990 -1.469826 0.226658 0.004765 -0.004194 -340930.000000 0 0 1
0.398178 -6.867116 31.676017 32.414285 -1.512878 0.213836 -0.006100 -0.001043 77028.600000 0 0 1
0.819978 -7.610216 30.599217 31.542032 -1.463463 0.245116 -0.001329 -0.004406 -219881.000000 0 0 1
0.393578 -7.129416 29.230717 30.090169 -1.515648 0.239581 0.002889 0.000248 29746.400000 0 0 1
1.068078 -5.905916 28.854387 29.471957 -1.391881 0.205076 -0.006382 0.010189 306737.000000 0 0 1
0.819778 -5.394616 27.564467 28.099355 -1.419988 0.195429 -0.006392 0.012138 -565524.000000 0 0 1
-0.399422 -4.510516 27.394637 27.766354 1.482473 0.163813 0.005057 0.014937 493567.000000 0 0 1
-1.683422 -5.103416 27.508877 28.028861 1.252173 0.192922 0.007139 0.010827 873515.000000 0 0 1
-2.848722 -4.366516 27.122757 27.619298 0.992735 0.189906 0.000829 0.000808 151769.000000 0 0 1
-4.163122 -4.981716 27.518777 28.274231 0.874675 0.231684 0.000386 0.001244 -862597.000000 0 0 1
-4.769722 -5.745216 26.512437 27.543911 0.877906 0.274534 -0.001836 0.002159 262057.000000 0 0 1
-6.043322 -6.169116 27.020717 28.367215 0.795698 0.309345 -0.007526 0.000560 846786.000000 0 0 1
-6.263822 -7.707916 26.864557 28.641785 0.888391 0.354126 -0.004098 0.002070 168859.000000 0 0 1
-5.415122 -8.373316 27.777017 29.512686 0.996736 0.344664 0.003500 -0.003403 57023.200000 0 0 1
-5.703122 -9.725116 27.897887 30.089792 1.040413 0.384051 0.006986 -0.005227 -81710.200000 0 0 1
-4.896322 -10.365716 29.032867 31.214250 1.129506 0.376068 0.012534 -0.012053 -192618.000000 0 0 1
-4.984222 -11.758716 29.046507 31.730260 1.169879 0.414247 0.016700 -0.022061 242607.000000 0 0 1
-4.364722 -12.324616 30.214207 32.921805 1.230432 0.408402 0.027249 -0.029914 -41117.900000 0 0 1
-4.470122 -13.848316 30.256187 33.573720 1.258563 0.448297 0.031244 -0.027780 375594.000000 0 0 1
-5.782222 -14.371416 30.441077 34.155978 1.188273 0.470731 0.039136 -0.032000 -61747.100000 0 0 1
-5.813022 -15.821016 30.227857 34.609523 1.218684 0.508662 0.037375 -0.027084 -162546.000000 0 0 1
-6.108822 -16.461016 31.620907 36.168557 1.215442 0.506876 0.046318 -0.029696 -718438.000000 0 0 1
-7.377022 -16.298616 32.137637 36.781694 1.145769 0.507957 0.053701 -0.029785 -1205780.000000 0 0 1
-7.338722 -16.587916 33.525108 38.117564 1.154269 0.495947 0.049384 -0.030236 -433217.000000 0 0 1
-8.683722 -17.087116 34.057701 39.080731 1.100608 0.512604 0.055162 -0.023855 121107.000000 0 0 1
-9.244622 -18.280216 33.411270 39.191100 1.102585 0.550005 0.045585 -0.025738 485222.000000 0 0 1
-9.697422 -18.162916 32.038977 38.084479 1.080388 0.571185 0.038455 -0.022338 -734333.000000 0 0 1
-10.455722 -19.464016 31.698497 38.638902 1.077847 0.608725 0.035623 -0.021600 -291097.000000 0 0 1
-11.557222 -19.778316 32.517747 39.776312 1.041973 0.613713 0.045000 -0.021409 149242.000000 0 0 1
-11.900722 -21.189116 32.425777 40.522054 1.059058 0.643166 0.032958 -0.014493 -105446.000000 0 0 1
-11.244822 -22.039816 33.550619 41.687451 1.099018 0.635435 0.033710 -0.011198 1577070.000000 0 0 1
-9.800922 -22.273216 33.419059 41.339905 1.156263 0.629372 0.023818 -0.011920 2031030.000000 0 0 1
-9.192222 -23.088216 34.452167 42.479577 1.191899 0.624887 0.027738 -0.016877 440067.000000 0 0 1
-9.713022 -24.579716 -34.500639 43.460319 1.194466 2.487898 0.031056 -0.005604 -163735.000000 0 0 1
-9.212122 -25.446246 33.566456 43.117068 1.223451 0.678531 0.025458 0.000182 156381.000000 0 0 1
-9.550922 -26.768056 33.934542 44.264004 1.228074 0.697205 0.036788 0.000286 -904761.000000 0 0 1
-8.945522 -27.728146 32.846417 43.906259 1.258723 0.725597 0.026097 0.008445 391786.000000 0 0 1
-7.549922 -27.680216 32.631417 43.451180 1.304518 0.721236 0.026868 0.004762 375680.000000 0 0 1
-6.745622 -28.081536 33.754066 44.423114 1.335048 0.707743 0.019579 0.002089 -390081.000000 0 0 1
-5.289022 -27.586446 33.791827 43.941704 1.381370 0.693498 0.011157 -0.002457 83869.600000 0 0 1
-5.075422 -26.357906 34.434893 43.660749 1.380567 0.662117 0.008589 0.004176 -42178.000000 0 0 1
-4.811422 -25.273686 33.526311 42.260176 1.382675 0.654535 0.039085 -0.004881 353281.000000 0 0 1
-4.130422 -24.023716 34.197503 41.996054 1.400530 0.619269 0.042291 -0.003375 -468872.000000 0 0 1
-2.890122 -24.177016 -34.273792 42.042523 1.451821 2.523901 0.023226 -0.003635 -797357.000000 0 0 1
-2.489322 -22.889416 -33.856279 40.943495 1.462468 2.544373 0.028077 -0.006788 -145294.000000 0 0 1
33.642623 -15.696716 2.173461 37.187860 -0.436550 1.512318 0.076468 -0.041743 -734449.000000 0 0 1
34.586413 -16.117816 3.095661 38.282987 -0.436093 1.489845 0.068207 -0.031949 -417331.000000 0 0 1
34.088283 -16.526516 4.343461 38.131384 -0.451426 1.456641 0.066155 -0.035379 -84404.700000 0 0 1
35.187085 -16.607616 5.437861 39.287584 -0.440982 1.431939 0.049745 -0.012902 117755.000000 0 0 1
-34.477109 -17.787516 5.435261 39.174084 0.476304 1.431601 0.066677 -0.019865 253899.000000 0 0 1
-33.640302 -17.797616 6.603161 38.626763 0.486622 1.399005 0.051402 -0.013569 350060.000000 0 0 1
-32.372932 -18.663716 6.612561 37.948215 0.522978 1.395650 0.024773 -0.013294 -16319.600000 0 0 1
-32.741542 -20.004216 6.654261 38.941706 0.548449 1.399076 0.053107 -0.017151 28916.700000 0 0 1
-31.831012 -20.706416 7.453461 38.697843 0.576734 1.376979 0.019431 -0.005295 -329852.000000 0 0 1
-32.133672 -22.202916 7.558061 39.782743 0.604630 1.379651 0.004681 0.001689 -385063.000000 0 0 1
-31.851332 -22.846816 6.328961 39.705669 0.622240 1.410717 0.022418 0.005835 105729.000000 0 0 1
-32.152782 -24.224316 6.275661 40.743132 0.645682 1.416151 0.027384 -0.005972 31524.100000 0 0 1
-31.563302 -24.959716 4.991661 40.548072 0.669095 1.447378 0.026475 -0.007273 72530.600000 0 0 1
-32.306642 -24.762216 3.804461 40.882275 0.653962 1.477603 0.034652 -0.007165 142707.000000 0 0 1
-31.729102 -25.447196 2.701061 40.762623 0.675968 1.504485 0.033786 0.003364 -301808.000000 0 0 1
-32.427072 -25.141896 1.373961 41.055057 0.659520 1.537324 0.026465 0.001370 -203499.000000 0 0 1
-33.640312 -25.876936 1.145961 42.457033 0.655691 1.543802 0.033067 0.001487 774706.000000 0 0 1
-34.378349 -25.158016 0.112761 42.600580 0.631750 1.568149 0.037115 0.001780 -204365.000000 0 0 1
35.053820 -24.155916 0.688861 42.576439 -0.603379 1.554616 0.059537 -0.000770 -524517.000000 0 0 1
33.752233 -24.526616 0.204661 41.723016 -0.628400 1.565891 0.040646 -0.001422 830017.000000 0 0 1
32.820133 -23.574916 0.768161 40.416926 -0.622907 1.551789 0.067969 -0.012462 1399040.000000 0 0 1
31.292743 -23.679116 0.399561 39.244057 -0.647773 1.560615 0.025463 -0.006553 1016750.000000 0 0 1
31.112893 -23.479916 -1.002039 38.991315 -0.646482 1.596498 0.035029 -0.012509 47675.400000 0 0 1
29.733023 -23.473216 -1.308239 37.904565 -0.668285 1.605317 0.034165 -0.004632 170214.000000 0 0 1
29.403983 -23.168416 -2.778939 37.537878 -0.667341 1.644894 0.015463 0.008677 6367.460000 0 0 1
29.684173 -21.845416 -3.124239 36.988285 -0.634434 1.655363 0.032843 -0.012112 118859.000000 0 0 1
29.401523 -21.592816 -4.494539 36.754594 -0.633450 1.693388 0.033748 -0.029876 215027.000000 0 0 1
29.571303 -20.091516 -4.793839 36.070929 -0.596784 1.704091 0.029525 -0.032698 687033.000000 0 0 1
28.450973 -19.391716 -4.257639 34.693285 -0.598259 1.693829 0.029112 -0.033223 757006.000000 0 0 1
28.757673 -17.998116 -4.412339 34.211178 -0.559213 1.700130 0.033422 -0.032567 245097.000000 0 0 1
27.896003 -17.400416 -3.268339 33.040029 -0.557707 1.669879 0.036192 -0.032251 -178979.000000 0 0 1
28.459663 -17.256216 -1.950539 33.339677 -0.545068 1.629335 0.037765 -0.024729 -10132.900000 0 0 1
28.974083 -18.441116 -1.312339 34.369965 -0.566804 1.608988 0.036307 -0.015576 -488288.000000 0 0 1
28.002303 -19.607416 -1.061739 34.200980 -0.610865 1.601845 0.022506 -0.005964 -787412.000000 0 0 1
27.104873 -19.328916 -0.054339 33.290901 -0.619474 1.572429 0.014098 0.005867 -843243.000000 0 0 1
26.270323 -20.440416 0.054761 33.285785 -0.661232 1.569151 0.000222 0.011181 -1070390.000000 0 0 1
25.141763 -20.189616 1.033761 32.261394 -0.676586 1.538748 0.004005 0.013725 -1053430.000000 0 0 1
24.363163 -21.374016 1.298761 32.436077 -0.720136 1.530745 0.002905 0.014990 82813.900000 0 0 1
23.798063 -21.171316 2.577661 31.956483 -0.727053 1.490047 -0.006679 0.017588 1041800.000000 0 0 1
22.353263 -20.494116 2.579561 30.435691 -0.742035 1.485940 -0.006003 0.015183 457203.000000 0 0 1
22.241263 -19.139616 2.194861 29.424753 -0.710584 1.496135 0.008525 0.008293 190181.000000 0 0 1
22.568263 -18.190116 3.223561 29.165016 -0.678391 1.460042 0.007801 0.013970 -143885.000000 0 0 1
22.516263 -16.729216 2.700161 28.180484 -0.638996 1.474832 0.009421 0.013199 194592.000000 0 0 1
21.204863 -16.402716 2.269561 26.904391 -0.658395 1.486339 0.002089 0.020708 102281.000000 0 0 1
21.107963 -15.048516 1.808861 25.986072 -0.619352 1.501131 0.009695 0.006813 3055.230000 0 0 1
19.765063 -14.850616 1.078461 24.745941 -0.644369 1.527201 0.008208 0.011431 423173.000000 0 1 0
18.642663 -14.625616 1.952261 23.775384 -0.665233 1.488591 0.006703 0.005408 917447.000000 0 1 0
17.869163 -13.436416 1.749161 22.425518 -0.644737 1.492718 0.017254 -0.000439 -368136.000000 0 1 0
18.488863 -12.078116 2.184361 22.192125 -0.578667 1.472207 0.031102 0.000098 -268074.000000 0 1 0
19.518663 -11.618416 1.312961 22.752795 -0.536917 1.513059 0.029609 -0.003412 834217.000000 0 1 0
20.036963 -10.335116 1.724761 22.611265 -0.476210 1.494443 0.033367 -0.009634 -25246.500000 0 1 0
20.908563 -9.527016 0.745461 22.988862 -0.427544 1.538364 0.041080 -0.001617 110478.000000 0 1 0
20.167263 -9.111816 -0.404039 22.133842 -0.424360 1.589052 0.031716 0.002723 1056700.000000 0 1 0
21.060363 -8.717216 -1.449039 22.839187 -0.392445 1.634284 0.028291 0.003931 -233487.000000 0 1 0
20.396963 -8.558616 -2.816039 22.298343 -0.397290 1.697424 0.035583 0.002199 -261081.000000 0 1 0
21.213163 -8.023316 -3.874439 23.008329 -0.361594 1.739995 0.021004 0.005199 636674.000000 0 1 0
22.113763 -8.952316 -4.481739 24.274441 -0.384663 1.756490 0.011799 0.005878 -430375.000000 0 1 0
21.496463 -10.077416 -5.309639 24.327855 -0.438373 1.790821 0.002765 0.000700 -378356.000000 0 1 0
21.004263 -9.757216 -6.583439 24.077459 -0.434875 1.847751 -0.002180 -0.006914 -184494.000000 0 1 0
19.668263 -9.344716 -6.606239 22.755366 -0.443543 1.865353 -0.001487 -0.001491 -700873.000000 0 1 0
19.057663 -9.281716 -8.050239 22.674901 -0.453221 1.933741 -0.002973 0.006128 -246183.000000 0 1 0
19.004463 -10.566116 -8.655539 23.403649 -0.507423 1.949630 -0.001720 0.001075 851691.000000 0 1 0
20.162763 -10.940616 -9.408639 24.794286 -0.497156 1.960018 -0.003098 -0.005875 111197.000000 0 1 0
19.947763 -12.325416 -10.039139 25.507126 -0.553466 1.975321 -0.015076 -0.003977 50124.300000 0 0 1
18.894063 -12.482616 -10.978839 25.166173 -0.583835 2.022228 -0.007113 0.007299 252169.000000 0 0 1
18.713063 -13.801916 -11.358539 25.878332 -0.635489 2.025194 -0.014869 0.004518 -489801.000000 0 0 1
17.421863 -14.128816 -12.113739 25.492890 -0.681401 2.065966 -0.002876 0.003399 -511372.000000 0 0 1
17.236563 -15.502316 -12.393439 26.287226 -0.732476 2.061745 -0.004637 0.003011 148479.000000 0 0 1
16.334663 -15.763516 -13.439639 26.380553 -0.767606 2.105345 0.008893 0.002941 -402173.000000 0 0 1
16.451863 -17.189716 -13.993639 27.603842 -0.807327 2.102434 0.004762 0.000680 -474015.000000 0 0 1
15.752163 -18.092616 -13.146439 27.355114 -0.854441 2.072117 0.001362 0.003912 435155.000000 0 0 1
15.980963 -19.496516 -13.319139 28.511486 -0.884168 2.056861 -0.001401 0.002554 -718886.000000 0 0 1
15.024863 -20.295616 -12.422739 28.142193 -0.933532 2.027985 0.001533 0.001982 -154319.000000 0 0 1
13.692063 -20.035416 -12.820439 27.445476 -0.971303 2.056832 0.002670 -0.002654 203690.000000 0 0 1
12.779163 -20.667216 -11.892839 27.053289 -1.017008 2.025958 0.008430 -0.001425 63600.700000 0 0 1
11.313463 -20.469116 -12.277739 26.414429 -1.065876 2.054218 0.013058 -0.000676 -89347.300000 0 0 1
10.442763 -21.145116 -11.363039 26.177966 -1.112071 2.019801 0.006151 -0.001857 -54217.200000 0 0 1
9.093363 -20.825816 -11.610139 25.518605 -1.159109 2.043132 0.013598 0.005925 -112590.000000 0 0 1
8.119163 -21.425416 -10.600839 25.245734 -1.208567 2.004138 0.014740 0.001132 -428254.000000 0 0 1
7.932463 -22.811016 -10.754039 26.437016 -1.236130 1.989722 0.021730 -0.000116 -34361.600000 0 0 1
6.952563 -23.402916 -9.933439 26.357311 -1.282020 1.957218 0.020806 -0.009040 -30012.600000 0 0 1
7.017463 -24.907416 -10.023739 27.750667 -1.296173 1.940358 0.017013 -0.010473 -234571.000000 0 0 1
8.182263 -25.384056 -9.433839 28.289522 -1.258973 1.910783 0.012295 -0.003593 -704367.000000 0 0 1
8.516563 -26.666056 -9.945339 29.707241 -1.261657 1.912166 0.006016 -0.005417 1039500.000000 0 0 1
10.028663 -27.045536 -9.721539 30.439176 -1.215707 1.895867 0.016187 -0.009272 985737.000000 0 0 1
10.358863 -27.501986 -8.409339 30.567667 -1.210572 1.849496 0.017909 -0.008677 1229430.000000 0 0 1
11.752263 -27.907866 -8.256939 31.386968 -1.172226 1.836998 0.021369 -0.001062 896357.000000 0 0 1
12.148563 -28.126996 -6.816439 31.387567 -1.163080 1.789711 0.020583 -0.006868 140945.000000 0 0 1
11.520763 -29.262056 -6.159439 32.045821 -1.195724 1.764207 0.029707 -0.012303 950490.000000 0 0 1
10.096663 -29.363076 -6.065639 31.637396 -1.239606 1.763714 0.023898 -0.007108 57906.900000 0 0 1
9.611463 -30.294756 -5.015239 32.176158 -1.263576 1.727303 0.029970 -0.010662 -181967.000000 0 0 1
9.845563 -31.697626 -5.250639 33.604224 -1.269635 1.727689 0.041272 -0.016317 454548.000000 0 0 1
8.892963 -32.254786 -6.182439 34.024676 -1.301770 1.753516 0.047263 -0.013706 498389.000000 0 0 1
9.329463 -33.725946 -6.495939 35.590386 -1.300919 1.754345 0.038026 -0.016308 -138767.000000 0 0 1
9.032663 34.502434 -5.391639 36.070441 1.314745 1.720834 0.031234 -0.016188 83876.100000 0 0 1
9.201463 33.137547 -5.691339 34.859077 1.299945 1.734798 0.033822 -0.012665 -127753.000000 0 0 1
8.877163 32.182968 -4.508239 33.687856 1.301655 1.705023 0.031360 -0.004933 1617560.000000 0 0 1
7.445763 31.897838 -4.437739 33.054575 1.341477 1.705458 0.028011 -0.005103 972726.000000 0 0 1
7.154463 30.967658 -3.471039 31.972336 1.343750 1.679575 0.015904 -0.005767 583731.000000 0 0 1
5.724763 30.357198 -3.682139 31.110939 1.384405 1.689430 0.015501 -0.007655 676942.000000 0 0 1
5.519763 29.677368 -4.896939 30.580941 1.386905 1.731619 0.017299 -0.010020 -38865.200000 0 0 1
5.112163 30.534758 -5.936539 31.523771 1.404914 1.760247 0.018121 -0.015844 -545352.000000 0 0 1
5.184463 29.833938 -7.279339 31.143720 1.398737 1.806712 0.027462 -0.019760 677794.000000 0 0 1
4.247763 28.735808 -7.392239 29.973911 1.424038 1.819990 0.014103 -0.017365 508560.000000 0 0 1
4.946263 27.560508 -7.036839 28.871512 1.393218 1.817006 0.012937 -0.010909 -322481.000000 0 0 1
4.276963 26.195488 -7.426739 27.561793 1.408953 1.843626 0.010163 -0.004398 -1037270.000000 0 0 1
3.092563 25.903828 -6.738939 26.944119 1.451972 1.823588 0.001392 -0.007983 -727044.000000 0 0 1
1.937263 26.481008 -7.315539 27.541130 1.497770 1.839646 0.003511 -0.006907 -502454.000000 0 0 1
1.434763 25.811898 -8.628439 27.253671 1.515268 1.892936 0.006675 -0.011121 -805036.000000 0 0 1
2.311363 25.896558 -9.801539 27.785685 1.481779 1.931310 0.012888 -0.016121 329577.000000 0 0 1
1.783663 25.291018 -10.969439 27.625090 1.500387 1.979132 0.028039 -0.014734 -272636.000000 0 0 1
1.813363 23.768298 -11.023439 26.262834 1.494650 2.003950 0.023912 -0.005083 -389498.000000 0 0 1
0.885963 23.162398 -10.179539 25.316094 1.532565 1.984603 0.021360 -0.006579 -506907.000000 0 0 1
0.959763 21.773698 -10.143139 24.039516 1.526746 2.006376 0.010549 -0.002929 -290077.000000 0 1 0
-0.099137 21.089398 -9.272139 23.037905 -1.566096 1.985013 0.010559 -0.002945 105002.000000 0 1 0
-1.392037 21.074898 -9.853939 23.306420 -1.504840 2.007328 0.015351 -0.005769 -582379.000000 0 1 0
-2.266037 20.347098 -9.035039 22.377919 -1.459884 1.986406 0.017270 -0.011423 -667029.000000 0 1 0
-3.651937 20.481298 -9.681939 22.946898 -1.394345 2.006367 0.019563 -0.009904 -821598.000000 0 1 0
-4.611737 19.700798 -9.060539 22.169414 -1.340848 1.991821 0.019248 -0.017020 -1051860.000000 0 1 0
-5.606537 19.400498 -9.975739 22.523941 -1.289471 2.029621 0.024429 -0.007950 -875746.000000 0 1 0
-6.594537 18.335798 -9.427739 21.646516 -1.225547 2.021425 0.023621 -0.010886 41625.300000 0 1 0
-7.582537 18.820098 -8.518639 22.005866 -1.187796 1.968289 0.039157 -0.010827 -73251.400000 0 1 0
-8.814437 19.039398 -9.167439 22.896176 -1.137219 1.982741 0.036953 -0.014595 -27008.000000 0 1 0
-9.950337 19.273998 -8.113739 23.158777 -1.094228 1.928744 0.047458 -0.016485 340435.000000 0 1 0
-10.343637 18.045698 -7.483539 22.105234 -1.050322 1.916163 0.045759 -0.019073 -104407.000000 0 1 0
-11.233037 18.335498 -6.411439 22.438319 -1.021135 1.860571 0.044898 -0.010522 55052.600000 0 1 0
-11.692637 17.084098 -5.646739 21.458560 -0.970606 1.837078 0.031343 -0.014775 -254767.000000 0 1 0
-12.576037 17.491498 -4.636639 22.036506 -0.947445 1.782788 0.035200 -0.009390 148667.000000 0 1 0
-13.116637 16.383498 -3.882039 21.343275 -0.895689 1.753700 0.037454 -0.009050 -21113.600000 0 1 0
-14.381537 16.762898 -3.076339 22.299937 -0.861712 1.709191 0.025718 -0.006861 86643.200000 0 1 0
-15.526437 16.905598 -3.907339 23.283831 -0.827897 1.739408 0.025751 -0.010686 -254513.000000 0 1 0
-16.578737 17.437998 -3.167639 24.268750 -0.810653 1.701693 0.018670 -0.004372 4841.070000 0 1 0
-17.864837 17.589298 -4.054739 25.396391 -0.777627 1.731141 0.017682 -0.010406 40321.000000 0 0 1
-17.661937 18.450198 -5.181239 26.061447 -0.807223 1.770938 0.011612 -0.010060 -834007.000000 0 0 1
-18.822537 18.659298 -5.887339 27.149918 -0.781043 1.789378 0.001705 -0.003311 -1047140.000000 0 0 1
-18.701237 19.646998 -7.137839 28.047986 -0.810056 1.828113 -0.001534 0.004050 -271313.000000 0 0 1
-18.403737 20.950298 -6.698639 28.678986 -0.850017 1.806547 -0.005803 0.012873 66503.500000 0 0 1
-18.553137 21.911998 -7.696439 29.725237 -0.868215 1.832700 -0.006939 0.014579 -78619.100000 0 0 1
-18.620137 23.327598 -7.201639 30.704233 -0.897153 1.807551 -0.005399 0.013229 513943.000000 0 0 1
-17.325237 23.867898 -6.902739 30.290067 -0.942911 1.800704 -0.002227 0.015983 706470.000000 0 0 1
-17.453237 24.750858 -5.810239 30.837952 -0.956618 1.760341 -0.005328 0.011248 477152.000000 0 0 1
-16.072937 25.192378 -5.236539 30.338367 -1.002898 1.744270 0.004829 0.010002 83519.100000 0 0 1
-16.195937 25.966568 -4.056439 30.871114 -1.013116 1.702577 0.002764 0.006168 -115326.000000 0 0 1
-15.016337 26.612828 -3.653639 30.774698 -1.057077 1.689799 0.006756 0.004528 147757.000000 0 0 1
-14.275137 27.662708 -4.533039 31.457167 -1.094397 1.715402 0.023539 0.001296 24500.500000 0 0 1
-14.917837 28.921318 -4.552639 32.858956 -1.094583 1.709794 0.022552 -0.010761 202617.000000 0 0 1
-14.026337 29.905868 -5.043439 33.414597 -1.132242 1.722311 0.029331 -0.016557 -557531.000000 0 0 1
-14.709937 31.260408 -4.823039 34.883478 -1.130976 1.709502 0.024424 -0.028395 415146.000000 0 0 1
-15.903037 31.541808 -5.529439 35.754257 -1.103803 1.726071 0.027222 -0.017552 89724.600000 0 0 1
-16.596237 32.649798 -5.025439 36.968898 -1.100522 1.707155 0.027446 -0.022841 -665931.000000 0 0 1
12.257078 -8.831716 18.871577 24.173779 -0.624379 0.675070 0.021406 -0.001511 -661299.000000 0 1 0
12.447378 -10.196716 19.103477 24.977051 -0.686331 0.700002 0.019315 -0.009711 -25179.800000 0 1 0
13.076278 -10.825116 17.987277 24.732859 -0.691490 0.756472 0.028120 -0.012919 -227483.000000 0 1 0
13.641778 -12.185816 18.464777 25.991156 -0.729085 0.780694 0.039274 -0.017142 29512.200000 0 0 1
14.790478 -12.016316 19.313277 27.132135 -0.682278 0.778706 0.033296 -0.010243 723186.000000 0 0 1
15.304078 -13.185016 19.926477 28.374706 -0.711153 0.792227 0.034011 -0.012239 -25218.500000 0 0 1
15.969978 -14.252916 19.039177 28.647444 -0.728646 0.843834 0.039960 -0.020374 -922326.000000 0 0 1
15.079878 -14.847916 18.138177 27.872151 -0.777648 0.862207 0.037990 -0.021315 -58870.000000 0 0 1
15.404178 -16.195216 17.718077 28.521991 -0.810426 0.900514 0.048732 -0.023318 -580520.000000 0 0 1
14.642678 -16.674416 16.479777 27.641042 -0.850184 0.932028 0.050230 -0.034664 -411385.000000 0 0 1
13.241378 -16.585616 16.636077 26.966197 -0.897053 0.905969 0.069599 -0.027677 -408632.000000 0 0 1
12.590978 -16.619416 15.414277 25.929474 -0.922445 0.934191 0.073562 -0.027808 -228627.000000 0 0 1
12.207178 -17.993016 14.792977 26.298213 -0.974687 0.973379 0.062186 -0.017494 -422708.000000 0 0 1
13.279378 -18.665416 14.180677 26.941255 -0.952432 1.016488 0.065421 -0.021575 -216161.000000 0 0 1
12.869078 -19.849116 13.561177 27.267308 -0.995585 1.050264 0.057280 -0.019732 -701278.000000 0 0 1
13.904678 -20.765516 12.913377 28.130091 -0.980763 1.093860 0.058068 -0.017782 -727924.000000 0 0 1
14.706878 -21.367716 13.911877 29.434875 -0.967982 1.078521 0.060905 -0.020054 -97476.400000 0 0 1
15.018078 -22.648616 13.494177 30.341313 -0.985274 1.109906 0.037571 -0.012795 -211272.000000 0 0 1
15.867078 -23.439116 14.543677 31.822553 -0.975709 1.096150 0.042017 -0.014228 -56187.500000 0 0 1
17.136078 -22.842516 14.680877 32.108470 -0.927178 1.095921 0.025470 -0.017448 -718784.000000 0 0 1
17.659578 -23.461616 15.793777 33.342938 -0.925569 1.077335 0.027135 -0.015286 856721.000000 0 0 1
19.140478 -22.982916 16.151977 33.992039 -0.876365 1.075640 0.015197 -0.021899 1299970.000000 0 0 1
20.033878 -23.401816 15.147877 34.328697 -0.862782 1.113794 0.013375 -0.024265 500516.000000 0 0 1
21.357378 -22.894316 15.441277 34.910175 -0.820116 1.112619 0.005011 -0.019209 1107390.000000 0 0 1
22.535278 -23.694616 14.848377 35.913060 -0.810471 1.144553 -0.012153 -0.019156 59283.700000 0 0 1
22.654178 -24.876816 15.595477 37.084858 -0.832126 1.136762 -0.005643 -0.018336 -237396.000000 0 0 1
23.698078 -25.667626 15.129077 38.069869 -0.825274 1.162111 -0.002472 -0.019663 -842690.000000 0 0 1
24.072078 -26.739956 16.163177 39.442851 -0.837855 1.148576 0.006702 -0.014435 -264205.000000 0 0 1
24.644278 -26.198246 17.355177 39.936083 -0.815953 1.121231 0.001303 -0.000614 167027.000000 0 0 1
25.127778 -27.204516 18.223777 41.274653 -0.825061 1.113499 0.019953 0.002109 183162.000000 0 0 1
25.369278 -26.766566 19.696977 41.809332 -0.812193 1.080243 0.004895 0.008207 235369.000000 0 0 1
24.150278 -26.469776 20.350777 41.207270 -0.831188 1.054269 0.011479 0.014284 132717.000000 0 0 1
24.389378 -25.929776 21.645277 41.661890 -0.816001 1.024477 0.014043 0.020499 235482.000000 0 0 1
23.088278 -25.797196 22.490077 41.283986 -0.840755 0.994687 0.022022 0.017462 282816.000000 0 0 1
22.574678 -27.115116 22.696877 41.952280 -0.876521 0.999151 0.021625 0.015934 -1079170.000000 0 0 1
21.585778 -27.154516 23.622977 41.968543 -0.899158 0.972938 0.019832 0.014865 -593206.000000 0 0 1
20.898078 -28.591436 23.608077 42.562204 -0.939618 0.982827 0.028907 0.012153 463715.000000 0 0 1
21.853578 -29.539806 24.094457 43.939980 -0.933855 0.990407 0.030888 0.012428 671021.000000 0 0 1
21.551678 -30.856906 23.744377 44.501898 -0.961119 1.007994 0.044737 0.006861 -528408.000000 0 0 1
22.602678 -31.833106 24.247327 45.958248 -0.953366 1.015030 0.032952 0.009104 -277081.000000 0 0 1
22.716378 -31.989286 25.629037 46.863587 -0.953308 0.992156 0.029156 0.004059 120197.000000 0 0 1
23.930878 -32.630996 25.934067 48.062924 -0.938018 1.000851 0.035705 0.001281 -649159.000000 0 0 1
23.943278 -33.079526 27.476967 49.219095 -0.944269 0.978511 0.043305 -0.014172 446022.000000 0 0 1
23.076878 -34.126516 27.956427 49.786777 -0.976212 0.974571 0.024052 -0.001250 447286.000000 0 0 1
21.712878 -34.020849 27.621487 48.906173 -1.002745 0.970623 0.024512 -0.002455 -626591.000000 0 0 1
20.815478 33.867372 27.987927 48.616942 1.019698 0.957358 0.049854 -0.021094 -139108.000000 0 0 1
20.552578 33.788718 29.362967 49.257179 1.024320 0.932142 0.046120 -0.016664 -28957.400000 0 0 1
19.953278 32.559668 29.643407 48.342495 1.021002 0.910697 0.047842 -0.023967 -198804.000000 0 0 1
19.421378 32.486018 31.115237 48.996829 1.031968 0.882728 0.034133 -0.019725 873693.000000 0 0 1
20.566078 32.445288 32.000857 49.997151 1.005844 0.876228 0.025272 -0.004758 1222730.000000 0 0 1
20.110978 32.886498 33.307184 50.944496 1.021944 0.858209 0.010542 -0.007672 -146416.000000 0 0 1
21.210178 32.835308 34.348946 52.037286 0.997269 0.849867 -0.003790 0.006068 -370599.000000 0 0 1
21.577578 31.515748 -34.365517 51.379208 0.970440 2.303471 0.013530 0.000414 -349656.000000 0 0 1
22.748878 31.513118 -33.617159 51.387756 0.945532 2.283902 0.004478 0.006195 -439074.000000 0 0 1
23.443278 30.161748 -33.307259 50.682263 0.910081 2.287865 0.014183 0.001991 -185264.000000 0 0 1
23.999278 29.558558 -34.446386 51.344203 0.888827 2.306207 0.019212 -0.004213 -171495.000000 0 0 1
23.090778 28.753398 33.867564 50.069489 0.894191 0.827917 0.032677 -0.010476 -266587.000000 0 0 1
23.607478 27.930988 32.651017 49.025932 0.869091 0.841970 0.059537 -0.020441 -566553.000000 0 0 1
24.388078 26.828748 32.961817 49.000422 0.833016 0.832966 0.047062 -0.016846 253.261000 0 0 1
24.625678 26.042568 31.818427 47.927566 0.813355 0.844794 0.065319 -0.028506 -702971.000000 0 0 1
26.013178 25.413238 31.740467 48.269818 0.773733 0.853216 0.040669 -0.018995 -565113.000000 0 0 1
26.201478 24.436838 32.728257 48.526439 0.750564 0.830588 0.047436 -0.021442 280958.000000 0 0 1
27.118578 24.806408 33.751692 49.899417 0.740899 0.827940 0.039014 -0.023751 -732883.000000 0 0 1
26.949878 23.960098 -34.005819 49.565895 0.726739 2.326874 0.028506 -0.026746 33453.400000 0 0 1
25.875578 24.293358 -33.126819 48.549963 0.753871 2.321734 0.032927 -0.026913 1180200.000000 0 0 1
24.546778 23.972298 -33.568069 48.000319 0.773558 2.345256 0.031164 -0.025010 379003.000000 0 0 1
24.093978 22.485598 -33.571049 47.043992 0.750882 2.365434 0.023314 -0.025175 -593679.000000 0 0 1
24.014578 21.820798 -32.301709 45.784796 0.737572 2.353941 0.002120 -0.028520 286260.000000 0 0 1
23.792478 20.447298 -32.474509 45.152716 0.709927 2.373468 0.000706 -0.021632 -261849.000000 0 0 1
23.622778 19.740498 -31.082619 43.747595 0.696107 2.361003 0.002953 -0.020531 -168964.000000 0 0 1
22.466578 20.102898 -30.359459 42.785165 0.729930 2.359697 -0.000813 -0.021679 49446.600000 0 0 1
22.409278 19.447098 -29.031419 41.511307 0.714746 2.345300 0.001227 -0.022732 361307.000000 0 0 1
21.070678 19.783198 -28.280429 40.436754 0.753894 2.345318 0.022861 -0.027820 506849.000000 0 0 1
20.939178 19.153698 -27.018589 39.183127 0.740894 2.331659 0.021579 -0.016556 39561.100000 0 0 1
21.629478 19.859898 -25.990669 39.214344 0.742773 2.295328 0.013748 -0.016074 65975.700000 0 0 1
21.833978 19.152598 -24.651039 38.094860 0.720070 2.274566 0.017739 -0.007228 -19266.100000 0 0 1
22.598278 17.987398 -24.847439 38.100182 0.672275 2.281227 0.021629 -0.017500 122988.000000 0 0 1
22.733478 17.238498 -23.664639 37.067398 0.648784 2.263243 0.015958 -0.010435 -349453.000000 0 0 1
23.691278 16.039798 -23.729839 37.170647 0.595146 2.263218 0.037035 -0.018033 -465128.000000 0 0 1
25.067878 16.389298 -23.721439 38.206207 0.579040 2.240660 0.072855 -0.025165 51961.900000 0 0 1
25.950978 15.322598 -23.853439 38.434643 0.533363 2.240334 0.071522 -0.028497 -239758.000000 0 0 1
26.063678 14.467398 -22.551839 37.379224 0.506734 2.218461 0.061544 -0.018182 -1065570.000000 0 0 1
24.875378 13.762898 -22.330939 36.150693 0.505353 2.236634 0.032325 -0.008735 -349151.000000 0 0 1
24.761678 13.282198 -21.019239 35.090823 0.492343 2.213042 0.023215 -0.014702 428624.000000 0 0 1
23.354278 12.642398 -20.746139 33.699478 0.496163 2.233971 0.015855 0.003773 1615760.000000 0 0 1
22.264778 13.599498 -20.796239 33.363906 0.548328 2.243772 0.039893 -0.003279 871929.000000 0 0 1
20.965178 13.051698 -20.990539 32.411236 0.556830 2.275268 0.024470 -0.004858 842794.000000 0 0 1
19.904778 14.192798 -20.895939 32.160161 0.619421 2.278047 0.033293 -0.002082 -451563.000000 0 0 1
20.162478 15.185498 -21.908439 33.423114 0.645518 2.285625 0.018276 0.000361 547530.000000 0 0 1
19.320178 16.370798 -21.895239 33.476466 0.702949 2.283721 0.008172 -0.001018 -14012.100000 0 0 1
18.011178 16.223298 -22.662939 33.184435 0.733221 2.322575 0.019828 0.004939 75967.800000 0 0 1
16.973878 15.434898 -22.046839 31.818418 0.737947 2.336293 0.008725 -0.001058 354938.000000 0 0 1
15.930278 15.301898 -22.981939 31.876188 0.765281 2.376005 0.001386 -0.006756 171580.000000 0 0 1
14.756178 14.415798 -22.436339 30.478670 0.773731 2.398135 -0.004541 -0.006130 349779.000000 0 0 1
13.599078 14.495198 -23.229739 30.572315 0.817284 2.433847 0.015406 -0.008676 -725112.000000 0 0 1
12.534978 13.757198 -22.706539 29.359378 0.831851 2.454983 0.029994 -0.010940 -302703.000000 0 0 1
11.246678 13.912498 -23.544839 29.570337 0.890962 2.491837 0.039277 -0.005754 -53520.000000 0 0 1
10.802678 15.254098 -23.585139 30.093922 0.954600 2.471425 0.016429 -0.002537 -156346.000000 0 0 1
10.341978 15.616698 -24.855339 31.122751 0.985866 2.495800 0.015822 -0.004944 -643404.000000 0 0 1
10.211278 17.177798 -24.912539 31.937150 1.034470 2.465540 0.007292 -0.002342 19413.300000 0 0 1
11.384378 17.967098 -24.725539 32.615532 1.006020 2.431177 0.003641 0.000191 238912.000000 0 0 1
12.459178 17.786098 -25.645929 33.604911 0.959734 2.438986 0.002696 -0.008408 -107739.000000 0 0 1
12.218178 17.940198 -27.187749 34.789485 0.972902 2.467852 0.024124 -0.019590 -710868.000000 0 0 1
13.132678 17.283998 -28.044849 35.464311 0.921042 2.482896 0.017070 -0.016529 -352062.000000 0 0 1
12.715078 17.260998 -29.369119 36.361524 0.935903 2.511033 0.014228 -0.026761 -361228.000000 0 0 1
13.766278 17.592598 -30.466999 37.778935 0.906815 2.508928 0.022401 -0.025905 105199.000000 0 0 1
14.887678 16.724898 -30.476249 37.817548 0.843450 2.507950 0.014703 -0.021662 -323981.000000 0 0 1
15.808278 17.160098 -31.424969 39.139485 0.826379 2.502935 0.013219 -0.019752 -345695.000000 0 0 1
17.113578 16.352498 -31.449709 39.361948 0.762660 2.496406 0.013354 -0.016553 -594543.000000 0 0 1
18.072178 16.703198 -30.457029 39.156494 0.746052 2.461999 0.021122 -0.015282 558349.000000 0 0 1
19.280978 15.973498 -30.731469 39.640030 0.691855 2.457929 0.017662 -0.012453 1061720.000000 0 0 1
20.370478 16.840998 -31.478909 41.103495 0.690832 2.443151 0.010825 -0.011746 -49797.000000 0 0 1
20.076378 17.146098 -32.823619 42.124098 0.706837 2.464205 0.008609 -0.015233 343679.000000 0 0 1
21.266678 17.624698 -33.436869 43.369641 0.692026 2.451166 0.003234 -0.009036 86856.100000 0 0 1
21.108878 18.112698 34.130355 44.028805 0.709155 0.683793 0.005546 0.001180 -108547.000000 0 0 1
22.282378 18.738598 33.632636 44.483633 0.699223 0.713512 0.009945 -0.001404 325236.000000 0 0 1
22.194578 19.100098 32.278007 43.580761 0.710601 0.736762 0.019790 -0.003005 -738974.000000 0 0 1
23.115978 20.255198 31.932557 44.320533 0.719533 0.766286 0.032925 -0.011184 288188.000000 0 0 1
24.506678 19.958898 32.049887 45.012555 0.683476 0.778424 0.027390 -0.008350 159480.000000 0 0 1
25.227478 21.173798 32.015967 45.932314 0.698258 0.799556 0.043779 -0.022423 -648287.000000 0 0 1
26.723578 20.975298 31.851637 46.568653 0.665465 0.817603 0.037160 -0.021594 -620648.000000 0 0 1
27.314978 20.381198 32.995917 47.436608 0.641036 0.801571 0.025436 -0.022514 -883005.000000 0 0 1
28.672578 20.171698 32.817077 48.020565 0.613084 0.818392 0.016523 -0.023757 -688465.000000 0 0 1
29.371278 19.461998 33.987419 48.954938 0.585196 0.803406 -0.001845 -0.021269 -209788.000000 0 0 1
29.415178 20.125098 -33.820329 49.133359 0.600025 2.329991 -0.003004 -0.025733 1085440.000000 0 0 1
28.144678 20.189598 -33.122649 47.925491 0.622276 2.333845 0.004957 -0.028488 909175.000000 0 0 1
28.420478 20.539398 -31.643379 47.232339 0.625797 2.304940 0.014835 -0.023283 42426.000000 0 0 1
28.984478 19.496698 -30.904839 46.640436 0.592140 2.295107 0.012448 -0.023646 39673.200000 0 0 1
29.514278 19.850198 -29.641939 46.300837 0.592073 2.265559 0.003803 -0.023728 444863.000000 0 0 1
30.955478 19.367898 -29.323229 46.831708 0.559081 2.247390 0.053203 -0.022232 669810.000000 0 0 1
31.968078 20.026098 -30.087129 48.251818 0.559634 2.244064 0.008515 -0.023932 659724.000000 0 0 1
33.281978 19.690898 -29.643309 48.725222 0.534249 2.224810 0.036129 -0.023688 1190300.000000 0 0 1
34.424178 20.615998 -30.259399 50.256090 0.539597 2.216930 0.029807 -0.024614 865750.000000 0 0 1
35.087078 20.274398 -31.479219 51.313697 0.523959 2.231239 0.017694 -0.027025 376232.000000 0 0 1
-34.350107 21.291198 -31.681429 51.351319 -0.554872 2.235663 0.023435 -0.032943 448274.000000 0 0 1
-33.306107 20.899198 -32.780229 51.191959 -0.560387 2.265736 0.027217 -0.041244 -283343.000000 0 0 1
-32.496207 19.827498 -32.446559 50.019120 -0.547848 2.276649 0.047162 -0.033277 -159730.000000 0 0 1
-31.749407 19.367198 -33.530059 50.073727 -0.547741 2.304485 0.038556 -0.019437 147376.000000 0 0 1
-30.900907 18.060998 -33.270209 48.866886 -0.528930 2.319696 0.022811 -0.007794 814055.000000 0 0 1
-31.807907 16.956598 -33.309889 49.079710 -0.489771 2.316773 0.031579 -0.010802 318655.000000 0 0 1
-31.102707 15.785098 -33.505049 48.364616 -0.469642 2.336105 0.019903 0.000697 -254077.000000 0 0 1
-31.948507 14.479698 -33.567439 48.550404 -0.425528 2.334213 0.024108 0.004594 -26723.800000 0 0 1
-31.214907 13.272898 -33.618689 47.757267 -0.402049 2.351739 0.028414 0.002873 67556.300000 0 0 1
-32.131507 12.197198 -33.543389 48.024623 -0.362800 2.344043 0.027941 -0.000367 13112.900000 0 0 1
-31.576307 10.735798 -33.672529 47.393668 -0.327734 2.360985 0.025986 0.006423 -326797.000000 0 0 1
-30.912707 10.443698 34.195898 47.265481 -0.325805 0.761958 0.004504 0.006706 -118176.000000 0 0 1
-31.103907 9.111298 33.761972 46.801063 -0.284959 0.764984 0.016048 -0.001598 -326976.000000 0 0 1
-30.111607 8.616998 32.703177 45.281998 -0.278720 0.763802 0.028457 -0.002779 -430789.000000 0 0 1
-28.911807 8.225998 33.300206 44.860488 -0.277195 0.734291 0.016381 0.011537 -81082.600000 0 0 1
-27.989607 7.632398 32.349347 43.452869 -0.266214 0.731056 0.019993 0.004697 161480.000000 0 0 1
20.360878 -4.456016 -31.704439 37.941968 -0.215455 2.560027 0.026495 -0.024293 -422223.000000 0 0 1
21.466678 -4.234516 -32.523249 39.198356 -0.194760 2.549383 0.030884 -0.026587 -625778.000000 0 0 1
22.320078 -3.242616 -32.071139 39.207887 -0.144269 2.528681 0.046531 -0.025585 -486300.000000 0 0 1
22.095578 -1.858116 -32.662539 39.477951 -0.083897 2.545190 0.044148 -0.020958 -79930.200000 0 0 1
22.950578 -0.950216 -31.955399 39.354536 -0.041379 2.518346 0.048657 -0.021479 505592.000000 0 0 1
22.732978 0.400284 -32.332059 39.526075 0.017606 2.528710 0.032050 -0.018450 106359.000000 0 0 1
23.865878 1.388984 -31.861229 39.832742 0.058134 2.497884 0.045453 -0.014456 818731.000000 0 0 1
25.107978 0.966184 -32.424129 41.020339 0.038462 2.482324 0.046395 -0.021015 -194536.000000 0 0 1
26.206778 1.561084 -31.791149 41.229957 0.059498 2.451315 0.040282 -0.015193 -886290.000000 0 0 1
27.512178 1.261584 -32.476249 42.581901 0.045823 2.438239 0.036477 -0.026422 -866738.000000 0 0 1
27.825878 2.110384 -33.581219 43.662701 0.075698 2.448237 0.048520 -0.023718 115344.000000 0 0 1
28.663478 1.415284 -34.509169 44.882967 0.049336 2.447868 0.026204 -0.020643 -22973.700000 0 0 1
29.386778 2.381684 33.546335 44.661076 0.080869 0.721022 0.039996 -0.015725 79132.900000 0 0 1
28.542678 3.169684 32.723747 43.538201 0.110598 0.720297 0.047236 -0.008939 143658.000000 0 0 1
28.174178 4.410784 33.255202 43.808079 0.155294 0.708850 0.033097 0.003265 -89519.200000 0 0 1
27.616878 5.356284 32.217287 42.770729 0.191571 0.717799 0.041620 0.004181 -61184.900000 0 0 1
27.259478 6.627684 32.781697 43.146784 0.238505 0.707835 0.027714 0.001723 421549.000000 0 0 1
26.504978 7.493284 31.904067 42.148934 0.275522 0.712184 0.025517 0.001981 -676563.000000 0 0 1
26.881478 8.962784 32.097647 42.815935 0.321827 0.723239 0.030900 0.003119 -58255.100000 0 0 1
28.102278 9.326984 31.506567 43.236494 0.320455 0.754370 0.033861 -0.001947 -109533.000000 0 0 1
28.450878 10.714384 31.706687 43.926808 0.360166 0.764386 0.028170 -0.000691 420561.000000 0 0 1
29.847178 11.145984 31.176587 44.576524 0.357398 0.796246 0.023754 0.005726 305376.000000 0 0 1
30.942678 10.851384 32.033667 45.840568 0.337292 0.797069 0.032372 -0.000749 -497189.000000 0 0 1
32.216478 11.023584 31.543977 46.415981 0.329684 0.823589 0.023557 0.005270 -605965.000000 0 0 1
32.678778 12.526184 31.569557 47.132205 0.366038 0.836845 0.032872 0.003929 -806151.000000 0 0 1
33.032778 12.828884 32.868697 48.333176 0.370439 0.822973 0.030676 0.001635 5131.160000 0 0 1
33.404178 14.180184 33.186272 49.175658 0.401450 0.830033 0.027742 0.003607 -144083.000000 0 0 1
32.305478 15.247284 33.138709 48.726764 0.440975 0.822907 0.030242 -0.007950 -1035930.000000 0 0 1
32.049878 15.641584 31.804687 47.784850 0.454033 0.842524 0.025401 -0.013062 31572.100000 0 0 1
31.046978 16.598684 31.567377 47.285626 0.490967 0.839830 0.021466 -0.018128 170422.000000 0 0 1
29.587378 16.134284 31.804217 46.338280 0.499235 0.814340 0.023847 -0.010106 -453899.000000 0 0 1
29.224578 15.111984 30.904657 45.139183 0.477233 0.816669 0.022392 -0.001447 -362926.000000 0 0 1
27.865678 14.827784 31.105837 44.316275 0.489009 0.792727 0.017226 -0.006035 -261827.000000 0 0 1
27.145178 14.375284 29.809987 42.803560 0.487023 0.800376 0.014489 0.002021 -56643.200000 0 0 1
27.292178 12.985984 29.645107 42.335931 0.444112 0.795070 0.015957 0.005867 217520.000000 0 0 1
26.454378 12.589984 28.568457 40.920637 0.444193 0.797996 0.009692 0.000915 130952.000000 0 0 1
26.276678 11.066284 28.505087 40.317073 0.398601 0.785517 0.011779 0.008226 -133828.000000 0 0 1
27.330978 10.347184 27.901387 40.404628 0.361913 0.808548 0.013067 0.014015 289666.000000 0 0 1
26.767478 9.117184 27.452777 39.411621 0.328282 0.800197 0.017969 0.018878 -197296.000000 0 0 1
27.820978 8.146984 26.938287 39.573368 0.284871 0.822055 0.027869 0.012880 -77182.700000 0 0 1
28.373378 8.410784 25.655337 39.166135 0.288180 0.856562 0.014330 0.017427 -183169.000000 0 0 1
29.435178 7.591684 25.295347 39.546402 0.252411 0.876770 0.010440 0.027423 -319410.000000 0 0 1
30.104178 8.007784 23.992677 39.319647 0.259982 0.914489 0.015016 0.022991 70077.600000 0 0 1
30.885378 9.233884 23.894877 40.126504 0.290514 0.932923 0.011031 0.017200 475517.000000 0 0 1
30.201478 10.393784 23.493477 39.649760 0.331452 0.936607 0.011488 0.013559 -488658.000000 0 0 1
29.693878 10.226084 22.027477 38.360252 0.331663 0.959137 0.009419 0.019779 217821.000000 0 0 1
30.765078 10.341984 21.120577 38.723706 0.324292 0.993909 0.006111 0.005368 650076.000000 0 0 1
30.192178 10.137784 19.829777 37.517493 0.323947 1.013908 0.015373 -0.004272 -372261.000000 0 0 1
30.893278 10.930284 18.669477 37.714919 0.340063 1.052943 0.023235 -0.016117 1580890.000000 0 0 1
32.208378 10.474784 18.224477 38.460788 0.314430 1.077144 0.026788 -0.013851 1910950.000000 0 0 1
33.276978 10.651784 19.171177 39.854131 0.309789 1.068963 0.016622 -0.003470 -56309.800000 0 0 1
34.549078 9.961684 18.602077 40.483468 0.280720 1.093366 0.013729 -0.014916 -274058.000000 0 0 1
34.494278 8.525384 18.504077 40.061680 0.242298 1.090672 0.009925 -0.011278 616692.000000 0 0 1
-34.761207 7.980584 17.906577 39.908354 -0.225672 1.105495 0.004132 -0.007751 28840.000000 0 0 1
-34.847007 6.478084 17.673477 39.605950 -0.183803 1.108245 0.005651 -0.009953 -60346.800000 0 0 1
34.432478 6.103384 16.920677 38.847859 0.175434 1.120133 -0.000000 -0.006686 612127.000000 0 0 1
34.559578 4.819684 16.366677 38.541690 0.138566 1.132223 0.006005 -0.007098 -438341.000000 0 0 1
33.223578 4.091884 16.487677 37.314784 0.122545 1.113132 0.005286 -0.004681 -383481.000000 0 0 1
33.300878 3.179184 17.546777 37.774926 0.095180 1.087717 0.011278 -0.002741 374536.000000 0 0 1
32.071778 2.495284 17.755977 36.743708 0.077647 1.066446 0.004559 -0.001832 211502.000000 0 0 1
32.042178 1.622784 19.010077 37.292326 0.050602 1.035892 0.000790 -0.009206 -273666.000000 0 0 1
32.705378 0.449984 18.687277 37.670393 0.013758 1.051726 0.006613 -0.004025 -108381.000000 0 0 1
32.738378 -0.290716 19.900177 38.313221 -0.008880 1.024639 0.004943 -0.005706 167551.000000 0 0 1
33.197378 -1.764416 19.792377 38.690015 -0.053099 1.033794 0.019829 0.001373 74208.900000 0 0 1
32.942378 -2.367416 21.055677 39.168181 -0.071742 1.003243 0.029715 -0.002671 92144.400000 0 0 1
33.300578 -3.733216 21.120477 39.609846 -0.111641 1.008403 0.019999 -0.000979 -519727.000000 0 0 1
32.771578 -4.509716 22.343577 39.919285 -0.136752 0.976750 0.011537 0.002107 -203501.000000 0 0 1
33.215778 -4.010616 23.610077 40.948854 -0.120163 0.956266 0.016456 -0.002402 313775.000000 0 0 1
32.613378 -4.653316 24.716047 41.184569 -0.141725 0.927134 0.012464 -0.002704 3333.990000 0 0 1
33.084678 -4.060116 26.062487 42.312335 -0.122108 0.907199 0.000953 -0.000249 -146532.000000 0 0 1
32.298278 -4.464216 27.131557 42.417324 -0.137348 0.876774 0.012797 -0.002690 -210594.000000 0 0 1
32.589378 -3.662216 28.218177 43.263667 -0.111905 0.860264 0.012834 -0.005538 -344084.000000 0 0 1
31.800578 -4.022216 29.460717 43.536063 -0.125814 0.827529 0.022009 -0.013424 -324016.000000 0 0 1
32.075878 -5.296116 29.991367 44.231130 -0.163636 0.825676 0.032698 -0.011429 106168.000000 0 0 1
31.085078 -5.634216 30.956377 44.230348 -0.179305 0.795553 0.037024 -0.020220 94413.400000 0 0 1
31.060478 -7.145516 31.348027 44.704703 -0.226118 0.793683 0.040788 -0.018045 515890.000000 0 0 1
32.220778 -7.533516 32.100557 46.101824 -0.229683 0.800571 0.048790 -0.019291 326399.000000 0 0 1
32.516278 -8.895116 31.825817 46.360695 -0.267026 0.814155 0.035658 -0.014562 431364.000000 0 0 1
33.825478 -9.451716 32.484287 47.840639 -0.272476 0.824383 0.027050 -0.009800 567489.000000 0 0 1
33.717578 -9.653816 33.885848 48.768042 -0.278854 0.802603 0.026045 -0.023925 169369.000000 0 0 1
34.986578 -9.932116 34.453112 50.097150 -0.276606 0.812444 0.010504 -0.031991 -66282.400000 0 0 1
35.034878 -10.140616 -33.095069 49.249958 -0.281744 2.307678 0.037408 -0.034912 -364983.000000 0 0 1
34.773578 -9.044516 -32.225669 48.264881 -0.254459 2.301889 0.017379 -0.032964 1002180.000000 0 0 1
-34.563307 -8.103616 -32.141399 47.889042 0.230298 2.306574 0.032152 -0.016048 718265.000000 0 0 1
-35.092507 -6.745616 -31.552489 47.671239 0.189907 2.294116 0.027402 -0.016057 268932.000000 0 0 1
34.805378 -6.916816 -30.244749 46.626189 -0.196173 2.276625 0.022722 -0.005070 159341.000000 0 0 1
34.163678 -5.763716 -29.796999 45.697248 -0.167135 2.281085 0.026224 -0.006282 -232367.000000 0 0 1
34.355878 -5.593516 -28.283329 44.850424 -0.161395 2.253141 0.010743 0.000960 1105090.000000 0 0 1
-34.665207 -5.392116 -28.035969 44.908430 0.154312 2.245021 0.011351 0.004161 843879.000000 0 0 1
-34.577207 -4.925416 -26.711949 43.970118 0.141495 2.223709 0.013268 0.007086 -55991.500000 0 0 1
-33.167207 -4.616516 -26.204769 42.521357 0.138301 2.234798 0.004327 0.016113 -1226930.000000 0 0 1
-33.165407 -4.252816 -24.823639 41.644253 0.127535 2.209416 0.008128 0.022745 512993.000000 0 0 1
-31.899907 -4.023316 -24.193539 40.238272 0.125461 2.215870 0.005867 0.020347 568931.000000 0 0 1
-30.925207 -2.968716 -24.767139 39.731510 0.095703 2.243832 0.013979 0.014800 -296077.000000 0 0 1
-30.415507 -3.359316 -26.037109 40.178591 0.110002 2.275797 0.020642 0.010639 -98412.800000 0 0 1
-29.339907 -2.538116 -26.453439 39.586066 0.086292 2.302652 0.018137 0.001748 100031.000000 0 0 1
-28.513407 -3.204416 -27.572179 39.793313 0.111913 2.336278 0.018036 0.011717 91236.700000 0 0 1
-29.259807 -3.423516 -28.780029 41.184304 0.116474 2.344530 0.010945 0.016710 -18307.400000 0 0 1
-28.531007 -4.268016 -29.634009 41.357090 0.148491 2.369626 0.024790 0.002107 -1352090.000000 0 0 1
-29.169907 -4.744416 -30.976709 42.812960 0.161236 2.379707 0.016989 0.000463 168954.000000 0 0 1
-30.372407 -5.512616 -30.956729 43.717172 0.179546 2.357620 0.003788 -0.000098 370365.000000 0 0 1
-31.491807 -4.958316 -30.325529 43.999506 0.156166 2.331214 0.022168 0.001386 -786666.000000 0 0 1
-32.422707 -4.038316 -31.198079 45.175880 0.123914 2.333103 0.043494 -0.005103 -197373.000000 0 0 1
-31.899707 -2.799416 -31.672409 45.039645 0.087533 2.350701 0.042045 0.003541 35552.000000 0 0 1
-31.456907 -1.829016 -30.782619 44.050562 0.058078 2.344518 0.024754 0.007598 -48425.300000 0 0 1
-31.099107 -0.447516 -31.434409 44.220774 0.014389 2.361505 0.049358 0.013637 -95235.800000 0 0 1
-32.236707 0.331284 -31.686179 45.203197 -0.010276 2.347556 0.035170 0.011952 -110987.000000 0 0 1
-31.946607 1.572284 -32.378119 45.512640 -0.049176 2.362298 0.028074 0.019866 580039.000000 0 0 1
-33.253007 2.397584 -32.622679 46.644937 -0.071977 2.345330 0.035326 0.012536 1041200.000000 0 0 1
-34.114207 1.917784 -33.710109 47.998214 -0.056157 2.349448 0.019801 0.004495 873793.000000 0 0 1
35.126178 2.708784 -33.727099 48.771950 0.076963 2.334397 0.013666 0.002435 437382.000000 0 0 1
34.031878 2.226684 34.330316 48.391088 0.065336 0.782101 0.000629 0.001162 -205081.000000 0 0 1
34.255678 2.331184 32.945047 47.584262 0.067948 0.806053 0.003335 0.004400 -107420.000000 0 0 1
-35.134107 1.589584 32.370707 47.799529 -0.045212 0.826821 -0.008410 0.009122 -421473.000000 0 0 1
-34.996707 1.680284 30.841607 46.677592 -0.047976 0.848996 0.004204 0.003713 -312543.000000 0 0 1
-34.544807 2.933184 30.357707 46.081858 -0.084706 0.851603 0.016214 0.000132 204692.000000 0 0 1
-34.149107 2.992884 29.003927 44.903749 -0.087418 0.868577 0.016999 -0.000287 150183.000000 0 0 1
-33.634407 4.427484 28.706317 44.440169 -0.130883 0.868524 0.018515 0.003374 -2367.310000 0 0 1
-33.034307 4.633984 27.430357 43.187541 -0.139369 0.882600 0.018284 0.004563 491357.000000 0 0 1
-32.370507 5.900784 27.433887 42.840251 -0.180309 0.875808 0.015922 0.004836 -310185.000000 0 0 1
-31.602607 6.172684 26.135067 41.471298 -0.192893 0.888990 0.015202 0.004783 275061.000000 0 0 1
-30.441007 5.335984 25.952907 40.356920 -0.173526 0.872277 0.024093 -0.003855 333459.000000 0 0 1
-29.765207 5.620384 24.778027 39.134472 -0.186627 0.885179 0.024280 -0.009278 -505027.000000 0 0 1
-30.289607 5.274984 23.382577 38.626813 -0.172422 0.920596 0.017855 -0.014507 -399059.000000 0 0 1
-30.058607 3.916084 23.008977 38.056124 -0.129552 0.921525 0.015145 0.000574 -190867.000000 0 0 1
-30.845807 3.592584 21.910377 38.005725 -0.115947 0.956355 0.021976 -0.003141 -810351.000000 0 0 1
-30.815907 2.055184 21.550677 37.660000 -0.066594 0.961558 0.009544 0.003989 626112.000000 0 0 1
-29.598907 1.595284 20.930677 36.286822 -0.053845 0.955976 0.003808 0.012696 788661.000000 0 0 1
-29.382607 2.035884 19.572077 35.363097 -0.069178 0.984283 0.007209 0.006840 -31328.700000 0 0 1
-28.144707 1.319384 18.965777 33.964187 -0.046844 0.978334 0.006400 0.012065 59400.700000 0 0 1
-28.330307 -0.053816 18.722877 33.958141 0.001900 0.986813 0.009269 0.010649 26036.500000 0 0 1
-27.257107 -0.637216 18.034777 32.689587 0.023374 0.986398 0.018030 0.010135 -292076.000000 0 0 1
-27.249207 -0.511016 16.483077 31.850781 0.018751 1.026859 0.033981 0.008805 -74633.500000 0 0 1
-26.861507 0.759384 16.011777 31.280893 -0.028263 1.033435 0.031130 0.017160 203031.000000 0 0 1
-26.772507 0.774484 14.602577 30.505774 -0.028920 1.071643 0.040836 0.012139 -110356.000000 0 0 1
-26.470407 2.225384 14.190777 30.116656 -0.083873 1.080153 0.040505 0.012556 -16245.400000 0 0 1
-25.101307 2.553284 14.314577 29.008654 -0.101370 1.054734 0.033300 0.006980 120508.000000 0 0 1
-24.860407 3.813284 13.771077 28.674441 -0.152202 1.069850 0.032417 0.001362 240402.000000 0 0 1
-23.343007 4.061484 13.570877 27.304951 -0.172267 1.050645 0.019930 0.007248 83575.600000 0 0 1
-22.620707 4.539484 14.661877 27.336312 -0.198048 1.004688 0.007560 0.009751 -343710.000000 0 0 1
-21.313707 4.854084 14.278577 26.109653 -0.223925 0.992176 0.000131 0.007962 -411799.000000 0 0 1
-20.435007 5.459884 15.385577 26.155608 -0.261084 0.941925 -0.011547 0.005604 -305381.000000 0 0 1
-20.909807 6.750384 15.742577 27.029918 -0.312271 0.949102 -0.000937 -0.000794 796178.000000 0 0 1
-20.162207 7.279984 16.850477 27.266304 -0.346503 0.904605 -0.008824 -0.003517 158422.000000 0 0 1
-20.503807 8.751484 17.158077 28.131729 -0.403413 0.914838 -0.010379 -0.007081 -644462.000000 0 0 1
-19.776307 9.531884 16.247277 27.311777 -0.449132 0.933678 0.001283 -0.010719 486912.000000 0 0 1
-19.829407 10.966084 16.398977 27.971178 -0.505160 0.944336 0.010639 -0.013405 -306065.000000 0 0 1
-19.399107 11.552284 17.764077 28.728784 -0.537108 0.904171 0.011516 -0.007247 -179496.000000 0 0 1
-20.279707 11.213784 18.836777 29.863684 -0.505110 0.888266 0.019788 -0.007668 813941.000000 0 0 1
-19.533707 11.175584 20.038577 30.133104 -0.519666 0.843300 0.021124 -0.003932 -350624.000000 0 0 1
-12.325022 -33.017030 -21.827239 41.454298 1.213523 2.125319 0.048267 -0.011645 221745.000000 0 0 1
-13.032522 -33.714430 -20.767839 41.687079 1.201933 2.092300 0.065139 -0.013598 -33585.200000 0 0 1
-14.171022 -33.058730 -20.321439 41.311722 1.165828 2.085073 0.053395 -0.027038 -231121.000000 0 0 1
-15.158122 -33.789230 -19.383939 41.799735 1.149101 2.053001 0.045449 -0.016679 -525769.000000 0 0 1
-15.827522 34.192384 -19.940139 42.629083 -1.137270 2.057550 0.037902 -0.019897 -13914.500000 0 0 1
-16.429622 33.284084 -19.023039 41.708977 -1.112267 2.044393 0.039726 -0.015480 821773.000000 0 0 1
-17.800422 33.738784 -18.371139 42.339808 -1.085317 2.019611 0.042090 -0.023715 -79033.500000 0 0 1
-17.798622 -34.247230 -17.461739 42.362437 1.091505 1.995662 0.039156 -0.016912 1511260.000000 0 0 1
-19.160722 -34.088430 -16.954539 42.621717 1.058719 1.979904 0.024660 -0.005528 1492350.000000 0 0 1
-19.578922 34.234084 -15.629839 42.421676 -1.051285 1.948127 0.026083 -0.000289 -631635.000000 0 0 1
-19.502422 32.851684 -15.651739 41.286251 -1.035059 1.959623 0.025829 -0.005409 248302.000000 0 0 1
-19.597322 32.402584 -14.328839 40.488246 -1.026849 1.932535 0.034437 0.001372 -415835.000000 0 0 1
-19.673022 30.876984 -14.071139 39.222607 -1.003513 1.937726 0.023276 -0.000776 -155297.000000 0 0 1
-18.447422 30.203284 -13.935439 38.036064 -1.022491 1.945906 0.011516 -0.005221 -299238.000000 0 0 1
-18.601222 28.810784 -14.032739 37.053805 -0.997496 1.959201 0.017132 -0.007934 -368257.000000 0 0 1
-17.473722 27.897984 -13.553939 35.599687 -1.011231 1.961384 0.019620 -0.001776 -673580.000000 0 0 1
-16.266522 28.080684 -14.206939 35.425438 -1.045753 1.983446 0.021223 -0.000744 -522343.000000 0 0 1
-15.318222 27.026084 -14.174139 34.146206 -1.055151 1.998851 0.027873 -0.011050 162491.000000 0 0 1
-13.951022 27.509484 -14.666339 34.154124 -1.101457 2.014643 0.029613 -0.008722 -468726.000000 0 0 1
-14.015522 27.680084 -16.057939 34.935359 -1.102090 2.048394 0.015327 -0.010754 198228.000000 0 0 1
-12.979222 28.553684 -16.499339 35.440108 -1.144161 2.055059 0.026926 -0.006455 51705.400000 0 0 1
-13.043922 28.761084 -18.036039 36.368153 -1.145013 2.089701 0.035057 -0.017903 -15477.200000 0 0 1
-12.779622 27.577984 -18.715739 35.695137 -1.136855 2.122715 0.013939 -0.017929 91801.100000 0 0 1
-13.041322 27.687784 -20.119139 36.626073 -1.130606 2.152337 0.016175 -0.022220 -31756.100000 0 0 1
-12.636422 26.354684 -20.785839 35.865020 -1.123703 2.188982 0.000672 -0.013960 921199.000000 0 0 1
-11.207022 26.273884 -20.957439 35.427794 -1.167617 2.203781 0.002858 -0.011648 764553.000000 0 0 1
-10.749922 25.321484 -21.867439 35.141475 -1.169317 2.242434 0.009740 -0.016750 -108835.000000 0 0 1
-9.418922 25.619584 -22.544839 35.402669 -1.218489 2.261153 0.019609 -0.019517 -66563.700000 0 0 1
-9.662322 26.512684 -23.611039 36.793533 -1.221314 2.267531 0.016058 -0.016992 527480.000000 0 0 1
-8.468822 26.523884 -24.384639 37.011458 -1.261737 2.290072 0.007322 -0.020221 307064.000000 0 0 1
-8.689222 27.225584 -25.767469 38.479832 -1.261859 2.304514 0.005896 -0.012639 -567702.000000 0 0 1
-9.658222 26.675384 -26.573939 38.871990 -1.223414 2.323517 0.007181 -0.012987 -722300.000000 0 0 1
-9.868322 27.353784 -27.769639 40.209030 -1.224563 2.333159 0.018717 -0.008879 -189533.000000 0 0 1
-11.140722 26.828684 -28.434849 40.650149 -1.177209 2.345496 0.008552 -0.006315 -219125.000000 0 0 1
-11.571922 27.360584 -29.718169 42.020001 -1.170671 2.356381 0.019208 -0.005280 187023.000000 0 0 1
-12.771422 26.739084 -30.152419 42.275953 -1.125203 2.364890 0.014596 -0.007319 11326.000000 0 0 1
-13.000322 27.002484 -31.656299 43.592015 -1.122099 2.383567 0.009864 -0.006206 -166236.000000 0 0 1
-12.125422 26.292784 -32.504569 43.530258 -1.138693 2.413901 0.006106 -0.005137 93525.300000 0 0 1
-11.966022 24.899784 -32.408719 42.585326 -1.122815 2.435696 0.007680 -0.013557 196602.000000 0 0 1
-11.230722 24.179284 -33.582499 42.878329 -1.135969 2.470599 -0.008952 0.001753 532451.000000 0 0 1
-12.092022 24.164084 34.364169 43.715169 -1.106818 0.666335 -0.003579 0.007527 387281.000000 0 0 1
-11.354022 23.593784 33.278341 42.344166 -1.122278 0.666644 -0.010616 0.007907 -9091.910000 0 0 1
-11.958222 23.715884 31.871757 41.487963 -1.103772 0.694745 -0.003672 0.022646 -1132180.000000 0 0 1
-13.083922 22.965684 31.652737 41.237209 -1.052942 0.695744 0.004598 0.010319 -960380.000000 0 0 1
-13.576622 22.944184 30.349597 40.396265 -1.036484 0.720771 0.012226 0.021296 518474.000000 0 0 1
-14.814422 22.013284 30.160257 40.170796 -0.978438 0.721523 0.007580 0.012090 307409.000000 0 0 1
-14.433522 20.703284 30.219577 39.372266 -0.961978 0.695810 -0.013955 0.005543 -84795.800000 0 0 1
-15.515122 19.791584 30.390617 39.446361 -0.905934 0.691283 -0.011772 0.001659 143498.000000 0 0 1
-15.095422 18.341184 30.215997 38.435364 -0.882167 0.666240 -0.025055 -0.003869 -315829.000000 0 0 1
-14.734722 18.042184 28.875227 37.100015 -0.885966 0.678830 -0.015017 -0.010784 253525.000000 0 0 1
-14.168522 16.732684 28.806167 36.201173 -0.868188 0.650593 -0.031376 -0.016850 49431.600000 0 0 1
-13.788322 16.176584 27.423187 34.696266 -0.864932 0.659370 -0.005374 -0.023942 322913.000000 0 0 1
-12.821022 16.997384 26.761027 34.197108 -0.924553 0.672041 -0.027187 -0.011115 328469.000000 0 0 1
-12.147622 16.276784 25.741757 32.789273 -0.929657 0.667993 -0.032436 -0.011802 304962.000000 0 0 1
-10.895822 16.874984 25.051897 32.110458 -0.997465 0.675845 -0.013716 -0.005964 146432.000000 0 0 1
-11.205522 17.835084 24.062977 31.979381 -1.009838 0.719018 -0.005226 -0.004132 -184420.000000 0 0 1
-11.626522 19.129084 24.458667 33.156059 -1.024666 0.741164 -0.002885 -0.006716 -10363.700000 0 0 1
-10.655322 20.015684 25.276377 33.956718 -1.081606 0.731205 -0.032776 -0.000933 -69857.400000 0 0 1
-10.568822 19.687084 26.610337 34.747536 -1.078113 0.698482 -0.037349 0.002746 -20204.700000 0 0 1
-11.672322 20.091484 27.402917 35.928132 -1.044495 0.703296 -0.006756 0.010388 112862.000000 0 0 1
-11.562722 19.606384 28.862787 36.758227 -1.037953 0.667767 -0.018042 0.004318 328486.000000 0 0 1
-10.565222 20.302484 29.627077 37.437661 -1.090970 0.657748 -0.034158 0.006897 325937.000000 0 0 1
-10.831822 20.114284 30.980377 38.492811 -1.076814 0.635398 -0.028187 0.006078 -276240.000000 0 0 1
-9.780822 20.772684 31.853157 39.265665 -1.130739 0.624558 -0.030723 0.009166 -788855.000000 0 0 1
-8.585722 20.070384 31.933907 38.682158 -1.166573 0.599627 -0.025961 0.003007 259671.000000 0 0 1
-7.543622 20.897384 32.545867 39.406095 -1.224370 0.598983 -0.013461 0.001163 1402630.000000 0 0 1
-6.248522 20.125384 32.957287 39.118510 -1.269753 0.568892 -0.013232 0.000750 93423.200000 0 0 1
-6.376122 19.392284 34.191399 39.821694 -1.253134 0.538240 -0.009024 -0.002749 633197.000000 0 0 1
-5.114722 19.054984 -34.261520 39.536117 -1.308559 2.619120 -0.011752 -0.002876 934205.000000 0 0 1
-4.269222 17.949484 34.121192 38.790024 -1.337289 0.495695 -0.018640 -0.001976 -235566.000000 0 0 1
-4.909722 16.714684 34.187239 38.369953 -1.285095 0.471276 -0.016244 0.000421 60886.600000 0 0 1
-4.602922 15.975384 33.035734 36.983232 -1.290268 0.466245 -0.011134 0.002660 -230662.000000 0 0 1
-5.283722 14.617384 33.078649 36.548360 -1.223941 0.439263 -0.003526 -0.003098 -647552.000000 0 0 1
-4.617922 13.683184 33.842434 36.794905 -1.245310 0.403331 0.004128 -0.001520 -486134.000000 0 0 1
-5.333022 12.465584 34.057038 36.656702 -1.166540 0.378876 -0.000590 0.000449 -328999.000000 0 0 1
-4.516122 11.228984 34.428431 36.493866 -1.188408 0.338050 0.017548 -0.006829 -96265.900000 0 0 1
-4.240922 11.147184 -33.244289 35.318945 -1.207258 2.797137 0.027057 -0.016514 -448010.000000 0 0 1
-3.367222 10.083684 -33.020669 34.689818 -1.248511 2.830121 0.035601 -0.012777 -106954.000000 0 0 1
-3.423222 9.641684 -31.509199 33.128691 -1.229635 2.827623 0.042840 -0.014030 -817865.000000 0 0 1
-4.576622 8.992084 -31.149519 32.742871 -1.100005 2.828344 0.038924 -0.010024 -1140850.000000 0 0 1
-4.601822 8.344984 -29.916189 31.397355 -1.066842 2.833208 0.049913 -0.007297 59933.700000 0 0 1
-5.980522 7.775484 -29.514309 31.101756 -0.915151 2.820717 0.043068 -0.015667 -45679.800000 0 0 1
-5.872522 7.004884 -28.352669 29.789743 -0.873107 2.829716 0.047084 -0.010797 469723.000000 0 0 1
-6.891622 6.012184 -28.142669 29.591395 -0.717350 2.827388 0.053767 -0.021586 -33325.900000 0 0 1
-6.683522 5.432284 -26.746289 28.098811 -0.682490 2.830062 0.048307 -0.023999 -77034.200000 0 0 1
-7.017022 6.289384 -25.623119 27.300901 -0.730769 2.789186 0.029506 -0.018482 771191.000000 0 0 1
-5.988622 7.248284 -25.290289 26.981474 -0.880275 2.785656 0.039331 -0.016742 489418.000000 0 0 1
-6.523622 8.104684 -24.138939 26.285584 -0.893063 2.734646 0.025328 -0.011041 67766.800000 0 0 1
-6.674322 7.440384 -22.884239 24.971870 -0.839619 2.729790 0.019480 -0.013107 67939.700000 0 1 0
-7.906322 7.627684 -22.200839 24.770320 -0.767463 2.682078 0.011786 -0.009388 -33459.600000 0 1 0
-7.746422 7.899284 -20.726939 23.494930 -0.795168 2.651284 0.007807 -0.008899 -210936.000000 0 1 0
-7.190322 9.131384 -20.410439 23.487634 -0.903767 2.623947 -0.007667 -0.001350 -257760.000000 0 1 0
-7.025222 9.346484 -19.015239 22.322406 -0.926244 2.590295 -0.003271 -0.000071 -561976.000000 0 1 0
-8.226022 9.663984 -18.122939 22.124668 -0.865604 2.530686 -0.009984 0.007813 -636301.000000 0 1 0
-7.864222 9.613584 -16.715839 20.825135 -0.885156 2.502565 -0.016246 0.005724 1152010.000000 0 1 0
-8.990522 9.976284 -15.859239 20.781511 -0.837324 2.438957 -0.007463 -0.000074 937010.000000 0 1 0
-9.466422 11.437084 -15.946739 21.788036 -0.879395 2.391908 -0.005528 -0.001788 -376398.000000 0 1 0
-8.457222 12.352084 -15.584539 21.609638 -0.970427 2.376307 -0.014254 -0.001391 -244883.000000 0 1 0
-8.834722 13.651584 -16.000739 22.813192 -0.996422 2.348129 0.004013 -0.006380 74336.100000 0 1 0
-7.751722 14.716884 -15.734539 22.896541 -1.086000 2.328426 0.017463 -0.002647 -95208.800000 0 1 0
-7.382822 15.015284 -14.395839 22.072721 -1.113821 2.281280 0.019896 -0.001945 -88530.500000 0 1 0
-8.284022 15.786584 -13.625639 22.438790 -1.087545 2.223373 0.015072 -0.002804 -1214190.000000 0 1 0
-7.655522 16.320084 -12.317639 21.832920 -1.132184 2.170233 0.016773 -0.012512 566625.000000 0 1 0
-6.788122 17.445084 -12.409239 22.458824 -1.199710 2.156196 0.014859 -0.015533 130192.000000 0 1 0
-5.689622 17.359684 -13.295939 22.594522 -1.254080 2.199947 0.010793 -0.009159 -816892.000000 0 1 0
-5.558622 18.654884 -14.144639 24.061874 -1.281202 2.199188 0.036019 -0.001834 -51862.200000 0 1 0
-4.873922 19.679484 -13.494739 24.354572 -1.328016 2.158071 0.027612 -0.005969 -234926.000000 0 1 0
-5.236022 20.952484 -14.005539 25.740583 -1.325912 2.146116 0.049552 -0.004056 -39106.400000 0 0 1
-4.697622 22.054184 -13.054139 26.055042 -1.360929 2.095575 0.042319 -0.007057 -472894.000000 0 0 1
-4.990522 23.451784 -13.290839 27.414191 -1.361125 2.076949 0.039462 -0.006250 623837.000000 0 0 1
-6.350622 23.925184 -13.284439 28.093080 -1.311343 2.063344 0.051830 -0.009339 764410.000000 0 0 1
-6.965022 23.999684 -11.848939 27.656712 -1.288342 2.013550 0.030107 -0.005501 -161193.000000 0 0 1
-7.199622 22.683584 -11.354839 26.368768 -1.263460 2.015973 0.037486 -0.005381 -316348.000000 0 0 1
-7.789422 22.594584 -10.076039 25.936786 -1.238809 1.969783 0.047241 -0.006405 21435.400000 0 0 1
-6.947322 23.091184 -8.869639 25.693162 -1.278546 1.923263 0.045986 -0.010123 58132.500000 0 0 1
-6.809422 24.485284 -8.862439 26.915426 -1.299548 1.906327 0.044072 -0.003416 -185268.000000 0 0 1
-6.282922 24.940084 -7.600139 26.818743 -1.324011 1.858123 0.036617 -0.006658 62642.600000 0 0 1
-6.288322 26.474184 -7.540639 28.236265 -1.337591 1.841132 0.009286 -0.004323 613823.000000 0 0 1
-5.387522 27.217084 -8.406939 28.990889 -1.375376 1.865008 0.007693 -0.002457 298211.000000 0 0 1
-5.520822 27.061284 -9.798039 29.305189 -1.369546 1.911706 0.010443 0.004400 -232434.000000 0 0 1
-5.083822 28.358184 -10.491939 30.661256 -1.393409 1.920042 -0.002573 0.011763 377393.000000 0 0 1
-5.960922 29.475884 -10.314139 31.792165 -1.371257 1.901199 -0.006128 0.012406 216072.000000 0 0 1
-6.995122 29.629284 -11.272239 32.463665 -1.338953 1.925408 0.004509 0.009697 409165.000000 0 0 1
-7.935222 30.834384 -10.990039 33.682457 -1.318912 1.903166 0.001196 0.015460 217371.000000 0 0 1
-8.802422 30.666784 -9.891339 33.403186 -1.291277 1.871424 0.017072 0.006457 -365613.000000 0 0 1
-9.873422 31.562484 -9.897139 34.519968 -1.267619 1.861585 0.009773 0.008983 154393.000000 0 0 1
-11.037022 31.160684 -8.941639 34.245540 -1.230387 1.834962 0.022092 -0.002051 110189.000000 0 0 1
-11.756422 30.079584 -9.424139 33.642372 -1.198208 1.854723 0.031035 -0.006391 -1183620.000000 0 0 1
-12.966822 29.965084 -8.760739 33.805255 -1.162396 1.832942 0.046538 -0.007855 -460164.000000 0 0 1
-13.880122 28.881484 -9.371539 33.385980 -1.122798 1.855323 0.045410 -0.006719 -117765.000000 0 0 1
-13.742022 27.526384 -8.950639 32.041519 -1.107764 1.853908 0.042241 -0.002066 51744.000000 0 0 1
-14.742122 26.713984 -9.546139 31.970234 -1.066534 1.874016 0.047475 -0.001101 76456.300000 0 0 1
-14.838222 25.298284 -8.982339 30.673415 -1.040340 1.867990 0.042083 -0.001303 54572.000000 0 0 1
-13.749822 24.465284 -9.318939 29.571107 -1.058776 1.891397 0.045570 -0.003764 196131.000000 0 0 1
-14.129122 23.190784 -8.850539 28.561803 -1.023599 1.885856 0.050879 -0.003016 391926.000000 0 0 1
-13.195122 21.983184 -9.212039 27.243959 -1.030203 1.915727 0.052185 -0.006886 109099.000000 0 0 1
-13.191922 21.654884 -10.582839 27.476486 -1.023647 1.966177 0.049737 -0.011417 -227588.000000 0 0 1
-12.294922 20.617184 -10.776939 26.313035 -1.033070 1.992775 0.043541 -0.017331 -560550.000000 0 0 1
-12.351822 19.965384 -12.179639 26.448585 -1.016768 2.049358 0.035639 -0.018615 787425.000000 0 0 1
-13.645522 19.405884 -12.507539 26.818410 -0.957950 2.055989 0.041841 -0.018039 611447.000000 0 0 1
-13.778722 18.769684 -13.738639 27.035244 -0.937553 2.103861 0.034876 -0.018625 131396.000000 0 0 1
-15.233722 18.706284 -14.250539 28.019087 -0.887358 2.104356 0.024482 -0.005423 253726.000000 0 0 1
-15.848222 19.925784 -14.611539 29.354728 -0.898890 2.091808 0.006167 -0.003150 -210980.000000 0 0 1
-17.198322 19.710784 -14.956839 30.133110 -0.853365 2.090196 0.008272 -0.000519 187966.000000 0 0 1
-17.900422 20.863984 -15.752739 31.684061 -0.861700 2.091144 0.002047 0.008560 24910.600000 0 0 1
-18.222622 22.074284 -15.093939 32.359928 -0.880691 2.056057 0.006509 -0.009050 320433.000000 0 0 1
-18.813922 22.988184 -15.980739 33.731355 -0.884926 2.064358 0.012054 -0.007819 -109593.000000 0 0 1
-19.162922 24.316884 -15.302739 34.535522 -0.903385 2.029852 0.009983 -0.002972 -401269.000000 0 0 1
-20.362622 24.253284 -14.596239 34.869877 -0.872382 2.002690 0.015984 -0.001094 -430338.000000 0 0 1
-20.693322 25.418884 -13.906739 35.605205 -0.887521 1.972060 0.013751 -0.007296 -65738.700000 0 0 1
-25.363852 -1.141316 3.909261 25.688712 0.044967 1.418025 0.033090 -0.007761 -22157.100000 0 0 1
-25.628062 -0.291716 5.006861 26.114198 0.011382 1.377872 0.034704 -0.008166 1586280.000000 0 0 1
-26.996172 -0.414016 5.502761 27.554402 0.015335 1.369739 0.046081 -0.008094 1131260.000000 0 0 1
-27.349692 0.494584 6.735861 28.171299 -0.018082 1.329354 0.047514 -0.000472 -360393.000000 0 0 1
-27.274972 1.893184 6.362261 28.071099 -0.069300 1.342162 0.040800 -0.001189 230347.000000 0 0 1
-27.550032 2.713584 7.480961 28.676342 -0.098180 1.306867 0.044963 0.005422 330252.000000 0 0 1
-26.314032 2.939484 8.434561 27.788679 -0.111247 1.262406 0.041044 0.003618 422610.000000 0 0 1
-25.827112 1.843884 9.164961 27.467001 -0.071272 1.230601 0.049836 -0.000990 620074.000000 0 0 1
-24.744722 2.126984 10.041561 26.789145 -0.085746 1.186575 0.046732 -0.010065 24759.300000 0 0 1
-24.151022 0.921684 10.784561 26.465603 -0.038145 1.151089 0.027215 -0.001145 124209.000000 0 0 1
-23.323022 -0.012216 10.020261 25.384427 0.000524 1.165011 0.011562 -0.010070 873433.000000 0 0 1
-23.897322 -0.736016 8.895461 25.509860 0.030789 1.214605 0.013129 -0.001341 -51632.400000 0 0 1
-22.850322 -1.696216 8.288261 24.366158 0.074096 1.223715 0.002497 -0.009677 -59097.300000 0 1 0
-22.216522 -2.522916 9.232861 24.190591 0.113076 1.179192 0.010989 -0.008011 112552.000000 0 1 0
-20.965222 -2.908416 8.739461 22.899292 0.137846 1.179218 0.005289 -0.006939 -277887.000000 0 1 0
-19.722122 -2.748316 9.632361 22.120075 0.138460 1.120249 -0.015218 -0.004418 -235712.000000 0 1 0
-19.352822 -1.423916 9.924161 21.795601 0.073444 1.098055 -0.014575 -0.002143 -53652.600000 0 1 0
-20.150622 -0.801116 10.937561 22.941656 0.039735 1.073836 -0.004925 -0.003989 -438307.000000 0 1 0
-19.810222 0.658784 11.113561 22.724219 -0.033242 1.059782 -0.010094 0.004422 -363221.000000 0 1 0
-20.427122 1.536284 10.145861 22.859702 -0.075067 1.110926 -0.008556 0.009376 569862.000000 0 1 0
-20.515422 2.806084 10.769261 23.339529 -0.135936 1.091204 -0.011843 0.012804 -457932.000000 0 1 0
-21.331722 3.909784 10.079461 23.914939 -0.181273 1.135729 -0.004027 0.016130 -739058.000000 0 1 0
-21.241422 5.135484 10.794761 24.374127 -0.237215 1.111990 -0.013849 0.014128 802079.000000 0 1 0
-22.081122 6.166284 10.281461 25.125832 -0.272319 1.149221 0.000788 0.016300 -57825.500000 0 0 1
-22.360522 7.424484 11.142961 26.063029 -0.320582 1.129028 0.011385 0.012613 -553206.000000 0 0 1
-23.287022 7.125384 12.126261 27.204828 -0.296935 1.108796 0.015436 0.012281 -84981.400000 0 0 1
-23.399722 8.223584 13.034061 28.018941 -0.337957 1.086950 0.021395 0.005059 -18403.100000 0 0 1
-24.158522 7.810884 14.327461 29.153391 -0.312710 1.057041 0.025770 0.000307 1543360.000000 0 0 1
-25.554142 7.512684 14.037661 30.108313 -0.285935 1.085762 0.040354 -0.001398 1056810.000000 0 0 1
-26.273042 7.081384 15.149761 31.143763 -0.263274 1.062779 0.041536 -0.005929 751552.000000 0 0 1
-27.730042 6.664484 14.703861 32.086977 -0.235861 1.094771 0.037335 0.001015 685117.000000 0 0 1
-27.734832 5.586184 13.767661 31.463866 -0.198755 1.117901 0.041003 0.013556 304862.000000 0 0 1
-28.849032 5.656784 12.885361 32.098261 -0.193626 1.157713 0.024403 0.002785 -333408.000000 0 0 1
-29.030402 4.355984 12.021561 31.721550 -0.148938 1.182112 0.049372 0.007884 -206184.000000 0 0 1
-29.469782 3.293784 12.858361 32.321115 -0.111306 1.161644 0.043178 0.004838 446864.000000 0 0 1
-30.245862 2.391384 12.063861 32.650691 -0.078901 1.192344 0.046012 0.006574 23498.500000 0 0 1
-31.250472 1.565984 12.878861 33.836509 -0.050069 1.180329 0.047575 0.011562 -449720.000000 0 0 1
-30.740062 0.331284 13.336961 33.510233 -0.010777 1.161464 0.055656 0.001445 -130029.000000 0 0 1
-31.739432 -0.402516 14.012461 34.697300 0.012681 1.155076 0.047911 0.006602 -77133.600000 0 0 1
-31.321402 -1.590216 14.946961 34.741483 0.050727 1.126045 0.039395 0.001110 -413412.000000 0 0 1
-31.089482 -2.863416 14.331361 34.353209 0.091843 1.140460 0.030987 -0.003544 298612.000000 0 0 1
-31.502222 -3.923316 15.220261 35.205663 0.123903 1.123728 0.029356 0.000308 -129422.000000 0 0 1
-31.403062 -5.250116 14.464961 34.970718 0.165653 1.144358 0.026431 -0.002546 5713.540000 0 0 1
-32.356772 -5.390216 13.423361 35.442936 0.165071 1.182371 0.011244 -0.014182 109760.000000 0 0 1
-32.336972 -6.686016 12.892861 35.448673 0.203888 1.198554 0.013941 -0.009105 -152602.000000 0 0 1
-33.469072 -6.936416 11.812961 36.164053 0.204355 1.238040 0.016871 0.012148 945988.000000 0 0 1
-34.803635 -6.927316 12.291461 37.554770 0.196472 1.237358 -0.004516 0.015800 221786.000000 0 0 1
35.084611 -5.700516 12.729761 37.755432 -0.161072 1.226894 0.001380 0.003788 -1950680.000000 0 0 1
33.602403 -5.562416 12.594761 36.313771 -0.164049 1.216606 0.001317 -0.002055 -842828.000000 0 0 1
32.803003 -6.410716 13.415761 36.015510 -0.192998 1.189095 -0.003491 0.006098 -220084.000000 0 0 1
31.438193 -6.109216 13.330661 34.689898 -0.191933 1.176368 -0.001792 0.006129 -583855.000000 0 0 1
30.548943 -7.171716 13.911861 34.325083 -0.230586 1.153492 -0.010439 -0.003521 -551399.000000 0 0 1
30.254063 -7.135816 15.288961 34.640735 -0.231630 1.113685 0.008433 0.000516 606850.000000 0 0 1
29.272103 -8.138116 15.626661 34.165443 -0.271168 1.095747 0.019423 0.004850 241165.000000 0 0 1
28.804573 -8.140116 17.071161 34.458518 -0.275416 1.052487 0.008476 -0.003819 -244516.000000 0 0 1
29.745703 -8.572916 18.024461 35.821543 -0.280603 1.043529 0.000324 0.004121 -12718.200000 0 0 1
29.237553 -8.465116 19.335661 36.060511 -0.281823 1.004867 0.006533 -0.001978 -115441.000000 0 0 1
30.295333 -9.005016 20.341661 37.585645 -0.288924 0.998923 0.006873 -0.000346 163151.000000 0 0 1
31.312053 -8.066916 20.545161 38.309574 -0.252147 1.004757 0.008666 -0.000757 366195.000000 0 0 1
32.554983 -8.451516 19.923961 39.092445 -0.254000 1.036004 -0.012760 0.013396 509160.000000 0 0 1
33.794783 -7.892616 20.654261 40.385384 -0.229433 1.033949 -0.002546 -0.000339 -29597.600000 0 0 1
34.090703 -8.540216 21.899661 41.409015 -0.245463 1.013537 -0.001127 -0.000066 -686757.000000 0 0 1
-35.166895 -8.129216 22.485861 42.525388 0.227171 1.013654 -0.005830 0.000980 -824260.000000 0 0 1
-34.812280 -8.724616 23.857961 43.095430 0.245561 0.984106 -0.010902 0.008660 -132846.000000 0 0 1
34.895372 -8.041216 24.899261 43.615609 -0.226484 0.963220 -0.005456 0.003689 482152.000000 0 0 1
34.606799 -9.043216 25.916361 44.170896 -0.255598 0.943782 -0.017691 0.003118 -566253.000000 0 0 1
34.155313 -8.472716 27.272161 44.521266 -0.243156 0.911495 0.001665 0.003234 187901.000000 0 0 1
35.104311 -7.834716 28.148561 45.673153 -0.219585 0.906755 -0.010060 -0.003316 -170117.000000 0 0 1
34.488671 -7.160916 29.185261 45.744143 -0.204722 0.878884 -0.001655 -0.007104 -101095.000000 0 0 1
-34.994968 -6.567316 30.304461 46.756152 0.185507 0.865659 -0.001463 -0.006113 904452.000000 0 0 1
-34.301994 -7.590716 31.075061 46.903147 0.217781 0.846596 -0.008274 0.005905 1064620.000000 0 0 1
-32.887242 -7.299416 31.159261 45.888470 0.218412 0.824367 -0.001687 -0.010288 1248950.000000 0 0 1
-32.234392 -7.961016 32.419761 46.405546 0.242127 0.797332 -0.005773 -0.009103 -329803.000000 0 0 1
-32.077922 -9.356416 32.340061 46.501776 0.283804 0.801738 -0.001493 -0.012100 260594.000000 0 0 1
-31.634122 -10.012516 33.505961 47.155250 0.306534 0.780523 0.004580 -0.019792 -192031.000000 0 0 1
-31.608932 -11.498616 33.323861 47.347888 0.348896 0.790051 0.007393 -0.023746 109804.000000 0 0 1
-32.957142 -11.925216 33.455761 48.452780 0.347184 0.808641 0.012465 -0.026334 322523.000000 0 0 1
-33.126772 -13.373216 33.393161 48.901218 0.383690 0.819113 0.017511 -0.027808 605292.000000 0 0 1
-34.655768 -13.641916 33.565161 50.137253 0.375012 0.837307 0.011121 -0.026323 606499.000000 0 0 1
-34.959957 -14.927716 34.070861 51.047614 0.403559 0.840040 0.013444 -0.025121 -770923.000000 0 0 1
34.101083 -15.037116 34.274961 50.633701 -0.415308 0.827226 0.003351 -0.024436 -836919.000000 0 0 1
33.604423 -16.488116 34.426861 50.855914 -0.456142 0.827187 0.005823 -0.013330 -333328.000000 0 0 1
34.051423 -17.003916 -33.411855 50.645678 -0.463135 2.291240 0.009269 -0.023729 145107.000000 0 0 1
33.953013 -18.420216 -33.383355 51.054480 -0.497083 2.283494 0.003694 -0.024256 -282871.000000 0 0 1
34.539517 -19.095716 -32.139655 50.897761 -0.505041 2.254225 0.016058 -0.016725 172288.000000 0 0 1
33.739983 -18.780716 -30.996955 49.516795 -0.507920 2.247195 0.017024 -0.013640 -12255.100000 0 0 1
34.213423 -19.518916 -29.869655 49.434226 -0.518449 2.219596 0.010883 -0.003185 -1067500.000000 0 0 1
33.248433 -19.588316 -28.632355 48.051766 -0.532403 2.209138 0.023024 0.004844 403330.000000 0 0 1
32.002693 -20.240316 -28.735155 47.534744 -0.563943 2.219945 0.018137 0.002502 496394.000000 0 0 1
31.154253 -19.688916 -29.773955 47.378575 -0.563604 2.250325 0.010393 0.006490 -879127.000000 0 0 1
29.752713 -20.377316 -29.805155 46.784680 -0.600512 2.261488 0.007852 0.006954 345528.000000 0 0 1
28.895533 -19.726616 -30.718155 46.558526 -0.599012 2.291316 -0.001837 0.009509 -814738.000000 0 0 1
27.640533 -20.298416 -30.776055 46.078090 -0.633424 2.302194 -0.003318 0.006638 -641443.000000 0 0 1
26.698503 -19.503216 -31.706755 45.809430 -0.630903 2.335253 -0.007866 0.013083 52268.500000 0 0 1
27.019173 -19.710216 -33.083355 47.042925 -0.630245 2.350767 -0.011829 0.004594 181941.000000 0 0 1
25.936953 -19.341116 -33.913755 46.871603 -0.640742 2.379722 0.016326 0.003366 109139.000000 0 0 1
26.218863 -19.645116 33.649161 46.964086 -0.643036 0.772043 0.013064 0.000899 -106450.000000 0 0 1
27.027183 -18.639416 33.072161 46.601119 -0.603749 0.781744 -0.003676 -0.009239 169830.000000 0 0 1
27.197733 -18.793616 31.681761 45.789198 -0.604660 0.806672 -0.003356 -0.001938 -674090.000000 0 0 1
26.193173 -18.098816 30.804261 44.300699 -0.604643 0.801897 0.002417 -0.002614 -852019.000000 0 0 1
26.142893 -16.671916 31.041961 43.874902 -0.567696 0.784827 0.006237 -0.005899 826868.000000 0 0 1
25.095463 -16.134516 30.213061 42.460969 -0.571386 0.779096 0.019740 -0.006971 390552.000000 0 0 1
24.947863 -14.662916 30.541561 42.073554 -0.531358 0.758442 0.024952 -0.005360 -125602.000000 0 0 1
26.123413 -13.890316 30.436361 42.446975 -0.488700 0.771244 0.032354 -0.004858 151703.000000 0 0 1
25.925903 -12.639416 31.133361 42.440470 -0.453614 0.747226 0.052251 -0.009019 1030570.000000 0 0 1
27.294863 -11.882816 31.406061 43.272988 -0.410604 0.758649 0.057769 -0.013966 809953.000000 0 0 1
27.904253 -11.328516 30.303661 42.723465 -0.385649 0.782295 0.046547 -0.017574 208973.000000 0 0 1
29.210123 -10.872616 30.659361 43.720035 -0.356332 0.793625 0.039975 -0.017630 393581.000000 0 0 1
29.981883 -10.204416 29.503661 43.284055 -0.328055 0.820810 0.037492 -0.011007 -204007.000000 0 0 1
29.485973 -8.900016 29.095361 42.369481 -0.293143 0.813849 0.037810 -0.017690 241685.000000 0 0 1
29.852103 -8.582216 27.733461 41.640693 -0.279942 0.841938 0.032279 -0.007143 254855.000000 0 0 1
30.015413 -7.065016 27.528461 41.335888 -0.231172 0.842003 0.038886 -0.010295 550182.000000 0 0 1
28.709473 -6.502216 27.484161 40.272717 -0.222726 0.819686 0.042686 -0.010651 283434.000000 0 0 1
28.716673 -5.150816 27.118861 39.832284 -0.177479 0.821906 0.043163 -0.009169 -155218.000000 0 0 1
27.307593 -4.579316 26.906261 38.608570 -0.166148 0.799732 0.046685 -0.010555 -283966.000000 0 0 1
26.711773 -5.095916 25.788761 37.477291 -0.188509 0.811906 0.046856 -0.006977 -1216720.000000 0 0 1
25.352663 -4.858116 25.748861 36.460426 -0.189327 0.786660 0.051854 -0.006787 -890028.000000 0 0 1
24.757863 -5.309116 24.382461 35.151713 -0.211242 0.804273 0.044795 0.001058 -231120.000000 0 0 1
25.147363 -4.445916 23.349061 34.602524 -0.174986 0.830131 0.049356 0.004451 499929.000000 0 0 1
24.495063 -4.790316 22.121661 33.351509 -0.193125 0.845592 0.045079 0.003109 300940.000000 0 0 1
25.004963 -3.844716 21.026461 32.895928 -0.152563 0.877363 0.042045 -0.000961 -117864.000000 0 0 1
24.313463 -2.656616 21.037261 32.260943 -0.108833 0.860449 0.038771 0.002514 -196833.000000 0 0 1
24.751063 -1.818216 19.981561 31.861949 -0.073328 0.892934 0.035594 0.006301 -198924.000000 0 0 1
23.622763 -0.830616 19.619461 30.718856 -0.035147 0.878017 0.026968 0.006336 -202436.000000 0 0 1
22.633563 -1.486616 18.882161 29.513119 -0.065588 0.876573 0.031212 0.004186 -1002540.000000 0 0 1
21.724563 -0.604916 18.317861 28.422994 -0.027838 0.870462 0.033139 0.011214 -399466.000000 0 0 1
20.576563 -1.432916 17.722161 27.194176 -0.069526 0.860986 0.028198 -0.005332 -499924.000000 0 0 1
20.963263 -2.196416 16.551261 26.799755 -0.104394 0.905122 0.039712 -0.010148 465622.000000 0 0 1
19.887563 -2.971816 16.013461 25.705598 -0.148333 0.898280 0.038229 -0.019254 266311.000000 0 0 1
20.301663 -3.557916 14.654361 25.289654 -0.173491 0.952729 0.041153 -0.014280 171403.000000 0 0 1
19.227563 -4.243516 14.020761 24.172057 -0.217218 0.952019 0.038151 -0.013409 882056.000000 0 1 0
19.470963 -4.463816 12.605061 23.620576 -0.225361 1.007889 0.032938 -0.010924 -423883.000000 0 1 0
18.411063 -5.396216 12.045261 22.653360 -0.285111 1.010165 0.023500 -0.009886 -412519.000000 0 1 0
18.616963 -6.724416 12.425761 23.371107 -0.346616 1.010223 0.040805 -0.015323 811461.000000 0 1 0
17.461163 -7.506216 12.118261 22.540802 -0.405997 1.003191 0.028021 -0.009331 161323.000000 0 1 0
17.523163 -8.984616 12.566761 23.360395 -0.473778 1.002791 0.037116 -0.018474 -364192.000000 0 1 0
18.337463 -9.812716 11.745661 23.885404 -0.491346 1.056697 0.028520 -0.027125 290327.000000 0 1 0
18.152063 -11.224016 11.902561 24.436589 -0.553791 1.062054 0.040508 -0.022155 -457285.000000 0 1 0
18.657263 -11.995216 10.692561 24.623354 -0.571385 1.121597 0.039680 -0.021683 -39229.200000 0 1 0
18.047663 -11.594116 9.443161 23.437469 -0.571026 1.156104 0.035584 -0.013762 392519.000000 0 1 0
18.801463 -12.014016 8.326361 23.815119 -0.568599 1.213626 0.039071 -0.019640 -89951.000000 0 1 0
18.395563 -11.333816 6.970161 22.703200 -0.552186 1.258744 0.029589 -0.009270 -23976.000000 0 1 0
18.861863 -9.967616 6.884261 22.416875 -0.486150 1.258650 0.033085 -0.007838 624711.000000 0 1 0
19.145163 -9.551916 5.588761 22.113585 -0.462784 1.315296 0.003781 -0.009571 -531200.000000 0 1 0
19.796563 -8.184216 5.493761 22.114853 -0.392018 1.319748 0.028405 -0.006674 -684774.000000 0 1 0
20.205363 -7.790416 4.253261 22.068927 -0.367998 1.376857 0.022877 -0.008778 601372.000000 0 1 0
20.893363 -6.532716 4.310361 22.311168 -0.303039 1.376381 0.050720 -0.011477 -427850.000000 0 1 0
21.528763 -6.196016 2.897061 22.589184 -0.280229 1.442192 0.036113 -0.007859 253207.000000 0 1 0
20.458663 -5.924016 2.004861 21.393231 -0.281852 1.476944 0.008244 -0.019734 849383.000000 0 1 0
20.970863 -5.697816 0.692761 21.742174 -0.265297 1.538928 0.004606 -0.008266 72774.100000 0 1 0
-25.185632 -15.960016 0.011961 29.816746 0.564828 1.570395 -0.006350 0.009861 -526667.000000 0 0 1
-24.198522 -15.171016 -0.570839 28.566660 0.559993 1.590780 -0.019920 0.012612 -18068.300000 0 0 1
-22.867522 -15.554916 -0.255639 27.657627 0.597326 1.580039 -0.022734 0.011079 554992.000000 0 0 1
-22.112722 -15.066116 0.983661 26.775510 0.598087 1.534051 -0.027620 0.013310 -555152.000000 0 0 1
-22.626522 -15.551716 2.226661 27.545842 0.602167 1.489873 -0.010760 0.018317 236416.000000 0 0 1
-21.848622 -15.111416 3.323061 26.772372 0.605094 1.446353 -0.006091 0.024251 196133.000000 0 0 1
-22.394822 -15.778016 4.627861 27.782926 0.613766 1.403444 0.005457 0.018696 -524407.000000 0 0 1
-22.328722 -17.222516 4.585561 28.569464 0.657005 1.409593 0.015264 0.009122 225952.000000 0 0 1
-22.773522 -17.906216 5.759561 29.537069 0.666315 1.374545 0.018765 0.004353 -143612.000000 0 0 1
-22.823622 -19.437716 5.673361 30.511138 0.705451 1.383764 0.001723 0.006265 25226.300000 0 0 1
-23.298222 -20.025416 6.850861 31.476320 0.709998 1.351389 0.004252 0.004340 -238232.000000 0 0 1
-23.263022 -21.382216 6.614461 32.281860 0.743295 1.364438 0.001354 0.004576 -212301.000000 0 0 1
-23.854822 -22.250916 7.703461 33.518638 0.750625 1.338897 -0.004245 0.005933 -123377.000000 0 0 1
-23.051222 -22.494916 8.826961 33.396038 0.773185 1.303306 0.002865 0.006350 -297180.000000 0 0 1
-23.761122 -23.344916 9.716561 34.698524 0.776563 1.286973 0.006669 0.003957 125592.000000 0 0 1
-22.966322 -23.752016 10.946261 34.805615 0.802214 1.250870 -0.009288 0.000665 -65918.700000 0 0 1
-22.725722 -22.720316 11.812161 34.237382 0.785279 1.218549 0.011594 0.001873 -297626.000000 0 0 1
-21.849522 -23.095216 12.822861 34.281429 0.813107 1.187428 0.018392 -0.000913 -618772.000000 0 0 1
-22.128222 -22.415416 14.157261 34.533131 0.791846 1.148384 0.014944 0.004740 -530863.000000 0 0 1
-23.318622 -22.807616 14.767561 35.805395 0.774320 1.145666 0.016884 0.002770 -363680.000000 0 0 1
-23.713722 -21.990816 15.852761 36.017310 0.747719 1.115039 0.016630 0.005704 23377.500000 0 0 1
-25.144182 -22.169616 16.456161 37.343366 0.722612 1.114450 -0.010673 0.005800 481611.000000 0 0 1
-26.184272 -21.753416 15.539461 37.420610 0.693231 1.142563 -0.008797 0.006024 659020.000000 0 0 1
-26.598772 -22.729016 14.561861 37.896578 0.707109 1.176398 -0.020967 0.004472 -779850.000000 0 0 1
-27.555252 -23.793616 15.104861 39.415541 0.712272 1.177515 -0.020770 0.003425 -633710.000000 0 0 1
-27.039892 -24.632616 16.177061 39.995235 0.738845 1.154392 -0.020095 0.007582 -447065.000000 0 0 1
-27.920752 -25.624096 16.561161 41.357403 0.742532 1.158799 -0.035944 0.013587 -526528.000000 0 0 1
-27.709652 -26.976676 15.834361 41.788669 0.771996 1.182173 -0.024474 0.004726 -12457.000000 0 0 1
-28.301132 -27.105716 14.536861 41.797060 0.763826 1.215577 -0.036724 -0.004500 -314174.000000 0 0 1
-29.502312 -27.810436 14.697761 43.125757 0.755887 1.223016 -0.034096 -0.005752 6081.580000 0 0 1
-30.261672 -28.224176 13.361061 43.484375 0.750575 1.258483 -0.027018 -0.011946 413081.000000 0 0 1
-29.609242 -29.322306 12.732061 43.573045 0.780529 1.274269 -0.015623 -0.019454 317735.000000 0 0 1
-30.314592 -29.759156 11.576961 44.029625 0.776153 1.304733 -0.004757 -0.013881 -92839.900000 0 0 1
-29.671472 -30.988826 10.839361 44.251501 0.807112 1.323329 0.010370 -0.024201 -132355.000000 0 0 1
-29.853002 -32.232596 11.491061 45.411303 0.823707 1.314971 -0.004949 -0.020329 88786.800000 0 0 1
-29.083262 -33.248356 10.898661 45.498023 0.852121 1.328903 0.013700 -0.018816 -254001.000000 0 0 1
-29.238812 34.497069 11.614561 46.688905 -0.867712 1.319391 0.003690 -0.013148 -1139910.000000 0 0 1
-30.543342 34.089805 11.596061 47.217361 -0.840214 1.322669 -0.001276 -0.007169 -1240160.000000 0 0 1
-30.583512 32.769868 12.012661 46.406028 -0.819895 1.308955 -0.000056 -0.011692 -515619.000000 0 0 1
-32.002042 32.418178 12.461661 47.226708 -0.791858 1.303765 0.005802 -0.010200 -298487.000000 0 0 1
-33.011452 32.329698 11.463761 47.606545 -0.774965 1.327604 -0.004806 -0.009215 428706.000000 0 0 1
-33.574942 33.509434 10.924161 48.677471 -0.784422 1.344449 -0.003955 -0.000889 -164966.000000 0 0 1
-35.022155 33.289483 10.399861 49.425683 -0.760039 1.358798 -0.000810 0.012377 169841.000000 0 0 1
-35.127995 32.612718 9.197361 48.807344 -0.748284 1.381221 -0.013545 0.009317 638441.000000 0 0 1
33.935643 32.364798 8.845961 47.721683 0.761710 1.384352 -0.005108 0.009078 429382.000000 0 0 1
33.702033 31.888468 7.395061 46.982851 0.757755 1.412740 0.002251 0.006663 186956.000000 0 0 1
34.300423 30.620418 7.039961 46.515482 0.728774 1.418866 -0.005685 0.000383 46745.500000 0 0 1
33.783823 30.209568 5.838861 45.695262 0.729603 1.442668 0.026975 -0.011185 -46128.800000 0 0 1
34.144043 28.768088 5.428961 44.976574 0.700153 1.449795 0.026829 -0.008305 5574.070000 0 0 1
33.322173 27.787568 6.061461 43.809331 0.695076 1.431991 0.019694 -0.008653 229227.000000 0 0 1
33.603533 27.551118 7.413161 44.081929 0.686750 1.401826 0.007067 -0.008046 -174736.000000 0 0 1
32.597913 26.542638 7.977561 42.787580 0.683366 1.383253 0.010151 -0.006730 -303119.000000 0 0 1
32.853843 25.320788 7.373961 42.129474 0.656624 1.394859 0.006219 -0.008993 172558.000000 0 0 1
31.713873 24.481968 7.347561 40.732335 0.657411 1.389417 0.013252 -0.007087 -362812.000000 0 0 1
31.924973 23.204298 6.512461 40.000694 0.628512 1.407260 0.005869 0.004292 -278375.000000 0 0 1
32.799223 22.236398 7.002861 40.240359 0.595777 1.395880 0.015628 0.003225 155907.000000 0 0 1
34.179123 22.507398 6.739361 41.475467 0.582337 1.407582 0.024378 -0.004967 579054.000000 0 0 1
35.056827 21.201298 6.814461 41.532072 0.543919 1.405974 0.014498 0.000461 -72674.400000 0 0 1
34.887944 20.413098 5.624661 40.810538 0.529395 1.432532 0.026323 -0.003338 298509.000000 0 0 1
-35.019064 19.124698 5.983761 40.347172 -0.499861 1.421940 0.017189 -0.000962 -37873.800000 0 0 1
35.027722 17.900298 5.066661 39.661480 0.472434 1.442699 0.014576 -0.004866 102645.000000 0 0 1
-34.643952 17.732798 3.845661 39.108115 -0.473089 1.472303 0.022561 -0.008021 532098.000000 0 0 1
-35.090179 16.570698 3.153261 38.933941 -0.441187 1.489718 0.010146 -0.004313 -834813.000000 0 0 1
-34.307617 16.132498 1.877361 37.957800 -0.439550 1.521317 0.023011 0.010629 311684.000000 0 0 1
-33.108302 15.411498 2.078261 36.578588 -0.435658 1.513949 0.028598 -0.003560 -358446.000000 0 0 1
-31.990922 16.095298 2.485961 35.897879 -0.466141 1.501490 0.029556 -0.003510 -873291.000000 0 0 1
-30.755392 15.235498 2.891161 34.443771 -0.459942 1.486759 0.001355 -0.002476 183020.000000 0 0 1
-30.895412 14.320698 3.981061 34.284949 -0.434042 1.454417 0.000720 0.002412 316351.000000 0 0 1
-29.613262 14.151098 4.554661 33.135235 -0.445782 1.432903 0.001751 0.003238 -34557.500000 0 0 1
-29.651152 13.491298 5.979861 33.120457 -0.427005 1.389252 -0.009985 0.008200 -727521.000000 0 0 1
-29.733042 12.055898 5.952861 32.631810 -0.385214 1.387344 -0.012564 0.022316 406003.000000 0 0 1
-29.573092 11.557498 7.286261 32.576573 -0.372560 1.345223 -0.022516 0.018057 -278134.000000 0 0 1
-29.520882 10.034198 7.443161 32.055705 -0.327650 1.336463 -0.017242 0.014605 207503.000000 0 0 1
-30.817572 9.484398 7.297161 33.059418 -0.298560 1.348235 -0.016468 0.014662 70233.800000 0 0 1
-30.751812 8.135098 7.111961 32.594996 -0.258616 1.350835 -0.009868 0.013300 29535.700000 0 0 1
-32.151492 7.512798 6.926661 33.736319 -0.229550 1.364008 0.005039 0.009404 -129839.000000 0 0 1
-32.941512 7.571498 8.073561 34.751305 -0.225923 1.336330 0.010120 0.007636 -157184.000000 0 0 1
-34.114785 6.798998 7.873261 35.665574 -0.196720 1.348211 0.002134 0.011648 404056.000000 0 0 1
-34.690330 6.167298 9.218361 36.420224 -0.175943 1.314902 0.002628 0.007503 96808.800000 0 0 1
35.108083 7.003298 10.151661 37.211287 0.196894 1.294482 -0.003963 0.003081 394042.000000 0 0 1
-34.401129 7.799798 10.901061 36.920288 -0.222961 1.271069 -0.000520 -0.003129 -32991.600000 0 0 1
-35.077895 8.656698 11.944861 38.053604 -0.241950 1.251503 -0.003467 -0.010736 -379461.000000 0 0 1
34.789112 8.000598 13.082261 38.018909 0.226044 1.219518 -0.001898 -0.016986 562409.000000 0 0 1
34.220943 9.028698 13.881061 38.016762 0.257957 1.197024 0.020499 -0.019367 -309460.000000 0 0 1
33.507743 8.536998 15.188761 37.767018 0.249469 1.156911 0.019041 -0.020507 -300834.000000 0 0 1
32.156693 8.212698 14.927261 36.391269 0.250051 1.148136 0.018040 -0.021525 196808.000000 0 0 1
31.626613 7.559198 16.082061 36.276946 0.234612 1.111504 0.004635 -0.016345 -804571.000000 0 0 1
30.151193 7.221898 15.996361 34.887445 0.235094 1.094475 0.010207 -0.007137 -1077430.000000 0 0 1
29.343993 8.365098 16.031761 34.468277 0.277704 1.087030 0.000172 -0.007267 826332.000000 0 0 1
27.921653 8.195198 15.997061 33.206715 0.285489 1.068155 -0.000532 -0.002566 971726.000000 0 0 1
27.180873 7.621198 17.253061 33.083994 0.273369 1.022197 0.006534 0.006998 -415827.000000 0 0 1
27.192503 8.483998 18.388661 33.905063 0.302427 0.997556 0.016450 0.000472 162093.000000 0 0 1
26.618223 8.009298 19.596061 34.010061 0.292278 0.956744 0.021165 0.002443 -193195.000000 0 0 1
27.069013 6.685898 20.291361 34.484374 0.242148 0.941691 0.013095 0.004043 -190700.000000 0 0 1
26.759763 6.703998 21.632361 35.056919 0.245473 0.905790 0.004305 0.010718 71353.600000 0 0 1
27.150493 5.491698 22.256961 35.534213 0.199576 0.893930 0.016644 0.015030 -688155.000000 0 0 1
26.581773 5.371898 23.714461 36.025319 0.199404 0.852275 0.017857 0.015456 333390.000000 0 0 1
25.199563 5.193398 23.929261 35.136859 0.203245 0.821628 0.023367 0.013318 79754.100000 0 0 1
24.368963 6.294298 23.618661 34.515296 0.252767 0.817159 0.016733 0.018972 -856777.000000 0 0 1
22.864263 6.166298 23.758861 33.545212 0.263424 0.783760 0.011808 0.006526 -469952.000000 0 0 1
22.176863 5.480198 22.767461 32.252180 0.242260 0.787075 0.019180 0.019210 -1454690.000000 0 0 1
20.836563 5.419898 22.971561 31.483809 0.254476 0.753014 0.034085 0.007707 -2033920.000000 0 0 1
20.081963 4.324098 22.227661 30.266350 0.212084 0.746012 0.033709 0.005496 952215.000000 0 0 1
18.705263 4.685298 22.006161 29.259357 0.245431 0.719543 0.044842 -0.000964 1198350.000000 0 0 1
17.712263 4.149798 22.861761 29.216523 0.230139 0.672135 0.046737 -0.001764 -128480.000000 0 0 1
16.395463 4.025898 22.080861 27.795386 0.240786 0.652765 0.051297 -0.001889 -508006.000000 0 0 1
16.337163 2.918598 21.238161 26.953304 0.176783 0.663305 0.039177 -0.003438 89621.900000 0 0 1
15.270263 2.865898 20.314061 25.574506 0.185520 0.652927 0.041672 -0.012213 1013750.000000 0 0 1
14.055563 1.924398 20.765061 25.148557 0.136068 0.599362 0.038262 -0.012354 896995.000000 0 0 1
14.515563 0.558998 20.715761 25.301320 0.038491 0.611545 0.022548 -0.009175 243118.000000 0 0 1
13.785863 -0.234302 21.612461 25.635978 -0.016994 0.567864 0.021266 -0.008727 -243507.000000 0 0 1
14.147963 -1.710602 21.696061 25.957852 -0.120324 0.581174 0.017758 -0.005849 -268569.000000 0 0 1
13.617663 -2.339702 20.562661 24.773736 -0.170152 0.591655 0.018351 -0.006192 191629.000000 0 1 0
13.810863 -3.726902 20.569061 25.054261 -0.263575 0.607670 0.007478 0.001577 -137791.000000 0 0 1
13.444363 -4.356602 19.163361 23.811033 -0.313369 0.635441 0.009480 -0.000574 402428.000000 0 1 0
12.050163 -4.510802 18.941461 22.898312 -0.358188 0.596692 0.009178 -0.002313 188487.000000 0 1 0
11.746063 -5.065502 17.688461 21.829131 -0.407153 0.626108 0.015601 -0.003831 132653.000000 0 1 0
10.216463 -5.239802 17.549261 20.971605 -0.473897 0.579365 0.014880 -0.004355 285046.000000 0 1 0
9.706963 -6.392102 18.205461 21.599141 -0.582332 0.568185 0.014513 -0.004468 -839154.000000 0 1 0
8.327963 -6.302902 18.328261 21.095182 -0.647862 0.517949 0.011918 -0.005991 -606308.000000 0 1 0
7.585763 -7.248402 19.294661 21.962857 -0.762660 0.498055 0.003996 -0.006317 -408372.000000 0 1 0
7.679263 -8.666102 18.983261 22.235930 -0.845699 0.547708 0.005052 -0.007510 337509.000000 0 1 0
8.890663 -9.308302 19.365661 23.253327 -0.808343 0.586627 0.022089 -0.012664 -260180.000000 0 1 0
8.918363 -10.711702 18.778961 23.386473 -0.876502 0.638511 0.032534 -0.018647 91818.300000 0 1 0
9.095163 -10.711902 17.348161 22.325446 -0.866842 0.680819 0.028092 -0.018545 127977.000000 0 1 0
9.531063 -12.017902 16.980361 22.882391 -0.900294 0.734642 0.026721 -0.016709 140036.000000 0 1 0
9.644763 -12.135802 15.428761 21.871118 -0.899273 0.787753 0.030362 -0.017445 -30454.500000 0 1 0
10.360563 -13.224202 14.898161 22.453864 -0.906226 0.845308 0.028565 -0.016758 -248266.000000 0 1 0
10.120263 -13.373802 13.520461 21.542543 -0.923006 0.892308 0.024303 -0.010380 158578.000000 0 1 0
11.000363 -14.499902 12.884461 22.299428 -0.921782 0.954774 0.052278 -0.013519 1805620.000000 0 1 0
12.351263 -14.112602 12.488861 22.531997 -0.851857 0.983308 0.048762 -0.019321 1134680.000000 0 1 0
12.450863 -13.471902 11.212961 21.499922 -0.824766 1.022147 0.022677 -0.013955 -1139410.000000 0 1 0
13.901663 -13.300602 10.808661 22.067837 -0.763306 1.058945 0.022316 -0.017905 -349047.000000 0 1 0
14.510563 -14.525902 10.318361 22.978835 -0.785926 1.105108 0.040354 -0.012293 -205858.000000 0 1 0
15.861263 -14.232202 10.082361 23.575183 -0.731318 1.128885 0.042417 -0.018788 -308868.000000 0 1 0
16.735663 -15.467702 9.699761 24.767269 -0.746045 1.168387 0.048326 -0.021358 -29050.700000 0 1 0
16.906263 -16.373202 10.769861 25.882299 -0.769382 1.141634 0.039271 -0.015695 695724.000000 0 0 1
15.865763 -17.367802 10.923761 25.936298 -0.830564 1.136054 0.059787 -0.014503 732764.000000 0 0 1
16.227863 -18.240802 12.173061 27.281016 -0.843731 1.108271 0.044458 -0.018000 -500198.000000 0 0 1
17.373963 -19.024202 12.128061 28.475687 -0.830706 1.130830 0.060566 -0.019765 -426546.000000 0 0 1
17.677663 -19.665302 13.332961 29.614046 -0.838575 1.103780 0.043366 -0.019914 744052.000000 0 0 1
19.125663 -20.284902 13.307361 30.892622 -0.814804 1.125460 0.012547 -0.023320 872358.000000 0 0 1
20.225163 -19.464302 13.653061 31.214137 -0.766230 1.118091 0.007677 -0.026538 165982.000000 0 0 1
21.408163 -20.065602 13.099561 32.133104 -0.753038 1.150900 0.003299 -0.030508 626887.000000 0 0 1
22.182263 -18.964402 12.342261 31.686476 -0.707352 1.170695 -0.005238 -0.026565 -482210.000000 0 0 1
22.055863 -18.937902 10.893161 31.044584 -0.709485 1.212277 -0.005627 -0.013931 438516.000000 0 0 1
20.788263 -18.660902 10.280761 29.767015 -0.731524 1.218159 0.005917 -0.014055 448843.000000 0 0 1
20.429763 -17.155002 10.178361 28.552905 -0.698488 1.206305 0.038834 -0.024941 -141531.000000 0 0 1
21.110663 -16.374702 9.230461 28.266453 -0.659722 1.238143 0.028227 -0.014474 65252.800000 0 0 1
20.516363 -15.088402 9.149761 27.061027 -0.634113 1.225882 0.041452 -0.024178 29549.700000 0 0 1
-33.905872 25.394884 8.128261 43.134405 -0.642849 1.381223 0.016176 -0.000086 368186.000000 0 0 1
-32.953472 24.698784 8.941861 42.141643 -0.643184 1.356985 0.005424 -0.003793 239983.000000 0 0 1
-31.846132 25.484284 9.298461 41.834032 -0.674882 1.346654 0.012957 -0.007079 -889789.000000 0 0 1
-30.810552 24.656384 10.038261 40.718473 -0.674898 1.321700 0.016848 -0.018049 -275000.000000 0 0 1
-30.148952 23.674884 9.196561 39.421265 -0.665691 1.335337 0.016748 -0.015941 554813.000000 0 0 1
-29.173302 22.943184 9.968061 38.429591 -0.666421 1.308411 0.018179 -0.016158 514159.000000 0 0 1
-28.396192 21.993384 8.998061 37.027257 -0.659009 1.325327 0.018467 -0.016946 -34900.100000 0 0 1
-29.217542 21.192584 8.178361 37.009133 -0.627529 1.347975 0.010940 -0.014325 -137527.000000 0 0 1
-28.462452 20.431784 7.299761 35.789041 -0.622606 1.365389 0.010022 -0.009507 -146110.000000 0 0 1
-29.399522 19.680584 6.337761 35.941960 -0.589905 1.393536 0.007187 -0.008312 -43945.200000 0 0 1
-29.920502 18.448584 6.860061 35.814063 -0.552526 1.378059 0.001928 -0.001826 502325.000000 0 0 1
-30.998042 18.103984 5.986561 36.393293 -0.528599 1.405549 -0.000329 -0.002644 29237.400000 0 0 1
-31.647212 16.774084 6.335661 36.373844 -0.487385 1.395722 0.008169 -0.001650 -982448.000000 0 0 1
-32.491732 16.876584 7.396561 37.352923 -0.479056 1.371461 0.007558 0.002943 -390484.000000 0 0 1
-33.200412 15.652684 7.605061 37.484808 -0.440556 1.366494 0.012128 0.002902 -364185.000000 0 0 1
-34.196349 15.844384 8.751861 38.691470 -0.433888 1.342626 0.003823 0.003952 -646579.000000 0 0 1
-35.094655 16.875784 8.461261 39.849966 -0.448223 1.356840 0.010466 0.002380 -252528.000000 0 0 1
34.867105 17.365984 9.699261 40.141849 0.462096 1.326757 0.017403 0.009673 -204617.000000 0 0 1
33.914273 18.549784 9.491561 39.804047 0.500507 1.330019 0.018278 0.005298 -289391.000000 0 0 1
32.658963 18.324684 8.915561 38.495313 0.511319 1.337073 0.009247 0.005283 -183659.000000 0 0 1
31.983583 19.548884 8.695761 38.480186 0.548626 1.342847 0.003614 0.006012 507949.000000 0 0 1
30.460123 19.394484 8.376061 37.069172 0.566981 1.342870 -0.011370 0.005819 429728.000000 0 0 1
29.918423 20.709884 8.213961 37.302553 0.605480 1.348779 -0.021024 -0.001540 1768080.000000 0 0 1
28.519203 20.906584 7.799361 36.211327 0.632578 1.353711 -0.026216 0.001340 1989830.000000 0 0 1
28.247473 20.574484 6.306561 35.510588 0.629511 1.392253 -0.043130 0.017711 -529264.000000 0 0 1
28.400173 19.233684 6.054961 34.830547 0.595286 1.396068 -0.030788 0.018686 80644.500000 0 0 1
28.261473 18.687084 4.719061 34.208003 0.584223 1.432403 -0.029279 0.019994 -1121230.000000 0 0 1
26.987433 18.967384 3.981261 33.225497 0.612618 1.450682 -0.006457 0.012663 -1525860.000000 0 0 1
25.841203 18.278384 4.431261 31.960963 0.615632 1.431702 -0.002823 0.004200 344766.000000 0 0 1
24.615263 18.819784 3.974661 31.239292 0.652753 1.443218 0.016778 -0.002369 95245.100000 0 0 1
24.124063 20.037084 4.789261 31.723685 0.693114 1.419249 0.030898 -0.001042 -911895.000000 0 0 1
24.463863 21.246884 4.182561 32.671157 0.715137 1.442424 0.006123 0.002015 268682.000000 0 0 1
23.846463 22.379484 4.788261 33.051816 0.753674 1.425413 -0.016023 0.013560 -176711.000000 0 0 1
24.439463 23.750684 4.351761 34.355788 0.771106 1.443788 -0.030382 0.017668 -86578.400000 0 0 1
25.652003 23.970484 5.038461 35.468232 0.751525 1.428259 -0.041583 0.021624 78847.600000 0 0 1
26.199163 25.283484 4.765861 36.720078 0.767614 1.440640 -0.019445 0.019835 -968143.000000 0 0 1
27.469463 25.520584 5.598061 37.910551 0.748637 1.422589 -0.015207 0.010740 34773.600000 0 0 1
28.409533 24.408984 5.573961 37.867785 0.709801 1.423064 -0.020308 0.003755 686591.000000 0 0 1
28.998313 24.088684 4.323161 37.945442 0.693178 1.456617 -0.022118 0.003586 -383715.000000 0 0 1
29.980763 25.109484 3.616861 39.273579 0.697204 1.478572 -0.005215 -0.008610 -237941.000000 0 0 1
29.342243 26.292484 3.277161 39.534817 0.730635 1.487808 -0.009046 0.002669 -639192.000000 0 0 1
30.099143 27.129784 2.424761 40.593880 0.733559 1.511029 0.034092 -0.003226 -579427.000000 0 0 1
29.611123 28.604884 2.204461 41.230057 0.768115 1.517303 0.026333 -0.002104 1127000.000000 0 0 1
28.395673 28.900084 1.475561 40.542649 0.794202 1.534393 0.054355 -0.002310 1093410.000000 0 0 1
27.200653 28.468584 2.137461 39.432278 0.808170 1.516564 0.031143 0.006278 -244178.000000 0 0 1
26.003013 29.329184 1.755361 39.235685 0.845439 1.526043 -0.013272 0.004948 -348529.000000 0 0 1
26.109433 30.590884 2.448961 40.292705 0.864272 1.509980 -0.003599 -0.007548 -489651.000000 0 0 1
25.025663 31.375784 2.118161 40.189678 0.897514 1.518068 -0.014374 0.009558 -688993.000000 0 0 1
24.928163 32.738484 2.780161 41.242586 0.920018 1.503335 -0.009295 -0.003368 -767092.000000 0 0 1
24.625863 32.643684 4.167761 41.102475 0.924496 1.469222 -0.001969 -0.032456 -36904.900000 0 0 1
25.756803 32.431584 4.994661 41.715311 0.899609 1.450776 0.005721 -0.027629 -168033.000000 0 0 1
25.493753 32.185184 6.501961 41.570338 0.900894 1.413743 0.017878 -0.040361 403498.000000 0 0 1
24.675763 31.029984 6.876361 40.237265 0.898975 1.399058 0.005501 -0.035867 706155.000000 0 0 1
25.209663 29.713084 6.599161 39.521429 0.867211 1.403034 0.016813 -0.030558 -69670.000000 0 0 1
24.546763 28.652084 7.502161 38.467751 0.862415 1.374514 0.012249 -0.017102 396705.000000 0 0 1
23.293963 28.296984 6.920461 37.299072 0.882071 1.384175 -0.022211 -0.023415 86892.600000 0 0 1
22.913563 26.962084 7.064561 36.081759 0.866393 1.373730 -0.018903 -0.003897 168307.000000 0 0 1
21.800763 26.594684 6.030761 34.913043 0.884133 1.397189 -0.011582 0.001810 114882.000000 0 0 1
22.136263 26.463084 4.633961 34.810667 0.874194 1.437281 -0.013399 0.004222 96032.200000 0 0 1
22.508463 27.598784 3.910061 35.827536 0.886639 1.461443 -0.013971 0.005562 -290703.000000 0 0 1
22.694363 27.273584 2.439161 35.564477 0.876786 1.502158 -0.016807 0.014330 -1001590.000000 0 0 1
23.813363 26.522284 2.183661 35.711009 0.839163 1.509610 -0.047189 0.034321 -766667.000000 0 0 1
23.749663 26.120184 0.814061 35.312508 0.832897 1.547741 -0.036864 0.036855 -571856.000000 0 0 1
24.976063 25.363684 0.302961 35.597921 0.793098 1.562286 -0.019568 0.030111 -544733.000000 0 0 1
26.065833 26.313084 0.089561 37.038008 0.790119 1.568378 -0.012033 0.034998 1126420.000000 0 0 1
27.014973 25.825784 -0.882839 37.383944 0.762897 1.594414 -0.017094 0.036231 420985.000000 0 0 1
27.979743 24.698284 -0.392539 37.323255 0.723186 1.581314 -0.018691 0.024520 -1246920.000000 0 0 1
27.382813 23.498484 -0.082039 36.083292 0.709205 1.573070 -0.026680 0.017740 360990.000000 0 0 1
28.257713 22.535084 0.550261 36.147353 0.673205 1.555573 -0.023809 0.019270 877083.000000 0 0 1
27.345993 21.369384 1.099561 34.722657 0.663324 1.539124 -0.022493 0.018848 788107.000000 0 0 1
26.784703 20.438484 0.183761 33.692517 0.651811 1.565342 -0.007835 0.001217 -20571.000000 0 0 1
25.540203 19.997384 0.642861 32.443961 0.664274 1.550981 0.013659 0.008989 -640924.000000 0 0 1
24.989863 18.745584 -0.034339 31.239260 0.643583 1.571896 0.028032 -0.012965 572954.000000 0 0 1
23.600863 18.482284 0.240961 29.977552 0.664363 1.562758 0.039044 -0.010794 1078930.000000 0 0 1
23.183163 17.289484 -0.404139 28.923150 0.640793 1.584770 0.058020 -0.031696 543668.000000 0 0 1
21.701063 16.890884 -0.129139 27.500087 0.661396 1.575492 0.069183 -0.019493 -764090.000000 0 0 1
21.272963 15.771484 -0.812339 26.494123 0.637966 1.601462 0.073897 -0.025736 1907940.000000 0 0 1
19.929863 15.234684 -0.505839 25.090853 0.652663 1.590958 0.084571 -0.027029 2271490.000000 0 0 1
18.730363 16.158084 -0.911339 24.753600 0.711803 1.607621 0.081213 -0.034628 -477891.000000 0 1 0
18.735663 17.457384 -0.328239 25.610409 0.750094 1.583613 0.064388 -0.029707 -98104.900000 0 0 1
17.602963 18.147984 -0.823739 25.296090 0.800642 1.603366 0.050720 -0.037437 175920.000000 0 0 1
17.487063 19.616084 -0.442939 26.282776 0.842716 1.587650 0.040996 -0.023625 -37307.800000 0 0 1
17.331063 19.815384 0.979761 26.343407 0.852178 1.533596 0.051877 -0.021971 97782.000000 0 0 1
17.579663 21.168084 1.411261 27.552205 0.877745 1.519553 0.045417 -0.021313 -155457.000000 0 0 1
16.571363 22.249384 0.950861 27.758770 0.930631 1.536535 0.053475 -0.022872 475230.000000 0 0 1
15.324063 22.177084 1.643561 27.006504 0.966145 1.509901 0.054944 -0.019659 226198.000000 0 0 1
14.371163 23.014484 1.024561 27.152284 1.012600 1.533053 0.042139 -0.019136 -540093.000000 0 0 1
12.978163 22.952584 1.615461 26.417107 1.056181 1.509606 0.034990 -0.014337 -561904.000000 0 0 1
12.835263 23.500584 2.897461 26.933561 1.070900 1.463010 0.030136 -0.005631 1401550.000000 0 0 1
11.447363 23.451984 3.359261 26.312018 1.116698 1.442777 0.017769 -0.008533 1715390.000000 0 0 1
11.326063 23.854384 4.848461 26.848071 1.127511 1.389211 0.023787 -0.008052 219883.000000 0 0 1
11.914863 22.920584 5.769161 26.468856 1.091409 1.351072 0.027638 -0.026537 172704.000000 0 0 1
11.162163 22.804084 6.954261 26.324549 1.115599 1.303449 0.016688 -0.015510 -280452.000000 0 0 1
11.759063 21.690084 7.919761 25.912505 1.074008 1.260191 0.023412 -0.012090 -133853.000000 0 0 1
12.978963 22.053684 8.478261 26.957362 1.038863 1.250860 0.029505 -0.005798 -340706.000000 0 0 1
14.092863 21.606384 7.707761 26.923116 0.992838 1.280446 0.024558 -0.014409 -606120.000000 0 0 1
15.391863 21.631384 8.488361 27.872540 0.952359 1.261339 0.029107 -0.010753 -907123.000000 0 0 1
15.470763 20.429584 9.177961 27.220348 0.922657 1.226884 0.029587 -0.006837 513945.000000 0 0 1
16.731563 20.147084 9.786461 27.957557 0.877750 1.213175 0.031896 -0.007736 379926.000000 0 0 1
17.048763 21.060984 11.040761 29.259593 0.890292 1.183876 0.019600 -0.003301 -482449.000000 0 0 1
16.264463 20.691184 12.131861 28.979991 0.904615 1.138861 0.018263 -0.007791 -185648.000000 0 0 1
16.317163 21.564984 13.296361 30.134557 0.923052 1.113824 0.015495 0.010471 -207363.000000 0 0 1
17.475663 21.301384 14.298161 31.041668 0.883739 1.092112 0.024461 0.000669 757030.000000 0 0 1
18.756063 21.618384 13.738261 31.747192 0.856174 1.123267 0.040391 0.000299 266375.000000 0 0 1
19.764063 21.265884 14.675061 32.530192 0.821985 1.102775 0.029760 -0.004859 513391.000000 0 0 1
21.198363 21.715584 14.255161 33.528298 0.797450 1.131649 0.035694 -0.004024 394328.000000 0 0 1
21.742463 20.990084 13.161761 32.962862 0.767793 1.160053 0.047220 -0.001894 775163.000000 0 0 1
23.155663 21.277184 13.131461 34.078418 0.743147 1.175230 0.026108 0.007728 831020.000000 0 0 1
23.830763 20.720984 11.901161 33.747623 0.715710 1.210393 0.032830 0.005532 -189754.000000 0 0 1
23.542763 21.516484 10.747461 33.656035 0.740459 1.245771 0.033703 0.012845 970575.000000 0 0 1
24.479063 21.286984 9.657361 33.847080 0.715763 1.281453 0.038595 0.005399 475570.000000 0 0 1
24.084463 22.291984 8.546861 33.912280 0.746767 1.316020 0.010233 0.000889 -80789.700000 0 0 1
24.368763 23.632984 8.875061 35.087337 0.770071 1.315076 0.021149 -0.001421 -811465.000000 0 0 1
25.661233 24.019384 8.615661 36.189215 0.752362 1.330415 -0.007338 0.003300 -1270910.000000 0 0 1
26.197793 25.190684 9.465961 37.556615 0.765803 1.316003 0.005468 -0.000572 63337.600000 0 0 1
27.345193 25.746084 8.839261 38.584361 0.755287 1.339654 0.000673 0.001947 259004.000000 0 0 1
27.960383 26.742584 9.633761 39.871771 0.763140 1.326763 0.009521 -0.002257 -107624.000000 0 0 1
29.142253 27.449084 8.975961 41.027929 0.755488 1.350236 0.022255 -0.010231 -514854.000000 0 0 1
28.832803 28.422484 7.976461 41.264901 0.778232 1.376273 0.028331 -0.011892 -194197.000000 0 0 1
29.727493 28.447084 6.897461 41.719724 0.763392 1.404705 0.022526 -0.007946 -403740.000000 0 0 1
29.448243 29.517384 5.815361 42.098615 0.786571 1.432217 0.051930 -0.008604 59700.100000 0 0 1
29.708573 30.803084 6.322861 43.259772 0.803484 1.424111 0.042703 -0.022560 121592.000000 0 0 1
29.707633 31.765484 5.282461 43.812028 0.818861 1.449931 0.043089 -0.020488 -66063.000000 0 0 1
29.812423 33.260484 5.771261 45.037182 0.840012 1.442299 0.016898 -0.012745 -188075.000000 0 0 1
28.735213 33.790584 6.491361 44.829162 0.866075 1.425483 0.015025 -0.019070 -198131.000000 0 0 1
28.809023 -33.888230 6.546961 44.958143 -0.866233 1.424653 0.012163 -0.018199 733169.000000 0 0 1
27.437153 -33.349830 7.106761 43.766592 -0.882362 1.407695 0.032328 -0.023689 1082450.000000 0 0 1
26.395173 -33.513430 6.166961 43.103208 -0.903662 1.427229 0.022529 -0.029496 -143488.000000 0 0 1
25.106263 -33.152030 6.647761 42.113825 -0.922635 1.412281 0.014783 -0.028778 784655.000000 0 0 1
24.049863 -33.342930 5.504361 41.478246 -0.945925 1.437699 0.013779 -0.023366 109198.000000 0 0 1
24.337963 -32.530030 4.372161 40.861413 -0.928468 1.463591 0.000577 0.001863 107931.000000 0 0 1
23.286963 -32.592730 3.400261 40.201125 -0.950416 1.486114 0.003949 -0.009709 178060.000000 0 0 1
23.569163 -31.980530 2.048161 39.780080 -0.935677 1.519286 0.004601 0.004755 -165301.000000 0 0 1
23.651563 -30.579630 2.088061 38.715245 -0.912461 1.516836 0.010664 0.017266 12986.800000 0 0 1
23.958463 -30.060930 0.788761 38.448532 -0.897889 1.550280 -0.006856 0.022005 -179540.000000 0 0 1
24.398263 -28.520430 0.861661 37.542411 -0.863137 1.547843 0.011545 0.017659 57872.100000 0 0 1
23.385563 -27.558930 1.070761 36.159725 -0.867136 1.541180 -0.000004 0.022901 -280115.000000 0 0 1
22.561763 -27.307730 -0.036239 35.422403 -0.880280 1.571819 0.003417 0.012845 -289016.000000 0 0 1
21.588863 -26.142130 0.220161 33.904844 -0.880505 1.564303 -0.007172 0.016872 34814.500000 0 0 1
22.202263 -24.828830 0.316161 33.309327 -0.841188 1.561305 -0.001673 0.010713 66232.300000 0 0 1
22.408163 -24.324530 1.630161 33.112928 -0.826382 1.521546 -0.008733 0.013746 518693.000000 0 0 1
21.097463 -24.058630 2.459161 32.093116 -0.850881 1.494095 -0.006122 0.010469 556300.000000 0 0 1
21.279563 -23.400030 3.702861 31.844818 -0.832822 1.454254 -0.013555 0.011012 937053.000000 0 0 1
20.017463 -23.492030 4.417661 31.178359 -0.865087 1.428628 0.005712 0.007731 1180800.000000 0 0 1
20.076463 -22.659630 5.793461 30.823488 -0.845769 1.381716 -0.001567 0.004545 -259142.000000 0 0 1
20.184963 -21.227930 5.653661 29.833230 -0.810577 1.380134 0.001776 0.015453 84003.800000 0 0 1
19.064863 -20.506730 5.157361 28.470921 -0.821819 1.388646 -0.000333 0.015595 -264462.000000 0 0 1
19.173363 -19.024830 5.671861 27.599493 -0.781510 1.363816 0.001873 0.015446 129761.000000 0 0 1
19.042663 -18.859530 7.057661 27.714896 -0.780566 1.313308 0.013360 0.004583 -302007.000000 0 0 1
17.752863 -19.025030 7.572561 27.100915 -0.819975 1.287605 0.019762 0.021628 -432570.000000 0 0 1
18.062678 -26.943086 -11.880939 34.544854 -0.980213 1.921893 0.041417 -0.019428 -424988.000000 0 0 1
18.293978 -25.708446 -12.600239 33.975872 -0.952331 1.950730 0.043559 -0.024933 -326060.000000 0 0 1
17.112078 -25.124056 -13.076939 33.091506 -0.972866 1.977055 0.022817 -0.015797 -189816.000000 0 0 1
17.498078 -23.719716 -13.669439 32.490941 -0.935213 2.005030 0.022559 -0.020430 205553.000000 0 0 1
17.536178 -22.610016 -12.760939 31.330049 -0.911116 1.990299 0.023730 -0.015098 -468716.000000 0 0 1
18.748778 -22.381916 -12.087239 31.600130 -0.873501 1.963303 0.016207 -0.019265 -602744.000000 0 0 1
18.977078 -23.236516 -10.821739 31.893185 -0.885960 1.916982 0.020049 -0.020274 14557.400000 0 0 1
18.207878 -22.941216 -9.661939 30.841195 -0.899924 1.889442 0.016910 -0.012313 1145260.000000 0 0 1
16.778578 -23.141916 -9.711839 30.189216 -0.943469 1.898320 0.023880 -0.013770 1045760.000000 0 0 1
16.000878 -22.600316 -8.478639 28.960140 -0.954726 1.867918 0.011348 -0.007197 -483460.000000 0 0 1
15.919478 -21.207016 -8.392339 27.813642 -0.926866 1.877308 0.010040 -0.004555 14165.700000 0 0 1
14.875778 -20.676616 -7.636439 26.591849 -0.947136 1.862070 0.002651 -0.000450 754559.000000 0 0 1
13.410678 -20.704916 -8.222639 26.002916 -0.996036 1.892539 0.008097 -0.000325 947005.000000 0 0 1
12.709778 -21.952316 -8.084539 26.623344 -1.045982 1.879332 0.001149 -0.003718 315916.000000 0 0 1
11.333278 -21.763616 -8.397639 25.934890 -1.090691 1.900536 -0.002567 -0.000809 220264.000000 0 0 1
10.532678 -23.031716 -8.089139 26.586302 -1.141878 1.879957 -0.002170 -0.000784 -319999.000000 0 0 1
10.646578 -23.353616 -6.726339 26.532709 -1.143059 1.827105 0.002195 -0.004079 1398.520000 0 0 1
10.065378 -24.566616 -6.412239 27.312035 -1.181941 1.807786 0.003105 -0.001583 -167786.000000 0 0 1
10.503878 -24.987756 -4.986339 27.560533 -1.172862 1.752721 0.010760 -0.008528 -312688.000000 0 0 1
9.774878 -25.983406 -4.300839 28.092399 -1.210977 1.724497 0.024977 -0.012416 -620797.000000 0 0 1
10.308978 -26.394396 -3.077939 28.502858 -1.198442 1.678994 0.011305 -0.013409 -551579.000000 0 0 1
9.353178 -27.290816 -2.262939 28.937717 -1.240619 1.649077 0.025084 -0.013744 338062.000000 0 0 1
8.363578 -26.387166 -1.729739 27.734887 -1.263857 1.633204 0.014782 -0.008845 -234199.000000 0 0 1
7.763678 -27.023056 -0.634739 28.123356 -1.291033 1.593368 0.024735 -0.013957 -300220.000000 0 0 1
7.081378 -26.112186 0.384561 27.058087 -1.305975 1.556583 0.026154 -0.012102 -357457.000000 0 0 1
5.699678 -26.006816 0.241961 26.625164 -1.355047 1.561709 0.035945 -0.013709 -770917.000000 0 0 1
5.033278 -25.353956 1.295561 25.881180 -1.374824 1.520717 0.038014 -0.014420 461512.000000 0 0 1
3.561478 -25.025316 0.939661 25.294931 -1.429431 1.533640 0.014875 -0.018915 545524.000000 0 0 1
2.624778 -26.091816 0.894061 26.238744 -1.470536 1.536716 0.006559 -0.016534 -496552.000000 0 0 1
1.327278 -25.603656 0.790661 25.650225 -1.519003 1.539967 0.003129 -0.014363 -612506.000000 0 0 1
0.286878 -26.593966 0.296461 26.597166 -1.560009 1.559650 0.012195 -0.006642 -324303.000000 0 0 1
-0.046222 -27.627846 1.188161 27.653422 1.569123 1.527817 0.016206 -0.003622 -106980.000000 0 0 1
0.836078 -28.751346 1.109261 28.784881 -1.541725 1.532251 0.008356 -0.004565 62012.200000 0 0 1
0.348078 -29.886626 2.015161 29.956510 -1.559150 1.503476 0.016961 -0.008186 153698.000000 0 0 1
0.678578 -29.642266 3.345361 29.838161 -1.547908 1.458443 0.012448 -0.006743 164230.000000 0 0 1
0.270878 -30.807566 4.079761 31.077708 -1.562004 1.439140 0.021370 -0.005220 242527.000000 0 0 1
0.673778 -30.596646 5.594361 31.111181 -1.548779 1.389995 0.015915 -0.008835 -493871.000000 0 0 1
2.038478 -30.727056 5.837161 31.342939 -1.504552 1.383467 0.006600 0.003334 -851507.000000 0 0 1
2.234178 -30.733376 7.223761 31.649877 -1.498228 1.340527 0.017613 0.004332 235908.000000 0 0 1
3.586478 -31.310686 7.689961 32.440059 -1.456749 1.331467 0.013968 0.001844 134669.000000 0 0 1
3.635878 -32.665526 7.457561 33.702692 -1.459946 1.347675 0.022999 -0.003519 -359388.000000 0 0 1
4.930678 -33.204376 7.352961 34.364345 -1.423379 1.355158 0.012680 -0.006358 -271929.000000 0 0 1
5.006778 34.310322 7.187861 35.410893 1.425893 1.366391 0.010375 -0.001883 -200480.000000 0 0 1
4.758578 33.927088 5.848761 34.754846 1.431446 1.401706 0.005138 -0.004168 109253.000000 0 0 1
4.805278 32.505628 5.746561 33.357600 1.424030 1.397661 -0.001466 -0.003156 -342786.000000 0 0 1
5.059978 32.093028 4.278361 32.769958 1.414418 1.439865 0.001836 -0.002270 1075450.000000 0 0 1
6.461478 32.116848 3.922261 32.994344 1.372260 1.451638 -0.000891 0.003096 654738.000000 0 0 1
7.104778 30.912378 3.991961 31.968558 1.344884 1.445598 0.004113 -0.002363 1860610.000000 0 0 1
8.636978 30.958718 3.468861 32.327582 1.298730 1.463286 -0.008150 -0.000081 2056210.000000 0 0 1
9.633578 31.603098 4.209161 33.305835 1.274914 1.444078 0.000133 -0.005262 -823283.000000 0 0 1
10.885778 31.457348 3.628261 33.484760 1.237646 1.462228 0.009271 -0.004931 -366553.000000 0 0 1
12.021778 32.073198 4.474761 34.543257 1.212181 1.440890 0.023056 -0.015374 118308.000000 0 0 1
12.446278 31.189338 5.541661 34.035197 1.191104 1.407247 0.022120 -0.011757 -1198130.000000 0 0 1
13.439978 31.732178 6.267461 35.026350 1.170159 1.390892 0.030401 -0.016832 -1176740.000000 0 0 1
14.104378 30.716758 7.216661 34.562015 1.140338 1.360445 0.025036 -0.009523 -473049.000000 0 0 1
13.380178 30.341678 8.353161 34.196811 1.155466 1.324032 0.007248 -0.000735 33685.000000 0 0 1
14.053878 29.258928 8.975561 33.677248 1.123010 1.301019 -0.002202 -0.003129 228302.000000 0 0 1
13.930478 29.242638 10.521761 34.057268 1.126226 1.256715 -0.005896 0.010153 27226.500000 0 0 1
14.636078 30.310828 11.136761 35.454033 1.120949 1.251269 0.000781 0.008511 -91792.200000 0 0 1
13.984678 30.779418 12.309861 35.978833 1.144329 1.221601 -0.008159 0.014426 -175346.000000 0 0 1
14.739478 31.757288 13.220261 37.423960 1.136255 1.209746 -0.005071 0.012474 367635.000000 0 0 1
15.813378 31.207868 13.983661 37.676739 1.101794 1.190551 -0.014971 0.013547 590206.000000 0 0 1
16.561178 32.150318 14.756661 39.059884 1.095128 1.183382 0.000094 0.006299 7917.460000 0 0 1
17.765178 31.586318 15.514961 39.420946 1.058458 1.166283 0.009038 0.006509 463815.000000 0 0 1
18.801878 31.107118 14.622561 39.178855 1.027130 1.188313 0.012691 0.000728 552865.000000 0 0 1
19.163478 29.718778 14.857361 38.356040 0.998066 1.173037 0.011317 0.006299 309949.000000 0 0 1
20.593878 29.399688 14.322561 38.646930 0.959749 1.191141 0.036464 0.002949 737015.000000 0 0 1
21.588878 29.570798 15.322161 39.689801 0.940170 1.174453 0.044008 -0.003642 200905.000000 0 0 1
22.900578 29.459178 14.828361 40.151711 0.910009 1.192532 0.049159 -0.004830 666861.000000 0 0 1
24.168178 29.426998 15.742261 41.205191 0.883206 1.178788 0.052203 -0.004704 605954.000000 0 0 1
24.190078 28.300598 16.510561 40.726924 0.863548 1.153384 0.042602 -0.000244 101393.000000 0 0 1
24.813678 28.409098 17.789861 41.704611 0.852850 1.130101 0.030722 -0.002997 -365062.000000 0 0 1
25.789578 27.279968 18.163461 41.703840 0.813474 1.120164 0.000096 -0.005840 -103051.000000 0 0 1
25.236178 26.020588 18.585961 40.735409 0.800701 1.097008 0.009662 -0.004440 91532.800000 0 0 1
24.641678 26.169448 19.895661 41.083933 0.815457 1.065269 0.020227 -0.005246 85149.400000 0 0 1
24.176978 24.725928 20.363861 40.132089 0.796623 1.038607 0.028846 -0.009483 347488.000000 0 0 1
25.203478 23.785898 20.712861 40.373343 0.756470 1.032082 0.004816 -0.001772 162084.000000 0 0 1
24.622078 22.490598 20.718661 39.259860 0.740187 1.014869 0.022084 -0.009508 -444433.000000 0 0 1
25.573678 21.294698 20.866661 39.279698 0.694353 1.010741 0.000279 -0.011154 -832818.000000 0 0 1
24.961278 20.069498 20.669961 38.119515 0.677191 0.997694 0.005231 -0.005732 -388192.000000 0 0 1
25.775078 18.926398 20.768961 38.130210 0.633371 0.994783 0.005567 -0.009145 -178846.000000 0 0 1
26.352578 18.570398 22.215861 39.151788 0.613867 0.967416 0.009477 0.002204 -180055.000000 0 0 1
25.423278 18.109898 23.153761 38.863969 0.618957 0.932580 0.007834 0.009750 -144357.000000 0 0 1
25.989678 17.957898 24.438461 39.939802 0.604635 0.912358 0.021419 0.015673 -31025.400000 0 0 1
25.057178 17.193698 25.392961 39.601614 0.601389 0.874722 0.013528 0.014815 40200.400000 0 0 1
24.899878 15.876798 24.996261 38.689658 0.567627 0.868371 0.012523 0.009040 767785.000000 0 0 1
23.841978 15.206198 25.716861 38.223360 0.567744 0.832803 0.016586 0.010690 614608.000000 0 0 1
23.206778 14.083598 24.857061 36.807278 0.545459 0.829384 0.011873 0.008435 -701795.000000 0 0 1
22.066378 13.526398 25.405861 36.267702 0.549914 0.794685 0.011104 0.002150 -687304.000000 0 0 1
21.536378 12.547198 24.594161 35.016003 0.527531 0.792076 0.014393 0.003270 -237562.000000 0 0 1
20.220078 12.044998 25.229861 34.503324 0.537248 0.750673 0.015319 -0.003907 -271710.000000 0 0 1
19.105878 12.873498 24.971561 33.975585 0.592923 0.745151 0.019015 -0.006340 -385157.000000 0 0 1
17.987278 12.107898 25.339061 33.349833 0.592469 0.707797 0.028942 -0.006744 -291478.000000 0 0 1
16.624878 12.817298 25.424161 32.970557 0.656788 0.690202 0.024462 -0.012691 -164585.000000 0 0 1
16.494378 13.605898 26.593061 34.122952 0.689729 0.677199 0.031262 -0.005599 557279.000000 0 0 1
15.171378 14.092598 26.806561 33.872758 0.748551 0.657717 0.040129 -0.008753 -41374.700000 0 0 1
14.893178 14.373198 28.295661 35.057666 0.767633 0.631543 0.039154 -0.002396 -66669.000000 0 0 1
14.800978 13.198698 29.113561 35.226041 0.728236 0.597973 0.047524 -0.005030 7339.810000 0 0 1
14.944378 13.506498 30.508361 36.558446 0.734902 0.583555 0.036976 -0.005445 -102881.000000 0 0 1
16.368978 13.336998 31.073861 37.568654 0.683684 0.596829 0.021660 0.001507 -107618.000000 0 0 1
17.250078 14.397198 30.763261 38.094917 0.695495 0.630823 0.024279 -0.002384 -324345.000000 0 0 1
18.517078 13.899998 30.454261 38.256426 0.643922 0.650046 0.009017 0.013949 -364693.000000 0 0 1
19.550078 14.975398 29.976461 38.795055 0.653664 0.687732 0.005777 0.007062 -137398.000000 0 0 1
19.266478 15.710298 28.814161 38.056096 0.684074 0.711858 0.016509 -0.000331 51161.200000 0 0 1
19.300078 14.976998 27.589861 36.851104 0.659939 0.724720 0.022630 -0.002455 -277040.000000 0 0 1
19.116378 15.838798 26.341761 36.196571 0.691906 0.755773 0.017165 -0.004274 -135122.000000 0 0 1
20.143778 16.780498 26.097661 36.992496 0.694563 0.787689 0.015651 0.001118 98971.000000 0 0 1
20.043178 17.371298 24.802861 36.313535 0.714106 0.818907 0.013904 -0.004493 -88997.500000 0 0 1
21.241178 18.266998 24.416761 37.162468 0.710260 0.853927 0.019361 -0.002514 -214678.000000 0 0 1
21.162878 18.833298 23.154661 36.588233 0.727219 0.885575 0.014299 -0.011946 -176299.000000 0 0 1
22.249678 19.553298 22.591961 37.252870 0.720985 0.919210 0.018811 -0.003188 -47492.600000 0 0 1
22.476178 21.016898 23.151561 38.508224 0.751859 0.925781 0.028464 -0.018142 -974565.000000 0 0 1
21.448278 21.885798 22.881961 38.243965 0.795494 0.929399 0.033229 -0.014352 -590643.000000 0 0 1
21.673678 23.173998 23.424561 39.439733 0.818839 0.934858 0.043096 -0.010641 498339.000000 0 0 1
20.694478 24.281228 22.859661 39.247975 0.864978 0.949067 0.054052 -0.027438 344287.000000 0 0 1
21.003278 24.735868 21.594561 38.978531 0.866824 0.983621 0.063796 -0.025508 -44668.100000 0 0 1
20.202278 25.832238 21.195761 39.047366 0.907093 0.997003 0.068790 -0.029587 -319070.000000 0 0 1
20.811178 26.660198 20.049361 39.317275 0.907992 1.035684 0.067434 -0.023470 -299671.000000 0 0 1
20.757078 26.021938 18.727561 38.193181 0.897474 1.058319 0.046779 -0.014985 -3014.750000 0 0 1
21.150578 26.944008 17.720461 38.566063 0.905280 1.093383 0.045337 -0.018834 -97415.200000 0 0 1
21.075478 26.299008 16.309461 37.440781 0.895215 1.120084 0.031922 -0.003374 140668.000000 0 0 1
19.723578 26.085568 15.951961 36.386006 0.923396 1.116968 0.034277 -0.001978 -63796.000000 0 0 1
19.729778 25.526278 14.679461 35.444909 0.912787 1.143789 0.038120 0.011174 1458410.000000 0 0 1
18.240378 25.471198 14.112161 34.360535 0.949335 1.147565 0.030483 0.012424 599956.000000 0 0 1
17.647378 26.738948 13.805161 34.885294 0.987432 1.163934 0.020775 0.019652 243078.000000 0 0 1
16.542678 27.069218 14.649361 34.942903 1.022237 1.138192 0.035024 0.025807 151938.000000 0 0 1
15.228078 26.391098 14.205961 33.618354 1.047449 1.134522 0.016466 0.009067 -1146660.000000 0 0 1
15.078878 24.977868 14.377561 32.526615 1.027668 1.112942 0.007236 0.018444 -245937.000000 0 0 1
15.121778 24.447338 15.740461 32.773504 1.016852 1.069822 0.007525 0.020579 631314.000000 0 0 1
13.928978 24.904998 16.695161 33.060607 1.060853 1.041430 0.026225 0.008344 842056.000000 0 0 1
14.103878 26.229678 17.063761 34.323276 1.077440 1.050487 0.023586 -0.003578 -116021.000000 0 0 1
13.153278 26.522888 18.055161 34.676521 1.110417 1.023156 0.012637 -0.003531 -153317.000000 0 0 1
13.416378 27.817808 18.841961 36.178019 1.121413 1.022994 0.024259 -0.011928 -305384.000000 0 0 1
13.394678 28.922828 18.034061 36.622052 1.137087 1.055909 0.018553 -0.002267 13606.200000 0 0 1
13.800278 30.130148 18.731961 38.067832 1.141291 1.056333 0.031966 0.001733 -56276.000000 0 0 1
13.841578 31.392258 17.846761 38.672600 1.155516 1.091130 0.009102 -0.002645 180897.000000 0 0 1
12.566978 32.008408 17.721661 38.684937 1.196673 1.094937 -0.006654 0.005895 354687.000000 0 0 1
12.718378 33.232585 17.084861 39.472196 1.205285 1.123164 -0.001853 0.003857 131415.000000 0 0 1
11.366878 33.926715 16.750961 39.507247 1.247509 1.132942 0.003984 -0.000343 95637.200000 0 0 1
11.385478 -33.893386 16.026561 39.182157 -1.246719 1.149409 0.005256 -0.006683 -307228.000000 0 0 1
12.160278 -32.808946 16.516761 38.692411 -1.215854 1.129764 0.006445 -0.008925 -280578.000000 0 0 1
11.838278 -32.278756 17.940861 38.780632 -1.219277 1.089843 0.007653 -0.002657 -237727.000000 0 0 1
12.505478 -33.061676 18.882961 40.075274 -1.209182 1.080160 0.021974 -0.004561 275884.000000 0 0 1
12.031178 -32.821026 20.210461 40.378605 -1.219437 1.046592 0.018786 -0.004820 193503.000000 0 0 1
12.952178 -33.624596 21.180661 41.797043 -1.203114 1.039385 0.045200 0.002298 -174651.000000 0 0 1
14.220478 -33.090976 21.353161 41.871138 -1.164919 1.035643 0.049367 -0.000398 -825998.000000 0 0 1
14.986078 -33.758986 22.335461 43.163926 -1.153015 1.026920 0.046612 -0.001422 921847.000000 0 0 1
16.453778 -33.186036 22.322661 43.247439 -1.110511 1.028433 0.070242 -0.002197 846587.000000 0 0 1
16.458478 -31.846656 22.679161 42.419752 -1.093796 1.006718 0.060881 0.006108 -229071.000000 0 0 1
17.693078 -31.274446 22.342861 42.312403 -1.055952 1.014499 0.050434 0.005792 -94689.700000 0 0 1
-4.545222 13.350284 18.385577 23.171503 -1.242647 0.654329 -0.006521 0.005761 -771182.000000 0 1 0
-4.162222 14.602684 17.963777 23.521474 -1.293128 0.701743 -0.013771 0.001537 409226.000000 0 1 0
-5.265122 15.493884 17.693077 24.100351 -1.243220 0.746394 -0.012338 -0.001893 401328.000000 0 1 0
-4.896522 17.003684 17.583677 24.945678 -1.290414 0.788544 -0.004355 0.000782 -152704.000000 0 1 0
-4.438322 17.600484 18.794577 26.128755 -1.323776 0.767993 -0.021048 0.008070 306698.000000 0 0 1
-4.297922 19.011284 18.650077 26.976404 -1.348462 0.807444 -0.015546 0.001875 -778210.000000 0 0 1
-3.673422 19.639484 19.852877 28.166293 -1.385890 0.788591 -0.019438 0.002312 -713303.000000 0 0 1
-4.612022 19.853284 20.872277 29.173199 -1.342540 0.773513 -0.033810 0.006765 -210879.000000 0 0 1
-4.151422 20.503384 22.044377 30.390419 -1.371022 0.759221 -0.029794 0.013545 -197574.000000 0 0 1
-5.188422 20.618084 23.209877 31.475760 -1.324271 0.741600 -0.042652 0.017095 188729.000000 0 0 1
-5.482422 19.343584 23.713677 31.089703 -1.294616 0.703241 -0.047476 0.010739 583694.000000 0 0 1
-6.340122 19.353884 24.900347 32.168264 -1.254224 0.685558 -0.049330 0.011139 839231.000000 0 0 1
-5.595922 19.937184 26.151257 33.357066 -1.297159 0.669746 -0.046100 0.010873 -491183.000000 0 0 1
-5.342822 21.314284 25.985607 34.030812 -1.325188 0.701941 -0.040237 0.006034 496499.000000 0 0 1
-4.300222 21.814484 26.855187 34.864949 -1.376165 0.691543 -0.023130 0.013184 2231240.000000 0 0 1
-2.817022 21.347184 26.476217 34.126645 -1.439592 0.682779 -0.011397 0.019773 734593.000000 0 0 1
-2.449822 20.040284 26.840177 33.585855 -1.449155 0.644914 -0.002637 0.013859 -228017.000000 0 0 1
-1.069122 19.920084 26.595367 33.245545 -1.517177 0.643555 -0.001344 0.019044 97654.300000 0 0 1
-0.335422 18.669484 27.114327 32.921860 -1.552832 0.603073 0.004874 0.016981 -41246.000000 0 0 1
-0.837122 17.527384 26.386457 31.688406 -1.523072 0.586858 0.006120 0.011231 45833.300000 0 0 1
-0.280722 16.281884 26.771857 31.335457 -1.553557 0.546472 0.010036 0.003838 -767884.000000 0 0 1
1.152078 15.967984 26.378537 30.856620 1.498772 0.545487 0.013981 0.002938 -910009.000000 0 0 1
1.429778 15.698084 25.007597 29.561021 1.479967 0.562424 0.002663 0.012314 -204848.000000 0 0 1
1.033278 14.420484 24.534867 28.477670 1.499265 0.532486 0.015269 0.003533 -120350.000000 0 0 1
1.001278 14.241784 23.037777 27.102954 1.500606 0.554792 0.005425 -0.000682 -3809.930000 0 0 1
2.333278 14.317684 22.602477 26.857256 1.409252 0.570598 0.008738 -0.004483 -390100.000000 0 0 1
2.361478 13.850284 21.264077 25.486622 1.401920 0.583893 0.000519 -0.006912 -2998.360000 0 0 1
3.756778 13.723384 20.617477 25.050449 1.303592 0.604057 -0.008786 -0.006499 2188.180000 0 0 1
4.242878 14.992684 20.321577 25.607598 1.295011 0.654133 -0.003202 -0.007959 -970637.000000 0 0 1
5.611378 15.060984 20.084277 25.723510 1.214152 0.674891 0.007107 -0.008682 -615350.000000 0 0 1
6.005378 16.138584 19.081377 25.702478 1.214559 0.734159 0.012488 -0.009923 -114748.000000 0 0 1
5.831978 15.725784 17.744077 24.416480 1.215665 0.757253 0.014162 -0.014319 58720.300000 0 1 0
6.342478 16.681684 16.874877 24.561495 1.207469 0.813381 0.011551 -0.005213 -241959.000000 0 1 0
6.419178 16.226884 15.432877 23.295735 1.194098 0.846676 0.002144 -0.002536 286921.000000 0 1 0
7.473178 15.411984 14.919877 22.715201 1.119306 0.854198 -0.000834 -0.002932 231979.000000 0 1 0
7.640678 14.154084 15.554477 22.375428 1.075801 0.802155 0.007377 -0.007088 -138909.000000 0 1 0
8.574078 13.069484 14.964677 21.639495 0.990188 0.807171 0.003774 -0.007707 -87462.700000 0 1 0
9.895278 13.512484 14.879677 22.403315 0.938716 0.844409 0.009858 -0.013672 -322296.000000 0 1 0
10.807878 12.543384 14.374477 21.926520 0.859583 0.855853 0.009190 0.000187 724700.000000 0 1 0
12.286878 13.015084 14.299277 22.909148 0.814171 0.896723 0.019792 -0.002427 -680924.000000 0 1 0
12.926478 13.073984 15.526077 24.064121 0.791071 0.869516 0.014566 -0.000186 707952.000000 0 1 0
14.171378 13.783884 15.666877 25.224481 0.771538 0.900653 0.012348 0.003313 1510660.000000 0 0 1
15.342178 13.402684 14.687277 25.114347 0.718028 0.946143 0.013388 0.006132 -603258.000000 0 0 1
16.469478 14.245084 14.770877 26.312448 0.713103 0.974763 0.011247 -0.000463 -58714.000000 0 0 1
17.498778 13.670784 13.991877 26.246336 0.663198 1.008538 0.012813 0.007085 2901.440000 0 0 1
18.911078 14.196184 14.350777 27.660537 0.643937 1.025329 0.013444 -0.001662 94280.800000 0 0 1
19.399378 13.646584 15.542477 28.357251 0.613041 0.990711 -0.004660 -0.008635 789123.000000 0 0 1
20.782178 14.013684 15.697577 29.575263 0.593277 1.011291 -0.002531 -0.003339 898074.000000 0 0 1
21.498278 13.495784 16.968177 30.532461 0.560582 0.981541 0.011412 -0.013411 46559.500000 0 0 1
21.753778 12.083284 16.977277 30.124085 0.507023 0.972085 0.006654 -0.008189 292389.000000 0 0 1
22.771878 11.782784 17.909577 31.275315 0.477492 0.961071 0.001630 -0.012740 -279839.000000 0 0 1
23.068478 10.274184 18.081077 31.058636 0.419003 0.949414 0.004529 -0.000173 -530804.000000 0 0 1
21.953078 9.541084 18.489777 30.246351 0.409984 0.913087 0.000524 0.003518 160323.000000 0 0 1
21.905978 8.330684 17.820277 29.442052 0.363403 0.920696 0.002276 0.019116 -208919.000000 0 0 1
20.927578 7.403384 18.567377 28.939956 0.340022 0.874236 0.024577 0.016035 -244466.000000 0 0 1
20.759678 6.151184 17.976977 28.142014 0.288063 0.877865 0.035480 0.005850 232933.000000 0 0 1
19.847678 5.420584 18.740277 27.830038 0.266608 0.832021 0.026828 0.005626 -595331.000000 0 0 1
19.630778 3.988084 18.208277 27.070530 0.200427 0.833048 0.053851 0.014568 -725413.000000 0 0 1
19.011778 3.865084 16.976677 25.779723 0.200566 0.851935 0.049479 0.005176 169076.000000 0 0 1
18.889878 2.571684 16.475377 25.196807 0.135309 0.858111 0.040469 0.000030 -277439.000000 0 0 1
17.858678 1.614684 17.074477 24.760398 0.090169 0.809876 0.039958 -0.001037 -422568.000000 0 1 0
18.301378 0.901384 18.236377 25.851854 0.049212 0.787783 0.042984 -0.004466 -70396.800000 0 0 1
17.230078 0.287484 18.899877 25.576622 0.016683 0.739284 0.038374 -0.005378 -574630.000000 0 0 1
17.607078 -0.444116 20.201677 26.801384 -0.025218 0.717039 0.042841 -0.005985 -338276.000000 0 0 1
18.290078 -1.664416 19.972177 27.132731 -0.090751 0.743518 0.038850 0.001616 -46696.800000 0 0 1
17.389278 -2.694016 20.188977 26.781327 -0.153702 0.716901 0.027729 -0.000787 -343909.000000 0 0 1
17.861878 -4.020416 19.479577 26.733207 -0.221394 0.754424 0.027175 0.000143 67448.200000 0 0 1
17.423478 -4.033716 18.138277 25.472446 -0.227502 0.778348 0.023134 0.000379 361024.000000 0 0 1
17.177278 -5.325916 17.621577 25.178249 -0.300657 0.795577 0.026008 -0.004137 -174638.000000 0 0 1
16.731378 -5.308916 16.104777 23.821995 -0.307255 0.828412 0.014285 -0.004728 -244868.000000 0 1 0
15.415678 -4.829016 15.969477 22.715341 -0.303571 0.791153 0.007352 -0.003502 41675.200000 0 1 0
14.921378 -4.846616 14.615877 21.442039 -0.314060 0.820787 0.006136 -0.006239 177351.000000 0 1 0
15.423278 -3.659816 13.755377 20.987666 -0.232983 0.856080 0.007042 -0.001451 3368.880000 0 1 0
14.881678 -2.369216 14.169977 20.684916 -0.157879 0.816139 0.012044 0.005707 453722.000000 0 1 0
15.513778 -1.374816 13.418977 20.558121 -0.088388 0.859609 0.017144 0.000861 18092.500000 0 1 0
14.588478 -0.137416 13.245377 19.704887 -0.009419 0.833637 0.022057 -0.000627 -738088.000000 0 1 0
15.188878 1.088184 12.837877 19.917260 0.071521 0.870348 0.030544 0.003036 318114.000000 0 1 0
15.883078 1.735884 13.912077 21.185640 0.108859 0.854395 0.031120 -0.000191 93210.600000 0 1 0
16.218178 3.157684 13.436877 21.296711 0.192295 0.888036 0.038009 0.005995 572392.000000 0 1 0
15.073578 4.024984 13.508777 20.637352 0.260935 0.857171 0.034695 0.003595 737237.000000 0 1 0
15.282378 5.267184 12.826877 20.635481 0.331907 0.900021 0.041722 0.001263 450696.000000 0 1 0
14.084778 6.273184 12.913577 20.112043 0.419012 0.873586 0.035069 -0.004416 249917.000000 0 1 0
14.392778 7.472284 12.197377 20.291946 0.478865 0.925926 0.028413 -0.010651 571550.000000 0 1 0
13.421878 8.524184 12.318577 20.113574 0.565827 0.911639 0.019722 -0.005315 101064.000000 0 1 0
13.626778 9.416784 13.549177 21.399651 0.604694 0.885181 0.034980 -0.007079 -64909.200000 0 1 0
13.096478 8.793784 14.685577 21.552599 0.591315 0.821146 0.031620 -0.008397 180875.000000 0 1 0
13.547378 9.442884 15.815377 22.865381 0.608728 0.806993 0.038795 -0.011278 -417175.000000 0 1 0
13.051678 9.003584 17.185977 23.383084 0.603875 0.745167 0.047317 -0.015242 -731712.000000 0 1 0
11.814478 9.593284 17.465877 23.166135 0.682012 0.716757 0.028561 -0.013162 -586915.000000 0 1 0
11.169578 9.048784 18.626177 23.528162 0.680886 0.657284 0.031909 -0.003110 111816.000000 0 1 0
11.850378 9.111184 20.047677 25.007088 0.655457 0.640696 0.044345 -0.011681 -470530.000000 0 0 1
12.993478 8.305384 20.202077 25.415227 0.568743 0.651985 0.050586 -0.014920 -142587.000000 0 0 1
13.533778 8.504684 21.496877 26.788216 0.561044 0.639364 0.051272 -0.015996 443696.000000 0 0 1
15.074278 8.221884 21.454177 27.479354 0.499324 0.674950 0.046473 -0.010662 752452.000000 0 0 1
15.784778 9.344984 20.862677 27.780195 0.534535 0.721235 0.048097 -0.004051 700279.000000 0 0 1
17.061278 8.876684 20.404477 28.039711 0.479742 0.755835 0.043869 -0.001758 616607.000000 0 0 1
17.862578 9.954084 19.585377 28.315057 0.508399 0.806963 0.039538 0.000896 133252.000000 0 0 1
18.374278 10.958784 20.478777 29.615694 0.537783 0.807255 0.025455 0.001076 98923.700000 0 0 1
19.273978 11.773684 19.782977 30.024524 0.548366 0.851449 0.016929 -0.001847 -193578.000000 0 0 1
20.110478 12.757184 20.621477 31.502736 0.565298 0.857152 0.004526 -0.006078 -264250.000000 0 0 1
19.377778 13.915684 21.043177 31.811316 0.622788 0.847980 0.011012 -0.004021 553442.000000 0 0 1
20.051578 14.735684 22.037677 33.239515 0.633760 0.845982 0.009845 -0.003932 80617.300000 0 0 1
21.319278 15.497884 21.560277 34.052042 0.628580 0.885172 0.003562 -0.005475 749088.000000 0 0 1
22.425878 14.592884 21.367077 34.240681 0.576879 0.896912 -0.002315 -0.006333 298859.000000 0 0 1
23.642878 15.315484 21.287777 35.308910 0.574816 0.923664 0.004012 -0.010543 464429.000000 0 0 1
24.918278 14.459184 21.541777 35.972722 0.525781 0.928749 0.001536 -0.004244 176791.000000 0 0 1
25.108278 13.540384 20.487177 35.121105 0.494575 0.947974 -0.006401 -0.007988 -726103.000000 0 0 1
26.311078 12.881484 20.571977 35.796811 0.455280 0.958574 0.005899 -0.011673 -925984.000000 0 0 1
26.555178 12.023884 19.301577 34.961438 0.425171 0.985937 0.017596 -0.009714 -145950.000000 0 0 1
26.896678 12.824984 18.129077 34.879434 0.444936 1.024222 0.011461 -0.013352 638326.000000 0 0 1
27.303078 12.067484 16.964877 34.334957 0.416167 1.053998 0.025188 -0.017583 201573.000000 0 0 1
26.077778 11.801984 16.050977 32.817239 0.424988 1.059736 0.013354 -0.017732 -46739.700000 0 0 1
25.579778 12.963784 15.501377 32.598733 0.469071 1.075240 0.023223 -0.007900 66418.500000 0 0 1
24.524178 12.595484 14.618877 31.205658 0.474464 1.083240 0.015494 -0.003517 75592.100000 0 0 1
24.215778 13.689084 13.527677 30.932070 0.514511 1.118163 0.009679 0.004056 -14374.900000 0 0 1
23.624678 14.851484 14.063677 31.248664 0.561215 1.103967 0.001462 -0.008748 114903.000000 0 0 1
23.456378 15.781584 12.998777 31.116366 0.592241 1.139832 -0.009139 0.000098 -103554.000000 0 0 1
22.619278 16.975684 13.508877 31.341591 0.643819 1.125173 -0.003469 -0.004684 493679.000000 0 0 1
21.248178 16.616384 13.740377 30.271888 0.663678 1.099660 0.016672 -0.004447 745859.000000 0 0 1
20.393478 17.742184 13.803777 30.351660 0.715987 1.098655 0.022799 -0.009503 -340539.000000 0 0 1
19.787278 18.352684 12.475777 29.732177 0.747802 1.137786 0.034941 -0.001874 579411.000000 0 0 1
18.666078 17.695584 11.862877 28.324618 0.758714 1.138652 0.024245 0.000068 771182.000000 0 0 1
17.444878 17.695284 12.588577 27.855324 0.792524 1.101872 0.012903 0.000985 -1063830.000000 0 0 1
16.340078 17.106884 11.791777 26.432737 0.808320 1.108388 0.017775 0.004419 -1105360.000000 0 0 1
16.547178 15.760784 11.547377 25.603775 0.761062 1.102908 0.017179 0.004148 539380.000000 0 0 1
15.456178 15.241384 10.781877 24.237204 0.778401 1.109792 0.016076 -0.004490 377766.000000 0 1 0
15.746178 13.820484 10.206677 23.305024 0.720359 1.117468 0.029072 -0.007784 -281333.000000 0 1 0
15.935578 12.847284 11.201177 23.333703 0.678511 1.070093 0.041337 0.004143 343895.000000 0 1 0
16.130978 11.568584 10.573977 22.491100 0.622154 1.081346 0.029380 0.009026 -368559.000000 0 1 0
16.625978 10.526184 11.449577 22.766565 0.564415 1.043832 0.040935 0.003479 -1242720.000000 0 1 0
17.337678 9.524684 10.787977 22.532091 0.502354 1.071529 0.047059 0.004194 176465.000000 0 1 0
17.702178 8.417384 11.649377 22.801917 0.443856 1.034571 0.041943 0.010065 211275.000000 0 1 0
18.916978 8.681384 12.575577 24.317969 0.430247 1.027301 0.020624 0.005603 -450028.000000 0 1 0
18.778178 9.803484 13.419077 25.075882 0.481146 1.006124 0.025518 0.002181 351989.000000 0 0 1
19.888478 9.907384 14.307077 26.427263 0.462164 0.998724 0.022150 0.008502 -114292.000000 0 0 1
19.349678 9.977484 15.773777 26.884424 0.476082 0.943787 0.020869 0.005734 16592.100000 0 0 1
18.834178 8.830584 16.372577 26.471999 0.438426 0.903981 0.043440 0.002554 -486194.000000 0 0 1
17.574978 8.438484 15.960577 25.195791 0.447635 0.884777 0.052275 -0.004567 -1191520.000000 0 0 1
17.184878 7.074784 16.625577 24.935565 0.390540 0.840968 0.047136 0.008684 -655795.000000 0 1 0
15.827778 6.967284 16.907677 24.185349 0.414669 0.796676 0.040751 -0.002450 -350657.000000 0 1 0
15.411578 5.686384 17.418477 23.942745 0.353472 0.756117 0.048493 0.005819 -483852.000000 0 1 0
13.929278 5.617884 17.798477 23.288864 0.383361 0.700921 0.028679 -0.001665 -306353.000000 0 1 0
13.335678 4.335584 17.839977 22.691460 0.314333 0.666164 0.016557 -0.002116 294781.000000 0 1 0
13.073678 3.714984 16.577877 21.437074 0.276860 0.686724 0.024950 -0.006362 -497551.000000 0 1 0
12.887778 2.156784 16.606277 21.130901 0.165815 0.666684 0.015510 -0.009115 -875249.000000 0 1 0
14.065478 1.455584 16.871777 22.013933 0.103119 0.697557 0.019963 -0.002017 -180754.000000 0 1 0
14.034878 0.036984 16.761277 21.861371 0.002635 0.697100 0.019965 -0.003101 -830451.000000 0 1 0
13.228578 -0.760116 17.749377 22.149795 -0.057397 0.641275 0.017159 -0.005527 377996.000000 0 1 0
11.822278 -0.617416 17.508977 21.135556 -0.052177 0.594527 0.010519 -0.003852 496074.000000 0 1 0
11.069678 -1.402616 18.423777 21.539281 -0.126036 0.544557 0.007188 -0.005367 74312.700000 0 1 0
-25.203612 14.400184 29.040247 41.059996 -0.519090 0.785176 0.036325 -0.010234 -192963.000000 0 0 1
-24.181622 14.495884 30.016187 41.180735 -0.540021 0.754098 0.034020 -0.018252 263038.000000 0 0 1
-23.500522 13.254784 30.070047 40.400143 -0.513544 0.731302 0.021468 -0.008857 -358447.000000 0 0 1
-22.391722 13.190584 31.142987 40.561883 -0.532354 0.695413 0.030097 -0.024892 -331556.000000 0 0 1
-22.740422 13.302584 32.541597 41.869333 -0.529299 0.680564 0.027798 -0.025124 -780726.000000 0 0 1
-21.596922 13.131484 33.307845 41.812384 -0.546300 0.649143 0.014493 -0.020390 -1308540.000000 0 0 1
-21.777622 13.363284 -34.235100 42.718664 -0.550377 2.500443 0.012771 -0.010437 -68779.700000 0 0 1
-22.462622 12.281084 -33.579229 42.225100 -0.500332 2.490205 0.006490 -0.009810 237588.000000 0 0 1
-22.817822 12.605884 -32.263699 41.479002 -0.504728 2.462005 -0.002472 -0.006693 84111.900000 0 0 1
-23.739522 11.604284 -31.495809 41.112167 -0.454661 2.443539 -0.006394 -0.007173 90931.000000 0 0 1
-23.118222 10.440384 -30.943609 40.012008 -0.424191 2.454917 -0.003467 -0.016230 210610.000000 0 0 1
-22.972622 9.344684 -31.863099 40.377241 -0.386333 2.480196 -0.007760 -0.010090 -4768.650000 0 0 1
-22.306522 8.105284 -31.210079 39.208999 -0.348526 2.491442 0.005938 -0.010883 -357423.000000 0 0 1
-23.110222 7.471484 -30.276069 38.814247 -0.312692 2.465502 0.009714 -0.011959 -149935.000000 0 0 1
-22.351322 6.886184 -29.250099 37.450894 -0.298861 2.467102 0.007116 -0.002915 119983.000000 0 0 1
-23.205922 6.033484 -28.235859 37.042968 -0.254366 2.437572 0.011666 0.003652 125618.000000 0 0 1
-23.814422 4.873284 -28.727769 37.631906 -0.201849 2.439339 0.014248 0.002249 -62608.400000 0 0 1
-24.124722 4.064384 -27.640609 36.912392 -0.166906 2.417071 0.025550 0.007212 -464299.000000 0 0 1
-24.928022 2.766384 -27.983399 37.578316 -0.110523 2.410835 0.022888 0.008489 -61744.100000 0 0 1
-26.281192 2.831184 -28.308789 38.731179 -0.107313 2.390443 0.004416 0.007915 -242987.000000 0 0 1
-26.605902 3.620484 -29.482809 39.877537 -0.135247 2.402877 0.000517 0.005659 -392904.000000 0 0 1
-28.021632 3.409284 -30.092529 41.260095 -0.121071 2.388149 0.011431 -0.000239 -622350.000000 0 0 1
-29.086372 3.876384 -29.384879 41.527274 -0.132491 2.356898 0.020642 -0.000551 -995858.000000 0 0 1
-30.277492 4.019084 -30.104619 42.885518 -0.131970 2.348965 0.016782 0.001853 40583.400000 0 0 1
-30.474342 5.443884 -30.732079 43.620891 -0.176774 2.352552 0.013222 -0.008123 -834403.000000 0 0 1
-29.549362 5.609284 -31.779829 43.755987 -0.187596 2.383715 0.026367 -0.008068 15633.500000 0 0 1
-29.531822 6.857484 -32.450699 44.409475 -0.228163 2.390166 0.018087 -0.008999 -549113.000000 0 0 1
-28.988992 8.070184 -31.662229 43.680502 -0.271513 2.381627 0.012256 -0.011013 561822.000000 0 0 1
-27.553002 8.061084 -31.510099 42.626698 -0.284623 2.402694 -0.006782 -0.007323 1277600.000000 0 0 1
-27.081952 7.699184 -30.186109 41.278454 -0.276984 2.390993 -0.014405 -0.010047 -539327.000000 0 0 1
-27.280972 8.773384 -29.108539 40.847653 -0.311148 2.364011 -0.024531 -0.009813 219224.000000 0 0 1
-28.620352 9.020184 -28.677549 41.507711 -0.305313 2.333525 -0.017091 -0.007700 544764.000000 0 0 1
-29.139472 7.953084 -27.908339 41.124637 -0.266442 2.316690 -0.010807 -0.000142 -313078.000000 0 0 1
-30.491402 8.166984 -27.173579 41.651274 -0.261703 2.281552 -0.015562 -0.002261 29213.000000 0 0 1
-30.479342 9.113784 -26.159839 41.187238 -0.290553 2.258992 -0.039625 0.003432 -108513.000000 0 0 1
-30.259192 8.409984 -24.924639 40.094690 -0.271090 2.241637 -0.036669 0.011609 -214816.000000 0 0 1
-29.602502 9.166784 -23.787239 39.066236 -0.300298 2.225463 -0.040627 0.014653 474036.000000 0 0 1
-30.518232 10.126884 -23.184639 39.641440 -0.320397 2.195502 -0.036031 0.011799 1183370.000000 0 0 1
-29.715932 11.096384 -22.509839 38.895491 -0.357381 2.187962 -0.028525 0.003513 168511.000000 0 0 1
-30.546312 12.060984 -21.634839 39.326973 -0.376052 2.153313 -0.030760 0.010025 -229828.000000 0 0 1
-31.243952 11.352784 -20.658339 39.138692 -0.348526 2.126833 -0.041973 0.007194 -261600.000000 0 0 1
-31.783552 12.161884 -19.652139 39.297738 -0.365458 2.094491 -0.046439 0.007670 -406774.000000 0 0 1
-30.875262 12.988784 -18.668239 38.347014 -0.398211 2.079246 -0.039820 0.014364 -164229.000000 0 0 1
-30.228362 12.260484 -17.638739 37.083668 -0.385321 2.066496 -0.023985 0.010334 322571.000000 0 0 1
-31.027412 11.803084 -16.511639 37.076237 -0.363504 2.032354 -0.025980 0.011686 157379.000000 0 0 1
-31.548382 12.838184 -15.463739 37.406505 -0.386472 1.996978 -0.021362 0.013217 -275706.000000 0 0 1
-32.318842 13.836484 -16.064139 38.652457 -0.404514 1.999404 -0.020028 0.016495 -36918.000000 0 0 1
-33.056562 14.481684 -15.049539 39.101715 -0.412904 1.965876 -0.017940 0.014254 -116542.000000 0 0 1
-33.668952 15.844284 -15.531139 40.321904 -0.439844 1.966198 -0.016161 0.014547 102711.000000 0 0 1
-34.387757 15.679984 -16.729039 41.330866 -0.427812 1.987512 -0.015376 0.005576 288173.000000 0 0 1
-35.075456 16.899584 -17.050539 42.504169 -0.448987 1.983568 -0.013174 0.000546 -164813.000000 0 0 1
34.919210 16.899084 -18.567039 43.007734 0.450724 2.017188 -0.009089 -0.004240 612995.000000 0 0 1
33.818583 16.106484 -19.047939 42.023082 0.444477 2.041230 0.026622 -0.009355 142966.000000 0 0 1
32.583013 16.699784 -18.754139 41.137006 0.473622 2.044173 0.072331 -0.017931 -349872.000000 0 0 1
31.423023 15.717484 -19.170539 40.024433 0.463800 2.070278 0.080664 -0.023918 137581.000000 0 0 1
31.136693 15.606484 -20.578139 40.453873 0.464627 2.104449 0.082915 -0.025333 260563.000000 0 0 1
30.217193 14.569284 -20.874039 39.510357 0.449268 2.127415 0.052473 -0.023085 -97429.400000 0 0 1
30.626143 13.101584 -20.587539 39.159404 0.404232 2.124377 0.047026 0.006130 -48321.300000 0 0 1
31.028993 12.834084 -19.226039 38.693058 0.392189 2.090803 0.062478 0.007539 234112.000000 0 0 1
31.090513 11.417084 -19.175439 38.270972 0.351933 2.095601 0.046432 0.010342 -150221.000000 0 0 1
31.421143 10.786984 -17.776739 37.678372 0.330697 2.062130 0.039441 0.007681 142104.000000 0 0 1
30.490453 11.033384 -16.719439 36.482091 0.347204 2.046869 0.038951 0.006650 195013.000000 0 0 1
30.903513 10.486984 -15.485739 36.122183 0.327152 2.013855 0.003762 0.007616 -256643.000000 0 0 1
30.187423 11.120284 -14.293039 35.202730 0.352950 1.988892 0.029140 0.005910 563449.000000 0 0 1
28.761553 11.238884 -14.399439 34.071738 0.372516 2.007132 0.012874 0.010930 730594.000000 0 0 1
28.376203 12.313284 -13.606839 33.793075 0.409410 1.985208 0.017505 0.004199 -558101.000000 0 0 1
26.879693 12.635384 -13.577839 32.657749 0.439420 1.999576 0.031418 0.001032 -450183.000000 0 0 1
26.149003 11.620584 -12.873839 31.377445 0.418186 1.993568 0.007335 0.003756 1049400.000000 0 0 1
24.781863 11.545684 -13.347139 30.423506 0.435991 2.024961 0.006287 0.007658 638197.000000 0 0 1
24.555063 10.716584 -14.661639 30.541119 0.411513 2.071522 -0.005949 0.014788 -676629.000000 0 0 1
24.807963 9.339884 -14.461239 30.195959 0.360074 2.070212 -0.017636 0.017600 -852.914000 0 0 1
26.107763 8.892184 -14.733139 31.269020 0.328272 2.061417 -0.010902 0.011993 -393909.000000 0 0 1
26.583493 7.803984 -13.741839 30.926080 0.285543 2.031239 -0.017240 0.010312 -368547.000000 0 0 1
25.969873 6.564984 -14.039639 30.243095 0.247605 2.053557 -0.012415 0.006681 499529.000000 0 0 1
25.981293 5.732884 -12.906139 29.571303 0.217174 2.022436 -0.025055 0.002910 -32816.200000 0 0 1
25.083263 4.490384 -13.178339 28.688016 0.177143 2.048079 -0.022008 0.005937 -128533.000000 0 0 1
24.668063 3.816784 -12.054739 27.719991 0.153508 2.020696 -0.028277 0.002803 -257095.000000 0 0 1
23.870763 2.716284 -12.371139 27.022891 0.113304 2.046318 -0.029432 0.004211 -497721.000000 0 0 1
23.105963 2.281884 -11.118739 25.743327 0.098438 2.017403 -0.036342 0.005569 -318625.000000 0 0 1
23.934363 1.862884 -10.022839 26.015022 0.077676 1.966298 -0.033669 0.013434 192595.000000 0 0 1
23.246763 1.908884 -8.832439 24.941288 0.081930 1.932779 -0.032585 0.019107 -1151390.000000 0 1 0
23.860963 1.283584 -7.533439 25.054857 0.053742 1.876200 -0.028240 0.024152 -390068.000000 0 0 1
23.740663 -0.149716 -7.327839 24.846302 -0.006306 1.870175 -0.038656 0.019442 325372.000000 0 1 0
24.514163 -0.916116 -8.197039 25.864550 -0.037354 1.893279 -0.029953 0.016638 -775763.000000 0 0 1
24.731563 -2.381516 -7.788839 26.038200 -0.095999 1.874578 -0.008608 0.010720 -608639.000000 0 0 1
25.640443 -2.601316 -6.745339 26.640172 -0.101108 1.826785 0.006246 0.006928 184942.000000 0 0 1
25.699103 -3.961816 -6.378439 26.773576 -0.152958 1.811346 0.000846 0.004326 -137367.000000 0 0 1
26.968663 -4.262416 -5.536939 27.859194 -0.156754 1.770876 0.020946 -0.006712 -82638.000000 0 0 1
28.092733 -4.572116 -6.321239 29.155857 -0.161336 1.789340 0.026252 -0.006473 59416.700000 0 0 1
29.200523 -4.929216 -5.500139 30.120081 -0.167229 1.754434 0.042523 -0.006321 -335847.000000 0 0 1
30.440083 -5.165216 -6.371939 31.525858 -0.168084 1.774316 0.054696 -0.006740 -791958.000000 0 0 1
30.483503 -6.321116 -7.204639 31.954770 -0.204464 1.798215 0.040612 -0.008758 201063.000000 0 0 1
31.352553 -6.290116 -8.352939 33.050261 -0.197997 1.826302 0.038997 -0.009519 -683092.000000 0 0 1
30.799273 -6.885816 -9.667239 33.007048 -0.219954 1.868038 0.028794 -0.003251 784792.000000 0 0 1
29.493353 -6.347616 -9.945439 31.765734 -0.211988 1.889238 0.026981 -0.001826 685675.000000 0 0 1
28.417823 -7.070316 -9.373439 30.747738 -0.243848 1.880577 0.033565 -0.012152 -1547490.000000 0 0 1
27.195633 -6.225516 -9.315539 29.413242 -0.225039 1.893058 0.018809 -0.006536 -1559370.000000 0 0 1
26.488513 -6.099016 -10.560939 29.161152 -0.226307 1.941378 -0.006091 0.000919 662390.000000 0 0 1
25.239463 -5.443416 -10.446539 27.853033 -0.212417 1.955257 -0.015531 0.009499 505996.000000 0 0 1
24.028863 -6.317716 -10.036039 26.795931 -0.257103 1.954693 -0.002742 0.005133 -1305610.000000 0 0 1
24.102463 -6.725116 -8.677039 26.484844 -0.272102 1.904583 0.003247 -0.005821 635166.000000 0 0 1
22.905763 -7.264116 -8.110739 25.361890 -0.307098 1.896315 0.000407 -0.012037 -188174.000000 0 0 1
22.025263 -6.165216 -7.470639 24.061018 -0.272931 1.886502 -0.005230 -0.002992 -414518.000000 0 1 0
21.566963 -5.321816 -8.532039 23.796036 -0.241925 1.937509 -0.008064 0.005744 57976.100000 0 1 0
21.149063 -4.095216 -8.057639 22.999548 -0.191269 1.928729 -0.028165 0.005605 -277634.000000 0 1 0
20.995163 -3.129516 -9.252139 23.155838 -0.147969 1.981833 -0.029619 0.011174 -477082.000000 0 1 0
22.253063 -3.092516 -9.873239 24.540647 -0.138086 1.984848 -0.029321 0.011029 560870.000000 0 1 0
22.058763 -2.326916 -11.080339 24.794707 -0.105098 2.034075 -0.027877 0.013606 -815882.000000 0 1 0
23.343263 -2.164816 -11.855639 26.270717 -0.092474 2.039004 -0.026424 0.009068 -761592.000000 0 0 1
24.301763 -1.285316 -11.297539 26.830247 -0.052841 2.005426 -0.034050 0.013059 148047.000000 0 0 1
25.429133 -1.311716 -12.124839 28.202361 -0.051538 2.015204 -0.028759 0.011537 -198846.000000 0 0 1
26.487553 -0.215016 -11.740639 28.973770 -0.008117 1.988012 -0.021702 0.017924 368689.000000 0 0 1
27.648883 -0.278816 -12.554239 30.366880 -0.010084 1.997002 -0.012864 0.014548 -179901.000000 0 0 1
28.660723 0.594884 -12.220639 31.163039 0.020753 1.973766 0.008846 0.009212 -508111.000000 0 0 1
28.721143 1.943384 -12.964539 31.571508 0.067561 1.993953 0.009572 0.004566 -319481.000000 0 0 1
28.984593 1.632984 -14.365539 32.390462 0.056280 2.030309 -0.001010 0.006178 275735.000000 0 0 1
28.940103 2.775384 -15.160739 32.788418 0.095609 2.051475 -0.000670 0.007954 -281453.000000 0 0 1
29.250533 2.534984 -16.652539 33.753917 0.086449 2.086735 0.000961 0.000526 -755858.000000 0 0 1
28.203963 1.923584 -17.290739 33.138096 0.068097 2.119731 -0.006558 0.004933 -695430.000000 0 0 1
28.573193 1.764484 -18.669639 34.177423 0.061675 2.148685 -0.010767 0.007240 806361.000000 0 0 1
27.453223 1.020284 -19.519439 33.700578 0.037147 2.188546 -0.019129 0.010617 442286.000000 0 0 1
27.319783 -0.359816 -19.292639 33.447062 -0.013170 2.185616 -0.006111 0.008257 42990.400000 0 0 1
27.115403 -1.019416 -20.517039 34.018131 -0.037578 2.218204 -0.002131 0.004182 -96937.700000 0 0 1
27.045503 -2.547516 -20.402139 33.973466 -0.093917 2.214962 -0.000705 0.004710 319672.000000 0 0 1
25.764213 -3.016116 -19.976739 32.740827 -0.116536 2.227043 -0.002471 0.005424 448078.000000 0 0 1
25.572203 -4.414116 -19.835539 32.662986 -0.170929 2.223427 0.001479 0.001945 -272771.000000 0 0 1
26.278183 -5.088016 -18.636539 32.615202 -0.191255 2.179015 -0.006090 0.001484 -316715.000000 0 0 1
27.671993 -5.114416 -18.736739 33.807719 -0.182760 2.158216 -0.020281 -0.001256 -321098.000000 0 0 1
28.340873 -5.445816 -17.529239 33.765904 -0.189840 2.116641 -0.022024 0.008069 882324.000000 0 0 1
29.899563 -5.348816 -17.657239 35.133628 -0.177020 2.097370 -0.015129 0.006739 667049.000000 0 0 1
30.533283 -6.299316 -18.502339 36.253267 -0.203455 2.106404 -0.013890 0.001847 347189.000000 0 0 1
31.858333 -5.897916 -18.848639 37.483463 -0.183057 2.097692 -0.013663 0.004397 232787.000000 0 0 1
32.578283 -7.098716 -19.429439 38.590665 -0.214544 2.098412 -0.014566 0.011415 -461880.000000 0 0 1
32.689613 -8.181816 -18.486339 38.435630 -0.245250 2.072556 -0.013291 0.003317 -81070.400000 0 0 1
33.232643 -9.310116 -19.080839 39.435584 -0.273148 2.075843 -0.011891 0.006617 -269179.000000 0 0 1
34.026823 -10.093916 -17.999939 39.795850 -0.288377 2.040147 -0.006869 0.002337 -727638.000000 0 0 1
33.215483 -10.639216 -16.967639 38.786106 -0.309983 2.023576 -0.006762 0.001672 -546656.000000 0 0 1
33.834893 -11.440016 -15.988739 39.132004 -0.326046 1.991699 0.018722 -0.010572 -613737.000000 0 0 1
35.142330 -10.894516 -15.317739 39.853569 -0.300616 1.965301 0.019968 -0.010774 -400851.000000 0 0 1
-34.876641 -11.671616 -14.209239 39.427265 0.322939 1.939484 0.017622 -0.013875 95321.700000 0 0 1
-34.338212 -12.968016 -14.424739 39.437994 0.361097 1.945243 0.010797 -0.014384 -245856.000000 0 0 1
-32.904322 -12.966516 -15.024039 38.425860 0.375382 1.972501 0.002478 -0.011282 -501424.000000 0 0 1
-32.726752 -12.522516 -16.371739 38.676706 0.365451 2.007878 -0.005017 0.000378 507991.000000 0 0 1
-31.354972 -12.614216 -16.778339 37.732816 0.382491 2.031593 0.004791 0.001929 424331.000000 0 0 1
-30.975182 -11.797316 -18.047839 37.740735 0.363901 2.069407 0.007313 0.008253 21705.400000 0 0 1
-31.089902 -10.348116 -17.961539 37.366863 0.321311 2.072227 0.021196 -0.004586 1198440.000000 0 0 1
-32.435432 -9.804216 -18.052739 38.393767 0.293537 2.060313 0.006619 -0.004548 825579.000000 0 0 1
-32.561632 -8.316116 -17.722539 37.993500 0.250051 2.056084 0.000872 -0.003693 -178481.000000 0 0 1
-33.939682 -8.027816 -17.819339 39.164738 0.232263 2.043151 0.006871 -0.001894 -29962.800000 0 0 1
-34.399689 -6.782616 -17.418739 39.150415 0.194674 2.031879 0.011622 -0.003157 -330636.000000 0 0 1
23.679078 27.789784 -27.807799 45.893840 0.865097 2.221713 -0.009763 0.025406 -375069.000000 0 0 1
24.029778 26.984384 -26.676179 44.913314 0.843251 2.206754 -0.009003 0.019866 18922.000000 0 0 1
25.173878 26.257584 -27.070459 45.343077 0.806466 2.210570 -0.003183 0.006570 -302267.000000 0 0 1
25.827778 25.354884 -26.003379 44.565906 0.776159 2.193805 -0.001187 -0.000261 -524267.000000 0 0 1
26.425778 25.973484 -24.922239 44.654917 0.776767 2.162899 0.004554 0.009709 -31991.900000 0 0 1
26.961678 25.132484 -23.929139 43.945165 0.750299 2.146616 0.001629 0.004975 -87674.300000 0 0 1
27.586678 25.969984 -22.765439 44.201019 0.755221 2.111855 -0.012661 0.007530 -213154.000000 0 0 1
26.733978 26.864184 -22.130739 43.888034 0.787827 2.099315 -0.014634 0.013985 177548.000000 0 0 1
27.491578 27.659184 -21.180439 44.378241 0.788437 2.068343 -0.023862 0.009983 361936.000000 0 0 1
26.591078 28.692284 -20.513239 44.171547 0.823388 2.053753 -0.014186 0.011818 -238666.000000 0 0 1
25.715878 28.202184 -19.539339 42.877212 0.831478 2.043960 -0.013130 0.002260 -631847.000000 0 0 1
24.883278 29.202284 -19.066239 42.842413 0.865084 2.032006 -0.010245 0.000690 -520663.000000 0 0 1
24.260378 28.593884 -17.800339 41.509375 0.867205 2.013990 0.007471 -0.003043 -18656.800000 0 0 1
23.373478 27.506484 -18.097439 40.378750 0.866451 2.035538 0.009389 -0.009857 -47000.200000 0 0 1
22.250078 27.573284 -17.261039 39.411869 0.891836 2.024131 0.020586 -0.002300 -480481.000000 0 0 1
21.152078 26.547284 -17.586239 38.228844 0.898028 2.048820 0.022765 -0.003143 -295981.000000 0 0 1
20.553278 26.892784 -18.817039 38.726477 0.918226 2.078184 0.011939 -0.004794 -83149.600000 0 0 1
19.674278 25.882984 -19.292139 37.804665 0.920847 2.106343 0.009200 0.000415 -209864.000000 0 0 1
18.930978 26.144584 -20.559739 38.270407 0.944086 2.137937 0.000675 0.007547 -512090.000000 0 0 1
17.870178 27.022684 -20.447639 38.310242 0.986516 2.133811 -0.013074 0.008867 -1148620.000000 0 0 1
16.957078 26.796284 -21.481839 38.302124 1.006597 2.166211 -0.006728 0.018188 34735.900000 0 0 1
15.760578 27.797884 -21.450439 38.486874 1.055017 2.161980 -0.012836 0.017161 361131.000000 0 0 1
14.998178 27.612684 -20.259639 37.387948 1.073218 2.143464 -0.010784 0.012805 -95496.000000 0 0 1
14.101178 28.691684 -20.037039 37.729814 1.113994 2.130655 -0.018027 0.011367 120878.000000 0 0 1
13.566278 28.704384 -18.616339 36.804261 1.129291 2.101129 -0.018312 0.008959 -26175.500000 0 0 1
12.726078 27.583984 -18.401539 35.516839 1.138538 2.115433 -0.018427 0.011420 -305983.000000 0 0 1
12.313678 27.693384 -17.044239 34.771486 1.152406 2.083091 -0.013004 0.013279 -125030.000000 0 0 1
11.472978 26.508184 -16.556139 33.292924 1.162330 2.091265 -0.002113 0.014923 -457655.000000 0 0 1
12.149878 25.297484 -16.473039 32.541408 1.123049 2.101590 -0.015258 0.014386 -316596.000000 0 0 1
11.264378 24.147184 -16.448139 31.313160 1.134316 2.123839 0.015601 0.011666 263079.000000 0 0 1
12.026878 22.851984 -16.564339 30.679574 1.086335 2.141132 -0.000505 0.010159 -139175.000000 0 0 1
12.556478 22.676684 -17.877739 31.488263 1.065103 2.174577 0.001108 0.013077 103429.000000 0 0 1
13.536078 21.649484 -17.975839 31.225892 1.012026 2.184221 0.006660 0.010775 -15471.400000 0 0 1
12.889978 20.262884 -18.197339 30.131033 1.004228 2.219232 0.015480 0.013449 109520.000000 0 0 1
12.157078 19.775884 -17.076339 28.818076 1.019607 2.205025 0.022167 0.007288 137742.000000 0 0 1
11.681278 18.438384 -17.288139 27.844317 1.006086 2.240668 0.021209 0.003740 440752.000000 0 0 1
12.788578 17.302584 -17.342839 27.635144 0.934299 2.249218 0.011870 0.003228 512547.000000 0 0 1
13.409878 17.073484 -16.107339 27.032851 0.905008 2.209111 0.003848 0.001927 -50983.000000 0 0 1
14.339178 16.008984 -16.193739 26.909790 0.840364 2.216523 0.010908 0.005207 -745062.000000 0 0 1
14.742478 15.529684 -14.804039 26.032121 0.811397 2.175701 0.024858 0.010086 -115955.000000 0 0 1
15.584878 16.347284 -13.966739 26.555450 0.809269 2.124624 0.001720 0.012620 1262850.000000 0 0 1
16.911778 16.710084 -14.373639 27.781948 0.779399 2.114575 -0.015966 0.014601 698972.000000 0 0 1
17.951778 15.527584 -14.473239 27.800123 0.713116 2.118371 -0.020944 0.007907 -334148.000000 0 0 1
18.219178 14.790284 -13.342939 26.994906 0.681893 2.087798 -0.005435 0.002105 110338.000000 0 0 1
19.048078 15.474384 -12.438939 27.513870 0.682248 2.039911 -0.013280 0.008358 -439118.000000 0 0 1
19.783378 14.402784 -11.554439 27.061546 0.629288 2.011934 -0.001413 0.007239 -113097.000000 0 0 1
18.814778 13.653684 -10.809839 25.637308 0.627760 2.006055 0.023758 0.005836 875016.000000 0 0 1
19.362678 12.484184 -10.166339 25.181791 0.572679 1.986373 0.026493 -0.000906 36833.400000 0 0 1
19.766778 11.255384 -11.077439 25.300570 0.517622 2.023984 0.014763 -0.001642 -1212120.000000 0 0 1
20.939978 11.465384 -11.781339 26.622127 0.500949 2.029225 0.010853 0.001490 -244326.000000 0 0 1
21.213678 10.360884 -12.661939 26.789788 0.454329 2.063081 0.004157 0.004937 -230414.000000 0 0 1
21.969178 9.201984 -11.992639 26.667296 0.396658 2.037241 0.001679 0.008787 -800023.000000 0 0 1
21.172578 8.565784 -11.018339 25.358519 0.384440 2.020282 0.003553 0.002895 352409.000000 0 0 1
21.848478 7.596984 -10.265239 25.307021 0.334635 1.988462 -0.006009 0.007191 -613979.000000 0 0 1
22.239578 6.216484 -10.932939 25.549416 0.272567 2.012979 -0.000459 0.001165 571684.000000 0 0 1
21.119478 5.385184 -11.316039 24.557795 0.249666 2.049684 0.010574 -0.003238 1125890.000000 0 1 0
20.382978 5.884284 -12.456639 24.602001 0.281045 2.101716 -0.011398 -0.006280 57446.400000 0 1 0
19.341178 4.846784 -12.949839 23.775425 0.245538 2.146796 -0.009560 -0.012181 42278.400000 0 1 0
19.914078 3.773984 -13.687839 24.457522 0.187292 2.164769 -0.010026 0.000655 62834.900000 0 1 0
19.072978 2.665284 -13.747039 23.661431 0.138842 2.190740 0.002892 -0.000898 -858546.000000 0 1 0
19.528878 1.520384 -14.606639 24.434454 0.077696 2.211536 0.007015 0.004215 -392432.000000 0 1 0
20.584078 0.765884 -14.052339 24.935097 0.037190 2.169481 0.004517 0.006558 -251097.000000 0 1 0
21.651678 0.696184 -14.951039 26.321349 0.032143 2.174894 -0.013319 0.010171 -635012.000000 0 0 1
21.883378 -0.720216 -15.551039 26.855833 -0.032900 2.188367 -0.002316 0.010256 -74010.400000 0 0 1
20.847978 -1.311316 -16.360239 26.533284 -0.062816 2.235204 -0.004626 0.009542 702893.000000 0 0 1
21.396078 -2.477916 -16.933039 27.398176 -0.115298 2.237037 0.008019 0.001095 -14017.900000 0 0 1
20.343878 -3.150116 -17.824839 27.230892 -0.153623 2.284425 0.006562 0.002567 -182642.000000 0 0 1
19.551978 -4.058016 -17.101239 26.290677 -0.204645 2.278997 0.018253 0.000884 -138722.000000 0 0 1
18.761878 -4.791016 -17.975539 26.421240 -0.250016 2.319029 0.018565 -0.004526 -370460.000000 0 0 1
18.014178 -5.987016 -17.324839 25.700292 -0.320866 2.310556 0.030135 -0.008549 20657.000000 0 0 1
18.857278 -7.016616 -16.848139 26.242897 -0.356218 2.267910 0.030127 0.002999 257606.000000 0 0 1
18.064878 -8.022916 -16.362339 25.659952 -0.417951 2.262254 0.038386 0.005999 -385511.000000 0 0 1
18.935978 -9.027916 -15.595739 26.140039 -0.444883 2.210082 0.037408 0.002778 368677.000000 0 0 1
19.760578 -9.743916 -16.533639 27.546063 -0.458111 2.214570 0.047458 -0.003280 544705.000000 0 0 1
20.583778 -10.704316 -15.896039 28.123982 -0.479548 2.171488 0.035719 -0.004958 -197144.000000 0 0 1
21.329578 -11.534516 -16.958039 29.590050 -0.495734 2.181079 0.033086 -0.001005 68627.600000 0 0 1
22.167278 -10.739116 -17.798839 30.389398 -0.451137 2.196530 0.028109 0.004308 195894.000000 0 0 1
22.699578 -11.424716 -18.937239 31.692491 -0.466285 2.211214 0.034679 0.005881 -202554.000000 0 0 1
21.827378 -11.286816 -20.234239 31.831605 -0.477229 2.259666 0.046827 0.005035 768253.000000 0 0 1
20.548978 -11.918916 -20.199639 31.182471 -0.525602 2.275474 0.045055 -0.005573 465521.000000 0 0 1
20.598878 -13.364816 -20.142539 31.759313 -0.575540 2.257802 0.047121 -0.001332 416480.000000 0 0 1
19.106178 -13.868816 -20.160239 31.045537 -0.627886 2.277560 0.039872 0.006647 932374.000000 0 0 1
18.397878 -13.445916 -21.307439 31.197461 -0.631126 2.322640 0.032602 0.011124 -1109830.000000 0 0 1
17.066878 -13.759316 -21.119039 30.440285 -0.678510 2.337529 0.042850 0.014833 -1159290.000000 0 0 1
16.086678 -13.283616 -22.159039 30.434498 -0.690248 2.386327 0.042068 0.008246 -390364.000000 0 0 1
16.347678 -13.780716 -23.493139 31.766056 -0.700403 2.403224 0.029872 0.011556 259836.000000 0 0 1
15.449878 -13.181716 -24.397839 31.744463 -0.706344 2.447399 0.041533 -0.004439 -88434.900000 0 0 1
15.435578 -13.795216 -25.810659 33.087085 -0.729339 2.465594 0.027743 -0.001921 -331519.000000 0 0 1
14.880078 -15.084816 -25.871069 33.440703 -0.792231 2.455362 0.035822 -0.001314 64906.700000 0 0 1
14.809878 -15.614516 -27.223509 34.702522 -0.811839 2.472657 0.029660 -0.004198 -446446.000000 0 0 1
15.825578 -16.719816 -27.392469 35.781958 -0.812868 2.442674 0.020210 -0.009816 -175887.000000 0 0 1
17.195078 -16.386916 -27.472799 36.317440 -0.761337 2.428684 0.018731 -0.009838 -206045.000000 0 0 1
17.942978 -17.535316 -27.723999 37.390613 -0.773908 2.406054 0.016014 -0.004243 794373.000000 0 0 1
19.490578 -17.232516 -27.711459 38.010094 -0.723987 2.387737 0.007618 -0.000502 746047.000000 0 0 1
19.895278 -16.891616 -26.391659 37.116957 -0.703929 2.361773 0.017548 0.001490 -1007400.000000 0 0 1
21.270578 -16.793916 -26.289279 37.757109 -0.668329 2.340989 0.017225 0.008721 -822657.000000 0 0 1
21.706578 -16.124116 -24.915639 36.768896 -0.638891 2.315329 0.016128 0.013907 28369.700000 0 0 1
21.487178 -14.718516 -24.712039 35.902903 -0.600581 2.329942 0.037171 0.005825 433231.000000 0 0 1
20.098778 -14.405416 -24.540939 34.838694 -0.621867 2.352397 0.044207 0.005844 778799.000000 0 0 1
20.037978 -13.005516 -23.826139 33.739427 -0.575702 2.354886 0.048135 0.007892 -16776.500000 0 0 1
20.281778 -11.928716 -24.683139 34.101351 -0.531660 2.380115 0.045085 -0.009280 106748.000000 0 0 1
19.955478 -10.736216 -24.009939 33.014612 -0.493590 2.385106 0.051721 -0.010585 107564.000000 0 0 1
19.999678 -9.541716 -24.950639 33.370134 -0.445155 2.415378 0.058283 -0.019759 -97184.800000 0 0 1
19.464678 -8.395416 -24.281939 32.233046 -0.407208 2.423899 0.061993 -0.019757 1042.170000 0 0 1
19.585678 -7.320516 -25.168159 32.720406 -0.357691 2.448367 0.048689 -0.017026 -456908.000000 0 0 1
19.018978 -6.093016 -24.496139 31.605493 -0.310034 2.457606 0.047066 -0.018271 -340871.000000 0 0 1
17.755878 -6.376116 -23.945939 30.484981 -0.344758 2.474299 0.049023 -0.019358 -221943.000000 0 0 1
17.242578 -5.442116 -22.975039 29.236545 -0.305725 2.474838 0.030873 -0.018467 101284.000000 0 0 1
17.982378 -5.503816 -21.604739 28.643021 -0.297014 2.425347 0.038345 -0.017221 -259023.000000 0 0 1
17.711578 -6.588616 -20.742139 28.059690 -0.356133 2.402700 0.048725 -0.021178 316278.000000 0 0 1
18.078978 -7.920416 -21.204239 28.968987 -0.412915 2.391996 0.056647 -0.021284 -217072.000000 0 0 1
17.833078 -9.027316 -20.150039 28.381952 -0.468605 2.360237 0.057539 -0.022742 1149090.000000 0 0 1
16.415378 -9.247916 -19.942839 27.435478 -0.513049 2.384593 0.056410 -0.019042 1025740.000000 0 0 1
16.177478 -10.308816 -19.035739 27.024838 -0.567347 2.352345 0.057873 -0.008365 116832.000000 0 0 1
14.665778 -10.553916 -18.795539 26.071872 -0.623779 2.375915 0.054626 -0.007154 337353.000000 0 0 1
13.888478 -9.738016 -17.913939 24.670387 -0.611503 2.383475 0.058942 -0.008396 361861.000000 0 1 0
13.792478 -8.361316 -18.217139 24.331219 -0.544983 2.416917 0.062427 -0.018897 -69533.700000 0 1 0
12.574078 -7.608816 -17.556639 22.896225 -0.544175 2.444625 0.051602 -0.001468 1049580.000000 0 1 0
11.360078 -7.724216 -18.313539 22.893244 -0.597138 2.498015 0.039715 -0.010347 192599.000000 0 1 0
10.383578 -6.933516 -17.685739 21.648966 -0.588744 2.526868 0.023749 -0.011836 -371139.000000 0 1 0
8.969178 -7.017316 -18.257539 21.518053 -0.663905 2.583894 0.018591 -0.006103 -218200.000000 0 1 0
8.723678 -6.452216 -19.521539 22.334371 -0.636825 2.634290 0.020127 -0.014422 1299820.000000 0 1 0
7.324978 -6.047016 -19.637739 21.814273 -0.690118 2.691081 0.009197 -0.019468 1513830.000000 0 1 0
6.949078 -5.722216 -21.097539 22.937733 -0.688877 2.738302 0.012472 -0.025937 59105.800000 0 1 0
6.823378 -6.845716 -21.957739 23.990928 -0.787032 2.726929 0.010806 -0.022801 -95988.700000 0 1 0
6.259278 -6.523916 -23.192839 24.892727 -0.806097 2.769893 0.015130 -0.022323 -351877.000000 0 1 0
6.337978 -7.706116 -24.201839 26.177915 -0.882509 2.750554 0.016516 -0.019028 -443341.000000 0 0 1
5.620178 -8.795216 -23.759139 25.950702 -1.002190 2.727667 0.016148 -0.014783 -244398.000000 0 0 1
5.451478 -9.760116 -24.817339 27.219089 -1.061415 2.718351 0.015052 -0.003956 31484.000000 0 0 1
4.598078 -11.006716 -24.391139 27.151755 -1.175081 2.686742 0.023709 -0.006066 314567.000000 0 0 1
5.212578 -11.949516 -23.493839 26.868614 -1.159464 2.634988 0.021949 -0.002302 33205.600000 0 0 1
4.350078 -13.075916 -23.244739 27.022596 -1.249635 2.606451 0.028902 0.001857 -364111.000000 0 0 1
5.103678 -14.346816 -22.801039 27.418353 -1.229021 2.552775 0.034740 -0.001159 85333.800000 0 0 1
6.226678 -14.816616 -23.576539 28.533434 -1.172956 2.543263 0.046816 0.003749 563143.000000 0 0 1
7.361578 -13.972516 -23.577739 28.378404 -1.085891 2.551401 0.042874 -0.003326 -396579.000000 0 0 1
8.166278 -13.757616 -22.275839 27.425775 -1.035109 2.518749 0.044858 0.002915 -618756.000000 0 0 1
8.787578 -14.862816 -21.686639 27.720663 -1.036839 2.469190 0.049743 0.012831 -395452.000000 0 0 1
7.929078 -15.609016 -20.897839 27.262270 -1.100785 2.444245 0.041869 0.012931 -619877.000000 0 0 1
8.379478 -15.905216 -19.448739 26.484807 -1.085909 2.395484 0.038368 0.004740 -76293.300000 0 0 1
9.431478 -16.836416 -19.475739 27.417551 -1.060169 2.360775 0.043264 0.006535 -528672.000000 0 0 1
9.858878 -17.264116 -18.174839 26.936443 -1.051927 2.311396 0.028576 0.011770 -53311.600000 0 0 1
8.955678 -18.235416 -17.369639 26.728991 -1.114282 2.278174 0.026991 0.005341 -450361.000000 0 0 1
8.744278 -19.543416 -17.958039 27.944565 -1.150083 2.268723 0.019178 0.004294 354512.000000 0 0 1
7.728978 -19.719616 -18.944339 28.416340 -1.197254 2.300529 0.032750 0.012134 1410790.000000 0 0 1
6.207178 -19.550016 -18.515239 27.632341 -1.263361 2.305082 0.042552 0.007677 988423.000000 0 0 1
5.884778 -18.169416 -18.319539 26.464388 -1.257574 2.335376 0.031860 0.008768 -150118.000000 0 0 1
4.513078 -18.000216 -18.041039 25.881552 -1.325137 2.342088 0.022288 0.004715 39118.100000 0 0 1
4.214378 -16.490716 -17.739839 24.584682 -1.320591 2.376880 0.002197 0.017906 83455.800000 0 1 0
4.739978 -15.992616 -16.537939 23.489032 -1.282659 2.351910 0.000112 0.016991 134665.000000 0 1 0
4.092978 -14.782216 -16.184839 22.298328 -1.300678 2.383039 -0.010282 0.021862 153621.000000 0 1 0
10.583178 31.014684 -18.237139 37.503433 1.241955 2.078623 -0.006557 0.006784 -22269.200000 0 0 1
9.831278 30.135784 -19.095839 37.006358 1.255450 2.112989 0.004911 0.008254 -609384.000000 0 0 1
8.849578 29.511084 -18.374339 35.872489 1.279456 2.108555 0.022256 0.011824 -978741.000000 0 0 1
7.783778 28.962684 -19.320939 35.675243 1.308248 2.143110 0.028994 0.003512 -417364.000000 0 0 1
7.029078 29.953884 -19.972339 36.681568 1.340303 2.146564 0.033049 -0.007629 -668411.000000 0 0 1
6.244278 29.343784 -20.924539 36.577110 1.361126 2.179819 0.041952 -0.020896 -538408.000000 0 0 1
5.147278 30.225684 -21.542539 37.472222 1.402120 2.183270 0.048330 -0.024998 41018.000000 0 0 1
3.998578 30.192284 -20.729639 36.841289 1.439125 2.168413 0.048915 -0.021944 -24912.400000 0 0 1
2.880078 30.948984 -21.208739 37.629045 1.478005 2.169566 0.052230 -0.026935 1404310.000000 0 0 1
1.516778 30.378784 -20.618639 36.746420 1.520909 2.166518 0.067312 -0.021350 1124890.000000 0 0 1
0.998578 29.071784 -20.935939 35.839633 1.536461 2.194636 0.057904 -0.033772 147641.000000 0 0 1
0.629678 28.841184 -22.259239 36.437400 1.548967 2.227980 0.059082 -0.030724 -131632.000000 0 0 1
0.032378 27.409384 -22.517339 35.472608 1.569615 2.258521 0.053711 -0.025903 -296500.000000 0 0 1
-1.082422 27.122584 -21.756739 34.787381 -1.530909 2.246467 0.054273 -0.028310 -432048.000000 0 0 1
-1.705822 25.855884 -22.041039 34.018289 -1.504918 2.275643 0.055916 -0.038133 398692.000000 0 0 1
-2.914222 25.528284 -21.126839 33.264535 -1.457132 2.258955 0.047477 -0.032225 -58461.000000 0 0 1
-4.034122 26.354284 -21.339039 34.149334 -1.418903 2.245767 0.041139 -0.028113 -310667.000000 0 0 1
-5.091622 25.802684 -20.596439 33.405335 -1.375970 2.235164 0.045922 -0.026404 82387.100000 0 0 1
-6.202022 26.814984 -20.152139 34.111833 -1.343504 2.202805 0.037119 -0.028705 666988.000000 0 0 1
-7.304522 26.161384 -19.538039 33.459065 -1.298520 2.194368 0.040863 -0.023790 -526310.000000 0 0 1
-8.205122 27.054184 -18.975639 34.048903 -1.276329 2.161933 0.035377 -0.024759 -443667.000000 0 0 1
-9.400022 26.385084 -18.310339 33.463437 -1.228553 2.149781 0.027675 -0.019101 -488230.000000 0 0 1
-9.178522 25.606084 -17.159139 32.161357 -1.226613 2.133568 0.037811 -0.015857 -622595.000000 0 0 1
-10.365622 25.038784 -16.661039 31.811587 -1.178294 2.122033 0.011543 -0.008929 3300.100000 0 0 1
-10.124422 24.247384 -15.345339 30.428917 -1.175255 2.099369 0.026258 -0.001297 -254593.000000 0 0 1
-9.592522 22.970884 -15.403539 29.273657 -1.175215 2.124912 0.031376 0.001460 -417316.000000 0 0 1
-9.520922 22.330584 -14.166039 28.106576 -1.167772 2.099033 0.046321 0.001041 -187818.000000 0 0 1
-9.016222 20.842884 -14.401839 26.891096 -1.162523 2.135969 0.056373 0.002118 275999.000000 0 0 1
-9.933422 19.853584 -14.887239 26.729526 -1.106882 2.161516 0.039196 -0.003355 -37731.200000 0 0 1
-10.454822 20.030584 -16.199239 27.801851 -1.089749 2.192804 0.049017 0.001061 273083.000000 0 0 1
-9.389422 19.915784 -17.340739 28.026789 -1.130243 2.237909 0.047763 -0.002566 152197.000000 0 0 1
-8.946422 18.599084 -17.442839 27.022528 -1.122452 2.272464 0.033807 0.001861 113.334000 0 0 1
-7.994822 18.610284 -18.522839 27.447321 -1.165043 2.311558 0.041781 -0.002768 244619.000000 0 0 1
-7.298622 17.279684 -18.680739 26.473144 -1.171145 2.354135 0.053591 -0.006431 -252827.000000 0 0 1
-8.165222 16.296384 -19.226139 26.493158 -1.106313 2.382851 0.036696 -0.005894 -190252.000000 0 0 1
-7.685222 15.443684 -20.266539 26.613955 -1.109047 2.436421 0.034134 -0.000809 654605.000000 0 0 1
-6.389322 14.589584 -19.985039 25.555453 -1.158019 2.468707 0.028313 0.001017 490246.000000 0 0 1
-6.541722 13.416484 -19.216339 24.332362 -1.117127 2.481188 0.014863 0.001521 455656.000000 0 1 0
-5.297422 12.775184 -18.897839 23.417863 -1.177712 2.509823 0.018377 0.005717 471416.000000 0 1 0
-4.537022 13.209284 -17.673739 22.526225 -1.239949 2.472823 0.015117 0.012042 -402416.000000 0 1 0
-3.857622 14.412284 -17.785739 23.214816 -1.309265 2.443606 0.022245 0.007228 -536114.000000 0 1 0
-3.480422 14.969084 -16.567439 22.597939 -1.342348 2.393723 0.014715 0.017379 116209.000000 0 1 0
-2.507622 16.156584 -16.572639 23.280372 -1.416817 2.362956 0.020573 0.010800 -18708.500000 0 1 0
-3.176222 17.338484 -16.943939 24.450122 -1.389616 2.336439 0.035326 0.007666 -186468.000000 0 1 0
-2.309122 18.421384 -16.926739 25.123573 -1.446097 2.310054 0.045013 -0.000247 -25737.700000 0 0 1
-3.023322 19.697384 -17.478739 26.507239 -1.418496 2.290810 0.048619 -0.011462 399652.000000 0 0 1
-3.191222 19.673284 -18.873339 27.448587 -1.409986 2.328959 0.072411 -0.016253 -298386.000000 0 0 1
-3.766922 20.796684 -19.476339 28.740556 -1.391608 2.315373 0.078805 -0.016615 -266164.000000 0 0 1
-2.879022 22.060784 -19.670139 29.696487 -1.441026 2.294778 0.059494 -0.022458 -233136.000000 0 0 1
-1.778422 21.680984 -20.504639 29.894282 -1.488953 2.326643 0.071374 -0.023092 180629.000000 0 0 1
-0.680322 22.541884 -20.287739 30.334662 -1.540625 2.303386 0.061171 -0.026102 764370.000000 0 0 1
0.379178 22.172784 -19.174039 29.315864 1.553697 2.283722 0.055853 -0.021684 396523.000000 0 0 1
-0.227722 22.262884 -17.862139 28.543719 -1.560568 2.246930 0.051903 -0.020738 207822.000000 0 0 1
0.712278 21.907284 -16.854039 27.649504 1.538294 2.226302 0.047978 -0.017408 140352.000000 0 0 1
0.083078 22.172684 -15.425739 27.010891 1.567049 2.178633 0.046368 -0.015869 -511194.000000 0 0 1
-0.816622 21.200984 -15.044639 26.009417 -1.532297 2.187600 0.036944 -0.001788 -502471.000000 0 0 1
-0.633922 21.130484 -13.637039 25.156869 -1.540805 2.143707 0.041966 -0.006538 127369.000000 0 0 1
-1.511622 20.000784 -13.103439 23.958641 -1.495362 2.149476 0.015957 -0.001794 -61776.600000 0 1 0
-0.939922 18.746484 -13.378539 23.049933 -1.520700 2.190035 0.011370 0.002669 12518.000000 0 1 0
-1.741422 17.711284 -12.837139 21.943433 -1.472789 2.195689 0.006881 0.003434 22755.200000 0 1 0
-1.214522 16.277984 -12.996439 20.865168 -1.496323 2.243212 -0.006613 0.010961 -515316.000000 0 1 0
-0.140422 15.839684 -12.200539 19.994211 -1.561931 2.227114 -0.004665 0.006143 90677.600000 0 1 0
0.227178 14.469884 -12.146139 18.893328 1.555098 2.269048 0.000432 0.005096 35089.700000 0 1 0
0.715278 13.858684 -13.461939 19.333870 1.519230 2.341009 -0.007399 0.002883 -722367.000000 0 1 0
-0.230222 13.618284 -14.497239 19.891722 -1.553893 2.387375 -0.007141 -0.001619 9096.930000 0 1 0
0.315578 12.736084 -15.463739 20.035834 1.546023 2.452470 -0.005087 -0.002773 -200074.000000 0 1 0
-0.361122 12.681984 -16.871739 21.109683 -1.542329 2.496829 0.002090 0.000951 -37584.800000 0 1 0
-0.274122 13.928084 -17.618539 22.460623 -1.551118 2.472555 0.009501 0.002420 -102475.000000 0 1 0
-0.577422 13.728384 -19.000339 23.448131 -1.528761 2.515483 0.026798 -0.006892 -158055.000000 0 1 0
-1.194022 14.994384 -19.692139 24.779782 -1.491333 2.489286 0.031784 0.002783 20739.500000 0 1 0
-0.355822 16.140984 -19.779639 25.532178 -1.548755 2.457028 0.030083 -0.005122 216884.000000 0 0 1
-1.102022 17.313984 -20.168039 26.603351 -1.507233 2.431193 0.044985 -0.007019 293051.000000 0 0 1
-0.170322 18.537084 -20.277539 27.474189 -1.561608 2.400984 0.050444 -0.007321 110660.000000 0 0 1
0.598478 18.485484 -21.476239 28.342550 1.538432 2.430637 0.039704 -0.008215 -89951.300000 0 0 1
1.736378 19.314584 -21.416139 28.891507 1.481138 2.405743 0.039496 -0.008881 102.779000 0 0 1
2.321278 19.319284 -22.854239 30.015651 1.451216 2.436283 0.044142 -0.011948 -122292.000000 0 0 1
2.977278 18.120584 -23.292239 29.660549 1.407948 2.473967 0.024920 -0.009796 -16209.100000 0 0 1
3.176978 18.139384 -24.674839 30.789253 1.397412 2.500447 0.023577 -0.019051 346396.000000 0 0 1
4.006478 16.916184 -25.176689 30.595340 1.338239 2.537280 0.012056 -0.012354 31723.800000 0 0 1
5.345778 16.834784 -24.721439 30.383167 1.263323 2.521210 0.007950 -0.004439 161678.000000 0 0 1
6.046778 15.758284 -25.350069 30.455099 1.204402 2.554176 0.014003 -0.015513 199627.000000 0 0 1
6.561878 16.026684 -26.796659 31.905701 1.182183 2.567841 0.002801 -0.014516 -1690960.000000 0 0 1
7.599978 16.951684 -26.851359 32.651413 1.149331 2.536351 0.002451 -0.012817 -301169.000000 0 0 1
8.116278 17.367984 -28.099669 34.016353 1.133639 2.542883 -0.003271 -0.016918 191286.000000 0 0 1
8.720578 16.161784 -28.909989 34.249660 1.075988 2.575673 0.000493 -0.020818 -539267.000000 0 0 1
9.972878 15.760684 -28.386949 33.965811 1.006630 2.560295 0.006593 -0.021281 -183191.000000 0 0 1
10.445778 14.466084 -28.688619 33.784889 0.945400 2.585180 0.006493 -0.021185 26079.400000 0 0 1
9.965478 13.304284 -27.721769 32.323540 0.927908 2.601448 0.005473 -0.023250 -997890.000000 0 0 1
8.598578 13.112184 -27.729889 31.856109 0.990375 2.626959 0.002238 -0.019002 -1321980.000000 0 0 1
8.226878 12.238084 -26.701969 30.503236 0.978948 2.637021 0.016446 -0.020322 796020.000000 0 0 1
6.748678 11.700784 -26.818839 30.028372 1.047632 2.675023 0.016708 -0.024063 1044410.000000 0 0 1
5.845278 12.800884 -26.733719 30.211283 1.142442 2.657058 0.014947 -0.017645 -935645.000000 0 0 1
4.543978 12.312684 -26.595229 29.657312 1.217254 2.683169 0.017030 -0.021351 -608984.000000 0 0 1
3.515378 13.426684 -26.773119 30.156817 1.314724 2.663332 0.039912 -0.019223 -907259.000000 0 0 1
3.114278 13.520084 -28.108159 31.345813 1.344401 2.683080 0.040231 -0.021879 93384.300000 0 0 1
3.576378 14.703984 -28.719399 32.462309 1.332204 2.656646 0.030144 -0.026049 -82847.300000 0 0 1
3.546578 14.713684 -30.267699 33.840868 1.334269 2.677912 0.049010 -0.025777 -395355.000000 0 0 1
4.562578 13.939984 -30.822399 34.134448 1.254484 2.697429 0.043871 -0.025718 -269941.000000 0 0 1
4.496578 13.756284 -32.252409 35.350707 1.254870 2.719797 0.039357 -0.024703 -351688.000000 0 0 1
5.617378 12.792784 -32.766839 35.621286 1.157039 2.738537 0.036961 -0.024444 1289140.000000 0 0 1
7.028578 13.050584 -32.709809 35.911701 1.076775 2.716111 0.042813 -0.024380 843972.000000 0 0 1
7.570378 13.359284 -31.462699 35.009749 1.055241 2.687556 0.034427 -0.026825 -724518.000000 0 0 1
7.584878 12.185984 -30.399009 33.617382 1.014050 2.700451 0.036351 -0.024424 -97912.500000 0 0 1
8.468378 11.141484 -30.828749 33.856430 0.920878 2.715464 0.029437 -0.018526 201873.000000 0 0 1
8.357278 10.039784 -29.934959 32.661034 0.876600 2.730124 0.035511 -0.009734 85629.000000 0 0 1
9.270578 8.821384 -30.219789 32.817619 0.760575 2.741027 0.028796 -0.009459 614113.000000 0 0 1
10.651378 9.096484 -29.991719 33.101376 0.706823 2.704666 0.023395 -0.020320 188619.000000 0 0 1
11.439778 7.933584 -30.106779 33.169691 0.606356 2.708469 0.001672 -0.014601 -1284540.000000 0 0 1
12.685678 8.067984 -29.278209 32.912495 0.566464 2.667215 0.002905 -0.013846 -485369.000000 0 0 1
13.394478 6.873784 -28.887349 32.575142 0.474136 2.661152 -0.006648 -0.005351 186450.000000 0 0 1
14.163978 6.348784 -29.927809 33.713485 0.421385 2.663144 -0.011666 -0.002924 -876775.000000 0 0 1
14.946778 5.080484 -29.499279 33.457809 0.327653 2.650220 -0.013175 -0.003175 245035.000000 0 0 1
15.892678 5.282584 -28.466439 33.027580 0.320902 2.609799 -0.009251 -0.008851 219501.000000 0 0 1
16.835378 4.259984 -28.340319 33.237796 0.247836 2.591839 -0.001701 -0.003771 -384666.000000 0 0 1
17.547078 4.171084 -26.982639 32.455519 0.233377 2.552370 -0.001418 -0.003712 -57564.500000 0 0 1
18.615778 5.098484 -26.892079 33.101747 0.267324 2.519064 0.017634 -0.009535 -204280.000000 0 0 1
19.132178 5.095684 -25.603929 32.366146 0.260298 2.483355 0.016702 -0.003193 -120530.000000 0 0 1
20.118378 6.300284 -25.528489 33.108103 0.303487 2.451308 0.003619 0.004690 -571952.000000 0 0 1
19.575978 7.573584 -25.776439 33.241584 0.369146 2.458188 0.012427 0.001525 -100731.000000 0 0 1
20.380878 8.594584 -26.355689 34.407403 0.399071 2.443375 0.019093 -0.008437 -500427.000000 0 0 1
20.586378 8.590484 -27.901099 35.722076 0.395322 2.467158 0.019929 -0.005104 434912.000000 0 0 1
19.388878 8.885984 -28.623429 35.695798 0.429737 2.501217 0.017441 -0.006819 526573.000000 0 0 1
18.410478 7.890684 -28.785569 35.068755 0.404914 2.533663 0.014304 -0.005074 -412554.000000 0 0 1
17.154178 8.427084 -29.479159 35.132640 0.456628 2.566390 0.007147 -0.005791 -509118.000000 0 0 1
17.235178 8.605384 -30.888179 36.403071 0.463081 2.583950 0.002062 -0.002778 465833.000000 0 0 1
16.127178 9.398284 -31.307989 36.450018 0.527647 2.603972 -0.002539 -0.002662 10032.700000 0 0 1
15.723778 9.227784 -32.779029 37.508052 0.530708 2.634005 -0.000342 0.001877 164744.000000 0 0 1
14.946078 8.025784 -32.861469 36.982085 0.492794 2.665032 0.001440 0.006934 -78180.700000 0 0 1
13.794478 8.191884 -33.637419 37.267554 0.535887 2.696551 -0.000201 0.011697 -280030.000000 0 0 1
13.162178 6.845884 -34.058779 37.149825 0.479612 2.730776 -0.002192 0.012537 38398.400000 0 0 1
12.676178 6.086884 -32.931639 35.808218 0.447669 2.738028 0.007237 0.003842 170949.000000 0 0 1
12.043878 4.915484 -33.448709 35.889178 0.387496 2.770688 0.008570 -0.001076 -76282.600000 0 0 1
11.827578 3.744284 -32.466569 34.756142 0.306591 2.776595 0.008207 -0.000962 -584662.000000 0 0 1
12.941378 3.104184 -31.905089 34.569494 0.235417 2.746410 -0.002328 -0.008015 -600209.000000 0 0 1
12.682378 2.228784 -30.797059 33.380669 0.173962 2.745568 0.004178 -0.008315 7959.220000 0 0 1
12.001578 0.817484 -31.242269 33.478135 0.068010 2.774053 0.001389 -0.000523 176066.000000 0 0 1
12.741178 -0.190716 -31.871489 34.324420 -0.014967 2.761248 -0.001163 -0.000745 -395471.000000 0 0 1
13.687578 -0.833216 -31.051739 33.944875 -0.060799 2.725734 -0.009286 -0.005903 -167513.000000 0 0 1
14.227878 -2.102616 -31.717889 34.826398 -0.146720 2.715875 0.017149 -0.009316 -790276.000000 0 0 1
13.311478 -3.117116 -31.959719 34.761121 -0.230023 2.737374 0.022310 -0.012570 -637450.000000 0 0 1
13.829678 -4.228716 -32.619949 35.681972 -0.296743 2.724291 0.014531 -0.013822 -325396.000000 0 0 1
12.866878 -5.430316 -32.730339 35.585390 -0.399359 2.738288 0.027012 -0.009331 -83069.300000 0 0 1
12.682978 -6.186716 -31.533109 34.546641 -0.453837 2.720809 0.019024 -0.011747 138884.000000 0 0 1
12.274178 -7.534816 -31.875229 34.977981 -0.550560 2.717213 0.027355 -0.014584 31795.200000 0 0 1
12.289878 -8.492616 -30.656019 34.102158 -0.604677 2.688155 0.021492 -0.017238 -103447.000000 0 0 1
13.567878 -8.508616 -30.058069 34.058353 -0.560119 2.652046 0.026706 -0.014499 -49390.700000 0 0 1
13.771878 -9.260016 -28.863119 33.294026 -0.591952 2.619778 0.031177 -0.016084 -4714.030000 0 0 1
13.861878 -10.834716 -28.980069 33.902613 -0.663433 2.595968 0.021426 -0.012936 715762.000000 0 0 1
12.529078 -11.358216 -29.044519 33.609091 -0.736421 2.614328 0.009826 -0.008996 634414.000000 0 0 1
12.580978 -12.789116 -29.160089 34.236725 -0.793602 2.590055 0.006254 -0.011702 264981.000000 0 0 1
-10.339622 -3.148716 -17.817839 20.839808 0.295607 2.596329 0.021853 0.010595 293709.000000 0 1 0
-10.936722 -2.597816 -18.998039 22.074556 0.233210 2.607303 0.012719 0.006795 702969.000000 0 1 0
-11.933922 -3.403216 -19.653539 23.243536 0.277798 2.578388 0.013471 0.014612 -172675.000000 0 1 0
-12.635822 -2.632216 -20.714639 24.406738 0.205377 2.584368 0.004674 -0.005263 -780478.000000 0 1 0
-13.511622 -1.651416 -20.241639 24.392931 0.121619 2.549574 -0.003705 -0.004765 -234944.000000 0 1 0
-14.334722 -1.338116 -21.358939 25.758088 0.093078 2.548494 0.001566 -0.007741 340463.000000 0 0 1
-15.334222 -0.162416 -21.163039 26.135014 0.010591 2.514536 0.005566 -0.003337 -206352.000000 0 0 1
-14.674122 1.068684 -21.111639 25.732727 -0.072699 2.532941 0.004865 -0.011070 -236496.000000 0 0 1
-15.495122 2.196484 -20.977639 26.172212 -0.140815 2.500635 0.006935 -0.003103 -403351.000000 0 0 1
-14.824722 3.436684 -21.557139 26.387373 -0.227797 2.526897 0.004112 -0.012683 160693.000000 0 0 1
-13.591722 3.786084 -20.951939 25.259713 -0.271671 2.548938 0.016014 -0.014644 383551.000000 0 0 1
-12.946122 4.806284 -21.707339 25.727631 -0.355481 2.575003 0.012587 -0.019102 -834053.000000 0 0 1
-11.718222 5.440084 -21.137039 24.772680 -0.434634 2.592963 -0.004995 -0.014644 -1094220.000000 0 1 0
-11.980022 6.047384 -19.907039 24.007957 -0.467471 2.548445 0.004457 -0.018266 -801131.000000 0 1 0
-10.872222 6.279484 -19.156339 22.904202 -0.523765 2.561420 -0.002016 -0.012479 -1119540.000000 0 1 0
-11.256522 6.888684 -17.774739 22.138306 -0.549176 2.502932 0.007763 -0.011526 24185.300000 0 1 0
-11.776522 8.168784 -17.881339 22.916322 -0.606451 2.465923 0.000225 -0.005471 90398.000000 0 1 0
-12.733122 8.392984 -16.880239 22.749001 -0.582778 2.406877 0.016658 -0.004494 -251678.000000 0 1 0
-13.481222 9.747284 -16.925239 23.732185 -0.626014 2.364816 0.022595 -0.005295 -117109.000000 0 1 0
-12.791422 10.762184 -16.227739 23.297738 -0.699456 2.341356 0.003749 0.003735 93808.800000 0 1 0
-13.520022 11.924884 -16.348139 24.336300 -0.722790 2.307378 0.010264 0.000040 -202025.000000 0 1 0
-12.821622 13.215384 -15.787939 24.254884 -0.800520 2.279589 0.007809 0.004733 -163251.000000 0 1 0
-12.574722 13.199284 -14.366939 23.211068 -0.809626 2.238226 0.031806 -0.000754 -40884.800000 0 1 0
-12.059822 14.439184 -13.987539 23.443135 -0.874949 2.210127 0.021794 -0.004815 -1011150.000000 0 1 0
-12.495322 14.790384 -12.560239 23.079171 -0.869313 2.146260 0.016334 -0.003405 225216.000000 0 1 0
-13.833522 15.119584 -12.284839 23.893209 -0.829788 2.110820 0.007398 -0.008780 267358.000000 0 1 0
-14.835722 14.125384 -12.582739 24.040600 -0.760876 2.121627 0.015865 -0.009780 -530512.000000 0 1 0
-16.194822 14.411384 -11.930039 24.744415 -0.727193 2.073881 0.007845 -0.011975 -290004.000000 0 1 0
-17.236522 13.670384 -12.550639 25.327764 -0.670523 2.089240 0.010340 -0.014969 -61141.600000 0 0 1
-18.387122 13.877984 -11.753839 25.861891 -0.646545 2.042590 0.045843 -0.009331 -67453.400000 0 0 1
-19.721822 13.582184 -12.488139 27.007029 -0.603094 2.051500 0.031715 -0.007306 -146199.000000 0 0 1
-20.111522 12.287784 -12.205139 26.541070 -0.548456 2.048632 0.040435 -0.015571 482877.000000 0 0 1
-21.185222 11.861184 -13.053639 27.566262 -0.510397 2.064098 0.044020 -0.016212 76490.300000 0 0 1
-21.962622 10.666784 -12.468739 27.415443 -0.452125 2.042952 0.038538 -0.014376 -248844.000000 0 0 1
-21.216822 9.466084 -12.448339 26.357569 -0.419655 2.062680 0.048077 -0.020788 202130.000000 0 0 1
-21.899822 8.487084 -11.766139 26.269275 -0.369720 2.035217 0.047424 -0.019969 -285891.000000 0 0 1
-20.958022 7.306284 -11.498939 24.996921 -0.335441 2.048808 0.059829 -0.012898 4959.950000 0 1 0
-20.698222 6.506584 -12.668339 25.124467 -0.304574 2.099279 0.062579 -0.015465 -517466.000000 0 0 1
-19.529422 5.792984 -12.587939 23.946048 -0.288361 2.124310 0.052542 -0.017384 -853367.000000 0 1 0
-19.436022 4.627984 -13.677339 24.212534 -0.233761 2.171092 0.049285 -0.023569 -114295.000000 0 1 0
-20.119522 3.483984 -13.272339 24.353404 -0.171464 2.147172 0.038749 -0.030378 238888.000000 0 1 0
-19.760422 2.479884 -14.188239 24.452612 -0.124845 2.189812 0.039918 -0.035620 -250864.000000 0 1 0
-20.561922 1.188084 -13.915839 24.856685 -0.057717 2.164993 0.023796 -0.031131 -1089160.000000 0 1 0
-21.844722 1.206284 -14.419839 26.202648 -0.055165 2.153544 0.042434 -0.034311 -906458.000000 0 0 1
-22.270022 -0.128416 -14.265539 26.447608 0.005766 2.140507 0.038254 -0.031824 -3276.510000 0 0 1
-23.572422 -0.439016 -15.062139 27.977131 0.018622 2.139302 0.053392 -0.028019 826717.000000 0 0 1
-24.721822 0.345384 -14.679039 28.753469 -0.013970 2.106578 0.070658 -0.042490 1275290.000000 0 0 1
-25.893702 -0.466116 -14.868639 29.862644 0.017999 2.091973 0.062621 -0.028971 355834.000000 0 0 1
-27.200112 0.040884 -14.254539 30.708951 -0.001503 2.053507 0.053969 -0.030654 -404581.000000 0 0 1
-27.511912 -0.317516 -12.904139 30.389520 0.011541 2.009344 0.070032 -0.032046 118089.000000 0 0 1
-28.819332 0.049684 -12.530039 31.425440 -0.001724 1.980920 0.074363 -0.032785 -13798.100000 0 0 1
-29.299772 -0.641116 -11.236239 31.386952 0.021878 1.936911 0.069548 -0.034706 -635697.000000 0 0 1
-29.530362 -2.057716 -11.277039 31.677249 0.069569 1.934778 0.077618 -0.025589 257776.000000 0 0 1
-28.466042 -2.959116 -11.542439 30.859356 0.103580 1.954151 0.077488 -0.030997 -373839.000000 0 0 1
-28.626732 -4.418816 -11.078539 31.012091 0.153151 1.936100 0.067488 -0.029888 -619790.000000 0 0 1
-29.674392 -5.036116 -11.792839 32.326507 0.168111 1.944219 0.063381 -0.027807 154588.000000 0 0 1
-29.952422 -6.330416 -11.332139 32.644129 0.208284 1.925318 0.051408 -0.020802 -195244.000000 0 0 1
-29.181922 -7.455216 -12.027939 32.432024 0.250124 1.950738 0.037706 -0.019839 -1032100.000000 0 0 1
-27.865782 -7.615916 -11.656939 31.151055 0.266792 1.954338 0.039263 -0.018443 -1062610.000000 0 0 1
-27.338802 -8.836116 -12.144339 31.192500 0.312610 1.970706 0.049782 -0.020038 -121125.000000 0 0 1
-25.835002 -8.910016 -11.787739 29.762166 0.332108 1.978023 0.038610 -0.021691 -398448.000000 0 0 1
-25.139312 -7.836516 -12.464039 29.133285 0.302177 2.012885 0.030127 -0.020072 1467420.000000 0 0 1
-23.743222 -7.676516 -12.100739 27.732605 0.312706 2.022319 0.029239 -0.017343 1132170.000000 0 0 1
-23.402122 -7.346316 -10.634739 26.734348 0.304175 1.979907 0.026697 -0.014138 -707488.000000 0 0 1
-23.760622 -6.054016 -10.053139 26.500639 0.249484 1.959895 0.033189 -0.006516 996176.000000 0 0 1
-25.155802 -5.968816 -9.732439 27.625378 0.232966 1.930825 0.037442 -0.012908 423071.000000 0 0 1
-25.580122 -4.627616 -9.108939 27.545059 0.178971 1.907833 0.050355 -0.024077 -350399.000000 0 0 1
-25.043022 -4.462116 -7.800039 26.606466 0.176328 1.868330 0.027433 -0.019240 605797.000000 0 0 1
-25.432722 -3.139416 -7.332439 26.654155 0.122819 1.849485 0.055186 -0.019247 55069.000000 0 0 1
-25.237042 -2.988616 -5.787439 26.064048 0.117873 1.794710 0.043883 -0.015324 965928.000000 0 0 1
-23.864922 -3.049716 -5.337539 24.643957 0.127102 1.789113 0.006613 -0.008557 1093200.000000 0 1 0
-23.869722 -2.836816 -3.950939 24.360236 0.118291 1.733704 -0.007321 -0.004969 -660087.000000 0 1 0
-22.651322 -3.316516 -3.210439 23.116847 0.145383 1.710125 -0.006970 -0.001506 -709480.000000 0 1 0
-22.637622 -4.715216 -3.131939 23.334615 0.205355 1.705421 0.001303 0.000858 952552.000000 0 1 0
-21.320522 -5.153416 -2.787839 22.110957 0.237163 1.697217 -0.005992 -0.002196 471154.000000 0 1 0
-21.260622 -6.676516 -2.732739 22.451231 0.304280 1.692818 -0.003229 0.002751 -203362.000000 0 1 0
-22.089322 -7.206016 -1.740339 23.300077 0.315336 1.645558 0.005085 0.005350 287991.000000 0 1 0
-22.206822 -8.557716 -2.078039 23.889238 0.367826 1.657893 -0.017966 0.007129 -50026.400000 0 1 0
-22.761922 -9.420916 -0.978339 24.653923 0.392422 1.610490 -0.020507 0.004495 45320.700000 0 1 0
-21.778522 -9.700916 0.003061 23.841389 0.419051 1.570668 -0.028508 0.014720 108444.000000 0 1 0
-22.198922 -10.593016 0.938961 24.614747 0.445230 1.532641 -0.035018 0.020894 -101327.000000 0 1 0
-21.032022 -11.161116 1.775561 23.876120 0.487883 1.496362 -0.025468 0.018596 253263.000000 0 1 0
-20.168922 -12.034716 1.059661 23.510481 0.537987 1.525709 -0.024533 0.024827 -80773.900000 0 1 0
-19.185622 -12.493616 1.942761 22.977225 0.577216 1.486144 -0.023567 0.017093 -23720.900000 0 1 0
-18.221122 -13.505616 1.253661 22.715251 0.637850 1.515578 -0.021385 0.009923 -34226.000000 0 1 0
-18.975022 -14.717716 1.060461 24.037205 0.659707 1.526665 -0.017542 0.011191 413147.000000 0 1 0
-18.357022 -15.824016 0.420561 24.239567 0.711428 1.553445 -0.017198 0.007171 -254156.000000 0 1 0
-17.183422 -16.546916 1.122161 23.881576 0.766530 1.523790 -0.008372 0.000586 -217653.000000 0 1 0
-15.953722 -15.855616 1.079661 22.518603 0.782314 1.522833 -0.006620 -0.006359 704245.000000 0 1 0
-14.828722 -16.503216 1.709461 22.252402 0.838791 1.493899 0.002486 -0.016964 636422.000000 0 1 0
-14.917222 -16.405016 3.204761 22.403539 0.832862 1.427257 0.014243 -0.016995 -573327.000000 0 1 0
-14.689422 -15.071516 3.644661 21.359150 0.798236 1.399320 0.006910 -0.018868 -216526.000000 0 1 0
-14.005722 -15.063516 4.881061 21.139880 0.821771 1.337800 0.006080 -0.013060 -380100.000000 0 1 0
-14.650622 -15.503116 6.223361 22.219756 0.813662 1.286916 0.011633 -0.009509 -1072080.000000 0 1 0
-15.566022 -14.573616 6.775661 22.374113 0.752483 1.263131 0.011032 -0.008835 55839.400000 0 1 0
-15.809022 -14.857116 8.151261 23.175464 0.754367 1.211389 0.013941 -0.007125 -424749.000000 0 1 0
-16.727422 -16.001816 8.513761 24.664730 0.763232 1.218366 0.006491 -0.006006 -1011860.000000 0 1 0
-16.064822 -17.221816 8.323861 24.979114 0.820143 1.231066 0.002732 0.001566 90796.100000 0 1 0
-16.781122 -18.320016 8.865861 26.378638 0.829212 1.228023 0.006609 0.000468 -68203.800000 0 0 1
-16.512522 -18.601216 10.378961 26.951650 0.844812 1.175485 -0.001064 0.002318 -129163.000000 0 0 1
-15.276422 -19.227116 10.612461 26.752110 0.899403 1.162881 0.007494 0.007537 -230147.000000 0 0 1
-15.144622 -19.630216 11.942261 27.519494 0.913679 1.121917 0.009799 0.006537 -102216.000000 0 0 1
-13.796822 -20.326116 12.213761 27.435001 0.974459 1.109411 0.007006 0.011067 -389390.000000 0 0 1
-12.676022 -19.528316 12.161061 26.266482 0.995047 1.089433 0.010427 0.004835 -684680.000000 0 0 1
-11.520522 -20.170616 12.666861 26.457996 1.051857 1.071562 -0.004377 0.007910 854221.000000 0 0 1
-10.277022 -19.262116 12.889261 25.353093 1.080682 1.037482 -0.000685 0.002100 545304.000000 0 0 1
-9.605022 -18.821616 11.751361 24.178589 1.098928 1.063262 0.000005 0.006030 -908202.000000 0 1 0
-8.471022 -18.106816 12.087961 23.360946 1.133209 1.026936 0.004114 0.005625 -263044.000000 0 1 0
-7.740722 -17.342916 10.925461 21.910299 1.150996 1.048761 -0.000143 0.000257 1439370.000000 0 1 0
-6.701322 -18.161816 10.273061 21.915635 1.217315 1.082916 0.013165 0.001267 689119.000000 0 1 0
-5.992522 -17.439916 9.309261 20.657283 1.239826 1.103300 0.011805 0.002684 253560.000000 0 1 0
-4.832922 -18.170116 8.579361 20.666777 1.310833 1.142713 0.004996 0.001106 154100.000000 0 1 0
-3.633822 -18.345516 9.278561 20.877124 1.375251 1.110251 0.013677 0.004420 -847969.000000 0 1 0
-2.650122 -18.764616 8.409561 20.732937 1.430494 1.153146 0.015514 -0.004863 325301.000000 0 1 0
-1.326622 -19.254416 9.091161 21.334050 1.502005 1.130581 0.008048 -0.003238 637842.000000 0 1 0
-0.294322 -19.591316 8.216461 21.246565 1.555774 1.173725 0.015474 -0.004961 -41263.000000 0 1 0
0.943978 -19.886316 8.864461 21.793011 -1.523363 1.151895 0.026144 -0.009227 567445.000000 0 1 0
1.918378 -20.535516 7.857961 22.071138 -1.477649 1.206782 0.025391 -0.013201 -132409.000000 0 1 0
1.715978 -21.901016 7.620061 23.252192 -1.492605 1.236914 0.025334 -0.009520 -130156.000000 0 1 0
1.979978 -22.809316 8.695661 24.490809 -1.484208 1.207820 0.034332 -0.009140 86290.200000 0 1 0
1.690778 -24.282516 8.299961 25.717478 -1.501279 1.242177 0.022785 -0.008381 109618.000000 0 0 1
1.876578 -25.181376 9.380661 26.937336 -1.496411 1.215103 0.026738 -0.007806 -162078.000000 0 0 1
1.473778 -26.490926 9.052361 28.033666 -1.515220 1.241993 0.026858 -0.005764 -665835.000000 0 0 1
1.691778 -27.604556 10.096961 29.441845 -1.509587 1.220745 0.025350 -0.007380 -57702.900000 0 0 1
0.954478 -27.651066 11.290261 29.882478 -1.536291 1.183353 0.024440 -0.007393 1056850.000000 0 0 1
-0.484522 -27.733606 11.126361 29.886177 1.553328 1.189320 0.014437 -0.002376 1161750.000000 0 0 1
-1.237722 -27.972676 12.473161 30.652607 1.526578 1.151717 0.013194 -0.007329 70071.200000 0 0 1
-0.968722 -29.228136 13.050161 32.023883 1.537665 1.151067 0.009277 -0.008975 -143190.000000 0 0 1
-1.256122 -29.172456 14.431961 32.571330 1.527764 1.111756 -0.002432 -0.005680 -15208.100000 0 0 1
-0.517522 -30.209846 15.303261 33.868753 1.553667 1.101969 -0.003395 0.003746 28352.800000 0 0 1
-0.807422 -30.039036 16.678661 34.368203 1.543924 1.064098 -0.006470 0.005227 -77686.600000 0 0 1
-0.361022 -31.099246 17.482961 35.678388 1.559188 1.058689 -0.010889 0.005590 -208930.000000 0 0 1
-0.656822 -30.892656 18.979861 36.263242 1.549538 1.019970 -0.013384 -0.001116 789580.000000 0 0 1
-2.087422 -30.837026 19.103561 36.334908 1.503207 1.017184 -0.026851 0.003182 708781.000000 0 0 1
-2.394622 -30.199276 20.357561 36.498778 1.491668 0.979112 -0.007442 -0.003385 -453660.000000 0 0 1
-3.881222 -30.297056 20.689161 36.891962 1.443385 0.975440 0.003543 -0.013115 -1266960.000000 0 0 1
-4.659722 -29.394806 19.949761 35.829605 1.413583 0.980273 0.005065 -0.014405 -652982.000000 0 0 1
-5.909522 -29.144616 20.505561 36.122142 1.370743 0.967120 0.004716 -0.017110 -377234.000000 0 0 1
-5.853422 -28.222476 21.727761 36.095239 1.366293 0.924847 0.012165 -0.022649 -775052.000000 0 0 1
-5.134722 -28.777236 22.821361 37.085161 1.394225 0.907932 0.013975 -0.021280 115676.000000 0 0 1
-5.122122 -27.922256 23.914161 37.118400 1.389371 0.870732 0.022482 -0.020384 -508236.000000 0 0 1
-4.038822 -28.190786 24.962461 37.870265 1.428497 0.851099 0.031715 -0.017606 -142272.000000 0 0 1
-4.305522 -29.308366 25.783661 39.272319 1.424935 0.854580 0.025858 -0.015241 372989.000000 0 0 1
-3.493722 -30.390426 25.323461 39.712237 1.456338 0.879321 0.025847 -0.015530 166016.000000 0 0 1
-3.559122 -31.717926 26.132161 41.250261 1.459052 0.884724 0.027527 -0.006111 94891.900000 0 0 1
-2.935022 -31.670776 27.411361 41.988512 1.478387 0.859482 0.022930 -0.013187 -12646.600000 0 0 1
-3.571422 -32.479346 28.355661 43.263223 1.461277 0.856055 0.029572 -0.010015 -484689.000000 0 0 1
-3.188622 -32.367596 29.849361 44.145361 1.472600 0.828257 0.037143 -0.007855 -892644.000000 0 0 1
-1.991022 -33.030856 30.026661 44.683352 1.510592 0.833907 0.026207 -0.012613 -632404.000000 0 0 1
-1.694822 -32.862006 31.400761 45.483971 1.519268 0.808796 0.029574 -0.021533 -674266.000000 0 0 1
-28.166172 3.323884 -10.381339 30.201882 -0.117466 1.921684 0.049393 -0.025942 -74741.400000 0 0 1
-29.170602 2.993484 -11.310839 31.429605 -0.102262 1.938934 0.035683 -0.042153 394648.000000 0 0 1
-29.875582 4.203084 -11.740239 32.373593 -0.139769 1.941905 0.002345 -0.033092 98457.300000 0 0 1
-30.646792 3.960684 -13.034539 33.538218 -0.128524 1.969959 0.023226 -0.025645 -450042.000000 0 0 1
-31.667862 3.030884 -12.826839 34.301130 -0.095418 1.954059 0.042468 -0.029924 -532024.000000 0 0 1
-32.418652 2.821984 -13.944739 35.403225 -0.086829 1.975649 0.056353 -0.026250 -433410.000000 0 0 1
-33.433842 1.684384 -13.759739 36.193775 -0.050337 1.960775 0.050142 -0.018981 47732.000000 0 0 1
-32.817712 0.448784 -13.951939 35.663150 -0.013674 1.972747 0.057236 -0.014020 104726.000000 0 0 1
-33.181482 -0.404916 -12.884039 35.597376 0.012202 1.941142 0.047314 -0.011292 -205694.000000 0 0 1
-32.598002 -1.801416 -12.912539 35.108525 0.055205 1.947427 0.028072 -0.013014 -405706.000000 0 0 1
-33.288472 -2.825516 -13.604739 36.072079 0.084677 1.957518 0.037517 -0.005745 399831.000000 0 0 1
-32.586242 -4.110516 -13.501239 35.511167 0.125480 1.960806 0.049690 -0.015575 381245.000000 0 0 1
-33.412472 -5.335416 -13.952939 36.599788 0.158347 1.961923 0.030329 -0.011780 320678.000000 0 0 1
-32.868292 -6.589416 -13.450139 36.119957 0.197857 1.952362 0.029696 -0.023629 733847.000000 0 0 1
-33.724112 -7.657516 -13.859839 37.256522 0.223278 1.951971 0.029897 -0.013285 -67126.000000 0 0 1
-33.180002 -8.998816 -13.163939 36.812777 0.264841 1.936484 0.026685 -0.021207 24865.600000 0 0 1
-31.804132 -9.310916 -13.288739 35.704153 0.284800 1.952164 0.014040 -0.021972 391891.000000 0 0 1
-31.282772 -9.607316 -14.559839 35.817611 0.297969 1.989416 0.002909 -0.020225 -186765.000000 0 0 1
-29.901842 -10.312616 -14.419239 34.761828 0.332108 1.998520 -0.001379 -0.017654 118972.000000 0 0 1
-30.028282 -11.605416 -13.778739 35.017668 0.368800 1.975210 -0.008470 -0.018455 1397490.000000 0 0 1
-28.723382 -12.251016 -13.761839 34.124893 0.403155 1.985893 -0.009775 -0.015541 569068.000000 0 0 1
-28.800372 -13.810116 -13.990139 34.869826 0.447123 1.983634 -0.007107 -0.019120 -337366.000000 0 0 1
-29.100492 -14.220716 -15.281439 35.813263 0.454548 2.011635 -0.004634 -0.011433 -214007.000000 0 0 1
-29.180182 -15.607316 -15.541639 36.559731 0.491145 2.009872 0.004082 -0.012772 28014.500000 0 0 1
-27.911932 -16.537316 -15.486739 35.949936 0.534873 2.016160 -0.019902 -0.007920 509078.000000 0 0 1
-26.984642 -16.067316 -16.483939 35.468998 0.537048 2.054140 -0.010646 -0.014745 -295995.000000 0 0 1
-26.053642 -17.096916 -16.740639 35.374367 0.580735 2.063764 -0.011650 -0.012795 -297154.000000 0 0 1
-24.763722 -16.497116 -17.318939 34.428802 0.587666 2.097905 -0.020127 -0.015149 -298539.000000 0 0 1
-24.848022 -15.957116 -18.636839 34.919701 0.570864 2.133773 -0.007300 -0.018322 -382373.000000 0 0 1
-23.579922 -15.655516 -19.139839 34.167841 0.586108 2.165389 -0.002282 -0.012731 -959914.000000 0 0 1
-23.686322 -15.022416 -20.526939 34.757303 0.565204 2.202573 0.021400 -0.013439 -14972.600000 0 0 1
-24.197822 -15.933016 -21.536339 36.099993 0.582291 2.210023 0.015748 -0.013358 1073920.000000 0 0 1
-25.623512 -16.036016 -21.593839 37.148514 0.559197 2.191102 0.020098 -0.018178 -16356.200000 0 0 1
-26.123372 -17.366216 -22.083339 38.362611 0.586693 2.184192 0.022415 -0.020702 -355367.000000 0 0 1
-25.685852 -17.644516 -23.364639 38.948663 0.601904 2.214151 0.027731 -0.011694 85625.900000 0 0 1
-26.327792 -18.793016 -23.879939 40.206736 0.619934 2.206730 0.018421 -0.005826 -450110.000000 0 0 1
-25.862432 -19.247916 -25.281759 40.969684 0.639806 2.235829 0.014987 -0.008115 159644.000000 0 0 1
-24.512322 -19.656016 -25.344879 40.368005 0.675888 2.249579 0.035105 -0.015409 -33210.000000 0 0 1
-24.455722 -21.030616 -25.119209 40.882072 0.710240 2.232461 0.029133 -0.017171 669746.000000 0 0 1
-23.007622 -21.661016 -24.993439 40.289233 0.755261 2.239986 0.019420 -0.008254 1200630.000000 0 0 1
-22.218322 -21.514016 -26.157939 40.506105 0.769295 2.272838 0.014853 -0.014086 729728.000000 0 0 1
-20.835822 -21.781216 -25.870609 39.722050 0.807578 2.280081 0.020492 -0.019989 1396410.000000 0 0 1
-19.803922 -21.738616 -27.057939 39.961167 0.831936 2.314619 0.017420 -0.025705 -199306.000000 0 0 1
-20.153922 -22.713816 -28.041039 41.332770 0.845043 2.316408 0.045401 -0.024697 -348988.000000 0 0 1
-20.616722 -21.997716 -29.160969 41.944140 0.817794 2.339541 0.042395 -0.022239 182504.000000 0 0 1
-19.606322 -22.030216 -30.371589 42.334049 0.843548 2.370898 0.044995 -0.021269 404010.000000 0 0 1
-19.431022 -23.330116 -30.887189 43.311400 0.876330 2.364767 0.044530 -0.024993 230460.000000 0 0 1
-18.724122 -23.356216 -32.139039 43.920649 0.895034 2.391686 0.045827 -0.025126 70715.400000 0 0 1
-18.307622 -24.782816 -32.494259 44.779838 0.934552 2.382767 0.038068 -0.024893 190682.000000 0 0 1
-17.564722 -25.066536 -33.719039 45.539261 0.959585 2.404519 0.034182 -0.017197 290531.000000 0 0 1
-18.264922 -24.793016 34.131600 45.970285 0.935864 0.734045 0.032583 -0.009252 -252347.000000 0 0 1
-17.467322 -24.628916 32.790487 44.574734 0.953909 0.744201 0.028611 -0.003989 -521284.000000 0 0 1
-16.986722 -23.338516 32.540067 43.498172 0.941629 0.725634 0.021745 -0.011732 -406031.000000 0 0 1
-16.435722 -23.435716 31.243027 42.373252 0.959191 0.741688 0.023778 -0.003576 88336.200000 0 0 1
-15.406422 -22.324316 30.944687 41.149806 0.966733 0.719704 0.015574 0.002162 -63778.400000 0 0 1
-16.071122 -21.090916 30.635267 40.517000 0.919664 0.713449 0.018716 -0.007259 -267039.000000 0 0 1
-15.288022 -20.053216 30.126947 39.287250 0.919424 0.696897 0.021585 -0.007654 -667576.000000 0 0 1
-14.851522 -19.113216 31.267697 39.541770 0.910220 0.658761 0.023113 -0.016168 -37279.400000 0 0 1
-14.266322 -17.864316 30.930647 38.462536 0.896914 0.636509 0.025325 -0.017282 -182232.000000 0 0 1
-13.783722 -17.397316 32.157187 39.073549 0.900774 0.604140 0.025883 -0.023261 -338139.000000 0 0 1
-13.167222 -16.013916 31.985377 38.116736 0.882643 0.575091 0.024222 -0.022144 25053.900000 0 0 1
-12.062522 -16.080116 31.091397 37.023635 0.927198 0.573934 0.031017 -0.023365 -1202.090000 0 0 1
-11.581422 -14.793016 30.762677 36.045873 0.906571 0.548263 0.030010 -0.022407 338097.000000 0 0 1
-10.170922 -14.676716 30.095847 34.994480 0.964786 0.535493 0.042556 -0.020879 429635.000000 0 0 1
-9.814022 -13.344916 30.000007 34.269552 0.936697 0.504507 0.056667 -0.017076 -208110.000000 0 0 1
-8.626522 -13.129816 30.740247 34.522047 0.989504 0.472458 0.031734 -0.019517 -347057.000000 0 0 1
-8.283022 -11.657516 30.794317 33.952851 0.953038 0.434756 0.032492 -0.018264 -77715.900000 0 0 1
-9.184122 -10.894016 31.577507 34.643421 0.870355 0.423878 0.031489 -0.013575 262508.000000 0 0 1
-8.815422 -9.525316 31.507167 34.075576 0.824085 0.390744 0.019743 -0.004472 -261471.000000 0 0 1
-9.344722 -8.607716 32.638257 35.023883 0.744368 0.371219 -0.001420 -0.003687 124791.000000 0 0 1
-10.600022 -8.099516 32.222667 34.874961 0.652467 0.392519 0.007058 -0.006304 -106848.000000 0 0 1
-11.397522 -7.509616 33.193909 35.890576 0.582593 0.390118 -0.000015 -0.005967 -151480.000000 0 0 1
-11.129622 -5.959116 33.562190 35.858055 0.491587 0.359782 -0.021622 0.006811 -269400.000000 0 0 1
-11.495422 -5.122616 32.494287 34.846300 0.419207 0.369513 -0.001167 0.000041 178665.000000 0 0 1
-11.752622 -3.818416 32.963817 35.203943 0.314141 0.358662 -0.010739 -0.001154 -288219.000000 0 0 1
-11.266822 -2.670416 32.029067 34.057797 0.232722 0.346895 -0.008896 0.005048 45569.700000 0 0 1
-9.866122 -2.496116 32.014847 33.593472 0.247799 0.307782 -0.011137 0.007914 31632.100000 0 0 1
-9.605222 -1.439016 31.103297 32.584446 0.148710 0.302669 -0.011856 0.006898 -923276.000000 0 0 1
-8.214222 -0.866516 31.082337 32.161094 0.105101 0.259736 -0.006626 0.012679 -860538.000000 0 0 1
-7.909122 -0.243316 32.338627 33.292645 0.030754 0.239973 -0.000331 0.001325 724465.000000 0 0 1
-6.528822 0.151784 32.380097 33.032094 -0.023244 0.199015 0.001341 0.006893 617769.000000 0 0 1
-6.156222 0.913384 33.672768 34.243081 -0.147293 0.182764 0.014741 -0.002429 -430004.000000 0 0 1
-6.737122 2.154684 34.031901 34.759197 -0.309542 0.204925 0.030384 -0.013577 -197282.000000 0 0 1
-6.265122 3.253284 33.270942 34.011633 -0.478944 0.209079 0.038680 -0.011222 97751.700000 0 0 1
-7.168922 4.517884 33.319483 34.380120 -0.562333 0.249039 0.046454 -0.013616 886895.000000 0 0 1
-8.446522 4.375684 32.669127 34.025904 -0.477980 0.283347 0.022722 -0.001151 502745.000000 0 0 1
-9.138122 5.578184 32.649627 34.360144 -0.548053 0.316862 0.016589 -0.005248 -1570370.000000 0 0 1
-10.525022 5.392884 32.132167 34.239384 -0.473508 0.352663 -0.003207 0.005141 -829491.000000 0 0 1
-11.400922 6.428084 32.602537 35.131562 -0.513393 0.381754 -0.006654 0.004587 683434.000000 0 0 1
-12.697622 6.409984 32.010247 35.028180 -0.467494 0.418148 -0.025919 0.009617 636861.000000 0 0 1
-13.474622 7.782684 32.180557 35.745263 -0.523772 0.450396 -0.026387 0.008265 151688.000000 0 0 1
-13.909422 7.972484 33.508438 37.146304 -0.520459 0.446262 -0.015313 0.007061 -44629.900000 0 0 1
-14.519022 9.227984 33.612552 37.759255 -0.566170 0.473055 -0.020354 0.015409 209236.000000 0 0 1
-15.316522 9.526584 -34.109126 38.584766 -0.556425 2.655158 -0.004289 0.020795 178864.000000 0 0 1
-14.499022 9.616984 -32.957869 37.268340 -0.585658 2.655874 -0.004688 0.013950 -816610.000000 0 0 1
-15.161922 10.039084 -31.849439 36.674976 -0.584852 2.622812 -0.007406 0.007740 -1639390.000000 0 0 1
-14.380122 10.096884 -30.541279 35.234993 -0.612162 2.619522 -0.001992 0.003007 337201.000000 0 0 1
-13.467122 11.207084 -30.449829 35.130531 -0.694058 2.619470 0.004388 0.005374 372004.000000 0 0 1
-12.217022 10.981984 -31.087759 35.161177 -0.732212 2.655468 0.004164 -0.003577 -233584.000000 0 0 1
-11.530622 12.350784 -31.422329 35.677162 -0.819728 2.648220 0.004380 -0.001774 20335.200000 0 0 1
-12.023922 13.150684 -32.539029 37.098566 -0.830126 2.640580 -0.003988 -0.003108 -29238.500000 0 0 1
-11.450922 14.438284 -32.667809 37.506978 -0.900280 2.627989 -0.000038 -0.008835 -128143.000000 0 0 1
-11.681022 15.424384 -31.488269 36.957665 -0.922634 2.590607 -0.004275 -0.004643 -328053.000000 0 0 1
-12.954022 16.008084 -31.455339 37.596593 -0.890460 2.561942 -0.007049 -0.008775 -260068.000000 0 0 1
-13.073922 17.117384 -30.629389 37.444516 -0.918534 2.528711 -0.016595 -0.006679 866626.000000 0 0 1
-14.460922 17.877384 -30.809479 38.444026 -0.890655 2.500448 -0.027689 -0.007218 740165.000000 0 0 1
-14.562922 18.679884 -32.003169 39.814816 -0.908616 2.504453 -0.023889 -0.013732 231020.000000 0 0 1
-15.893222 19.176284 -32.043259 40.584416 -0.878742 2.480865 -0.021155 -0.016336 429466.000000 0 0 1
-16.242122 20.347384 -31.107889 40.565051 -0.897129 2.444737 -0.035373 -0.012481 -604126.000000 0 0 1
-15.619922 21.586884 -31.513599 41.268420 -0.944417 2.439705 -0.030222 -0.006694 191789.000000 0 0 1
-16.175422 22.785684 -30.992099 41.729389 -0.953461 2.407878 -0.037305 -0.006284 -328779.000000 0 0 1
-17.486722 23.180384 -31.700829 42.989048 -0.924501 2.400034 -0.015324 -0.008117 -467340.000000 0 0 1
-18.584622 22.494584 -31.155429 42.685539 -0.880293 2.388946 -0.016584 -0.008548 -615006.000000 0 0 1
-19.556322 22.424184 -32.166779 43.817753 -0.853606 2.395142 0.010128 -0.010783 -1155560.000000 0 0 1
-20.870822 21.769884 -31.767119 43.802613 -0.806480 2.382170 0.020237 -0.016944 -130660.000000 0 0 1
-21.790122 22.474284 -30.862049 43.958719 -0.800853 2.349095 0.033270 -0.020954 1184000.000000 0 0 1
-22.514622 23.534884 -31.493059 45.305758 -0.807550 2.339387 0.051737 -0.013512 380413.000000 0 0 1
-23.755422 23.094884 -32.378819 46.325821 -0.771300 2.344706 0.051871 -0.025908 26216.400000 0 0 1
-23.455422 22.366484 -33.519029 46.625548 -0.761638 2.373012 0.066315 -0.025709 326657.000000 0 0 1
-24.649122 21.932184 -34.167864 47.497819 -0.727137 2.373672 0.084922 -0.032431 247690.000000 0 0 1
-24.443822 20.987984 33.742871 46.653802 -0.709478 0.762284 0.086693 -0.028765 -209961.000000 0 0 1
-23.915122 19.730084 34.116231 46.099094 -0.689803 0.737632 0.089899 -0.029653 298586.000000 0 0 1
-23.782222 18.950384 32.953467 44.840184 -0.672805 0.745263 0.067424 -0.036221 -88037.600000 0 0 1
-23.335422 17.469884 33.105367 44.110136 -0.642632 0.721954 0.050474 -0.020634 -431272.000000 0 0 1
-24.373822 16.699384 33.583509 44.730355 -0.600680 0.721525 0.061327 -0.022353 20602.400000 0 0 1
-24.768522 15.663884 32.699927 43.910388 -0.563911 0.730716 0.065846 -0.022917 -48723.300000 0 0 1
-25.617702 14.417284 33.248903 44.380336 -0.512607 0.723972 0.043642 -0.012875 971177.000000 0 0 1
-26.943922 14.902884 33.576702 45.557280 -0.505226 0.742143 0.044180 -0.007567 1253120.000000 0 0 1
-28.010912 13.945084 33.515597 45.851628 -0.461922 0.751072 0.032073 0.004987 573997.000000 0 0 1
-28.014352 12.723184 34.452346 46.191422 -0.426313 0.728971 0.016435 0.007815 -952001.000000 0 0 1
-26.926382 11.864984 34.280529 45.177013 -0.415047 0.709320 0.010566 0.004937 -380118.000000 0 0 1
-27.237382 10.528884 -34.328267 45.068418 -0.368867 2.436717 0.019478 0.005635 291978.000000 0 0 1
-25.931772 9.659884 -34.198437 43.992082 -0.356587 2.461282 0.011971 -0.003113 487769.000000 0 0 1
-25.241082 9.451584 33.661123 43.122104 -0.358290 0.675171 0.006694 0.005458 580927.000000 0 0 1
-24.185822 10.426884 33.468043 42.588540 -0.407039 0.666733 -0.010658 0.003669 -153944.000000 0 0 1
-22.870922 9.913884 32.890047 41.268866 -0.409024 0.648534 0.004450 -0.001512 -648014.000000 0 0 1
-23.018822 9.581584 31.557927 40.219096 -0.394436 0.668664 0.002802 -0.003550 272596.000000 0 0 1
-21.762422 9.482784 30.905557 38.970240 -0.410933 0.654988 0.002904 -0.001357 132331.000000 0 0 1
-21.821722 9.311084 29.383497 37.766039 -0.403300 0.679256 0.006930 -0.003332 92440.600000 0 0 1
-22.295722 10.527484 28.771407 37.890909 -0.441141 0.708526 0.016730 -0.006723 283453.000000 0 0 1
-22.476522 10.317284 27.391637 36.904500 -0.430334 0.734404 0.011496 -0.006059 -485608.000000 0 0 1
-22.760922 11.639084 26.625787 36.911521 -0.472696 0.765060 0.006994 -0.008429 496080.000000 0 0 1
-24.045322 12.252684 26.732317 37.985820 -0.471271 0.790142 0.030383 -0.009954 94448.400000 0 0 1
-24.943922 11.767884 25.773507 37.748589 -0.440813 0.819253 0.037990 -0.003575 447598.000000 0 0 1
-26.309472 12.558084 25.912527 39.004523 -0.445341 0.844177 0.034009 -0.001779 645257.000000 0 0 1
-26.260512 13.877084 25.467607 39.125272 -0.486139 0.861994 0.039519 -0.006221 -315692.000000 0 0 1
-27.460872 14.538384 25.741187 40.349384 -0.486907 0.878954 0.029246 -0.004323 -186654.000000 0 0 1
-27.387552 15.976784 25.162027 40.477935 -0.528094 0.899983 0.028487 -0.006065 92212.600000 0 0 1
-26.519922 16.906984 25.793347 40.674920 -0.567552 0.883908 0.043183 -0.014032 86072.400000 0 0 1
-26.474132 18.143884 25.048397 40.712435 -0.600822 0.908091 0.026301 -0.021869 -254101.000000 0 0 1
-21.580122 -9.359016 32.404077 40.041441 0.409205 0.627899 -0.001775 -0.003030 -457692.000000 0 0 1
-20.894222 -8.923716 31.273847 38.655591 0.403640 0.628283 0.001758 -0.008521 -411949.000000 0 0 1
-21.643522 -9.124416 30.112977 38.190161 0.398968 0.662429 0.009939 -0.006971 -473074.000000 0 0 1
-20.892322 -8.967616 28.730737 36.638265 0.405448 0.669434 0.024026 -0.007316 -126007.000000 0 0 1
-20.475322 -7.597216 28.494927 35.901495 0.355297 0.653933 0.024249 -0.008099 464458.000000 0 0 1
-19.341722 -7.109916 29.231957 35.765352 0.352263 0.614041 0.018632 -0.014356 1131050.000000 0 0 1
-17.943922 -7.549816 28.583917 34.583585 0.398261 0.597905 0.030673 -0.011486 580424.000000 0 0 1
-17.449422 -8.831016 28.835517 34.841874 0.468509 0.595958 0.033027 -0.009984 88858.400000 0 0 1
-17.083022 -9.242016 30.152167 35.866386 0.495912 0.572258 0.041301 -0.012041 228879.000000 0 0 1
-15.646022 -8.823616 30.611277 35.492316 0.513492 0.530654 0.038254 -0.013267 530284.000000 0 0 1
-14.611022 -9.505816 29.932757 34.638309 0.576791 0.527334 0.032315 -0.013844 1026200.000000 0 0 1
-13.280822 -9.069016 30.318127 34.319325 0.599134 0.487701 0.024834 -0.009077 1643870.000000 0 0 1
-12.112622 -9.930916 29.776377 33.644781 0.686747 0.484255 0.026147 -0.014646 2222.830000 0 0 1
-11.766222 -9.615416 28.432297 32.238109 0.685144 0.490820 0.041353 -0.018093 232511.000000 0 0 1
-10.568722 -10.321416 28.113517 31.758453 0.773560 0.483809 0.033917 -0.011932 267771.000000 0 0 1
-9.975622 -9.994016 26.731107 30.231531 0.786319 0.485990 0.020993 -0.009962 -94330.400000 0 0 1
-10.808622 -10.470716 25.697107 29.779246 0.769520 0.529777 0.031301 -0.001362 -7080.650000 0 0 1
-10.393422 -10.101116 24.406427 28.385374 0.771137 0.535871 -0.004853 0.006298 4234.670000 0 0 1
-11.310022 -10.641516 23.273477 27.978799 0.754954 0.588408 0.000797 0.009130 -408526.000000 0 0 1
-11.228322 -12.042616 23.117177 28.381397 0.820376 0.618897 0.009839 0.005606 238848.000000 0 0 1
-12.368922 -12.684716 22.585277 28.705173 0.798002 0.665187 0.013735 0.007966 -49419.800000 0 0 1
-13.598622 -12.781116 23.488877 30.000113 0.754418 0.671387 0.024746 0.007800 -884698.000000 0 0 1
-14.757922 -13.251816 22.876177 30.277489 0.731679 0.714302 0.022509 0.009687 200502.000000 0 0 1
-15.850422 -13.221416 23.801577 31.504869 0.695212 0.714396 0.016302 0.007227 402513.000000 0 0 1
-17.189622 -13.790816 23.298577 32.070132 0.676127 0.757599 0.023443 0.000862 -675287.000000 0 0 1
-17.214122 -15.231116 23.238777 32.685679 0.724356 0.779909 0.018620 0.002745 -305635.000000 0 0 1
-18.405322 -15.974516 23.152877 33.615424 0.714811 0.811022 0.027164 0.003877 -540588.000000 0 0 1
-19.192822 -15.886716 24.494927 34.939285 0.691430 0.793898 0.021155 0.000481 -636543.000000 0 0 1
-18.735422 -16.590616 25.654157 35.838532 0.724758 0.772990 0.017593 0.005011 112923.000000 0 0 1
-19.669922 -16.565716 26.723737 37.087557 0.699940 0.766190 0.021265 -0.004537 -132599.000000 0 0 1
-19.111422 -17.259916 28.015697 38.052995 0.734536 0.743316 0.023818 -0.000136 54463.700000 0 0 1
-19.040622 -18.686416 27.872037 38.582093 0.776010 0.763517 0.022964 0.004983 80538.900000 0 0 1
-18.783822 -19.312816 29.072167 39.635940 0.799283 0.747369 0.027254 -0.000068 -332244.000000 0 0 1
-18.726622 -20.900416 28.966917 40.331080 0.840200 0.769544 0.022195 0.003950 -684911.000000 0 0 1
-19.971522 -21.534416 28.853537 41.171827 0.823035 0.794267 0.022266 0.005780 -343267.000000 0 0 1
-19.904022 -22.852216 28.378447 41.517829 0.854243 0.818216 0.028140 0.004873 -321127.000000 0 0 1
-21.200522 -23.304616 27.697987 41.949323 0.832641 0.849615 0.037911 0.011616 -273724.000000 0 0 1
-22.164322 -23.639616 28.663907 43.263243 0.817596 0.846583 0.034952 0.004253 1043680.000000 0 0 1
-23.380722 -24.188316 28.050277 43.801265 0.802374 0.875779 0.019441 0.012262 1206960.000000 0 0 1
-24.096422 -25.200086 28.965727 45.328746 0.807783 0.877580 0.010802 0.014082 -287673.000000 0 0 1
-24.636722 -24.621916 30.112777 46.043307 0.785098 0.857923 0.016743 0.012133 147282.000000 0 0 1
-25.102602 -25.645496 31.038937 47.447315 0.796096 0.857703 0.011771 0.014264 -367275.000000 0 0 1
-26.329702 -25.182146 31.829627 48.378909 0.763124 0.852738 0.034059 0.003806 755442.000000 0 0 1
-27.398142 -24.869616 30.857907 48.180560 0.737059 0.875694 0.027486 0.004887 713696.000000 0 0 1
-28.568042 -24.560816 31.547457 49.138669 0.710116 0.873681 0.032933 -0.006910 -664078.000000 0 0 1
-29.719942 -23.850916 30.817387 49.008698 0.676277 0.890769 0.036356 -0.005628 -268513.000000 0 0 1
-30.381632 -24.879416 30.101737 49.478717 0.686158 0.916782 0.026926 -0.000061 -87662.300000 0 0 1
-31.640762 -24.560116 29.570957 49.787334 0.660070 0.934842 0.023756 -0.001400 403410.000000 0 0 1
-32.869712 -25.025546 30.420327 51.303920 0.650729 0.936087 0.023166 -0.004427 49386.700000 0 0 1
-33.023542 -26.395366 30.546307 52.156941 0.674307 0.945101 0.030085 -0.012148 98974.900000 0 0 1
-34.099727 -26.732726 31.400097 53.510710 0.664882 0.943695 0.032994 -0.012467 86602.700000 0 0 1
-34.054122 -28.189306 31.705817 54.402013 0.691452 0.948619 0.031312 -0.019096 -201753.000000 0 0 1
-33.073162 -28.511236 32.663077 54.530736 0.711457 0.928564 0.021733 -0.009484 -162650.000000 0 0 1
-32.843022 -29.894846 32.680427 55.139607 0.738441 0.936408 0.022077 -0.011890 -420683.000000 0 0 1
-31.692432 -30.195346 33.614110 55.191282 0.761213 0.915937 0.029758 -0.020598 -409861.000000 0 0 1
-32.104622 -29.999456 -34.124912 55.634376 0.751514 2.231127 0.027500 -0.026513 751283.000000 0 0 1
-31.030152 -30.432256 -33.272939 54.736469 0.775671 2.224178 0.017758 -0.020062 655928.000000 0 0 1
-31.480722 -30.224016 -31.799479 53.997536 0.765035 2.200501 0.016551 -0.023093 52016.400000 0 0 1
-31.635092 -28.863486 -31.466839 53.141715 0.739617 2.204497 0.011967 -0.016415 631208.000000 0 0 1
-30.374032 -28.207736 -31.244189 51.908165 0.748436 2.216691 0.019241 -0.014585 229369.000000 0 0 1
-30.477812 -26.688656 -31.236639 51.155733 0.719212 2.227638 0.012369 -0.010021 -439964.000000 0 0 1
-31.374932 -26.172426 -30.283119 50.857149 0.695239 2.208628 -0.000293 -0.014464 -143428.000000 0 0 1
-31.272322 -24.758516 -30.134699 49.990423 0.669664 2.217814 -0.005667 -0.000192 82377.400000 0 0 1
-30.203862 -24.254316 -29.134479 48.470228 0.676580 2.215648 -0.004624 -0.005342 139787.000000 0 0 1
-29.949662 -22.875116 -29.173039 47.658362 0.652266 2.229546 -0.006120 0.001286 690847.000000 0 0 1
-28.848402 -22.452016 -28.340939 46.255077 0.661353 2.230281 0.007246 0.003762 580584.000000 0 0 1
-28.529212 -20.955316 -28.414569 45.391948 0.633521 2.247187 0.012783 -0.000329 -39265.600000 0 0 1
-28.174442 -20.475016 -29.729109 45.791325 0.628437 2.277368 0.020793 0.000481 504114.000000 0 0 1
-27.913052 -19.075416 -29.827039 45.085056 0.599489 2.293710 0.014687 -0.001403 -367201.000000 0 0 1
-27.292542 -18.661816 -31.182519 45.447726 0.599750 2.326936 0.017790 -0.000429 -109201.000000 0 0 1
-28.118532 -18.378816 -32.289149 46.594226 0.578915 2.336419 0.016930 -0.004745 73213.800000 0 0 1
-28.991492 -17.273916 -32.134669 46.599697 0.537346 2.331719 0.010786 -0.008118 -723418.000000 0 0 1
-29.573342 -16.671516 -33.437799 47.650902 0.513327 2.348611 0.012615 -0.013669 482225.000000 0 0 1
-30.550502 -17.387416 -34.218464 49.056689 0.517417 2.342740 0.016256 -0.016058 -46592.300000 0 0 1
-31.803812 -17.349216 -33.621689 49.425659 0.499387 2.318897 0.016881 -0.015107 -1022910.000000 0 0 1
-32.927162 -17.735716 34.438042 50.840263 0.494076 0.826605 0.025298 -0.017700 -152080.000000 0 0 1
-33.184082 -19.142016 34.380626 51.474533 0.523218 0.839392 0.008786 -0.015545 240240.000000 0 0 1
-33.930312 -19.608716 33.246032 51.391307 0.524020 0.867259 0.018549 -0.013755 -148805.000000 0 0 1
-34.405369 -21.023316 33.585219 52.475482 0.548503 0.876275 0.019978 -0.017505 -527753.000000 0 0 1
-33.370602 -21.942416 33.705920 52.260461 0.581656 0.869825 0.025931 -0.013373 -581054.000000 0 0 1
-33.794702 -23.274616 34.055218 53.324924 0.603106 0.878072 0.021886 -0.016710 140654.000000 0 0 1
-32.561752 -24.285616 34.099430 53.036119 0.640829 0.872456 0.018264 -0.012081 1278180.000000 0 0 1
-31.601162 -24.018216 -33.945149 52.228166 0.649897 2.278301 0.006060 -0.013059 36591.500000 0 0 1
-30.781502 -22.876216 -34.121833 51.333436 0.639122 2.297902 0.012009 -0.010327 -884885.000000 0 0 1
-29.440192 -23.077616 -33.377029 50.133097 0.664835 2.299319 0.015818 -0.005712 -433779.000000 0 0 1
-28.555712 -24.060116 -33.912319 50.441682 0.700163 2.308118 0.020968 -0.005002 115955.000000 0 0 1
-27.263582 -24.040116 -33.352629 49.331815 0.722650 2.313236 0.028355 -0.001504 -38197.900000 0 0 1
-27.097902 -24.340416 -31.840159 48.379209 0.731842 2.289138 0.027545 0.006406 -1167380.000000 0 0 1
-27.116612 -25.722376 -31.606119 48.947912 0.759018 2.272748 0.023781 -0.004480 134718.000000 0 0 1
-26.867062 -26.033536 -30.217269 48.090201 0.769643 2.250221 0.017954 -0.007277 -31331.100000 0 0 1
-26.338192 -27.487476 -29.974709 48.453534 0.806747 2.237791 0.026028 -0.018243 -5538.210000 0 0 1
-27.398522 -28.403566 -30.100579 49.633522 0.803407 2.222393 0.015953 -0.008967 173187.000000 0 0 1
-27.174762 -29.605516 -29.362639 49.770663 0.828182 2.201804 0.029019 -0.013103 -176490.000000 0 0 1
-28.014772 -30.767376 -29.905759 51.242691 0.832191 2.193964 0.031357 -0.004942 -275675.000000 0 0 1
-27.670662 -31.085536 -31.252199 52.044943 0.843452 2.214904 0.038138 -0.019788 229026.000000 0 0 1
-28.121562 -32.361136 -31.536929 53.222583 0.855379 2.205014 0.061126 -0.012227 -363321.000000 0 0 1
-27.556762 -32.808066 -32.891099 54.014524 0.872172 2.225508 0.035022 -0.019851 1520570.000000 0 0 1
-26.105012 -32.767916 -33.014119 53.339854 0.898093 2.238188 0.033485 -0.017612 1270970.000000 0 0 1
-25.726982 -33.512946 -34.188511 54.349328 0.916080 2.251128 0.041343 -0.020419 820170.000000 0 0 1
-24.310722 -33.202896 34.219991 53.520569 0.938793 0.877104 0.037316 -0.018694 1164390.000000 0 0 1
-23.829822 -33.969376 33.131260 53.098581 0.959058 0.897000 0.032181 -0.012008 157071.000000 0 0 1
-23.139122 33.932618 33.606377 53.068164 -0.972312 0.885028 0.013369 -0.000825 -504385.000000 0 0 1
-22.796822 32.986358 32.460457 51.589496 -0.966070 0.890264 0.022616 -0.002950 -850089.000000 0 0 1
-23.911722 32.407918 31.875057 51.362076 -0.935126 0.901295 0.040397 -0.017195 -536515.000000 0 0 1
-23.614622 31.745358 30.641247 50.043022 -0.931226 0.911832 0.033784 -0.009008 493267.000000 0 0 1
-24.889722 30.970218 30.152217 49.877939 -0.893824 0.921633 0.035197 -0.006443 595064.000000 0 0 1
-25.325412 29.934058 31.006707 49.988400 -0.868606 0.901699 0.031575 -0.008248 1100900.000000 0 0 1
-26.558892 29.378678 30.465067 49.966006 -0.835765 0.915094 0.029612 -0.009011 1466960.000000 0 0 1
-27.164342 28.258988 31.388577 50.216677 -0.805146 0.895584 0.035519 -0.024097 521602.000000 0 0 1
-26.362262 27.111168 31.047257 48.927665 -0.799402 0.883365 0.038578 -0.020243 576704.000000 0 0 1
-26.900212 25.869888 31.480417 48.825087 -0.765876 0.870088 0.045423 -0.022883 1066070.000000 0 0 1
-28.121842 25.305118 30.644847 48.685661 -0.732726 0.889960 0.057033 -0.022903 1072500.000000 0 0 1
-27.632202 24.983678 29.366237 47.435204 -0.735104 0.903224 0.055353 -0.025785 122806.000000 0 0 1
-28.595762 24.252548 28.627137 47.174322 -0.703400 0.918721 0.047025 -0.015601 353450.000000 0 0 1
-27.926992 23.842698 27.308667 45.761932 -0.706668 0.931345 0.055748 -0.025491 94014.800000 0 0 1
-26.955622 22.834598 27.487727 44.761585 -0.702819 0.909561 0.051510 -0.031336 179656.000000 0 0 1
-26.109192 22.614598 26.376977 43.460958 -0.713798 0.918627 0.039706 -0.020295 193396.000000 0 0 1
-24.677022 22.153198 26.726307 42.591256 -0.731557 0.892449 0.025875 -0.025604 -239220.000000 0 0 1
-24.727822 20.777298 27.075727 42.145655 -0.698800 0.873128 0.050187 -0.037403 724379.000000 0 0 1
-23.481122 20.276498 27.569347 41.503835 -0.712293 0.844293 0.037041 -0.035725 262230.000000 0 0 1
-23.604422 18.990498 28.453127 41.561859 -0.677498 0.816746 0.053418 -0.035551 -839184.000000 0 0 1
-22.388822 18.435898 28.791137 40.866505 -0.688872 0.789054 0.043059 -0.036845 -664722.000000 0 0 1
-22.627822 17.306398 29.568877 41.059082 -0.652924 0.766772 0.047069 -0.034703 94894.800000 0 0 1
-21.491122 16.232498 29.643637 40.051311 -0.646892 0.737516 0.045829 -0.035575 205598.000000 0 0 1
-20.416822 16.652798 30.491237 40.297367 -0.684206 0.712613 0.054204 -0.031346 628745.000000 0 0 1
-19.241122 15.929498 30.069837 39.091748 -0.691516 0.693189 0.034592 -0.034468 130188.000000 0 0 1
-18.031922 16.460798 30.845797 39.339182 -0.739880 0.669554 0.027063 -0.030987 -928055.000000 0 0 1
-18.087722 16.176598 32.273097 40.378221 -0.729680 0.644717 0.008603 -0.020536 370997.000000 0 0 1
-17.002822 16.741798 32.991697 40.716530 -0.777663 0.626170 -0.000599 -0.017497 -764920.000000 0 0 1
-17.001922 16.275398 34.502912 41.766073 -0.763569 0.598647 -0.011003 -0.017941 -194344.000000 0 0 1
-17.943222 16.862398 -33.709819 41.745079 -0.754355 2.510725 0.007416 -0.015778 606031.000000 0 0 1
-19.301522 16.490098 -33.957209 42.397690 -0.707009 2.499628 0.011856 -0.012735 761363.000000 0 0 1
-20.461822 17.205198 -33.159709 42.594264 -0.699154 2.463072 0.015288 -0.028433 655966.000000 0 0 1
-20.457922 17.087998 -31.718209 41.431522 -0.695883 2.442704 0.008630 -0.018651 139700.000000 0 0 1
-21.488622 17.861098 -31.143559 41.841379 -0.693471 2.410319 0.008135 -0.017257 -483997.000000 0 0 1
-21.668222 17.690298 -29.630209 40.748102 -0.684671 2.384966 -0.000214 -0.011135 -105551.000000 0 0 1
-22.329322 16.525498 -29.156349 40.271372 -0.637122 2.380375 0.003778 -0.010539 -40572.300000 0 0 1
-23.712222 16.480998 -29.428619 41.230285 -0.607391 2.365652 0.032452 -0.012849 -347994.000000 0 0 1
-24.477322 15.509598 -28.501959 40.645401 -0.564782 2.347924 0.030895 -0.008508 -99617.800000 0 0 1
-24.350722 14.129698 -28.799349 40.274167 -0.525777 2.367538 -0.001343 -0.000840 196152.000000 0 0 1
-25.328702 13.393598 -28.077909 40.116089 -0.486414 2.346077 -0.009739 -0.001697 92405.400000 0 0 1
-25.046622 11.864498 -28.011489 39.404862 -0.442384 2.361522 -0.004825 -0.003293 -580859.000000 0 0 1
-23.965922 11.463098 -27.260329 38.064335 -0.446144 2.369088 -0.008565 0.001732 -613138.000000 0 0 1
-23.296822 10.332998 -27.830389 37.736499 -0.417466 2.400146 -0.018965 0.004114 -56997.200000 0 0 1
-22.168722 9.742998 -27.004599 36.271568 -0.414082 2.410599 0.012432 -0.003643 -54196.400000 0 0 1
-22.657322 8.962098 -25.925919 35.578459 -0.376664 2.387214 0.007636 -0.004364 656117.000000 0 0 1
-21.526722 8.216998 -25.435419 34.320247 -0.364642 2.405533 0.033758 -0.006950 198291.000000 0 0 1
-21.852522 7.086298 -24.414839 33.523614 -0.313579 2.386616 0.041412 -0.006004 -133532.000000 0 0 1
-22.666922 6.069798 -24.955439 34.255011 -0.261644 2.386954 0.030345 -0.007783 90793.700000 0 0 1
-22.875722 5.017598 -24.013939 33.543170 -0.215922 2.368725 0.031101 0.003776 -394621.000000 0 0 1
34.136273 24.808084 -10.721939 43.539478 0.628446 1.819614 -0.034805 -0.002195 252540.000000 0 0 1
35.014603 24.176284 -9.779739 43.659574 0.604296 1.796713 -0.022304 -0.003400 458950.000000 0 0 1
-34.577986 23.229084 -10.479239 42.953951 -0.591540 1.817248 -0.007199 -0.000477 468246.000000 0 0 1
-33.636442 22.506384 -9.445539 41.559184 -0.589690 1.800079 -0.007084 0.001406 143974.000000 0 0 1
-34.303595 21.654584 -8.513839 41.450490 -0.563090 1.777666 -0.005422 -0.002861 298938.000000 0 0 1
-33.336322 21.082784 -7.626439 40.174080 -0.563922 1.761790 0.002157 -0.000853 89375.900000 0 0 1
-33.889642 20.213784 -6.458439 39.985201 -0.537812 1.733028 -0.002132 -0.008621 -185888.000000 0 0 1
-34.503005 19.027484 -6.974939 40.014401 -0.503974 1.746002 -0.008224 -0.019097 433929.000000 0 0 1
-34.859153 18.109684 -5.922639 39.726551 -0.479134 1.720439 -0.014079 -0.028971 -211051.000000 0 0 1
34.773787 16.978684 -6.611839 39.258227 0.454212 1.740022 -0.008804 -0.017614 -917477.000000 0 0 1
33.557593 17.403084 -7.093439 38.461621 0.478419 1.756287 0.008960 -0.025842 -895758.000000 0 0 1
33.063343 16.512284 -8.087639 37.831866 0.463178 1.786238 0.024412 -0.013880 -523796.000000 0 0 1
31.741223 16.857984 -8.737939 36.987139 0.488222 1.809294 0.040272 -0.030763 -702655.000000 0 0 1
31.314113 15.805884 -9.535039 36.349919 0.467443 1.836214 0.043574 -0.030237 179244.000000 0 0 1
30.609493 16.263884 -10.712039 36.279509 0.488400 1.870528 0.046395 -0.026354 -437311.000000 0 0 1
30.081923 15.072584 -11.465239 35.546541 0.464488 1.899210 0.043927 -0.019322 -568614.000000 0 0 1
28.889633 14.457384 -11.072539 34.150080 0.463996 1.900996 0.037471 -0.012063 -61620.600000 0 0 1
28.806053 13.923584 -9.744139 33.445525 0.450244 1.866427 0.050243 -0.015106 -643768.000000 0 0 1
27.729273 12.826584 -9.578539 32.018468 0.433253 1.874605 0.036691 -0.013350 21757.800000 0 0 1
28.234513 11.558684 -10.022939 32.113085 0.388568 1.888214 0.030997 -0.003177 125377.000000 0 0 1
27.292043 10.552184 -10.143139 30.969138 0.368936 1.904478 0.020711 0.002418 -897586.000000 0 0 1
27.915113 9.277984 -10.709739 31.305480 0.320878 1.919952 0.011007 0.004160 -856951.000000 0 0 1
28.921003 8.851684 -9.875139 31.816585 0.297011 1.886386 0.016904 0.000628 -288842.000000 0 0 1
28.903683 7.387484 -9.646139 31.353562 0.250233 1.883526 0.019769 0.000343 -554197.000000 0 0 1
29.961163 6.978484 -8.605139 31.943997 0.228838 1.843548 0.037221 -0.002907 25890.400000 0 0 1
31.260753 7.085884 -9.152739 33.334923 0.222904 1.848938 0.034885 -0.004087 22090.500000 0 0 1
32.244053 6.678584 -8.214639 33.937630 0.204238 1.815276 0.037608 -0.007710 -385558.000000 0 0 1
33.661543 6.980084 -8.687539 35.458347 0.204463 1.818323 0.032143 -0.007278 -573652.000000 0 0 1
34.026373 6.078384 -9.682939 35.895684 0.176773 1.843932 0.027703 -0.006066 127356.000000 0 0 1
-35.074435 6.360684 -10.073739 37.042604 -0.179398 1.846215 0.028516 -0.010993 -675139.000000 0 0 1
-34.546630 5.564584 -11.283439 36.766156 -0.159703 1.882728 0.033667 -0.019490 -151222.000000 0 0 1
-33.187632 5.765584 -11.596839 35.625097 -0.172010 1.902363 0.031507 -0.019479 291296.000000 0 0 1
-32.888052 6.962084 -12.333339 35.807902 -0.208611 1.922429 0.012363 -0.013547 -552914.000000 0 0 1
-32.042222 7.998984 -11.597939 35.002856 -0.244639 1.908523 0.010024 -0.000274 -867188.000000 0 0 1
-32.743072 8.645284 -10.549939 35.470423 -0.258143 1.872795 0.020926 -0.008647 498326.000000 0 0 1
-33.385272 9.857684 -11.017339 36.512081 -0.287112 1.877319 0.024470 -0.012293 287491.000000 0 0 1
-34.096873 10.711084 -9.931739 37.093982 -0.304375 1.841848 0.039184 -0.004415 407826.000000 0 0 1
-33.193062 11.407684 -9.083639 36.255029 -0.331031 1.824043 0.025277 -0.006310 842969.000000 0 0 1
-33.934532 12.320284 -8.195939 37.020471 -0.348262 1.794035 0.039187 -0.007673 127273.000000 0 0 1
-32.981852 13.144384 -7.339139 36.255211 -0.379242 1.774635 0.047323 -0.005944 -132481.000000 0 0 1
-32.141542 13.978484 -8.106939 35.974980 -0.410229 1.798098 0.029997 -0.014549 -68488.900000 0 0 1
-31.492282 14.943184 -7.269639 35.607727 -0.443043 1.776401 0.022807 -0.015220 28030.100000 0 0 1
-30.630402 15.926684 -8.099239 35.460943 -0.479490 1.801229 0.009887 -0.009717 -98829.700000 0 0 1
-31.310852 16.696484 -9.096239 36.631729 -0.489892 1.821738 0.017955 -0.011061 31141.500000 0 0 1
-30.777632 18.001884 -9.168139 36.815557 -0.529244 1.822474 0.012412 -0.002691 272637.000000 0 0 1
-31.599972 18.865084 -10.196339 38.189199 -0.538208 1.841070 -0.006729 -0.001744 337997.000000 0 0 1
-31.387782 18.608084 -11.572339 38.280187 -0.535142 1.877908 -0.016674 0.002467 17011.200000 0 0 1
-32.411572 19.251184 -12.325239 39.661437 -0.535967 1.886790 -0.016622 -0.002882 21073.600000 0 0 1
-32.065732 19.319284 -13.827139 39.907840 -0.542248 1.924609 -0.028220 0.011966 -62532.500000 0 0 1
-31.323372 20.474484 -14.134839 40.001898 -0.578936 1.931951 -0.025383 0.011773 133944.000000 0 0 1
-31.210882 20.703584 -15.544139 40.550929 -0.585699 1.964189 -0.034029 0.014718 -679671.000000 0 0 1
-30.254232 21.858984 -15.864839 40.556465 -0.625674 1.972709 -0.012711 0.006664 -503897.000000 0 0 1
-28.906442 21.591484 -15.525239 39.278590 -0.641542 1.977147 -0.025717 0.011789 76615.800000 0 0 1
-28.138722 22.750284 -15.368039 39.313353 -0.679905 1.972418 -0.016513 0.008884 -151431.000000 0 0 1
-27.565982 23.341984 -16.687039 39.789306 -0.702615 2.003564 -0.019005 0.002655 -1159880.000000 0 0 1
-28.513282 24.019784 -17.478739 41.176007 -0.700069 2.009193 -0.007523 0.011625 53879.700000 0 0 1
-27.921002 24.795684 -18.488239 41.668013 -0.726182 2.030523 -0.009098 0.012783 127039.000000 0 0 1
-27.073862 26.036984 -18.132239 41.709671 -0.765878 2.020529 0.000017 0.016215 439500.000000 0 0 1
-27.870352 27.164484 -17.809439 42.800021 -0.772573 1.999957 0.003025 0.025957 105539.000000 0 0 1
-27.040782 28.287084 -17.701939 42.950223 -0.807920 1.995609 0.007629 0.018286 527279.000000 0 0 1
-27.836282 29.631184 -17.241439 44.160309 -0.816621 1.971893 0.001463 0.021705 283093.000000 0 0 1
-28.101352 29.744184 -15.857239 43.884559 -0.813791 1.940501 -0.000937 0.017390 529062.000000 0 0 1
-27.029292 29.755484 -14.899839 42.871630 -0.833371 1.925748 0.005918 0.015476 169026.000000 0 0 1
-27.494972 30.498584 -13.620839 43.262736 -0.837144 1.891084 0.008227 0.005265 -218047.000000 0 0 1
-27.304512 31.907084 -13.741139 44.186166 -0.862973 1.887023 0.021427 0.000525 209126.000000 0 0 1
-27.603522 32.562984 -12.496639 44.479977 -0.867641 1.855580 0.018221 -0.004859 -131992.000000 0 0 1
-27.009052 33.953284 -12.353039 45.109998 -0.898819 1.848182 -0.002400 -0.001158 -187813.000000 0 0 1
-27.409552 -34.250330 -13.377639 45.862075 0.895890 1.866793 -0.006761 -0.010409 61755.900000 0 0 1
-26.487062 -33.198630 -13.534639 44.574656 0.897376 1.879307 0.001757 -0.006788 -93164.500000 0 0 1
-26.896072 -32.303630 -14.781139 44.557887 0.876490 1.908932 -0.006817 -0.000913 -102430.000000 0 0 1
-26.568492 -32.817530 -16.047339 45.170700 0.890240 1.933988 -0.000593 -0.002103 82328.000000 0 0 1
-27.086382 -32.014130 -17.105739 45.289987 0.868585 1.958100 0.018331 0.008622 -302971.000000 0 0 1
-26.272952 -32.213930 -18.398939 45.459062 0.886629 1.987487 -0.002289 0.005707 -200365.000000 0 0 1
-26.321952 -33.428230 -19.073439 46.627115 0.903775 1.992224 -0.003095 0.006434 72872.700000 0 0 1
-25.570742 -34.426330 -18.407439 46.667643 0.931940 1.976251 -0.005520 0.005105 -796781.000000 0 0 1
-25.515102 33.256784 -19.176839 46.095393 -0.916368 1.999866 0.003829 -0.002937 1021580.000000 0 0 1
-26.682932 32.394184 -19.321439 46.202598 -0.881773 2.002248 0.008213 0.002679 1388620.000000 0 0 1
-27.768002 32.998884 -20.053739 47.561967 -0.871268 2.006043 -0.006783 0.010565 -76382.400000 0 0 1
-29.140112 32.354784 -19.953039 47.896784 -0.837626 2.000481 -0.007682 0.009084 -454961.000000 0 0 1
-29.387242 31.103384 -20.529939 47.460603 -0.813761 2.018135 -0.005410 0.010511 636656.000000 0 0 1
-30.788932 30.852784 -20.662539 48.236844 -0.786434 2.013469 0.007703 0.009379 496163.000000 0 0 1
-31.151062 29.772484 -21.671139 48.233056 -0.762774 2.036779 0.019230 0.007736 -165474.000000 0 0 1
-32.509512 29.395284 -21.678639 48.896978 -0.735134 2.030133 0.023446 0.006871 103670.000000 0 0 1
-32.591352 28.101584 -22.285439 48.461697 -0.711558 2.048630 0.018552 0.008536 1273090.000000 0 0 1
-34.078763 27.626984 -22.611339 49.354686 -0.681220 2.046698 0.015666 0.001361 1456110.000000 0 0 1
-34.775887 28.311684 -23.637039 50.691453 -0.683291 2.055891 0.004171 0.005682 1061400.000000 0 0 1
34.431697 27.578984 -23.957339 50.200560 0.675336 2.068299 0.006199 0.006974 1754200.000000 0 0 1
33.498263 28.015584 -25.123449 50.380495 0.696504 2.092865 0.006104 0.002122 53563.400000 0 0 1
34.187413 27.776984 -26.335689 51.321619 0.682311 2.109647 0.025265 -0.011851 -399454.000000 0 0 1
33.508103 28.156784 -27.503929 51.692007 0.698834 2.131844 0.021211 -0.002978 -385140.000000 0 0 1
34.416152 28.122684 -28.758249 52.937640 0.685103 2.145097 0.030292 -0.013132 -123585.000000 0 0 1
34.899455 26.827384 -29.184689 52.815022 0.655365 2.156257 0.021779 -0.007489 117621.000000 0 0 1
-34.818500 26.957884 -30.410119 53.514772 -0.658835 2.175182 0.007329 -0.003516 -802220.000000 0 0 1
-34.343719 25.514784 -30.881769 52.765319 -0.638957 2.196005 0.008310 -0.002334 113237.000000 0 0 1
-33.311772 24.887184 -30.162289 51.369347 -0.641642 2.198349 0.026557 -0.004759 -245639.000000 0 0 1
-32.069452 25.551684 -30.251259 50.955637 -0.672763 2.206419 0.024613 -0.008394 -531630.000000 0 0 1
-30.979162 24.856084 -29.400289 49.415690 -0.676171 2.208010 0.024581 -0.008543 -245354.000000 0 0 1
-30.489902 23.618084 -29.838579 48.762576 -0.659073 2.229277 0.049038 -0.021868 385618.000000 0 0 1
-31.210002 22.538084 -29.193589 48.314543 -0.625433 2.219608 0.043619 -0.017905 258433.000000 0 0 1
-30.905472 21.203684 -29.825159 47.898690 -0.601324 2.242949 0.034024 -0.023905 -422062.000000 0 0 1
-29.578172 20.826984 -29.584359 46.731850 -0.613495 2.256304 0.047175 -0.022552 -415066.000000 0 0 1
-29.376902 19.605184 -30.233109 46.490929 -0.588487 2.278777 0.037022 -0.025494 32999.400000 0 0 1
-27.897192 19.143784 -30.430659 45.505635 -0.601422 2.303286 0.054153 -0.026435 -121043.000000 0 0 1
-27.300962 19.777084 -31.516289 46.149237 -0.626921 2.322550 0.064960 -0.028601 -27625.300000 0 0 1
-26.025432 19.301184 -31.897869 45.467932 -0.638121 2.348362 0.063579 -0.027184 53152.500000 0 0 1
-25.946482 17.829284 -32.463309 45.221342 -0.602054 2.371543 0.060352 -0.025805 -565232.000000 0 0 1
-26.127522 16.806884 -31.520879 44.257029 -0.571625 2.363457 0.041942 -0.017102 15729.500000 0 0 1
-26.270272 15.586584 -32.259419 44.426782 -0.535491 2.383466 0.024409 -0.008679 -154584.000000 0 0 1
-26.825722 14.446184 -31.385729 43.742149 -0.493987 2.371027 0.019021 -0.004597 -125729.000000 0 0 1
-28.186072 14.582884 -31.019329 44.376953 -0.477454 2.344789 0.019192 -0.001937 93961.500000 0 0 1
-28.921492 13.384084 -30.971219 44.438754 -0.433425 2.341920 0.010435 -0.000406 -123737.000000 0 0 1
-28.675312 12.380784 -29.812739 43.178198 -0.407580 2.332919 -0.012935 -0.008398 -550277.000000 0 0 1
-29.000482 12.971384 -28.541449 42.707132 -0.420591 2.302726 -0.016133 -0.007309 343957.000000 0 0 1
-29.109522 12.021684 -27.544769 41.840166 -0.391647 2.289399 -0.011763 -0.004658 4906.710000 0 0 1
-29.215702 12.633984 -26.075189 41.147178 -0.408154 2.257130 -0.021389 0.001266 -738277.000000 0 0 1
-27.924842 12.875284 -25.637519 40.035636 -0.432021 2.265773 -0.020487 0.001300 -795199.000000 0 0 1
-27.837752 13.651984 -24.467939 39.496799 -0.455948 2.238891 -0.028228 0.010063 -374451.000000 0 0 1
-26.377362 13.831884 -24.051739 38.282795 -0.482964 2.250117 -0.017808 0.013618 -1156470.000000 0 0 1
-25.664042 14.750384 -24.847539 38.647343 -0.521646 2.269114 -0.005437 0.009028 538219.000000 0 0 1
-24.257422 14.762284 -24.587739 37.562008 -0.546695 2.284437 -0.015421 0.011675 795372.000000 0 0 1
-23.769422 15.186184 -23.177939 36.507841 -0.568529 2.258644 -0.019974 0.024928 -1202380.000000 0 0 1
-23.821122 16.613684 -23.099139 37.108363 -0.609002 2.242701 -0.004217 0.016229 -39396.200000 0 0 1
-23.849622 17.143584 -21.742639 36.543800 -0.623245 2.208031 -0.010804 0.025990 -297338.000000 0 0 1
-25.256912 17.401184 -21.154139 37.258696 -0.603283 2.174583 -0.017019 0.022276 269849.000000 0 0 1
-26.169062 16.318584 -21.261539 37.458898 -0.557580 2.174380 -0.010417 0.027016 213710.000000 0 0 1
-27.406162 16.677884 -20.665239 38.161520 -0.546679 2.143041 -0.008755 0.031465 -229613.000000 0 0 1
-28.521472 15.612884 -20.917939 38.662601 -0.500851 2.142467 -0.026108 0.024955 142512.000000 0 0 1
-28.985012 15.581684 -22.233839 39.714776 -0.493256 2.164987 -0.028359 0.022693 804326.000000 0 0 1
-29.967202 16.634384 -22.534439 41.018738 -0.506740 2.152406 -0.029866 0.017523 359953.000000 0 0 1
-30.516622 16.622584 -23.981339 42.221785 -0.498770 2.174852 -0.025943 0.007381 -786984.000000 0 0 1
-31.496582 15.672984 -24.143539 42.668344 -0.461733 2.172250 -0.014878 0.002234 -795005.000000 0 0 1
-32.073842 15.943384 -25.405389 43.913058 -0.461312 2.187732 0.009356 -0.011855 -184214.000000 0 0 1
-33.297972 15.097584 -25.805629 44.750670 -0.425685 2.185423 -0.002081 -0.004746 -234521.000000 0 0 1
-33.276152 13.643584 -25.947749 44.347890 -0.389107 2.195794 -0.008590 -0.005724 -171021.000000 0 0 1
-32.933002 12.875384 -24.802639 43.191771 -0.372686 2.182477 -0.023074 -0.000978 -211335.000000 0 0 1
-32.752252 11.375584 -25.159949 42.838499 -0.334287 2.198541 -0.012220 -0.012725 -334525.000000 0 0 1
-33.954102 10.714184 -25.485429 43.785636 -0.305660 2.192044 0.006748 -0.011907 -69656.800000 0 0 1
-33.774772 9.336584 -25.795019 43.511953 -0.269701 2.205360 -0.005420 -0.008212 -746766.000000 0 0 1
-35.005462 8.776884 -26.513869 44.781707 -0.245665 2.204420 0.010722 -0.007019 -377965.000000 0 0 1
34.421156 8.449184 -25.573499 43.705933 0.240706 2.195832 0.007345 -0.001986 -1027890.000000 0 0 1
33.421133 7.868884 -26.325259 43.265584 0.231235 2.224911 0.014619 0.004912 -1041220.000000 0 0 1
32.461363 6.985184 -25.558869 41.902132 0.211953 2.226814 0.021877 -0.002453 -538930.000000 0 0 1
33.036613 5.795684 -25.090839 41.887444 0.173665 2.213056 0.018514 -0.002728 11787.700000 0 0 1
32.167823 5.017284 -24.303839 40.627806 0.154725 2.212058 0.020920 0.002848 28448.700000 0 0 1
32.968293 3.968284 -23.511439 40.687141 0.119790 2.186900 0.019503 0.006141 290751.000000 0 0 1
33.764943 3.029184 -24.233239 41.671300 0.089474 2.191408 0.013396 0.005987 596795.000000 0 0 1
34.554847 2.201384 -23.394739 41.787527 0.063621 2.165001 0.020083 0.004534 255149.000000 0 0 1
-35.085394 1.059884 -24.028139 42.537745 -0.030200 2.171068 0.034943 0.003665 -487224.000000 0 0 1
34.556103 -0.031116 -24.097939 42.128802 -0.000900 2.179746 0.019688 0.002246 -410358.000000 0 0 1
35.196978 -1.119216 -24.715639 43.022584 -0.031788 2.182766 0.024067 -0.000948 40673.400000 0 0 1
-22.109822 29.649584 27.767327 46.248962 -0.930050 0.926810 0.026737 -0.003276 -484814.000000 0 0 1
-23.350622 30.005784 27.204457 46.751268 -0.909488 0.949736 0.013419 -0.001906 292116.000000 0 0 1
-23.525522 29.446884 25.879037 45.719730 -0.896718 0.969106 0.010120 0.004608 -297682.000000 0 0 1
-24.007422 27.981284 25.641307 44.908631 -0.861687 0.963114 0.009291 -0.002859 -492835.000000 0 0 1
-25.230512 27.604384 26.205317 45.665078 -0.830298 0.959586 0.013448 -0.004628 -369991.000000 0 0 1
-25.333262 27.402684 27.589487 46.409708 -0.824619 0.934182 0.026315 -0.008290 -489142.000000 0 0 1
-24.584322 26.137384 28.213507 45.645960 -0.816008 0.904480 0.026506 -0.008970 914840.000000 0 0 1
-23.166322 26.218684 28.350997 45.031954 -0.847127 0.889790 0.012472 -0.007757 361317.000000 0 0 1
-22.885022 26.551384 29.683777 45.932851 -0.859426 0.868146 0.011954 -0.010966 -393759.000000 0 0 1
-21.480422 26.281384 30.210777 45.440188 -0.885580 0.843507 0.013473 -0.008295 -422782.000000 0 0 1
-20.395322 27.035384 29.605767 44.982025 -0.924489 0.852412 0.015303 -0.009015 917564.000000 0 0 1
-19.141922 26.764784 30.213387 44.672313 -0.949948 0.828023 0.018634 -0.006405 561020.000000 0 0 1
-18.530522 25.304684 30.070417 43.450400 -0.938722 0.806453 0.014074 0.004051 -714052.000000 0 0 1
-18.024722 24.895184 28.820517 42.134107 -0.944128 0.817539 0.018574 0.004504 492936.000000 0 0 1
-19.029722 24.305384 27.972877 41.657698 -0.906543 0.834574 0.018183 0.000462 144170.000000 0 0 1
-18.925322 22.768084 27.868657 40.659752 -0.877306 0.815628 0.018298 0.003575 -244389.000000 0 0 1
-19.532722 22.087384 28.934157 41.310594 -0.846702 0.794831 0.019765 -0.009674 74842.900000 0 0 1
-19.362822 20.697984 28.888017 40.470272 -0.818714 0.775875 0.024988 -0.013296 203981.000000 0 0 1
-19.839622 19.995184 30.210217 41.304663 -0.789303 0.750424 0.036785 -0.023834 134744.000000 0 0 1
-18.846722 20.111984 31.206547 41.635794 -0.817864 0.723471 0.023277 -0.013263 376630.000000 0 0 1
-19.331922 19.593284 32.473597 42.569407 -0.792113 0.703104 0.026470 -0.015969 118394.000000 0 0 1
-18.731422 20.325984 33.726293 43.605901 -0.826202 0.686555 0.016323 -0.009150 -375680.000000 0 0 1
-18.874522 21.712684 33.857721 44.430096 -0.855212 0.704331 0.011286 -0.011471 991175.000000 0 0 1
-17.851422 22.463384 33.109510 43.812287 -0.899302 0.714054 0.023152 -0.003250 266701.000000 0 0 1
-16.437822 22.549084 33.646380 43.712035 -0.940885 0.692381 0.010921 0.010534 -653536.000000 0 0 1
-15.769022 21.322984 33.728712 42.906383 -0.934029 0.666322 -0.002668 0.002642 -244263.000000 0 0 1
-14.413222 21.423584 34.112240 42.782658 -0.978578 0.647925 -0.016101 0.003012 -719347.000000 0 0 1
-13.615422 20.113384 33.815723 41.634493 -0.975720 0.622875 -0.023873 0.003459 98078.500000 0 0 1
-12.229722 20.124384 34.090864 41.433609 -1.024729 0.604506 -0.032838 -0.006111 75189.300000 0 0 1
-11.932222 20.241584 -33.578599 40.983191 -1.038140 2.531031 -0.021723 -0.010928 -880311.000000 0 0 1
-10.450122 20.116184 -33.199029 40.200018 -1.091680 2.542497 -0.025497 -0.012858 -173167.000000 0 0 1
-9.693622 21.239284 -33.523049 40.851785 -1.142632 2.533260 -0.014272 -0.013254 -894008.000000 0 0 1
-8.431822 21.163084 -32.938579 40.048992 -1.191652 2.536514 -0.011816 -0.007744 -128784.000000 0 0 1
-7.599322 22.503784 -32.874099 40.557076 -1.245129 2.515911 -0.016808 -0.008964 172227.000000 0 0 1
-7.906022 23.393984 -31.809829 40.269702 -1.244896 2.481474 -0.011646 -0.010488 124956.000000 0 0 1
-7.499622 22.970584 -30.496909 38.909556 -1.255219 2.471541 -0.008242 -0.014638 -266417.000000 0 0 1
-7.233822 24.154584 -29.532179 38.831968 -1.279816 2.434898 -0.004850 -0.011864 -366348.000000 0 0 1
-6.206222 24.992284 -29.955719 39.502868 -1.327394 2.431525 -0.011982 -0.001700 -293691.000000 0 0 1
-5.918722 26.045784 -29.094059 39.495296 -1.347348 2.398894 -0.010430 0.002660 -356672.000000 0 0 1
-4.681922 26.852984 -29.533979 40.190286 -1.398178 2.396247 -0.013588 0.006206 -130800.000000 0 0 1
-3.517422 26.094384 -29.129419 39.265916 -1.436808 2.406621 -0.006194 0.013165 872103.000000 0 0 1
-2.277422 26.390884 -29.763639 39.843941 -1.484714 2.414343 -0.003844 0.009674 481125.000000 0 0 1
-1.696822 27.747684 -29.407689 40.467584 -1.509721 2.384298 -0.001225 -0.000856 -1216770.000000 0 0 1
-1.259922 27.742984 -28.079889 39.493553 -1.525413 2.361715 0.007596 -0.010806 247805.000000 0 0 1
-0.903022 29.124784 -27.770769 40.252753 -1.539801 2.332161 0.004875 -0.008317 -1001480.000000 0 0 1
-0.484222 29.273984 -26.299889 39.355873 -1.554257 2.302661 0.030956 -0.022305 -79048.400000 0 0 1
0.701578 28.768584 -25.734729 38.605698 1.546414 2.300440 0.054218 -0.032315 339284.000000 0 0 1
1.875978 29.226384 -26.413819 39.438441 1.506696 2.304666 0.061768 -0.033380 -312312.000000 0 0 1
3.181478 29.133184 -25.610109 38.919685 1.462023 2.288989 0.050755 -0.034183 -22444.000000 0 0 1
3.603278 27.834384 -25.210889 37.726986 1.442058 2.302644 0.062162 -0.031658 789515.000000 0 0 1
4.876778 27.861884 -24.541139 37.447764 1.397518 2.285433 0.050475 -0.023877 647829.000000 0 0 1
5.622378 26.619784 -24.135339 36.369474 1.362645 2.296438 0.043917 -0.026617 729652.000000 0 0 1
6.772978 26.910284 -23.285639 36.225096 1.324230 2.268950 0.031243 -0.022291 535127.000000 0 0 1
7.328078 25.654484 -22.898539 35.159584 1.292561 2.280059 0.029837 -0.010654 373174.000000 0 0 1
8.833478 25.706284 -22.538239 35.310276 1.239807 2.263073 0.020890 0.005068 -446583.000000 0 0 1
9.103378 26.522984 -21.415039 35.283765 1.240169 2.222998 0.016501 0.014354 1378090.000000 0 0 1
10.519078 26.751884 -21.155039 35.691035 1.196158 2.205237 0.016610 0.014222 2154930.000000 0 0 1
11.420778 25.504384 -20.702139 34.777670 1.149776 2.208399 0.005410 0.013634 41491.700000 0 0 1
11.746278 24.629884 -21.740539 34.889214 1.125789 2.243535 0.006931 0.012977 -280307.000000 0 0 1
12.010278 23.340184 -21.224639 33.756426 1.095557 2.250752 -0.005337 0.021744 -561370.000000 0 0 1
12.110178 22.263484 -22.315839 33.768562 1.072611 2.292743 -0.011808 0.008280 167255.000000 0 0 1
10.927278 22.220484 -23.114939 33.874116 1.113758 2.321807 -0.005781 0.001092 468088.000000 0 0 1
10.969278 21.141184 -24.044039 33.843619 1.092176 2.360927 -0.007242 -0.002414 268883.000000 0 0 1
9.981678 21.284284 -25.269649 34.513907 1.132280 2.392282 0.016717 -0.004776 -393997.000000 0 0 1
8.649778 21.158684 -24.889839 33.793678 1.182722 2.398713 0.011252 -0.003649 -989809.000000 0 0 1
7.988178 20.901584 -26.176189 34.436610 1.205745 2.434305 0.002678 -0.004074 -311014.000000 0 0 1
6.551178 20.403184 -25.942489 33.648486 1.260109 2.451183 0.003612 -0.008942 -181757.000000 0 0 1
5.610578 21.293784 -25.380789 33.601909 1.313167 2.426966 0.027622 -0.003512 -50048.300000 0 0 1
5.838778 21.759684 -24.059039 32.960773 1.308642 2.389015 0.026272 -0.000072 -839641.000000 0 0 1
4.525678 22.297684 -23.448639 32.672728 1.370550 2.371265 0.032447 -0.006480 219787.000000 0 0 1
4.131678 23.541284 -24.021839 33.886746 1.397058 2.358714 0.030910 -0.013421 47779.300000 0 0 1
2.763278 23.798384 -23.746739 33.732868 1.455202 2.351760 0.051199 -0.015696 73994.600000 0 0 1
2.214678 24.890184 -24.629739 35.086324 1.482052 2.348964 0.047594 -0.012517 -1206640.000000 0 0 1
0.827378 24.823184 -24.688339 35.019839 1.537478 2.353193 0.059543 -0.030603 -869931.000000 0 0 1
0.442678 25.342884 -25.909809 36.246047 1.553331 2.367179 0.038812 -0.022966 -867060.000000 0 0 1
-1.027422 25.120784 -26.175929 36.294471 -1.529920 2.376344 0.035625 -0.020659 -850334.000000 0 0 1
-1.394522 23.766184 -26.444159 35.581874 -1.512187 2.408625 0.045042 -0.029296 310003.000000 0 0 1
-2.670922 23.666684 -27.075929 36.060389 -1.458416 2.420144 0.041581 -0.017467 341350.000000 0 0 1
-3.057522 22.268384 -27.525799 35.537290 -1.434346 2.456817 0.038716 -0.019755 -542185.000000 0 0 1
-2.419422 21.880284 -28.706129 36.175161 -1.460668 2.487387 0.043465 -0.022269 -175949.000000 0 0 1
-2.903922 20.628984 -29.269369 35.926087 -1.430946 2.523027 0.034979 -0.020514 480785.000000 0 0 1
-4.301722 20.689684 -29.982119 36.680994 -1.365801 2.527636 0.014174 -0.021491 321687.000000 0 0 1
-4.264022 21.102684 -31.330549 38.014582 -1.371420 2.539535 0.016161 -0.014947 173034.000000 0 0 1
-3.775422 22.417284 -31.680929 38.993201 -1.403946 2.519178 0.029434 -0.020595 -151069.000000 0 0 1
-3.555122 22.546584 -33.191059 40.281928 -1.414405 2.539177 0.020177 -0.013512 -43444.900000 0 0 1
-2.328522 21.977884 -33.590779 40.209325 -1.465242 2.559652 0.009767 -0.012713 108536.000000 0 0 1
-2.039622 22.128084 34.076194 40.681680 -1.478883 0.577867 0.007869 -0.001838 -61333.400000 0 0 1
-0.807222 21.341084 33.606460 39.818182 -1.532990 0.566102 0.014180 0.003884 -207789.000000 0 0 1
-1.041122 19.975284 33.333505 38.874393 -1.518723 0.540470 0.004827 0.009460 -320090.000000 0 0 1
0.081878 19.281584 32.884397 38.120463 1.566550 0.530322 0.013882 0.005264 -363718.000000 0 0 1
-0.315022 17.880684 32.420497 37.025757 -1.553180 0.504078 0.013528 0.010327 135067.000000 0 0 1
-1.089822 17.859184 31.229347 35.991808 -1.509849 0.520281 0.004031 0.008166 235681.000000 0 0 1
-1.480022 16.576984 30.843947 35.047623 -1.481751 0.494812 0.005330 0.004553 -214544.000000 0 0 1
-2.385122 16.381184 29.598417 33.913099 -1.426211 0.509943 -0.000306 0.004681 457078.000000 0 0 1
-3.743722 16.719084 29.857407 34.423944 -1.350511 0.520955 -0.010297 0.003143 136251.000000 0 0 1
-4.141522 17.934684 29.359887 34.652677 -1.343852 0.559988 -0.009163 0.012111 -1247190.000000 0 0 1
-5.593022 18.319584 29.489637 35.164296 -1.274482 0.576043 -0.021640 0.012874 -1094570.000000 0 0 1
-6.363222 17.482884 28.705857 34.207719 -1.221732 0.575054 -0.035652 0.009503 -1060610.000000 0 0 1
-7.712722 17.765184 28.935737 34.819028 -1.161203 0.589835 -0.044042 0.016286 -876930.000000 0 0 1
-8.726322 17.017584 28.033157 33.935302 -1.096975 0.598687 -0.043678 0.008994 -91494.000000 0 0 1
-9.034722 15.685384 28.416907 33.692403 -1.048214 0.567176 -0.036743 0.003091 174508.000000 0 0 1
-9.838722 15.657184 29.610937 34.910678 -1.009767 0.558235 -0.036073 0.003076 -538880.000000 0 0 1
-10.354322 14.198884 29.986937 34.756822 -0.940718 0.530085 -0.033041 -0.004390 -94996.600000 0 0 1
-9.431522 13.115084 30.128047 34.185644 -0.947343 0.492175 -0.013523 -0.003486 -4720.470000 0 0 1
-8.603822 13.222684 31.301197 35.051819 -0.993939 0.466834 -0.018310 0.002263 -176331.000000 0 0 1
-9.123422 12.918184 32.709607 36.332281 -0.955890 0.450360 0.004641 -0.010186 -705258.000000 0 0 1
-9.329522 11.565584 33.013969 36.203934 -0.892006 0.422933 0.005052 -0.009824 273216.000000 0 0 1
-9.720422 11.271284 34.331672 37.419141 -0.859144 0.409074 -0.003126 -0.005408 -275397.000000 0 0 1
-10.139522 9.844484 -34.366546 37.158892 -0.770636 2.751448 0.003206 0.001720 -193286.000000 0 0 1
-9.084822 8.872684 -34.417746 36.685689 -0.773585 2.788128 0.011059 -0.000742 432660.000000 0 0 1
-8.761122 8.176084 -33.208979 35.304984 -0.750870 2.795282 0.027221 -0.009674 -504257.000000 0 0 1
-7.968822 8.961884 -32.213099 34.372973 -0.843986 2.785206 0.021588 -0.010887 -682433.000000 0 0 1
-8.703922 10.081984 -31.719769 34.402739 -0.858623 2.744044 0.015072 -0.007168 793209.000000 0 0 1
-7.878422 11.010584 -30.950559 33.782238 -0.949722 2.729235 0.019985 -0.006827 618720.000000 0 0 1
-7.057022 12.092384 -31.695069 34.649743 -1.042529 2.725629 0.005693 -0.002024 -255837.000000 0 0 1
-7.773022 13.257984 -31.874099 35.385763 -1.040519 2.692314 0.002660 -0.000561 140347.000000 0 0 1
-6.938122 14.270984 -32.446919 36.119262 -1.118274 2.686743 -0.004977 -0.000712 -21991.500000 0 0 1
-7.622122 15.547084 -32.928299 37.203245 -1.114971 2.657488 -0.006975 -0.000341 -424257.000000 0 0 1
-8.342922 15.511984 -34.146575 38.421538 -1.077339 2.665375 -0.003792 -0.000510 204449.000000 0 0 1
-8.623222 16.865684 -34.460664 39.323640 -1.098159 2.638996 0.002419 -0.000833 -1366570.000000 0 0 1
-9.119122 17.073084 33.197508 38.428155 -1.080225 0.527864 -0.015246 0.001120 348938.000000 0 0 1
-10.305422 16.422084 32.793277 38.095742 -1.010377 0.533933 -0.034270 0.004909 943507.000000 0 0 1
-11.508322 16.627684 33.560072 39.181625 -0.965380 0.542296 -0.027632 -0.007469 -172615.000000 0 0 1
-12.812622 16.310584 32.768017 38.780683 -0.904935 0.564311 -0.019786 -0.017238 50440.300000 0 0 1
-12.963622 15.054384 32.127167 37.773599 -0.859882 0.553825 -0.026298 -0.010225 250727.000000 0 0 1
-13.403822 14.024284 32.996972 38.277188 -0.808016 0.531489 -0.024781 -0.008589 -365533.000000 0 0 1
-12.914622 12.654784 32.621067 37.296984 -0.775236 0.506124 -0.032485 0.002293 -145586.000000 0 0 1
-13.447022 12.126384 31.410757 36.256133 -0.733803 0.522935 -0.045437 -0.001782 664591.000000 0 0 1
-12.460722 11.245184 30.874707 35.142158 -0.734167 0.497945 -0.030525 -0.009011 302480.000000 0 0 1
-12.914822 10.714884 29.502107 33.940767 -0.692565 0.517167 -0.024652 -0.009201 157639.000000 0 0 1
-13.923322 9.718384 29.582527 34.109116 -0.609378 0.521062 -0.030656 0.000503 197170.000000 0 0 1
-14.243522 9.315484 28.258997 32.988287 -0.579193 0.542080 -0.030178 0.008027 213656.000000 0 0 1
-15.008422 7.934484 28.200467 32.916183 -0.486319 0.541890 -0.028477 0.012653 564775.000000 0 0 1
-14.218122 6.792884 28.618287 32.669628 -0.445700 0.503311 -0.037038 0.015070 559825.000000 0 0 1
-14.954422 5.602384 28.425287 32.603962 -0.358447 0.511859 -0.034991 0.017924 -339010.000000 0 0 1
-14.000722 4.420984 28.405627 31.975693 -0.305860 0.477056 -0.031630 0.020228 -217541.000000 0 0 1
-13.084922 4.493984 27.273907 30.582300 -0.330826 0.469444 -0.022040 0.013495 -33071.600000 0 0 1
-13.534722 4.310984 25.960717 29.592771 -0.308353 0.500661 -0.009647 0.012954 -407429.000000 0 0 1
-12.462722 4.084684 24.829477 28.080367 -0.316719 0.485956 -0.002925 0.012938 440713.000000 0 0 1
-11.621822 2.922284 25.016147 27.738314 -0.246341 0.446735 -0.012841 0.012072 471764.000000 0 0 1
-10.951522 2.537684 23.810277 26.330685 -0.227701 0.441109 0.001825 0.000269 -520865.000000 0 0 1
-10.013222 1.382784 24.041677 26.080240 -0.137228 0.398008 0.007478 0.001279 -147559.000000 0 0 1
-8.745422 1.809784 24.546337 26.120497 -0.204060 0.348943 0.007876 -0.003213 -303996.000000 0 0 1
-7.946822 0.710984 24.722347 25.977912 -0.089230 0.312174 0.002212 -0.010566 -1342200.000000 0 0 1
-6.509622 1.102084 24.457147 25.332623 -0.167710 0.263667 0.003372 -0.013706 -1294890.000000 0 0 1
-6.176722 1.248984 23.080777 23.925595 -0.199518 0.266533 0.005693 -0.010864 -358910.000000 0 1 0
-4.861822 1.625084 22.808577 23.377540 -0.322579 0.221076 0.007921 -0.015785 -157883.000000 0 1 0
-4.226322 3.034384 23.188877 23.765380 -0.622687 0.220712 0.008171 -0.013858 -161252.000000 0 1 0
-4.232722 3.195784 24.593697 25.159072 -0.646705 0.212399 0.009622 -0.015161 -70484.700000 0 0 1
-3.921522 4.455484 25.080477 25.773242 -0.849053 0.232381 0.013172 -0.011273 -199271.000000 0 0 1
3.567178 -23.402216 12.601861 26.817818 -1.419532 1.081612 0.039859 -0.005567 254955.000000 0 0 1
3.771478 -24.603416 13.315761 28.228738 -1.418690 1.079568 0.029921 -0.003284 -1275110.000000 0 0 1
2.518578 -25.139546 13.366161 28.583112 -1.470946 1.084195 0.022243 0.006175 -1050750.000000 0 0 1
2.466478 -26.576066 13.981561 30.130630 -1.478253 1.088255 0.020294 0.006090 -15942.100000 0 0 1
2.242578 -26.584476 15.403461 30.806333 -1.486639 1.047187 0.019135 0.002879 24214.800000 0 0 1
2.400878 -27.813626 15.984861 32.169517 -1.484690 1.050780 0.018215 -0.002475 -287159.000000 0 0 1
1.985378 -27.880826 17.435661 32.943656 -1.499707 1.013072 0.003757 -0.000364 144167.000000 0 0 1
2.729278 -26.944896 18.223561 32.643140 -1.469850 0.978502 0.015605 -0.007678 350823.000000 0 0 1
2.607478 -27.382346 19.572861 33.759276 -1.475858 0.952341 0.007052 -0.003259 70808.600000 0 0 1
3.192978 -26.355916 20.558461 33.577965 -1.450235 0.911880 0.009663 -0.003922 378743.000000 0 0 1
2.252778 -25.383786 21.034961 33.043625 -1.482280 0.880739 0.006644 -0.000573 203166.000000 0 0 1
2.881178 -24.526816 21.973261 33.055863 -1.453862 0.843662 0.028495 -0.012719 371953.000000 0 0 1
1.984478 -23.361216 22.535961 32.520057 -1.486052 0.805173 0.028947 -0.008759 -172049.000000 0 0 1
1.655678 -22.272216 21.661661 31.113027 -1.496595 0.800672 0.012640 -0.010662 94742.800000 0 0 1
2.774878 -21.507316 21.147261 30.289788 -1.442485 0.797966 0.017682 -0.007049 457745.000000 0 0 1
2.460678 -20.380916 20.163561 28.775091 -1.450643 0.794377 0.009957 -0.012150 -57807.000000 0 0 1
1.861578 -19.302416 20.899261 28.510136 -1.474651 0.748006 0.008042 -0.016003 -9444.490000 0 0 1
1.128978 -18.461416 20.051861 27.279582 -1.509719 0.745056 0.003942 -0.018399 -2928.890000 0 0 1
0.901578 -16.992916 20.535861 26.670089 -1.517790 0.691961 -0.002240 -0.020098 164932.000000 0 0 1
2.052478 -16.154216 20.480461 26.165256 -1.444418 0.671748 -0.013402 -0.013127 60845.300000 0 0 1
1.828278 -14.916816 21.110961 25.913832 -1.448840 0.618654 -0.000194 -0.005304 -17788.700000 0 0 1
2.755178 -13.736916 20.728661 25.019417 -1.372855 0.594367 -0.021289 -0.006074 -959152.000000 0 0 1
2.894378 -13.335616 19.383561 23.705242 -1.357070 0.613408 -0.026930 -0.010532 -129377.000000 0 1 0
1.694878 -13.151116 18.654261 22.886807 -1.442626 0.617953 -0.014336 0.001749 188110.000000 0 1 0
0.811978 -11.943316 19.087961 22.531142 -1.502915 0.560139 -0.022143 0.000867 -408910.000000 0 1 0
1.416778 -10.657216 18.989661 21.821795 -1.438631 0.515157 -0.022101 0.000510 -426647.000000 0 1 0
1.237578 -9.725716 20.039961 22.309666 -1.444229 0.454994 -0.018429 -0.002779 295427.000000 0 1 0
-0.137322 -9.012216 20.224161 22.141716 1.555560 0.419246 -0.013616 -0.003250 495906.000000 0 1 0
-0.366922 -8.427516 21.470261 23.067938 1.527285 0.374364 -0.014259 -0.000419 -225709.000000 0 1 0
-1.644022 -7.832216 21.513661 22.953954 1.363895 0.356131 -0.010937 0.000043 85276.700000 0 1 0
-1.955222 -7.172816 22.868661 24.046784 1.304674 0.314319 -0.007426 0.007041 -85130.800000 0 1 0
-2.307722 -8.047416 23.971361 25.391192 1.291525 0.335998 -0.006295 0.009804 218938.000000 0 0 1
-1.997622 -7.425316 25.206161 26.352919 1.307990 0.296090 0.002777 0.012494 -35160.700000 0 0 1
-2.015822 -8.503516 26.374261 27.784437 1.338035 0.319967 0.016650 0.003912 -595617.000000 0 0 1
-0.931122 -9.347516 26.359161 27.983002 1.471512 0.342344 0.013483 0.005649 -618700.000000 0 0 1
-1.042822 -10.259616 27.448861 29.322127 1.469501 0.359382 0.032182 -0.009302 -95913.500000 0 0 1
0.137478 -11.249316 27.544161 29.753097 -1.558576 0.387762 0.024042 -0.012457 132917.000000 0 0 1
1.233978 -10.715316 28.275461 30.262888 -1.456141 0.364428 0.004072 -0.005823 -385005.000000 0 0 1
2.197478 -11.710816 28.400561 30.798766 -1.385308 0.397238 0.004288 -0.012185 -490146.000000 0 0 1
3.420578 -11.380516 29.232761 31.555836 -1.278822 0.386107 0.004729 -0.009392 -253829.000000 0 0 1
2.920878 -11.248316 30.562561 32.697496 -1.316735 0.363364 0.008181 -0.012713 -266170.000000 0 0 1
3.692678 -10.495116 31.420661 33.332285 -1.232477 0.340315 -0.004986 0.000064 -991815.000000 0 0 1
3.133178 -10.220016 32.826761 34.523351 -1.273321 0.314805 -0.004168 0.000571 -452347.000000 0 0 1
3.145378 -11.346416 33.654361 35.654601 -1.300374 0.336550 0.003477 -0.010039 82826.300000 0 0 1
2.595678 -11.183116 -34.107055 35.987371 -1.342728 2.816906 0.003674 -0.008609 -625195.000000 0 0 1
3.403478 -10.445516 -33.045955 34.824239 -1.255813 2.820640 -0.013653 0.006433 -362190.000000 0 0 1
3.275578 -9.032616 -33.199755 34.562137 -1.222907 2.859883 -0.014680 -0.001256 319542.000000 0 0 1
3.906478 -8.380116 -32.097255 33.402406 -1.134585 2.861126 -0.018595 -0.000090 -59677.200000 0 0 1
3.236478 -7.041116 -31.753155 32.685088 -1.139943 2.902223 -0.016244 0.002442 -16961.500000 0 0 1
3.486678 -5.998116 -32.684155 33.412398 -1.044244 2.932427 0.002834 -0.000142 -27985.600000 0 0 1
3.187878 -4.756916 -32.146955 32.652987 -0.980382 2.965312 0.005617 -0.003992 -110975.000000 0 0 1
3.177778 -3.607216 -33.134655 33.481572 -0.848606 2.997514 0.008392 0.001810 211803.000000 0 0 1
2.054778 -3.652016 -34.014955 34.272095 -1.058299 3.019018 0.005543 0.001804 215241.000000 0 0 1
2.214178 -2.678516 34.033161 34.210131 -0.880019 0.101760 0.014617 0.002628 583.214000 0 0 1
1.664378 -3.039016 32.619361 32.802873 -1.069744 0.105826 0.011356 0.000932 -807554.000000 0 0 1
0.294778 -2.918816 32.526761 32.658790 -1.470145 0.089949 0.007126 -0.001318 -1234300.000000 0 0 1
-0.150622 -3.561116 31.295261 31.497580 1.528525 0.113404 0.005642 0.001836 26803.200000 0 0 1
-1.664822 -3.704116 31.127161 31.390958 1.148398 0.129734 -0.000168 -0.002810 -70787.500000 0 0 1
-2.389922 -2.532816 30.786761 30.983084 0.814417 0.112634 0.001327 0.000304 -1532900.000000 0 0 1
-3.724522 -2.811616 30.786661 31.138332 0.646625 0.150434 -0.002722 0.001798 -1234980.000000 0 0 1
-4.593622 -1.779116 30.038761 30.440003 0.369512 0.162545 -0.000555 0.001796 -238541.000000 0 0 1
-4.234122 -1.804716 28.680961 29.047931 0.402913 0.159122 0.001969 -0.002016 33299.000000 0 0 1
-4.990622 -0.952516 27.819661 28.279800 0.188593 0.180639 0.002781 -0.006562 43961.400000 0 0 1
-5.045822 0.606384 28.039561 28.496403 -0.119602 0.179302 0.007494 -0.003418 -333636.000000 0 0 1
-6.030722 0.854484 29.017861 29.650227 -0.140752 0.206900 0.007462 -0.001638 -263655.000000 0 0 1
-6.452422 2.222484 28.964061 29.757184 -0.331715 0.231398 0.012016 -0.001440 138767.000000 0 0 1
-7.829422 2.526184 29.619361 30.740657 -0.312107 0.270924 0.004636 -0.003732 -454116.000000 0 0 1
-8.869522 2.296884 28.743461 30.168371 -0.253397 0.308573 -0.007905 0.001548 -785412.000000 0 0 1
-10.059422 2.782084 29.331661 31.133234 -0.269821 0.341858 -0.014450 0.005433 349404.000000 0 0 1
-11.366222 2.209384 28.696361 30.944361 -0.191987 0.383519 -0.016290 0.005294 -36363.200000 0 0 1
-11.559722 0.834984 28.946761 31.180752 -0.072107 0.380838 -0.012630 0.006408 73241.600000 0 0 1
-11.659422 0.198884 27.680561 30.036563 -0.017056 0.398711 -0.010133 0.004098 -714661.000000 0 0 1
-11.759522 -1.340916 27.721861 30.142760 0.113538 0.403517 -0.001315 -0.000743 -43989.200000 0 0 1
-10.653122 -2.137816 28.135461 30.160627 0.198045 0.368541 0.000638 0.001334 202717.000000 0 0 1
-9.438422 -2.042816 27.435861 29.085793 0.213149 0.338440 -0.000186 -0.000792 -403028.000000 0 0 1
-9.384322 -2.589816 25.989861 27.753297 0.269270 0.358397 -0.005111 0.001988 -648610.000000 0 0 1
-10.261922 -1.991216 25.028661 27.123898 0.191658 0.395632 -0.013169 -0.000086 483139.000000 0 0 1
-10.277022 -2.726616 23.802361 26.069215 0.259337 0.420108 -0.001989 0.003292 224468.000000 0 0 1
-9.237122 -2.206816 22.741461 24.644847 0.234512 0.395595 0.013598 -0.008290 781518.000000 0 1 0
-7.901622 -2.259516 23.221561 24.632944 0.278523 0.340154 0.001000 -0.010897 -370645.000000 0 1 0
-7.018422 -2.158716 22.156561 23.341626 0.298395 0.320019 -0.003234 -0.013000 -334209.000000 0 1 0
-5.534322 -2.299516 22.554361 23.337002 0.393797 0.259714 -0.004082 -0.010751 -19881.200000 0 1 0
-4.950122 -3.608216 22.693961 23.506144 0.629869 0.263639 -0.001891 -0.008536 91835.000000 0 1 0
-5.405322 -4.411616 23.791161 24.793128 0.684518 0.285266 -0.001334 -0.003790 -137110.000000 0 1 0
-5.460922 -5.938616 23.441261 24.790755 0.827278 0.331471 0.007543 0.000777 -147532.000000 0 1 0
-6.413522 -6.195716 22.414661 24.123374 0.768126 0.378641 0.015385 -0.007019 192515.000000 0 1 0
-5.874522 -5.982016 21.105961 22.710264 0.794464 0.378127 0.012772 -0.009495 -191247.000000 0 1 0
-6.956922 -6.006516 20.019261 22.028341 0.712215 0.430408 0.009309 -0.012611 -433887.000000 0 1 0
-7.903522 -5.001616 20.159461 22.223539 0.564213 0.434402 0.010846 -0.015725 -649143.000000 0 1 0
-8.786122 -4.953416 19.070161 21.573208 0.513359 0.486501 0.011775 -0.013546 409534.000000 0 1 0
-9.685922 -3.680016 19.038061 21.675040 0.363090 0.498417 0.018098 -0.018988 -20150.400000 0 1 0
-8.894922 -2.613916 18.665261 20.840925 0.285820 0.461004 0.020452 -0.021806 -234910.000000 0 1 0
-9.477822 -1.393016 18.878861 21.170285 0.145932 0.469572 0.015929 -0.013269 -405194.000000 0 1 0
-8.544422 -0.246616 18.383761 20.273890 0.028855 0.435237 0.017794 -0.010791 647697.000000 0 1 0
-7.365322 -0.133616 19.196061 20.560996 0.018139 0.366422 0.012790 -0.006883 677443.000000 0 1 0
-7.531122 0.758084 20.340861 21.703527 -0.100322 0.356241 0.019731 -0.006914 -288845.000000 0 1 0
-7.476022 2.277084 20.059561 21.528167 -0.295658 0.371505 0.018879 -0.013943 -861171.000000 0 1 0
-8.548622 2.737184 19.314461 21.298345 -0.309875 0.435041 0.015198 -0.013965 -353279.000000 0 1 0
-8.398222 4.126984 18.972261 21.154404 -0.456753 0.458207 0.016751 -0.010784 -54762.600000 0 1 0
-9.331922 4.604784 17.862661 20.672771 -0.458389 0.527502 0.020989 -0.005216 954027.000000 0 1 0
-10.749822 4.638884 18.155061 21.602874 -0.407390 0.572775 0.029047 0.002135 1396140.000000 0 1 0
-11.563122 5.252084 17.159361 21.347923 -0.426349 0.637149 0.030814 0.010373 137650.000000 0 1 0
-11.664522 6.761084 17.195661 21.850951 -0.525305 0.664942 0.032765 0.013086 -693529.000000 0 1 0
-10.511022 7.458184 16.776561 21.155592 -0.617112 0.655065 0.034502 0.005134 176078.000000 0 1 0
-10.697622 8.852084 16.822061 21.812387 -0.691275 0.690047 0.038688 -0.004380 116606.000000 0 1 0
-9.353222 9.608684 16.880961 21.558673 -0.798870 0.671283 0.025394 -0.002782 -284139.000000 0 1 0
-8.648022 9.681584 18.087061 22.263493 -0.841726 0.622525 0.031055 0.005324 294646.000000 0 1 0
-7.542622 10.583184 18.001861 22.202746 -0.951598 0.625288 0.024219 -0.006376 456398.000000 0 1 0
-7.941522 12.103484 17.744461 22.900392 -0.990120 0.684312 0.012562 -0.005137 -453248.000000 0 1 0
-8.054922 12.413584 16.367661 22.065338 -0.995209 0.735073 0.013969 -0.016846 -323446.000000 0 1 0
-8.647022 13.644084 16.340961 22.977359 -1.005925 0.779626 0.016786 -0.017973 -377811.000000 0 1 0
-8.563322 14.318484 14.951361 22.402961 -1.031804 0.840107 0.020361 -0.015072 -37618.000000 0 1 0
-7.306322 14.879384 14.706361 22.159771 -1.114345 0.845107 0.021055 -0.009393 -376844.000000 0 1 0
-7.155422 15.386084 13.353961 21.593052 -1.135491 0.904043 0.013387 -0.018481 -296332.000000 0 1 0
-6.217722 16.618284 13.362861 22.212462 -1.212772 0.925303 -0.013659 -0.004455 130444.000000 0 1 0
-4.866722 16.297384 13.597161 21.775502 -1.280606 0.896402 -0.015870 -0.007956 -1105340.000000 0 1 0
-4.129422 17.449684 13.616861 22.515827 -1.338424 0.921321 -0.013623 -0.012691 411640.000000 0 1 0
-2.577722 17.209384 13.713161 22.155322 -1.422116 0.903384 -0.010853 -0.009930 678377.000000 0 1 0
-2.051522 16.688384 14.907061 22.470678 -1.448479 0.845442 -0.005062 -0.005606 -198541.000000 0 1 0
-2.221722 15.308684 15.023861 21.564050 -1.426674 0.799997 0.002582 -0.006411 -601874.000000 0 1 0
-1.317122 14.692384 16.093361 21.831106 -1.481389 0.741915 -0.007380 -0.003043 -752703.000000 0 1 0
-0.034522 14.475784 15.583261 21.269403 -1.568412 0.748573 -0.022438 -0.006601 -907070.000000 0 1 0
0.847178 13.895384 16.479561 21.572559 1.509903 0.701441 -0.016538 0.002976 12848.200000 0 1 0
1.784178 14.918984 17.175261 22.819924 1.451770 0.718729 -0.018732 -0.000060 -172558.000000 0 1 0
1.067078 15.713284 18.096861 23.990463 1.502991 0.716155 -0.027397 -0.002557 192056.000000 0 1 0
1.888178 16.768284 18.621461 25.129651 1.458665 0.736215 -0.016970 -0.004817 147096.000000 0 0 1
1.010578 17.925984 19.153861 26.253239 1.514481 0.753087 -0.008973 -0.005924 583064.000000 0 0 1
0.390278 18.889284 18.283361 26.291417 1.550138 0.801804 -0.017178 0.002227 -419192.000000 0 0 1
-0.665522 18.421384 17.528261 25.436789 -1.534684 0.810562 -0.015421 0.002115 -857913.000000 0 0 1
-1.340722 19.563784 16.699961 25.757093 -1.502372 0.865363 -0.021566 0.005126 -25416.000000 0 0 1
-1.956222 20.637084 17.411161 27.071471 -1.476287 0.872185 -0.016733 0.004461 -257628.000000 0 0 1
-2.593322 21.495684 16.541661 27.247317 -1.450733 0.918399 0.004896 -0.009185 -853180.000000 0 0 1
-3.328722 22.605184 17.351361 28.690494 -1.424592 0.921310 0.004431 -0.000050 -457460.000000 0 0 1
-4.546222 22.144484 17.878861 28.821866 -1.368312 0.901642 0.010545 0.003552 -233210.000000 0 0 1
-4.869122 23.045184 18.977161 30.247669 -1.362573 0.892596 0.009406 0.007469 -260440.000000 0 0 1
-6.072922 22.559084 19.764761 30.601281 -1.307830 0.868621 -0.010094 0.005882 -461904.000000 0 0 1
-7.349822 22.705384 19.192761 30.625421 -1.257737 0.893493 -0.010080 0.001431 -333045.000000 0 0 1
-8.329622 22.100384 20.003761 30.950929 -1.210361 0.868063 -0.033820 -0.002537 -328492.000000 0 0 1
-9.745922 22.437584 19.540061 31.308819 -1.161027 0.896808 -0.018863 -0.013403 -571190.000000 0 0 1
-10.049822 23.773984 19.838861 32.554287 -1.170855 0.915482 -0.008978 -0.005333 -8538.640000 0 0 1
-11.139622 24.282884 19.086461 32.833559 -1.140695 0.950459 -0.015558 -0.005134 212819.000000 0 0 1
-11.490722 25.709084 19.496961 34.250915 -1.150480 0.965216 -0.016005 0.007403 -4501.580000 0 0 1
-12.142222 25.824484 20.739761 35.277120 -1.131286 0.942324 -0.016935 0.005048 -37311.400000 0 0 1
-12.519022 27.123084 21.008461 36.520446 -1.138368 0.957884 -0.013113 0.010324 -517673.000000 0 0 1
-13.336522 27.172784 22.298161 37.595624 -1.114532 0.935886 0.002086 0.003536 -159309.000000 0 0 1
-14.619922 26.567684 22.261261 37.618448 -1.067731 0.937550 0.001654 -0.004801 315833.000000 0 0 1
-15.271522 26.741884 23.517061 38.747902 -1.051920 0.918611 -0.002938 0.005561 1282590.000000 0 0 1
-16.806222 26.359784 23.577861 39.156134 -1.003209 0.924605 0.009669 0.003529 1238790.000000 0 0 1
-16.870122 24.911284 23.492961 38.171878 -0.975531 0.907837 0.018216 0.006119 559431.000000 0 0 1
-18.233922 24.466484 23.521061 38.526939 -0.930335 0.914093 0.026945 0.008744 677820.000000 0 0 1
26.599278 24.911284 23.882977 43.571668 0.752640 0.990668 0.042100 -0.020969 -67519.200000 0 0 1
26.455578 23.911384 24.892007 43.488664 0.734928 0.961392 0.050109 -0.024855 -74524.200000 0 0 1
25.898978 22.773584 24.379167 42.234310 0.721274 0.955456 0.048337 -0.012789 -575542.000000 0 0 1
25.502178 21.745384 25.476697 42.098514 0.706052 0.920819 0.051214 -0.011884 -271642.000000 0 0 1
24.339578 22.026084 26.198187 41.998909 0.735543 0.897223 0.052455 -0.015946 -393129.000000 0 0 1
24.212478 21.198884 27.361657 42.240940 0.719133 0.866166 0.057608 -0.014449 727459.000000 0 0 1
22.874978 21.555784 28.108677 42.166505 0.755716 0.841143 0.051643 -0.015248 495305.000000 0 0 1
22.847078 22.880884 28.597917 43.166708 0.786137 0.846646 0.064597 -0.032039 -192456.000000 0 0 1
21.731378 22.993584 29.440997 43.217241 0.813612 0.821351 0.064521 -0.025172 -378978.000000 0 0 1
21.473278 24.352584 30.141137 44.301672 0.848147 0.822541 0.065302 -0.025944 -400396.000000 0 0 1
20.782878 25.308584 29.373477 43.991517 0.883274 0.839671 0.069955 -0.029510 -75991.400000 0 0 1
20.384278 26.423284 30.158997 44.980816 0.913707 0.835933 0.052723 -0.028273 314626.000000 0 0 1
18.948878 26.301884 30.727677 44.665861 0.946485 0.812142 0.051941 -0.024490 -1213480.000000 0 0 1
17.899478 26.282984 29.815227 43.590530 0.972916 0.817586 0.058783 -0.029351 170894.000000 0 0 1
16.648478 26.640684 30.402517 43.717398 1.012250 0.801774 0.046980 -0.027874 843217.000000 0 0 1
15.873378 25.581184 31.254677 43.396035 1.015432 0.766677 0.027441 -0.025813 -659791.000000 0 0 1
16.573478 25.264284 32.383437 44.290531 0.990212 0.750776 0.024674 -0.023604 -480449.000000 0 0 1
15.672878 24.659084 33.249328 44.263160 1.004623 0.720958 0.010320 -0.021207 -134112.000000 0 0 1
16.248578 24.368284 -34.410956 45.187868 0.982707 2.436434 0.025845 -0.018213 -249562.000000 0 0 1
16.432178 25.571684 -33.757939 45.426049 0.999646 2.408548 0.020004 -0.015956 -30852.100000 0 0 1
16.743378 25.441884 -32.448569 44.503256 0.988746 2.387843 0.011635 -0.005686 -140168.000000 0 0 1
17.268178 26.685684 -31.740259 44.919481 0.996466 2.355483 -0.003750 0.009664 -572499.000000 0 0 1
16.318678 27.694684 -31.703329 45.148597 1.038330 2.349279 0.003876 0.011463 -155324.000000 0 0 1
16.809278 28.908184 -31.084679 45.656239 1.044112 2.319708 0.010478 0.013334 -50872.000000 0 0 1
16.202078 29.170984 -29.712049 44.679520 1.063803 2.298295 0.022115 0.012147 -501063.000000 0 0 1
16.569778 28.269884 -28.685539 43.550018 1.040639 2.289860 -0.003236 0.020712 -39641.200000 0 0 1
16.277778 28.809984 -27.424389 42.977649 1.056506 2.262835 -0.007684 0.024089 -141472.000000 0 0 1
16.856478 27.970484 -26.264599 41.908448 1.028429 2.248125 -0.009254 0.033371 372410.000000 0 0 1
18.265478 27.886284 -26.124239 42.352667 0.990915 2.235500 -0.012542 0.033987 -170330.000000 0 0 1
18.626978 27.363784 -24.868339 41.402600 0.973130 2.215106 -0.004643 0.029512 144691.000000 0 0 1
20.145878 27.200884 -24.699239 41.902230 0.933317 2.201173 -0.006422 0.027098 185050.000000 0 0 1
20.662978 26.838884 -23.406039 41.171920 0.914687 2.175472 0.000378 0.019595 1373340.000000 0 0 1
22.114378 26.725384 -23.473339 41.884239 0.879530 2.165706 -0.000934 0.020182 1881920.000000 0 0 1
22.863878 26.460884 -22.117539 41.377782 0.858194 2.134744 0.011312 0.015571 417513.000000 0 0 1
22.556978 25.230684 -21.521039 40.106855 0.841290 2.137190 0.016875 0.012676 -234718.000000 0 0 1
23.320078 25.161884 -20.373839 39.900373 0.823369 2.106699 0.016524 0.001956 -1122130.000000 0 0 1
22.866178 24.122484 -19.311539 38.440758 0.812128 2.097136 0.013853 -0.004615 -1161220.000000 0 0 1
22.996678 22.766084 -19.675139 37.871531 0.780359 2.117089 0.011118 0.003193 123071.000000 0 0 1
22.761778 21.928784 -18.580839 36.663574 0.766761 2.102257 0.016359 0.006951 -1188570.000000 0 0 1
22.827378 20.518384 -19.193839 36.200783 0.732179 2.129639 0.016662 -0.001699 175673.000000 0 0 1
21.916278 20.249284 -20.240939 36.056239 0.745884 2.166838 0.009812 -0.004491 -323489.000000 0 0 1
20.571378 20.444384 -19.913039 35.180727 0.782302 2.172468 -0.000214 -0.006132 -1221470.000000 0 0 1
19.533778 20.114184 -21.025839 35.046181 0.800036 2.214231 -0.002269 -0.001502 102067.000000 0 0 1
19.497078 20.750784 -22.293339 36.162467 0.816538 2.235057 0.002474 0.002468 -58706.300000 0 0 1
19.771478 22.123484 -22.302939 37.118472 0.841480 2.215371 0.000502 0.008528 -75669.800000 0 0 1
19.409478 22.606884 -23.717239 38.082889 0.861351 2.243086 0.002166 0.019375 746603.000000 0 0 1
17.994878 22.564784 -23.941539 37.499099 0.897596 2.263287 0.004489 0.010529 368748.000000 0 0 1
17.744978 23.331884 -25.105149 38.594424 0.920580 2.279021 0.003046 0.018039 648423.000000 0 0 1
16.204978 23.461284 -25.359409 38.159308 0.966332 2.297710 0.000412 0.016443 713144.000000 0 0 1
15.624478 24.488984 -24.546539 38.031135 1.002889 2.272386 -0.002259 0.010848 45947.500000 0 0 1
14.213778 24.497384 -24.651339 37.547860 1.045051 2.287007 -0.000142 0.009852 111884.000000 0 0 1
13.540478 25.627984 -23.888839 37.560814 1.084729 2.260106 -0.003255 0.008529 -329879.000000 0 0 1
13.864978 26.890084 -24.402539 38.868987 1.094734 2.249539 -0.001727 0.011412 505785.000000 0 0 1
12.930178 27.896084 -23.966939 38.984550 1.136763 2.232904 0.009713 0.010903 630905.000000 0 0 1
13.224078 29.160884 -24.823639 40.514768 1.145047 2.230276 0.007333 0.003078 242775.000000 0 0 1
12.965078 29.016484 -26.212059 41.196136 1.150592 2.260456 0.024052 -0.012244 -104038.000000 0 0 1
12.442878 30.166484 -26.874749 42.274036 1.179583 2.259746 0.043318 -0.023689 -313905.000000 0 0 1
13.163678 31.516384 -26.768909 43.395154 1.175144 2.235548 0.042505 -0.020696 277558.000000 0 0 1
14.413378 31.493684 -27.467419 44.204714 1.141591 2.241285 0.015116 -0.000595 173061.000000 0 0 1
15.126378 32.703184 -27.264809 45.184902 1.137567 2.218561 0.017051 -0.008484 -478918.000000 0 0 1
16.556178 32.518184 -27.780759 45.861857 1.099867 2.221503 0.000665 0.017327 -539745.000000 0 0 1
17.385178 31.941184 -26.811549 45.181222 1.072350 2.206101 -0.027751 0.023337 -468358.000000 0 0 1
18.707278 31.807984 -27.267799 45.882927 1.039149 2.207180 -0.027159 0.032899 -436519.000000 0 0 1
19.624678 31.063584 -26.199229 45.127307 1.007352 2.190216 -0.023678 0.036808 -257628.000000 0 0 1
20.165278 31.758984 -25.093429 45.221142 1.005076 2.159045 -0.019556 0.037215 348893.000000 0 0 1
20.867078 32.984584 -25.330859 46.530314 1.006728 2.146464 -0.022191 0.026620 626509.000000 0 0 1
22.109178 33.002084 -26.318479 47.650977 0.980536 2.155938 -0.026166 0.028085 240617.000000 0 0 1
21.767278 32.648984 -27.674719 48.017295 0.982766 2.185050 -0.042756 0.040896 134299.000000 0 0 1
22.956178 32.585684 -28.446419 48.969497 0.957066 2.190631 -0.032244 0.041249 -124815.000000 0 0 1
22.835578 31.577284 -29.646929 48.964568 0.944692 2.221162 -0.029254 0.031566 480492.000000 0 0 1
21.873078 32.022684 -30.627979 49.416161 0.971537 2.239280 -0.017270 0.020961 362145.000000 0 0 1
20.585278 31.467284 -30.437899 48.377777 0.991488 2.251283 -0.017085 0.022272 -672225.000000 0 0 1
19.599178 32.172984 -31.342879 49.006170 1.023653 2.264735 -0.032307 0.017919 -1362480.000000 0 0 1
19.269178 33.478484 -30.965099 49.507045 1.048535 2.246528 -0.027234 0.015337 197311.000000 0 0 1
18.407578 34.232484 -31.815249 50.228597 1.077428 2.256747 -0.015925 0.009394 864062.000000 0 0 1
16.870378 33.938684 -31.622009 49.359856 1.109484 2.266131 -0.002108 0.003361 442231.000000 0 0 1
16.323178 32.660984 -31.829939 48.438941 1.107328 2.287781 0.013494 0.001204 19480.300000 0 0 1
16.578178 32.077284 -33.150249 49.017621 1.093784 2.313514 0.010286 -0.001917 -932322.000000 0 0 1
16.126178 32.836484 -34.441582 50.244511 1.114290 2.326058 0.028129 -0.011194 -6306.390000 0 0 1
16.807378 34.104684 34.368088 51.252150 1.112911 0.835821 0.018536 -0.000803 188970.000000 0 0 1
16.527078 -34.342630 33.168322 50.524233 -1.122268 0.854649 0.030564 -0.010713 -657465.000000 0 0 1
15.156878 -33.804930 32.757137 49.452343 -1.149305 0.846781 0.041810 -0.016176 -909262.000000 0 0 1
14.283878 34.200984 32.458417 49.267487 1.175172 0.851547 0.037611 -0.020701 -330077.000000 0 0 1
12.923078 -34.516630 32.374717 49.056355 -1.212550 0.850045 0.025431 -0.015488 210744.000000 0 0 1
12.439378 -33.941530 31.026257 47.638159 -1.219503 0.861513 0.018518 -0.009239 -452538.000000 0 0 1
13.142378 -32.723730 30.764137 46.797401 -1.188898 0.853447 0.029746 -0.008294 448468.000000 0 0 1
12.505678 -32.102630 29.656757 45.458707 -1.199328 0.860064 0.028926 -0.006236 23604.700000 0 0 1
12.912278 -30.613930 29.329487 44.318827 -1.171658 0.847601 0.023572 -0.008549 -31336.600000 0 0 1
12.438278 -29.790830 30.396497 44.341305 -1.175278 0.815490 0.011031 -0.002340 288828.000000 0 0 1
12.928578 -28.482430 30.268607 43.526837 -1.144692 0.801819 0.023910 -0.007529 -661474.000000 0 0 1
12.444678 -27.654530 31.419707 43.667391 -1.147938 0.767681 -0.002114 0.000140 -86452.400000 0 0 1
11.069778 -27.399030 31.642287 43.295278 -1.186829 0.751232 -0.038263 0.010747 5608.980000 0 0 1
10.485378 -26.479230 30.723997 41.893397 -1.193756 0.747508 -0.049181 0.011976 -270071.000000 0 0 1
10.890878 -24.978630 30.900167 41.199071 -1.159639 0.722703 -0.056000 0.018710 6316.840000 0 0 1
10.206978 -24.392130 32.002617 41.512960 -1.174483 0.690533 -0.028139 0.006427 349770.000000 0 0 1
10.853578 -23.169330 32.358967 41.251918 -1.132709 0.669031 -0.035805 0.006510 -82962.500000 0 0 1
10.161178 -22.380230 33.453068 41.511829 -1.144600 0.633656 -0.027026 0.003877 -467315.000000 0 0 1
9.921578 -22.947730 -34.326271 42.465621 -1.162712 2.512108 -0.026417 0.003253 1096800.000000 0 0 1
11.112478 -23.355830 -33.596699 42.399530 -1.126703 2.485503 -0.022879 -0.003671 1401110.000000 0 0 1
11.953178 -22.274030 -32.834839 41.438359 -1.078267 2.485494 -0.014031 -0.009227 296157.000000 0 0 1
12.525878 -21.227130 -33.605389 41.675063 -1.037697 2.508779 -0.022973 0.000914 308342.000000 0 0 1
13.459878 -20.450130 -32.852589 40.971560 -0.988692 2.501163 -0.024956 -0.002399 -55891.100000 0 0 1
13.763178 -19.169230 -33.618369 41.074070 -0.948103 2.529559 -0.034003 0.002952 -913901.000000 0 0 1
14.434178 -19.471430 34.239784 41.950505 -0.932886 0.616002 -0.026431 0.016807 76280.200000 0 0 1
14.085878 -18.483730 33.240770 40.558711 -0.919616 0.610133 -0.042271 0.018515 -818212.000000 0 0 1
14.750278 -17.129030 33.164767 40.135721 -0.859878 0.598262 -0.019551 0.020708 -1287380.000000 0 0 1
14.552778 -16.268130 34.260630 40.622976 -0.840996 0.567252 -0.033779 0.016550 729910.000000 0 0 1
15.382178 -15.094030 34.189305 40.414721 -0.775944 0.562430 -0.015005 0.008323 1572880.000000 0 0 1
16.954778 -15.275030 34.287917 41.188011 -0.733327 0.587240 0.000803 0.009290 760663.000000 0 0 1
17.602578 -15.837330 33.180459 40.762907 -0.732658 0.619814 0.000303 0.013490 1042830.000000 0 0 1
19.008878 -16.082830 33.406785 41.665431 -0.702208 0.640517 0.022975 0.009921 955832.000000 0 0 1
19.700078 -16.588330 32.119867 41.169790 -0.699857 0.675842 0.031489 0.004495 -579680.000000 0 0 1
19.935178 -15.677030 31.067817 40.104736 -0.666393 0.684608 0.023670 0.013476 411549.000000 0 0 1
20.433078 -16.298930 29.937867 39.742190 -0.673321 0.717728 0.024459 0.008143 -457664.000000 0 0 1
20.684578 -15.500930 28.656287 38.591623 -0.643114 0.733924 0.030364 0.009080 -189575.000000 0 0 1
21.795978 -14.664130 28.863567 39.028283 -0.592230 0.738387 0.010491 0.008637 157793.000000 0 0 1
21.887178 -13.817830 27.768557 37.961477 -0.563132 0.750287 0.018914 0.011324 295943.000000 0 0 1
22.608278 -12.454630 28.032857 38.106339 -0.503525 0.744173 0.023827 0.008907 234301.000000 0 0 1
21.798578 -11.636530 28.840517 37.978444 -0.490337 0.708419 0.025299 0.004124 -1830.460000 0 0 1
22.414178 -10.404530 29.116517 38.189281 -0.434595 0.703742 0.028457 -0.007330 -376662.000000 0 0 1
21.520078 -9.163030 29.223347 37.430988 -0.402539 0.674969 0.035495 -0.012676 -396512.000000 0 0 1
20.624378 -9.187130 30.322877 37.805359 -0.419064 0.640028 0.030209 -0.015300 -332830.000000 0 0 1
19.700478 -8.149230 30.038387 36.835085 -0.392223 0.617233 0.033274 -0.018504 248462.000000 0 0 1
18.461878 -8.151430 30.984617 36.977469 -0.415786 0.577313 0.019369 -0.008211 109419.000000 0 0 1
18.660978 -7.671030 32.324987 38.104876 -0.390016 0.557999 0.023374 -0.010045 188842.000000 0 0 1
19.107678 -8.629330 33.296286 39.347317 -0.424197 0.561955 0.025264 -0.009563 -206978.000000 0 0 1
19.222178 -8.054330 -34.368950 40.194391 -0.396788 2.596479 0.029839 -0.021235 2095550.000000 0 0 1
17.861078 -7.820230 -33.822989 39.040603 -0.412693 2.618652 0.021999 -0.025072 2136850.000000 0 0 1
18.002378 -7.174830 -32.611529 37.935151 -0.379255 2.605410 0.022181 -0.024535 616425.000000 0 0 1
16.663278 -6.852830 -31.852809 36.595458 -0.390170 2.626817 0.023927 -0.024697 539652.000000 0 0 1
16.874278 -6.040030 -30.648759 35.504502 -0.343733 2.612441 0.021644 -0.023116 70666.500000 0 0 1
15.722678 -5.857030 -29.864199 34.254603 -0.356596 2.629723 0.013316 -0.015711 -30500.200000 0 0 1
16.060078 -4.740030 -28.828229 33.338578 -0.286996 2.615371 0.004967 -0.012122 -117354.000000 0 0 1
16.734378 -5.256930 -27.684049 32.773180 -0.304378 2.576832 0.004761 -0.011605 175553.000000 0 0 1
16.050478 -6.149930 -26.788409 31.828578 -0.365907 2.571121 0.025556 -0.014505 134598.000000 0 0 1
14.677878 -5.734030 -26.185189 30.561141 -0.372427 2.599853 0.020782 -0.011949 315579.000000 0 0 1
14.711378 -4.473530 -25.508639 29.784691 -0.295202 2.599120 0.007488 -0.004094 -190186.000000 0 0 1
13.411878 -4.309830 -24.974839 28.673955 -0.310922 2.628018 0.000972 -0.011364 44297.100000 0 0 1
13.227478 -3.061530 -24.058839 27.625475 -0.227447 2.627813 0.003395 -0.012726 -29249.100000 0 0 1
13.295278 -1.846530 -24.792839 28.193243 -0.138003 2.645375 -0.016868 -0.012278 72805.600000 0 0 1
12.993878 -0.799530 -23.889639 27.206525 -0.061454 2.642642 -0.017271 -0.005173 -32181.800000 0 0 1
13.439878 0.576470 -24.429939 27.888789 0.042866 2.638254 -0.014688 -0.006488 -211746.000000 0 0 1
12.683578 1.123470 -25.512249 28.513334 0.088346 2.678663 -0.018809 -0.006768 15633.400000 0 0 1
13.306678 2.310470 -25.854479 29.169505 0.171918 2.660204 -0.022194 0.009078 -332611.000000 0 0 1
12.678078 3.110470 -27.033159 30.020000 0.240590 2.691726 -0.018547 -0.002767 577158.000000 0 0 1
11.438078 3.742470 -26.646669 29.238343 0.316215 2.717374 0.004109 -0.015281 775820.000000 0 0 1
10.924778 4.470470 -27.735739 30.143110 0.388416 2.739222 0.017265 -0.009391 475387.000000 0 0 1
9.542078 5.150470 -27.421789 29.487847 0.494951 2.765033 0.028736 -0.004797 547894.000000 0 0 1
9.533978 6.317470 -26.566169 28.923494 0.585201 2.735061 0.036454 -0.030276 -536827.000000 0 0 1
8.240778 6.758470 -26.308869 28.385629 0.686893 2.756697 0.049896 -0.026768 -939492.000000 0 0 1
8.319078 5.708284 -31.895349 33.453025 0.601382 2.835230 0.035988 -0.007556 13045.100000 0 0 1
8.568978 4.774084 -30.884619 32.404922 0.508305 2.834063 0.025231 0.003115 283416.000000 0 0 1
8.117278 3.466084 -31.227939 32.451319 0.403564 2.866136 0.020512 0.006108 -30031.400000 0 0 1
7.849378 2.516484 -30.043959 31.154212 0.310244 2.873820 0.028360 -0.000055 1794600.000000 0 0 1
9.114378 2.061684 -29.406589 30.855630 0.222458 2.833910 0.023223 -0.007705 2319430.000000 0 0 1
8.792078 1.285384 -28.215209 29.581259 0.145169 2.836504 0.026902 -0.011922 68639.700000 0 0 1
10.013678 0.582584 -27.592599 29.359235 0.058113 2.792920 0.019932 -0.018622 -299359.000000 0 0 1
10.617778 -0.453216 -28.336819 30.264136 -0.042659 2.782787 -0.001592 -0.008859 109816.000000 0 0 1
11.569778 -1.012816 -27.444389 29.800672 -0.087317 2.741261 -0.004633 -0.011261 -150820.000000 0 0 1
12.176078 -2.327016 -27.950099 30.575806 -0.188837 2.724140 -0.013489 -0.004677 -390115.000000 0 0 1
11.236078 -3.351516 -27.975049 30.332911 -0.289880 2.744702 -0.004090 -0.005108 -479014.000000 0 0 1
11.764378 -4.565816 -28.383489 31.062352 -0.370210 2.723238 -0.000060 -0.007827 -267821.000000 0 0 1
11.010478 -5.780916 -27.744909 30.404434 -0.483477 2.720220 -0.000902 -0.014314 64331.600000 0 0 1
11.018078 -5.719816 -26.331919 29.111584 -0.478834 2.701042 0.010783 -0.012329 -167225.000000 0 0 1
10.516878 -6.909616 -25.760469 28.669658 -0.581282 2.687199 0.021018 -0.016541 84270.800000 0 0 1
10.185978 -6.813016 -24.229539 27.152199 -0.589521 2.673344 0.023080 -0.017541 180346.000000 0 0 1
11.390378 -6.684816 -23.501439 26.958211 -0.530719 2.629606 0.028798 -0.013019 101181.000000 0 0 1
11.135478 -6.668416 -22.091539 25.622310 -0.539569 2.610392 0.039809 -0.019710 -152229.000000 0 0 1
12.421578 -6.640716 -21.264439 25.506295 -0.490952 2.556559 0.040265 -0.019803 -233434.000000 0 0 1
12.981478 -5.332316 -21.143339 25.377020 -0.389751 2.555609 0.026205 -0.020101 -714809.000000 0 0 1
14.178778 -5.566716 -20.463139 25.510118 -0.374119 2.501696 0.033605 -0.014342 -426664.000000 0 0 1
14.699178 -4.234316 -19.826239 25.041466 -0.280471 2.484443 0.029337 -0.017657 -723613.000000 0 0 1
15.504078 -3.505916 -20.632839 26.045766 -0.222388 2.485163 0.021072 -0.015497 -750246.000000 0 0 1
15.889478 -2.361016 -19.957839 25.619626 -0.147511 2.463875 0.012238 -0.001793 -791761.000000 0 0 1
16.799878 -1.516516 -20.783339 26.767198 -0.090025 2.459806 -0.001339 0.002122 -94673.900000 0 0 1
18.047978 -2.205316 -20.944939 27.735959 -0.121589 2.426686 0.011055 -0.005489 -27550.500000 0 0 1
18.895378 -1.335616 -21.652239 28.768709 -0.070567 2.422846 0.014031 -0.003454 -72233.600000 0 0 1
20.208878 -2.070516 -22.053139 29.983775 -0.102100 2.397204 0.017921 -0.007727 -1121260.000000 0 0 1
21.155778 -2.079516 -21.010339 29.888554 -0.097981 2.350342 0.006080 -0.003701 198599.000000 0 0 1
22.326878 -2.834716 -21.327639 31.006343 -0.126289 2.329316 0.006650 -0.003484 563198.000000 0 0 1
23.304178 -2.127116 -22.301539 32.325965 -0.091024 2.332141 0.008392 -0.008623 -1734560.000000 0 0 1
22.828378 -1.877416 -23.634139 32.912491 -0.082056 2.371851 0.018131 -0.014483 -185167.000000 0 0 1
23.661978 -1.135216 -24.494839 34.076019 -0.047940 2.372913 0.013457 -0.005294 -584419.000000 0 0 1
24.929678 -1.810716 -25.003239 35.354342 -0.072506 2.356352 0.012353 -0.019830 -1143570.000000 0 0 1
25.887578 -2.007516 -23.992039 35.352719 -0.077393 2.316716 0.006908 -0.008595 -5562.960000 0 0 1
26.938478 -2.908016 -24.312939 36.404082 -0.107534 2.302130 -0.002396 -0.008588 426644.000000 0 0 1
28.073178 -2.378116 -25.227989 37.818120 -0.084510 2.301089 0.001390 -0.006957 -1166680.000000 0 0 1
27.736278 -2.128016 -26.550109 38.454361 -0.076573 2.332882 0.015605 -0.011719 -76301.300000 0 0 1
28.383578 -0.991816 -27.063319 39.230530 -0.034929 2.332083 0.016040 -0.011569 -1049880.000000 0 0 1
27.891178 -0.596716 -28.471239 39.860825 -0.021391 2.366371 0.029314 -0.021551 945901.000000 0 0 1
26.487578 -0.254916 -28.447759 38.870706 -0.009624 2.391838 0.020586 -0.012788 1000580.000000 0 0 1
26.323578 1.120184 -28.116969 38.532448 0.042529 2.388673 0.012034 -0.010685 509404.000000 0 0 1
24.814978 1.572684 -28.307909 37.677502 0.063292 2.420858 0.012934 -0.010350 930838.000000 0 0 1
23.932778 1.100184 -27.322949 36.339122 0.045937 2.421717 0.019162 -0.011380 -242629.000000 0 0 1
22.612178 1.471784 -27.613499 35.720891 0.064996 2.454408 0.006794 -0.009705 -45637.300000 0 0 1
21.581678 1.117584 -26.504159 34.197782 0.051738 2.457552 0.008983 -0.004305 49374.700000 0 0 1
21.623678 1.994884 -25.443279 33.450313 0.091994 2.435078 0.012345 -0.007348 362302.000000 0 0 1
20.742478 1.515184 -24.442639 32.093438 0.072918 2.436588 0.009818 -0.001711 -82784.200000 0 0 1
21.029678 2.135584 -23.045839 31.271693 0.101204 2.399351 0.004466 0.001102 -173374.000000 0 0 1
20.829978 3.559684 -22.957139 31.202397 0.169257 2.397569 0.002914 0.001317 319921.000000 0 0 1
20.968378 4.013184 -21.634539 30.394602 0.189105 2.362838 -0.010836 0.007580 -175018.000000 0 0 1
20.499778 5.441384 -21.339939 30.087249 0.259453 2.359256 -0.011851 0.017503 419131.000000 0 0 1
21.462278 6.396984 -21.829239 31.274054 0.289673 2.343395 -0.013986 0.016084 813115.000000 0 0 1
21.181978 7.681684 -21.203639 30.939922 0.347901 2.325835 -0.021190 0.007891 -250692.000000 0 0 1
21.562478 7.993184 -19.712239 30.288675 0.354994 2.279450 -0.030542 0.016061 -509648.000000 0 0 1
22.947878 8.239984 -19.606839 31.287866 0.344735 2.248056 -0.032081 0.018150 311652.000000 0 0 1
23.332178 8.459484 -18.227739 30.792919 0.347826 2.204267 -0.022642 0.015577 -156118.000000 0 0 1
23.261278 9.956984 -17.880739 30.983050 0.404451 2.185986 -0.015905 0.005287 274159.000000 0 0 1
21.928978 10.337684 -17.520439 29.911763 0.440521 2.196586 -0.013636 0.003265 623908.000000 0 0 1
21.794178 11.744484 -17.606739 30.379538 0.494267 2.188984 -0.005194 0.004513 -104563.000000 0 0 1
20.374578 12.213684 -17.161639 29.305620 0.540020 2.196428 -0.008585 -0.001961 1455300.000000 0 0 1
19.238778 12.077184 -18.049439 29.013294 0.560576 2.242230 -0.010760 -0.000156 996276.000000 0 0 1
18.852578 10.683784 -18.225339 28.314765 0.515575 2.270079 -0.003754 0.002133 -410792.000000 0 0 1
17.990578 10.353084 -19.482139 28.467543 0.522189 2.324526 0.013069 0.004915 -40490.400000 0 0 1
18.708278 10.549384 -20.651839 29.795765 0.513444 2.336595 0.023721 0.002880 82587.300000 0 0 1
17.967778 10.062584 -21.757839 29.958308 0.510515 2.383677 0.015596 -0.004811 -315063.000000 0 0 1
18.725078 10.218984 -23.071739 31.422306 0.499565 2.395353 0.029809 -0.005323 -391122.000000 0 0 1
18.723478 11.533284 -23.503839 32.187198 0.552087 2.389445 0.026141 -0.004796 243029.000000 0 0 1
19.567678 11.872784 -24.598539 33.599779 0.545372 2.392202 0.026180 -0.004423 68650.800000 0 0 1
19.519578 13.373884 -24.890339 34.342447 0.600691 2.381495 0.040454 -0.006484 -88982.200000 0 0 1
20.434478 13.902084 -25.823689 35.744912 0.597399 2.378127 0.027024 -0.007979 -73545.400000 0 0 1
20.325478 15.275384 -26.066749 36.413429 0.644485 2.368645 0.031980 -0.010950 240115.000000 0 0 1
19.148878 15.847284 -26.935089 36.651261 0.691335 2.396319 0.046722 -0.015961 534356.000000 0 0 1
17.895178 15.475584 -26.398329 35.448595 0.713018 2.410871 0.042489 -0.019120 -681899.000000 0 0 1
16.846478 15.918184 -27.228359 35.757180 0.757074 2.436389 0.036543 -0.020196 -662454.000000 0 0 1
15.529478 15.389784 -26.698189 34.508020 0.780880 2.455426 0.022748 -0.016420 -715051.000000 0 0 1
15.398278 13.979084 -26.752969 33.885736 0.737127 2.480799 0.024884 -0.016162 -63705.400000 0 0 1
14.107978 13.592684 -26.337949 32.825046 0.766798 2.502058 0.017651 -0.017922 -38050.600000 0 0 1
13.897378 12.034384 -26.365399 32.141839 0.713679 2.532702 0.010009 -0.018999 206008.000000 0 0 1
12.544678 11.621084 -26.283229 31.356445 0.747198 2.564786 0.021464 -0.023314 98227.000000 0 0 1
12.490178 10.212184 -26.180779 30.752666 0.685391 2.589319 0.028907 -0.025235 24890.800000 0 0 1
11.082978 9.615184 -25.963679 29.822756 0.714602 2.627216 0.018861 -0.026185 142903.000000 0 0 1
10.517978 10.007984 -24.703939 28.654358 0.760557 2.610266 0.024519 -0.028270 -362482.000000 0 0 1
9.253978 9.464784 -24.483039 27.832310 0.796659 2.645948 0.028791 -0.032416 -374547.000000 0 0 1
8.501578 10.064184 -23.254039 26.726671 0.869366 2.626138 0.035322 -0.033345 24520.900000 0 0 1
7.888378 11.314584 -23.569839 27.309039 0.961961 2.612129 0.027912 -0.027430 -475208.000000 0 0 1
7.200478 11.880884 -22.513939 26.455240 1.025936 2.588721 0.026572 -0.011933 -71618.600000 0 0 1
7.992778 12.751884 -21.503339 26.246688 1.010909 2.530947 0.028623 -0.010030 -845731.000000 0 0 1
9.051078 12.131384 -20.922139 25.823021 0.929804 2.515311 0.045058 -0.012789 -1437460.000000 0 0 1
9.753678 12.929084 -20.037239 25.764052 0.924486 2.461828 0.042414 -0.007990 68307.200000 0 0 1
10.987778 12.176884 -19.446139 25.439341 0.836686 2.440925 0.047461 -0.006564 1175090.000000 0 0 1
12.059178 11.614484 -20.283839 26.301219 0.766616 2.451541 0.044362 -0.010518 1092250.000000 0 0 1
11.705978 10.643184 -21.255239 26.497028 0.737880 2.501724 0.045621 -0.018501 -562640.000000 0 0 1
12.904178 9.982384 -21.982539 27.375132 0.658421 2.503127 0.052178 -0.017732 263682.000000 0 0 1
13.693478 9.113284 -21.213439 26.843496 0.587208 2.482035 0.059660 -0.018267 619872.000000 0 0 1
14.726478 8.465784 -21.980539 27.779178 0.521735 2.483662 0.050925 -0.020155 476580.000000 0 0 1
15.438178 7.300984 -21.210339 27.230868 0.441748 2.463719 0.067610 -0.015743 -13047.300000 0 0 1
16.152278 7.551284 -20.051039 26.832110 0.437316 2.414752 0.037145 -0.008403 -18360.300000 0 0 1
16.636178 6.373084 -19.452939 26.377935 0.365841 2.400113 0.015604 -0.008612 184662.000000 0 0 1
17.333178 6.569584 -18.065039 25.883279 0.362289 2.343317 0.030036 -0.006047 -459787.000000 0 0 1
18.566378 7.280584 -18.142739 26.960643 0.373711 2.308965 0.014074 -0.005194 109386.000000 0 0 1
19.238878 7.113784 -16.949539 26.608781 0.354170 2.261384 0.004234 -0.009549 -249403.000000 0 0 1
19.943278 5.783884 -16.633039 26.605369 0.282273 2.246153 -0.008060 -0.008834 -1632260.000000 0 0 1
21.074878 5.459284 -17.353539 27.840610 0.253471 2.243774 -0.025128 0.003765 -477358.000000 0 0 1
21.693178 4.437984 -16.633839 27.694300 0.201795 2.215077 -0.011228 -0.003234 -486629.000000 0 0 1
22.970778 3.883284 -17.283539 29.007883 0.167470 2.209085 -0.027994 0.014708 -308188.000000 0 0 1
23.594578 3.012084 -16.381639 28.881393 0.126973 2.173903 -0.026872 0.012587 -788427.000000 0 0 1
24.911878 2.745184 -16.690139 30.111434 0.109753 2.158293 -0.027616 0.013243 -932741.000000 0 0 1
25.464578 1.601584 -15.827039 30.025072 0.062812 2.126013 -0.017485 0.004465 -313342.000000 0 0 1
24.837678 0.350184 -16.020339 29.558149 0.014098 2.143604 -0.001125 0.008569 -97511.500000 0 0 1
25.870578 -0.570616 -15.895739 30.369177 -0.022053 2.121652 -0.009788 0.014271 -480086.000000 0 0 1
25.396078 -2.009116 -16.161439 30.169346 -0.078947 2.136122 -0.009044 0.004098 -340395.000000 0 0 1
24.880578 -2.640516 -15.012339 29.178516 -0.105732 2.111220 -0.003248 0.006946 346091.000000 0 0 1
24.778478 -4.022416 -15.289439 29.392512 -0.160931 2.117860 -0.002278 0.009568 -1292340.000000 0 0 1
24.365478 -4.831216 -14.037839 28.532054 -0.195742 2.085185 -0.001155 0.004828 207494.000000 0 0 1
23.011578 -4.803616 -13.600639 27.158513 -0.205793 2.095304 0.005542 0.009701 724048.000000 0 0 1
22.155878 -5.410916 -14.592039 27.075608 -0.239532 2.139971 0.011077 0.010768 -1005720.000000 0 0 1
20.694578 -5.603716 -14.180539 25.705153 -0.264440 2.155151 0.017949 0.005686 -355980.000000 0 0 1
20.359478 -6.529316 -13.140039 25.095835 -0.310339 2.121861 0.021205 0.000679 299969.000000 0 0 1
20.513778 -6.012816 -11.809339 24.421907 -0.285125 2.075508 0.024527 0.000676 -700173.000000 0 1 0
20.354378 -7.064116 -10.707139 24.059203 -0.334050 2.032007 0.028328 -0.004505 514505.000000 0 1 0
19.009678 -7.568816 -10.501939 22.998817 -0.378916 2.044999 0.031178 -0.008749 1430090.000000 0 1 0
18.775578 -8.568116 -11.525339 23.638282 -0.428117 2.080102 0.031186 -0.012097 -41674.700000 0 1 0
17.337278 -9.198516 -11.460739 22.727570 -0.487798 2.099328 0.045349 -0.007562 766225.000000 0 1 0
16.365778 -8.352316 -12.066439 21.981784 -0.471895 2.151879 0.043921 0.000822 63338.500000 0 1 0
15.128978 -8.992116 -12.308239 21.476426 -0.536265 2.181086 0.048608 0.002635 202031.000000 0 1 0
14.068778 -7.975116 -12.812339 20.632233 -0.515700 2.240797 0.041753 0.004116 -72564.700000 0 1 0
14.255078 -7.376716 -14.101639 21.365379 -0.477534 2.291646 0.047196 0.007543 326861.000000 0 1 0
15.155378 -6.274816 -13.985639 21.555902 -0.392544 2.276813 0.033484 0.004205 84456.500000 0 1 0
14.927178 -5.157716 -14.992839 21.776315 -0.332683 2.330205 0.021911 0.000431 -328010.000000 0 1 0
13.843178 -4.365416 -14.587439 20.578723 -0.305477 2.358677 0.025762 -0.002233 -521192.000000 0 1 0
13.572278 -3.278516 -15.444539 20.820403 -0.237019 2.406544 0.019909 -0.011998 129383.000000 0 1 0
14.597878 -2.077616 -15.511339 21.401313 -0.141374 2.381518 0.010566 -0.013505 103677.000000 0 1 0
15.676878 -2.329916 -16.401039 22.807611 -0.147541 2.373308 0.005326 -0.003760 486128.000000 0 1 0
16.813578 -1.483216 -16.206039 23.399403 -0.087988 2.335861 0.009041 0.002391 142605.000000 0 1 0
17.797678 -2.017616 -15.205539 23.495458 -0.112882 2.274662 0.011557 0.000822 -1386570.000000 0 1 0
17.456678 -1.887316 -13.847639 22.361902 -0.107696 2.238585 0.008230 0.001658 879902.000000 0 1 0
18.650078 -2.123116 -13.066639 22.870726 -0.113352 2.178917 0.005089 0.006113 828709.000000 0 1 0
18.295078 -2.509516 -11.625639 21.821160 -0.136318 2.132666 0.005234 0.007847 -362142.000000 0 1 0
18.177778 -1.362516 -10.849639 21.213268 -0.074815 2.107674 0.012641 0.004361 667463.000000 0 1 0
17.656378 -1.690616 -9.568039 20.153244 -0.095460 2.065492 0.013047 0.004324 -925988.000000 0 1 0
17.550678 -0.487416 -8.667339 19.580262 -0.027765 2.029356 0.006539 0.004631 -131921.000000 0 1 0
18.716878 -0.036516 -7.996139 20.353405 -0.001951 1.974541 -0.008893 0.007308 1638890.000000 0 1 0
19.782678 0.611584 -8.788939 21.655804 0.030905 1.988702 -0.015319 0.014565 717721.000000 0 1 0
19.480278 1.964584 -9.527639 21.774222 0.100510 2.023685 -0.014249 0.012103 -769323.000000 0 1 0
19.232478 3.120684 -8.752539 21.359631 0.160859 1.992998 -0.018558 0.019012 531523.000000 0 1 0
18.711278 4.102184 -9.611239 21.431653 0.215821 2.035838 -0.016214 0.010291 -320203.000000 0 1 0
18.488778 5.447184 -8.920639 21.238751 0.286515 2.004261 -0.007775 0.008737 -120594.000000 0 1 0
17.957578 6.447084 -9.820539 21.458856 0.344685 2.046141 0.008068 0.004457 535994.000000 0 1 0
18.097178 7.761384 -9.307239 21.780074 0.405146 2.012332 0.003924 -0.001363 -341783.000000 0 1 0
-24.418322 -29.060246 5.667661 38.378050 0.871981 1.422574 -0.006351 -0.004990 -203178.000000 0 0 1
-24.963922 -28.323306 6.710561 38.346300 0.848358 1.394892 0.005441 -0.001093 -727119.000000 0 0 1
-24.055622 -27.387836 7.132361 37.143466 0.850082 1.377574 0.000482 -0.003589 -998337.000000 0 0 1
-24.628222 -26.381016 8.143661 36.997656 0.819747 1.348866 -0.005261 0.003384 -523709.000000 0 0 1
-25.755652 -25.585586 7.760761 37.124187 0.782086 1.360194 -0.017837 0.006344 1228840.000000 0 0 1
-27.040492 -26.241896 7.672061 38.453684 0.770411 1.369934 -0.010791 0.010045 512440.000000 0 0 1
-27.590822 -26.687636 9.021661 39.431888 0.768760 1.339961 -0.012407 0.010775 -1235120.000000 0 0 1
-26.822482 -27.648506 9.722261 39.729181 0.800561 1.323572 -0.014633 0.007987 -498176.000000 0 0 1
-27.125612 -27.844046 11.042861 40.410822 0.798467 1.294011 -0.008566 0.009456 127375.000000 0 0 1
-25.926802 -28.484076 11.880861 40.307524 0.832363 1.271597 -0.009168 0.003023 357019.000000 0 0 1
-24.875722 -27.645056 12.142261 39.121416 0.838078 1.255210 -0.004546 0.006274 -771059.000000 0 0 1
-25.155372 -26.724406 13.238061 39.015803 0.815633 1.224624 -0.004463 0.005321 -611739.000000 0 0 1
-23.923622 -26.076546 13.869161 38.008941 0.828430 1.197279 0.008298 0.003246 96859.200000 0 0 1
-23.000622 -26.967136 14.503061 38.296133 0.864614 1.182396 0.028614 0.003800 411974.000000 0 0 1
-21.981322 -26.291196 15.247261 37.508459 0.874444 1.152174 0.025696 0.002124 647165.000000 0 0 1
-21.078522 -27.370046 15.954861 38.052347 0.914535 1.138136 0.022705 -0.004252 230228.000000 0 0 1
-21.727522 -28.095706 17.002261 39.376780 0.912524 1.124327 0.020352 -0.004121 44923.500000 0 0 1
-20.965722 -29.235846 17.291561 39.916091 0.948670 1.122759 0.017117 0.002342 -105204.000000 0 0 1
-21.601522 -30.216936 18.302461 41.408563 0.950153 1.112973 0.017326 0.001412 634953.000000 0 0 1
-22.818022 -30.855576 17.873161 42.334130 0.934042 1.134934 0.017199 0.003977 781073.000000 0 0 1
-23.057622 -32.042346 18.584861 43.632132 0.947038 1.130791 0.014505 0.003645 221923.000000 0 0 1
-24.143722 -32.995236 17.985461 44.666338 0.939089 1.156373 0.008373 0.002170 267707.000000 0 0 1
-23.765022 -33.669486 16.799361 44.504259 0.956167 1.183725 0.012363 0.000503 17148.500000 0 0 1
-24.764422 34.498923 16.371561 45.513517 -0.948203 1.202842 0.014755 -0.005912 -484974.000000 0 0 1
-24.394322 33.739585 15.062861 44.275640 -0.944789 1.223660 0.014297 -0.013940 -91163.200000 0 0 1
-23.280622 32.884388 15.104561 43.029270 -0.954752 1.212126 0.002924 -0.013894 -33175.200000 0 0 1
-22.108822 33.612787 14.775161 42.859361 -0.988992 1.218839 0.003923 -0.000948 769846.000000 0 0 1
-20.753822 32.776538 14.688661 41.482277 -1.006328 1.208850 0.009769 -0.011548 961928.000000 0 0 1
-20.804422 31.951608 13.559261 40.467058 -0.993632 1.229118 0.016378 -0.010456 377423.000000 0 0 1
-19.830222 30.908458 13.391461 39.088383 -1.000364 1.221119 0.015038 -0.014866 311774.000000 0 0 1
-19.929522 30.284588 12.016461 38.193421 -0.988766 1.250739 0.016406 -0.005188 140119.000000 0 0 1
-19.238322 31.092628 11.095461 38.209603 -1.016710 1.276168 0.011724 -0.008279 -70999.100000 0 0 1
-19.266722 30.446018 9.818961 37.344056 -1.006596 1.304736 0.011691 -0.004831 -10739.700000 0 0 1
-18.628722 31.200308 8.661861 37.356610 -1.032535 1.336797 -0.000834 -0.008493 229888.000000 0 0 1
-17.200922 31.179708 8.675761 36.651258 -1.066672 1.331817 0.001821 -0.014183 190658.000000 0 0 1
-16.669122 31.665108 7.436161 36.549079 -1.086237 1.365909 0.004815 -0.015883 151164.000000 0 0 1
-16.264422 30.524528 6.460461 35.185448 -1.081230 1.386137 0.003923 -0.015360 -883556.000000 0 0 1
-17.353722 29.696448 6.158261 34.942164 -1.041949 1.393629 0.002776 -0.008776 -265243.000000 0 0 1
-17.389022 28.451418 6.853561 34.041630 -1.022195 1.368082 -0.000735 -0.001880 200905.000000 0 0 1
-18.606222 27.558918 6.414061 33.864814 -0.976948 1.380243 0.008302 0.004068 613127.000000 0 0 1
-18.284822 26.738378 5.307461 32.824453 -0.970997 1.408391 0.012846 -0.002378 -455592.000000 0 0 1
-19.411322 26.219978 4.714061 32.962236 -0.933516 1.427290 0.033607 -0.001815 -1386080.000000 0 0 1
-19.085522 25.376538 3.521061 31.947201 -0.925957 1.460357 0.040621 -0.004200 -602092.000000 0 0 1
-18.692122 26.067268 2.336861 32.161449 -0.948704 1.498072 0.036759 -0.006417 1232170.000000 0 0 1
-17.446922 26.789348 2.224861 32.047063 -0.993533 1.501316 0.026992 -0.007277 655251.000000 0 0 1
-16.062422 26.171728 2.507561 30.809878 -1.020341 1.489318 0.017224 -0.009734 -267645.000000 0 0 1
-15.646822 25.048478 1.671261 29.581115 -1.012440 1.514269 0.021765 -0.004941 247518.000000 0 0 1
-15.480022 25.173428 0.249361 29.553252 -1.019468 1.562359 0.023322 -0.002531 -224633.000000 0 0 1
-15.300422 23.831698 -0.533539 28.325561 -1.000052 1.589633 0.021298 0.000443 -347719.000000 0 0 1
-16.376022 22.946598 -0.561439 28.196377 -0.950963 1.590709 0.023988 -0.000216 -438053.000000 0 0 1
-16.147222 21.820198 -1.331139 27.177670 -0.933718 1.619795 0.013127 0.002700 84274.100000 0 0 1
-15.316522 20.593398 -0.790439 25.677007 -0.931302 1.601585 0.024525 -0.002741 379843.000000 0 0 1
-16.080522 19.733398 0.004561 25.455651 -0.887043 1.570617 0.031807 -0.005031 -594451.000000 0 0 1
-15.207122 18.800698 0.536261 24.186988 -0.890677 1.548623 0.067202 -0.028594 -487917.000000 0 1 0
-15.710322 17.552498 1.286461 23.591511 -0.840724 1.516239 0.052238 -0.030410 -461650.000000 0 1 0
-16.310122 16.642298 0.456261 23.306530 -0.795478 1.551219 0.036745 -0.026302 -139119.000000 0 1 0
-16.991922 15.699598 1.227661 23.167001 -0.745888 1.517780 0.032905 -0.035466 -296803.000000 0 1 0
-17.530122 14.504398 0.455561 22.757202 -0.691226 1.550777 0.041348 -0.033422 -669049.000000 0 1 0
-18.573322 14.903498 -0.383939 23.816590 -0.676211 1.586918 0.044441 -0.035733 142813.000000 0 1 0
-19.442522 13.824298 -0.683839 23.866095 -0.618093 1.599453 0.044933 -0.027301 -380556.000000 0 1 0
-20.479122 14.102898 -1.817339 24.931684 -0.603066 1.643754 0.051375 -0.020334 208603.000000 0 1 0
-21.497722 13.091798 -2.005839 25.250161 -0.547000 1.650319 0.044858 -0.020769 1273010.000000 0 0 1
-22.455722 12.934598 -0.973039 25.932799 -0.522589 1.608327 0.034284 -0.009710 -57405.600000 0 0 1
-23.530622 14.058098 -0.738539 27.420170 -0.538534 1.597734 0.011053 -0.007310 -474903.000000 0 0 1
-22.911022 15.157298 -0.165139 27.471547 -0.584467 1.576808 -0.003289 -0.011877 59392.100000 0 0 1
-23.738322 16.274098 0.046561 28.781181 -0.600970 1.569179 -0.025878 -0.007559 -285255.000000 0 0 1
-23.000522 17.346998 0.870061 28.821855 -0.646184 1.540604 -0.024870 -0.008323 1010.450000 0 0 1
-22.808422 16.954598 2.224561 28.506686 -0.639230 1.492680 -0.015032 -0.004537 191967.000000 0 0 1
-22.319222 17.983798 3.057461 28.825557 -0.678240 1.464529 -0.009468 -0.009163 258139.000000 0 0 1
-23.392022 19.058198 3.497061 30.374842 -0.683659 1.455410 -0.005274 -0.008562 209453.000000 0 0 1
-24.250722 18.591698 4.566161 30.896578 -0.654069 1.422464 -0.001934 -0.015209 1584840.000000 0 0 1
-25.612762 19.100398 4.482261 32.263438 -0.640768 1.431419 -0.010877 -0.014588 1202150.000000 0 0 1
-26.463512 18.402998 3.405661 32.412749 -0.607639 1.465530 0.012999 -0.006575 -954400.000000 0 0 1
-27.646452 19.176198 3.202661 33.798075 -0.606433 1.475895 0.017524 -0.006520 231444.000000 0 0 1
-28.370842 18.502098 2.179561 33.940872 -0.577886 1.506536 0.038329 -0.004471 -324692.000000 0 0 1
-29.679352 19.194098 1.781961 35.390009 -0.574063 1.520423 0.045052 -0.013028 291711.000000 0 0 1
-30.601962 19.411898 2.876161 36.353461 -0.565284 1.491597 0.065367 -0.009442 -329316.000000 0 0 1
-31.755342 20.024198 2.444561 37.621086 -0.562600 1.505772 0.042085 -0.013774 -687234.000000 0 0 1
-32.480572 20.703398 3.653161 38.690617 -0.567473 1.476236 0.031709 -0.005470 -389892.000000 0 0 1
-31.762932 21.746598 4.237361 38.726652 -0.600352 1.461160 0.033399 -0.012882 -133780.000000 0 0 1
-32.197822 22.163998 5.498761 39.473775 -0.602878 1.431040 0.012525 -0.007823 -483088.000000 0 0 1
-31.307492 23.286398 6.090261 39.490589 -0.639519 1.415958 0.014922 -0.007152 38774.600000 0 0 1
-31.405442 24.542658 5.432961 40.226371 -0.663344 1.435323 0.005625 -0.001742 558923.000000 0 0 1
-30.344822 25.372298 5.883661 39.989738 -0.696388 1.423131 -0.010634 -0.001135 2593.310000 0 0 1
-30.667642 26.840758 5.644561 41.143549 -0.718951 1.433170 -0.014021 0.004932 -464033.000000 0 0 1
-31.504902 27.306638 6.652061 42.219204 -0.714134 1.412577 0.001828 0.001337 -113410.000000 0 0 1
-32.115072 28.537118 6.287661 43.419807 -0.726475 1.425474 -0.003706 0.004941 181234.000000 0 0 1
-33.087472 29.107948 7.384061 44.683081 -0.721501 1.404781 -0.000432 0.005992 -741542.000000 0 0 1
-32.558672 29.414478 8.630161 44.718657 -0.734707 1.376590 -0.002916 -0.001613 -745993.000000 0 0 1
-33.354492 29.943698 9.617261 45.843635 -0.731566 1.359442 0.004845 -0.000220 -889841.000000 0 0 1
-34.443444 29.061928 10.250761 46.217146 -0.700859 1.347141 -0.001217 0.004994 -96097.300000 0 0 1
-33.893882 27.945298 10.921361 45.266003 -0.689499 1.327121 0.003576 -0.003118 142518.000000 0 0 1
-34.896805 27.126658 11.440061 45.656517 -0.660770 1.317529 0.008649 -0.005286 -383004.000000 0 0 1
-34.261311 25.828308 11.907861 44.527924 -0.645968 1.300077 0.013227 -0.010474 -312705.000000 0 0 1
-33.345792 26.113408 12.936661 44.285540 -0.664357 1.274354 0.019714 -0.018677 -115515.000000 0 0 1
-33.085192 24.881688 13.624061 43.581456 -0.644811 1.252855 0.033424 -0.017922 -551874.000000 0 0 1
-32.007072 25.204808 14.635461 43.288933 -0.667058 1.225912 0.041409 -0.022014 -380144.000000 0 0 1
-32.368992 26.135808 15.693961 44.464958 -0.679257 1.210073 0.038867 -0.022275 -112462.000000 0 0 1
-31.184442 26.621288 16.272561 44.113021 -0.706622 1.192989 0.055557 -0.023573 -213691.000000 0 0 1
-31.371152 27.789358 17.249361 45.320393 -0.724928 1.180341 0.045150 -0.026369 -346960.000000 0 0 1
-31.764492 28.998068 16.634661 46.114887 -0.739901 1.201754 0.051543 -0.028003 26503.300000 0 0 1
-31.885692 30.005698 17.572561 47.178747 -0.755032 1.189130 0.044749 -0.027642 -34529.900000 0 0 1
-31.594832 31.390138 16.884961 47.630621 -0.782148 1.208419 0.028610 -0.020369 88701.500000 0 0 1
-30.235522 31.445928 16.516561 46.645792 -0.805019 1.208861 0.027212 -0.020529 -355913.000000 0 0 1
-29.933862 32.598648 15.822161 47.000518 -0.827987 1.227452 0.013718 -0.004827 -75589.400000 0 0 1
-28.428552 32.960258 15.587861 46.233565 -0.859084 1.226903 0.027387 -0.010913 792710.000000 0 0 1
-27.751412 32.223438 14.533961 44.941371 -0.859825 1.241478 0.023907 -0.015774 254036.000000 0 0 1
-27.590672 30.836638 14.651761 43.895529 -0.840897 1.230478 0.029839 -0.017519 -381759.000000 0 0 1
-28.723212 29.818348 14.286761 43.798040 -0.804103 1.238519 0.038504 -0.022429 101450.000000 0 0 1
-29.011602 29.758678 12.900061 43.516244 -0.798109 1.269831 0.042610 -0.027898 93621.300000 0 0 1
-30.041812 28.807528 12.663961 43.505862 -0.764428 1.275434 0.045976 -0.025726 295407.000000 0 0 1
-30.203312 28.528278 11.127861 43.010835 -0.756886 1.309097 0.030998 -0.017192 -162864.000000 0 0 1
-29.108942 27.850068 10.574361 41.650617 -0.763300 1.314104 0.021272 -0.013159 -271944.000000 0 0 1
-29.088792 27.992388 9.143661 41.392489 -0.766193 1.348058 0.015990 -0.013355 32422.900000 0 0 1
-27.916692 27.262168 8.441261 39.922705 -0.773537 1.357748 0.010661 -0.012164 180991.000000 0 0 1
-27.632272 27.779858 7.171361 39.833295 -0.788062 1.389775 0.007987 -0.007911 -236366.000000 0 0 1
-26.736592 26.940318 6.466361 38.502466 -0.789194 1.402050 0.007247 -0.003270 -373065.000000 0 0 1
-26.566752 27.342558 4.995961 38.449543 -0.799788 1.440492 -0.002414 -0.005648 -279102.000000 0 0 1
-25.701442 28.434768 4.861861 38.635965 -0.835845 1.444624 0.002606 -0.005061 75114.400000 0 0 1
-25.494462 28.735258 3.477161 38.571664 -0.845088 1.480526 -0.007053 -0.002017 -10846.700000 0 0 1
-24.352722 29.757618 3.150361 38.581027 -0.884954 1.489050 -0.008558 -0.005457 -18026.500000 0 0 1
-23.089522 29.186958 3.405861 37.371171 -0.901512 1.479534 0.009686 -0.008345 -129933.000000 0 0 1
-22.121122 30.187388 3.054661 37.549346 -0.938399 1.489356 0.005500 -0.011450 154044.000000 0 0 1
-20.669522 29.902428 3.483861 36.517415 -0.965979 1.475248 0.008842 -0.017549 216800.000000 0 0 1
-19.784022 30.774438 2.797961 36.691990 -0.999448 1.494467 0.004561 -0.015070 -1012350.000000 0 0 1
-18.472722 30.558658 3.187961 35.850190 -1.027074 1.481754 0.009513 -0.022556 -318587.000000 0 0 1
-17.441722 31.627088 2.705161 36.218838 -1.066817 1.496037 0.003874 -0.020582 218744.000000 0 0 1
-17.471822 32.870518 3.337561 37.374788 -1.082240 1.481377 -0.000477 -0.022621 -581652.000000 0 0 1
-16.281322 33.513504 3.015161 37.380845 -1.118562 1.490048 0.005491 -0.014494 -567737.000000 0 0 1
-16.020222 -34.241333 3.767961 37.990972 1.133188 1.471453 -0.001120 -0.015579 -671570.000000 0 0 1
-16.878022 -33.190526 3.531161 37.402510 1.100357 1.476246 0.001651 -0.021534 -514919.000000 0 0 1
-16.647922 -32.126566 4.424661 36.453356 1.092697 1.449118 0.002517 -0.020590 -1053930.000000 0 0 1
-17.794222 -31.221836 4.723561 36.245682 1.052782 1.440104 -0.004428 -0.012142 -1015750.000000 0 0 1
-18.083022 -30.282696 3.669261 35.461259 1.032482 1.467138 -0.000080 -0.010674 105828.000000 0 0 1
-19.073422 -29.398776 4.151661 35.289088 0.995277 1.452876 -0.003662 -0.006387 -298399.000000 0 0 1
-19.724022 -28.493076 3.068561 34.789488 0.965298 1.482478 0.001717 -0.010835 605824.000000 0 0 1
-18.795622 -27.461626 2.659461 33.383964 0.970595 1.491049 0.004658 -0.006946 412584.000000 0 0 1
-19.207022 -26.822126 1.495961 33.023841 0.949354 1.525481 0.008672 -0.006345 57015.600000 0 0 1
-18.361922 -25.544356 1.218261 31.482670 0.947548 1.532090 0.020168 -0.008912 -359297.000000 0 0 1
-17.014922 -25.813826 1.005961 30.933366 0.988023 1.538270 0.024048 -0.005227 -1336440.000000 0 0 1
-16.310822 -24.629816 1.268661 29.568231 0.985865 1.527877 0.026407 -0.004567 -240725.000000 0 0 1
-14.835322 -24.698616 0.853261 28.824234 1.029896 1.541190 0.027809 -0.009192 -236219.000000 0 0 1
-14.489122 -24.764416 -0.525339 28.696462 1.041421 1.589104 0.024058 -0.000548 117132.000000 0 0 1
-14.682722 -23.549516 -1.260139 27.780389 1.013289 1.616173 0.025629 -0.008279 -391626.000000 0 0 1
-14.808122 -23.754416 -2.768539 28.128590 1.013360 1.669380 0.004956 0.005691 12005.000000 0 0 1
-13.636722 -23.997116 -3.538439 27.827007 1.054038 1.698300 0.019152 0.006647 259691.000000 0 0 1
-13.950922 -23.982816 -4.944739 28.182515 1.043938 1.747163 0.017415 0.006829 256986.000000 0 0 1
-12.784922 -24.485116 -5.824939 28.229507 1.089586 1.778632 0.031184 0.006965 58880.300000 0 0 1
-12.780622 -25.888076 -6.061939 29.500575 1.112211 1.777756 0.003607 0.011442 -788931.000000 0 0 1
-11.627022 -26.386766 -6.655639 29.593016 1.155755 1.797643 0.020911 0.011163 -352605.000000 0 0 1
22.194378 12.519584 28.467647 38.206508 0.513595 0.730112 0.000755 0.006753 -415054.000000 0 0 1
23.190978 11.638784 28.943687 38.871837 0.465140 0.730872 0.003241 0.004408 361286.000000 0 0 1
22.765678 10.907284 30.087247 39.274513 0.446797 0.698083 0.004611 0.004635 -269266.000000 0 0 1
23.045078 11.708584 31.414647 40.682264 0.470085 0.688508 0.011681 -0.004352 -121749.000000 0 0 1
22.011978 12.608984 31.708147 40.606898 0.520197 0.674761 0.007351 -0.001083 -159662.000000 0 0 1
22.150578 13.225984 32.965717 41.860640 0.538280 0.664036 0.000712 -0.000030 -572684.000000 0 0 1
21.041678 14.224384 33.398815 41.959101 0.594443 0.650163 -0.008382 0.002580 432430.000000 0 0 1
19.865478 13.522884 33.831023 41.497514 0.597671 0.617628 -0.010001 0.006510 198935.000000 0 0 1
19.249278 14.373284 -34.257778 41.841622 0.641381 2.530025 -0.003073 0.008353 -427331.000000 0 0 1
18.106178 13.640784 -33.540779 40.483188 0.645659 2.547240 0.002537 0.009301 217430.000000 0 0 1
17.056178 13.302784 -34.449261 40.677130 0.662389 2.580915 0.010950 0.006794 135981.000000 0 0 1
15.915078 12.745084 -33.846949 39.513831 0.675240 2.599411 0.010279 -0.001001 578366.000000 0 0 1
14.732378 12.373084 34.247840 39.281684 0.698576 0.511824 0.011394 -0.002898 664787.000000 0 0 1
14.989578 11.264984 33.416179 38.317467 0.644474 0.511345 0.005921 0.005081 -122670.000000 0 0 1
13.774878 10.806984 32.863977 37.236798 0.665245 0.489502 0.016372 0.004583 167698.000000 0 0 1
13.899878 9.741684 31.810947 36.056114 0.611294 0.490150 0.025032 0.004432 74609.700000 0 0 1
14.394378 8.499984 32.300247 36.369682 0.533410 0.477582 0.019924 0.009632 -31973.500000 0 0 1
14.731878 7.686584 31.201967 35.350736 0.480908 0.489347 0.016778 0.000312 150157.000000 0 0 1
15.121778 6.219384 31.512037 35.501512 0.390198 0.478633 0.030183 -0.003658 503532.000000 0 0 1
14.056178 5.447484 32.063587 35.430563 0.369728 0.439488 0.016434 0.005483 293462.000000 0 0 1
14.517378 4.149284 32.230117 35.591449 0.278393 0.438103 0.021399 -0.002924 605837.000000 0 0 1
13.293978 3.298084 32.676107 35.430709 0.243179 0.396926 0.002215 0.002838 227556.000000 0 0 1
13.643478 1.967384 32.997559 35.761068 0.143212 0.395710 0.007302 -0.006208 124516.000000 0 0 1
12.589278 1.129784 33.494173 35.799803 0.089502 0.360851 -0.002884 -0.006184 50155.900000 0 0 1
13.086878 -0.276216 33.923972 36.361773 -0.021103 0.368255 -0.023936 -0.006194 -57608.300000 0 0 1
13.282778 -1.158716 32.832007 35.436076 -0.087014 0.385758 -0.033605 -0.006033 9429.470000 0 0 1
13.710578 -2.421416 33.289892 36.084070 -0.174807 0.396121 0.007134 -0.011352 -443859.000000 0 0 1
13.934778 -3.511616 32.219237 35.278729 -0.246864 0.419540 0.012193 -0.015304 -1465720.000000 0 0 1
14.243978 -4.869316 32.578377 35.888045 -0.329397 0.432840 0.022656 -0.015529 533784.000000 0 0 1
15.520378 -5.016816 33.210568 36.999897 -0.312640 0.456535 0.014202 -0.020632 851245.000000 0 0 1
16.795678 -4.609316 32.407227 36.790881 -0.267841 0.493143 0.021608 -0.020845 -715877.000000 0 0 1
16.890678 -3.209416 32.136447 36.446489 -0.187773 0.491251 0.024271 -0.021294 -160756.000000 0 0 1
18.144878 -2.869516 31.563047 36.519811 -0.156846 0.527095 0.051176 -0.028860 173627.000000 0 0 1
18.315078 -1.341316 31.446747 36.416193 -0.073105 0.528553 0.057830 -0.031472 -423925.000000 0 0 1
18.218278 -0.705716 32.766107 37.496952 -0.038717 0.507764 0.055365 -0.025445 28197.300000 0 0 1
17.977778 0.682884 32.606887 37.240783 0.037967 0.504183 0.049539 -0.018881 150310.000000 0 0 1
19.043578 1.661584 31.997157 37.272466 0.087031 0.538525 0.064895 -0.022694 -22669.100000 0 0 1
19.204378 1.517884 30.598707 36.157889 0.078874 0.561885 0.047945 -0.026142 383872.000000 0 0 1
20.365378 2.160684 30.077807 36.388070 0.105701 0.597785 0.043809 -0.018347 289758.000000 0 0 1
20.326178 3.742084 30.027667 36.452949 0.182063 0.602824 0.044818 -0.001079 -320498.000000 0 0 1
20.286778 4.375684 31.312197 37.565325 0.212437 0.585312 0.034221 -0.005180 384009.000000 0 0 1
19.956478 5.759884 31.264517 37.535414 0.280986 0.586408 0.030142 -0.002822 -680092.000000 0 0 1
19.557178 6.255384 32.695287 38.608222 0.309568 0.560766 0.026869 0.001444 445383.000000 0 0 1
18.325678 5.690684 33.181848 38.330789 0.301090 0.524307 0.024576 -0.001685 794177.000000 0 0 1
17.945378 6.340584 34.379470 39.296151 0.339636 0.505606 0.017022 0.002731 -155119.000000 0 0 1
16.763578 5.692684 -33.957039 38.294970 0.327368 2.661005 0.019059 -0.001423 -476159.000000 0 0 1
17.004378 4.368284 -33.631619 37.938326 0.251454 2.660482 0.011725 -0.007852 -265015.000000 0 0 1
15.936678 3.851584 -32.892759 36.752497 0.237133 2.679183 0.011970 -0.009880 -621833.000000 0 0 1
15.802378 2.355784 -33.032759 36.693706 0.147988 2.691093 0.000492 -0.012861 -311704.000000 0 0 1
16.926378 1.537084 -32.768139 36.913627 0.090562 2.663117 -0.004714 -0.004922 -56677.900000 0 0 1
16.646978 0.199184 -33.069309 37.023516 0.011965 2.675203 0.001771 -0.008015 -632844.000000 0 0 1
17.715378 -0.679216 -32.434499 36.963397 -0.038322 2.641371 0.003676 -0.006979 -391251.000000 0 0 1
17.650778 -0.858416 -31.001409 35.684369 -0.048595 2.623504 0.013469 -0.008858 256136.000000 0 0 1
17.913878 0.277884 -30.203669 35.117601 0.015511 2.606207 0.011394 -0.006356 -344197.000000 0 0 1
17.557778 -0.072116 -28.736939 33.676289 -0.004107 2.593133 0.000117 -0.001342 997962.000000 0 0 1
16.155678 -0.254016 -28.423559 32.695094 -0.015722 2.624687 0.008133 -0.008518 1014560.000000 0 0 1
15.765278 -0.546716 -27.105299 31.361443 -0.034665 2.614528 -0.000608 -0.006939 -365361.000000 0 0 1
16.456478 -1.661916 -26.317839 31.083859 -0.100647 2.580496 0.012082 -0.006677 -459718.000000 0 0 1
17.714278 -1.260616 -25.804539 31.325055 -0.071044 2.538820 0.022080 -0.007429 -191369.000000 0 0 1
18.527278 -2.305216 -25.377109 31.505106 -0.123787 2.507301 0.025900 -0.007613 197788.000000 0 0 1
19.419778 -3.056516 -26.419289 32.930972 -0.156111 2.501872 0.037952 -0.017546 484410.000000 0 0 1
20.580378 -2.279416 -26.751899 33.829156 -0.110307 2.482902 0.045693 -0.013848 155974.000000 0 0 1
20.817878 -2.317116 -28.157159 35.093855 -0.110848 2.502000 0.051383 -0.019924 -916904.000000 0 0 1
22.196778 -2.023816 -28.665109 36.310897 -0.090925 2.480685 0.035530 -0.021810 -502348.000000 0 0 1
23.184578 -3.036916 -28.443049 36.820573 -0.130247 2.453529 0.027313 -0.024036 984126.000000 0 0 1
24.428478 -2.702616 -29.090349 38.082845 -0.110186 2.440085 0.005944 -0.023150 899767.000000 0 0 1
25.682878 -3.451516 -28.547079 38.554623 -0.133589 2.404509 0.002836 -0.026640 -2487.210000 0 0 1
25.733478 -4.832316 -28.895259 38.993579 -0.185622 2.405394 0.011130 -0.036392 -483248.000000 0 0 1
26.941678 -5.446316 -28.603049 39.669268 -0.199464 2.376096 0.009538 -0.034240 -750701.000000 0 0 1
26.894678 -6.517316 -27.532999 39.036716 -0.237744 2.353657 0.005548 -0.024838 -245563.000000 0 0 1
26.805378 -6.014116 -26.226399 37.980546 -0.220707 2.333007 -0.002807 -0.018945 134944.000000 0 0 1
26.546678 -7.075216 -25.345959 37.379171 -0.260465 2.315940 -0.020786 -0.011232 -308861.000000 0 0 1
26.570678 -6.833516 -23.836939 36.344154 -0.251727 2.286127 -0.031498 -0.003608 115318.000000 0 0 1
27.863078 -6.443816 -23.402139 36.953133 -0.227272 2.256596 -0.041983 0.003236 199764.000000 0 0 1
27.910778 -6.090116 -22.102539 36.119569 -0.214832 2.229291 -0.035857 0.001185 -83128.100000 0 0 1
29.271978 -5.513016 -21.623539 36.807873 -0.186157 2.198726 -0.024435 0.000938 -126312.000000 0 0 1
29.624578 -4.379016 -22.353639 37.369461 -0.146754 2.212024 -0.011254 -0.003332 132275.000000 0 0 1
30.830178 -3.841216 -21.816439 37.963296 -0.123954 2.183000 -0.015110 0.003637 348562.000000 0 0 1
31.242178 -2.600516 -22.612139 38.654175 -0.083046 2.195659 -0.002752 -0.001950 -130091.000000 0 0 1
30.503178 -1.475616 -22.206839 37.759304 -0.048338 2.199523 -0.013580 -0.008082 -36736.000000 0 0 1
31.004478 -0.243016 -22.718439 38.437796 -0.007838 2.203149 0.000983 -0.004813 -69339.300000 0 0 1
30.024478 0.968084 -22.637339 37.614566 0.032232 2.216579 0.002087 -0.001756 -223725.000000 0 0 1
28.866078 0.733184 -23.394239 37.162864 0.025394 2.251713 -0.009168 -0.000745 -260310.000000 0 0 1
28.012778 1.867184 -23.263139 36.460605 0.066556 2.262740 -0.009536 0.012022 -678224.000000 0 0 1
26.765278 1.625084 -24.113239 36.062020 0.060642 2.303202 -0.010476 0.009586 -735984.000000 0 0 1
25.937278 2.740684 -23.860139 35.349116 0.105275 2.311741 -0.012660 0.012878 -422724.000000 0 0 1
25.134878 3.041284 -24.950939 35.546601 0.120413 2.348889 0.001585 0.003212 301490.000000 0 0 1
24.075878 4.211984 -24.722039 34.764464 0.173193 2.361900 0.004263 0.011977 669725.000000 0 0 1
24.679578 5.464784 -24.412139 35.141115 0.217913 2.338784 -0.010475 0.019544 505195.000000 0 0 1
23.684578 6.391284 -23.942039 34.278696 0.263572 2.344029 -0.005061 0.009531 121192.000000 0 0 1
24.256678 7.697984 -23.342139 34.532606 0.307302 2.313042 -0.004852 0.009109 -197921.000000 0 0 1
24.901978 8.552484 -24.244939 35.792046 0.330824 2.314996 -0.007099 0.013949 -30685.100000 0 0 1
25.083978 9.844184 -23.652239 35.854460 0.373980 2.291181 0.002907 0.012088 -424575.000000 0 0 1
25.816478 10.801584 -24.602539 37.261907 0.396266 2.291961 0.027574 0.011406 -405242.000000 0 0 1
25.293978 11.025684 -25.877499 37.828508 0.411068 2.324130 0.026876 0.001371 1114660.000000 0 0 1
23.988278 11.680284 -25.891719 37.178591 0.453126 2.341186 0.024030 -0.006440 1284770.000000 0 0 1
23.532478 11.829884 -27.388939 37.998390 0.465809 2.375741 0.021073 -0.013861 -311126.000000 0 0 1
23.073078 10.713684 -28.114779 37.915574 0.434712 2.406115 0.010160 -0.004938 489143.000000 0 0 1
24.059578 9.733484 -28.526989 38.566736 0.384429 2.403389 0.010506 -0.010079 99662.500000 0 0 1
24.960478 10.136184 -29.691449 40.091768 0.385745 2.404740 0.014445 -0.004366 -1528670.000000 0 0 1
25.934478 11.034884 -29.353969 40.694242 0.402286 2.376517 0.018619 -0.006505 -179696.000000 0 0 1
26.645578 11.637684 -30.447519 42.100759 0.411788 2.379229 0.014557 0.000171 190059.000000 0 0 1
27.821278 10.817784 -30.966249 43.011121 0.370841 2.374540 0.023216 -0.004659 -1020470.000000 0 0 1
27.317178 9.825184 -31.801239 43.059044 0.345264 2.401713 0.014550 0.001079 -11722.000000 0 0 1
28.186178 8.762684 -32.058679 43.577565 0.301414 2.397451 0.022270 -0.000418 -294257.000000 0 0 1
27.502678 7.653084 -32.894769 43.554940 0.271401 2.426828 0.025137 0.001386 542877.000000 0 0 1
26.321278 7.044684 -32.384939 42.322825 0.261513 2.442130 0.029480 -0.000713 31131.300000 0 0 1
25.873078 6.022984 -33.196599 42.517134 0.228716 2.466712 0.021270 -0.000324 -1417790.000000 0 0 1
24.588178 5.464084 -32.697959 41.274584 0.218671 2.485211 0.031713 -0.001963 -99896.100000 0 0 1
23.412378 6.323284 -32.739279 40.742898 0.263789 2.504045 0.025286 0.001875 1061240.000000 0 0 1
23.268978 7.230084 -31.654849 39.946826 0.301260 2.485570 0.021459 0.000629 424146.000000 0 0 1
21.805878 7.818284 -31.570929 39.157955 0.344263 2.508574 0.017244 -0.000564 1019920.000000 0 0 1
21.485278 8.763684 -32.590929 40.007349 0.387292 2.522876 0.019752 0.000912 -225875.000000 0 0 1
20.146378 9.201284 -32.641219 39.446031 0.428429 2.545420 0.010477 0.005360 -40211.700000 0 0 1
19.785878 10.118784 -33.824769 40.472037 0.472737 2.560305 0.004896 0.008034 -125233.000000 0 0 1
19.674878 9.577084 33.901113 40.349805 0.453005 0.573181 -0.000020 0.009186 65131.500000 0 0 1
19.213378 10.526884 32.940977 39.561055 0.501224 0.586899 0.001720 0.010503 45040.000000 0 0 1
18.047378 10.028384 32.068247 38.139858 0.507186 0.572025 0.018885 0.008754 -244859.000000 0 0 1
18.326978 9.043484 31.007607 37.136699 0.458395 0.582739 0.016233 0.003096 128544.000000 0 0 1
19.303478 9.394184 30.042277 36.924427 0.452917 0.620453 0.011678 0.004766 -289652.000000 0 0 1
18.813778 10.483284 29.012577 36.132909 0.508364 0.638584 0.024851 0.001662 551206.000000 0 0 1
17.826278 10.043284 28.060827 34.728284 0.513071 0.630028 0.029620 0.004121 142369.000000 0 0 1
16.509078 10.246784 28.457907 34.458652 0.555484 0.599077 0.032164 -0.002619 -725419.000000 0 0 1
15.439678 9.505784 27.631437 33.049052 0.551864 0.580710 0.044468 -0.006580 -305985.000000 0 0 1
15.424778 9.964384 26.319677 32.092649 0.573557 0.609184 0.042162 -0.012166 647468.000000 0 0 1
14.302878 9.517084 25.537267 30.778226 0.587123 0.592193 0.047364 -0.012093 570885.000000 0 0 1
14.195578 8.037084 25.161007 29.986420 0.515172 0.575206 0.045039 -0.009772 -120295.000000 0 0 1
13.985878 7.138484 26.212887 30.556148 0.471938 0.539706 0.041260 -0.005091 -7162.470000 0 0 1
13.912778 5.825684 25.758077 29.849330 0.396547 0.529744 0.040995 -0.006392 -90185.500000 0 0 1
13.809578 4.810884 26.869617 30.591262 0.335225 0.498412 0.040842 -0.004852 321202.000000 0 0 1
15.054978 4.342884 27.391527 31.556437 0.280844 0.519602 0.031022 -0.004642 239593.000000 0 0 1
14.916678 3.648284 28.598697 32.460787 0.239869 0.492776 0.016656 0.000963 91593.900000 0 0 1
16.068878 2.742784 29.099207 33.354093 0.169060 0.510638 0.036704 -0.005057 138450.000000 0 0 1
15.736078 1.402684 28.855727 32.897487 0.088903 0.500921 0.027786 -0.014661 60838.200000 0 0 1
15.056978 0.758084 29.902007 33.487569 0.050305 0.466988 0.019946 -0.011328 -70365.500000 0 0 1
15.054478 -0.789816 29.879787 33.467339 -0.052416 0.467263 0.017856 -0.013370 -641423.000000 0 0 1
14.310978 -1.413616 28.845277 32.231233 -0.098459 0.462482 0.009461 -0.013645 -140428.000000 0 0 1
14.749678 -1.344916 27.544977 31.274391 -0.090931 0.493349 0.014493 -0.008906 -1331480.000000 0 0 1
15.973778 -2.223416 27.258247 31.672025 -0.138303 0.534269 0.020381 -0.014380 -315652.000000 0 0 1
17.208278 -1.963616 27.868617 32.812199 -0.113617 0.556068 0.032859 -0.022985 -187719.000000 0 0 1
17.843478 -0.744216 27.562647 32.842702 -0.041684 0.574927 0.034108 -0.021648 -831369.000000 0 0 1
19.336878 -0.707516 27.989597 34.026944 -0.036573 0.604878 0.059156 -0.021371 157345.000000 0 0 1
20.170478 -1.446616 27.145277 33.849770 -0.071597 0.640271 0.044476 -0.022527 -933137.000000 0 0 1
21.479078 -1.418416 27.637717 35.031501 -0.065941 0.661716 0.053222 -0.026187 -651862.000000 0 0 1
22.455678 -1.937016 26.596507 34.862353 -0.086047 0.703009 0.051256 -0.017276 -468738.000000 0 0 1
22.598278 -1.191616 25.446927 34.053608 -0.052682 0.726866 0.049100 -0.002930 266382.000000 0 0 1
21.893178 -1.919516 24.458427 32.881764 -0.087453 0.732014 0.040640 0.011545 -46806.800000 0 0 1
21.843578 -1.264816 23.116977 31.829802 -0.057839 0.757919 0.041152 -0.005263 -289616.000000 0 0 1
21.079078 -0.109816 23.308477 31.426496 -0.005210 0.735221 0.031425 0.000854 88412.800000 0 0 1
20.519278 0.289384 22.050377 30.122145 0.014102 0.749496 0.032229 0.008349 -169183.000000 0 0 1
-29.278392 -27.794430 -10.386139 41.684847 0.759403 1.822608 -0.003917 0.009395 23914.700000 0 0 1
-29.330032 -26.567730 -9.608639 40.723716 0.736021 1.808989 0.000988 0.014809 -4041.160000 0 0 1
-29.909962 -26.818230 -8.327439 41.026449 0.730951 1.775194 0.020532 -0.000102 -308761.000000 0 0 1
-30.101412 -25.590530 -7.499539 40.214591 0.704578 1.758383 0.030326 -0.004981 -605046.000000 0 0 1
-28.979102 -24.961230 -6.992339 38.881155 0.711048 1.751619 0.020533 -0.003569 -979139.000000 0 0 1
-28.391572 -25.558930 -5.833939 38.644212 0.732942 1.722341 0.022050 -0.004894 614856.000000 0 0 1
-27.173562 -24.780530 -5.222939 37.145070 0.739370 1.711873 0.007016 0.004010 212283.000000 0 0 1
-27.349072 -23.532630 -4.461139 36.354617 0.710532 1.693818 0.017362 -0.005000 -548023.000000 0 0 1
-28.049482 -22.548730 -5.134539 36.353572 0.677109 1.712509 0.030590 -0.009020 -372200.000000 0 0 1
-28.215922 -21.415430 -4.131739 35.662728 0.649226 1.686913 0.028968 -0.013452 43091.000000 0 0 1
-27.097242 -20.550130 -4.067939 34.250788 0.648846 1.689847 0.026702 -0.018062 334537.000000 0 0 1
-27.278052 -19.634430 -3.002339 33.743400 0.623884 1.659890 0.025821 -0.013471 -112992.000000 0 0 1
-26.142422 -18.586130 -2.894939 32.206384 0.618042 1.660805 0.018198 -0.013447 -200160.000000 0 0 1
-26.141072 -17.607830 -3.965939 31.766649 0.592766 1.695969 0.021670 -0.018982 -382960.000000 0 0 1
-24.995422 -16.836230 -3.925439 30.391427 0.592768 1.700321 0.017307 -0.018380 -488539.000000 0 0 1
-25.121312 -15.844030 -5.137239 30.141414 0.562688 1.742070 0.011972 -0.024764 -671573.000000 0 0 1
-26.210172 -15.001430 -5.056539 30.620004 0.519842 1.736695 0.019433 -0.023865 -592596.000000 0 0 1
-26.329772 -14.079530 -6.155639 30.485767 0.491050 1.774113 0.024665 -0.034756 266977.000000 0 0 1
-27.536392 -13.072130 -5.971739 31.061152 0.443221 1.764258 0.021979 -0.025027 1363940.000000 0 0 1
-28.752542 -13.791330 -6.282839 32.502054 0.447240 1.765327 0.026282 -0.023071 719171.000000 0 0 1
-29.901592 -12.973030 -6.259639 33.190176 0.409349 1.760532 0.013912 -0.021387 -209863.000000 0 0 1
-31.095832 -13.520530 -7.026939 34.628505 0.410144 1.775139 0.014537 -0.019920 -541961.000000 0 0 1
-31.813402 -14.606130 -6.445939 35.594687 0.430411 1.752894 0.021530 -0.018748 480099.000000 0 0 1
-32.056612 -15.633330 -7.384139 36.421874 0.453742 1.774951 0.023295 -0.025890 -59377.900000 0 0 1
-32.923322 -16.845430 -6.865139 37.614409 0.472929 1.754339 0.022382 -0.030290 1496200.000000 0 0 1
-34.354647 -16.752730 -6.742439 38.811805 0.453712 1.745404 0.027547 -0.033269 1174500.000000 0 0 1
-34.906270 -15.960830 -5.692439 38.802057 0.428865 1.718032 0.027602 -0.032291 174708.000000 0 0 1
33.991363 -16.133630 -5.572239 38.036254 -0.443154 1.717824 0.039399 -0.033944 -926636.000000 0 0 1
33.204133 -15.523030 -6.549939 37.234133 -0.437314 1.747629 0.055987 -0.035807 413381.000000 0 0 1
31.801573 -15.686830 -6.418139 36.036221 -0.458251 1.749854 0.064979 -0.040710 236151.000000 0 0 1
31.164603 -14.874530 -5.284239 34.934329 -0.445315 1.722641 0.072093 -0.045571 -1283820.000000 0 0 1
31.425553 -15.493130 -4.071439 35.272923 -0.458040 1.686481 0.066616 -0.048529 353770.000000 0 0 1
31.036303 -14.588130 -3.025339 34.427000 -0.439389 1.658787 0.067707 -0.044050 -997806.000000 0 0 1
30.895643 -15.347930 -1.658239 34.537653 -0.461058 1.618827 0.064588 -0.043971 209644.000000 0 0 1
32.065843 -15.814130 -0.957839 35.766220 -0.458174 1.597580 0.084837 -0.042089 1082730.000000 0 0 1
33.020473 -16.576230 -1.751139 36.989046 -0.465245 1.618156 0.070222 -0.038530 -117730.000000 0 0 1
32.619073 -18.033030 -2.175539 37.335333 -0.505019 1.629100 0.065414 -0.031762 -850025.000000 0 0 1
32.689163 -18.899930 -1.047239 37.774138 -0.524214 1.598524 0.076099 -0.032405 307871.000000 0 0 1
32.453653 -20.274830 -1.410339 38.292263 -0.558406 1.607636 0.065702 -0.029007 -195687.000000 0 0 1
33.534283 -20.998330 -2.242439 39.629617 -0.559444 1.627412 0.047055 -0.029450 -39384.700000 0 0 1
33.480843 -20.410530 -3.523339 39.369665 -0.547462 1.660410 0.043583 -0.033611 190945.000000 0 0 1
34.521298 -20.822430 -4.396239 40.553922 -0.542752 1.679415 0.043934 -0.031402 -44842.400000 0 0 1
34.592054 -19.921430 -5.660839 40.317722 -0.522507 1.711668 0.054635 -0.036044 -820559.000000 0 0 1
33.487903 -20.075330 -6.478439 39.578134 -0.540037 1.735224 0.045968 -0.040403 -372018.000000 0 0 1
33.526143 -19.169830 -7.585539 39.357656 -0.519417 1.764743 0.044592 -0.040103 705980.000000 0 0 1
32.380173 -19.430430 -8.659039 38.742692 -0.540472 1.796201 0.046247 -0.043696 787746.000000 0 0 1
32.637523 -20.717430 -9.247239 39.748349 -0.565596 1.805592 0.047914 -0.036561 72529.900000 0 0 1
31.702513 -20.992830 -10.238539 39.377353 -0.584891 1.833830 0.054797 -0.040450 -396521.000000 0 0 1
31.765793 -22.470030 -10.700439 40.354272 -0.615652 1.839169 0.052987 -0.024953 -212495.000000 0 0 1
31.216983 -23.236530 -9.637639 40.091401 -0.639879 1.813566 0.046487 -0.019372 52323.300000 0 0 1
31.133413 -24.536630 -10.072039 40.899653 -0.667450 1.819618 0.036747 -0.004840 -461736.000000 0 0 1
30.211253 -25.396630 -9.221339 40.530751 -0.699032 1.800321 0.035842 -0.008011 1431260.000000 0 0 1
28.800953 -25.088630 -9.441239 39.345537 -0.716619 1.813118 0.036935 -0.014343 1636610.000000 0 0 1
27.897763 -25.983130 -8.811439 39.128630 -0.749879 1.797936 0.021714 -0.007918 27701.400000 0 0 1
26.444833 -25.540530 -8.657439 37.770347 -0.768005 1.802065 0.023796 -0.020881 -373577.000000 0 0 1
25.835693 -25.329130 -9.901839 37.511256 -0.775498 1.837932 0.021274 -0.020208 -1134360.000000 0 0 1
24.585763 -24.778130 -9.682639 36.223873 -0.789295 1.841386 0.031605 -0.027618 -925088.000000 0 0 1
23.836263 -24.561330 -11.011139 35.953742 -0.800379 1.882057 0.059022 -0.030814 -6080.420000 0 0 1
23.077163 -25.610130 -11.606239 36.374978 -0.837377 1.895547 0.050744 -0.027705 329365.000000 0 0 1
22.372063 -25.138830 -12.731739 35.980094 -0.843567 1.932486 0.060332 -0.018089 -82688.500000 0 0 1
21.583763 -26.276730 -13.398139 36.549084 -0.883141 1.946126 0.067132 -0.022436 -215435.000000 0 0 1
22.374163 -27.088930 -14.201239 37.895759 -0.880430 1.954918 0.064384 -0.019987 13812.400000 0 0 1
21.877163 -28.407430 -14.050339 38.509796 -0.914542 1.944269 0.062228 -0.020217 -17028.600000 0 0 1
22.652963 -29.526430 -14.796839 40.048886 -0.916372 1.949234 0.060176 -0.028132 -201037.000000 0 0 1
22.597563 -29.565430 -16.188139 40.581035 -0.918191 1.981123 0.061359 -0.021619 256274.000000 0 0 1
23.324263 -30.676430 -16.672639 41.988588 -0.920716 1.979124 0.049038 -0.016491 -411917.000000 0 0 1
23.265163 -30.757730 -18.210339 42.648825 -0.923211 2.011950 0.041964 -0.010096 -248881.000000 0 0 1
21.965263 -30.618330 -18.724139 42.077884 -0.948495 2.031957 0.043723 -0.008848 -193724.000000 0 0 1
21.996163 -30.849930 -20.143739 42.910600 -0.951395 2.059447 0.035892 -0.003684 477712.000000 0 0 1
20.659163 -30.268130 -20.696639 42.086953 -0.971886 2.084905 0.024015 0.000520 364299.000000 0 0 1
20.436563 -30.524530 -22.062239 42.850233 -0.980826 2.111651 0.014305 0.005046 63279.800000 0 0 1
19.194563 -29.960630 -22.411339 42.051620 -1.001015 2.132877 0.005486 0.003746 -430106.000000 0 0 1
18.882163 -30.074430 -23.927139 42.819568 -1.010152 2.163722 0.003882 0.006511 -440920.000000 0 0 1
19.555863 -29.214430 -24.816039 43.031971 -0.980910 2.185466 0.007246 0.010594 384507.000000 0 0 1
19.210763 -29.557630 -26.144259 43.888828 -0.994461 2.208924 0.003553 0.008975 -269505.000000 0 0 1
19.776663 -28.434430 -27.059829 43.953016 -0.963085 2.234011 -0.004319 0.003144 301412.000000 0 0 1
18.997863 -27.220130 -27.155349 42.886680 -0.961458 2.256462 0.002495 -0.008674 -308499.000000 0 0 1
17.919163 -27.364530 -28.016919 43.068105 -0.991032 2.279073 0.024678 -0.013037 -710488.000000 0 0 1
17.237063 -26.013230 -28.322299 42.142106 -0.985596 2.307792 0.013785 -0.011639 -97042.700000 0 0 1
16.557763 -25.537130 -27.154449 40.788095 -0.995561 2.299287 0.004291 0.000782 -66850.300000 0 0 1
16.141963 -24.201830 -27.398019 39.961770 -0.982582 2.326232 -0.003599 0.002118 -101722.000000 0 0 1
14.996563 -23.692930 -26.490579 38.574637 -1.006497 2.327785 0.007555 -0.004196 164348.000000 0 0 1
13.812563 -24.479830 -26.674119 38.749937 -1.057084 2.330030 0.041140 -0.013397 395317.000000 0 0 1
12.819763 -24.192230 -25.650239 37.517264 -1.083506 2.323606 0.043834 -0.016743 542980.000000 0 0 1
13.075163 -24.750230 -24.222639 37.017159 -1.084778 2.284136 0.039194 -0.003503 -575821.000000 0 0 1
14.020963 -23.972430 -23.550739 36.412939 -1.041570 2.274136 -0.003993 -0.000089 -331823.000000 0 0 1
14.272763 -24.447730 -22.221039 35.988580 -1.042368 2.236289 0.002437 -0.000889 132332.000000 0 0 1
15.382763 -23.689830 -21.470139 35.479633 -0.994885 2.220738 0.004199 -0.003128 37128.000000 0 0 1
15.063463 -22.342030 -21.253939 34.319152 -0.977582 2.238650 0.001596 -0.005726 -852691.000000 0 0 1
16.128863 -21.655030 -20.760239 34.059772 -0.930626 2.226256 0.004337 -0.000831 -1008360.000000 0 0 1
15.780963 -20.149030 -20.507939 32.796308 -0.906376 2.246328 0.009211 0.005541 488484.000000 0 0 1
15.078363 -19.969130 -19.263339 31.578465 -0.924050 2.226876 0.011937 -0.001710 686040.000000 0 0 1
13.659863 -19.852930 -19.331439 30.893935 -0.968134 2.246871 0.010931 -0.005375 269014.000000 0 0 1
13.067663 -19.832130 -17.885539 29.731628 -0.988180 2.216256 0.012410 -0.001851 -185603.000000 0 0 1
13.317963 -18.650030 -17.116239 28.603451 -0.950671 2.212296 0.015017 -0.003575 -47199.200000 0 0 1
12.787263 -18.770230 -15.824839 27.681423 -0.972764 2.179345 0.006852 -0.003599 -185195.000000 0 0 1
12.799063 -17.468230 -14.926939 26.301494 -0.938456 2.174302 0.012412 0.004688 -6705.380000 0 0 1
11.943363 -16.411730 -15.409939 25.484408 -0.941699 2.220162 0.018926 -0.008539 565712.000000 0 0 1
12.140263 -15.195030 -14.728839 24.397001 -0.896688 2.218950 0.016454 -0.011600 -464563.000000 0 1 0
10.797263 -14.551230 -14.420439 23.157467 -0.932424 2.243001 0.017726 -0.003338 -224868.000000 0 1 0
10.056363 -14.116430 -15.531939 23.273272 -0.951805 2.301471 0.028271 0.007183 -773225.000000 0 1 0
8.751163 -13.738330 -15.236239 22.303981 -1.003622 2.322819 0.018905 0.005922 -89118.200000 0 1 0
7.867263 -13.419630 -16.488439 22.668236 -1.040548 2.385294 0.019310 0.017443 148466.000000 0 1 0
8.178063 -12.213030 -17.209739 22.632144 -0.980753 2.434743 0.019304 0.017177 -65158.700000 0 1 0
9.436163 -12.100930 -17.860839 23.547468 -0.908502 2.431810 0.034349 0.008344 229364.000000 0 1 0
9.428263 -10.885130 -18.823339 23.700133 -0.856995 2.488534 0.035503 0.000668 151355.000000 0 1 0
8.870163 -11.011630 -20.141739 24.609459 -0.892694 2.529514 0.040530 0.006702 240465.000000 0 1 0
8.871663 -9.794230 -20.851639 24.686519 -0.834783 2.576720 0.031578 -0.001462 103511.000000 0 1 0
8.573563 -10.033730 -22.363639 25.967558 -0.863711 2.608451 0.037558 0.002773 -59997.100000 0 0 1
9.719063 -10.490930 -23.016439 27.097533 -0.823572 2.585629 0.034575 -0.000957 -417253.000000 0 0 1
9.393763 -10.683330 -24.384439 28.230785 -0.849541 2.613468 0.024339 0.005020 281222.000000 0 0 1
10.557463 -11.429730 -25.054639 29.492943 -0.825049 2.585858 0.044840 0.004299 108176.000000 0 0 1
10.457363 -12.838530 -24.983639 29.972763 -0.887258 2.556290 0.040117 0.004519 448308.000000 0 0 1
11.654663 -13.440430 -25.492979 31.086465 -0.856438 2.532324 0.033450 -0.011891 216782.000000 0 0 1
11.621363 -14.995330 -25.314189 31.634225 -0.911487 2.498450 0.026861 -0.004749 -484197.000000 0 0 1
10.620763 -15.682930 -25.988899 32.158635 -0.975524 2.511795 0.028888 0.000037 -652280.000000 0 0 1
10.480463 -16.969930 -25.424519 32.314468 -1.017543 2.476378 0.027678 -0.004966 150736.000000 0 0 1
9.365963 -17.880730 -25.980659 32.900402 -1.088289 2.481077 0.036835 -0.007602 105138.000000 0 0 1
9.535163 -18.283930 -27.333739 34.239666 -1.090093 2.495274 0.035421 -0.026363 -373384.000000 0 0 1
8.493863 -19.161330 -27.700369 34.736332 -1.153544 2.493848 0.047872 -0.018586 -228943.000000 0 0 1
8.825463 -20.203330 -28.791019 36.262738 -1.158947 2.488085 0.042599 -0.028166 -3447.270000 0 0 1
9.626163 -21.348330 -28.390069 36.802313 -1.147186 2.451867 0.042205 -0.030462 273991.000000 0 0 1
9.561363 -22.317130 -29.420579 38.145045 -1.166023 2.451649 0.045577 -0.028212 -240970.000000 0 0 1
10.457663 -23.535830 -29.245859 38.969454 -1.152668 2.419587 0.030024 -0.019913 -247219.000000 0 0 1
10.267563 -24.476330 -30.300999 40.282306 -1.173602 2.422215 0.032334 -0.015464 67979.200000 0 0 1
10.819963 -25.800830 -30.149009 41.130490 -1.173708 2.393531 0.039230 -0.003195 -113268.000000 0 0 1
10.218463 -26.717530 -29.032969 40.757290 -1.205499 2.363620 0.044053 -0.001951 -60250.900000 0 0 1
10.574863 -26.194330 -27.818429 39.646383 -1.187097 2.348526 0.053667 -0.007081 -733349.000000 0 0 1
9.884463 -26.732130 -26.753779 39.090588 -1.216628 2.324583 0.047309 -0.002123 206662.000000 0 0 1
8.860363 -25.707030 -26.182709 37.747738 -1.238880 2.337303 0.035268 -0.002872 347427.000000 0 0 1
9.545163 -24.585230 -25.686589 36.815004 -1.200462 2.343007 0.040418 -0.001940 -351428.000000 0 0 1
8.672963 -23.522530 -25.384949 35.678080 -1.217553 2.362427 0.039631 0.000033 -439973.000000 0 0 1
9.409263 -22.228130 -25.230899 34.917364 -1.170363 2.378336 0.050591 -0.005029 -352251.000000 0 0 1
10.012463 -22.113030 -24.009439 34.142184 -1.145628 2.350712 0.045675 -0.005746 -248329.000000 0 0 1
11.058963 -21.164830 -24.034939 33.881101 -1.089299 2.359430 0.043898 -0.010779 70681.500000 0 0 1
11.831763 -20.861130 -22.686439 33.012905 -1.054868 2.328423 0.027277 -0.001830 338868.000000 0 0 1
11.022763 -20.294430 -21.659139 31.662020 -1.073233 2.324129 0.019720 -0.000992 185341.000000 0 0 1
10.518863 -18.938330 -21.851039 30.769705 -1.063796 2.360504 0.031703 0.003961 287956.000000 0 0 1
11.579763 -17.823930 -21.577339 30.288034 -0.994650 2.363715 0.032275 0.003656 -309837.000000 0 0 1
12.603263 -17.899830 -22.500439 31.392928 -0.957324 2.369907 0.026101 0.004207 -1003030.000000 0 0 1
13.463063 -16.798730 -22.362239 31.040637 -0.895182 2.375201 0.027295 0.011205 326823.000000 0 0 1
14.712363 -16.853230 -23.317139 32.313681 -0.853117 2.376889 0.016227 0.013675 270255.000000 0 0 1
15.752363 -17.622930 -22.750039 32.806538 -0.841386 2.337077 0.010125 0.020155 -16099.700000 0 0 1
16.954363 -17.235130 -23.376739 33.629928 -0.793610 2.339379 0.014966 0.015820 176824.000000 0 0 1
18.275063 -17.544730 -22.620139 33.962718 -0.765012 2.299668 0.010696 0.016013 461423.000000 0 0 1
18.721663 -18.900130 -22.431339 34.797709 -0.790142 2.271324 0.007241 0.011712 8221.700000 0 0 1
20.030863 -19.014830 -21.936639 35.270602 -0.759382 2.242030 0.010112 0.016342 20729.400000 0 0 1
20.528963 -20.442930 -21.639839 36.161227 -0.783298 2.212332 -0.005263 0.013635 -300778.000000 0 0 1
19.940763 -21.029930 -20.509839 35.504162 -0.811976 2.186673 0.005419 0.015767 100668.000000 0 0 1
20.430263 -22.312230 -20.158039 36.353512 -0.829400 2.158559 0.007098 0.017883 -260952.000000 0 0 1
-15.809722 13.412084 29.348277 35.932613 -0.703532 0.615025 -0.002483 -0.016299 -495747.000000 0 0 1
-17.009122 13.851084 28.784347 36.189796 -0.683419 0.651175 0.007444 -0.024774 -262750.000000 0 0 1
-16.942522 13.544684 27.399197 34.946008 -0.674405 0.669642 0.009565 -0.021530 -148858.000000 0 0 1
-18.246822 13.959784 26.724207 35.242096 -0.653066 0.710089 0.012468 -0.017523 -255542.000000 0 0 1
-18.486022 15.356784 26.868907 36.048606 -0.693196 0.729733 0.029135 -0.022811 113601.000000 0 0 1
-19.606322 15.836484 26.151247 36.319276 -0.679433 0.766940 0.042201 -0.027313 -450592.000000 0 0 1
-19.670522 17.393584 26.435087 37.259630 -0.724043 0.782032 0.050964 -0.027344 200517.000000 0 0 1
-18.636922 18.234184 25.905747 36.754973 -0.774476 0.788623 0.040599 -0.012672 1628250.000000 0 0 1
-17.414122 18.265884 26.703297 36.741805 -0.809266 0.757171 0.025289 -0.005190 2105950.000000 0 0 1
-16.173322 19.138684 26.202957 36.255489 -0.869178 0.763051 0.013895 -0.005679 1060620.000000 0 0 1
-16.302822 20.504484 26.368007 37.168369 -0.899059 0.782121 0.023737 -0.005710 -7319.460000 0 0 1
-15.219322 21.203184 25.795097 36.695909 -0.948234 0.791271 0.037780 -0.009136 28147.600000 0 0 1
-15.382422 22.769784 25.844157 37.722704 -0.976660 0.816043 0.032573 0.002295 16242.900000 0 0 1
-15.058622 23.450884 27.064357 38.848236 -0.999970 0.800053 0.020488 0.009925 19151.900000 0 0 1
-15.331022 24.842884 26.987147 39.755694 -1.017884 0.824635 0.016398 0.005306 -471898.000000 0 0 1
-14.765822 25.768884 28.067287 40.863645 -1.050459 0.813647 0.006955 0.011198 -1069260.000000 0 0 1
-13.456922 26.121984 27.828087 40.470349 -1.095097 0.812595 0.001887 0.009100 -1153410.000000 0 0 1
-13.005322 27.009284 28.870947 41.619363 -1.122047 0.804196 0.008059 0.013469 863529.000000 0 0 1
-11.446522 27.131784 28.984247 41.318798 -1.171566 0.793326 0.017070 0.004112 1020270.000000 0 0 1
-10.850822 27.983284 28.028157 41.065583 -1.200885 0.819589 0.020501 0.006295 -112618.000000 0 0 1
-9.442522 27.942784 28.054897 40.706727 -1.244920 0.810418 0.007955 0.004524 -468422.000000 0 0 1
-8.743122 28.702484 26.946377 40.328426 -1.275114 0.839046 0.018636 -0.006756 -709447.000000 0 0 1
-7.380422 28.394184 26.885097 39.793325 -1.316496 0.828993 0.001779 -0.004806 -374358.000000 0 0 1
-6.874522 28.934584 25.706027 39.309910 -1.337533 0.858026 0.014268 -0.010809 549081.000000 0 0 1
-5.379522 28.506584 25.445767 38.588231 -1.384278 0.850752 -0.005425 -0.003911 776825.000000 0 0 1
-4.450422 29.124684 26.323967 39.509552 -1.419163 0.841603 -0.004282 -0.000992 -1336310.000000 0 0 1
-3.157222 28.710184 26.115757 38.939382 -1.461268 0.835675 -0.014913 0.007280 -275694.000000 0 0 1
-2.293922 29.664984 25.171247 38.972618 -1.493622 0.868634 -0.018424 0.005269 -450765.000000 0 0 1
-2.591622 29.405284 23.829577 37.937263 -1.482889 0.891647 -0.018714 0.008511 -67388.900000 0 0 1
-2.301722 30.546184 23.044977 38.333252 -1.495586 0.925826 -0.018647 0.006993 -482081.000000 0 0 1
-2.574322 30.316284 21.538877 37.277706 -1.486084 0.954772 -0.013409 0.010008 1395140.000000 0 0 1
-3.992122 30.211884 21.258777 37.156837 -1.439420 0.961688 -0.011377 0.019128 832256.000000 0 0 1
-4.504322 28.932484 21.460477 36.303300 -1.416352 0.938320 -0.007889 0.016256 -1524880.000000 0 0 1
-5.976922 28.736184 21.225977 36.222009 -1.365727 0.944687 -0.001444 0.017141 -1024280.000000 0 0 1
-6.350722 28.804684 19.865977 35.562600 -1.353793 0.978075 -0.010923 0.023874 9870.460000 0 0 1
-7.319522 27.847284 19.487677 34.768033 -1.313765 0.975800 -0.012322 0.022103 -873721.000000 0 0 1
-6.816322 26.424184 19.067577 33.290723 -1.318342 0.960928 -0.014036 0.016940 48846.100000 0 0 1
-5.923222 26.378484 17.974177 32.465058 -1.349913 0.984059 0.000416 0.012998 1137210.000000 0 0 1
-4.563922 26.761084 18.299877 32.739433 -1.401878 0.977671 0.003211 0.009860 426571.000000 0 0 1
-3.763522 27.099284 17.013377 32.217856 -1.432800 1.014467 0.004269 0.007274 93576.100000 0 0 1
-3.209822 25.923284 16.399277 30.842436 -1.447603 1.010176 0.017978 -0.001978 134906.000000 0 0 1
-2.522822 26.297384 15.201577 30.479583 -1.475155 1.048645 0.012372 -0.008404 91443.300000 0 0 1
-1.808322 25.139784 14.431577 29.043918 -1.498989 1.050787 0.018114 -0.012224 -358397.000000 0 0 1
-0.868822 24.590284 15.286677 28.967557 -1.535479 1.014886 0.017661 -0.015071 -801667.000000 0 0 1
-0.227122 23.544084 14.637877 27.724410 -1.561150 1.014579 0.017286 -0.023570 -756824.000000 0 0 1
0.976478 23.039084 15.430377 27.746160 1.528438 0.981078 0.008299 -0.018546 -282071.000000 0 0 1
2.042278 23.973584 15.432677 28.584456 1.485813 1.000481 0.019390 -0.021283 -62616.500000 0 0 1
3.169778 23.410784 16.091677 28.584162 1.436217 0.972836 0.013585 -0.017083 -109992.000000 0 0 1
4.345778 24.374284 15.944977 29.448833 1.394357 0.998639 0.019336 -0.016262 346897.000000 0 0 1
5.672478 23.837884 15.992177 29.260407 1.337181 0.992561 0.017049 -0.011733 285693.000000 0 0 1
6.588378 24.838184 15.661377 30.093534 1.311515 1.023450 0.019069 -0.009465 -653494.000000 0 0 1
8.057678 24.418184 15.801677 30.180571 1.252061 1.019759 0.017231 -0.006411 -228965.000000 0 0 1
8.596578 23.796184 14.637977 29.230632 1.224127 1.046302 0.026173 -0.006121 -297905.000000 0 0 1
9.442278 24.674284 13.974577 29.887551 1.205312 1.084254 0.020731 -0.007930 -658222.000000 0 0 1
10.109878 24.031784 12.732777 29.014821 1.172584 1.116492 0.028061 -0.002713 -167014.000000 0 0 1
10.967978 22.946584 12.874177 28.505906 1.124920 1.102203 0.018744 -0.003812 -333747.000000 0 0 1
11.447678 22.417084 11.692677 27.754165 1.098651 1.135924 0.033839 0.001279 629477.000000 0 0 1
12.569478 21.338184 12.009477 27.523397 1.038460 1.119273 0.016889 0.001550 537195.000000 0 0 1
12.050878 20.106884 12.528777 26.579704 1.030862 1.079957 0.019301 0.007930 236487.000000 0 0 1
13.039978 19.117884 12.826377 26.458466 0.972197 1.064692 0.025445 0.005456 107556.000000 0 0 1
13.753578 19.226984 14.205577 27.579634 0.949858 1.029701 0.018857 0.005513 -533876.000000 0 0 1
14.398578 18.034284 14.477777 27.242622 0.897032 1.010499 0.021187 0.005304 -228292.000000 0 0 1
14.884078 18.051684 15.819377 28.242729 0.881279 0.976263 0.013955 -0.001011 24630.700000 0 0 1
16.091478 17.116384 16.040177 28.446327 0.816252 0.971726 -0.002552 -0.001340 171697.000000 0 0 1
16.692778 17.135084 17.313677 29.530041 0.798473 0.944304 0.015389 -0.009719 162888.000000 0 0 1
17.870578 16.363684 17.454077 29.862560 0.741409 0.946557 0.010312 -0.009558 199441.000000 0 0 1
18.192978 16.030084 18.919877 30.755646 0.722282 0.908198 0.014320 -0.014229 -300006.000000 0 0 1
18.655678 17.201084 19.621377 32.076627 0.744854 0.912584 0.018014 -0.007864 -51847.500000 0 0 1
17.731878 18.167784 19.983477 32.308315 0.797540 0.903933 0.016378 -0.001185 -558829.000000 0 0 1
18.408178 19.199284 20.923877 33.842017 0.806431 0.904243 0.017981 -0.003734 106417.000000 0 0 1
17.479078 20.120684 21.444977 34.208875 0.855539 0.893250 0.028055 -0.017283 -40371.800000 0 0 1
18.120578 21.153184 22.151877 35.588174 0.862462 0.898927 0.023910 -0.007209 -380258.000000 0 0 1
17.141078 22.141384 22.730577 36.065725 0.912008 0.888916 0.038619 -0.015969 -517825.000000 0 0 1
16.314978 21.577684 23.690977 35.958828 0.923400 0.851526 0.037525 -0.018212 -199412.000000 0 0 1
15.401078 22.565584 24.178837 36.483077 0.971910 0.846323 0.048790 -0.030165 372880.000000 0 0 1
14.829378 22.029084 25.543647 36.846558 0.978303 0.804816 0.042406 -0.025370 94767.000000 0 0 1
13.894178 20.992684 25.329527 35.711705 0.986130 0.782323 0.031643 -0.016927 -245989.000000 0 0 1
13.117878 20.773184 26.490927 36.129947 1.007550 0.747762 0.026903 -0.012033 326457.000000 0 0 1
12.106878 19.579784 26.447957 35.063355 1.017004 0.716223 0.037634 -0.007521 232066.000000 0 0 1
12.667478 18.264584 26.448947 34.548615 0.964410 0.698889 0.037690 -0.009375 61173.600000 0 0 1
13.403578 17.803384 25.307987 33.721070 0.925463 0.721963 0.042908 -0.014420 241689.000000 0 0 1
12.599878 17.623884 23.982777 32.319217 0.950119 0.734659 0.051949 -0.014713 -533434.000000 0 0 1
12.197478 18.739084 23.210877 32.228505 0.993781 0.766710 0.050260 -0.017595 -491672.000000 0 0 1
13.141978 19.516184 22.508577 32.561158 0.978154 0.807550 0.040072 -0.015440 -227901.000000 0 0 1
14.023778 18.728384 21.533377 31.797877 0.928065 0.826852 0.044211 -0.015665 -526641.000000 0 0 1
13.243178 18.080884 20.567077 30.418822 0.938628 0.828299 0.047285 -0.006916 225675.000000 0 0 1
14.018878 17.269884 19.683377 29.702073 0.888930 0.846386 0.046495 -0.009600 136423.000000 0 0 1
13.036478 16.398284 18.890477 28.208218 0.899117 0.837019 0.039657 -0.000573 175598.000000 0 0 1
12.374378 17.110984 17.869677 27.662905 0.944680 0.868490 0.032826 0.003352 291591.000000 0 0 1
11.357378 16.317984 17.243977 26.317700 0.962757 0.856318 0.023070 0.004854 328515.000000 0 0 1
11.026678 16.887084 15.831877 25.639999 0.992339 0.905277 0.018410 0.010558 11018.800000 0 0 1
10.355578 18.118984 15.888077 26.229116 1.051572 0.920098 0.022629 0.000146 158168.000000 0 0 1
9.833778 18.540884 14.640877 25.589506 1.083138 0.961679 0.013767 0.007146 -384984.000000 0 0 1
8.858578 19.710184 14.583477 26.069974 1.148407 0.977138 0.018502 -0.000590 -69115.400000 0 0 1
7.561978 19.474584 15.099477 25.776678 1.200417 0.944954 0.009882 -0.000257 20100.800000 0 0 1
6.787778 20.655984 14.876577 26.344945 1.253302 0.970746 0.013573 -0.007850 16316.900000 0 0 1
5.402078 20.542684 15.531777 26.313882 1.313650 0.939427 0.012954 -0.003290 -143430.000000 0 0 1
4.492478 19.647584 14.922477 25.077684 1.346008 0.933468 0.015447 -0.010689 -981170.000000 0 0 1
3.332378 19.522884 15.653277 25.244263 1.401735 0.901961 0.001136 -0.001613 -632232.000000 0 0 1
2.210578 18.803584 14.895377 24.090115 1.453772 0.904194 -0.012085 -0.006501 679.981000 0 1 0
1.556078 19.623584 13.895177 24.095276 1.491666 0.956142 -0.003101 -0.020074 607176.000000 0 1 0
0.585778 18.961584 13.050877 23.026293 1.539913 0.968202 -0.003327 -0.027137 538427.000000 0 1 0
-0.366122 19.991984 12.396377 23.526232 -1.552485 1.015827 0.006130 -0.029115 -71967.500000 0 1 0
-1.402422 20.590984 13.132977 24.462839 -1.502793 1.004092 0.003356 -0.026399 -339302.000000 0 1 0
-2.416822 20.880084 12.189077 24.297994 -1.455561 1.045292 0.006763 -0.033188 561873.000000 0 1 0
-3.678122 21.556284 12.829677 25.353551 -1.401795 1.040220 0.010719 -0.024737 582425.000000 0 0 1
-4.337622 20.767784 13.808477 25.313827 -1.364893 0.993821 0.004527 -0.030093 -109972.000000 0 0 1
-5.497722 21.408184 14.282377 26.315804 -1.319424 0.997112 0.008108 -0.021639 -454326.000000 0 0 1
-6.196822 20.668284 15.426577 26.524664 -1.279502 0.950110 0.000407 -0.018477 -410971.000000 0 0 1
-7.075322 19.602684 15.053077 25.708374 -1.224412 0.945260 0.007210 -0.019984 579045.000000 0 0 1
-7.802022 18.965884 16.129577 26.090986 -1.180526 0.904339 0.003170 -0.008132 44245.100000 0 0 1
-8.839922 19.733784 16.925877 27.460003 -1.149641 0.906655 0.004927 -0.001112 -486041.000000 0 0 1
-9.972322 20.071384 16.140577 27.619302 -1.109678 0.946662 0.002746 -0.005086 59294.200000 0 0 1
-11.174222 19.880984 16.859777 28.361397 -1.058744 0.934200 -0.005638 0.001902 6545.900000 0 0 1
-12.427222 19.712384 15.984177 28.257881 -1.008304 0.969571 -0.008489 -0.003085 -239896.000000 0 0 1
-12.841122 20.948584 15.420277 29.009007 -1.020885 1.010345 -0.018264 0.001681 -296386.000000 0 0 1
-13.930922 20.763784 14.559477 28.934126 -0.979852 1.043506 -0.017004 -0.004748 -75993.600000 0 0 1
-14.918922 22.004784 14.558077 30.310433 -0.974999 1.069801 -0.016264 -0.005375 -305802.000000 0 0 1
-16.046422 21.777984 15.325377 31.090761 -0.935785 1.055349 -0.014299 -0.004818 -848796.000000 0 0 1
-16.937822 22.854284 15.257377 32.279957 -0.933001 1.078492 -0.001119 -0.013550 909822.000000 0 0 1
-18.317322 22.655684 16.015377 33.246001 -0.890889 1.068176 0.031144 -0.019874 -380092.000000 0 0 1
-19.098822 21.607384 15.429177 32.706322 -0.846946 1.079523 0.036755 -0.017326 1494640.000000 0 0 1
-20.364022 21.400084 16.150777 33.667559 -0.810201 1.070468 0.038423 -0.014626 1763480.000000 0 0 1
-21.325722 22.636684 16.120377 35.029593 -0.815209 1.092584 0.032070 -0.017379 -1572940.000000 0 0 1
-21.888722 22.840884 14.850077 34.947774 -0.806682 1.131921 0.045633 -0.019034 81422.300000 0 0 1
-22.806722 23.906284 14.821977 36.212539 -0.808932 1.149104 0.053248 -0.023150 -300960.000000 0 0 1
-22.311322 25.103084 14.033677 36.399231 -0.844210 1.174994 0.040735 -0.023061 -73829.900000 0 0 1
-21.187022 25.684184 14.669677 36.383604 -0.881053 1.155791 0.023292 -0.019276 -52670.900000 0 0 1
-20.678522 26.630584 13.764277 36.417641 -0.910553 1.183208 0.017733 -0.014875 339940.000000 0 0 1
-19.214722 27.084484 14.088777 36.073098 -0.953765 1.169554 0.003158 -0.007822 325527.000000 0 0 1
-18.211222 26.218584 13.636277 34.713265 -0.963709 1.167094 0.003834 0.004410 -398843.000000 0 0 1
-16.963922 26.874384 13.722377 34.616626 -1.007729 1.163193 -0.013449 0.003741 -596108.000000 0 0 1
-15.936122 26.254084 12.825077 33.282420 -1.025249 1.175219 -0.008544 -0.000192 -1048160.000000 0 0 1
-14.653522 26.769984 12.963077 33.157188 -1.069962 1.169124 -0.013619 0.004334 -353352.000000 0 0 1
-13.726822 26.199784 12.067877 31.945077 -1.088189 1.183410 -0.016662 0.007942 139170.000000 0 0 1
-12.261922 26.664084 12.135977 31.758621 -1.139768 1.178694 -0.020895 0.007713 -592669.000000 0 0 1
-11.348722 25.867984 11.375677 30.452456 -1.157365 1.187957 -0.013803 0.003107 364322.000000 0 0 1
-10.003322 26.209884 11.645777 30.375131 -1.206198 1.177323 0.004276 -0.002068 179861.000000 0 0 1
-9.508622 27.583084 11.088577 31.212128 -1.238827 1.207599 0.004238 -0.007462 -1407790.000000 0 0 1
-8.346422 28.101584 11.639877 31.541219 -1.282086 1.192824 0.029837 -0.017400 -288184.000000 0 0 1
-7.954222 29.336884 11.030877 32.335779 -1.306028 1.222672 0.030565 -0.017978 78622.000000 0 0 1
-6.680822 29.937584 11.669077 32.818587 -1.351235 1.207280 0.033009 -0.015748 816543.000000 0 0 1
-5.434522 29.310684 11.394777 31.913808 -1.387467 1.205690 0.047071 -0.019764 905390.000000 0 0 1
-4.297022 29.879984 12.060577 32.507466 -1.427966 1.190701 0.031961 -0.023969 472086.000000 0 0 1
-2.950422 29.435884 11.469977 31.729113 -1.470898 1.200923 0.040771 -0.029972 -332818.000000 0 0 1
-2.768822 30.030284 10.261777 31.855743 -1.478855 1.242815 0.058585 -0.033363 -222126.000000 0 0 1
-1.556322 29.637384 9.677177 31.216092 -1.518332 1.255597 0.036819 -0.031364 -115657.000000 0 0 1
-1.349922 30.433084 8.342277 31.584624 -1.526468 1.303500 0.039348 -0.032792 -213943.000000 0 0 1
-2.315822 30.190084 7.362277 31.160990 -1.494238 1.332275 0.051544 -0.033248 -203373.000000 0 0 1
-2.322822 31.186584 6.344577 31.910064 -1.496452 1.370636 0.046058 -0.022424 61143.400000 0 0 1
10.856978 -34.036730 -27.506499 45.088585 -1.262020 2.226926 0.077264 -0.029523 82629.600000 0 0 1
11.250978 -34.341130 -26.185869 44.627318 -1.254193 2.197858 0.062920 -0.027204 508400.000000 0 0 1
12.526778 -33.824530 -25.844389 44.372869 -1.216112 2.192519 0.060870 -0.018688 -7200.610000 0 0 1
13.008378 -33.955430 -24.389539 43.784001 -1.204942 2.161616 0.039629 0.004869 -302223.000000 0 0 1
12.416578 -32.859830 -23.705839 42.378139 -1.209516 2.164444 0.027891 0.009165 584898.000000 0 0 1
12.814378 -32.669430 -22.325639 41.592477 -1.196994 2.137402 0.006531 0.004120 -191025.000000 0 0 1
14.264278 -32.226930 -22.008739 41.550322 -1.154097 2.129030 -0.010653 0.010767 43512.200000 0 0 1
15.176678 -33.269230 -22.269839 42.814939 -1.142817 2.117813 0.005900 0.009530 738478.000000 0 0 1
16.539878 -32.859330 -21.996539 42.861998 -1.104469 2.109699 -0.003224 0.002704 950795.000000 0 0 1
17.531378 -33.995830 -22.274839 44.263237 -1.094674 2.098135 -0.014723 0.012462 1158.500000 0 0 1
18.796878 -33.880730 -21.638039 44.378274 -1.064279 2.080114 0.000448 0.011664 589945.000000 0 0 1
19.476578 33.935984 -21.675839 44.730639 1.049773 2.076686 -0.007257 0.019760 -320317.000000 0 0 1
20.970878 33.987984 -21.328239 45.275319 1.017964 2.061310 0.004862 0.014789 -232963.000000 0 0 1
21.655978 -34.400930 -22.381739 46.404177 -1.008955 2.074099 -0.005480 0.016716 -142793.000000 0 0 1
23.021178 -34.251930 -22.103339 46.815884 -0.979032 2.062506 -0.010916 0.014287 -286589.000000 0 0 1
23.930278 -33.862130 -23.269939 47.547788 -0.955590 2.082199 0.008350 0.008708 -130289.000000 0 0 1
23.926178 -32.460430 -23.649539 46.748714 -0.935611 2.101206 0.016018 0.005997 218331.000000 0 0 1
22.827878 -32.098430 -24.482139 46.376679 -0.952604 2.126920 -0.001466 0.008446 156821.000000 0 0 1
22.628978 -30.551230 -24.536539 45.249200 -0.933281 2.143913 0.003434 -0.005625 -398213.000000 0 0 1
23.578578 -29.821830 -25.268139 45.648327 -0.901784 2.157404 0.010615 -0.009204 -186334.000000 0 0 1
23.553578 -28.479130 -24.936339 44.583101 -0.879780 2.164365 0.010784 -0.001803 137969.000000 0 0 1
24.110978 -27.523630 -25.995449 44.884885 -0.851395 2.188492 0.000828 -0.001934 86674.700000 0 0 1
23.255178 -27.276230 -27.100809 44.936065 -0.864806 2.218174 -0.011723 -0.008137 -13151.500000 0 0 1
24.003378 -26.701330 -28.204239 45.657445 -0.838557 2.236657 -0.010065 -0.008981 22829.800000 0 0 1
23.122678 -26.055330 -29.343009 45.547235 -0.844961 2.270816 -0.014645 -0.007790 727966.000000 0 0 1
22.352678 -24.887730 -28.992789 44.267631 -0.839010 2.284904 -0.000447 -0.008828 -142015.000000 0 0 1
21.241978 -25.139330 -28.170689 43.321995 -0.869230 2.278727 -0.013210 -0.005383 -663466.000000 0 0 1
20.553478 -23.798930 -27.715039 41.916082 -0.858442 2.293218 -0.013001 0.004743 121923.000000 0 0 1
20.007678 -23.146030 -28.851239 42.052823 -0.857995 2.326872 0.002198 -0.002244 91024.100000 0 0 1
19.523478 -21.866930 -28.594809 40.951092 -0.841956 2.343770 -0.010526 0.005819 -592152.000000 0 0 1
18.577378 -21.259430 -29.637949 40.932754 -0.852623 2.380473 0.002352 -0.001391 331408.000000 0 0 1
17.340878 -21.974930 -29.646229 40.773797 -0.902724 2.384870 -0.001513 -0.005211 -143176.000000 0 0 1
16.341078 -21.290930 -30.307189 40.482839 -0.916180 2.416809 -0.009209 -0.008876 -467162.000000 0 0 1
15.018778 -22.094330 -30.285059 40.384501 -0.973786 2.418734 -0.004782 -0.012764 -316041.000000 0 0 1
15.093078 -23.192530 -31.165859 41.677395 -0.993878 2.415521 -0.006073 -0.009956 132118.000000 0 0 1
14.270978 -24.243230 -30.713099 41.649604 -1.038758 2.400034 0.005940 -0.009955 -100795.000000 0 0 1
14.724178 -25.617630 -31.263769 43.017295 -1.049137 2.384407 0.019911 -0.008350 277911.000000 0 0 1
13.770878 -26.602030 -30.910429 43.043696 -1.093119 2.371890 0.031799 -0.011672 -22460.800000 0 0 1
14.275778 -27.849830 -31.289029 44.253974 -1.097121 2.356090 0.045083 -0.013038 293037.000000 0 0 1
13.591278 -29.012030 -30.506589 44.238815 -1.132689 2.331717 0.043434 -0.021657 32934.700000 0 0 1
13.858478 -29.213230 -29.109339 43.506596 -1.127845 2.303765 0.069460 -0.029500 -85723.700000 0 0 1
13.469978 -28.233230 -28.193399 42.112033 -1.125639 2.304312 0.058723 -0.022645 -204000.000000 0 0 1
14.336678 -28.364230 -26.912029 41.645254 -1.102799 2.273418 0.045258 -0.008902 53482.300000 0 0 1
14.041278 -29.557930 -26.175909 41.904737 -1.127313 2.245483 0.051111 -0.005653 592354.000000 0 0 1
14.806078 -29.723330 -24.936039 41.527128 -1.108646 2.214892 0.038092 -0.004101 -886461.000000 0 0 1
14.598278 -28.743730 -23.778539 40.059090 -1.100867 2.206305 0.029072 -0.000563 1263260.000000 0 0 1
13.358278 -28.955530 -23.050639 39.347151 -1.138554 2.196697 0.030918 -0.002257 1273770.000000 0 0 1
12.159778 -28.779630 -23.779639 39.263196 -1.171034 2.221375 0.035397 0.000038 -882889.000000 0 0 1
10.958078 -28.252930 -22.973139 38.027262 -1.200802 2.219461 0.023443 0.003700 52231.300000 0 0 1
11.097578 -26.925930 -22.569439 36.844831 -1.179858 2.230084 0.018237 0.003885 42638.500000 0 0 1
9.901678 -26.471830 -21.983039 35.805796 -1.212862 2.231854 0.018965 0.005862 -215409.000000 0 0 1
9.825678 -24.931730 -21.825939 34.561637 -1.195384 2.254292 0.028602 -0.001876 48190.300000 0 0 1
10.295578 -24.438830 -20.556439 33.553279 -1.172081 2.230206 0.021061 -0.009098 219794.000000 0 0 1
10.055278 -23.019230 -20.529739 32.441698 -1.158956 2.255986 0.021007 -0.009621 -447939.000000 0 0 1
10.380178 -22.401930 -19.179339 31.264063 -1.136887 2.231234 0.013532 -0.006083 154091.000000 0 0 1
9.601078 -22.736930 -18.009639 30.553163 -1.171242 2.201177 0.021506 -0.013260 403027.000000 0 0 1
10.149478 -22.037830 -16.866239 29.549076 -1.139205 2.178261 0.016964 -0.008969 -202727.000000 0 0 1
9.468278 -22.190430 -15.508539 28.680625 -1.167501 2.142104 0.001952 -0.003652 -161532.000000 0 0 1
9.569278 -23.551730 -15.106239 29.571161 -1.184863 2.106962 0.014574 -0.003058 124506.000000 0 0 1
8.822478 -23.789130 -13.928139 28.943944 -1.215659 2.072832 0.021148 -0.001381 40963.900000 0 0 1
8.684078 -25.296330 -13.689339 30.045225 -1.240108 2.043870 0.018935 0.000012 -271095.000000 0 0 1
9.910678 -25.878530 -13.343739 30.756710 -1.205057 2.019556 0.014346 -0.004144 -224345.000000 0 0 1
9.870878 -27.248030 -13.698439 32.055212 -1.223241 2.012344 0.006521 -0.015647 558226.000000 0 0 1
11.151778 -28.035030 -13.156839 32.915460 -1.192205 1.982003 0.017980 -0.016092 1203820.000000 0 0 1
12.444178 -27.685830 -13.574239 33.250906 -1.148376 1.991318 0.008735 -0.004475 -133693.000000 0 0 1
12.652578 -27.971630 -14.949639 34.146618 -1.146001 2.023955 0.005386 -0.007694 -780150.000000 0 0 1
14.018778 -27.393430 -15.347539 34.387107 -1.097787 2.033441 -0.014375 -0.006108 -429150.000000 0 0 1
15.116778 -28.167930 -14.975339 35.301700 -1.078248 2.008886 0.015439 -0.005611 -467081.000000 0 0 1
16.238378 -27.712030 -15.720239 35.759858 -1.040758 2.025956 0.024849 -0.009539 -516861.000000 0 0 1
17.520878 -28.445330 -15.430739 36.799806 -1.018732 2.003488 0.017351 -0.013995 -556653.000000 0 0 1
17.642378 -29.739830 -15.984239 38.094710 -1.035374 2.003792 0.014737 -0.005536 661801.000000 0 0 1
19.040778 -29.997930 -16.205439 39.051803 -1.005226 1.998709 0.028445 -0.005795 955840.000000 0 0 1
19.222978 -31.157630 -17.228639 40.461671 -1.018000 2.010644 0.021488 -0.010486 -67441.500000 0 0 1
18.904278 -32.459030 -16.771639 41.136945 -1.043415 1.990733 0.003958 0.000405 149344.000000 0 0 1
19.589978 -33.359530 -17.636439 42.516696 -1.039814 1.998533 0.008140 -0.001521 168763.000000 0 0 1
19.364178 34.211284 -17.448339 43.009625 1.055739 1.988524 -0.003970 0.008256 115109.000000 0 0 1
20.131378 33.683584 -16.369739 42.518520 1.032098 1.966007 0.013849 -0.007183 198363.000000 0 0 1
19.841278 32.289084 -16.164339 41.201300 1.019791 1.973955 0.011426 -0.010315 -569623.000000 0 0 1
20.644978 31.671284 -15.044939 40.689501 0.993121 1.949536 0.030133 -0.012268 1007830.000000 0 0 1
22.028478 31.430184 -15.458939 41.377398 0.959487 1.953692 0.024247 -0.011203 1928800.000000 0 0 1
22.976378 31.145484 -14.407839 41.298195 0.935206 1.927165 0.022366 -0.009765 689479.000000 0 0 1
22.875878 29.802184 -13.686839 39.985066 0.916132 1.920159 0.015765 -0.006820 -753621.000000 0 0 1
23.017078 28.654184 -14.529239 39.521474 0.894064 1.947255 0.010951 -0.002250 78858.100000 0 0 1
22.761278 27.430784 -13.802039 38.223291 0.878164 1.940233 0.005588 0.004139 -644462.000000 0 0 1
21.344978 27.078384 -13.345839 36.972400 0.903251 1.940102 0.013075 -0.002405 -549006.000000 0 0 1
20.552378 26.911784 -14.551939 36.856523 0.918588 1.976676 0.023631 -0.013055 1299030.000000 0 0 1
19.127378 27.009784 -14.294339 36.051534 0.954612 1.978495 0.023587 -0.016363 895683.000000 0 0 1
18.472078 28.399784 -14.244739 36.751571 0.994119 1.968818 0.025657 -0.017563 -439856.000000 0 0 1
18.499778 29.105484 -15.472839 37.799203 1.004603 1.992530 0.022037 -0.010115 186290.000000 0 0 1
17.648078 28.490784 -16.445639 37.331467 1.016212 2.026986 0.004771 -0.002003 -274408.000000 0 0 1
17.671178 29.302784 -17.790739 38.567267 1.028134 2.050246 0.002097 -0.006760 771695.000000 0 0 1
16.802378 30.494384 -17.815439 39.110321 1.067186 2.043750 -0.006750 -0.000967 705427.000000 0 0 1
16.981078 31.133484 -19.063139 40.262316 1.071470 2.064026 -0.012101 0.005723 -395163.000000 0 0 1
15.916078 32.194784 -19.259439 40.752321 1.111664 2.063032 -0.028798 0.011169 -278352.000000 0 0 1
16.038578 33.356084 -18.391039 41.329101 1.122603 2.031959 -0.004718 0.003708 1919.580000 0 0 1
15.258378 34.448584 -18.856639 42.131887 1.153836 2.034834 -0.022021 0.013700 16359.000000 0 0 1
15.469678 -33.300830 -18.044739 40.912942 -1.135914 2.027567 -0.016665 0.009782 -129792.000000 0 0 1
14.528278 -32.315930 -18.366939 39.909080 -1.148300 2.049039 -0.027310 0.015978 -216489.000000 0 0 1
14.301378 -31.505630 -17.250439 38.661503 -1.144678 2.033302 -0.013231 0.012351 -42387.100000 0 0 1
13.139178 -30.507030 -17.433439 37.513220 -1.164113 2.054124 -0.002496 0.007584 -437290.000000 0 0 1
11.898378 -31.096630 -17.643139 37.680926 -1.205357 2.058077 -0.019571 0.009543 -56868.200000 0 0 1
10.885478 -30.136830 -18.076539 36.789719 -1.224177 2.084433 -0.031314 0.018720 452181.000000 0 0 1
9.601978 -30.883830 -18.431839 37.225551 -1.269364 2.088792 0.001338 0.002342 -1455570.000000 0 0 1
8.946178 -31.365730 -17.253239 36.898745 -1.292952 2.057351 0.006478 0.001926 -43673.400000 0 0 1
7.903278 -32.258430 -17.557239 37.567603 -1.330530 2.057088 0.030179 -0.000703 536090.000000 0 0 1
6.574778 -31.788330 -18.244939 37.237125 -1.366842 2.082848 0.025221 0.007370 -432582.000000 0 0 1
6.767778 -31.246130 -19.523239 37.460384 -1.357495 2.119018 0.012414 0.011503 -137229.000000 0 0 1
6.633678 -32.258730 -20.526239 38.806673 -1.367984 2.128142 0.020966 0.001369 -1139210.000000 0 0 1
6.623678 -31.592630 -21.948539 39.034674 -1.364131 2.167940 0.015605 0.013701 394446.000000 0 0 1
7.901178 -31.129230 -22.410739 39.162467 -1.322227 2.180044 0.017018 0.004013 1607660.000000 0 0 1
9.026978 -32.036930 -22.493139 40.172037 -1.296149 2.165086 0.019073 -0.002453 248725.000000 0 0 1
8.936778 -33.164430 -23.519639 41.628342 -1.307580 2.171219 0.021597 -0.006454 -524459.000000 0 0 1
7.911778 -34.065130 -23.156039 41.943193 -1.342588 2.155654 0.033154 -0.019631 5016.800000 0 0 1
7.684378 34.026884 -24.155939 42.430978 1.348690 2.176450 0.045683 -0.029530 -101632.000000 0 0 1
6.576778 33.025884 -23.728839 41.194913 1.374228 2.184640 0.045711 -0.032390 814530.000000 0 0 1
5.236878 33.509084 -23.793939 41.429882 1.415768 2.182567 0.044703 -0.027538 565740.000000 0 0 1
4.725678 34.248984 -22.667639 41.341829 1.433682 2.151124 0.033843 -0.021167 -754348.000000 0 0 1
3.335478 -34.269830 -22.977739 41.394724 -1.473772 2.159266 0.022941 -0.012824 -503130.000000 0 0 1
2.375978 33.763284 -22.983139 40.912459 1.500540 2.167313 0.035321 -0.019330 -575004.000000 0 0 1
1.113278 34.289384 -23.294839 41.468672 1.538341 2.167290 0.025157 -0.000673 -208958.000000 0 0 1
-0.055522 33.568384 -22.596139 40.465108 -1.569142 2.163265 0.026703 -0.011841 -43526.600000 0 0 1
-0.326222 33.858684 -21.195539 39.947062 -1.561162 2.130094 0.024521 -0.008719 -197994.000000 0 0 1
-1.490822 33.196684 -20.769539 39.186938 -1.525918 2.129411 0.024810 -0.002564 -78561.500000 0 0 1
-1.685822 33.396484 -19.283539 38.600803 -1.520360 2.093891 0.032756 -0.003814 37459.300000 0 0 1
-0.894622 32.635284 -18.380539 37.466069 -1.543390 2.083565 0.048900 -0.017132 -5155.250000 0 0 1
-1.395922 32.654484 -17.065539 36.871351 -1.528074 2.051993 0.029112 -0.015485 232951.000000 0 0 1
-0.455922 31.751584 -16.212539 35.654135 -1.556438 2.042851 0.013081 -0.010566 920233.000000 0 0 1
0.765778 32.341184 -15.782739 35.994909 1.547123 2.024694 0.033868 -0.008187 -29633.400000 0 0 1
1.378178 31.467284 -14.890339 34.839798 1.527027 2.012405 0.049356 -0.002485 158517.000000 0 0 1
2.485278 31.984084 -13.932939 34.975492 1.493249 1.980528 0.054025 -0.006672 -110978.000000 0 0 1
3.643578 32.398084 -14.612239 35.727147 1.458804 1.992149 0.048213 -0.008611 -418765.000000 0 0 1
4.406778 33.178884 -13.695439 36.163837 1.438750 1.959193 0.048267 -0.008055 857248.000000 0 0 1
5.796978 33.623684 -14.304239 36.996869 1.400067 1.967775 0.047517 -0.020548 788992.000000 0 0 1
6.664678 32.538084 -14.445039 36.218835 1.368764 1.981033 0.031474 -0.005327 -835052.000000 0 0 1
7.727278 32.851884 -15.328139 37.066278 1.339780 1.997128 0.014616 0.008183 -111923.000000 0 0 1
8.619878 31.643584 -15.482939 36.267618 1.304844 2.011867 -0.002776 0.004928 -523022.000000 0 0 1
9.204878 31.307084 -14.261139 35.612405 1.284836 1.982809 -0.004714 0.001042 -173932.000000 0 0 1
10.052578 30.146584 -14.342039 34.864953 1.248935 1.994742 -0.010323 0.003556 129554.000000 0 0 1
9.359578 28.793984 -14.092839 33.396157 1.256516 2.006435 0.002596 0.004873 -49512.100000 0 0 1
8.533178 28.401284 -15.176939 33.313474 1.278926 2.043820 0.006957 0.001102 107398.000000 0 0 1
8.030278 27.059284 -15.039739 31.982557 1.282309 2.060368 0.018029 0.003616 51346.300000 0 0 1
7.276578 26.505784 -16.248539 31.929926 1.302869 2.104681 0.022638 0.004879 82651.500000 0 0 1
8.129578 26.007184 -17.251739 32.250367 1.267830 2.135223 0.027530 0.012812 -170775.000000 0 0 1
7.407278 25.240584 -18.202239 31.988691 1.285344 2.176111 0.023078 0.016353 99404.100000 0 0 1
8.278278 24.157384 -18.877039 31.756128 1.240657 2.207363 0.014389 0.017807 -164919.000000 0 0 1
7.616978 23.238184 -19.733339 31.423498 1.254053 2.249752 0.025092 0.012565 -5288.150000 0 0 1
8.360778 22.047684 -19.911039 30.861828 1.208337 2.272038 0.012299 0.014513 91997.900000 0 0 1
7.676978 21.165284 -20.993939 30.783936 1.222839 2.321259 0.020291 0.000989 304079.000000 0 0 1
6.779078 20.248384 -20.369539 29.510525 1.247730 2.332626 0.013625 0.006380 647311.000000 0 0 1
6.053178 19.423084 -21.339539 29.483437 1.268687 2.380062 0.014715 0.006459 333226.000000 0 0 1
24.052578 -13.085416 -9.772239 29.073206 -0.498251 1.913596 0.035246 -0.018132 -91451.000000 0 0 1
24.786978 -12.301516 -8.854839 29.053911 -0.460675 1.880496 0.042201 -0.024891 551154.000000 0 0 1
24.244178 -12.603016 -7.579539 28.356050 -0.479391 1.841385 0.033718 -0.018918 -435497.000000 0 0 1
25.039978 -12.094816 -6.373639 28.529079 -0.449972 1.796106 0.023502 -0.012067 -393335.000000 0 0 1
24.768578 -10.699316 -6.153839 27.673590 -0.407761 1.795043 0.021466 -0.010108 714966.000000 0 0 1
25.741678 -9.962216 -6.874839 28.445442 -0.369256 1.814898 0.018666 -0.019078 -524002.000000 0 0 1
25.774578 -8.554416 -6.233839 27.863375 -0.320454 1.796435 0.023117 -0.013178 -105057.000000 0 0 1
26.333278 -8.383216 -4.921139 28.070224 -0.308206 1.747022 0.030637 -0.023783 615297.000000 0 0 1
27.744378 -8.520816 -4.890639 29.432519 -0.297975 1.737735 0.039422 -0.019037 35432.300000 0 0 1
28.441778 -8.208916 -3.550939 29.814933 -0.280986 1.690179 0.050843 -0.020288 -223764.000000 0 0 1
28.476278 -6.868316 -3.181439 29.465127 -0.236674 1.678980 0.051140 -0.013278 448466.000000 0 0 1
29.358978 -6.625216 -2.090739 30.169757 -0.221945 1.640151 0.065319 -0.015330 -161546.000000 0 0 1
29.461378 -5.163216 -1.665639 29.956735 -0.173492 1.626427 0.067371 -0.017368 412156.000000 0 0 1
28.227678 -4.645116 -1.155639 28.630655 -0.163097 1.611171 0.053068 -0.009157 549164.000000 0 0 1
28.404278 -3.337716 -0.625439 28.606547 -0.116971 1.592662 0.058236 -0.004098 63265.400000 0 0 1
29.245878 -3.268316 0.667761 29.435509 -0.111291 1.548109 0.057305 -0.006141 -305417.000000 0 0 1
28.445778 -3.524216 1.768861 28.717786 -0.123264 1.509163 0.037101 -0.009510 119888.000000 0 0 1
29.089178 -3.204816 3.001261 29.418679 -0.109730 1.468600 0.037614 -0.003002 -328226.000000 0 0 1
28.565378 -3.877616 4.235961 29.136920 -0.134921 1.424898 0.034046 -0.008755 -553340.000000 0 0 1
28.967778 -5.207816 4.307861 29.745776 -0.177879 1.425463 0.044948 -0.018257 188430.000000 0 0 1
28.886378 -5.666216 5.625761 29.969618 -0.193696 1.381961 0.040739 -0.016291 14742.100000 0 0 1
29.669178 -7.014916 5.772361 31.028847 -0.232174 1.383674 0.027016 -0.010717 -216854.000000 0 0 1
31.057878 -6.962116 5.640361 32.324550 -0.220520 1.395407 0.023975 -0.009299 -500085.000000 0 0 1
31.653978 -8.232316 5.555561 33.175437 -0.254436 1.402544 0.019314 -0.008950 468471.000000 0 0 1
33.209078 -8.242116 5.535661 34.661490 -0.243273 1.410403 0.026890 -0.001428 481712.000000 0 0 1
33.816278 -7.966016 4.263661 35.002527 -0.231350 1.448683 0.033206 0.001250 -432775.000000 0 0 1
35.181578 -7.793416 4.468761 36.310475 -0.217999 1.447413 0.043555 0.004544 -296079.000000 0 0 1
-34.361307 -7.451016 3.235361 35.308422 0.213537 1.479036 0.053105 0.003632 80987.100000 0 0 1
-34.216207 -8.582416 2.364661 35.355316 0.245759 1.503864 0.065813 -0.006994 -89512.600000 0 0 1
-33.169407 -8.434616 1.462161 34.256244 0.249011 1.528100 0.074027 -0.016921 -499168.000000 0 0 1
-32.787807 -9.678016 0.602161 34.191621 0.287021 1.553184 0.068358 -0.019040 -69107.100000 0 0 1
-32.501107 -10.761716 1.443561 34.266899 0.319756 1.528657 0.065649 -0.011356 175191.000000 0 0 1
-32.445807 -12.046716 0.825861 34.619876 0.355512 1.546939 0.067621 -0.023860 -564362.000000 0 0 1
-32.010107 -13.139316 1.822761 34.649835 0.389503 1.518167 0.050483 -0.024476 404123.000000 0 0 1
-30.680307 -13.200116 2.306761 33.479030 0.406307 1.501840 0.035701 -0.016544 -230622.000000 0 0 1
-29.785407 -13.795616 1.425861 32.856089 0.433749 1.527386 0.042828 -0.012159 -1373200.000000 0 0 1
-28.469507 -14.037116 2.121661 31.812811 0.458079 1.504055 0.025313 -0.001172 -660277.000000 0 0 1
-27.598707 -12.905116 2.230161 30.548393 0.437392 1.497727 0.016518 0.006858 64347.600000 0 0 1
-26.440407 -13.316116 2.906261 29.746604 0.466545 1.472940 0.002684 0.013043 -66386.300000 0 0 1
-25.523907 -12.140216 3.355661 28.462522 0.443971 1.452624 -0.017022 0.025014 -193949.000000 0 0 1
-24.466007 -12.522716 4.177561 27.800287 0.473076 1.419955 -0.026981 0.030819 -355597.000000 0 0 1
-24.075507 -11.529216 5.051861 27.167521 0.446607 1.383755 -0.023640 0.035404 305877.000000 0 0 1
-22.792007 -11.904616 5.872761 26.375838 0.481340 1.346257 -0.017248 0.040519 262647.000000 0 0 1
-22.849907 -13.057716 6.711861 27.160105 0.519167 1.321087 -0.003557 0.019387 -20268.600000 0 0 1
-21.634807 -13.276616 7.408261 26.442688 0.550410 1.286833 0.001069 0.019011 57726.700000 0 0 1
-21.511407 -12.514316 8.748661 26.379686 0.526894 1.232751 0.019174 0.015117 -540268.000000 0 0 1
-21.161707 -11.131916 8.624361 25.418832 0.484262 1.224634 0.019126 0.010173 417552.000000 0 0 1
-22.190707 -10.269116 9.057061 26.075134 0.433420 1.216058 0.010655 0.009520 -547403.000000 0 0 1
-22.530807 -10.202516 10.598961 26.908485 0.425201 1.165937 0.033102 0.004168 -483251.000000 0 0 1
-23.127707 -11.384016 11.088461 28.061373 0.457408 1.164565 0.036656 -0.003344 953519.000000 0 0 1
-24.546707 -11.507216 10.925661 29.228872 0.438368 1.187697 0.038846 -0.001724 709662.000000 0 0 1
-25.405107 -11.154116 12.186261 30.304104 0.413711 1.156952 0.044556 -0.006716 -150678.000000 0 0 1
-25.239707 -12.019816 13.268761 30.944771 0.444449 1.127645 0.049266 -0.005115 -44340.500000 0 0 1
-26.148507 -11.627116 14.256061 31.971386 0.418402 1.108616 0.030862 -0.002185 -129234.000000 0 0 1
-26.164207 -12.580616 15.478561 32.900205 0.448197 1.080973 0.036277 -0.003238 -373529.000000 0 0 1
-26.677407 -13.853916 15.168261 33.670331 0.478978 1.103478 0.036859 -0.001804 568373.000000 0 0 1
-26.166307 -14.821416 16.132361 34.126281 0.515371 1.078415 0.027050 0.001697 -491887.000000 0 0 1
-26.006307 -16.297516 15.688261 34.468226 0.559803 1.098254 0.017960 0.000575 159978.000000 0 0 1
-27.223107 -17.028216 15.807761 35.790264 0.558963 1.113329 0.008983 0.002626 163607.000000 0 0 1
-26.917607 -18.396916 15.945361 36.294058 0.599534 1.115935 -0.001370 0.005249 86609.600000 0 0 1
-27.988307 -19.293916 16.627561 37.842784 0.603547 1.115882 -0.024868 0.013905 68993.300000 0 0 1
-27.960507 -19.208916 18.036461 38.419869 0.601949 1.082121 -0.004693 0.014727 -252141.000000 0 0 1
-28.691107 -20.193616 18.700661 39.757722 0.613291 1.081091 -0.006680 0.012578 -125950.000000 0 0 1
-27.907507 -21.539416 18.888861 39.994556 0.657317 1.078914 -0.019248 0.015430 384502.000000 0 0 1
-26.703407 -21.357316 19.634961 39.430174 0.674617 1.049542 -0.001336 0.015121 399123.000000 0 0 1
-25.932207 -22.526516 19.808861 39.652418 0.715233 1.047703 -0.001536 0.016959 429202.000000 0 0 1
-24.512507 -22.208316 20.395461 38.859325 0.736120 1.018253 0.015577 0.013778 374879.000000 0 0 1
-23.615207 -21.774816 19.404161 37.527884 0.744874 1.027384 0.017739 0.005051 309696.000000 0 0 1
-22.303407 -21.708316 19.978861 36.984427 0.771878 1.000126 0.033567 0.009087 828012.000000 0 0 1
-21.141607 -21.502816 18.969961 35.625806 0.793868 1.009271 0.031541 0.002326 68169.100000 0 0 1
-20.874107 -22.555616 18.081661 35.657126 0.824097 1.038982 0.024595 -0.003306 -102843.000000 0 0 1
-19.610307 -22.384716 17.497861 34.522671 0.851367 1.039268 0.020019 -0.000754 -92254.500000 0 0 1
-19.291707 -23.476516 16.412261 34.535186 0.882936 1.075567 0.016057 0.005297 -531106.000000 0 0 1
-19.171207 -24.868416 16.757761 35.592076 0.914049 1.080567 0.027870 0.000164 925938.000000 0 0 1
-18.050707 -25.270256 17.606961 35.699005 0.950533 1.055025 0.029723 -0.002479 925301.000000 0 0 1
-16.656107 -25.259186 16.955661 34.683524 0.987836 1.060005 0.026949 0.000522 -447378.000000 0 0 1
-16.048207 -23.990216 16.751661 33.372048 0.981216 1.044925 0.026812 -0.003486 294968.000000 0 0 1
-14.887907 -24.177416 15.932561 32.558313 1.018856 1.059447 0.017480 -0.000275 480448.000000 0 0 1
-14.123407 -22.833716 15.659361 31.081583 1.016861 1.042787 0.024511 0.002048 108110.000000 0 0 1
-14.823007 -21.905316 14.825661 30.321026 0.975890 1.059903 0.018513 0.007778 219470.000000 0 0 1
-15.758307 -21.027216 15.454161 30.484408 0.927664 1.039150 0.023413 0.009508 286061.000000 0 0 1
-15.180107 -19.968116 16.502861 30.025085 0.920788 0.988868 0.029241 0.000504 -292791.000000 0 0 1
-14.666907 -18.830116 15.869861 28.662588 0.909050 0.984021 0.021046 0.000088 -24708.200000 0 0 1
-14.650607 -17.719716 16.771561 28.458986 0.879928 0.940575 0.006628 0.001820 -523404.000000 0 0 1
-13.902507 -16.491416 16.176161 26.961356 0.870372 0.927325 0.010078 0.000629 338942.000000 0 0 1
-14.603907 -15.742816 15.145061 26.277048 0.822910 0.956528 -0.001368 -0.002823 325162.000000 0 0 1
-14.617107 -16.385716 13.890261 25.982511 0.842383 1.006761 -0.005160 -0.001181 -37408.600000 0 0 1
-15.440507 -15.522516 12.927261 25.425811 0.788047 1.037435 -0.000545 -0.004116 -1003700.000000 0 0 1
-16.799207 -15.728116 12.824861 26.345096 0.752481 1.062371 -0.007313 -0.006972 -726732.000000 0 0 1
-17.480807 -14.571016 12.317861 25.877072 0.694862 1.074679 -0.006460 -0.006829 644776.000000 0 0 1
-19.032507 -14.610616 12.593761 27.098141 0.654712 1.087448 0.006589 -0.008039 1194750.000000 0 0 1
-19.840007 -15.619716 11.952961 27.936977 0.666939 1.128679 0.023325 -0.010656 264030.000000 0 0 1
-19.783707 -15.667116 10.550761 27.352736 0.669795 1.174798 0.015573 -0.007650 -680853.000000 0 0 1
-20.705707 -16.703116 9.823561 28.358822 0.678808 1.217063 0.009970 -0.004994 270177.000000 0 0 1
-20.250107 -18.043316 9.853161 28.856765 0.727833 1.222336 0.012407 0.001812 126461.000000 0 0 1
-21.084607 -18.832116 9.019561 29.674261 0.729028 1.261958 0.010442 -0.001877 193332.000000 0 0 1
-20.639707 -20.325016 9.149661 30.377954 0.777716 1.264852 0.017222 0.001344 -125112.000000 0 0 1
-19.639307 -20.634016 8.230861 29.651511 0.810092 1.289515 0.019460 0.002986 -664863.000000 0 0 1
-19.420907 -22.006616 8.223561 30.480974 0.847733 1.297618 0.010482 0.000146 -563157.000000 0 0 1
-18.081807 -22.458216 7.697261 29.842437 0.892935 1.309917 0.014912 0.004776 1969.650000 0 0 1
-16.922007 -21.880016 8.317261 28.883668 0.912487 1.278703 0.016433 0.003870 400420.000000 0 0 1
-15.719707 -22.392316 7.805561 28.450867 0.958720 1.292880 0.024427 0.013190 -396361.000000 0 0 1
-14.464707 -21.836116 8.481661 27.531478 0.985739 1.257631 -0.008016 0.012246 -299371.000000 0 0 1
-13.301807 -22.150716 7.755361 26.976618 1.029999 1.279197 0.005796 0.012914 -554079.000000 0 0 1
-12.141407 -21.818116 8.440661 26.356948 1.062990 1.244809 0.008165 0.013608 -885984.000000 0 0 1
-10.819507 -22.249516 7.866161 25.961109 1.118184 1.262959 0.009487 0.014512 -682677.000000 0 0 1
-10.615707 -23.630516 7.833561 27.063984 1.148577 1.277148 0.011132 0.017378 -462892.000000 0 0 1
-9.453407 -24.048716 7.173561 26.817301 1.196257 1.300001 0.018559 0.009962 -167772.000000 0 0 1
-9.144807 -25.580706 7.168361 28.096004 1.227466 1.312806 0.011602 0.004694 3846.380000 0 0 1
-9.912107 -26.299706 6.192361 28.779676 1.210369 1.353936 0.008588 -0.008988 104166.000000 0 0 1
-9.988707 -27.680116 6.521761 30.141275 1.224478 1.352698 0.007635 -0.004433 393261.000000 0 0 1
-8.895607 -28.544656 5.797161 30.455481 1.268697 1.379279 0.004750 -0.005260 595337.000000 0 0 1
-7.566007 -28.082706 6.094461 29.715742 1.307626 1.364239 0.003473 -0.007293 970559.000000 0 0 1
-6.479007 -28.836216 5.519761 30.066138 1.349784 1.386162 0.006407 0.001554 1010530.000000 0 0 1
-6.400607 -30.301986 6.044461 31.554931 1.362629 1.378052 0.006382 -0.005816 -829506.000000 0 0 1
-6.334407 -30.388486 7.449361 31.922998 1.365291 1.335271 0.003720 0.005960 60792.500000 0 0 1
-6.618907 -31.721916 7.803761 33.331495 1.365094 1.334477 0.022479 0.002028 89746.200000 0 0 1
-6.936507 -32.022246 9.308161 34.061433 1.357477 1.294000 0.009259 -0.000844 -131895.000000 0 0 1
-5.887907 -31.545086 10.118661 33.647395 1.386269 1.265342 0.011175 0.007325 165640.000000 0 0 1
-6.194107 -31.847476 11.483761 34.416645 1.378702 1.230604 0.006023 0.003798 115886.000000 0 0 1
-5.356907 -31.058176 12.575161 33.932896 1.399997 1.191153 -0.001701 0.010461 154889.000000 0 0 1
-5.813807 -29.708716 12.712061 32.832981 1.377545 1.173232 -0.000626 0.007895 -98478.200000 0 0 1
-5.021907 -28.799446 13.472761 32.189174 1.398157 1.138949 0.000525 -0.001177 -64238.700000 0 0 1
-5.670707 -28.200076 14.789161 32.343786 1.372354 1.095897 -0.004441 -0.002525 -58728.100000 0 0 1
-6.181807 -29.007366 15.783461 33.597019 1.360826 1.081746 -0.012982 -0.006011 161235.000000 0 0 1
-5.135907 -29.550306 16.564561 34.263433 1.398713 1.066208 -0.012543 -0.004878 273076.000000 0 0 1
-5.452907 -30.990966 17.068961 35.798374 1.396628 1.073776 -0.001764 -0.008076 -137358.000000 0 0 1
-5.747907 -31.934906 16.050861 36.200923 1.392715 1.111427 -0.008627 0.000282 203270.000000 0 0 1
-6.024607 -33.205176 16.540061 37.582619 1.391313 1.115088 -0.007059 0.000148 -168767.000000 0 0 1
-5.424907 -34.354820 15.726661 38.170815 1.414181 1.146140 -0.011972 0.000065 -387760.000000 0 0 1
-6.035107 -34.480540 14.478661 37.880890 1.397522 1.178604 -0.004570 0.002089 73859.100000 0 0 1
-5.720007 33.362265 13.816261 36.560200 -1.400996 1.183265 -0.000010 -0.002568 -244270.000000 0 0 1
-4.454907 33.475259 12.947461 36.167332 -1.438493 1.204684 0.020262 -0.017971 -2860.730000 0 0 1
-4.840907 34.004124 11.688561 36.281362 -1.429384 1.242782 0.014527 -0.022323 -198428.000000 0 0 1
-3.718907 34.367068 10.958061 36.262994 -1.463004 1.263814 0.021165 -0.022370 -1064630.000000 0 0 1
-3.960907 -34.346395 9.451161 35.842546 1.455981 1.303955 0.021748 -0.023580 -766072.000000 0 0 1
-4.095907 33.634839 8.533761 34.941435 -1.449617 1.324070 0.040875 -0.034281 230697.000000 0 0 1
-4.993907 32.569468 8.797661 34.104372 -1.418650 1.309883 0.051093 -0.033980 78987.900000 0 0 1
-6.482307 32.859448 9.090761 34.704546 -1.376024 1.305757 0.030447 -0.017470 -359611.000000 0 0 1
-7.204107 33.390412 8.007061 35.084637 -1.358300 1.340546 0.030819 -0.020899 -663113.000000 0 0 1
-8.499107 33.730395 8.435361 35.792872 -1.323963 1.332887 0.022013 -0.014854 -82905.100000 0 0 1
-9.430807 34.095510 7.255061 36.112046 -1.300944 1.368516 0.024950 -0.018208 -245108.000000 0 0 1
-9.277507 -33.649776 6.823861 35.566061 1.301772 1.377735 0.022607 -0.012497 59585.000000 0 0 1
-9.696007 -33.597646 5.490461 35.397169 1.289838 1.415057 0.024634 -0.008592 -693712.000000 0 0 1
-9.608607 -32.233426 4.754961 33.969527 1.281089 1.430358 0.014655 -0.005442 -94912.000000 0 0 1
-10.461407 -31.203566 5.172561 33.314546 1.247310 1.414901 0.022724 -0.009365 -330961.000000 0 0 1
-11.816807 -31.367486 4.821061 33.864417 1.210517 1.427947 0.024144 -0.005821 365807.000000 0 0 1
-12.821607 -30.325656 5.503261 33.381506 1.170793 1.405181 0.030061 -0.013439 494509.000000 0 0 1
-13.145607 -30.756876 6.754661 34.123568 1.166891 1.371533 0.017324 -0.001121 -394808.000000 0 0 1
-14.073007 -29.896426 7.335361 33.847502 1.130841 1.352345 0.015882 -0.001703 -281250.000000 0 0 1
32.611203 -13.341716 -12.641939 37.434083 -0.388339 1.915281 0.032351 -0.023222 -142837.000000 0 0 1
31.556583 -13.308816 -11.709539 36.194694 -0.399110 1.900239 0.057074 -0.022485 -126143.000000 0 0 1
31.319213 -14.584716 -11.133039 36.298094 -0.435816 1.882532 0.065227 -0.023193 135464.000000 0 0 1
32.344673 -15.366116 -10.207039 37.235455 -0.443509 1.848472 0.051747 -0.032270 819365.000000 0 0 1
33.616573 -15.545216 -10.838039 38.590036 -0.433140 1.855477 0.053594 -0.028987 712758.000000 0 0 1
34.618259 -15.890416 -9.870139 39.349064 -0.430328 1.824340 0.031300 -0.027028 71981.500000 0 0 1
-34.361806 -15.975016 -10.333439 39.277409 0.435181 1.837019 0.011375 -0.031555 -373192.000000 0 0 1
-33.869642 -14.672316 -10.646139 38.415749 0.408795 1.851602 0.012336 -0.028213 657961.000000 0 0 1
-32.443662 -14.731116 -10.756039 37.219476 0.426219 1.863968 0.012657 -0.031479 838699.000000 0 0 1
-31.736562 -13.416016 -11.234839 36.241143 0.399947 1.885992 0.008931 -0.031505 -60918.400000 0 0 1
-31.462682 -12.531816 -10.209739 35.372101 0.379046 1.863601 0.020842 -0.026949 338558.000000 0 0 1
-31.294092 -11.245716 -10.670439 34.923411 0.344985 1.881300 0.011406 -0.017059 -657742.000000 0 0 1
-31.854782 -10.116816 -9.778439 34.823770 0.307517 1.855422 0.011195 -0.016853 -233790.000000 0 0 1
-31.206862 -9.959416 -8.552639 33.855662 0.308924 1.826184 0.017976 -0.015135 -306797.000000 0 0 1
-32.001342 -9.184016 -7.744339 34.181967 0.279477 1.799343 0.025956 -0.012087 -539345.000000 0 0 1
-31.540892 -9.004916 -6.262139 33.393574 0.278101 1.759438 0.028619 -0.014133 -427465.000000 0 0 1
-30.376762 -8.205716 -6.040139 32.040049 0.263834 1.760450 0.032328 -0.026105 430291.000000 0 0 1
-30.054822 -8.187516 -4.682639 31.500077 0.265965 1.720004 0.038233 -0.026173 -463786.000000 0 0 1
-29.295562 -9.429316 -4.156739 31.055119 0.311397 1.705050 0.025050 -0.023598 -1015640.000000 0 0 1
-30.000932 -10.615116 -3.976539 32.071007 0.340079 1.695108 0.040584 -0.030275 -25651.600000 0 0 1
-30.250642 -10.931716 -2.641939 32.273575 0.346769 1.652749 0.031694 -0.029492 -91879.300000 0 0 1
-30.679492 -12.406716 -2.411139 33.180890 0.384292 1.643527 0.042518 -0.024782 459885.000000 0 0 1
-32.019202 -12.698016 -2.829139 34.561148 0.377550 1.652747 0.058818 -0.033018 685296.000000 0 0 1
-32.537222 -13.963016 -2.406139 35.488395 0.405372 1.638649 0.072646 -0.036188 398415.000000 0 0 1
-34.095194 -13.961616 -2.472539 36.925905 0.388660 1.637806 0.048984 -0.032991 268995.000000 0 0 1
-34.601826 -13.085016 -1.507739 37.024010 0.361538 1.611531 0.065630 -0.033140 -165525.000000 0 0 1
34.419334 -13.065616 -1.516839 36.847004 -0.362798 1.611974 0.072798 -0.037448 -310666.000000 0 0 1
34.044873 -11.942416 -0.564039 36.083138 -0.337374 1.586429 0.072729 -0.035506 -461356.000000 0 0 1
34.224123 -12.182016 0.821661 36.336858 -0.341964 1.548182 0.080117 -0.029165 130939.000000 0 0 1
34.049473 -11.043916 1.630961 35.832872 -0.313643 1.525265 0.072397 -0.023324 -170995.000000 0 0 1
34.504962 -11.399616 3.073461 36.469026 -0.319087 1.486420 0.063143 -0.016876 -407403.000000 0 0 1
33.653243 -12.160916 3.821161 35.986524 -0.346759 1.464413 0.051405 -0.018180 -615016.000000 0 0 1
34.340753 -12.620116 4.965961 36.921747 -0.352176 1.435888 0.045504 -0.014304 -489912.000000 0 0 1
33.538303 -12.873516 6.242561 36.462512 -0.366503 1.398744 0.020570 -0.005138 -532475.000000 0 0 1
32.989623 -11.666216 6.634961 35.615145 -0.339908 1.383405 0.023139 -0.003925 130854.000000 0 0 1
32.345513 -11.804016 7.909661 35.328880 -0.349918 1.344996 -0.019928 0.011888 -654724.000000 0 0 1
31.879703 -10.483116 8.542561 34.629273 -0.317695 1.321537 -0.026787 0.004168 -497894.000000 0 0 1
30.505693 -10.206016 8.568661 33.289368 -0.322855 1.310466 -0.010912 0.003257 -174336.000000 0 0 1
30.066523 -9.133616 9.350061 32.784789 -0.294921 1.281586 -0.005549 0.005951 265609.000000 0 0 1
28.514143 -9.049816 9.472761 31.379750 -0.307324 1.264138 0.016841 -0.001258 505071.000000 0 0 1
27.796233 -8.421216 8.448861 30.247822 -0.294172 1.287709 0.027735 -0.004569 64121.100000 0 0 1
27.226273 -9.402216 7.569361 29.781989 -0.332514 1.313818 0.052898 -0.018070 50155.000000 0 0 1
26.118493 -8.877516 6.605961 28.365907 -0.327643 1.335754 0.059206 -0.018987 -583632.000000 0 0 1
24.998463 -8.397916 7.278861 27.357448 -0.324092 1.301488 0.061107 -0.015565 323232.000000 0 0 1
23.868063 -8.104316 6.440361 26.016199 -0.327332 1.320644 0.050301 -0.015083 558275.000000 0 0 1
23.969163 -6.787616 5.731261 25.562470 -0.275956 1.344668 0.034154 -0.010067 -1281610.000000 0 0 1
24.784963 -6.866016 4.579361 26.122923 -0.270246 1.394585 0.024677 -0.012964 393795.000000 0 0 1
25.099963 -5.606716 4.026261 26.031792 -0.219768 1.415506 0.037914 -0.019391 80572.700000 0 0 1
25.880843 -5.670216 2.664061 26.628305 -0.215681 1.470582 0.048941 -0.019890 523228.000000 0 0 1
24.994363 -5.926816 1.553861 25.734409 -0.232826 1.510379 0.035387 -0.017027 497237.000000 0 0 1
25.714553 -5.925716 0.325661 26.390499 -0.226488 1.558456 0.029502 -0.011717 225345.000000 0 0 1
24.938063 -6.206716 -1.056739 25.720556 -0.243929 1.611893 0.029070 -0.014201 376186.000000 0 0 1
23.968663 -5.236816 -1.395639 24.573744 -0.215106 1.627621 0.032371 -0.004216 -170512.000000 0 1 0
23.352363 -5.483516 -2.630039 24.131285 -0.230638 1.680002 0.016006 -0.001567 -603078.000000 0 1 0
22.133363 -4.554816 -2.736839 22.762302 -0.202956 1.691324 -0.008333 0.006585 -717627.000000 0 1 0
22.193363 -3.176116 -2.803039 22.594028 -0.142146 1.695178 -0.018439 0.007330 439533.000000 0 1 0
23.103563 -2.530916 -3.721239 23.537795 -0.109112 1.729559 -0.006048 0.009055 256565.000000 0 1 0
22.350363 -1.639416 -4.723839 22.902862 -0.073220 1.778543 -0.007168 0.019192 -70814.600000 0 1 0
21.784263 -0.528516 -4.051939 22.164198 -0.024257 1.754645 -0.023957 0.023910 489833.000000 0 1 0
21.194863 0.330084 -4.998839 21.778879 0.015572 1.802388 -0.001244 0.026940 -373643.000000 0 1 0
20.654963 1.682484 -4.466039 21.199145 0.081277 1.783057 -0.012183 0.027729 -620410.000000 0 1 0
21.656763 2.671184 -4.330839 22.246501 0.122722 1.766723 -0.009201 0.024876 345387.000000 0 1 0
22.224363 2.644084 -3.057639 22.588994 0.118416 1.706573 0.005232 0.013502 -302208.000000 0 1 0
23.417863 3.634084 -3.021339 23.889985 0.153956 1.697605 0.003581 0.014866 -191347.000000 0 1 0
23.154763 5.014084 -3.122939 23.896377 0.213254 1.701858 0.003179 0.012241 410667.000000 0 1 0
24.353363 5.767784 -3.034439 25.210344 0.232552 1.691454 0.008858 0.004987 -11474.900000 0 0 1
24.094463 7.311984 -3.252839 25.388762 0.294639 1.699271 0.018193 -0.002847 -293626.000000 0 0 1
23.434163 7.785984 -2.135839 24.785951 0.320775 1.657075 0.036545 -0.004848 -169831.000000 0 1 0
22.717863 8.934084 -2.429639 24.532067 0.374685 1.669998 0.026055 0.004941 -165118.000000 0 1 0
21.560463 9.174084 -1.425739 23.474457 0.402298 1.631570 0.021935 0.008607 248.932000 0 1 0
22.027863 9.687084 -0.209939 24.064713 0.414310 1.579520 0.023811 0.005033 670466.000000 0 1 0
20.909463 10.051784 0.573861 23.207183 0.448112 1.546066 0.015477 0.006413 90595.000000 0 1 0
21.316863 10.214484 2.048161 23.726342 0.446848 1.484364 0.037258 -0.004298 564723.000000 0 1 0
22.343463 11.217084 2.376461 25.113759 0.465270 1.476027 0.057763 -0.014047 1254660.000000 0 0 1
22.035263 12.575884 2.143261 25.461721 0.518609 1.486521 0.064216 -0.010998 546751.000000 0 0 1
20.899463 13.323084 3.003761 24.966271 0.567527 1.450191 0.050457 -0.004208 1255320.000000 0 1 0
19.540063 12.895884 2.773961 23.575681 0.583353 1.452861 0.086566 -0.007495 1326370.000000 0 1 0
18.665963 13.760284 3.512161 23.454187 0.635249 1.420485 0.074915 -0.004715 45767.100000 0 1 0
18.613763 13.670884 5.101161 23.651365 0.633475 1.353407 0.049814 -0.003946 -1154760.000000 0 1 0
17.979063 12.523584 5.537361 22.599762 0.608417 1.323258 0.029239 0.003526 277945.000000 0 1 0
18.072263 12.460984 6.920661 23.016915 0.603650 1.265394 0.018753 -0.002903 -95277.600000 0 1 0
17.967063 11.036284 7.477361 22.372435 0.550832 1.230017 -0.004798 -0.008002 761275.000000 0 1 0
19.113863 10.264884 7.031761 22.806869 0.492838 1.257372 -0.007127 -0.010911 1099060.000000 0 1 0
19.234663 8.999984 7.590661 22.551942 0.437643 1.227508 0.001691 -0.003542 -215749.000000 0 1 0
20.175563 8.130484 6.765861 22.780145 0.383078 1.269240 0.016195 -0.007275 -338318.000000 0 1 0
19.751663 7.878984 5.419661 21.944915 0.379560 1.321248 0.003190 -0.007911 593178.000000 0 1 0
20.702263 7.140784 4.668761 22.391334 0.332149 1.360748 0.010521 -0.010469 -36169.000000 0 1 0
20.339163 6.836484 3.216061 21.697053 0.324260 1.422022 0.008462 -0.004972 -675159.000000 0 1 0
21.355363 6.046584 2.689061 22.357186 0.275919 1.450227 0.011501 -0.010570 122093.000000 0 1 0
21.321863 5.907584 1.287861 22.162581 0.270287 1.512654 0.024283 0.004113 -293218.000000 0 1 0
22.343963 4.885984 0.797861 22.885850 0.215283 1.535927 0.032907 -0.000107 -24892.300000 0 1 0
22.061163 3.568984 1.226261 22.381606 0.160387 1.515980 0.023785 -0.001932 107639.000000 0 1 0
23.109663 2.737084 0.814961 23.285453 0.117890 1.535790 0.026609 0.005363 -176347.000000 0 1 0
22.952963 1.150784 0.922161 23.000287 0.050095 1.530692 0.032909 -0.001783 -308309.000000 0 1 0
21.998863 0.689484 -0.029439 22.009685 0.031332 1.572134 0.004524 -0.003283 407167.000000 0 1 0
22.062163 -0.701016 -0.437639 22.077636 -0.031764 1.590620 0.000307 -0.001054 -1208630.000000 0 1 0
21.992963 -1.896016 0.574661 22.082019 -0.085998 1.544769 0.023731 -0.004600 571894.000000 0 1 0
23.043663 -1.988116 1.564061 23.182090 -0.086063 1.503277 0.038559 -0.007139 1009050.000000 0 1 0
24.319863 -2.354716 1.039461 24.455693 -0.096522 1.528280 0.043888 -0.005205 -195921.000000 0 1 0
25.406203 -1.991216 2.057861 25.567067 -0.078215 1.490220 0.055341 -0.007966 -595629.000000 0 0 1
25.446553 -0.592716 2.208761 25.549110 -0.023288 1.484237 0.053813 -0.013921 537958.000000 0 0 1
26.317183 -0.112016 3.243061 26.516488 -0.004256 1.448186 0.053277 -0.009186 75881.000000 0 0 1
25.967293 1.313784 3.765661 26.271782 0.050551 1.426966 0.053008 -0.006218 -139004.000000 0 0 1
26.162383 2.445784 2.904961 26.436546 0.093214 1.460690 0.063803 -0.006814 323514.000000 0 0 1
27.470383 2.664384 2.394861 27.703001 0.096689 1.484241 0.065759 -0.014648 -70496.400000 0 0 1
27.617673 3.820484 1.368961 27.914262 0.137462 1.521735 0.067014 -0.019808 -151225.000000 0 0 1
26.946433 3.611184 0.087061 27.187469 0.133220 1.567594 0.065904 -0.008399 506360.000000 0 0 1
27.315023 4.483984 -0.954739 27.697078 0.162707 1.605274 0.060230 -0.003907 625082.000000 0 0 1
28.737843 4.164584 -1.566839 29.080275 0.143915 1.624702 0.046664 -0.005529 739395.000000 0 0 1
29.793613 4.378184 -0.649439 30.120585 0.145906 1.592359 0.056334 -0.018208 729444.000000 0 0 1
31.030113 3.781584 -1.150339 31.280850 0.121270 1.607579 0.036419 -0.019712 1520840.000000 0 0 1
32.260703 4.171384 -0.258939 32.530301 0.128589 1.578756 0.004597 -0.017408 82157.300000 0 0 1
32.351023 3.540984 1.035561 32.560707 0.109021 1.538987 0.005244 -0.009155 403601.000000 0 0 1
31.458073 4.006384 2.058361 31.778898 0.126674 1.505980 0.010174 0.002179 35728.100000 0 0 1
31.309763 2.956684 3.143861 31.605808 0.094154 1.471161 0.011186 0.007220 -267736.000000 0 0 1
30.558423 1.788984 2.848461 30.742990 0.058476 1.478009 0.022940 -0.001572 93485.100000 0 0 1
30.612933 0.776484 3.838761 30.862448 0.025359 1.446090 0.015445 -0.000513 11839.200000 0 0 1
31.864083 -0.155116 3.783561 32.088303 -0.004868 1.452610 0.028156 0.004269 -178964.000000 0 0 1
33.045663 0.590184 3.935761 33.284447 0.017858 1.452273 0.018340 0.002485 47384.500000 0 0 1
34.141133 -0.315716 3.778461 34.351032 -0.009247 1.460578 0.018724 0.000251 241919.000000 0 0 1
-34.891811 0.269384 4.175361 35.141780 -0.007720 1.451700 0.029315 -0.004641 768452.000000 0 0 1
-34.329999 1.385584 3.405661 34.526326 -0.040339 1.471996 0.022248 -0.009009 508443.000000 0 0 1
-34.205345 1.135184 2.014961 34.283441 -0.033175 1.511989 0.017801 -0.014774 -1142170.000000 0 0 1
-34.103120 2.452284 1.183661 34.211658 -0.071784 1.536191 0.008717 -0.016025 659211.000000 0 0 1
-32.991982 3.313084 1.499861 33.191821 -0.100085 1.525593 0.016389 -0.023839 1587790.000000 0 0 1
-31.739412 2.778384 0.989261 31.876140 -0.087315 1.539757 0.015915 -0.015465 -33776.600000 0 0 1
-30.515092 3.571184 1.443861 30.757258 -0.116500 1.523835 0.003429 -0.014560 -440356.000000 0 0 1
-30.203922 3.307384 2.786961 30.512012 -0.109067 1.479329 0.014169 -0.011138 904356.000000 0 0 1
-29.303912 4.237884 3.500261 29.814942 -0.143623 1.453125 0.008137 -0.009171 -119498.000000 0 0 1
-29.466792 4.134684 5.015761 30.175243 -0.139407 1.403800 0.017557 -0.011429 -173426.000000 0 0 1
-30.646042 4.614484 5.630461 31.498817 -0.149451 1.391079 0.017679 -0.002376 -206255.000000 0 0 1
-31.833822 3.923584 5.382761 32.523236 -0.122634 1.404526 0.027677 -0.002677 -845288.000000 0 0 1
-32.119372 2.931084 6.543561 32.909930 -0.091004 1.370630 0.039882 0.004839 -650063.000000 0 0 1
-32.640732 3.523484 7.722261 33.726334 -0.107531 1.339779 0.032079 0.007504 298487.000000 0 0 1
-32.620282 2.671984 8.882661 33.913478 -0.081729 1.305784 0.034513 0.008601 157542.000000 0 0 1
-33.837372 1.705684 9.027061 35.062301 -0.050366 1.310406 0.026794 0.011454 -124677.000000 0 0 1
-33.751562 0.597284 8.216061 34.742313 -0.017695 1.332049 0.036653 0.008795 261619.000000 0 0 1
-34.727133 -0.417516 8.415061 35.734596 0.012022 1.333076 0.033378 0.014748 -21170.400000 0 0 1
-34.609005 -1.219516 9.758961 35.979269 0.035222 1.296117 0.020037 0.017326 339699.000000 0 0 1
-33.407542 -2.003016 9.768561 34.864032 0.059885 1.286804 0.034631 0.001656 554965.000000 0 0 1
-33.180222 -2.758816 10.951861 35.049700 0.082956 1.253008 0.023903 0.008495 -1205330.000000 0 0 1
-31.827702 -3.382916 10.928761 33.821362 0.105891 1.241759 0.027296 0.002458 -1243500.000000 0 0 1
-31.682862 -4.333916 9.876961 33.468507 0.135947 1.271224 0.032448 0.005675 -66625.500000 0 0 1
-30.463462 -5.029716 9.986961 32.450885 0.163630 1.257962 0.034024 -0.005372 -148670.000000 0 0 1
-30.360562 -6.198116 9.023361 32.273850 0.201383 1.287432 0.029736 0.004997 423345.000000 0 0 1
-31.428132 -7.111316 9.312761 33.541405 0.222525 1.289450 0.027277 0.002300 351275.000000 0 0 1
-31.484532 -8.169016 8.375861 33.588147 0.253863 1.318767 0.021920 0.013509 264292.000000 0 0 1
-32.564182 -9.282116 8.555361 34.925318 0.277677 1.323316 0.018507 0.008041 1697670.000000 0 0 1
-33.924812 -8.831016 8.297461 36.023986 0.254660 1.338378 0.017054 -0.001412 1051420.000000 0 0 1
-34.805594 -9.919616 8.271961 37.124837 0.277640 1.346095 0.008798 -0.004832 -382726.000000 0 0 1
7.752878 -24.091016 10.690261 27.473002 -1.259447 1.171122 0.043161 -0.006783 -40701.200000 0 0 1
7.073878 -24.626916 9.559661 27.347977 -1.291085 1.213699 0.036676 -0.004487 -399490.000000 0 0 1
5.791978 -25.103926 9.878861 27.592499 -1.344044 1.204642 0.041527 -0.013132 109954.000000 0 0 1
5.316978 -26.086826 8.785161 28.035189 -1.369732 1.252065 0.033940 -0.008084 -186684.000000 0 0 1
4.990678 -25.419216 7.561361 26.985507 -1.376927 1.286793 0.037230 -0.007986 -249782.000000 0 0 1
4.949678 -26.291676 6.464061 27.523365 -1.384714 1.333725 0.028972 -0.006659 -358595.000000 0 0 1
4.189878 -25.816726 5.187461 26.663987 -1.409906 1.374998 0.028270 -0.008173 1103120.000000 0 0 1
2.755978 -25.767876 5.260861 26.443440 -1.464247 1.370512 0.023309 -0.016677 557712.000000 0 0 1
2.087678 -26.995146 5.094061 27.550785 -1.493615 1.384829 0.019992 -0.015047 593637.000000 0 0 1
0.520978 -26.847026 4.994561 27.312632 -1.551393 1.386895 0.012132 -0.013902 436955.000000 0 0 1
-0.027822 -26.390696 6.261161 27.123270 1.569742 1.337854 0.013573 -0.017189 1466650.000000 0 0 1
-1.487422 -26.454396 6.362361 27.249351 1.514630 1.335134 0.004645 -0.016655 1992130.000000 0 0 1
-2.066122 -27.897746 6.287961 28.672139 1.496871 1.349694 0.009174 -0.005288 -931435.000000 0 0 1
-1.740422 -28.695236 7.413761 29.688542 1.510219 1.318407 0.016690 -0.011783 434291.000000 0 0 1
-2.516322 -29.921876 7.527061 30.956537 1.486897 1.325185 0.017489 -0.005933 353809.000000 0 0 1
-2.324922 -30.629916 8.899961 31.981344 1.495038 1.288787 0.022505 -0.003866 -322382.000000 0 0 1
-1.003522 -30.967856 9.166661 32.311652 1.538402 1.283151 0.023771 -0.002414 -775143.000000 0 0 1
-0.901522 -31.455636 10.464961 33.163010 1.542144 1.249748 0.018396 0.006659 832094.000000 0 0 1
0.560778 -31.756716 10.968061 33.602111 -1.553140 1.238293 0.026090 -0.001121 545423.000000 0 0 1
1.137478 -32.931346 10.432461 34.563039 -1.536269 1.264176 0.025260 -0.008167 447105.000000 0 0 1
2.488378 -33.088176 10.879561 34.919683 -1.495733 1.253962 0.025047 -0.002141 612410.000000 0 0 1
2.724678 -33.708276 12.308161 35.988367 -1.490141 1.221748 0.020423 -0.005421 -551559.000000 0 0 1
2.247478 -32.954446 13.390761 35.642098 -1.502702 1.185644 0.015092 0.000726 141115.000000 0 0 1
2.843278 -33.433806 14.574861 36.583196 -1.485958 1.161021 0.008112 -0.001394 -545414.000000 0 0 1
2.843378 -32.428476 15.751061 36.163335 -1.483338 1.120143 0.013034 -0.002484 -115960.000000 0 0 1
3.417078 -31.145016 15.546961 34.977085 -1.461518 1.110192 0.018292 -0.005632 1641370.000000 0 0 1
4.874978 -31.113946 15.639461 35.162989 -1.415378 1.109878 0.015632 -0.004936 1432910.000000 0 0 1
5.395578 -29.802636 14.963761 33.782000 -1.391693 1.111909 0.025793 -0.001598 -322722.000000 0 0 1
5.524678 -29.718036 13.520761 33.113362 -1.386991 1.150186 0.026572 0.000148 77206.200000 0 0 1
4.322178 -29.687366 12.782661 32.610081 -1.426222 1.168008 0.020486 0.006798 -25881.200000 0 0 1
4.727978 -29.739886 11.261261 32.150126 -1.413138 1.212936 0.021309 0.000157 425839.000000 0 0 1
5.186078 -31.017706 10.762561 33.238926 -1.405131 1.241060 0.024501 -0.001473 257444.000000 0 0 1
6.565678 -31.296086 10.938461 33.796495 -1.364003 1.241205 0.024307 -0.000568 46795.900000 0 0 1
7.003078 -32.619376 10.288661 34.913083 -1.359316 1.271662 0.025409 -0.000803 -172266.000000 0 0 1
6.579978 -33.731646 11.056161 36.102060 -1.378147 1.259548 0.015837 0.000694 219766.000000 0 0 1
7.072478 34.106861 10.574061 36.402042 1.366332 1.276068 0.025828 -0.001899 -42907.300000 0 0 1
6.642078 32.981518 11.588261 35.583500 1.372067 1.239083 0.020246 -0.001145 355436.000000 0 0 1
5.262678 32.893518 11.914361 35.378401 1.412150 1.227313 0.014609 -0.001330 259865.000000 0 0 1
5.049878 31.818528 12.805261 34.668352 1.413400 1.192471 0.014798 -0.009357 -407563.000000 0 0 1
3.727078 31.788738 13.552961 34.757700 1.454084 1.170244 0.018804 -0.016481 -430279.000000 0 0 1
3.846178 31.979238 14.969461 35.518298 1.451100 1.135744 0.037694 -0.007939 -295140.000000 0 0 1
2.628978 31.758688 15.594161 35.478213 1.488205 1.115708 0.031875 -0.009789 -381260.000000 0 0 1
2.950778 31.967068 17.148861 36.396207 1.478750 1.080178 0.016164 -0.006513 -50472.800000 0 0 1
3.408178 33.273366 17.424961 37.714212 1.468723 1.090518 0.008604 -0.007555 174525.000000 0 0 1
4.012078 33.339203 18.689061 38.430199 1.451031 1.062932 0.001017 -0.002552 -247186.000000 0 0 1
4.459178 -34.284048 19.114861 39.505166 -1.441457 1.065739 0.006065 -0.004895 206283.000000 0 0 1
3.382678 -33.382496 19.379861 38.748065 -1.469810 1.047024 -0.002680 -0.008164 235183.000000 0 0 1
3.773478 -32.395466 20.290961 38.411306 -1.454837 1.014252 -0.000326 -0.006363 41778.000000 0 0 1
2.539378 -31.812406 20.978161 38.191110 -1.491142 0.989277 -0.013849 -0.005175 233941.000000 0 0 1
1.696578 -32.725646 21.705561 39.306204 -1.519000 0.985775 -0.017322 -0.005682 762685.000000 0 0 1
0.606478 -32.018546 22.331661 39.041749 -1.551857 0.961861 -0.011375 -0.000014 843324.000000 0 0 1
-0.529822 -32.957696 22.870161 40.119007 1.554722 0.964220 -0.018316 0.000496 -680997.000000 0 0 1
-1.258622 -33.588816 21.863161 40.097263 1.533342 0.994105 -0.018550 -0.002587 -362581.000000 0 0 1
-2.098822 34.485802 22.397061 41.174068 -1.510011 0.995647 -0.015807 0.000169 -140281.000000 0 0 1
-3.398922 -34.157543 23.128061 41.390792 1.471616 0.977891 0.002658 0.003483 -216350.000000 0 0 1
-4.357622 -33.666176 22.159961 40.539662 1.442076 0.992469 0.002359 -0.004965 242236.000000 0 0 1
-5.479022 -33.105806 22.853661 40.599309 1.406783 0.972897 0.011420 0.005436 545945.000000 0 0 1
-6.625322 -32.669906 21.880261 39.874346 1.370714 0.989952 0.012227 0.000002 106482.000000 0 0 1
-7.463522 -33.771396 21.651261 40.804270 1.353291 1.011473 0.007569 0.007845 -716207.000000 0 0 1
-8.540122 -33.387706 20.837561 40.272529 1.320379 1.026970 0.003234 0.003380 -386742.000000 0 0 1
-9.647922 -34.445298 20.952061 41.455396 1.297700 1.040937 0.014791 0.004547 -130731.000000 0 0 1
-10.037322 34.467612 22.283561 42.253061 -1.287423 1.015278 0.016626 -0.000525 -275168.000000 0 0 1
-11.276022 33.799033 22.397161 42.085105 -1.248788 1.009614 0.017925 0.003779 -130950.000000 0 0 1
-11.737222 33.679838 23.856661 42.909604 -1.235464 0.981261 0.017584 -0.001190 -62370.100000 0 0 1
-12.115722 -34.248360 24.623961 43.887132 1.230775 0.975113 0.020545 -0.004029 445349.000000 0 0 1
-10.989322 -33.434836 24.975761 43.156020 1.253241 0.953624 0.017833 -0.001687 429989.000000 0 0 1
-11.297622 -32.146546 25.802661 42.741245 1.232838 0.922669 0.016749 -0.007433 -594944.000000 0 0 1
-11.983522 -32.431396 27.003061 43.869871 1.216853 0.907743 0.010696 0.000758 -40151.700000 0 0 1
-12.767422 -31.344026 27.368461 43.525713 1.183985 0.890802 0.012344 -0.000464 -293840.000000 0 0 1
-13.255622 -31.268926 28.847561 44.560510 1.169838 0.866655 0.012603 -0.001646 37570.000000 0 0 1
-12.396122 -30.706076 29.866661 44.593098 1.187102 0.836911 0.007788 0.007138 381739.000000 0 0 1
-13.165522 -30.335086 30.998361 45.326006 1.161325 0.817704 0.010856 0.009648 -121152.000000 0 0 1
-12.455422 -29.669936 32.198061 45.520960 1.173339 0.785091 0.013247 0.012165 43678.600000 0 0 1
-13.420122 -29.298226 33.218361 46.281154 1.141266 0.770229 0.011608 0.009336 911252.000000 0 0 1
-12.959522 -28.911446 -34.524655 46.859073 1.149400 2.399086 0.011181 0.014563 -399684.000000 0 0 1
-12.179322 -30.020796 -33.712255 46.755751 1.185389 2.376083 0.013124 0.019417 567844.000000 0 0 1
-10.894722 -30.339076 -34.250455 47.034543 1.226039 2.386485 0.010991 0.016559 131228.000000 0 0 1
-10.430822 -31.541246 -33.653255 47.288411 1.251414 2.362654 0.008494 0.019656 -1239630.000000 0 0 1
-9.016122 -31.815636 -34.034655 47.454009 1.294650 2.370592 0.009637 0.008961 -916460.000000 0 0 1
-8.077022 -30.888226 -33.526455 46.296263 1.315031 2.380629 0.023322 0.003665 676788.000000 0 0 1
-6.779922 -31.393636 -33.173455 46.173649 1.358098 2.372368 0.022481 0.000798 829140.000000 0 0 1
-6.042022 -30.429186 -32.225555 44.731732 1.374786 2.375202 0.007068 0.008148 -4213.660000 0 0 1
-6.658422 -30.358426 -30.937155 43.852893 1.354888 2.353891 0.010319 -0.002443 226425.000000 0 0 1
-5.952122 -29.575226 -29.982555 42.533227 1.372196 2.353108 -0.002201 0.007088 -47469.400000 0 0 1
-6.576322 -29.794446 -28.586255 41.810657 1.353556 2.323627 0.006300 0.006176 -99712.600000 0 0 1
-6.293322 -31.077496 -28.134655 42.390748 1.370994 2.296548 -0.005946 0.011822 -116558.000000 0 0 1
-7.062422 -31.414346 -27.002055 42.022017 1.349658 2.268643 0.003030 0.009931 -274603.000000 0 0 1
-6.613522 -32.654696 -26.279555 42.434454 1.370970 2.238644 -0.001343 0.009560 56063.700000 0 0 1
-5.570822 -32.465246 -25.350155 41.565089 1.400858 2.226719 -0.011607 0.010986 -78598.000000 0 0 1
-5.467222 -33.646776 -24.602955 42.039285 1.409715 2.195969 -0.012998 0.004880 -177427.000000 0 0 1
-4.540022 -33.669836 -23.366255 41.234107 1.436765 2.173259 0.002254 -0.003564 -27923.800000 0 0 1
-5.101522 -33.169126 -22.173955 40.223137 1.418189 2.154686 0.001907 0.003292 -25154.200000 0 0 1
-4.954822 -31.782796 -22.193055 39.079766 1.416145 2.174738 -0.006808 0.010480 -198173.000000 0 0 1
-5.507822 -31.060346 -20.961155 37.874150 1.395294 2.157288 0.010920 0.001786 -122998.000000 0 0 1
-6.911422 -31.119086 -20.761755 38.042289 1.352248 2.148086 0.022034 -0.005319 -117736.000000 0 0 1
-7.483322 -30.029006 -20.141755 36.924675 1.326568 2.147761 0.027575 -0.010309 -426555.000000 0 0 1
-7.660722 -28.790646 -21.103555 36.509561 1.310738 2.187107 0.024955 -0.012304 -1716310.000000 0 0 1
-6.566622 -28.393556 -21.799355 36.394044 1.343521 2.213025 0.022181 -0.004910 -1441090.000000 0 0 1
-6.910822 -27.557116 -22.883255 36.480097 1.325082 2.248853 0.030920 -0.008149 312422.000000 0 0 1
-5.820922 -27.535036 -24.058555 37.025335 1.362463 2.278100 0.023193 -0.007593 1701460.000000 0 0 1
-4.532322 -26.948736 -23.873755 36.286809 1.404173 2.288848 0.025838 -0.001369 955145.000000 0 0 1
-3.642222 -27.489676 -22.888455 35.955938 1.439069 2.260838 0.008116 0.001079 1236880.000000 0 0 1
-2.140722 -26.951676 -22.871655 35.413107 1.491535 2.272936 0.018366 0.002559 1227450.000000 0 0 1
-1.834522 -25.575746 -22.934255 34.401516 1.499190 2.300521 0.015136 0.005451 -238262.000000 0 0 1
-2.286422 -24.746716 -21.887355 33.116220 1.478665 2.292848 0.020104 0.003471 -982082.000000 0 0 1
-2.260322 -23.228616 -22.337855 32.305688 1.473794 2.334294 0.022231 0.005230 761234.000000 0 0 1
-3.105522 -22.970516 -23.502555 33.009983 1.436415 2.363115 0.022442 0.000329 603912.000000 0 0 1
-4.476822 -23.288616 -23.348455 33.279903 1.380881 2.348406 0.016394 -0.002522 -548757.000000 0 0 1
-5.249722 -23.452916 -24.668355 34.440189 1.350585 2.369234 0.015413 0.001213 -58039.200000 0 0 1
-5.556422 -22.191216 -25.138055 33.988906 1.325452 2.403266 0.023555 -0.002555 -180145.000000 0 0 1
-5.625522 -22.264916 -26.561555 35.112522 1.323313 2.428695 0.028425 -0.005415 31253.400000 0 0 1
-5.811622 -20.864016 -27.232255 34.794796 1.299135 2.469713 0.038831 0.001075 154135.000000 0 0 1
-5.988322 -20.882216 -28.636955 35.944432 1.291524 2.492613 0.041368 -0.009924 595107.000000 0 0 1
-4.760022 -21.171816 -29.321155 36.477853 1.349645 2.504464 0.028335 -0.019676 531025.000000 0 0 1
-4.890722 -21.522416 -30.858355 37.939052 1.347352 2.520712 0.043812 -0.019501 -136540.000000 0 0 1
-5.382822 -20.603116 -31.742155 38.223391 1.315246 2.550690 0.064128 -0.023143 -325590.000000 0 0 1
-6.146822 -21.192516 -32.758355 39.497038 1.288496 2.548807 0.054525 -0.023559 -34799.800000 0 0 1
-6.254422 -20.398816 -34.032355 40.167533 1.273289 2.581602 0.041235 -0.019629 1183120.000000 0 0 1
-5.019122 -20.439916 34.266861 40.214419 1.330006 0.550804 0.055477 -0.014692 668026.000000 0 0 1
-5.259122 -20.153616 32.875361 38.918067 1.315537 0.564731 0.050320 -0.019433 40450.700000 0 0 1
-4.074222 -20.481216 31.976861 38.191611 1.374435 0.578517 0.032383 -0.014864 -1197220.000000 0 0 1
-4.092922 -21.874316 31.613361 38.660604 1.385824 0.613366 0.038994 -0.009819 716344.000000 0 0 1
-3.024222 -22.321616 30.751361 38.118849 1.436132 0.632211 0.023982 0.000469 1258660.000000 0 0 1
-1.523522 -22.104716 31.127161 38.207849 1.501982 0.618620 0.015005 -0.001801 8845.670000 0 0 1
-1.133922 -20.743716 30.873961 37.212753 1.516187 0.592297 0.010804 -0.005899 414770.000000 0 0 1
-0.011422 -20.322416 31.664261 37.624807 1.570234 0.570596 0.013304 -0.009407 164422.000000 0 0 1
-0.348622 -19.956816 33.131461 38.679319 1.553329 0.542215 0.004932 -0.018839 -231744.000000 0 0 1
-1.310422 -18.914516 33.168561 38.205098 1.501626 0.519291 0.008105 -0.021978 47748.900000 0 0 1
-1.611822 -18.426016 34.494561 39.140654 1.483543 0.492195 0.009290 -0.027950 -392956.000000 0 0 1
-2.870722 -17.598616 -34.410055 38.755700 1.409098 2.663493 0.013111 -0.021812 -379189.000000 0 0 1
-2.568522 -16.296916 34.209161 37.979645 1.414474 0.449364 0.022890 -0.021091 51142.600000 0 0 1
-3.484822 -15.336416 -34.365855 37.793672 1.347365 2.712400 0.029973 -0.030761 -235184.000000 0 0 1
-3.024622 -13.925116 -34.516255 37.342055 1.356912 2.750063 0.030759 -0.030545 -137351.000000 0 0 1
-1.909722 -13.467016 -33.751755 36.389402 1.429928 2.758508 0.033231 -0.027408 156499.000000 0 0 1
-1.767022 -12.106716 -33.682155 35.835493 1.425866 2.793164 0.032571 -0.025371 -65615.500000 0 0 1
-1.064322 -11.400116 34.217961 36.082742 1.477706 0.322900 0.029967 -0.027117 -200604.000000 0 0 1
-1.867522 -11.366616 33.017061 34.968756 1.407952 0.335677 0.034094 -0.021982 640204.000000 0 0 1
-1.135022 -10.877616 31.880761 33.704506 1.466828 0.330469 0.031437 -0.015164 352389.000000 0 0 1
-0.244322 -11.981416 31.195461 33.418121 1.550407 0.366773 0.015240 -0.021496 322551.000000 0 0 1
-0.983622 -13.025516 30.576461 33.249835 1.495424 0.403742 0.030825 -0.027004 617512.000000 0 0 1
-0.060422 -14.083216 30.263261 33.379718 1.566506 0.435555 0.030782 -0.027880 340779.000000 0 0 1
-0.504822 -15.417516 30.851761 34.493272 1.538065 0.463645 0.028799 -0.026224 553337.000000 0 0 1
-1.571922 -15.949416 30.037661 34.045791 1.472557 0.490129 0.036897 -0.027897 687374.000000 0 0 1
-1.964022 -17.211816 30.601361 35.164574 1.457179 0.515122 0.027871 -0.020875 -271857.000000 0 0 1
-2.538622 -18.111916 29.518561 34.725085 1.431540 0.554689 0.023522 -0.014505 -318069.000000 0 0 1
-3.770822 -17.648816 29.003461 34.159926 1.360303 0.556613 0.027253 -0.014945 -317119.000000 0 0 1
-4.381522 -18.628116 28.171061 34.056029 1.339785 0.596695 0.026457 -0.007894 164988.000000 0 0 1
-3.676822 -18.943116 26.784361 33.011553 1.379082 0.624316 0.023079 -0.008300 210432.000000 0 0 1
-4.377822 -20.014016 26.104661 33.184025 1.355450 0.665410 0.036823 -0.011154 310679.000000 0 0 1
-4.208922 -21.297816 26.724461 34.431218 1.375688 0.682229 0.022772 -0.009233 -405961.000000 0 0 1
-27.987322 -34.276230 -0.804139 44.258296 0.886061 1.588967 -0.000071 0.001160 -242401.000000 0 0 1
-27.521812 -33.062230 -0.362239 43.019675 0.876595 1.579217 0.004910 0.006232 -52889.700000 0 0 1
-27.960252 -32.835030 0.970761 43.137655 0.865410 1.548291 -0.006365 0.016362 -319445.000000 0 0 1
-27.436322 -31.542530 1.613761 41.836434 0.854908 1.532214 0.007442 0.010410 456249.000000 0 0 1
-26.023002 -31.565930 1.774661 40.948187 0.881352 1.527444 0.007075 0.002635 -54064.300000 0 0 1
-25.461352 -30.316430 2.059261 39.643498 0.872223 1.518828 0.009131 0.000295 148502.000000 0 0 1
-23.957922 -30.407530 2.381961 38.784967 0.903481 1.509343 -0.005693 -0.004466 -163913.000000 0 0 1
-23.612422 -31.122230 3.539861 39.225888 0.921751 1.480430 -0.004193 -0.006812 600196.000000 0 0 1
-22.181722 -31.166230 3.668061 38.429382 0.952246 1.475201 -0.008706 -0.005730 475421.000000 0 0 1
-21.778122 -31.878630 4.954461 38.924033 0.971464 1.443165 -0.002153 -0.009990 -325391.000000 0 0 1
-22.087722 -31.087130 6.104861 38.620544 0.953051 1.412058 0.006897 -0.014167 -132046.000000 0 0 1
-21.589122 -31.693030 7.307461 39.037640 0.972803 1.382495 0.010800 -0.019322 -415619.000000 0 0 1
-22.046322 -31.073830 8.626061 39.064462 0.953735 1.348145 0.016061 -0.006922 -153186.000000 0 0 1
-21.394722 -29.865330 8.973261 37.817873 0.949166 1.331236 0.013093 -0.004350 -50296.200000 0 0 1
-22.066822 -29.198730 10.013161 37.944352 0.923628 1.303743 0.009290 -0.004236 -121931.000000 0 0 1
-21.416922 -27.914030 10.525261 36.724089 0.916349 1.280116 0.023831 -0.002646 -439282.000000 0 0 1
-20.193922 -28.129330 11.150561 36.378410 0.948161 1.259266 0.023191 -0.004783 -772836.000000 0 0 1
-19.838722 -27.162530 12.075961 35.738030 0.939977 1.226109 0.035609 -0.001470 -218744.000000 0 0 1
-18.502922 -27.538730 12.721961 35.532915 0.979188 1.204636 0.027424 -0.001206 -232237.000000 0 0 1
-18.591522 -28.455130 13.762161 36.670645 0.992061 1.186086 0.026907 0.001523 -115004.000000 0 0 1
-17.347722 -28.574530 14.422761 36.406912 1.025169 1.163471 0.025823 0.001214 57855.000000 0 0 1
-17.273522 -29.776530 15.402861 37.712921 1.045134 1.150070 0.024162 -0.005025 -273533.000000 0 0 1
-17.318322 -31.010130 14.797461 38.477491 1.061471 1.176050 0.026232 -0.001101 9225.000000 0 0 1
-17.194322 -32.089630 15.704161 39.648578 1.078904 1.163548 0.041046 -0.002115 107311.000000 0 0 1
-17.357322 -33.527430 15.111961 40.666160 1.093085 1.190053 0.023543 -0.002356 37297.600000 0 0 1
-17.090122 34.482784 16.021361 41.687152 -1.110664 1.176321 0.037967 0.000602 30297.600000 0 0 1
-16.957522 33.249084 15.382361 40.369247 -1.099169 1.179874 0.018628 -0.002221 -272245.000000 0 0 1
-16.872522 32.102084 16.413861 39.807545 -1.086887 1.145786 0.025049 -0.006466 286714.000000 0 0 1
-18.038322 31.915584 17.203761 40.496357 -1.056367 1.132031 0.030101 -0.009470 378490.000000 0 0 1
-17.747922 30.929684 18.179661 40.026668 -1.049853 1.099335 0.018405 -0.002048 124618.000000 0 0 1
-18.483422 31.096184 19.528761 41.109391 -1.034508 1.075783 0.020092 -0.006400 -91308.700000 0 0 1
-17.956122 32.094984 20.334961 42.024052 -1.060713 1.065704 0.018885 -0.002192 -353546.000000 0 0 1
-18.701922 32.205684 21.479661 42.992369 -1.044687 1.047641 0.018901 0.001460 -373849.000000 0 0 1
-18.061522 33.278284 22.380961 43.983749 -1.073543 1.036952 0.000767 0.012065 566549.000000 0 0 1
-16.871722 32.879184 23.067361 43.563733 -1.096690 1.012775 0.001408 0.005853 249507.000000 0 0 1
-16.606722 33.377584 24.368761 44.538554 -1.109118 0.991854 -0.000189 0.000957 24502.500000 0 0 1
-17.510322 32.853884 25.545961 45.150694 -1.081117 0.969401 -0.005616 0.006118 -174494.000000 0 0 1
-18.798622 33.389584 25.538161 46.048346 -1.058021 0.982921 -0.012188 -0.000191 -474462.000000 0 0 1
-19.685322 32.633784 26.341761 46.328869 -1.028013 0.966015 -0.004147 0.002584 1719870.000000 0 0 1
-21.212422 32.983684 25.985361 47.043907 -0.999274 0.985599 0.028126 -0.000853 1479830.000000 0 0 1
-21.568722 32.480184 24.686561 46.147572 -0.984602 1.006350 0.028277 0.004126 1569620.000000 0 0 1
-22.956822 32.841284 24.413061 46.920818 -0.960726 1.023590 0.018671 -0.001378 1422970.000000 0 0 1
-23.344222 32.367984 22.967261 46.044914 -0.945975 1.048581 0.010079 -0.004370 -250178.000000 0 0 1
-22.706422 33.065284 21.951461 45.724842 -0.969042 1.070053 0.013025 -0.006554 -130573.000000 0 0 1
-22.704922 32.259984 20.742661 44.569923 -0.957517 1.086714 -0.003455 0.000006 -23045.000000 0 0 1
-22.250122 33.061084 19.516861 44.373540 -0.978422 1.115386 0.000499 0.003202 254795.000000 0 0 1
-20.874422 33.403684 19.497161 43.950960 -1.012259 1.111172 0.014882 0.009641 34368.900000 0 0 1
-20.556422 34.243084 18.363161 43.958628 -1.030150 1.139843 0.023333 0.010665 576750.000000 0 0 1
-19.187922 -34.104630 18.556761 43.308839 1.058316 1.127992 0.021984 0.004701 507121.000000 0 0 1
-19.416522 -32.880230 19.286261 42.779326 1.037375 1.103100 0.024322 -0.002807 387544.000000 0 0 1
-18.179722 -32.339630 19.700761 42.005642 1.058673 1.082635 0.021860 -0.001589 -88299.000000 0 0 1
-18.331622 -31.410630 20.968961 41.980631 1.042514 1.047785 0.015790 -0.001750 -51022.400000 0 0 1
-18.978222 -30.186530 20.645161 41.202211 1.009542 1.045962 0.023635 0.001457 293101.000000 0 0 1
-19.280522 -29.471730 21.840061 41.440435 0.991471 1.015703 0.028511 -0.001615 -424570.000000 0 0 1
-20.130422 -28.214630 21.618061 40.848988 0.951084 1.013116 0.025400 -0.000812 -270210.000000 0 0 1
-19.413922 -27.099430 21.035261 39.417784 0.949151 1.007887 0.025510 -0.001981 604040.000000 0 0 1
-20.216422 -25.933030 20.876961 38.949625 0.908642 1.005106 0.021348 0.003296 -367063.000000 0 0 1
-21.183422 -25.884430 19.680461 38.808010 0.884945 1.038952 0.022147 0.002062 -210312.000000 0 0 1
-22.513322 -26.209230 20.059961 39.952164 0.861109 1.044772 0.016340 0.004790 -145926.000000 0 0 1
-23.265122 -26.001130 18.897661 39.679293 0.840876 1.074400 0.017342 0.007547 -422868.000000 0 0 1
-24.792822 -25.915830 19.186761 40.674882 0.807541 1.079567 0.004938 0.008663 552508.000000 0 0 1
-25.475032 -27.081730 19.700961 42.077609 0.815959 1.083538 -0.000270 0.009066 180990.000000 0 0 1
-25.403312 -28.253030 18.882161 42.427561 0.838459 1.109572 0.006338 0.003679 -910330.000000 0 0 1
-26.201922 -29.495530 19.343261 43.939603 0.844463 1.114948 0.007194 0.002001 -627573.000000 0 0 1
-27.570332 -29.286930 19.372361 44.644550 0.815580 1.121952 -0.010394 0.001928 -641607.000000 0 0 1
-28.276572 -29.687730 18.163561 44.842399 0.809739 1.153759 -0.010695 0.002840 859739.000000 0 0 1
-29.797372 -29.329230 18.363461 45.665127 0.777481 1.156951 -0.011317 0.002916 861514.000000 0 0 1
-30.076332 -27.956730 18.013761 44.840385 0.748890 1.157390 -0.013742 0.008298 643356.000000 0 0 1
-31.476372 -27.675630 18.124661 45.664054 0.721233 1.162645 -0.017358 0.024441 464783.000000 0 0 1
-32.063622 -26.415530 17.467961 45.066459 0.689114 1.172765 -0.020113 0.012758 -268639.000000 0 0 1
-32.237992 -26.590930 16.055861 44.767805 0.689700 1.203978 0.000243 -0.005916 102700.000000 0 0 1
-32.725302 -25.435230 15.410461 44.219663 0.660705 1.214828 0.003382 -0.007439 -75251.300000 0 0 1
-31.744482 -24.251830 15.081161 42.700173 0.652382 1.209820 -0.019030 -0.001569 -116820.000000 0 0 1
-31.255992 -23.664530 16.212161 42.423828 0.648042 1.178677 -0.031151 0.004941 -113387.000000 0 0 1
-30.854412 -22.305930 15.912361 41.264422 0.625957 1.174917 -0.024890 0.004934 -367877.000000 0 0 1
-31.891022 -21.218930 16.228861 41.601156 0.587096 1.170050 -0.019211 -0.002083 -174153.000000 0 0 1
-32.051002 -20.888330 17.601261 42.111678 0.577585 1.139591 -0.014069 0.003664 423866.000000 0 0 1
-32.865832 -19.695030 17.704161 42.207753 0.539872 1.137954 -0.006810 0.000876 265293.000000 0 0 1
-33.276602 -19.233730 19.119261 42.928018 0.524083 1.109198 -0.000046 0.005628 -352001.000000 0 0 1
-34.332814 -19.995630 19.632461 44.317049 0.527382 1.111854 0.009038 0.008794 85703.100000 0 0 1
-34.500739 -19.795130 21.049461 45.002533 0.520902 1.084065 0.005238 0.019525 -449406.000000 0 0 1
34.487720 -19.902430 21.596061 45.297896 -0.523402 1.073835 0.003858 0.025713 -33575.700000 0 0 1
34.018583 -21.255630 21.749661 45.630183 -0.558473 1.073955 0.006532 0.026196 -194349.000000 0 0 1
34.672108 -22.004030 22.726461 46.934257 -0.565496 1.065326 0.004735 0.035853 -580449.000000 0 0 1
34.019973 -23.331630 23.192761 47.324705 -0.601147 1.058618 0.009471 0.035213 -239976.000000 0 0 1
32.875463 -23.261130 24.007561 46.885384 -0.615777 1.033229 0.013152 0.020742 -70330.100000 0 0 1
32.609283 -24.569830 24.532061 47.632593 -0.645713 1.029757 0.021666 0.010836 -585741.000000 0 0 1
31.953813 -24.483430 25.861361 47.846573 -0.653797 0.999758 0.022742 0.003617 -480953.000000 0 0 1
30.609343 -24.093030 25.818361 46.733219 -0.666834 0.985480 0.013899 0.006593 -320716.000000 0 0 1
29.914403 -24.197330 27.042861 47.028700 -0.680136 0.958157 0.007588 0.013649 1270860.000000 0 0 1
28.428383 -24.713130 26.879361 46.275391 -0.715599 0.951016 0.005520 0.009491 1406030.000000 0 0 1
27.428583 -23.818430 26.405761 44.910010 -0.715068 0.942249 -0.001256 0.014606 190306.000000 0 0 1
26.246973 -24.472230 25.993961 44.311168 -0.750421 0.943913 0.001392 0.018764 235775.000000 0 0 1
25.231463 -23.475730 25.355961 42.786229 -0.749367 0.936489 -0.004811 0.015717 -390453.000000 0 0 1
25.492043 -22.994530 24.029761 41.904917 -0.733934 0.960103 0.007712 0.008435 9674.210000 0 0 1
26.602913 -22.137530 23.813561 42.010367 -0.694038 0.968120 0.011518 0.011992 200008.000000 0 0 1
26.654703 -21.545330 22.396461 40.942349 -0.679789 0.991991 0.009452 0.007083 282558.000000 0 0 1
25.636513 -20.547630 22.202061 39.653088 -0.675654 0.976522 0.006995 0.001793 448610.000000 0 0 1
25.755763 -19.998730 20.927061 38.745973 -0.660232 1.000229 0.010180 -0.002173 -555646.000000 0 0 1
24.869463 -18.798030 20.616161 37.374888 -0.647246 0.986510 0.015707 0.002504 -282805.000000 0 0 1
25.148463 -17.657730 21.355761 37.420705 -0.612160 0.963446 0.011391 -0.004736 125365.000000 0 0 1
24.607863 -17.693530 22.655061 37.839922 -0.623377 0.928909 0.012373 -0.001239 -446684.000000 0 0 1
24.870263 -16.384830 23.423861 37.890235 -0.582545 0.904342 0.009640 0.006304 -534253.000000 0 0 1
23.878163 -15.423730 23.269861 36.736148 -0.573512 0.884816 0.011867 0.005473 -341840.000000 0 0 1
24.158763 -14.221730 23.968161 36.883278 -0.532053 0.863425 0.016702 0.010695 377607.000000 0 0 1
22.971263 -13.226330 23.810561 35.630851 -0.522418 0.838933 0.017571 0.012460 1295890.000000 0 0 1
21.756763 -13.611730 24.464461 35.456252 -0.559054 0.809321 0.022565 0.010683 707534.000000 0 0 1
20.597863 -12.855230 24.128061 34.229990 -0.557955 0.788541 0.025975 0.015477 1067540.000000 0 0 1
19.292463 -13.528130 24.688261 34.127989 -0.611540 0.762079 0.026496 0.014074 395153.000000 0 0 1
18.856263 -14.602730 23.872961 33.744876 -0.658950 0.784906 0.034437 0.005655 497471.000000 0 0 1
17.719063 -15.284530 24.430261 33.829273 -0.711766 0.763872 0.019944 0.008273 740020.000000 0 0 1
17.184163 -16.444330 23.451461 33.401833 -0.763402 0.792453 0.018765 0.005288 32312.200000 0 0 1
17.679063 -17.743930 23.766861 34.529118 -0.787229 0.811635 0.015696 0.003092 181037.000000 0 0 1
17.261063 -18.715430 22.823861 34.192693 -0.825802 0.839941 0.019951 0.006790 -41760.000000 0 0 1
17.707163 -20.127230 23.198761 35.451820 -0.849276 0.857441 0.013292 0.009181 -560010.000000 0 0 1
16.983363 -20.638130 24.239861 36.082376 -0.882240 0.834171 0.005935 0.005929 -93300.600000 0 0 1
17.440263 -21.919330 24.690261 37.339373 -0.898709 0.848327 0.013130 0.002888 -80649.100000 0 0 1
17.030763 -23.122230 23.780761 37.285507 -0.935957 0.879156 0.014871 0.000841 71592.400000 0 0 1
17.725963 -23.196430 22.557661 36.893525 -0.918289 0.912935 0.023000 -0.000834 607988.000000 0 0 1
18.937463 -23.973830 22.639861 38.025456 -0.902231 0.933049 0.027233 -0.001408 723153.000000 0 0 1
19.759363 -24.085730 21.342361 37.763093 -0.883754 0.970164 0.028191 0.004956 -243414.000000 0 0 1
19.225663 -25.024230 20.449861 37.603657 -0.915697 0.995806 0.033144 -0.000260 263925.000000 0 0 1
20.206963 -25.425530 19.502561 37.883094 -0.899264 1.030011 0.038864 0.000948 368698.000000 0 0 1
19.556663 -26.225930 18.355861 37.512666 -0.930053 1.059481 0.041602 -0.008343 266846.000000 0 0 1
18.952163 -27.481430 18.724161 38.275419 -0.967060 1.059629 0.044956 -0.015119 174261.000000 0 0 1
18.198963 -27.979830 17.629461 37.747464 -0.994118 1.084859 0.038006 -0.020202 -76166.600000 0 0 1
17.262563 -29.165330 17.924361 38.339213 -1.036364 1.084313 0.042253 -0.017550 120425.000000 0 0 1
16.291063 -28.862630 18.902761 38.154482 -1.056939 1.052470 0.043346 -0.016253 744115.000000 0 0 1
15.347863 -29.963630 19.126661 38.719571 -1.097423 1.054136 0.048995 -0.012767 863387.000000 0 0 1
14.089563 -29.650630 19.957961 38.418692 -1.127196 1.024547 0.040138 -0.003081 -398426.000000 0 0 1
13.270663 -28.770630 19.272261 37.084764 -1.138620 1.024318 0.043450 -0.015826 -108184.000000 0 0 1
11.989163 -28.712730 19.918461 36.944634 -1.175248 1.001376 0.015593 -0.007208 495381.000000 0 0 1
10.899263 -28.202130 18.976961 35.697046 -1.202008 1.010294 0.017383 -0.013016 -513263.000000 0 0 1
10.871363 -29.096030 17.897061 35.847877 -1.213221 1.048063 0.005835 -0.011927 934.239000 0 0 1
10.359863 -28.557730 16.698461 34.665679 -1.222791 1.068203 0.017929 -0.007990 -241668.000000 0 0 1
10.243363 -29.623130 15.612861 35.017392 -1.237878 1.108661 0.013865 -0.010996 249770.000000 0 0 1
9.204163 -30.600430 15.741961 35.621795 -1.278619 1.113059 0.014490 -0.005793 353074.000000 0 0 1
9.252363 -31.480430 14.603661 35.915047 -1.284937 1.152049 0.018501 -0.002434 -194246.000000 0 0 1
8.111863 -32.484230 14.317961 36.414716 -1.326084 1.166696 0.019832 -0.003042 -259229.000000 0 0 1
8.065363 -33.389730 15.333261 37.616925 -1.333784 1.150955 0.012103 -0.002816 615872.000000 0 0 1
7.031363 -34.367930 15.032361 38.164991 -1.368990 1.165949 0.010577 -0.000373 820393.000000 0 0 1
6.953763 33.494784 16.106361 37.810980 1.366097 1.130762 0.019831 -0.002173 -118430.000000 0 0 1
8.025863 32.599784 15.987961 37.185686 1.329403 1.126360 0.011263 -0.000950 -536136.000000 0 0 1
8.050763 31.574884 16.959361 36.734289 1.321142 1.090912 0.016195 -0.002955 -564950.000000 0 0 1
9.330363 30.780684 17.171861 36.460650 1.276476 1.080407 0.001326 -0.001851 -739757.000000 0 0 1
9.785263 30.103684 16.023561 35.478693 1.256517 1.102195 0.021070 -0.000950 -1344490.000000 0 0 1
10.959163 29.440484 16.248061 35.367285 1.214440 1.093466 0.009925 0.001449 -1345600.000000 0 0 1
11.606963 28.769184 15.012061 34.463742 1.187318 1.120103 0.003295 0.001915 -42563.600000 0 0 1
10.751863 27.998084 14.195061 33.181245 1.204140 1.128735 0.001151 0.000733 -145046.000000 0 0 1
11.500363 27.354184 13.169661 32.464591 1.172808 1.153093 0.003496 0.001140 -84270.800000 0 0 1
-8.710222 -9.082616 19.278677 23.022364 0.806325 0.578307 -0.016959 0.000449 -202540.000000 0 1 0
-9.082122 -9.285316 17.930277 22.140390 0.796460 0.626909 -0.004425 -0.004593 101918.000000 0 1 0
-9.036322 -10.654216 17.547877 22.429789 0.867380 0.672371 -0.000078 -0.008456 -419765.000000 0 1 0
-9.457822 -10.791016 16.112477 21.575642 0.851144 0.727574 0.005609 -0.013609 337126.000000 0 1 0
-10.863822 -10.679016 15.885377 22.009298 0.776820 0.764458 0.007146 -0.013149 815109.000000 0 1 0
-11.375922 -11.141216 14.618977 21.616031 0.774975 0.828065 0.007632 -0.014347 182808.000000 0 1 0
-11.283122 -12.682916 14.370077 22.241050 0.843739 0.868325 -0.004835 -0.015701 -712336.000000 0 1 0
-10.051322 -13.136216 13.879077 21.592082 0.917662 0.872667 -0.003916 -0.015182 -203801.000000 0 1 0
-10.025022 -14.549316 13.823977 22.434037 0.967466 0.906881 0.004046 -0.011260 -174620.000000 0 1 0
-9.477822 -15.282516 15.086777 23.473288 1.015675 0.872751 -0.002702 -0.012045 -184053.000000 0 1 0
-10.358722 -15.144116 16.177577 24.461426 0.970883 0.848178 0.013736 0.000762 -174752.000000 0 1 0
-9.793522 -15.568816 17.395377 25.316008 1.009292 0.813266 -0.002472 0.002266 242359.000000 0 0 1
-10.848422 -15.469116 18.560077 26.485057 0.959201 0.794312 0.013488 0.008914 361109.000000 0 0 1
-11.177422 -14.131016 18.824177 26.057053 0.901577 0.763498 0.012995 -0.000476 55938.000000 0 0 1
-12.413922 -13.682916 18.314677 26.014516 0.833986 0.789757 0.008389 -0.003198 1303860.000000 0 0 1
-13.729622 -13.872216 19.216577 27.390103 0.790564 0.793172 0.002665 0.003178 1175310.000000 0 0 1
-14.230622 -15.210916 19.250977 28.363404 0.818682 0.824770 0.010394 0.007155 124982.000000 0 0 1
-15.239722 -15.185416 20.260377 29.552138 0.783613 0.815395 0.017645 0.004717 293054.000000 0 0 1
-15.888222 -16.599716 20.492277 30.788303 0.807295 0.842517 0.024122 -0.003504 -177913.000000 0 0 1
-16.850122 -16.996816 19.542977 30.898969 0.789732 0.886046 0.023310 0.002288 -171769.000000 0 0 1
-17.178522 -18.363316 19.811077 32.012369 0.818721 0.903510 0.024365 -0.002468 222601.000000 0 0 1
-18.511822 -18.803116 19.122677 32.587137 0.793204 0.943674 0.030329 0.004167 146453.000000 0 0 1
-18.656122 -18.879616 17.719277 31.913376 0.791352 0.982156 0.022174 0.005316 -15274.300000 0 0 1
-18.495622 -17.660916 17.021677 30.720245 0.762316 0.983531 0.023781 0.004279 -769905.000000 0 0 1
-18.245822 -17.848816 15.566077 29.896371 0.774400 1.023163 0.014989 -0.003699 -520253.000000 0 0 1
-19.099322 -18.668716 14.805777 30.537126 0.773997 1.064610 0.020177 -0.000689 -265564.000000 0 0 1
-18.791022 -18.640916 13.456477 29.692811 0.781388 1.100456 0.011450 -0.004267 150062.000000 0 0 1
-19.157322 -19.992716 12.716877 30.470160 0.806733 1.140263 0.015793 -0.003946 -102530.000000 0 0 1
-18.163922 -20.913116 13.034377 30.613420 0.855636 1.130980 0.010983 0.004355 -357754.000000 0 0 1
-18.365522 -22.154816 12.402377 31.336037 0.878643 1.163872 0.006254 0.002547 -784965.000000 0 0 1
-17.577822 -23.339116 12.951877 31.960058 0.925283 1.153542 0.009475 0.006775 -226228.000000 0 0 1
-17.437622 -24.522816 12.162977 32.455773 0.952674 1.186663 0.013064 0.000423 407621.000000 0 0 1
-16.516922 -24.319216 11.076677 31.415375 0.974186 1.210461 0.007316 0.003508 72584.100000 0 0 1
-16.541422 -25.470236 10.009177 31.977104 0.994814 1.252435 0.016736 0.005129 723045.000000 0 0 1
-17.796022 -25.389346 9.308177 32.372202 0.959450 1.279143 0.023507 0.006931 614771.000000 0 0 1
-17.948422 -26.525456 8.457877 33.125238 0.975915 1.312607 0.013790 0.008727 -70023.700000 0 0 1
-19.249422 -26.312666 7.670077 33.492189 0.939198 1.339735 0.018338 0.003514 -167123.000000 0 0 1
-19.276222 -25.217936 6.770677 32.455494 0.918152 1.360639 0.016377 0.000048 -295744.000000 0 0 1
-20.259022 -25.385416 5.797277 32.991753 0.897241 1.394160 0.018024 -0.004094 -444961.000000 0 0 1
-20.147122 -24.261616 4.736277 31.889887 0.877785 1.421725 0.019442 -0.007099 -145080.000000 0 0 1
-21.049722 -24.210516 3.661777 32.290068 0.855121 1.457149 0.012977 -0.007098 -385008.000000 0 0 1
-21.196922 -22.934116 3.088077 31.381833 0.824742 1.472233 0.022353 -0.002837 64383.600000 0 0 1
-21.894422 -22.922316 1.706977 31.744481 0.808330 1.516998 0.001517 -0.000114 -118368.000000 0 0 1
-21.240022 -23.686916 0.713177 31.823217 0.839808 1.548384 0.011273 -0.005689 -10656.700000 0 0 1
-21.492922 -23.244116 -0.596223 31.663704 0.824522 1.589627 0.000076 -0.002946 -582863.000000 0 0 1
-20.736022 -24.015416 -1.641123 31.771310 0.858548 1.622474 0.003217 -0.002923 -681131.000000 0 0 1
-19.368522 -23.670716 -1.669123 30.630515 0.885027 1.625316 0.008558 0.002337 63726.900000 0 0 1
-18.609422 -24.121016 -2.788723 30.592662 0.913675 1.662080 0.008042 -0.000151 19156.000000 0 0 1
-18.300222 -25.631826 -2.900823 31.627574 0.950759 1.662644 0.012156 -0.003089 -377965.000000 0 0 1
-19.406022 -26.516446 -3.140923 33.008802 0.939014 1.666095 0.013135 -0.007078 154093.000000 0 0 1
-19.033922 -27.823956 -3.590323 33.902111 0.970832 1.676898 0.018576 -0.006039 -986988.000000 0 0 1
-20.192022 -28.613076 -4.152223 35.265661 0.956260 1.688811 0.012614 -0.007264 -577798.000000 0 0 1
-20.690322 -28.050026 -5.340323 35.262054 0.935264 1.722828 0.005052 -0.006100 42322.600000 0 0 1
-21.592722 -28.999986 -5.923023 36.637782 0.930775 1.733173 0.000897 -0.009531 -187340.000000 0 0 1
-22.008622 -28.642316 -7.329723 36.857653 0.915626 1.770997 -0.011230 0.012266 -85648.500000 0 0 1
-20.943022 -28.450766 -8.276023 36.284278 0.936241 1.800910 0.009988 0.010343 450918.000000 0 0 1
-21.348522 -28.576666 -9.622423 36.945585 0.929179 1.834283 0.007330 0.017374 339629.000000 0 0 1
-22.365622 -27.493726 -10.197923 36.879855 0.887889 1.850965 0.003368 0.023356 267702.000000 0 0 1
-21.899122 -26.186446 -10.465823 35.704831 0.874323 1.868286 -0.006343 0.019711 53569.100000 0 0 1
-21.658922 -25.365456 -9.309423 34.629188 0.864057 1.842976 -0.015166 0.016643 -396330.000000 0 0 1
-21.224922 -23.885816 -9.654623 33.380253 0.844316 1.864220 -0.011085 0.012152 1119640.000000 0 0 1
-22.320522 -23.148116 -10.262923 33.754534 0.803598 1.879733 -0.028951 0.023024 1019860.000000 0 0 1
-21.786222 -21.889516 -10.577323 32.644604 0.787763 1.900766 -0.026080 0.020710 -54278.200000 0 0 1
-22.858022 -20.876816 -10.969723 32.843043 0.740129 1.911345 -0.030379 0.018942 -532183.000000 0 0 1
-23.565022 -21.322116 -12.166623 34.028953 0.735472 1.936426 -0.042887 0.028496 1008070.000000 0 0 1
-24.836922 -20.646016 -12.257023 34.545120 0.693515 1.933509 -0.037665 0.019207 536114.000000 0 0 1
-25.004422 -19.076716 -12.184223 33.728290 0.651727 1.940401 -0.030590 0.008068 -1533380.000000 0 0 1
-24.559922 -18.438216 -13.351823 33.487741 0.643977 1.980904 -0.033743 0.012440 248346.000000 0 0 1
-24.522122 -17.001116 -13.329123 32.680850 0.606213 1.990902 -0.018387 0.005910 -4471.740000 0 0 1
-23.456922 -16.404416 -12.366823 31.181251 0.610284 1.978618 -0.036236 0.011893 -346058.000000 0 0 1
-23.714322 -16.794016 -11.030123 31.081694 0.616195 1.933577 -0.023680 0.007457 -216077.000000 0 0 1
-22.641022 -16.580916 -10.171723 29.849734 0.632102 1.918526 -0.030331 0.015941 -406104.000000 0 0 1
-23.071922 -16.779316 -8.706523 29.827212 0.628789 1.867008 -0.034227 0.002626 57685.300000 0 0 1
-23.299022 -18.176316 -8.516923 30.753226 0.662508 1.851409 -0.035031 0.013315 -203934.000000 0 0 1
-24.108922 -18.328416 -7.402723 31.176454 0.650019 1.810532 -0.014431 0.009469 -193714.000000 0 0 1
-24.546422 -19.780516 -7.122123 32.319039 0.678292 1.792989 -0.006521 0.005623 19211.200000 0 0 1
-25.144012 -20.312016 -8.320823 33.377170 0.679495 1.822750 -0.015449 -0.005902 321973.000000 0 0 1
-25.843022 -21.511416 -7.987423 34.560118 0.694180 1.804022 -0.007377 0.003082 435675.000000 0 0 1
-24.989822 -22.809416 -8.286423 34.834257 0.739814 1.810980 -0.024445 0.015870 -19492.300000 0 0 1
-25.739862 -23.932216 -8.170423 36.083892 0.749023 1.799206 -0.007352 0.014130 -818232.000000 0 0 1
-25.074282 -25.018006 -8.745423 36.484280 0.784275 1.812857 -0.017217 0.020423 -355093.000000 0 0 1
-25.718492 -26.448036 -8.499923 37.857472 0.799382 1.797251 0.002915 0.009840 49809.800000 0 0 1
-25.568682 -27.071096 -7.260423 37.938312 0.813932 1.763359 0.009503 -0.009730 35074.600000 0 0 1
-25.920632 -28.471526 -7.314623 39.191972 0.832262 1.758533 0.021096 -0.012916 18239.400000 0 0 1
-25.437242 -29.075746 -6.010523 39.097042 0.852045 1.725142 0.028696 -0.012204 -231163.000000 0 0 1
-26.004152 -28.349966 -4.938123 38.785585 0.828529 1.698461 0.013627 -0.009025 488556.000000 0 0 1
-25.209782 -28.409226 -3.735323 38.165035 0.844997 1.668826 0.010991 -0.014274 272596.000000 0 0 1
-25.572282 -29.572366 -2.828023 39.197757 0.857809 1.643007 0.017206 -0.010433 -355670.000000 0 0 1
-25.082302 -30.811546 -3.321923 39.868640 0.887544 1.654215 0.028087 -0.013399 -40499.000000 0 0 1
-25.255202 -31.947626 -2.484223 40.800091 0.901863 1.631722 0.022815 -0.012622 -377175.000000 0 0 1
-24.260822 -32.110036 -1.335523 40.266929 0.923751 1.603969 0.017833 -0.010554 658325.000000 0 0 1
-22.884822 -32.322616 -1.729523 39.641618 0.954713 1.614439 0.008894 -0.019563 1179520.000000 0 0 1
-22.015222 -32.470936 -0.578223 39.234756 0.974990 1.585534 -0.008239 -0.013120 604177.000000 0 0 1
-21.178522 -31.160216 -0.242023 37.676882 0.973848 1.577220 0.000132 -0.010477 -468495.000000 0 0 1
-21.870322 -29.952366 0.013577 37.087133 0.940108 1.570430 -0.003054 -0.010883 -276238.000000 0 0 1
-21.918322 -29.120926 -1.091723 36.464134 0.925591 1.600740 0.006893 -0.016104 -173589.000000 0 0 1
-22.521122 -27.773176 -0.603823 35.761919 0.889447 1.587682 -0.006352 -0.009108 820522.000000 0 0 1
-23.906522 -27.937766 -0.247223 36.770936 0.862999 1.577520 -0.001310 -0.009171 498358.000000 0 0 1
-24.629922 -26.802386 0.136177 36.400818 0.827612 1.567055 0.003694 -0.004036 -2099.870000 0 0 1
-24.210622 -25.939206 1.355077 35.508209 0.819853 1.532625 -0.005151 0.005439 -570779.000000 0 0 1
-24.201222 -26.655056 2.581877 36.095114 0.833611 1.499205 -0.006447 0.009431 -190845.000000 0 0 1
-23.697422 -25.927996 3.676677 35.317797 0.830316 1.466505 -0.000924 0.003458 -9300.840000 0 0 1
-24.566622 -24.765416 4.306977 35.148184 0.789428 1.447950 0.000974 0.005855 111509.000000 0 0 1
-24.721222 -23.708516 3.341377 34.415075 0.764490 1.473553 -0.005587 0.009069 68323.200000 0 0 1
-25.612982 -22.742716 3.887477 34.472721 0.726110 1.457786 -0.018032 0.013583 -20018.000000 0 0 1
-25.768102 -21.534516 2.903677 33.707000 0.696136 1.484545 -0.014408 0.013138 -364492.000000 0 0 1
-24.623422 -20.741416 2.889277 32.324405 0.700033 1.481293 -0.012893 0.011684 -339555.000000 0 0 1
-24.693822 -19.777016 1.886277 31.693426 0.675283 1.511245 -0.016851 0.010575 330292.000000 0 0 1
-23.397622 -18.937316 1.886377 30.160058 0.680428 1.508210 -0.005327 0.010900 -887208.000000 0 0 1
-22.214922 -19.554516 1.630877 29.640203 0.721791 1.515746 -0.000481 0.004118 -1150120.000000 0 0 1
-21.129122 -18.679716 1.909377 28.266894 0.723946 1.503197 -0.001763 0.006795 638345.000000 0 0 1
-19.769622 -19.428116 1.686477 27.769297 0.776686 1.510027 0.004150 -0.002342 247180.000000 0 0 1
-19.524622 -19.633816 0.336677 27.691352 0.788187 1.558638 -0.009156 0.002257 1114370.000000 0 0 1
-18.332522 -20.489316 0.252077 27.494672 0.840897 1.561628 0.004206 0.004443 1318120.000000 0 0 1
-18.012522 -20.900016 -1.207523 27.617381 0.859467 1.614534 0.004747 0.002199 -149761.000000 0 0 1
-17.462222 -19.876316 -1.958623 26.529858 0.849963 1.644691 -0.005973 0.001424 -229217.000000 0 0 1
-17.317022 -20.416616 -3.246023 26.967650 0.867358 1.691456 -0.001293 0.005896 -42360.800000 0 0 1
-16.826222 -19.504616 -4.377323 26.128773 0.858987 1.739119 0.003000 0.011753 -336523.000000 0 0 1
-15.491822 -19.132716 -4.181323 24.970800 0.890167 1.739037 0.027149 -0.001614 -599201.000000 0 1 0
-15.035022 -18.760516 -5.458523 24.653688 0.895191 1.794054 0.040806 0.006048 -664456.000000 0 1 0
-13.603622 -18.228016 -5.478423 23.395133 0.929666 1.807160 0.062479 -0.012920 139169.000000 0 1 0
-12.613722 -19.258416 -5.320523 23.628384 0.990934 1.797919 0.046069 -0.020244 898415.000000 0 1 0
-11.381022 -19.081316 -6.024023 23.019843 1.032992 1.835567 0.043222 -0.022341 643903.000000 0 1 0
-10.443522 -20.295216 -5.916923 23.579078 1.095552 1.824447 0.039328 -0.018404 227097.000000 0 1 0
-10.840722 -21.417016 -6.692623 24.919893 1.102222 1.842700 0.037775 -0.013810 479704.000000 0 1 0
-9.688522 -22.249116 -6.888323 25.225773 1.160102 1.847376 0.036744 -0.010291 633818.000000 0 0 1
-9.928922 -23.463216 -7.846323 26.658410 1.170477 1.869549 0.037351 -0.001015 -635973.000000 0 0 1
-10.561622 -23.179716 -9.063423 27.036878 1.143262 1.912640 0.030274 0.005406 -46446.200000 0 0 1
-10.538922 -24.244016 -10.002623 28.264707 1.160737 1.932524 0.041639 0.002676 -91658.200000 0 0 1
-11.217322 -23.790416 -11.322623 28.635887 1.130203 1.977299 0.062617 -0.004438 99726.600000 0 0 1
-10.502222 -22.881116 -12.173323 27.964834 1.140491 2.021177 0.045919 0.000281 32272.600000 0 0 1
-11.308722 -22.454416 -13.299523 28.442316 1.104249 2.057366 0.045640 -0.008629 112585.000000 0 0 1
-10.703522 -21.297216 -14.136423 27.712367 1.105088 2.106112 0.048815 -0.001073 -190076.000000 0 0 1
-10.564322 -20.073916 -13.419023 26.355971 1.086353 2.104988 0.057944 -0.005640 -118016.000000 0 0 1
-10.449522 -18.975616 -14.277223 25.944279 1.067430 2.153524 0.052333 0.002253 -164215.000000 0 0 1
-10.281922 -17.683516 -13.470823 24.492606 1.044135 2.153155 0.052312 -0.000747 -437612.000000 0 1 0
-11.371922 -17.201316 -12.730023 24.233435 0.986652 2.123874 0.058146 -0.007279 -356690.000000 0 1 0
-11.056622 -16.174816 -11.807523 22.875559 0.971182 2.113162 0.051149 -0.010301 51735.400000 0 1 0
-10.682522 -14.763816 -12.373223 22.026875 0.944432 2.167275 0.048974 -0.000647 -597491.000000 0 1 0
-11.755422 -14.122416 -12.942523 22.475353 0.876612 2.184445 0.041331 0.008185 -664821.000000 0 1 0
-11.671722 -13.969216 -14.362123 23.187037 0.874762 2.238779 0.044513 -0.000372 -771470.000000 0 1 0
-12.843522 -13.144116 -14.849123 23.626687 0.796964 2.250406 0.034426 -0.001579 -774294.000000 0 1 0
-12.897822 -11.841816 -14.427923 22.688045 0.742739 2.260004 0.019325 0.006549 -234425.000000 0 1 0
-13.970022 -11.108816 -14.958423 23.287803 0.671801 2.268329 0.003359 0.000704 -460514.000000 0 1 0
-14.320222 -9.728716 -14.344423 22.482864 0.596745 2.262715 0.002979 -0.006612 197968.000000 0 1 0
-13.375822 -8.675716 -14.585523 21.608289 0.575399 2.311757 0.013524 -0.002931 390739.000000 0 1 0
-13.492722 -7.986916 -15.828923 22.280018 0.534474 2.360939 0.018319 -0.000545 144292.000000 0 1 0
-12.357522 -6.920516 -15.984523 21.356659 0.510507 2.416527 0.016425 0.007846 1157350.000000 0 1 0
-11.071422 -7.536016 -15.768123 20.688201 0.597637 2.437470 0.024305 -0.002693 512026.000000 0 1 0
-10.006122 -6.689716 -16.136923 20.131445 0.589314 2.500726 0.021112 0.016055 246524.000000 0 1 0
11.026178 22.086484 16.392477 29.632797 1.107767 0.984611 0.036191 0.003135 -118055.000000 0 0 1
12.140978 22.152884 17.257177 30.593525 1.069448 0.971478 0.041891 -0.007918 -97645.300000 0 0 1
12.622278 20.831384 17.457377 29.967123 1.026031 0.948933 0.037462 -0.003159 -324053.000000 0 0 1
13.784678 20.853084 18.445277 31.066005 0.986701 0.935092 0.043322 -0.015196 -158107.000000 0 0 1
14.852178 21.703584 18.072777 31.910155 0.970672 0.968708 0.026902 -0.009058 -50616.800000 0 0 1
16.021178 21.344084 18.803277 32.646765 0.926902 0.957017 0.027397 -0.009061 -578777.000000 0 0 1
17.299078 21.776684 18.156377 33.213492 0.899488 0.992430 0.025652 -0.006515 -1866600.000000 0 0 1
17.608678 23.132084 18.465177 34.440116 0.920151 1.004923 0.030247 -0.008048 -159222.000000 0 0 1
18.888378 23.545484 18.053277 35.172168 0.894710 1.031791 0.027701 -0.006989 1012270.000000 0 0 1
20.153778 22.913784 18.785577 35.834538 0.849396 1.018984 0.036411 -0.006052 263142.000000 0 0 1
20.345978 21.512484 18.511977 34.920467 0.813259 1.012056 0.035593 -0.006036 562111.000000 0 0 1
21.646178 21.097084 18.955977 35.678747 0.772553 1.010667 0.041998 -0.012802 406147.000000 0 0 1
21.806678 19.580984 18.800677 34.819701 0.731673 1.000426 0.031364 -0.016801 -103300.000000 0 0 1
21.944678 19.169384 17.454177 33.965901 0.717998 1.031102 0.027950 -0.011250 18193.600000 0 0 1
21.719578 17.765784 17.350277 32.990836 0.685598 1.017009 0.016293 -0.008418 731074.000000 0 0 1
22.800978 16.815584 18.078777 33.607895 0.635449 1.002814 -0.003441 -0.004279 1223870.000000 0 0 1
24.016678 16.737284 17.328677 34.017944 0.608644 1.036311 0.007057 -0.011127 379009.000000 0 0 1
24.898078 15.733984 17.815677 34.421953 0.563571 1.026791 0.005993 -0.007683 523035.000000 0 0 1
26.273878 15.764584 17.068577 35.073852 0.540427 1.062549 0.018216 -0.015455 -1310100.000000 0 0 1
27.060278 16.860884 17.379777 36.312597 0.557222 1.071719 0.009221 -0.015687 614621.000000 0 0 1
28.467278 16.612184 17.434577 37.286928 0.528239 1.084247 0.023499 -0.019206 1087140.000000 0 0 1
29.214978 15.683984 16.419777 37.001505 0.492689 1.111007 0.023935 -0.019584 -1306150.000000 0 0 1
28.997678 16.014484 15.114977 36.411420 0.504583 1.142726 0.026091 -0.011453 -146264.000000 0 0 1
28.953178 14.937484 14.186877 35.534243 0.476301 1.160103 0.056961 -0.014668 66941.800000 0 0 1
28.114778 15.331784 12.953077 34.543980 0.499249 1.186428 0.046472 0.005842 45963.000000 0 0 1
28.808978 16.327884 12.201577 35.290728 0.515622 1.217764 0.035698 0.009797 909332.000000 0 0 1
28.021378 16.816484 11.056777 34.499914 0.540515 1.244553 0.021929 0.018079 662651.000000 0 0 1
26.939878 17.871084 11.436977 34.291939 0.585716 1.230764 0.018188 0.014537 -99491.400000 0 0 1
27.388678 19.134084 11.945977 35.481815 0.609794 1.227409 0.001370 0.012193 93296.600000 0 0 1
28.007378 19.165184 13.229177 36.424286 0.600105 1.199100 0.012539 0.017307 -861537.000000 0 0 1
27.172678 18.737784 14.398077 36.010604 0.603700 1.159466 0.003050 0.007478 -381467.000000 0 0 1
25.902478 19.349984 14.480177 35.426484 0.641599 1.149725 -0.003523 0.012821 326929.000000 0 0 1
25.169178 19.183084 15.702277 35.327605 0.651242 1.110207 -0.003279 0.002827 219955.000000 0 0 1
25.670678 19.991584 16.943077 36.683988 0.661662 1.090699 -0.001937 -0.012847 -106710.000000 0 0 1
25.703178 21.409184 16.929977 37.491741 0.694506 1.102277 -0.008413 -0.008664 359658.000000 0 0 1
24.403578 21.984984 16.824977 36.904660 0.733308 1.097409 0.004798 -0.005081 130104.000000 0 0 1
24.432078 23.563284 16.662877 37.812779 0.767299 1.114454 0.010821 0.004816 -42145.900000 0 0 1
24.416178 23.902084 15.301277 37.437794 0.774759 1.149754 0.029048 -0.001472 9495.470000 0 0 1
24.591878 25.309184 15.181977 38.416242 0.799772 1.164514 0.035054 -0.000223 -271969.000000 0 0 1
24.343078 25.772584 13.740077 38.021063 0.813915 1.201048 0.027860 -0.002784 316289.000000 0 0 1
22.948978 25.765584 13.432277 37.026301 0.843152 1.199551 0.039140 -0.001916 407280.000000 0 0 1
22.597078 26.079184 12.111777 36.571121 0.856813 1.233238 0.031505 -0.011832 -95835.400000 0 0 1
22.317478 24.841484 11.198477 35.221797 0.838868 1.247239 0.035779 -0.004392 602106.000000 0 0 1
20.941678 24.437384 11.381177 34.136063 0.862280 1.230882 0.030140 -0.005158 838953.000000 0 0 1
20.619378 23.170084 10.877677 32.868456 0.843582 1.233491 0.027271 0.005939 -39656.900000 0 0 1
20.466878 23.047884 9.333777 32.205860 0.844642 1.276762 0.034745 0.009781 -18215.600000 0 0 1
19.272778 23.513684 8.714777 31.627213 0.884193 1.291638 0.039389 -0.000615 232889.000000 0 0 1
19.468278 23.590884 7.326777 31.451952 0.880850 1.335685 0.022885 -0.010744 818647.000000 0 0 1
18.184478 24.056184 6.509877 30.850506 0.923519 1.358185 0.008057 -0.004352 -152698.000000 0 0 1
17.410978 22.938984 6.146877 29.446956 0.921552 1.360506 0.029083 -0.002095 110235.000000 0 0 1
16.689478 23.124284 4.917677 28.938810 0.945635 1.400034 0.044570 -0.014826 58062.200000 0 0 1
15.530578 24.138284 4.887777 29.116077 0.999075 1.402126 0.041472 -0.010152 -798074.000000 0 0 1
15.870178 25.541984 4.962477 30.477560 1.014835 1.407244 0.037778 -0.017498 -150931.000000 0 0 1
14.740378 26.228784 5.418577 30.571045 1.058793 1.392610 0.022687 -0.016333 -226838.000000 0 0 1
14.599478 27.565384 4.792577 31.558896 1.083726 1.418345 0.019574 -0.016282 -569631.000000 0 0 1
14.203278 27.437884 3.396977 31.082310 1.093127 1.461288 0.028446 -0.009765 410641.000000 0 0 1
13.797278 28.690084 2.863577 31.963821 1.122539 1.481088 0.031820 -0.004290 -422225.000000 0 0 1
12.886478 28.536884 1.665377 31.355837 1.146635 1.517659 0.050515 -0.008995 -166065.000000 0 0 1
13.573078 28.276384 0.411277 31.368001 1.123264 1.557685 0.079709 -0.013722 257868.000000 0 0 1
13.946978 26.925684 0.186677 30.324008 1.092868 1.564640 0.053035 -0.008304 895315.000000 0 0 1
15.037578 26.824684 -0.991223 30.768083 1.059861 1.603018 0.057326 -0.012795 693268.000000 0 0 1
14.622078 27.315784 -2.223623 31.062867 1.079311 1.642442 0.053399 -0.011304 -516305.000000 0 0 1
15.663478 27.426884 -3.167123 31.742860 1.051898 1.670737 0.042311 -0.004343 -199199.000000 0 0 1
15.204278 27.845684 -4.586423 32.056005 1.071015 1.714364 0.048599 0.002911 -605638.000000 0 0 1
14.279178 26.999484 -5.270623 30.994298 1.084321 1.741678 0.065411 -0.010143 -69445.100000 0 0 1
14.097678 27.407984 -6.599323 31.519727 1.095724 1.781728 0.052489 -0.014236 -225124.000000 0 0 1
12.885378 26.770584 -7.259123 30.584179 1.122199 1.810432 0.048800 -0.019205 -430786.000000 0 0 1
12.920478 25.373884 -7.564023 29.461622 1.099813 1.830446 0.047635 -0.018998 -917832.000000 0 0 1
11.673378 24.920884 -7.950723 28.644933 1.132732 1.852051 0.034677 -0.002220 -762632.000000 0 0 1
11.663978 23.475384 -8.465623 27.546484 1.109664 1.883173 0.029217 -0.004020 32022.900000 0 0 1
12.206578 23.308984 -9.760923 28.063943 1.088380 1.926031 0.021980 -0.006586 47207.000000 0 0 1
12.315378 21.972084 -10.031823 27.112331 1.059927 1.949816 0.023235 -0.004094 -98458.600000 0 0 1
12.622778 21.531184 -11.509223 27.484334 1.040544 2.002871 0.026068 -0.000018 103719.000000 0 0 1
12.190178 20.166584 -11.849223 26.376043 1.027094 2.036713 0.033075 -0.006358 -133469.000000 0 0 1
12.412378 19.796984 -13.215923 26.844894 1.010772 2.085534 0.033014 -0.003729 -10632.900000 0 0 1
13.852478 19.542784 -13.721523 27.606009 0.954170 2.090990 -0.003123 -0.002486 150619.000000 0 0 1
14.663678 20.691084 -13.584823 28.769634 0.954258 2.062573 -0.002858 0.005929 -1334840.000000 0 0 1
15.931678 20.500484 -14.098823 29.544289 0.910153 2.068273 0.006454 0.015940 -360603.000000 0 0 1
16.867078 21.683184 -13.647723 30.674405 0.909685 2.031884 -0.010248 0.013663 44796.000000 0 0 1
16.876978 22.876484 -14.417023 31.875013 0.935186 2.040137 -0.002768 0.007951 -55468.900000 0 0 1
15.735978 23.730484 -14.371823 31.895237 0.985258 2.038228 0.000659 0.007984 370992.000000 0 0 1
15.979078 25.158784 -15.035923 33.382246 1.004946 2.038028 0.010792 0.009119 190695.000000 0 0 1
16.291778 25.090384 -16.432923 34.131955 0.994897 2.073108 0.001102 0.004970 -165006.000000 0 0 1
15.095678 25.116784 -17.198323 33.978149 1.029627 2.101521 -0.007611 0.012102 -200954.000000 0 0 1
15.195378 25.084084 -18.724523 34.795381 1.026139 2.139016 -0.006927 0.011389 -61071.700000 0 0 1
15.573778 23.830984 -19.188123 34.331362 0.991958 2.163866 -0.002404 0.014977 -283270.000000 0 0 1
15.430378 23.777184 -20.581723 35.029393 0.995154 2.198831 0.000008 0.019721 -462767.000000 0 0 1
16.006578 22.505184 -21.203723 34.817980 0.952567 2.225580 -0.001262 0.017899 -354311.000000 0 0 1
15.033378 21.520084 -21.282823 33.794601 0.961028 2.252053 0.002734 0.022209 -376959.000000 0 0 1
15.624378 20.345384 -21.721423 33.613629 0.915902 2.273403 -0.003209 0.013591 354164.000000 0 0 1
14.555378 19.236284 -22.076523 32.699641 0.923045 2.311938 -0.005351 0.017424 82984.700000 0 0 1
14.126278 18.534484 -20.934223 31.326036 0.919557 2.302676 -0.003702 0.016362 17533.200000 0 0 1
13.384278 17.405484 -21.305623 30.594433 0.915265 2.341150 0.000201 0.009789 497961.000000 0 0 1
11.849578 17.462484 -21.610923 30.205676 0.974596 2.368077 0.019373 0.007124 606537.000000 0 0 1
11.058278 17.620284 -20.425123 29.153826 1.010338 2.347032 0.019498 0.005847 590899.000000 0 0 1
9.682778 17.828284 -20.723823 29.001392 1.073256 2.366820 0.028324 0.003051 621730.000000 0 0 1
8.665278 17.522284 -19.601323 27.682654 1.111535 2.357561 0.023784 -0.002448 -39361.900000 0 0 1
8.670078 16.140884 -19.418823 26.698110 1.077872 2.385246 0.017780 -0.001112 203876.000000 0 0 1
7.397278 15.683084 -18.987223 25.713683 1.130067 2.401505 0.028366 0.000341 492122.000000 0 0 1
7.137678 15.612584 -17.456723 24.483390 1.141992 2.364568 0.030784 -0.006254 69988.600000 0 1 0
7.146878 16.937084 -16.908123 24.976535 1.171498 2.314421 0.040527 -0.007904 -150193.000000 0 1 0
6.451678 17.036984 -15.668323 24.028719 1.208797 2.281103 0.035316 -0.017215 -8216.590000 0 1 0
6.133678 18.500084 -15.250423 24.747738 1.250653 2.234750 0.039474 -0.018057 433333.000000 0 1 0
7.286778 19.334684 -14.997623 25.531468 1.210382 2.198660 0.045684 -0.016307 240658.000000 0 0 1
7.774078 19.930984 -16.161623 26.811909 1.198897 2.217774 0.051195 -0.008327 40090.000000 0 0 1
9.032178 20.831584 -15.991623 27.771697 1.161680 2.184409 0.036773 0.002773 57727.900000 0 0 1
8.880778 22.092284 -15.277323 28.290172 1.188579 2.141260 0.045204 -0.002079 -224131.000000 0 0 1
8.632378 21.988084 -13.890623 27.403343 1.196691 2.102375 0.046182 -0.008198 -135814.000000 0 0 1
8.381278 23.320884 -13.193523 28.074517 1.225781 2.060027 0.045491 -0.010012 -10506.700000 0 0 1
7.074278 23.769984 -13.531423 28.251672 1.281530 2.070266 0.041292 -0.006350 192282.000000 0 0 1
6.473978 24.689284 -12.652723 28.487972 1.314352 2.031013 0.023240 -0.007186 -105880.000000 0 0 1
5.854978 24.174584 -11.377323 27.352052 1.333176 1.999793 0.016815 -0.000574 -425978.000000 0 0 1
6.710478 23.876584 -10.273223 26.845128 1.296816 1.963497 0.009452 -0.001282 -200198.000000 0 0 1
5.977178 23.383884 -9.181923 25.823253 1.320544 1.934318 0.008491 0.000385 32962.400000 0 0 1
6.768978 23.281184 -7.870023 25.490583 1.287848 1.884667 -0.002508 0.001186 -88901.000000 0 0 1
7.010078 24.451584 -7.138123 26.419196 1.291593 1.844384 -0.009620 0.001469 -762228.000000 0 0 1
8.112078 24.374784 -6.320223 26.455266 1.249520 1.812032 0.000431 0.004527 -690699.000000 0 0 1
8.445078 25.725284 -5.681623 27.665690 1.253601 1.777635 0.001055 -0.000197 -27029.400000 0 0 1
8.949178 26.702884 -6.573223 28.919527 1.247422 1.800094 0.019889 -0.011360 -63417.800000 0 0 1
9.366378 27.810284 -5.865523 29.925663 1.245933 1.768077 0.014846 -0.006697 21746.400000 0 0 1
9.597678 29.077384 -6.756023 31.356873 1.251982 1.787955 0.018428 -0.004826 416072.000000 0 0 1
10.717178 29.091684 -7.639023 31.930215 1.217830 1.812381 0.020427 -0.010889 48885.900000 0 0 1
10.800878 30.323284 -8.358423 33.256935 1.228617 1.824849 0.022856 -0.010572 197530.000000 0 0 1
12.193978 30.485584 -9.016123 34.049294 1.190297 1.838789 0.024542 -0.011139 -123690.000000 0 0 1
13.293778 30.454184 -8.178923 34.220997 1.159211 1.812135 0.021104 -0.004881 -1084430.000000 0 0 1
14.422478 30.901584 -8.885023 35.240025 1.134123 1.825676 0.015391 -0.007678 -505637.000000 0 0 1
15.598578 31.245384 -7.987123 35.824346 1.107766 1.795638 0.016205 -0.007669 -384707.000000 0 0 1
16.189678 30.117784 -7.383923 34.981551 1.077565 1.783477 0.023869 -0.007311 -338219.000000 0 0 1
17.379278 30.522984 -6.719323 35.760888 1.053193 1.759816 0.022234 0.004134 127928.000000 0 0 1
18.288478 29.331784 -6.371523 35.148517 1.013274 1.753078 0.018889 0.010505 -593792.000000 0 0 1
17.958478 28.496284 -5.260623 34.091337 1.008463 1.725725 0.035005 -0.002912 -313584.000000 0 0 1
18.913878 27.436384 -4.979023 33.693925 0.967239 1.719112 0.021948 0.000228 60779.000000 0 0 1
19.038078 26.372384 -6.101423 33.093480 0.945527 1.756227 0.021487 0.011150 -206783.000000 0 0 1
19.750578 26.733284 -7.269723 34.023560 0.934501 1.786124 0.015213 0.022057 256511.000000 0 0 1
19.574778 25.761184 -8.270623 33.394816 0.921017 1.821063 0.010755 0.012929 -428488.000000 0 0 1
20.263478 26.186484 -9.615323 34.478905 0.912227 1.853419 0.015291 0.001286 950765.000000 0 0 1
21.689578 26.216284 -9.690123 35.378381 0.879610 1.848242 0.001039 0.007789 527139.000000 0 0 1
22.327578 24.969584 -9.667523 34.863474 0.841200 1.851776 0.012006 0.008580 -1375280.000000 0 0 1
23.825778 25.139084 -9.571123 35.933934 0.812213 1.840404 0.005591 0.012800 -959461.000000 0 0 1
24.498978 25.550584 -10.727523 36.987998 0.806406 1.865052 0.003100 0.008558 89125.900000 0 0 1
25.859178 25.870984 -10.485823 38.052035 0.785626 1.849974 0.002581 0.017432 624767.000000 0 0 1
26.726578 26.085084 -11.793723 39.164186 0.773252 1.876679 -0.004377 0.007237 304941.000000 0 0 1
26.353378 27.162584 -12.631023 39.897985 0.800518 1.892921 0.000107 0.009641 86291.400000 0 0 1
27.189278 27.237284 -13.777823 40.877315 0.786280 1.914581 -0.011507 0.007211 88893.400000 0 0 1
26.628678 28.256684 -14.797623 41.551129 0.815051 1.934920 -0.019091 0.000583 30832.700000 0 0 1
26.897278 29.609684 -14.419923 42.522125 0.833363 1.916773 -0.016419 0.000078 -6007.590000 0 0 1
26.913778 30.365284 -15.622023 43.479300 0.845583 1.938312 -0.015971 0.007187 -108334.000000 0 0 1
27.230578 31.836484 -15.450623 44.651851 0.863218 1.924127 -0.013693 0.001833 -137848.000000 0 0 1
28.517578 32.150084 -14.984423 45.512779 0.845202 1.906290 -0.020772 0.003640 -80950.700000 0 0 1
28.669078 33.525884 -15.023323 46.600442 0.863330 1.899045 -0.026905 -0.003292 -57963.200000 0 0 1
14.599378 -32.480830 -29.190349 46.045876 -1.148378 2.257434 0.042944 -0.022344 32778.200000 0 0 1
15.563878 -33.163830 -28.420539 46.365946 -1.132007 2.230600 0.034058 -0.012237 136222.000000 0 0 1
15.800978 -32.634830 -27.147729 45.295720 -1.119888 2.213478 0.039603 -0.012795 -452720.000000 0 0 1
17.019978 -33.211430 -26.361549 45.690371 -1.097220 2.185799 0.002574 -0.000040 885280.000000 0 0 1
18.300378 -32.766130 -26.813879 46.124909 -1.061439 2.191161 -0.004978 0.001577 859043.000000 0 0 1
18.859378 -33.285830 -28.009189 47.414526 -1.055306 2.202760 -0.019549 0.003063 123715.000000 0 0 1
20.353578 -32.895730 -28.259669 47.906222 -1.016718 2.201726 -0.011334 0.011540 530169.000000 0 0 1
20.541578 -31.569430 -28.791349 47.408092 -0.993944 2.223465 -0.008316 -0.006959 -505366.000000 0 0 1
21.840578 -31.176630 -28.491459 47.547412 -0.959706 2.213325 -0.018284 0.001485 -788256.000000 0 0 1
22.391978 -29.988530 -29.329499 47.549260 -0.929420 2.235497 -0.023439 0.005458 -142219.000000 0 0 1
22.771478 -30.367730 -30.671889 48.800656 -0.927386 2.250437 -0.018437 -0.004488 -32945.900000 0 0 1
23.420978 -29.270930 -31.247579 48.803082 -0.895967 2.265658 -0.015405 -0.007064 69702.300000 0 0 1
23.942478 -29.475330 -32.698289 50.112029 -0.888607 2.281680 -0.007119 0.009934 433907.000000 0 0 1
24.872378 -30.540030 -32.911739 51.327490 -0.887325 2.266871 0.002245 0.000183 96568.500000 0 0 1
24.870378 -30.910730 -34.287791 52.437216 -0.893265 2.283501 0.003515 -0.000715 613311.000000 0 0 1
26.244178 -31.614830 34.439867 53.613047 -0.877956 0.873199 0.007236 -0.009041 577605.000000 0 0 1
27.327778 -30.748030 34.369800 53.605335 -0.844223 0.874782 0.007815 -0.018009 -316561.000000 0 0 1
28.548378 -31.476730 34.213850 54.556227 -0.834145 0.892933 0.011798 -0.002573 1352860.000000 0 0 1
29.801878 -30.504930 34.115206 54.612727 -0.797056 0.896081 0.016436 -0.013757 649736.000000 0 0 1
29.912478 -29.693130 32.947657 53.497536 -0.781718 0.907304 0.007071 -0.001705 207617.000000 0 0 1
31.036378 -28.835430 33.068045 53.742296 -0.748654 0.908020 0.009390 -0.010722 111078.000000 0 0 1
31.104078 -27.905630 31.821527 52.524255 -0.731249 0.919970 0.017103 -0.006353 -686697.000000 0 0 1
32.258978 -27.098130 31.757527 52.758798 -0.698671 0.924870 0.007840 -0.017414 215729.000000 0 0 1
32.347778 -26.232430 30.612307 51.687837 -0.681382 0.936943 0.024394 -0.009061 -442452.000000 0 0 1
32.940578 -26.902330 29.366797 51.683903 -0.684837 0.966479 0.017671 0.000487 -398886.000000 0 0 1
32.280978 -28.055630 28.831737 51.579540 -0.715483 0.977646 0.004635 -0.004076 265861.000000 0 0 1
31.157178 -27.681330 28.065297 50.246260 -0.726392 0.978154 0.016001 -0.002387 -86860.600000 0 0 1
30.557278 -28.738130 27.090337 49.935095 -0.754728 0.997373 0.004420 0.009533 -301436.000000 0 0 1
29.482278 -28.220530 26.371357 48.590652 -0.763535 0.997118 0.007678 0.012500 -447695.000000 0 0 1
28.906378 -29.284730 25.618287 48.471339 -0.791900 1.013935 0.005464 0.015279 -589939.000000 0 0 1
27.684778 -28.792430 24.861657 47.048411 -0.805008 1.014049 0.009003 0.019912 -547620.000000 0 0 1
26.624978 -28.606530 25.763037 46.807660 -0.821260 0.987950 0.008270 0.019019 173624.000000 0 0 1
25.356678 -28.375930 25.139197 45.608483 -0.841529 0.987000 0.004901 0.024984 478291.000000 0 0 1
24.217778 -28.182930 26.123527 45.422648 -0.860924 0.958044 0.011751 0.024362 -503663.000000 0 0 1
24.311178 -26.995930 26.851107 45.175165 -0.837678 0.934305 -0.001195 0.023427 -242123.000000 0 0 1
23.305278 -26.996730 27.821437 45.232640 -0.858653 0.908316 0.006056 0.008777 -258527.000000 0 0 1
23.171178 -25.769730 28.783377 45.049587 -0.838444 0.877694 0.002581 0.016366 246215.000000 0 0 1
22.031478 -25.968630 29.640507 45.147707 -0.867239 0.854596 0.025367 0.007106 593867.000000 0 0 1
21.717578 -24.862430 30.445457 44.907900 -0.852811 0.825822 0.027949 0.000229 124754.000000 0 0 1
21.126578 -23.509330 29.899757 43.508808 -0.838730 0.813153 0.021702 -0.000966 -432355.000000 0 0 1
22.074378 -22.827330 29.080367 43.058482 -0.802165 0.829331 0.002424 0.000551 383038.000000 0 0 1
21.631078 -21.558830 28.624707 41.857622 -0.783725 0.817758 0.024152 -0.002811 69357.500000 0 0 1
22.379878 -20.343430 29.284477 42.098630 -0.737768 0.801519 0.018639 -0.002505 -210008.000000 0 0 1
22.219978 -20.370430 30.651777 42.990851 -0.741999 0.777052 0.028100 0.002803 -16251.700000 0 0 1
22.805778 -19.257430 31.294917 43.247242 -0.701240 0.761752 0.013172 0.003941 -456720.000000 0 0 1
22.190678 -18.974630 32.690227 43.830511 -0.707431 0.729012 0.028176 0.000527 -328925.000000 0 0 1
22.631878 -19.756430 33.766650 45.196295 -0.717666 0.727091 0.018461 0.004370 298521.000000 0 0 1
21.750178 -19.607230 -34.184482 45.012138 -0.733629 2.433264 0.019438 -0.001029 20673.600000 0 0 1
21.650178 -20.873630 -33.247439 44.831137 -0.767139 2.406271 0.001639 0.003039 127493.000000 0 0 1
22.806278 -21.158230 -32.468649 44.966768 -0.747930 2.377570 0.008943 0.003931 266359.000000 0 0 1
22.511078 -22.168830 -31.477319 44.598512 -0.777738 2.354338 -0.003941 0.002525 -491544.000000 0 0 1
23.582478 -22.385730 -30.431169 44.534372 -0.759370 2.323095 -0.013033 0.006231 -149830.000000 0 0 1
24.696578 -23.099630 -30.939859 45.834362 -0.751999 2.311810 0.000790 0.010785 -19402.100000 0 0 1
25.595878 -23.516430 -29.917709 45.861103 -0.743083 2.281484 -0.003935 0.006117 891234.000000 0 0 1
26.890278 -24.287030 -30.378109 47.283997 -0.734575 2.268501 -0.002972 0.013820 865381.000000 0 0 1
27.784778 -23.624830 -31.297309 48.058798 -0.704656 2.280000 0.004435 0.008883 502430.000000 0 0 1
27.349278 -23.579630 -32.640869 48.676568 -0.711515 2.305768 0.003773 0.008992 -361438.000000 0 0 1
27.681578 -24.876730 -33.431439 50.027818 -0.732082 2.302660 0.000485 0.003689 -136787.000000 0 0 1
27.030578 -26.020530 -32.913089 49.909835 -0.766361 2.290885 0.009419 0.002292 52054.300000 0 0 1
27.421378 -27.236830 -33.546939 51.177867 -0.782022 2.285637 0.004679 -0.007346 51363.500000 0 0 1
26.998378 -27.425130 34.011741 51.359991 -0.793239 0.847015 0.007527 0.002684 -41174.300000 0 0 1
27.812178 -26.730330 33.108572 50.835079 -0.765566 0.861508 -0.014662 0.007496 24723.600000 0 0 1
27.341378 -26.928230 31.801127 49.839665 -0.777785 0.878809 -0.009392 0.011584 -52621.900000 0 0 1
28.195378 -26.078530 30.819597 49.243442 -0.746415 0.894560 -0.000690 -0.002959 -201999.000000 0 0 1
28.129378 -24.688430 30.815157 48.480453 -0.720343 0.881985 -0.018581 0.002109 39469.700000 0 0 1
28.528978 -24.025530 32.002187 49.145383 -0.699916 0.861666 -0.019628 0.001509 -1180140.000000 0 0 1
28.955278 -22.542030 31.779347 48.543569 -0.661500 0.857069 -0.013774 -0.001285 308308.000000 0 0 1
30.163978 -22.240730 31.114557 48.709663 -0.635341 0.877890 -0.012093 -0.002597 -80210.200000 0 0 1
31.297078 -22.718830 31.782867 50.057996 -0.627904 0.882890 -0.004810 -0.004184 -1475920.000000 0 0 1
32.677678 -22.246130 31.356727 50.457559 -0.597706 0.900207 0.013155 -0.012092 -574266.000000 0 0 1
33.105978 -22.798730 30.126417 50.233344 -0.603074 0.927633 0.013549 -0.013323 1060080.000000 0 0 1
34.466278 -22.357930 29.916017 50.820954 -0.575454 0.941402 0.017336 -0.014639 939885.000000 0 0 1
34.941778 -22.607430 28.435127 50.404168 -0.574265 0.971402 0.027969 -0.008022 -156520.000000 0 0 1
-35.131307 -23.970430 28.149927 51.002046 0.598754 0.986111 0.034750 -0.007670 425179.000000 0 0 1
-34.642407 -24.088330 26.814037 49.993366 0.607593 1.004688 0.022258 0.009847 -130077.000000 0 0 1
-34.360407 -25.520930 26.377627 50.276582 0.638840 1.018492 0.010842 0.000402 -521038.000000 0 0 1
34.928778 -26.318830 26.244027 51.004405 -0.645737 1.030320 0.016142 0.003307 -310233.000000 0 0 1
35.168378 -27.639130 25.750437 51.612221 -0.666089 1.048443 0.006448 0.010665 157043.000000 0 0 1
-34.767407 -28.695130 26.826047 52.457792 0.690006 1.034002 0.010848 0.001292 -704458.000000 0 0 1
-34.473107 -29.988230 26.246857 52.693326 0.715935 1.049383 0.009605 0.003863 242431.000000 0 0 1
-33.328507 -30.607330 26.789077 52.585670 0.742863 1.036266 0.007315 -0.003855 481839.000000 0 0 1
-31.945007 -29.924830 26.634437 51.238386 0.752758 1.024163 0.011229 0.001791 -575897.000000 0 0 1
-31.392307 -29.915130 25.319997 50.214482 0.761308 1.042298 0.007198 0.002798 288083.000000 0 0 1
-30.063707 -29.448530 25.242297 49.073577 0.775062 1.030516 0.001285 0.003640 159925.000000 0 0 1
-29.464507 -29.523730 23.785877 48.016411 0.786402 1.052536 -0.003607 0.006796 -199144.000000 0 0 1
-29.590007 -30.813230 23.245377 48.635082 0.805646 1.072471 0.001795 0.003453 445404.000000 0 0 1
-29.154107 -30.756630 21.938077 47.720137 0.812140 1.093112 0.000190 -0.000556 -807804.000000 0 0 1
-29.272107 -32.116430 21.163277 48.334311 0.831698 1.117588 0.006416 0.002005 591560.000000 0 0 1
-28.307607 -33.104930 21.608977 48.623090 0.863356 1.110272 0.013261 -0.009494 835916.000000 0 0 1
-26.965307 -32.850130 21.242877 47.513352 0.883466 1.107284 0.020513 -0.003671 -275479.000000 0 0 1
-26.076707 -34.116130 21.223577 47.899324 0.918173 1.111757 0.017764 -0.001038 -361451.000000 0 0 1
-26.254207 33.932884 20.255277 47.444707 -0.912293 1.129708 0.010760 -0.003571 804043.000000 0 0 1
-27.480207 33.168684 20.369077 47.646854 -0.878918 1.129070 0.018205 -0.011937 803900.000000 0 0 1
-27.591007 32.140784 21.545777 47.523827 -0.861421 1.100256 0.023041 -0.010722 -118040.000000 0 0 1
-26.832607 30.981084 21.262377 46.172557 -0.857031 1.092240 0.011344 -0.010101 -27737.600000 0 0 1
-26.579107 30.160684 22.357177 45.999556 -0.848437 1.063255 0.014619 -0.012737 -483512.000000 0 0 1
-25.679207 29.014184 22.045777 44.578704 -0.846299 1.053495 0.010685 -0.009838 268392.000000 0 0 1
-24.280507 29.301284 21.958177 43.934836 -0.878828 1.047440 0.013211 -0.003497 256305.000000 0 0 1
-23.511507 28.283384 21.376877 42.540706 -0.877269 1.044304 0.006848 -0.005505 -627032.000000 0 0 1
-22.054707 28.694784 21.535877 42.114068 -0.915499 1.034018 0.002121 0.002546 -824441.000000 0 0 1
-21.624707 28.573384 22.884477 42.517826 -0.922949 1.002458 0.006033 -0.000052 512782.000000 0 0 1
-20.441907 29.334084 23.123377 42.579932 -0.962177 0.996722 0.024985 0.005305 179918.000000 0 0 1
-19.946407 29.322684 24.562187 43.139077 -0.973457 0.965054 0.014619 0.012906 -507926.000000 0 0 1
-19.585907 28.013784 24.954307 42.321357 -0.960639 0.940185 0.019234 0.003518 472061.000000 0 0 1
-19.157207 27.722984 26.303367 42.748445 -0.966121 0.908022 0.012541 0.000835 321177.000000 0 0 1
-17.713507 28.118384 26.732867 42.650416 -1.008637 0.893369 0.015110 0.008977 114922.000000 0 0 1
-17.520807 29.553984 26.770567 43.555481 -1.035658 0.908878 0.001008 0.007047 -514554.000000 0 0 1
-16.286107 29.939584 27.275257 43.652670 -1.072598 0.895890 0.001534 0.002299 -709986.000000 0 0 1
-16.126707 30.167584 28.828917 44.735447 -1.079876 0.870517 -0.007374 0.012516 -255159.000000 0 0 1
-16.256307 29.000984 29.562477 44.488927 -1.059894 0.843984 -0.000022 0.014435 208017.000000 0 0 1
-15.955807 29.353284 30.882887 45.496766 -1.072897 0.824679 -0.004902 0.015517 -111930.000000 0 0 1
-15.826107 28.130984 31.793037 45.305795 -1.058341 0.792955 -0.011046 0.022638 -1089550.000000 0 0 1
-14.673507 27.379784 31.734187 44.407465 -1.078824 0.774724 0.002177 0.024057 -698209.000000 0 0 1
-14.651407 26.142784 32.444237 44.167153 -1.059975 0.745751 0.006927 0.016654 -218118.000000 0 0 1
-14.897207 26.226484 34.006429 45.455389 -1.054222 0.725561 0.013538 0.015048 419259.000000 0 0 1
-16.287407 26.124784 34.299774 46.089678 -1.013315 0.731465 0.023069 0.010051 106683.000000 0 0 1
-16.685507 27.092684 -33.766059 46.395759 -1.018791 2.385880 0.029280 0.002805 49197.500000 0 0 1
-18.120507 26.656784 -33.402839 46.418602 -0.973776 2.374023 0.010701 0.001492 -256894.000000 0 0 1
-19.097007 26.919784 -34.354245 47.640158 -0.953787 2.376213 0.005588 0.002981 370030.000000 0 0 1
-20.383207 26.418584 -33.970479 47.617331 -0.913646 2.365143 0.025000 -0.001453 387163.000000 0 0 1
-21.409507 26.268184 33.971471 47.983802 -0.886954 0.784165 0.026079 -0.019697 -568118.000000 0 0 1
-21.184307 25.280384 32.964057 46.631553 -0.873325 0.785684 0.026939 -0.006969 -11843.600000 0 0 1
-21.290807 23.944284 33.432344 46.307114 -0.843991 0.764151 0.029078 -0.013602 -367106.000000 0 0 1
-21.620607 23.010084 32.261067 45.140791 -0.816521 0.774635 0.029234 -0.025195 -1306070.000000 0 0 1
-22.868707 23.342584 31.820237 45.611199 -0.795652 0.798697 0.036622 -0.030166 -1388890.000000 0 0 1
-23.164907 22.879484 30.524897 44.630181 -0.779199 0.817630 0.041067 -0.030052 869300.000000 0 0 1
-24.698007 22.670584 30.263557 45.164475 -0.742623 0.836487 0.049238 -0.039475 876063.000000 0 0 1
-25.159807 21.408084 30.713717 45.107143 -0.705007 0.821798 0.060566 -0.043583 1251610.000000 0 0 1
-26.449707 20.998984 30.151307 45.273012 -0.671023 0.841978 0.059049 -0.046138 1083110.000000 0 0 1
-26.997707 19.695184 30.752407 45.414612 -0.630260 0.826917 0.076917 -0.041680 -434221.000000 0 0 1
-27.529507 19.794584 32.054257 46.660205 -0.623385 0.813482 0.072798 -0.037859 -108807.000000 0 0 1
-27.665007 18.673384 32.925817 46.884510 -0.593737 0.792208 0.063386 -0.025433 -295075.000000 0 0 1
-28.545607 17.522784 32.433557 46.624406 -0.550543 0.801493 0.039117 -0.022324 -961814.000000 0 0 1
-29.885607 17.873084 32.329677 47.516362 -0.538984 0.822501 0.036402 -0.023781 -1004700.000000 0 0 1
-30.594207 16.696384 31.945947 47.279153 -0.499564 0.828899 0.030935 -0.001897 809537.000000 0 0 1
-32.118007 17.009084 31.675107 48.209830 -0.487031 0.853930 0.021594 0.000599 539016.000000 0 0 1
-32.716507 17.101384 32.927457 49.467611 -0.481653 0.842450 0.026011 -0.002557 146568.000000 0 0 1
-34.136507 17.161584 32.888417 50.412985 -0.465832 0.860076 0.019165 -0.010825 174932.000000 0 0 1
-34.639007 17.666784 34.250317 51.817567 -0.471636 0.848674 0.028909 0.002213 -1090440.000000 0 0 1
34.408778 17.838484 34.214434 51.699158 0.478281 0.847581 0.020190 -0.011257 -754321.000000 0 0 1
34.108978 18.289484 -33.539579 51.213582 0.492192 2.284842 0.016297 -0.019349 601725.000000 0 0 1
32.577178 18.300084 -33.213879 49.993273 0.511816 2.297443 0.010533 -0.015395 675719.000000 0 0 1
31.980278 17.027984 -33.206429 49.146285 0.489271 2.312663 0.017485 -0.003090 -225067.000000 0 0 1
30.670278 17.060284 -32.694989 47.965420 0.507628 2.320793 0.016672 -0.002004 -102522.000000 0 0 1
30.028678 15.623684 -32.766129 47.110935 0.479749 2.339926 0.016267 0.000732 -264917.000000 0 0 1
29.532378 15.306684 -34.017009 47.577440 0.478182 2.367395 0.020979 -0.012162 -74233.700000 0 0 1
28.929778 14.005084 -34.211809 46.941691 0.450852 2.387386 0.016494 -0.007609 322821.000000 0 0 1
29.844678 12.727484 -34.176518 47.124601 0.403104 2.382175 0.024431 -0.003533 136619.000000 0 0 1
30.425478 12.348184 -32.959489 46.524352 0.385539 2.358075 0.034223 0.005832 -57952.200000 0 0 1
31.048178 11.114084 -33.110239 46.731148 0.343751 2.358204 0.039809 0.000384 -421145.000000 0 0 1
18.153278 -21.750916 9.953161 30.028474 -0.875312 1.232948 0.017606 -0.010043 280384.000000 0 0 1
17.322978 -22.840016 10.312461 30.464713 -0.921910 1.225469 0.014582 -0.017583 804020.000000 0 0 1
18.157578 -23.773516 11.020161 31.879800 -0.918538 1.217835 0.006047 -0.016136 1204480.000000 0 0 1
17.257778 -24.978916 11.609861 32.504862 -0.966208 1.205557 0.000718 -0.007600 871475.000000 0 0 1
16.697078 -25.847256 10.620161 32.552433 -0.997245 1.238465 0.007869 -0.012403 -227369.000000 0 0 1
15.349678 -26.155686 10.886961 32.222018 -1.040096 1.226140 0.016739 -0.013433 -60347.300000 0 0 1
14.746278 -26.970146 9.758861 32.250223 -1.070442 1.263379 0.014088 -0.017687 -243393.000000 0 0 1
14.561878 -26.351676 8.514061 31.288151 -1.065961 1.295203 0.013162 -0.011355 19499.800000 0 0 1
13.763378 -27.090996 7.602561 31.323339 -1.100735 1.325636 0.021660 -0.006724 58973.500000 0 0 1
13.399478 -26.261046 6.375861 30.163557 -1.098989 1.357813 0.014226 -0.001047 114772.000000 0 0 1
12.697378 -25.042906 6.643461 28.853182 -1.101545 1.338461 0.021017 -0.007387 108676.000000 0 0 1
12.309078 -24.437616 5.421261 27.894454 -1.104198 1.375203 0.024533 -0.001473 -45289.800000 0 0 1
11.786278 -22.994016 5.589761 26.436463 -1.097135 1.357747 0.028013 -0.005655 135137.000000 0 0 1
11.254578 -22.318416 4.440061 25.386835 -1.103736 1.394996 0.022688 -0.004427 -56974.900000 0 0 1
10.831078 -20.998216 4.635761 24.077533 -1.094581 1.377052 0.037533 -0.001145 268851.000000 0 1 0
9.994478 -20.349816 3.479561 22.937130 -1.114267 1.418508 0.025946 -0.010714 -144615.000000 0 1 0
10.784178 -20.001116 2.399461 22.849520 -1.076299 1.465591 0.017999 0.000103 -596340.000000 0 1 0
10.040678 -19.442916 1.366061 21.925062 -1.094101 1.508450 0.012509 0.002070 160308.000000 0 1 0
10.921378 -18.939716 0.167561 21.863610 -1.047731 1.563132 0.001118 -0.000846 -278420.000000 0 1 0
11.705278 -17.831716 0.434061 21.334761 -0.989914 1.550450 0.004137 -0.001305 -462627.000000 0 1 0
12.451178 -17.407316 -0.662139 21.412261 -0.949886 1.601725 0.013798 -0.002874 -239872.000000 0 1 0
13.718078 -16.603416 -0.326039 21.539856 -0.880271 1.585933 0.017995 -0.000257 788387.000000 0 1 0
14.813778 -17.365916 0.239661 22.827188 -0.864541 1.560297 0.020028 0.008595 -137484.000000 0 1 0
15.996578 -16.670216 0.265861 23.105352 -0.806017 1.559290 0.022845 0.006395 -750406.000000 0 1 0
17.033878 -17.336316 1.192161 24.333559 -0.794197 1.521784 0.016583 0.013300 -332015.000000 0 1 0
17.454278 -18.599116 0.712561 25.516400 -0.817141 1.542867 0.013174 0.013446 310557.000000 0 0 1
18.505878 -19.171816 1.490861 26.687988 -0.803071 1.514905 0.008005 0.016320 524466.000000 0 0 1
18.767878 -20.645016 1.092761 27.922107 -0.832990 1.531650 -0.001640 0.013858 96654.300000 0 0 1
17.756478 -21.556816 1.472661 27.967080 -0.881767 1.518115 -0.002962 0.018963 135103.000000 0 0 1
17.982478 -22.807516 0.806261 29.055161 -0.903141 1.543043 0.003052 0.016717 466121.000000 0 0 1
16.749778 -23.780316 0.858761 29.099759 -0.957154 1.541281 0.005151 0.009727 394542.000000 0 0 1
16.746678 -24.498316 2.067761 29.747174 -0.971172 1.501229 0.003639 0.013005 -287433.000000 0 0 1
15.727078 -25.439076 2.125261 29.983401 -1.017084 1.499856 0.003239 0.008748 -755728.000000 0 0 1
15.840178 -26.195346 3.473761 30.808674 -1.026932 1.457803 0.008988 -0.001941 79149.200000 0 0 1
16.873878 -27.134076 3.567061 32.151357 -1.014451 1.459622 0.002065 0.002098 -133398.000000 0 0 1
18.139478 -26.621416 3.922861 32.451954 -0.972672 1.449618 0.002575 0.001540 167836.000000 0 0 1
19.295978 -27.683286 3.869461 33.965745 -0.962069 1.456626 0.010077 0.002603 343630.000000 0 0 1
19.648778 -28.121556 2.564361 34.401633 -0.960937 1.496185 -0.002312 0.011982 -303602.000000 0 0 1
20.605378 -29.147376 2.596061 35.789533 -0.955429 1.498196 0.011322 0.014994 -253119.000000 0 0 1
20.039778 -30.634596 2.720061 36.707900 -0.991506 1.496628 0.012194 0.011862 52104.800000 0 0 1
19.910478 -30.898456 4.101861 36.986038 -0.998379 1.459665 0.026236 0.000841 -316224.000000 0 0 1
19.463178 -32.211596 4.144061 37.862587 -1.027273 1.461127 0.014560 -0.013820 -310265.000000 0 0 1
19.152478 -32.684496 5.581661 38.291626 -1.040749 1.424508 0.020156 -0.018619 334822.000000 0 0 1
20.286178 -33.267436 6.224561 39.458795 -1.023209 1.412386 0.014194 -0.018678 372552.000000 0 0 1
19.943978 -33.554896 7.581261 39.763914 -1.034528 1.378965 0.006037 -0.019242 -368784.000000 0 0 1
20.890178 -34.417375 8.395861 41.127190 -1.025270 1.365207 0.010831 -0.021026 -455580.000000 0 0 1
21.860278 -33.615636 9.023161 41.101097 -0.994210 1.349458 0.018939 -0.021671 -696013.000000 0 0 1
22.644178 -34.420175 9.832661 42.357862 -0.988905 1.336526 0.025328 -0.024875 -689337.000000 0 0 1
23.568178 -33.495036 10.644161 42.316364 -0.957637 1.316528 0.030935 -0.025160 -721825.000000 0 0 1
24.484378 -32.895716 9.776161 42.156687 -0.930951 1.336765 0.033312 -0.022472 -630349.000000 0 0 1
25.414278 -32.158766 10.493361 42.310547 -0.902013 1.320173 0.029566 -0.012513 -295649.000000 0 0 1
26.114478 -31.159716 9.591661 41.771926 -0.873261 1.339109 0.029500 -0.015549 365777.000000 0 0 1
25.174378 -30.100766 9.316561 40.331176 -0.874288 1.337689 0.021908 -0.018167 488836.000000 0 0 1
25.739078 -29.185636 8.448061 39.820488 -0.848067 1.357018 0.032239 -0.013762 -232186.000000 0 0 1
25.190078 -27.733646 8.514461 38.421234 -0.833422 1.347333 0.029745 -0.004567 -17679.700000 0 0 1
25.448078 -27.158716 9.782461 38.482426 -0.817904 1.313770 0.020553 -0.019933 -44627.400000 0 0 1
25.211578 -25.742336 9.829461 37.348492 -0.795814 1.304477 0.016321 -0.016967 154191.000000 0 0 1
26.281878 -25.003476 10.708661 37.823093 -0.760476 1.283746 0.025188 -0.027532 433204.000000 0 0 1
27.556478 -25.003036 10.074961 38.548880 -0.736854 1.306370 0.041679 -0.021190 -447485.000000 0 0 1
28.364178 -24.216516 10.942461 38.867772 -0.706679 1.285408 0.035858 -0.024287 493991.000000 0 0 1
29.759978 -23.958916 10.285061 39.566001 -0.677826 1.307829 0.057284 -0.029264 681427.000000 0 0 1
29.602378 -22.970516 9.288961 38.603500 -0.659915 1.327787 0.060436 -0.030959 -24485.900000 0 0 1
30.801678 -22.797516 8.554861 39.263924 -0.637160 1.351154 0.060747 -0.035017 -265811.000000 0 0 1
30.684778 -21.975816 7.196061 38.422329 -0.621503 1.382395 0.058072 -0.007897 -396309.000000 0 0 1
30.306678 -20.618116 7.426061 37.399837 -0.597393 1.370909 0.040397 0.000949 -9617.050000 0 0 1
30.554078 -19.905516 6.256461 36.998980 -0.577418 1.400882 0.024041 0.003438 -251732.000000 0 0 1
30.107378 -18.444516 6.290761 35.864022 -0.549651 1.394478 0.022937 -0.002147 -116193.000000 0 0 1
30.822978 -17.579216 7.195861 36.205873 -0.518316 1.370716 0.021148 0.006681 238346.000000 0 0 1
30.441578 -16.224216 7.114561 35.221184 -0.489668 1.367400 0.014273 0.013696 428.091000 0 0 1
30.892178 -15.458316 8.368761 35.543246 -0.463964 1.333112 0.005647 -0.004142 843552.000000 0 0 1
32.302978 -15.488016 8.690061 36.862965 -0.447082 1.332817 0.006188 0.004484 894420.000000 0 0 1
32.593278 -14.831516 9.922461 37.158456 -0.427044 1.300485 0.001297 -0.005240 -843287.000000 0 0 1
34.070378 -14.839816 10.247861 38.549052 -0.410784 1.301722 -0.011898 -0.009017 -643430.000000 0 0 1
34.751678 -14.014016 9.305461 38.609110 -0.383315 1.327382 0.003763 -0.003390 249292.000000 0 0 1
-34.321707 -14.408716 9.147661 38.331063 0.397469 1.329822 0.006181 -0.007701 215867.000000 0 0 1
-33.492507 -13.446916 8.277261 37.028106 0.381790 1.345352 0.015068 -0.006139 -273359.000000 0 0 1
-33.651207 -13.475416 6.825961 36.886100 0.380889 1.384668 0.032700 -0.008479 -77799.100000 0 0 1
-32.560307 -12.891316 6.142561 35.554053 0.376985 1.397158 0.027633 -0.001953 135410.000000 0 0 1
-31.452507 -13.893416 5.691361 34.852243 0.415953 1.406762 0.004770 0.004367 -363684.000000 0 0 1
-30.814707 -14.441416 6.784261 34.700532 0.438257 1.374020 0.014750 0.003140 -611299.000000 0 0 1
-29.997407 -15.486316 6.369961 34.354721 0.476567 1.384300 0.006188 0.013023 -142850.000000 0 0 1
-29.157007 -16.147416 7.477461 34.158199 0.505763 1.350102 -0.012172 -0.009574 172075.000000 0 0 1
-30.030007 -16.919416 8.318561 35.457953 0.513086 1.333986 0.014025 -0.014549 386225.000000 0 0 1
-30.412007 -16.237816 9.523061 35.766542 0.490420 1.301289 -0.003623 -0.018026 131501.000000 0 0 1
-31.419807 -17.044616 10.367061 37.218264 0.497051 1.288515 -0.019194 -0.014757 -421237.000000 0 0 1
-32.742007 -17.024216 9.889461 38.205555 0.479480 1.308966 0.011367 -0.017535 -420221.000000 0 0 1
-33.541307 -17.696216 10.871261 39.450725 0.485479 1.291618 0.024854 -0.016044 -204342.000000 0 0 1
-33.953307 -19.203416 10.507361 40.398056 0.514728 1.307675 0.016621 -0.013546 -885207.000000 0 0 1
-32.876007 -20.142616 10.308061 39.910061 0.549694 1.309553 0.019943 -0.016362 102220.000000 0 0 1
-32.090407 -20.449116 11.462861 39.741135 0.567349 1.278201 -0.000817 -0.025211 -637354.000000 0 0 1
-32.763007 -21.047816 12.740661 40.972548 0.571033 1.254598 0.048854 -0.031114 -105251.000000 0 0 1
-33.159007 -22.448116 12.700361 42.008771 0.595111 1.263664 0.019070 -0.032439 408825.000000 0 0 1
-34.294307 -22.630916 11.860961 42.766111 0.583305 1.289767 0.033992 -0.030769 -229413.000000 0 0 1
-34.486507 -24.112316 11.487961 43.619906 0.610176 1.304288 0.023433 -0.024556 -268672.000000 0 0 1
-34.696907 -24.885316 12.602361 44.519365 0.622190 1.283797 0.042684 -0.020445 164243.000000 0 0 1
34.944978 -26.006446 12.262361 45.253201 -0.639786 1.296393 0.038584 -0.006906 173149.000000 0 0 1
33.745678 -26.195306 13.237461 44.723542 -0.660095 1.270311 0.051866 -0.029478 474463.000000 0 0 1
32.780978 -25.152696 13.152961 43.361861 -0.654479 1.262611 0.041450 -0.023704 357126.000000 0 0 1
31.733478 -25.145806 14.106861 42.875736 -0.670093 1.235534 0.030619 0.001468 108749.000000 0 0 1
31.413078 -23.676416 14.414161 41.894178 -0.645873 1.219558 0.030672 -0.004013 303036.000000 0 0 1
32.366078 -23.053916 15.277061 42.572698 -0.618924 1.203765 0.038706 -0.009525 456753.000000 0 0 1
33.506978 -22.523616 14.591361 42.929462 -0.591828 1.223995 0.038583 -0.020426 403293.000000 0 0 1
34.640878 -22.157216 15.587361 43.976112 -0.569048 1.208470 0.037420 -0.018559 -81897.200000 0 0 1
34.451178 -20.905016 16.269861 43.458161 -0.545405 1.187068 0.029115 -0.004924 285297.000000 0 0 1
33.277478 -20.699916 17.046161 42.736971 -0.556468 1.160521 0.025091 -0.004012 189628.000000 0 0 1
33.189778 -19.352916 17.746961 42.320815 -0.527899 1.138074 0.026138 0.008894 -182816.000000 0 0 1
33.102278 -18.213116 16.892561 41.386435 -0.503002 1.150351 0.013580 -0.002860 160349.000000 0 0 1
32.996178 -16.935116 17.571061 41.040079 -0.474187 1.128358 -0.000383 0.003732 -868260.000000 0 0 1
34.251578 -16.147216 17.879861 41.875919 -0.440531 1.129654 -0.003808 -0.001412 -1045550.000000 0 0 1
34.861978 -16.667916 19.013961 43.066317 -0.445984 1.113522 -0.010049 0.024203 20721.100000 0 0 1
-34.842907 -15.616516 19.613361 42.925374 0.421354 1.096269 -0.010447 0.014291 -388193.000000 0 0 1
-34.708707 -15.800416 21.168361 43.617050 0.427194 1.064064 -0.017917 0.018401 317737.000000 0 0 1
-33.714507 -16.772316 21.589661 43.406129 0.461630 1.050212 -0.001155 0.019818 769999.000000 0 0 1
-33.659607 -16.860316 22.979761 44.105655 0.464373 1.022755 0.000528 0.020759 28786.900000 0 0 1
-32.586807 -17.843916 23.516061 43.969427 0.500984 1.006493 0.012863 0.018848 -521094.000000 0 0 1
-32.982507 -19.170016 23.629361 44.874068 0.526494 1.016235 0.008416 0.020640 37638.500000 0 0 1
-32.041107 -19.950816 24.295261 44.887942 0.556917 0.998882 0.013155 0.013243 -417132.000000 0 0 1
-30.914407 -20.651616 23.512561 43.988980 0.588943 1.006868 0.008947 0.017200 -296890.000000 0 0 1
-29.913707 -19.701616 23.156961 42.652414 0.582408 0.996883 0.016044 0.019440 -61615.800000 0 0 1
-28.802807 -20.514716 22.759161 42.052761 0.618898 0.998927 0.012628 0.013195 701679.000000 0 0 1
-27.501407 -19.618216 22.857261 40.787942 0.619632 0.975937 0.016958 0.020494 387539.000000 0 0 1
-27.239507 -19.163716 24.172461 41.152723 0.613089 0.942973 0.024899 0.010938 503233.000000 0 0 1
-26.062207 -18.363116 24.189361 40.019594 0.613798 0.921736 0.042966 0.007606 60747.800000 0 0 1
-25.669107 -17.858616 25.592761 40.408200 0.607850 0.884915 0.049659 -0.011785 189515.000000 0 0 1
-24.434207 -17.134816 25.641761 39.346313 0.611573 0.860980 0.048228 -0.010907 643806.000000 0 0 1
-24.084607 -16.658316 26.918261 39.776382 0.605105 0.827471 0.042715 -0.020985 66229.900000 0 0 1
-23.049207 -17.435816 27.758161 40.072299 0.647623 0.805568 0.025091 -0.011673 -721148.000000 0 0 1
-23.564707 -18.697516 28.110161 41.171273 0.670737 0.819261 0.038745 -0.011586 -279505.000000 0 0 1
-22.721807 -19.474816 28.905661 41.606324 0.708600 0.802735 0.026194 -0.010978 -543364.000000 0 0 1
-23.401407 -20.680716 29.612061 43.037101 0.723758 0.811986 0.032491 -0.000188 -706742.000000 0 0 1
-24.280807 -20.300516 30.593261 44.018362 0.696353 0.802361 0.027973 -0.004338 -318753.000000 0 0 1
-24.772807 -21.350816 31.375761 45.320941 0.711342 0.806123 0.019991 0.001272 -308511.000000 0 0 1
-26.115407 -21.227416 32.105861 46.512407 0.682516 0.808942 0.026527 -0.004991 -827119.000000 0 0 1
-25.989707 -20.426116 33.283361 46.909202 0.666103 0.781969 0.021729 -0.004397 502953.000000 0 0 1
-27.151007 -20.307416 34.104661 48.090501 0.642184 0.782467 0.021648 -0.005754 950562.000000 0 0 1
-28.480107 -19.674716 33.561861 48.214204 0.604540 0.800847 0.034802 -0.004482 411760.000000 0 0 1
-29.140707 -20.453816 32.582861 48.261602 0.611999 0.829655 0.047161 -0.009940 580174.000000 0 0 1
-30.283407 -19.770716 32.038761 48.316127 0.578381 0.845834 0.033185 -0.018334 277119.000000 0 0 1
-30.993507 -20.395616 30.857461 48.257243 0.582021 0.877031 0.045294 -0.010029 -279931.000000 0 0 1
-31.607307 -19.438016 30.014761 47.725719 0.551365 0.890657 0.037344 -0.016833 679309.000000 0 0 1
-32.620607 -19.993716 29.175361 48.115012 0.549863 0.919312 0.036869 -0.007996 243697.000000 0 0 1
-33.133107 -19.078116 28.049561 47.418933 0.522437 0.937845 0.022389 0.000613 32174.100000 0 0 1
-34.212507 -19.673916 27.351161 48.017129 0.521872 0.964762 0.028115 0.004624 324108.000000 0 0 1
-35.036007 -18.696316 26.726161 47.868170 0.490189 0.978427 0.013202 0.015561 77531.600000 0 0 1
34.162278 -19.359816 26.051461 47.122631 -0.515575 0.985023 0.010640 0.019963 158451.000000 0 0 1
33.332278 -19.914416 27.065061 47.330141 -0.538543 0.962055 -0.007074 0.022002 69755.900000 0 0 1
32.227078 -20.609016 26.487861 46.528732 -0.568954 0.965167 -0.004621 0.019430 -106681.000000 0 0 1
31.172078 -20.856416 27.567661 46.547443 -0.589667 0.936950 -0.008810 0.013848 -656166.000000 0 0 1
30.396678 -19.735916 27.832461 45.695845 -0.575868 0.915895 -0.013636 0.012444 -710442.000000 0 0 1
29.543378 -19.988816 28.865861 45.886838 -0.594843 0.890445 -0.009653 0.009994 -920665.000000 0 0 1
-29.600912 -6.161116 34.433206 45.823782 0.205210 0.720575 -0.000838 -0.005737 33737.100000 0 0 1
-30.317392 -5.835016 33.239752 45.365987 0.190139 0.748512 0.007106 0.001276 232756.000000 0 0 1
-29.666512 -4.840116 32.461527 44.241150 0.161726 0.746985 0.020006 0.004100 -137044.000000 0 0 1
-30.264902 -4.629316 31.060207 43.613430 0.151783 0.778211 0.024233 -0.003934 41091.900000 0 0 1
-29.953092 -5.676516 30.202857 42.914136 0.187292 0.790067 0.013788 -0.000597 975118.000000 0 0 1
-28.587332 -5.660316 29.711537 41.617907 0.195473 0.775727 0.018967 -0.002842 1176770.000000 0 0 1
-28.193242 -6.663816 28.592157 40.703523 0.232102 0.791963 0.009974 -0.003159 -318274.000000 0 0 1
-28.914022 -6.385216 27.409737 40.349539 0.217346 0.823978 0.009409 -0.006361 -141888.000000 0 0 1
-28.605462 -7.227316 26.361097 39.565313 0.247476 0.841604 0.027291 -0.011953 -22159.300000 0 0 1
-29.211992 -6.760816 24.998617 39.038186 0.227435 0.875825 0.010477 -0.002495 -128275.000000 0 0 1
-28.759022 -5.495416 24.565287 38.219553 0.188809 0.872725 0.013898 -0.008231 -484428.000000 0 0 1
-29.560392 -4.908816 23.599777 38.142663 0.164559 0.903679 0.017188 -0.008746 -708002.000000 0 0 1
-28.963902 -3.713916 22.885077 37.100236 0.127530 0.906069 0.009737 -0.005140 -379271.000000 0 0 1
-27.870662 -4.058016 22.078077 35.786628 0.144586 0.905952 0.016287 0.000549 223197.000000 0 0 1
-27.202872 -2.865216 21.556977 34.826842 0.104941 0.903358 0.015439 0.001320 -445989.000000 0 0 1
-25.887012 -3.120816 20.873177 33.400096 0.119976 0.895737 0.020464 0.013455 -1084950.000000 0 0 1
-25.898492 -3.834316 19.643577 32.730780 0.146984 0.927100 0.023549 0.000658 -358089.000000 0 0 1
-24.569022 -3.859216 19.208177 31.424265 0.155803 0.913153 0.034199 0.006483 -529363.000000 0 0 1
-24.344022 -4.472416 17.808877 30.492458 0.181691 0.947097 0.036191 0.012206 -210079.000000 0 0 1
-25.221462 -3.886016 16.871077 30.591772 0.152874 0.986646 0.030734 0.010744 296318.000000 0 0 1
-24.907622 -4.151116 15.480877 29.618895 0.165143 1.020818 0.038637 -0.004606 -308064.000000 0 0 1
-26.164072 -4.166916 14.606777 30.253591 0.157935 1.066934 0.050001 -0.014334 -58057.200000 0 0 1
-26.628982 -2.955516 14.039077 30.247867 0.110536 1.088139 0.049901 -0.016428 -472289.000000 0 0 1
-27.872122 -3.056816 13.425377 31.087619 0.109236 1.124247 0.053894 -0.024476 -457784.000000 0 0 1
-28.174102 -1.736616 12.597577 30.911079 0.061561 1.151035 0.055504 -0.009649 -366075.000000 0 0 1
-27.560762 -1.594116 11.342577 29.846120 0.057776 1.180962 0.066043 -0.009963 -38154.100000 0 0 1
-27.971882 -0.461116 10.574777 29.907603 0.016484 1.209399 0.066173 0.001015 -85221.500000 0 0 1
-29.307202 -0.469716 9.799277 30.905639 0.016026 1.248157 0.060173 0.003981 16173.100000 0 0 1
-29.392292 -1.464116 8.804477 30.717573 0.049772 1.280092 0.051390 -0.000893 91813.200000 0 0 1
-30.620132 -1.413916 8.097777 31.704347 0.046143 1.312519 0.056871 -0.002561 118759.000000 0 0 1
-30.496242 -2.255516 6.832477 31.333542 0.073826 1.350974 0.049921 -0.000020 -240049.000000 0 0 1
-29.997932 -1.642616 5.635877 30.566930 0.054703 1.385357 0.051551 0.000276 746724.000000 0 0 1
-30.846922 -0.596816 5.101877 31.271679 0.019345 1.406917 0.039370 0.005641 77378.900000 0 0 1
-30.368152 0.011584 3.763377 30.600454 -0.000381 1.447500 0.026787 0.001976 -170832.000000 0 0 1
-30.578872 -0.841916 2.655577 30.705510 0.027526 1.484203 0.017568 -0.006567 545113.000000 0 0 1
-29.842332 -0.374616 1.534177 29.884090 0.012553 1.519436 0.005796 -0.014929 -171771.000000 0 0 1
-30.371492 -0.965416 0.237477 30.387760 0.031776 1.562981 0.003364 -0.009399 -302944.000000 0 0 1
-31.661322 -0.489716 -0.051023 31.665150 0.015466 1.572408 0.021707 -0.007640 -95844.600000 0 0 1
-32.156962 -0.930816 -1.251423 32.194762 0.028938 1.609677 0.021778 -0.001400 131776.000000 0 0 1
-33.702442 -0.820416 -1.400423 33.741501 0.024338 1.612313 0.035436 -0.008118 -125534.000000 0 0 1
-34.378066 -1.761116 -0.641123 34.429116 0.051183 1.589419 0.036123 -0.004478 732975.000000 0 0 1
34.659767 -1.405516 -0.596823 34.693388 -0.040530 1.588000 0.053405 -0.011338 1073400.000000 0 0 1
33.622593 -2.448516 -0.051323 33.711669 -0.072695 1.572319 0.059768 -0.016893 164143.000000 0 0 1
33.707783 -2.668616 1.343477 33.839933 -0.079004 1.531085 0.046684 -0.015295 414646.000000 0 0 1
32.944993 -3.836416 1.679577 33.210114 -0.115927 1.520200 0.053719 -0.012303 20461.300000 0 0 1
33.091473 -4.334116 3.173377 33.524625 -0.130233 1.475996 0.053735 -0.000438 -169595.000000 0 0 1
32.415003 -3.537416 4.087477 32.862642 -0.108699 1.446093 0.038104 -0.002496 169957.000000 0 0 1
32.599853 -4.018616 5.391277 33.286117 -0.122652 1.408112 0.024482 0.001492 -193257.000000 0 0 1
32.254973 -2.834516 6.334277 32.993042 -0.087653 1.377609 0.015106 0.002735 1718000.000000 0 0 1
30.821283 -2.661916 6.581977 31.628464 -0.086152 1.361161 0.022357 -0.000030 1780540.000000 0 0 1
30.536553 -1.486516 7.292977 31.430532 -0.048642 1.336627 0.008200 0.008987 943324.000000 0 0 1
29.054093 -1.428116 7.828177 30.124080 -0.049114 1.307915 0.015267 0.005843 1446650.000000 0 0 1
27.977703 -1.278316 6.862377 28.835363 -0.045659 1.330506 0.021284 -0.001509 1373830.000000 0 0 1
26.690913 -1.192416 7.478577 27.744474 -0.044645 1.297869 0.016990 0.003787 494850.000000 0 0 1
25.973003 -2.560216 7.536477 27.165237 -0.098255 1.289677 0.038519 -0.009119 -967985.000000 0 0 1
26.470643 -3.415016 8.516877 28.015968 -0.128303 1.261907 0.026762 -0.011269 241679.000000 0 0 1
25.941583 -4.688116 8.313577 27.641630 -0.178789 1.265304 0.047853 -0.016081 -307011.000000 0 0 1
26.212413 -5.770616 9.343277 28.419842 -0.216692 1.235807 0.035338 -0.011729 -170675.000000 0 0 1
25.509583 -5.469616 10.561577 28.146091 -0.211216 1.186139 0.033010 -0.008842 501802.000000 0 0 1
25.876833 -6.320816 11.582777 29.046926 -0.239574 1.160631 0.024704 -0.006607 -287807.000000 0 0 1
24.947063 -6.242716 12.809177 28.729819 -0.245203 1.108673 0.026045 -0.013804 401244.000000 0 0 1
23.699963 -6.874916 12.548477 27.684237 -0.282332 1.100364 0.041772 -0.020208 252112.000000 0 0 1
22.656563 -6.598816 13.479377 27.176420 -0.283414 1.051816 0.055192 -0.022166 304842.000000 0 0 1
21.570263 -7.673416 13.271277 26.462886 -0.341780 1.045459 0.056515 -0.028240 -232914.000000 0 0 1
21.918263 -8.924316 13.859777 27.425300 -0.386666 1.040992 0.054363 -0.029221 392653.000000 0 0 1
20.873763 -9.867616 13.639677 26.816499 -0.441593 1.037203 0.072896 -0.043079 -391974.000000 0 0 1
21.172063 -11.209916 14.343377 27.922230 -0.486943 1.031316 0.069322 -0.041801 -253180.000000 0 0 1
21.174963 -11.067216 15.708477 28.594031 -0.481608 0.989196 0.052888 -0.041922 378555.000000 0 0 1
21.709763 -12.166016 16.442577 29.827573 -0.510788 0.986930 0.054080 -0.036292 -304255.000000 0 0 1
21.388563 -12.123816 17.931277 30.430055 -0.515677 0.940651 0.059699 -0.033293 -1605370.000000 0 0 1
20.067063 -12.150716 18.243677 29.717986 -0.544458 0.909813 0.059021 -0.025909 -1573100.000000 0 0 1
19.783563 -12.423416 19.618477 30.505988 -0.560730 0.872254 0.062533 -0.013595 248044.000000 0 0 1
20.240463 -11.377516 20.693777 31.102357 -0.512099 0.842841 0.046766 -0.012373 405264.000000 0 0 1
19.296363 -10.288016 20.831077 30.201435 -0.489821 0.809669 0.044620 -0.015531 509232.000000 0 0 1
19.661063 -9.087916 20.182577 29.605473 -0.432977 0.820688 0.051567 -0.013338 -1221950.000000 0 0 1
20.659163 -8.226116 20.995877 30.582623 -0.378939 0.814091 0.042061 0.005332 1146130.000000 0 0 1
22.029963 -8.663516 21.048077 31.676447 -0.374683 0.844011 0.044197 0.000921 985554.000000 0 0 1
22.691563 -8.637916 19.796577 31.327705 -0.363729 0.886769 0.042831 -0.005902 -963422.000000 0 0 1
24.134463 -9.197616 19.734977 32.504427 -0.364107 0.918331 0.029022 -0.002822 27709.700000 0 0 1
24.183963 -10.508916 20.280877 33.265829 -0.409924 0.915164 0.024737 -0.008768 627133.000000 0 0 1
25.403053 -11.199016 19.938277 34.179935 -0.415221 0.947970 0.016129 -0.011301 758326.000000 0 0 1
25.350963 -12.706916 20.196477 34.814289 -0.464639 0.951920 -0.002303 -0.010430 -57937.800000 0 0 1
24.417563 -13.374616 19.383077 33.923464 -0.501111 0.962614 0.028415 -0.013721 75798.500000 0 0 1
24.392863 -14.785816 19.714477 34.674093 -0.544932 0.966036 0.020649 -0.013956 -306596.000000 0 0 1
23.252263 -15.419616 18.927577 33.714766 -0.585560 0.974716 0.051424 -0.021064 -526380.000000 0 0 1
23.532063 -15.472316 17.568477 33.193402 -0.581629 1.013049 0.038849 -0.025330 -265548.000000 0 0 1
22.537263 -16.050516 16.783677 32.361074 -0.618852 1.025539 0.019964 -0.025128 -614756.000000 0 0 1
22.416363 -17.600116 16.938677 33.153826 -0.665618 1.034551 0.017032 -0.028596 -240951.000000 0 0 1
23.522163 -18.234316 16.346777 33.955847 -0.659433 1.068531 0.022762 -0.018357 50718.100000 0 0 1
23.404263 -19.677116 16.485977 34.738104 -0.699099 1.076311 0.018495 -0.017562 56585.400000 0 0 1
24.721163 -20.410416 16.152177 35.897268 -0.690172 1.104081 0.009655 -0.006457 -26065.400000 0 0 1
25.024763 -20.507516 14.753777 35.559400 -0.686512 1.142958 0.009967 -0.016879 -84533.700000 0 0 1
26.086333 -21.395016 14.532277 36.734596 -0.686914 1.164073 -0.003093 -0.013496 -433654.000000 0 0 1
26.196953 -21.436916 13.002077 36.261215 -0.685799 1.204064 -0.007020 -0.027022 -236661.000000 0 0 1
25.044963 -21.863316 12.294977 35.446033 -0.717675 1.216570 -0.011999 -0.020696 195191.000000 0 0 1
25.195263 -21.709516 10.894677 34.997119 -0.711219 1.254233 0.000003 -0.011184 252829.000000 0 0 1
23.829363 -21.958216 10.206077 33.973016 -0.744555 1.265666 -0.003201 -0.020807 149063.000000 0 0 1
23.282863 -23.269716 10.369877 34.512400 -0.785116 1.265613 -0.003940 -0.019916 140291.000000 0 0 1
21.946363 -23.177616 9.901677 33.419874 -0.812677 1.270000 -0.011979 -0.011434 29350.400000 0 0 1
21.654763 -24.137316 8.787977 33.597133 -0.839559 1.306149 -0.009286 -0.005389 -528428.000000 0 0 1
21.639763 -25.488126 9.264077 34.695058 -0.866875 1.300503 -0.012406 -0.006413 -21471.600000 0 0 1
21.347763 -26.413426 8.251177 34.949650 -0.891065 1.332459 -0.007496 -0.003231 497223.000000 0 0 1
19.834463 -26.710516 8.000777 34.217978 -0.932067 1.334794 -0.006418 0.003244 641051.000000 0 0 1
19.144863 -25.576246 7.472677 32.810228 -0.928230 1.341025 -0.004089 0.002299 66511.500000 0 0 1
17.742363 -25.786716 7.631977 32.217903 -0.968141 1.331637 -0.003119 -0.006564 572981.000000 0 0 1
16.852063 -24.531916 7.403377 30.669479 -0.968886 1.326996 0.004243 -0.009288 -62076.700000 0 0 1
16.853963 -23.980016 6.065577 29.931396 -0.958171 1.366734 0.010283 -0.005237 321896.000000 0 0 1
15.910963 -22.919416 6.072777 28.554107 -0.963965 1.356483 0.011202 -0.003589 17885.900000 0 0 1
15.792363 -22.116816 4.743477 27.587187 -0.950707 1.397993 0.020310 0.007526 290736.000000 0 0 1
14.815363 -21.062816 4.844377 26.203153 -0.957799 1.384849 0.034221 0.002041 513063.000000 0 0 1
14.598163 -20.359116 3.612377 25.311050 -0.948730 1.427588 0.033518 0.006888 478634.000000 0 0 1
13.872863 -18.969216 3.590877 23.773555 -0.939348 1.419171 0.032321 0.006142 197282.000000 0 1 0
14.744363 -18.005116 4.114677 23.632838 -0.884638 1.395796 0.030071 0.004515 240282.000000 0 1 0
14.368963 -16.702516 3.712677 22.343346 -0.860360 1.403857 0.020888 0.002828 413521.000000 0 1 0
15.511463 -15.690016 4.089177 22.438883 -0.791121 1.387536 0.021521 0.000457 -124549.000000 0 1 0
15.729563 -15.326216 5.446577 22.626915 -0.772411 1.327697 0.028031 -0.009864 -51091.600000 0 1 0
16.774663 -14.439116 5.747677 22.867295 -0.710713 1.316722 0.021534 -0.012646 1160680.000000 0 1 0
18.260763 -14.895816 5.445177 24.186582 -0.684258 1.343718 0.028525 -0.012056 736132.000000 0 1 0
19.278063 -13.986316 5.766177 24.505297 -0.627639 1.333266 0.040859 -0.011191 -47456.400000 0 1 0
20.567363 -14.387516 5.398677 25.674165 -0.610411 1.358938 0.047353 -0.010664 -413250.000000 0 0 1
21.670363 -13.371116 5.512977 26.053489 -0.552843 1.357582 0.048603 -0.013602 -552812.000000 0 0 1
21.750663 -12.827916 6.796177 26.150235 -0.532864 1.307888 0.068917 -0.022446 206527.000000 0 0 1
22.947163 -12.097216 6.911577 26.845574 -0.485152 1.310407 0.079308 -0.015788 -93164.300000 0 0 1
22.981563 -11.253616 8.200477 26.870875 -0.455358 1.260668 0.079586 -0.017941 -90668.800000 0 0 1
23.259263 -12.039716 9.327177 27.801876 -0.477653 1.228674 0.074261 -0.023382 222410.000000 0 0 1
23.473363 -11.350716 10.532277 28.120569 -0.450407 1.186896 0.089958 -0.028108 171694.000000 0 0 1
23.855063 -12.385016 11.640877 29.291000 -0.478872 1.162091 0.063702 -0.021590 1596390.000000 0 0 1
22.659963 -13.201416 11.879177 28.790036 -0.527518 1.145474 0.057910 -0.022669 1914260.000000 0 0 1
23.063363 -14.168716 12.890277 29.980502 -0.550896 1.126353 0.049554 -0.025841 592554.000000 0 0 1
22.008563 -15.299116 13.096777 29.832287 -0.607459 1.116296 0.040098 -0.026903 307977.000000 0 0 1
20.784363 -14.890016 13.671377 28.993256 -0.621651 1.079764 0.038681 -0.035084 -263503.000000 0 0 1
20.074463 -16.068916 14.014777 29.284947 -0.675025 1.071776 0.020170 -0.042327 -208503.000000 0 0 1
18.675763 -15.718716 14.565977 28.425866 -0.699635 1.032796 0.027212 -0.045419 -397302.000000 0 0 1
18.658863 -15.140116 15.793277 28.754198 -0.681664 0.989328 0.028465 -0.036675 71430.900000 0 0 1
18.468463 -13.736916 15.713377 27.869288 -0.639524 0.971788 0.034805 -0.037153 -252679.000000 0 0 1
16.983563 -13.297416 15.786677 26.729794 -0.664263 0.938991 0.041235 -0.039697 -430461.000000 0 0 1
16.339463 -13.654816 14.585477 25.810234 -0.696131 0.970237 0.038342 -0.042551 -306571.000000 0 0 1
14.938863 -13.504116 14.536577 24.836321 -0.734998 0.945552 0.055916 -0.040257 72794.200000 0 1 0
14.458063 -12.030816 14.267177 23.607805 -0.694021 0.921857 0.040584 -0.032454 -453471.000000 0 1 0
14.699263 -11.085916 15.291477 23.933139 -0.646172 0.877697 0.024033 -0.020039 -42806.700000 0 1 0
14.251163 -9.822416 14.931977 22.859122 -0.603465 0.858970 0.017022 -0.017119 -646314.000000 0 1 0
14.879063 -8.688916 15.771877 23.358850 -0.528549 0.829562 0.021217 -0.019409 -783997.000000 0 1 0
16.250263 -8.516616 15.691377 24.141730 -0.482734 0.863253 0.025077 -0.026394 -782596.000000 0 1 0
16.949963 -9.218816 16.702977 25.520134 -0.498136 0.857273 0.038523 -0.025639 -307355.000000 0 0 1
18.477463 -9.103116 16.575677 26.439297 -0.457759 0.893186 0.052042 -0.031379 -205293.000000 0 0 1
19.069763 -7.939316 17.072577 26.798535 -0.394504 0.880104 0.047971 -0.027990 -133928.000000 0 0 1
20.447363 -7.864816 16.830877 27.626589 -0.367193 0.915710 0.050193 -0.020191 -543705.000000 0 0 1
21.039763 -6.484416 17.087777 27.869543 -0.298961 0.910774 0.046661 -0.006971 -429994.000000 0 0 1
21.384763 -6.263216 18.457377 28.934594 -0.284914 0.879028 0.046485 -0.008922 291452.000000 0 0 1
21.638263 -4.885416 18.702977 29.015221 -0.222054 0.870307 0.043346 -0.007899 -70065.100000 0 0 1
-5.643022 -33.148330 -6.105439 34.175018 1.402177 1.750413 -0.024540 -0.001199 -81448.900000 0 0 1
-5.995522 -31.797530 -6.339639 32.973023 1.384431 1.764269 -0.026364 -0.006314 -126015.000000 0 0 1
-5.640922 -31.038430 -5.261339 31.982587 1.391019 1.736054 -0.019562 -0.006700 -1256580.000000 0 0 1
-6.061022 -29.560030 -5.546039 30.680449 1.368558 1.752563 -0.011165 -0.006815 1040590.000000 0 0 1
-7.424422 -29.314930 -5.145939 30.675200 1.322748 1.739349 -0.013910 -0.002251 1311180.000000 0 0 1
-8.398722 -29.942630 -6.005539 31.672798 1.297330 1.761563 -0.016079 0.002550 -611704.000000 0 0 1
-9.874822 -29.894730 -5.562839 31.971115 1.251760 1.745682 0.020162 0.009024 -34945.300000 0 0 1
-10.666922 -30.647830 -6.424339 33.080884 1.235861 1.766239 0.011631 0.003526 -57763.400000 0 0 1
-12.045922 -30.425830 -6.130139 33.292852 1.193820 1.755981 0.020037 0.004611 452893.000000 0 0 1
-13.041522 -31.059430 -7.098639 34.426155 1.173262 1.778485 0.033829 -0.005159 -57672.800000 0 0 1
-13.131922 -30.326230 -8.287939 34.070773 1.162151 1.816518 0.054124 -0.003706 65887.300000 0 0 1
-14.152622 -30.827830 -9.129339 35.128289 1.140412 1.833700 0.053651 -0.006515 80237.900000 0 0 1
-14.247222 -30.072530 -10.497539 34.893248 1.128359 1.876377 0.058579 -0.005251 -37042.100000 0 0 1
-14.690322 -28.733730 -10.473939 33.928398 1.098184 1.884630 0.056783 -0.015831 261193.000000 0 0 1
-13.590622 -27.865330 -10.314439 32.673679 1.117017 1.891970 0.061105 -0.011508 74992.600000 0 0 1
-14.014422 -26.455730 -9.769439 31.492088 1.083648 1.886220 0.044971 0.002378 144567.000000 0 0 1
-14.621522 -25.600530 -10.734739 31.375320 1.051867 1.919989 0.064343 -0.008941 182069.000000 0 0 1
-15.147322 -24.457730 -10.160339 30.509907 1.016287 1.910298 0.047481 0.004531 -468091.000000 0 0 1
-15.759622 -23.450630 -11.155639 30.376735 0.979087 1.946839 0.044944 -0.003785 -290590.000000 0 0 1
-17.056322 -23.896030 -11.485139 31.525336 0.950887 1.943693 0.037707 -0.004740 -506345.000000 0 0 1
-17.462522 -23.149330 -12.607039 31.619118 0.924522 1.980912 0.038386 -0.001258 567830.000000 0 0 1
-18.940822 -23.420530 -13.100539 32.846615 0.890756 1.981048 0.019104 0.008889 805974.000000 0 0 1
-19.191822 -24.770130 -13.495539 34.117664 0.911613 1.977472 0.037329 0.004124 -226142.000000 0 0 1
-19.157022 -25.721330 -12.440739 34.399859 0.930637 1.940834 0.048324 -0.005556 -1409650.000000 0 0 1
-19.379022 -27.124930 -12.981539 35.774694 0.950447 1.942142 0.044016 -0.003252 726406.000000 0 0 1
-18.411022 -27.783130 -13.860939 36.097004 0.985566 1.964912 0.058677 -0.006981 1500830.000000 0 0 1
-17.030522 -27.728730 -13.461839 35.215654 1.020013 1.963046 0.068895 -0.011412 564059.000000 0 0 1
-16.265422 -28.993430 -13.908839 36.036631 1.059544 1.967049 0.059837 -0.012899 -90029.700000 0 0 1
-16.336722 -29.230730 -15.331939 36.829233 1.061154 2.000166 0.051517 -0.016134 16340.100000 0 0 1
-15.515122 -30.334630 -15.685539 37.509265 1.098018 2.002235 0.069808 -0.016597 -86258.600000 0 0 1
-16.201122 -31.708230 -15.601239 38.875273 1.098432 1.983749 0.056411 -0.016111 -231175.000000 0 0 1
-16.422722 -32.059230 -14.243539 38.734719 1.097387 1.947353 0.067641 -0.015590 167693.000000 0 0 1
-16.593722 -33.466330 -14.000539 39.891878 1.110488 1.929395 0.031923 -0.001303 -1255480.000000 0 0 1
-17.022822 -33.642330 -12.530039 39.731407 1.102365 1.891641 0.042706 -0.011032 236812.000000 0 0 1
-18.413722 -33.489130 -12.263339 40.136972 1.068075 1.881299 0.039916 -0.005373 605288.000000 0 0 1
-18.955322 -32.166130 -12.288239 39.306043 1.038286 1.888757 0.051723 -0.010976 -364024.000000 0 0 1
-18.346822 -31.051530 -11.346439 37.809325 1.037131 1.875590 0.061996 -0.008809 -277724.000000 0 0 1
-18.761022 -31.036630 -9.975039 37.613160 1.027089 1.839208 0.050232 -0.008902 143103.000000 0 0 1
-17.933022 -30.230030 -9.181539 36.328345 1.035378 1.826305 0.040384 0.000134 -348866.000000 0 0 1
-18.203422 -30.277030 -7.641339 36.144892 1.029474 1.783812 0.047155 -0.011412 -69903.400000 0 0 1
-17.708422 -31.479330 -7.063239 36.802524 1.058376 1.763917 0.050942 -0.014368 99617.900000 0 0 1
-17.981422 -31.536030 -5.676239 36.743332 1.052587 1.725901 0.043378 -0.027811 -412671.000000 0 0 1
-17.234322 -32.678730 -4.997839 37.281358 1.085480 1.705258 0.042707 -0.020371 1492020.000000 0 0 1
-15.821022 -32.390930 -4.777839 36.363510 1.116440 1.702568 0.026321 -0.010703 1506400.000000 0 0 1
-15.725322 -32.031130 -3.400339 35.844684 1.114424 1.665802 0.024444 -0.008058 -438403.000000 0 0 1
-14.417322 -31.391030 -2.925839 34.667225 1.140251 1.655295 0.026849 -0.002083 328806.000000 0 0 1
-13.210722 -32.149630 -3.064339 34.892866 1.180917 1.658731 0.014042 -0.000619 435378.000000 0 0 1
-12.166622 -31.462430 -2.392439 33.817672 1.201805 1.641601 0.009171 0.004344 -282181.000000 0 0 1
-10.793222 -32.102930 -2.474839 33.959043 1.246462 1.643738 0.008514 -0.000193 -1299440.000000 0 0 1
-10.765322 -33.395530 -1.927739 35.140714 1.258956 1.625682 0.009648 -0.000844 399921.000000 0 0 1
-9.496022 -34.074330 -2.006139 35.429635 1.299007 1.627450 0.013607 -0.005132 1110650.000000 0 0 1
-8.388922 -33.423730 -1.084939 34.477483 1.324889 1.602270 0.017742 -0.003184 -289495.000000 0 0 1
-8.709622 -33.446830 0.306561 34.563593 1.316052 1.561927 0.022970 -0.007686 170566.000000 0 0 1
-7.659722 -32.907130 1.109761 33.805061 1.342101 1.537962 0.027948 -0.012896 311171.000000 0 0 1
-6.799822 -33.893930 1.845261 34.618508 1.372804 1.517468 0.033799 -0.013158 212339.000000 0 0 1
-7.662522 34.381184 2.727261 35.330129 -1.351511 1.493526 0.034666 -0.019927 753434.000000 0 0 1
-6.994922 33.382484 3.509461 34.287541 -1.364246 1.468263 0.035033 -0.015839 -151077.000000 0 0 1
-6.179722 33.887984 4.716661 34.768251 -1.390421 1.434717 0.036612 -0.017295 -368915.000000 0 0 1
-4.964822 34.481084 4.383961 35.111447 -1.427792 1.445611 0.035756 -0.017917 -524377.000000 0 0 1
-4.288322 -34.159930 5.557161 34.873666 1.445913 1.410763 0.025926 -0.019328 654510.000000 0 0 1
-3.104322 -33.162330 5.296961 33.725877 1.477458 1.413084 0.037454 -0.014922 438167.000000 0 0 1
-3.502522 -31.926930 4.742261 32.466684 1.461529 1.424206 0.030226 -0.008959 11707.200000 0 0 1
-3.777422 -31.992830 3.346461 32.388407 1.453270 1.467289 0.021114 -0.010798 -57451.600000 0 0 1
-4.343622 -30.709830 2.679261 31.131000 1.430288 1.484626 0.018188 -0.007159 -252214.000000 0 0 1
-3.423222 -29.673930 2.786061 30.000379 1.455943 1.477795 0.015075 -0.005339 -418952.000000 0 0 1
-3.718222 -28.483230 2.045961 28.797665 1.440990 1.499690 0.012800 -0.007732 87462.500000 0 0 1
-3.005722 -27.161330 2.490861 27.440419 1.460583 1.479898 0.016592 -0.011270 -33720.400000 0 0 1
-3.361322 -25.992130 1.817461 26.271515 1.442189 1.501561 0.020203 -0.015801 -408674.000000 0 0 1
-2.886922 -24.835130 2.423461 25.119538 1.455072 1.474169 0.002774 -0.009860 -145747.000000 0 0 1
-3.886722 -24.165730 3.391661 24.710170 1.411326 1.433104 -0.003122 -0.012041 -132073.000000 0 1 0
-4.098722 -24.973830 4.514661 25.707467 1.408126 1.394264 0.011325 -0.011367 288953.000000 0 0 1
-5.066222 -24.446130 5.436061 25.550551 1.366449 1.356401 -0.000925 -0.004768 145241.000000 0 0 1
-5.490122 -25.474830 6.545261 26.869106 1.358531 1.324722 0.002894 -0.005654 89805.700000 0 0 1
-4.580222 -25.792530 7.623561 27.282810 1.395049 1.287599 0.000431 -0.012297 100390.000000 0 0 1
-5.157422 -26.761430 8.458361 28.536240 1.380412 1.269867 -0.002844 -0.006277 230490.000000 0 0 1
-4.279722 -27.151630 9.687361 29.143987 1.414460 1.231953 0.001773 0.001509 101171.000000 0 0 1
-4.133522 -26.137630 10.642561 28.522374 1.413951 1.188416 0.001752 -0.001196 -658849.000000 0 0 1
-5.281322 -25.809530 11.349261 28.685012 1.368956 1.164019 0.003936 -0.001211 -553706.000000 0 0 1
-5.068622 -24.754330 12.458361 28.172301 1.368831 1.112724 0.004490 0.001662 219541.000000 0 0 1
-4.350322 -25.328130 13.536861 29.046275 1.400698 1.085981 0.013945 0.002343 72589.000000 0 0 1
-3.544122 -24.399730 14.281661 28.493393 1.426553 1.045780 -0.006232 0.000583 213060.000000 0 0 1
-2.541522 -25.123430 15.228261 29.488065 1.469978 1.028130 -0.002482 -0.000822 230934.000000 0 0 1
-3.093122 -25.816530 16.327761 30.702710 1.451553 1.010069 -0.010815 0.003223 44041.800000 0 0 1
-2.005022 -26.342230 17.058661 31.447275 1.494828 0.997442 -0.022281 0.007450 377740.000000 0 0 1
-2.481522 -26.897430 18.415661 32.691991 1.478798 0.972412 -0.018162 -0.004539 68306.800000 0 0 1
-2.684622 -25.878330 19.272661 32.377934 1.467426 0.933231 -0.019272 -0.004420 -239961.000000 0 0 1
-2.763222 -26.396730 20.574961 33.582016 1.466496 0.911352 -0.003083 -0.005843 27233.900000 0 0 1
-2.958722 -25.234030 21.562961 33.323739 1.454078 0.867055 -0.006345 -0.009459 -40211.000000 0 0 1
-2.762922 -25.633030 22.864161 34.459481 1.463423 0.845298 0.003135 -0.011207 -855.802000 0 0 1
-2.910822 -24.669030 23.907261 34.475949 1.453344 0.804533 0.005827 -0.012016 117102.000000 0 0 1
-1.872322 -23.500430 23.919061 33.584182 1.491292 0.778152 0.001664 -0.000859 38084.200000 0 0 1
-2.111822 -22.468430 22.970161 32.201218 1.477081 0.776555 0.000546 -0.002523 -200610.000000 0 0 1
-1.004922 -21.601030 22.835461 31.449525 1.524308 0.758165 0.002440 -0.006542 -1534610.000000 0 0 1
-1.362922 -20.401830 21.975461 30.016880 1.504092 0.749392 0.007876 -0.006230 203956.000000 0 0 1
-2.311622 -19.481830 22.509661 29.859172 1.452693 0.716878 0.009731 -0.013388 103639.000000 0 0 1
-3.591422 -19.959930 22.866561 30.564305 1.392770 0.725533 0.012542 -0.012771 -611813.000000 0 0 1
-4.645022 -19.633430 21.727461 29.650133 1.338481 0.748376 0.002845 -0.005335 -99266.000000 0 0 1
-4.593222 -20.398930 20.537961 29.309075 1.349320 0.794366 -0.002959 -0.000942 -27528.700000 0 0 1
-4.974422 -21.776030 20.673561 30.435776 1.346214 0.824053 -0.003274 -0.004973 10160.700000 0 0 1
-5.044622 -22.416030 19.272661 29.989366 1.349439 0.872844 -0.013843 -0.001211 -148817.000000 0 0 1
-5.439122 -23.754630 19.279461 31.073527 1.345705 0.901484 0.001943 -0.010074 -247220.000000 0 0 1
-5.484722 -24.150130 17.944161 30.582738 1.347475 0.943767 -0.000285 -0.010568 49831.000000 0 0 1
-6.201522 -25.519830 17.764861 31.706638 1.332409 0.976062 -0.007031 -0.017472 709679.000000 0 0 1
-7.610822 -25.571730 17.960361 32.162285 1.281519 0.978305 0.008329 -0.020167 -48812.000000 0 0 1
-8.112722 -26.897430 17.973661 33.351769 1.277857 1.001652 0.019153 -0.023027 396728.000000 0 0 1
-9.619522 -26.901930 18.331761 33.945581 1.227387 1.000319 0.018895 -0.029941 -698083.000000 0 0 1
-10.506122 -26.630530 17.283561 33.440772 1.195028 1.027640 0.034584 -0.020535 1244050.000000 0 0 1
-11.921022 -26.580330 17.631961 34.051590 1.149199 1.026517 0.041335 -0.019060 1834790.000000 0 0 1
-12.339122 -25.561630 18.759661 34.023165 1.121068 0.986780 0.039849 -0.026578 -1142450.000000 0 0 1
-12.348422 -24.231730 18.281261 32.769876 1.099500 0.978982 0.044485 -0.022976 1712.970000 0 0 1
-12.415222 -23.163830 19.218061 32.558173 1.078785 0.939405 0.035582 -0.016781 -579497.000000 0 0 1
-11.072022 -22.647830 19.707061 31.998158 1.116086 0.907292 0.030677 -0.021916 -421552.000000 0 0 1
-10.427022 -23.438430 20.690461 32.957214 1.152218 0.892076 0.038358 -0.026236 10746.100000 0 0 1
-9.120122 -23.710330 20.219561 32.468246 1.203594 0.898545 0.031476 -0.028237 174667.000000 0 0 1
-8.233522 -24.602530 21.136361 33.463728 1.247851 0.887155 0.024519 -0.024724 231349.000000 0 0 1
-7.968522 -23.980030 22.399861 33.768224 1.249978 0.845521 0.037157 -0.025274 -97809.000000 0 0 1
-7.467922 -24.923730 23.310261 34.933228 1.279678 0.840245 0.017278 -0.018467 -35436.200000 0 0 1
-7.017322 -24.265430 24.655361 35.297885 1.289286 0.797506 0.023546 -0.015186 261801.000000 0 0 1
-6.268122 -25.140930 25.498561 36.352886 1.326458 0.793412 0.022386 -0.012813 134538.000000 0 0 1
-6.096622 -24.505230 26.761161 36.794495 1.326958 0.756396 0.025318 -0.010079 367763.000000 0 0 1
-4.952822 -25.113330 27.663261 37.689067 1.376076 0.746623 0.039227 -0.006752 1660620.000000 0 0 1
-3.635822 -24.860230 27.101661 36.956058 1.425575 0.747562 0.042950 -0.007856 1878850.000000 0 0 1
-2.594622 -24.692030 28.112061 37.506218 1.466101 0.723444 0.036393 -0.007643 675087.000000 0 0 1
-1.352122 -23.974130 27.619361 36.598036 1.514457 0.715649 0.014550 -0.001319 -1057510.000000 0 0 1
-1.555222 -22.522330 27.456061 35.545877 1.501853 0.688166 0.012591 -0.004777 -161870.000000 0 0 1
-0.485122 -21.676730 27.062061 34.676665 1.548420 0.675473 0.015986 -0.013450 -76624.800000 0 0 1
0.578778 -21.418730 28.145261 35.373050 -1.543781 0.650684 0.024692 -0.007132 7630.630000 0 0 1
1.316978 -22.552430 28.582761 36.432413 -1.512466 0.668839 0.017020 -0.007474 -52695.400000 0 0 1
2.374378 -22.276430 29.440761 36.995073 -1.464610 0.650465 0.023607 -0.011012 -74335.600000 0 0 1
2.985878 -23.558030 30.111961 38.348747 -1.444723 0.667755 0.018829 -0.006595 -33777.100000 0 0 1
3.543878 -24.527330 29.240061 38.329234 -1.427302 0.703062 0.012729 -0.007854 391314.000000 0 0 1
4.176778 -25.691230 29.753961 39.532050 -1.409630 0.718712 -0.014731 0.004698 295590.000000 0 0 1
5.549478 -25.528430 30.519261 40.173657 -1.356742 0.707970 -0.029303 0.004670 1384490.000000 0 0 1
6.693678 -25.066630 29.774761 39.492754 -1.309850 0.716773 -0.038090 0.010677 810685.000000 0 0 1
7.138578 -25.973730 28.767561 39.410233 -1.302580 0.752545 -0.037743 0.020576 -713926.000000 0 0 1
8.220678 -25.335030 27.859161 38.543172 -1.257036 0.762945 -0.034303 0.017911 220892.000000 0 0 1
7.774378 -24.193530 27.113061 37.160273 -1.259877 0.753023 -0.016994 0.019897 422203.000000 0 0 1
8.910778 -23.794730 26.359661 36.611786 -1.212477 0.767026 -0.021967 0.014191 378409.000000 0 0 1
8.617478 -22.635730 25.367361 35.073354 -1.207036 0.762276 0.001768 0.008759 339342.000000 0 0 1
7.890778 -22.978730 24.159261 34.263046 -1.240018 0.788216 0.015139 0.008479 359573.000000 0 0 1
7.508578 -21.767730 23.467061 32.877283 -1.238636 0.775919 0.012936 0.019260 -49166.900000 0 0 1
6.790278 -22.086530 22.134461 31.997766 -1.272528 0.806886 0.039069 0.014842 3846.440000 0 0 1
7.535278 -22.758230 21.111361 31.943810 -1.251056 0.848792 0.038748 0.016512 -542166.000000 0 0 1
6.792178 -23.106430 20.036861 31.329165 -1.284897 0.876871 0.045291 -0.000103 -588795.000000 0 0 1
7.475678 -24.178930 19.176861 31.753085 -1.270938 0.922365 0.040373 -0.011909 939133.000000 0 0 1
8.780878 -23.746630 18.758761 31.510274 -1.216616 0.933130 0.048314 -0.015710 443771.000000 0 0 1
9.510178 -24.727230 18.008961 32.034389 -1.203633 0.973782 0.058281 -0.020373 16265.000000 0 0 1
10.847478 -24.119630 17.597661 31.766366 -1.148162 0.983669 0.046192 -0.023279 -496990.000000 0 0 1
10.648078 -23.269330 16.517061 30.457455 -1.141639 0.997625 0.055120 -0.018433 -16994.000000 0 0 1
11.844078 -22.994930 15.801961 30.310905 -1.095163 1.022388 0.049189 -0.025918 256476.000000 0 0 1
-12.014722 22.348284 11.828261 27.994769 -1.077513 1.134576 -0.009891 -0.007189 -602083.000000 0 0 1
-12.961522 21.560084 11.198361 27.536186 -1.029509 1.151982 -0.023286 -0.006921 -355096.000000 0 0 1
-12.340522 20.416384 10.627661 26.116362 -1.027117 1.151700 -0.007992 -0.015806 29437.300000 0 0 1
-13.232422 19.778884 9.544461 25.639773 -0.981168 1.189362 -0.008332 -0.013170 -429540.000000 0 0 1
-13.184722 20.581684 8.332961 25.824036 -1.001054 1.242234 -0.005332 -0.012494 63089.700000 0 0 1
-14.007922 20.123784 7.278661 25.576697 -0.962701 1.282226 0.002551 -0.013773 1526790.000000 0 0 1
-15.590622 20.193984 7.435661 26.573549 -0.913336 1.287196 0.011624 -0.011932 1175650.000000 0 0 1
-16.079322 19.167284 8.313361 26.363636 -0.872785 1.249987 0.011447 -0.017778 -1045860.000000 0 0 1
-17.397322 19.337584 8.668461 27.418081 -0.838167 1.249119 0.017953 -0.017504 -1172820.000000 0 0 1
-17.883822 18.313984 9.644261 27.354065 -0.797281 1.210479 0.015513 -0.016967 -314180.000000 0 0 1
-18.085022 17.036784 9.076161 26.451781 -0.755561 1.220559 0.019235 -0.021710 -7058.660000 0 0 1
-18.712122 16.148484 9.985261 26.657503 -0.711991 1.186857 0.030841 -0.022919 -412847.000000 0 0 1
-17.801322 15.342884 10.922161 25.914952 -0.711360 1.135740 0.027417 -0.018109 -14397.200000 0 0 1
-17.025722 14.368184 10.195361 24.500312 -0.700948 1.141609 0.016113 -0.005732 265847.000000 0 1 0
-16.342622 13.440084 11.024261 23.858991 -0.688248 1.090481 0.007505 -0.006504 -81330.900000 0 1 0
-17.223322 12.533484 11.919461 24.409109 -0.629078 1.060633 0.019252 -0.003194 -32488.900000 0 1 0
-18.136122 11.761384 11.150861 24.322639 -0.575324 1.094539 0.012025 0.001129 -265293.000000 0 1 0
-18.927522 10.998184 11.992861 24.960766 -0.526383 1.069608 0.022339 0.000436 32300.600000 0 1 0
-19.996822 10.105784 11.277361 25.083433 -0.467934 1.104486 0.025495 0.002122 -95324.000000 0 0 1
-19.471322 9.080084 10.472161 23.900763 -0.436352 1.117255 0.024916 0.004199 383870.000000 0 1 0
-19.010222 9.420484 9.151061 23.105756 -0.460080 1.163584 0.031685 0.007191 -632362.000000 0 1 0
-20.078322 9.506684 8.065961 23.634208 -0.442207 1.222514 0.049480 0.005799 -274954.000000 0 1 0
-20.542922 8.309884 7.409161 23.365819 -0.384391 1.248133 0.032462 0.008327 255654.000000 0 1 0
-21.284422 8.688884 6.311661 23.840310 -0.387579 1.302854 0.031928 0.013305 -425751.000000 0 1 0
-21.600122 7.502284 5.392061 23.493060 -0.334291 1.339215 0.033640 0.013989 -224671.000000 0 1 0
-22.551522 6.618384 5.905961 24.233335 -0.285463 1.324605 0.031987 0.017929 325663.000000 0 1 0
-22.113422 5.292384 5.571261 23.410504 -0.234910 1.330509 0.025372 0.015986 -79268.500000 0 1 0
-23.176022 4.232384 5.838261 24.271925 -0.180629 1.327879 0.048825 0.015770 774720.000000 0 1 0
-24.376522 4.259984 5.025761 25.251150 -0.173011 1.370427 0.050387 0.013461 1063450.000000 0 0 1
-24.634722 2.946184 4.626461 25.237941 -0.119029 1.386440 0.032858 0.003850 -481666.000000 0 0 1
-25.678072 2.642984 3.544461 26.055939 -0.102566 1.434341 0.028909 -0.013640 -230806.000000 0 0 1
-25.244642 2.919584 2.204961 25.508386 -0.115140 1.484248 0.023808 -0.006707 946853.000000 0 0 1
-26.353932 2.781384 1.310961 26.532705 -0.105150 1.521367 0.022328 -0.014367 415705.000000 0 0 1
-25.932152 3.016384 -0.154739 26.107452 -0.115798 1.576723 0.039605 -0.014477 -140159.000000 0 0 1
-25.412612 4.284884 -0.516239 25.776493 -0.167041 1.590825 0.043241 -0.016248 401482.000000 0 0 1
-25.502122 4.494484 -1.951639 25.968587 -0.174448 1.646021 0.070632 -0.016491 521350.000000 0 0 1
-26.885742 5.048084 -2.459639 27.465908 -0.185600 1.660469 0.065371 -0.026011 533735.000000 0 0 1
-27.902712 4.099384 -2.317139 28.297269 -0.145873 1.652774 0.036675 -0.018792 -581762.000000 0 0 1
-29.182762 4.658484 -2.420439 29.651199 -0.158296 1.652518 0.016478 0.004657 -57917.100000 0 0 1
-30.323792 3.604884 -2.404939 30.631867 -0.118324 1.649388 0.006299 0.009650 -45633.300000 0 0 1
-30.470592 3.099784 -3.715739 30.852429 -0.101382 1.691525 -0.004288 0.012963 657687.000000 0 0 1
-31.321312 1.939384 -3.773439 31.607351 -0.061840 1.690467 0.018726 -0.002049 229102.000000 0 0 1
-31.310962 1.311784 -5.187039 31.764800 -0.041871 1.734826 0.014237 -0.005522 102190.000000 0 0 1
-30.018072 0.814784 -5.526439 30.533425 -0.027136 1.752796 0.026033 -0.009340 693118.000000 0 0 1
-29.991772 0.081484 -6.717239 30.734904 -0.002717 1.791129 0.033218 -0.009632 -211872.000000 0 0 1
-30.174372 0.702284 -8.079639 31.245264 -0.023270 1.832356 0.038317 -0.011618 -936843.000000 0 0 1
-31.523602 0.848284 -8.377839 32.628902 -0.026903 1.830466 0.023158 -0.007687 -330067.000000 0 0 1
-31.753932 1.700684 -9.503839 33.189268 -0.053507 1.861214 0.050755 -0.008471 -114438.000000 0 0 1
-33.235542 2.147684 -9.496839 34.632409 -0.064530 1.848573 0.066661 -0.010451 36226.100000 0 0 1
-33.574152 2.870184 -8.360739 34.718347 -0.085281 1.814003 0.027913 -0.006934 951732.000000 0 0 1
-34.996450 2.854684 -8.093039 36.033290 -0.081390 1.797328 0.031050 -0.003026 1125480.000000 0 0 1
35.021098 3.752784 -6.851639 35.881829 0.106750 1.762926 0.037682 0.001174 -77845.400000 0 0 1
33.610303 3.798984 -6.825239 34.506067 0.112553 1.769908 0.043180 -0.010418 140225.000000 0 0 1
33.123143 4.372084 -5.658739 33.886267 0.131236 1.738574 0.030327 -0.013264 -931236.000000 0 0 1
31.731893 3.962784 -5.266539 32.409152 0.124240 1.734022 0.029647 -0.015717 -842912.000000 0 0 1
31.720713 2.684184 -4.619939 32.167566 0.084418 1.714916 0.051667 -0.017671 -432699.000000 0 0 1
30.475463 2.062484 -4.690239 30.903172 0.067574 1.723157 0.067404 -0.021831 -675561.000000 0 0 1
30.379513 0.719484 -3.916839 30.639421 0.023679 1.698984 0.075064 -0.011756 -798480.000000 0 0 1
31.105343 -0.308716 -4.470439 31.426462 -0.009925 1.713531 0.062122 -0.019456 -68322.800000 0 0 1
30.969063 -1.455516 -3.642539 31.216494 -0.046964 1.687749 0.071704 -0.013249 209635.000000 0 0 1
32.045493 -2.499916 -4.057939 32.397995 -0.077854 1.696379 0.062904 -0.025029 222651.000000 0 0 1
31.894263 -3.801316 -3.520939 32.312398 -0.118625 1.679979 0.058488 -0.024780 -5833.910000 0 0 1
32.983303 -4.624916 -3.881639 33.531407 -0.139312 1.686818 0.061889 -0.028540 -73753.000000 0 0 1
32.942163 -6.044316 -3.257839 33.650162 -0.181464 1.667763 0.071251 -0.022748 -164802.000000 0 0 1
32.929883 -6.068416 -1.884739 33.537369 -0.182238 1.627024 0.076170 -0.018398 38981.600000 0 0 1
33.188483 -7.345316 -1.368139 34.019125 -0.217810 1.611024 0.078865 -0.025169 -190236.000000 0 0 1
32.856953 -7.486816 0.140361 33.699429 -0.224036 1.566631 0.072838 -0.018956 737265.000000 0 0 1
31.419013 -7.472916 0.261961 32.296555 -0.233508 1.562685 0.064639 -0.023426 974381.000000 0 0 1
31.002543 -7.514516 1.622261 31.941468 -0.237798 1.519986 0.047031 -0.014913 -534035.000000 0 0 1
30.983673 -9.012016 2.129461 32.337889 -0.283054 1.504898 0.043028 -0.015851 -340151.000000 0 0 1
30.008243 -9.947316 1.666061 31.657851 -0.320087 1.518145 0.050580 -0.024531 -259175.000000 0 0 1
28.744813 -9.625616 2.171061 30.391286 -0.323128 1.499298 0.041342 -0.028287 -1644020.000000 0 0 1
27.672173 -10.693916 1.879861 29.726132 -0.368771 1.507515 0.046121 -0.025585 -883867.000000 0 0 1
26.480533 -10.590616 2.631461 28.640956 -0.380454 1.478789 0.065111 -0.024987 656826.000000 0 0 1
25.558213 -9.601816 2.169661 27.388402 -0.359370 1.491495 0.052248 -0.016486 -487050.000000 0 0 1
24.936463 -9.691316 0.737461 26.763644 -0.370675 1.543238 0.044871 -0.012219 -1481890.000000 0 0 1
25.815663 -9.548616 -0.347839 27.527178 -0.354272 1.583433 0.034752 -0.016500 -16159.000000 0 0 1
25.292063 -9.622316 -1.671139 27.112177 -0.363538 1.632473 0.036407 -0.007251 -538017.000000 0 0 1
24.658963 -10.940416 -2.175339 27.064539 -0.417577 1.651259 0.043553 -0.004286 -989990.000000 0 0 1
23.330263 -10.986616 -1.774439 25.848705 -0.440112 1.639497 0.029720 0.004426 -854924.000000 0 0 1
22.933863 -12.294116 -1.986739 26.097021 -0.492084 1.646999 0.023959 0.003505 -1123900.000000 0 0 1
21.466663 -12.493416 -1.704639 24.895961 -0.527073 1.639320 0.024147 0.005441 -897272.000000 0 1 0
20.574363 -12.201716 -2.776839 24.081054 -0.535297 1.686366 0.015910 0.007872 720220.000000 0 1 0
19.240063 -12.554116 -2.404139 23.099042 -0.578130 1.675065 0.022504 0.010157 -118739.000000 0 1 0
18.313963 -12.129116 -3.517239 22.246071 -0.584965 1.729569 0.020600 0.014468 -643943.000000 0 1 0
18.339163 -12.969116 -4.620039 22.931804 -0.615529 1.773653 0.016403 0.009483 610205.000000 0 1 0
17.464863 -12.392816 -5.608139 22.137176 -0.617130 1.826923 0.018615 0.007718 -47508.300000 0 1 0
17.451663 -13.183816 -6.974239 22.956776 -0.646978 1.879474 0.007726 0.009022 -120579.000000 0 1 0
16.707363 -14.401316 -7.024739 23.149101 -0.711405 1.879114 -0.000351 0.008958 428835.000000 0 1 0
16.701663 -14.949316 -8.321139 23.909600 -0.730090 1.926260 -0.004239 0.007687 -17920.100000 0 1 0
15.844563 -16.242816 -8.442939 24.210793 -0.797809 1.927008 0.000422 0.006977 21450.100000 0 1 0
14.436463 -16.105316 -8.385239 23.197089 -0.839986 1.940649 0.009303 0.008352 172129.000000 0 1 0
13.746263 -16.876416 -9.324539 23.679532 -0.887261 1.975537 0.011078 0.008984 -255234.000000 0 1 0
13.817163 -16.482116 -10.830239 24.080454 -0.873127 2.037284 0.011282 0.006887 -984481.000000 0 1 0
13.068163 -15.351716 -11.159139 23.042970 -0.865576 2.076331 0.017009 0.007434 55528.500000 0 1 0
13.548863 -14.087816 -10.695939 22.280965 -0.804897 2.071506 0.023983 0.007710 -213581.000000 0 1 0
13.421463 -13.002916 -11.785539 22.093222 -0.769560 2.133466 0.036217 0.011540 -596174.000000 0 1 0
14.395663 -13.082916 -12.762839 23.265595 -0.737661 2.151451 0.036649 0.007802 -321569.000000 0 1 0
14.076363 -12.245716 -13.877239 23.252513 -0.715962 2.210311 0.045742 -0.000179 -528653.000000 0 1 0
15.304463 -12.024816 -14.752039 24.422233 -0.665964 2.219359 0.049415 -0.006663 -266479.000000 0 1 0
15.782263 -13.214316 -15.354439 25.679891 -0.697068 2.211696 0.041260 0.001158 -440047.000000 0 0 1
16.713363 -12.862116 -16.317439 26.665134 -0.655909 2.229306 0.034776 -0.003347 -1202640.000000 0 0 1
17.805463 -13.887816 -16.527439 27.983249 -0.662411 2.202622 0.027053 -0.002246 -880156.000000 0 0 1
18.643463 -13.799116 -15.400639 27.841947 -0.637173 2.156931 0.006730 -0.008142 -254057.000000 0 0 1
19.645663 -14.793716 -15.403939 29.018744 -0.645436 2.130373 0.003696 -0.005353 22188.000000 0 0 1
20.625963 -14.670516 -14.204739 29.024628 -0.618246 2.082201 -0.002469 -0.000958 -37319.700000 0 0 1
21.570663 -13.634116 -14.395439 29.298657 -0.563665 2.084418 0.004296 -0.007368 -303779.000000 0 0 1
22.433663 -13.515116 -13.311739 29.379075 -0.542218 2.041039 0.012380 -0.005502 -508462.000000 0 0 1
23.124663 -12.149016 -13.344639 29.333054 -0.483737 2.043096 0.026580 -0.011200 -826667.000000 0 0 1
22.337863 -11.065016 -12.837839 28.039701 -0.459919 2.046366 0.007223 -0.005299 247280.000000 0 0 1
22.988263 -9.816516 -12.737139 28.054571 -0.403583 2.042060 0.015602 -0.013827 373407.000000 0 0 1
24.120463 -9.653316 -11.655639 28.475203 -0.380690 1.992511 0.029454 -0.016667 -37122.200000 0 0 1
25.323763 -10.260116 -11.977939 29.833438 -0.384945 1.983944 0.027400 -0.011014 -916009.000000 0 0 1
26.249123 -10.104116 -10.963139 30.187747 -0.367449 1.942459 0.025430 -0.015773 -539379.000000 0 0 1
27.603033 -10.790316 -11.238839 31.696528 -0.372646 1.933257 0.040032 -0.014310 134779.000000 0 0 1
28.248293 -10.194016 -12.372939 32.480358 -0.346327 1.961605 0.026651 -0.006842 530884.000000 0 0 1
29.570593 -10.715116 -12.525339 33.854362 -0.347641 1.949781 0.036292 -0.011360 509768.000000 0 0 1
30.197983 -10.238516 -13.893639 34.781872 -0.326883 1.981714 0.010813 -0.003589 -355095.000000 0 0 1
29.612123 -10.684716 -15.099239 34.914582 -0.346283 2.018018 0.008922 0.000122 88411.000000 0 0 1
30.385223 -10.332516 -16.229539 35.964158 -0.327784 2.038984 -0.003277 0.001747 -1002560.000000 0 0 1
29.835933 -10.950416 -17.543439 36.302435 -0.351757 2.075169 -0.028448 0.005432 192688.000000 0 0 1
28.563073 -10.529216 -17.989839 35.360258 -0.353175 2.104539 -0.024653 0.004696 242811.000000 0 0 1
28.602853 -9.205516 -18.519639 35.296484 -0.311370 2.123145 -0.033232 0.004908 162484.000000 0 0 1
27.275543 -8.816416 -19.248739 34.528226 -0.312635 2.162142 -0.052503 0.001857 473774.000000 0 0 1
27.014193 -9.501316 -20.474839 35.203135 -0.338202 2.191515 -0.045878 0.007842 969790.000000 0 0 1
25.684933 -9.146416 -20.903039 34.355637 -0.342099 2.224879 -0.012010 0.008762 820329.000000 0 0 1
25.290263 -9.722216 -22.291739 35.086187 -0.367008 2.259248 -0.001385 0.001124 -179634.000000 0 0 1
24.890163 -11.093416 -22.354139 35.246158 -0.419268 2.257807 -0.009461 0.005808 273125.000000 0 0 1
24.330263 -11.323416 -23.638539 35.762578 -0.435590 2.292927 0.004335 -0.003122 -534002.000000 0 0 1
24.368663 -12.824716 -24.052939 36.562946 -0.484449 2.288757 0.002282 0.011290 671927.000000 0 0 1
25.523443 -13.255716 -24.776539 37.960994 -0.479011 2.281918 -0.011499 0.014627 333748.000000 0 0 1
26.731193 -13.300116 -24.034139 38.328705 -0.461686 2.248561 -0.036568 0.022009 20698.200000 0 0 1
27.935363 -13.784916 -24.885139 39.870774 -0.458400 2.244833 -0.037454 0.035267 186994.000000 0 0 1
28.181653 -12.999716 -26.059379 40.525171 -0.432197 2.269260 -0.040067 0.025677 -324074.000000 0 0 1
29.446893 -13.328516 -26.559739 41.835256 -0.425038 2.258630 -0.050546 0.031542 -441375.000000 0 0 1
29.766343 -12.649816 -27.862939 42.689535 -0.401846 2.281923 -0.032712 0.005718 -16017.100000 0 0 1
29.489703 -13.394916 -29.067129 43.519701 -0.426361 2.302190 -0.009665 0.003898 838249.000000 0 0 1
30.700313 -13.519516 -29.831859 44.891273 -0.414817 2.297669 -0.006555 -0.014217 634832.000000 0 0 1
30.550143 -14.346416 -31.157199 45.933669 -0.439035 2.316254 0.008002 -0.015423 -73267.100000 0 0 1
30.713803 -15.742916 -30.979359 46.377773 -0.473651 2.302285 0.015314 -0.008730 -41556.600000 0 0 1
30.820893 -16.461716 -32.185889 47.506284 -0.490561 2.315166 0.012489 -0.017530 88828.200000 0 0 1
29.483123 -16.803416 -32.894979 47.261919 -0.518018 2.340628 0.018259 -0.015473 -26786.500000 0 0 1
28.914103 -15.778016 -33.623909 47.069507 -0.499525 2.366485 0.011165 -0.015482 -997639.000000 0 0 1
27.781353 -16.201016 -34.269483 46.996532 -0.527946 2.387936 0.002646 -0.016650 -887398.000000 0 0 1
27.104253 -15.077216 33.935497 45.973698 -0.507642 0.740472 0.008389 -0.006671 -505540.000000 0 0 1
26.488773 -14.053316 -34.391457 45.628096 -0.487779 2.424522 0.011454 -0.011928 -302285.000000 0 0 1
27.325833 -13.061316 -33.920649 45.474274 -0.445880 2.412727 0.027569 -0.030065 -969237.000000 0 0 1
26.526473 -11.858616 -33.496119 44.342650 -0.420397 2.427050 0.033155 -0.027441 -257647.000000 0 0 1
25.685513 -11.408316 -34.497639 44.496993 -0.417982 2.457955 0.037906 -0.018625 -266406.000000 0 0 1
25.106563 -10.128616 -34.194077 43.613797 -0.383456 2.471912 0.021537 -0.022781 53895.500000 0 0 1
21.237178 -29.900330 9.687561 37.932787 -0.953214 1.312548 0.021572 -0.001758 196171.000000 0 0 1
21.125778 -29.704330 8.272061 37.377436 -0.952592 1.347637 0.023843 -0.006009 -127621.000000 0 0 1
22.085178 -30.478030 7.605361 38.399309 -0.943733 1.371418 0.009403 0.000184 -191361.000000 0 0 1
22.325278 -29.977130 6.157361 37.880859 -0.930668 1.407526 0.005900 -0.000970 51639.300000 0 0 1
22.786078 -28.643730 6.172161 37.118246 -0.898806 1.403737 0.009501 0.007036 145419.000000 0 0 1
23.423478 -28.273030 4.958661 37.048777 -0.878933 1.436552 0.004701 0.014587 68599.000000 0 0 1
23.434878 -26.763230 4.686461 35.880732 -0.851606 1.439810 0.012495 0.008739 -39595.400000 0 0 1
24.235578 -26.056730 5.593661 36.022291 -0.821594 1.414882 0.019334 0.006037 -1300.200000 0 0 1
24.036078 -24.685930 5.394161 34.874420 -0.798735 1.415499 0.019460 0.009786 189650.000000 0 0 1
25.006278 -23.906530 6.299561 35.164195 -0.762918 1.390677 0.009535 0.006420 663527.000000 0 0 1
26.358678 -23.666030 5.909061 35.913478 -0.731624 1.405509 0.016984 0.008932 512638.000000 0 0 1
27.055278 -22.716930 6.695761 35.956643 -0.698454 1.383485 0.022431 -0.004011 -90639.400000 0 0 1
26.621278 -21.222930 6.672461 34.693327 -0.673042 1.377264 0.006775 0.000309 -390778.000000 0 0 1
26.949778 -20.542530 5.483761 34.327215 -0.651297 1.410359 0.009856 0.012769 -135101.000000 0 0 1
26.541178 -19.229130 5.587161 33.247706 -0.626982 1.401949 0.016781 0.005637 -448705.000000 0 0 1
26.473978 -18.468530 4.252261 32.558253 -0.609121 1.439817 0.021807 0.009798 -140350.000000 0 0 1
27.716778 -18.050730 3.737361 33.286882 -0.577258 1.458282 0.039672 0.001708 -70855.900000 0 0 1
27.594278 -17.436130 2.504461 32.737366 -0.563528 1.494220 0.038334 0.000550 40818.700000 0 0 1
28.752578 -16.450530 2.230361 33.200982 -0.519683 1.503568 0.041533 -0.020358 78169.300000 0 0 1
28.642178 -15.216630 2.986861 32.570562 -0.488347 1.478963 0.045198 -0.024846 356193.000000 0 0 1
29.874578 -14.502230 3.020261 33.345570 -0.451930 1.480097 0.042549 -0.018168 523997.000000 0 0 1
29.789978 -13.272430 3.980261 32.854873 -0.419133 1.449351 0.042343 -0.014273 198253.000000 0 0 1
29.519578 -13.558230 5.356361 32.922966 -0.430558 1.407376 0.029974 0.004399 -33171.900000 0 0 1
29.338978 -12.427830 6.174061 32.455286 -0.400680 1.379397 0.016613 -0.004370 -276475.000000 0 0 1
28.787678 -12.805130 7.589861 32.408452 -0.418532 1.334407 0.025746 0.004617 -1247930.000000 0 0 1
27.549978 -13.393930 7.677961 31.580844 -0.452521 1.325214 0.012130 -0.002921 -952892.000000 0 0 1
26.935078 -13.401430 8.962361 31.391411 -0.461682 1.281264 0.024153 0.005357 332468.000000 0 0 1
27.416278 -14.474330 9.978261 32.568761 -0.485754 1.259414 0.017244 0.002716 -274964.000000 0 0 1
28.612178 -14.276730 10.691061 33.716176 -0.462826 1.248137 0.001530 0.010106 -213352.000000 0 0 1
28.894478 -15.529330 11.322361 34.702259 -0.493157 1.238440 0.002658 0.005616 -349364.000000 0 0 1
29.304578 -15.377130 12.756261 35.467402 -0.483239 1.202891 -0.011227 0.008659 668787.000000 0 0 1
30.723078 -15.180930 12.864361 36.604097 -0.458934 1.211681 -0.018735 0.012808 617474.000000 0 0 1
31.125378 -15.042730 14.223861 37.381695 -0.450194 1.180456 -0.005466 0.010276 474988.000000 0 0 1
32.669978 -14.964030 14.390461 38.708333 -0.429517 1.189885 -0.010218 0.004644 337258.000000 0 0 1
33.246778 -13.738830 14.002961 38.602935 -0.391866 1.199586 -0.013874 0.004036 531967.000000 0 0 1
34.483478 -13.501630 14.672561 39.833256 -0.373191 1.193563 -0.012597 -0.000952 177618.000000 0 0 1
35.186778 -12.193630 14.283461 39.884975 -0.333589 1.204547 -0.011382 -0.000774 -478838.000000 0 0 1
-34.625407 -12.093530 13.040861 38.926037 0.336022 1.229174 0.002007 -0.008941 -24249.400000 0 0 1
-33.867207 -10.908430 13.003861 37.882476 0.311601 1.220402 0.010732 -0.007986 -415394.000000 0 0 1
-32.725307 -10.814630 11.955061 36.480480 0.319169 1.236916 0.010672 -0.003945 -165507.000000 0 0 1
-31.636607 -11.659230 12.193561 35.853807 0.353092 1.223783 0.008083 -0.004408 -214762.000000 0 0 1
-31.850007 -13.012330 11.890161 36.402193 0.387856 1.238057 -0.005557 -0.006905 -703869.000000 0 0 1
-30.809107 -13.945230 12.537461 36.067416 0.425042 1.215773 0.003266 -0.002219 704219.000000 0 0 1
-29.544407 -13.911130 11.857261 34.741707 0.440061 1.222499 0.021599 -0.006451 162058.000000 0 0 1
-28.639307 -14.746230 12.512761 34.557639 0.475492 1.200294 0.017968 -0.008845 -347300.000000 0 0 1
-27.194507 -14.683930 11.987561 33.149067 0.495102 1.200785 0.030782 -0.007889 -101537.000000 0 0 1
-27.105807 -15.145630 10.643561 32.823776 0.509544 1.240563 0.007165 0.003779 972509.000000 0 0 1
-25.721507 -15.082130 10.254861 31.531393 0.530332 1.239545 0.009530 0.004385 937779.000000 0 0 1
-25.580707 -14.604430 8.779961 30.736781 0.518759 1.281112 0.013154 0.015129 -45731.300000 0 0 1
-25.670407 -15.579930 7.750761 31.012551 0.545494 1.318195 0.005506 0.011350 127367.000000 0 0 1
-25.718607 -14.997530 6.489661 30.471107 0.527930 1.356175 0.002070 0.016309 -300074.000000 0 0 1
-25.896207 -15.954530 5.303961 30.875437 0.552170 1.398154 -0.008093 0.013963 -507741.000000 0 0 1
-27.165307 -16.535430 5.094361 32.207560 0.546790 1.411956 -0.014525 0.012842 -153294.000000 0 0 1
-27.145707 -17.453230 3.985261 32.517487 0.571401 1.447930 -0.007723 0.011153 482590.000000 0 0 1
-28.547607 -18.078430 3.734261 33.996180 0.564526 1.460731 -0.004821 0.003508 455916.000000 0 0 1
-29.596307 -17.212330 3.363061 34.402266 0.526758 1.472883 0.002238 -0.002716 457254.000000 0 0 1
-30.855007 -17.860930 3.535161 35.826550 0.524735 1.471961 0.020570 -0.005148 800597.000000 0 0 1
-32.076707 -17.160830 2.861861 36.491088 0.491249 1.492289 0.033657 -0.010419 383166.000000 0 0 1
-32.276607 -17.461130 1.498361 36.727586 0.495895 1.529988 0.036941 -0.008336 -117291.000000 0 0 1
-33.424607 -16.768430 1.061561 37.410046 0.464990 1.542416 0.063179 -0.018338 -296669.000000 0 0 1
-33.990407 -17.403330 -0.226739 38.187368 0.473207 1.576734 0.068176 -0.022987 -161877.000000 0 0 1
-33.115407 -17.342230 -1.337339 37.405503 0.482420 1.606556 0.064556 -0.022694 461184.000000 0 0 1
-33.647007 -18.157030 -2.392339 38.308252 0.494849 1.633287 0.063820 -0.017401 89617.700000 0 0 1
-32.526407 -18.586330 -3.373839 37.613849 0.519142 1.660614 0.048374 -0.014347 -67335.100000 0 0 1
-32.937007 -19.433030 -4.430539 38.498296 0.533039 1.686136 0.040037 -0.021558 -817255.000000 0 0 1
-31.876007 -19.976230 -5.131039 37.966527 0.559810 1.706358 0.028805 -0.018475 -922741.000000 0 0 1
-32.263507 -21.148330 -6.069339 39.051539 0.580223 1.726848 0.036608 -0.013223 -290837.000000 0 0 1
-32.536407 -22.352230 -5.311839 39.830336 0.601942 1.704556 0.046964 -0.015984 30372.600000 0 0 1
-32.924407 -23.355830 -6.269639 40.851191 0.616992 1.724880 0.039800 -0.013562 -199597.000000 0 0 1
-33.505707 -24.555430 -5.577739 41.913157 0.632449 1.704271 0.046951 -0.011140 160722.000000 0 0 1
-32.532207 -25.435330 -4.956039 41.591620 0.663576 1.690240 0.050202 -0.013382 514488.000000 0 0 1
-33.232307 -26.562730 -4.491539 42.780122 0.674317 1.675981 0.043397 -0.010415 308090.000000 0 0 1
-32.276907 -27.646230 -3.924739 42.679227 0.708274 1.662885 0.030820 -0.008947 -325660.000000 0 0 1
-31.460807 -28.173130 -4.969039 42.522923 0.730323 1.687919 0.021005 -0.011914 534385.000000 0 0 1
-30.615007 -29.296730 -4.662439 42.629983 0.763398 1.680386 0.026860 -0.006292 1043710.000000 0 0 1
-29.394707 -29.019230 -3.708839 41.471919 0.778970 1.660346 0.031777 -0.010543 -119621.000000 0 0 1
-29.859707 -28.732830 -2.416239 41.509226 0.766168 1.629039 0.029996 -0.002546 -526284.000000 0 0 1
-28.872007 -28.630130 -1.448539 40.686305 0.781192 1.606406 0.022164 0.002253 -492895.000000 0 0 1
-29.453907 -28.320330 -0.011339 40.860420 0.765780 1.571074 0.023792 0.004501 258880.000000 0 0 1
-29.859707 -29.489530 0.687661 41.972698 0.779161 1.554412 0.027549 0.009253 -385417.000000 0 0 1
-30.675507 -29.249930 1.769261 42.422582 0.761613 1.529079 0.025394 0.009817 -396710.000000 0 0 1
-31.346607 -30.513630 2.381861 43.810554 0.771934 1.516402 0.022425 0.013651 -36715.700000 0 0 1
-32.300707 -30.358030 3.436861 44.460743 0.754404 1.493418 0.019024 0.015892 422829.000000 0 0 1
-32.738307 -31.558930 4.065161 45.654007 0.767058 1.481635 0.010611 0.018445 729726.000000 0 0 1
-33.929807 -32.308430 3.309361 46.968270 0.760925 1.500278 0.010348 0.014680 272766.000000 0 0 1
-34.367407 -33.419630 3.888861 48.094840 0.771417 1.489850 0.008874 0.005042 -617332.000000 0 0 1
35.197578 -34.008830 2.955761 49.032709 -0.768223 1.510478 0.017490 0.009299 -76603.900000 0 0 1
34.013478 34.199784 3.586161 48.367370 0.788129 1.496584 0.008455 0.007330 680603.000000 0 0 1
33.057878 -34.205930 4.410461 47.773645 -0.802464 1.478345 0.003827 0.004377 560265.000000 0 0 1
32.403978 -33.021330 3.969261 46.434697 -0.794834 1.485211 0.006708 0.007267 -760818.000000 0 0 1
31.209878 -33.151630 3.042361 45.632697 -0.815558 1.504076 0.017459 0.005899 -899740.000000 0 0 1
31.624378 -33.751330 1.849861 46.289044 -0.817921 1.530822 0.021371 0.006844 70104.700000 0 0 1
30.698278 -33.522830 0.774261 45.461675 -0.829352 1.553764 0.025513 0.008970 -525994.000000 0 0 1
31.214578 -34.029230 -0.634039 46.181602 -0.828512 1.584526 0.029090 0.009430 633021.000000 0 0 1
32.411678 -33.563230 -1.203939 46.673941 -0.802851 1.596594 0.016108 0.017686 608776.000000 0 0 1
33.675578 -33.660430 -0.526439 47.616659 -0.785173 1.581852 0.016774 0.018290 406869.000000 0 0 1
34.884478 -33.415730 -1.434439 48.327998 -0.763897 1.600482 0.007365 0.024339 -455746.000000 0 0 1
-35.173907 34.520084 -2.171939 49.331098 -0.776017 1.614838 0.008273 0.009019 611129.000000 0 0 1
-34.315507 -34.172830 -3.270539 48.538982 0.783315 1.638227 0.010447 0.006326 -120375.000000 0 0 1
-33.656907 33.804884 -4.058339 47.875126 -0.787592 1.655667 0.008769 0.000692 -235698.000000 0 0 1
-32.552607 33.098484 -3.524639 46.557545 -0.793713 1.646574 0.018579 0.003020 282908.000000 0 0 1
-32.019807 32.314384 -4.620639 45.725680 -0.789977 1.672020 0.027102 -0.008519 241407.000000 0 0 1
-30.706807 31.512184 -4.375239 44.216156 -0.798342 1.669910 0.028427 -0.011220 68673.100000 0 0 1
-29.559607 32.358584 -4.431739 44.050978 -0.830572 1.671572 0.017573 -0.001851 837687.000000 0 0 1
-28.357907 31.651384 -4.018739 42.686430 -0.840226 1.665082 0.016596 -0.010893 871352.000000 0 0 1
-28.125107 31.349284 -2.532339 42.192559 -0.839556 1.630851 -0.000230 -0.012629 -707545.000000 0 0 1
-29.093107 30.637384 -1.794239 42.288030 -0.811246 1.613238 -0.007689 -0.003717 -299966.000000 0 0 1
-28.773007 30.596584 -0.426339 42.002603 -0.816104 1.580947 -0.008007 0.009695 250403.000000 0 0 1
-29.964307 29.973784 0.377661 42.384314 -0.785556 1.561886 -0.012616 0.005128 520585.000000 0 0 1
-30.319607 28.614884 -0.005339 41.690409 -0.756480 1.570924 -0.008392 0.001217 77291.200000 0 0 1
-31.456307 28.657284 -0.866239 42.561597 -0.738870 1.591150 0.006545 -0.002214 183435.000000 0 0 1
-31.903407 27.208684 -1.350339 41.951916 -0.706144 1.602990 0.012921 -0.003447 -70419.000000 0 0 1
-32.230407 26.270984 -0.279339 41.581748 -0.683880 1.577514 0.022644 0.003337 143167.000000 0 0 1
-32.635207 25.079984 -0.930139 41.169497 -0.655233 1.593391 0.022760 0.006985 -324071.000000 0 0 1
-32.803607 23.891584 0.056761 40.581864 -0.629482 1.569398 0.033271 0.005997 -160812.000000 0 0 1
-31.608607 23.377784 0.599761 39.319010 -0.636813 1.555542 0.038038 -0.004657 -135590.000000 0 0 1
-31.316407 23.959284 1.883661 39.475471 -0.653077 1.523061 0.028556 -0.009024 -172229.000000 0 0 1
-29.812207 23.846184 2.213761 38.240148 -0.674668 1.512873 0.022933 -0.013889 786232.000000 0 0 1
-28.804107 24.655984 1.566161 37.947951 -0.707960 1.529513 0.025192 -0.007461 745479.000000 0 0 1
-28.804007 26.085984 1.943261 38.909198 -0.735921 1.520832 -0.014581 0.001221 -289998.000000 0 0 1
-28.082407 26.936284 0.906461 38.923086 -0.764570 1.547506 -0.019980 -0.001294 -727365.000000 0 0 1
-26.699707 26.832584 0.748061 37.860554 -0.787880 1.551037 -0.011248 -0.007639 -766541.000000 0 0 1
-26.394207 27.693284 -0.306739 38.257891 -0.809412 1.578814 0.004216 -0.012751 905508.000000 0 0 1
-25.167607 27.113584 -1.130039 37.011240 -0.822602 1.601333 0.000067 -0.011734 380867.000000 0 0 1
-25.545907 25.977384 -1.889339 36.482701 -0.793772 1.622607 0.024315 -0.023681 506532.000000 0 0 1
-24.459607 25.444884 -2.682339 35.396461 -0.805139 1.646649 0.015867 -0.012502 1013020.000000 0 0 1
-23.507507 24.412384 -2.009839 33.950064 -0.804279 1.630031 0.005041 -0.011695 666634.000000 0 0 1
-24.069007 23.079284 -1.853639 33.397701 -0.764410 1.626327 0.000818 -0.008706 -197898.000000 0 0 1
-23.110607 22.306384 -1.228839 32.143195 -0.767692 1.609036 -0.008359 -0.010273 -947025.000000 0 0 1
-23.685607 20.902084 -1.002839 31.605550 -0.723051 1.602532 -0.009332 -0.009396 -277725.000000 0 0 1
-24.521007 20.701984 0.142661 32.091623 -0.701149 1.566351 -0.020462 -0.003206 837770.000000 0 0 1
-25.780207 21.401884 0.148161 33.506442 -0.692867 1.566374 -0.007140 -0.014168 626350.000000 0 0 1
-26.814607 20.800884 -0.881939 33.948163 -0.659766 1.596778 0.006054 -0.022887 -688749.000000 0 0 1
-27.022207 19.489684 -0.640339 33.323528 -0.624844 1.590013 -0.001661 -0.016638 -30583.300000 0 0 1
-27.845907 18.895084 -1.606539 33.689757 -0.596190 1.618501 0.024320 -0.017173 -269237.000000 0 0 1
-28.013007 17.383284 -1.581739 33.006197 -0.555388 1.618737 -0.009666 -0.009506 -435098.000000 0 0 1
-28.829507 16.902284 -0.569439 33.423823 -0.530273 1.587834 -0.001352 -0.006782 148617.000000 0 0 1
-28.884107 15.498584 -0.523139 32.783707 -0.492480 1.586754 -0.005818 -0.014914 428798.000000 0 0 1
-27.632207 14.878184 0.196461 31.383719 -0.493922 1.564536 -0.014046 0.000757 237933.000000 0 0 1
-27.643107 14.988284 1.620761 31.486773 -0.496840 1.519299 -0.012299 0.011168 931258.000000 0 0 1
-26.455607 14.493584 2.288861 30.252306 -0.501188 1.495065 -0.017592 0.010197 706634.000000 0 0 1
-26.287907 12.926184 2.337961 29.387180 -0.456998 1.491155 -0.012707 0.010110 -216151.000000 0 0 1
-25.951407 12.385884 1.069361 28.775496 -0.445301 1.533626 -0.014597 0.003106 342675.000000 0 0 1
-25.664107 11.044884 1.229061 27.966881 -0.406404 1.526835 0.005524 -0.000389 -222547.000000 0 0 1
-25.519707 10.399384 -0.141739 27.557626 -0.386959 1.575940 0.011135 -0.007631 -577383.000000 0 0 1
-26.733507 10.295584 -0.821539 28.659281 -0.367613 1.599466 0.008194 -0.009087 -223605.000000 0 0 1
-26.679107 9.310784 -1.786039 28.313520 -0.335776 1.633919 0.018495 -0.009604 -423183.000000 0 0 1
-28.010407 9.091184 -2.491639 29.554032 -0.313838 1.655204 0.022539 -0.012210 -567155.000000 0 0 1
-27.912307 8.095884 -3.490539 29.271558 -0.282301 1.690328 0.045612 -0.014527 539737.000000 0 0 1
-29.037207 8.005384 -4.374639 30.436541 -0.269011 1.715026 0.019990 -0.006929 375697.000000 0 0 1
-11.733322 18.423784 -20.184639 29.740987 -1.003716 2.316761 0.045201 0.006860 133380.000000 0 0 1
-11.923622 17.322484 -21.084539 29.779171 -0.967944 2.357501 0.012089 0.000399 -232824.000000 0 0 1
-11.020622 17.342284 -22.158839 30.219581 -1.004698 2.393902 0.022420 -0.005210 -183701.000000 0 0 1
-11.164122 16.101284 -23.051339 30.253152 -0.964535 2.437113 0.012240 0.001568 -162786.000000 0 0 1
-10.519022 14.935484 -22.679039 29.121424 -0.957192 2.463507 0.005042 0.002047 -291304.000000 0 0 1
-10.439322 14.013984 -23.725539 29.466462 -0.930553 2.506760 -0.002026 0.005636 -491848.000000 0 0 1
-9.815922 12.725184 -23.379039 28.370092 -0.913753 2.539361 -0.007090 0.009801 -687522.000000 0 0 1
-8.418722 12.799284 -23.295539 27.881512 -0.988993 2.559873 0.007457 -0.001002 -580865.000000 0 0 1
-8.009322 11.546684 -22.767539 26.755112 -0.964347 2.588607 0.001480 -0.001136 732523.000000 0 0 1
-6.453622 11.573984 -22.553439 26.158440 -1.062139 2.610365 0.021894 -0.004095 934914.000000 0 0 1
-5.733422 11.181684 -23.708839 26.833025 -1.097000 2.654227 0.024209 -0.013781 1493310.000000 0 0 1
-4.293422 11.087184 -23.442439 26.285111 -1.201336 2.672220 0.038196 -0.015693 1977740.000000 0 0 1
-3.390622 10.815084 -24.657039 27.137280 -1.266993 2.710726 0.050161 -0.020371 -55761.000000 0 0 1
-3.408622 9.506784 -25.102079 27.057569 -1.226528 2.759077 0.045798 -0.022702 -151234.000000 0 0 1
-2.798222 9.340984 -26.364249 28.109743 -1.279740 2.787335 0.037834 -0.021598 -292852.000000 0 0 1
-2.390922 7.878384 -26.605409 27.850193 -1.276151 2.841484 0.036630 -0.012273 -554219.000000 0 0 1
-1.187722 7.589984 -25.970849 27.083271 -1.415570 2.853987 0.039289 -0.012143 -583257.000000 0 0 1
-0.878222 6.176584 -25.787319 26.531251 -1.429557 2.904224 0.036024 -0.011983 609112.000000 0 0 1
0.497778 5.897084 -25.090849 25.779335 1.486585 2.909961 0.024051 -0.009610 476141.000000 0 0 1
0.592978 6.149284 -23.721539 24.512787 1.474663 2.886822 0.019069 -0.015053 -377346.000000 0 1 0
1.798878 5.714684 -23.155939 23.918426 1.265834 2.888415 0.031800 -0.005739 -284734.000000 0 1 0
2.060378 6.205984 -21.740239 22.702365 1.250248 2.849419 0.029172 -0.011417 405486.000000 0 1 0
2.654278 7.526384 -21.771839 23.188459 1.231751 2.790241 0.019287 -0.016361 181196.000000 0 1 0
2.331478 8.178284 -20.569539 22.258168 1.293082 2.749560 0.014434 -0.013634 63832.100000 0 1 0
3.050378 9.552584 -20.471639 22.795716 1.261706 2.686107 0.010937 -0.014386 -276455.000000 0 1 0
2.470978 10.532884 -19.640039 22.422723 1.340367 2.638092 0.014909 -0.010147 -162045.000000 0 1 0
3.225278 11.733384 -19.539239 23.018614 1.302541 2.584593 0.020229 -0.008416 408542.000000 0 1 0
4.458878 11.668784 -18.596639 22.402614 1.205798 2.550102 0.017252 -0.016433 575025.000000 0 1 0
5.596378 11.009584 -19.144539 22.782532 1.100516 2.568663 0.030641 -0.010708 -80231.500000 0 1 0
6.578278 10.807584 -18.132939 22.110656 1.024024 2.532381 0.031523 -0.012186 457738.000000 0 1 0
7.669778 9.801284 -18.666139 22.434692 0.906800 2.553538 0.040594 -0.012320 71952.200000 0 1 0
7.306478 8.471984 -18.882339 21.947708 0.859131 2.606719 0.036798 -0.006896 -66422.400000 0 1 0
6.844978 8.222584 -20.187839 22.847614 0.876573 2.654263 0.039363 -0.006516 200869.000000 0 1 0
6.524978 6.771584 -20.574939 22.622065 0.803943 2.712894 0.029069 0.001524 502032.000000 0 1 0
7.755878 6.093784 -20.768239 22.991468 0.665960 2.698201 0.039152 0.005801 445817.000000 0 1 0
7.467578 4.745084 -21.116039 22.894708 0.566061 2.744815 0.033166 0.009051 -60584.500000 0 1 0
7.185078 4.240184 -22.554839 24.048395 0.533136 2.787305 0.034368 -0.002636 -277697.000000 0 1 0
6.089478 4.884784 -23.151139 24.431908 0.676061 2.816365 0.030773 -0.004816 -300240.000000 0 1 0
6.089378 4.531784 -24.518039 25.666161 0.639786 2.841358 0.035518 -0.009225 -203493.000000 0 0 1
4.972578 5.266784 -25.271999 26.289532 0.814123 2.862461 0.020517 -0.012815 -344042.000000 0 0 1
5.114378 6.690484 -25.398549 26.758284 0.918126 2.821431 0.023593 -0.015187 55428.900000 0 0 1
5.002278 7.489384 -24.247239 25.865851 0.981929 2.785950 0.029655 -0.020156 -1750900.000000 0 0 1
5.050078 8.994284 -24.584039 26.660372 1.059185 2.744319 0.032144 -0.028739 362363.000000 0 0 1
3.834578 9.498784 -25.111169 27.120135 1.187112 2.754270 0.026522 -0.023471 701065.000000 0 0 1
2.646978 9.277784 -24.347939 26.189805 1.292877 2.764319 0.019437 -0.028596 -504264.000000 0 0 1
1.332078 9.673884 -25.054639 26.890396 1.433958 2.769949 0.033817 -0.020743 5173.480000 0 0 1
1.389178 11.011384 -25.582989 27.886730 1.445301 2.732267 0.039867 -0.021280 116013.000000 0 0 1
0.394278 11.186084 -26.582789 28.843173 1.535564 2.743061 0.062710 -0.023299 49181.600000 0 0 1
0.013078 12.669584 -26.836229 29.676619 1.569764 2.700507 0.045291 -0.019967 -154286.000000 0 0 1
-0.438222 13.371484 -25.680919 28.956834 -1.538035 2.661320 0.044287 -0.022062 -38184.800000 0 0 1
-0.398922 14.749384 -26.048269 29.936863 -1.543756 2.626215 0.037470 -0.021980 -165884.000000 0 0 1
-0.949422 15.601184 -24.884839 29.386282 -1.510016 2.580771 0.038225 -0.021769 95966.500000 0 0 1
-2.193522 15.009584 -24.519139 28.832054 -1.425682 2.587565 0.041962 -0.021762 -43565.000000 0 0 1
-2.582022 15.643284 -23.327939 28.205884 -1.407215 2.544652 0.045191 -0.022805 -669236.000000 0 0 1
-3.870122 15.242184 -22.588639 27.523601 -1.322142 2.533433 0.052048 -0.021460 1292390.000000 0 0 1
-5.140522 15.694984 -23.141139 28.430086 -1.254281 2.521744 0.045216 -0.016734 1092360.000000 0 0 1
-5.524322 15.217184 -24.435039 29.311294 -1.222559 2.556460 0.041755 -0.018257 -876498.000000 0 0 1
-6.989622 15.330184 -24.847239 30.020904 -1.143015 2.545730 0.025980 -0.017531 -348786.000000 0 0 1
-7.355622 16.684384 -25.233889 31.132347 -1.155562 2.515863 0.023829 -0.015653 288910.000000 0 0 1
-8.670522 16.585684 -25.771739 31.850360 -1.089098 2.513502 0.012844 -0.008532 343947.000000 0 0 1
-9.363422 17.942284 -26.131569 33.052354 -1.089811 2.482603 0.010152 -0.007698 189501.000000 0 0 1
-9.613922 18.861984 -25.079319 32.820332 -1.099420 2.440503 0.013849 -0.012636 -269726.000000 0 0 1
-10.470722 19.875084 -25.476059 33.965933 -1.085919 2.418930 0.024851 -0.016414 -133920.000000 0 0 1
-10.661822 20.960684 -24.419239 33.901681 -1.100246 2.375025 -0.002164 -0.009262 -250895.000000 0 0 1
-9.715422 21.992484 -24.532439 34.349663 -1.154815 2.366273 0.019470 0.000262 -55329.900000 0 0 1
-10.149522 23.262084 -25.107229 35.700284 -1.159384 2.350795 0.028789 -0.016925 -140373.000000 0 0 1
-9.982022 23.470884 -26.641919 36.882449 -1.168677 2.377986 0.016684 -0.018418 234391.000000 0 0 1
-10.993322 22.788284 -27.370149 37.273101 -1.121319 2.395451 0.005485 -0.010630 326401.000000 0 0 1
-10.723722 23.003084 -28.775029 38.368508 -1.134564 2.418805 0.013790 -0.019452 -856670.000000 0 0 1
-11.539822 22.150184 -29.690919 38.798825 -1.090505 2.442231 0.010749 -0.016801 -827128.000000 0 0 1
-11.017122 20.941184 -30.189139 38.357454 -1.086489 2.476805 0.020350 -0.019159 -304905.000000 0 0 1
-10.933722 19.902384 -29.218429 37.004970 -1.068439 2.480923 0.017845 -0.013910 -331492.000000 0 0 1
-9.841122 18.922484 -29.681269 36.549772 -1.091218 2.518501 0.003165 -0.014094 -594684.000000 0 0 1
-8.547622 19.392084 -29.353229 36.203961 -1.155637 2.516269 -0.002096 -0.015791 -885922.000000 0 0 1
-7.507122 18.693184 -29.902449 36.054798 -1.188914 2.548760 -0.004635 -0.015596 -491670.000000 0 0 1
-7.185422 17.288984 -29.299849 34.770971 -1.176908 2.572987 0.008616 -0.019140 -1157700.000000 0 0 1
-8.165722 16.340284 -29.577769 34.763894 -1.107365 2.588338 -0.002579 -0.017458 84888.100000 0 0 1
-7.812422 15.077784 -29.010969 33.615619 -1.092741 2.612015 -0.003965 -0.009497 -118532.000000 0 0 1
-9.137522 14.316184 -28.909419 33.529121 -1.002715 2.610429 -0.007476 -0.001552 24217.000000 0 0 1
-9.990022 14.744384 -27.845999 33.054456 -0.975299 2.572570 -0.001385 -0.002864 -402868.000000 0 0 1
-11.290322 14.274084 -28.081049 33.462907 -0.901588 2.566551 0.007363 -0.001324 -670313.000000 0 0 1
-12.241022 14.809084 -27.043179 33.173561 -0.880052 2.523876 0.003109 0.003443 -609050.000000 0 0 1
-12.497322 16.186784 -27.126499 33.971194 -0.913320 2.495620 -0.006156 0.002106 -115722.000000 0 0 1
-13.417722 16.643784 -26.137079 33.766814 -0.892304 2.456004 -0.012873 0.003639 219145.000000 0 0 1
-14.348322 17.729484 -26.655279 35.081517 -0.890415 2.433817 -0.025214 0.003579 156386.000000 0 0 1
-13.708222 19.003184 -26.800349 35.599088 -0.945875 2.423160 -0.019872 0.000418 982106.000000 0 0 1
-14.727822 19.885784 -27.304189 36.849313 -0.933325 2.405308 -0.035839 0.003444 254866.000000 0 0 1
-14.117422 21.301884 -27.449889 37.504243 -0.985523 2.391923 -0.013622 -0.005589 -203153.000000 0 0 1
-15.020922 22.331084 -27.817609 38.705617 -0.978665 2.372723 -0.025854 -0.005999 94371.600000 0 0 1
-14.449522 23.625384 -27.793679 39.235648 -1.021884 2.357994 -0.015630 -0.005015 -188213.000000 0 0 1
-13.988922 24.271884 -26.462209 38.536513 -1.047954 2.327707 -0.028443 -0.006461 80691.600000 0 0 1
-13.573022 25.597484 -26.617729 39.344143 -1.083244 2.313845 -0.001367 -0.017087 -150522.000000 0 0 1
-13.321422 26.115184 -25.313799 38.733081 -1.099099 2.283055 0.016773 -0.021923 2407.940000 0 0 1
-13.184822 27.663384 -25.196019 39.672934 -1.126030 2.258926 0.023722 -0.018761 591158.000000 0 0 1
-14.447322 28.228484 -25.535809 40.714248 -1.097754 2.248744 0.031222 -0.023545 214491.000000 0 0 1
-14.644122 29.473084 -24.838139 41.231616 -1.109660 2.217307 0.029992 -0.022237 713962.000000 0 0 1
-16.040222 30.077884 -25.277479 42.437233 -1.080873 2.208863 0.034261 -0.023572 862085.000000 0 0 1
-17.027822 29.114384 -25.023539 41.997281 -1.041584 2.209104 0.019670 -0.017416 -867074.000000 0 0 1
-18.202922 29.375084 -25.750229 43.096592 -1.016037 2.211177 0.023070 -0.015422 171655.000000 0 0 1
-19.292122 28.261684 -25.634429 42.755499 -0.971827 2.213746 0.020063 -0.002705 -36476.500000 0 0 1
-19.828922 28.224584 -24.335139 42.213887 -0.958367 2.185201 0.029862 -0.012391 -29911.700000 0 0 1
-20.591522 27.036384 -24.093839 41.659212 -0.919898 2.187508 0.034595 -0.029869 -40634.800000 0 0 1
-21.123622 27.095484 -22.606639 41.127032 -0.908619 2.152775 0.037287 -0.023362 765996.000000 0 0 1
-22.118622 28.123084 -22.389239 42.206863 -0.904345 2.129945 0.031899 -0.013104 455747.000000 0 0 1
-22.803922 28.111584 -21.170939 41.934338 -0.889268 2.100015 0.016146 -0.003256 -528404.000000 0 0 1
-24.104222 28.908584 -21.183839 43.191142 -0.875778 2.083422 0.014087 0.004036 -404551.000000 0 0 1
-25.176172 28.054184 -21.535139 43.412430 -0.839413 2.089851 0.006256 0.001569 51555.700000 0 0 1
-26.420902 28.736284 -21.383439 44.509432 -0.827351 2.071935 0.022386 0.005813 534114.000000 0 0 1
-27.634192 27.913184 -21.870039 44.956568 -0.790421 2.078842 0.012875 0.006872 -116677.000000 0 0 1
-27.618562 27.534884 -23.229539 45.393461 -0.783881 2.108002 0.009129 0.007434 91410.500000 0 0 1
-28.905402 27.232184 -23.745639 46.270611 -0.755601 2.109694 0.012027 0.003166 324503.000000 0 0 1
-28.781722 26.710384 -25.173429 46.642616 -0.748089 2.140887 0.020031 0.011513 -73409.000000 0 0 1
-28.342752 25.415984 -25.257059 45.685915 -0.731009 2.156566 0.018947 0.004449 -356170.000000 0 0 1
-28.282532 25.149984 -26.654899 46.291543 -0.726839 2.184385 0.043445 -0.005201 -201539.000000 0 0 1
-28.239542 23.635284 -27.026729 45.678687 -0.696873 2.203926 0.039501 -0.010397 -716660.000000 0 0 1
-26.978372 23.067284 -27.077049 44.644134 -0.707406 2.222458 0.028878 -0.007422 -637441.000000 0 0 1
-27.135042 21.718084 -27.609199 44.387538 -0.674967 2.242095 0.051608 -0.020924 33351.000000 0 0 1
-25.849682 20.878484 -27.445569 43.097290 -0.679411 2.261174 0.036874 -0.011938 -15214.000000 0 0 1
-25.579872 20.576884 -26.082899 41.929174 -0.677428 2.242181 0.044434 -0.006845 -124530.000000 0 0 1
-25.177662 19.213984 -25.951969 40.946264 -0.651855 2.257260 0.008395 -0.009923 667320.000000 0 0 1
-26.307502 18.063784 -25.853879 41.070768 -0.601703 2.251701 0.011314 0.002879 965722.000000 0 0 1
-27.172672 17.918384 -26.964749 42.267248 -0.582974 2.262641 0.020464 -0.010304 614827.000000 0 0 1
-27.846042 16.630784 -26.851349 42.106769 -0.538388 2.262301 0.011687 -0.010254 244652.000000 0 0 1
-28.613082 15.999784 -28.056729 43.149526 -0.509862 2.278672 0.023508 -0.019307 -78870.100000 0 0 1
-29.774442 16.747584 -28.301039 44.361558 -0.512376 2.262647 0.023114 -0.023452 -357757.000000 0 0 1
-30.455712 16.188184 -29.410229 45.327357 -0.488554 2.276856 0.026856 -0.019465 -328380.000000 0 0 1
-31.783272 16.876884 -29.737519 46.683248 -0.488138 2.261405 0.032019 -0.020651 -636622.000000 0 0 1
-32.798912 16.609384 -28.821219 46.715125 -0.468755 2.235666 0.020330 -0.013094 -9701.420000 0 0 1
-34.009412 17.190584 -29.307949 48.074028 -0.468010 2.226405 0.024497 -0.014095 311965.000000 0 0 1
35.146239 16.955184 -28.485749 48.313293 0.449483 2.201366 0.017736 -0.003758 -215995.000000 0 0 1
34.920621 17.872484 -27.396919 47.848371 0.473045 2.180443 0.029621 -0.015487 -160496.000000 0 0 1
33.907723 17.343684 -26.568359 46.437213 0.472802 2.179903 0.048274 -0.011413 -96553.800000 0 0 1
33.327883 18.396584 -25.586939 45.868001 0.504368 2.162576 0.042582 -0.007566 -39460.500000 0 0 1
32.516223 19.360084 -26.236129 46.048367 0.537029 2.177000 0.043071 -0.015567 259422.000000 0 0 1
32.018793 20.284084 -25.253789 45.545593 0.564692 2.158526 0.038801 -0.009184 -601651.000000 0 0 1
31.462773 21.580084 -25.908609 46.117916 0.601195 2.167345 0.035041 -0.012208 -109653.000000 0 0 1
30.217913 21.510184 -26.553559 45.616903 0.618625 2.192104 0.026939 -0.015915 210066.000000 0 0 1
29.121523 21.577884 -25.613339 44.381430 0.637690 2.185992 0.034915 -0.015381 -107328.000000 0 0 1
27.741713 21.566884 -26.266869 43.871193 0.660818 2.212707 0.008704 -0.012909 -226225.000000 0 0 1
27.324753 20.287684 -26.675149 43.241136 0.638661 2.235585 0.022833 -0.024765 -314455.000000 0 0 1
26.024333 20.259184 -27.211389 42.756990 0.661475 2.260644 0.015758 -0.027557 -115853.000000 0 0 1
25.384223 18.847584 -27.085009 41.631574 0.638679 2.279155 0.030540 -0.016334 -613203.000000 0 0 1
26.019033 17.845484 -27.798349 42.049966 0.601175 2.293052 0.030268 -0.016575 -481273.000000 0 0 1
26.920133 17.137384 -27.009639 41.807943 0.566898 2.273182 0.027464 -0.013193 -328765.000000 0 0 1
27.847773 16.208984 -27.833179 42.578345 0.527121 2.283251 0.021902 -0.005447 -170924.000000 0 0 1
27.256543 15.056984 -28.394739 42.141347 0.504697 2.310133 0.029116 -0.011080 -305789.000000 0 0 1
26.792633 14.088284 -27.507209 40.901974 0.484095 2.308399 0.040119 -0.012251 -456379.000000 0 0 1
27.749043 13.324884 -26.559489 40.656714 0.447676 2.282681 0.036308 -0.006913 -399787.000000 0 0 1
28.323143 14.118384 -25.570569 40.686401 0.462427 2.250393 0.049295 -0.014828 -267811.000000 0 0 1
29.198943 13.336484 -24.790139 40.558490 0.428449 2.228397 0.049040 -0.016962 -18622.300000 0 0 1
-14.127722 -31.182430 -24.653839 42.187063 1.145395 2.194929 0.062771 0.004933 -142921.000000 0 0 1
-13.702122 -29.873730 -25.002939 41.295700 1.140758 2.221141 0.045995 -0.006688 112507.000000 0 0 1
-13.725022 -29.622130 -26.413629 41.994364 1.136907 2.251037 0.032327 -0.001848 -166056.000000 0 0 1
-13.001522 -28.313330 -26.835339 41.119578 1.140317 2.281830 0.031574 -0.001274 -116236.000000 0 0 1
-13.507022 -27.164430 -26.154269 40.054859 1.109366 2.282284 0.046393 -0.006671 -146427.000000 0 0 1
-13.116722 -26.005530 -26.795159 39.576717 1.103649 2.314534 0.045660 -0.007911 -143788.000000 0 0 1
-13.578822 -24.581930 -26.213789 38.416383 1.066120 2.321782 0.031281 -0.019049 -155719.000000 0 0 1
-12.910022 -24.179130 -25.037839 37.124014 1.080373 2.310999 0.022945 -0.016354 30912.800000 0 0 1
-13.288422 -22.910930 -24.595939 36.144891 1.045210 2.319216 0.030355 -0.008472 -162928.000000 0 0 1
-12.760222 -22.555230 -23.149139 34.748300 1.055955 2.299891 0.014810 -0.000005 -278693.000000 0 0 1
-11.380722 -22.377130 -23.180039 34.169738 1.100303 2.316351 0.009713 -0.004730 -618796.000000 0 0 1
-10.773022 -22.006330 -21.922139 32.877299 1.115550 2.300685 0.011882 -0.000196 384917.000000 0 0 1
-9.241822 -21.856930 -22.007539 32.364617 1.170763 2.318542 0.010029 -0.004919 1198.860000 0 0 1
-8.929622 -20.730430 -22.829639 32.104226 1.164066 2.361872 0.009594 -0.009900 318066.000000 0 0 1
-7.525622 -20.566830 -22.985639 31.748529 1.220018 2.380366 0.021198 -0.007339 425979.000000 0 0 1
-7.300222 -19.354930 -23.930539 31.631903 1.210119 2.428790 0.015827 -0.000684 121610.000000 0 0 1
-7.936322 -18.199130 -23.389939 30.680333 1.159576 2.437773 0.014934 -0.004078 254761.000000 0 0 1
-8.486022 -17.259230 -24.304839 30.993851 1.113827 2.472174 0.020892 -0.008745 546475.000000 0 0 1
-7.407722 -16.428930 -25.150059 30.940420 1.147198 2.519833 0.022516 -0.005811 768666.000000 0 0 1
-6.960922 -17.097530 -26.326229 32.153543 1.184158 2.530055 0.011170 -0.008439 -913361.000000 0 0 1
-5.883122 -16.398430 -26.796549 31.962082 1.226338 2.565111 0.010138 -0.010417 -964836.000000 0 0 1
-5.351422 -17.164630 -27.986419 33.264124 1.268576 2.570553 0.010121 -0.003361 -401806.000000 0 0 1
-6.292222 -17.040930 -29.014909 34.232299 1.217084 2.582221 0.034732 -0.011316 -19926.400000 0 0 1
-6.095922 -17.865630 -30.155719 35.576796 1.241974 2.582286 0.034214 -0.013562 148730.000000 0 0 1
-7.179522 -17.555130 -31.262649 36.566123 1.182581 2.596274 0.045916 -0.020665 532034.000000 0 0 1
-6.996122 -16.445130 -32.047319 36.693579 1.168568 2.632889 0.039980 -0.025202 -103753.000000 0 0 1
-6.937122 -15.160030 -31.375439 35.529824 1.141646 2.653168 0.028812 -0.019482 -319204.000000 0 0 1
-7.236422 -13.989830 -32.233109 35.875542 1.093434 2.687069 0.027796 -0.018491 -487229.000000 0 0 1
-6.304922 -13.731630 -33.241779 36.514731 1.140357 2.714965 0.038775 -0.026277 -360356.000000 0 0 1
-6.840822 -13.192330 -34.443606 37.512617 1.092423 2.734276 0.041222 -0.029577 -459104.000000 0 0 1
-7.253322 -11.663430 -34.302202 36.949795 1.014440 2.760735 0.024636 -0.014545 49079.800000 0 0 1
-6.243922 -10.673830 -34.198436 36.365509 1.041498 2.794626 0.018251 -0.015168 -194821.000000 0 0 1
-5.661522 -10.479730 33.581381 35.631260 1.075481 0.340854 0.023929 -0.021124 592828.000000 0 0 1
-4.522222 -9.376830 33.500678 35.080918 1.121428 0.301290 0.024709 -0.017726 638211.000000 0 0 1
-4.395922 -8.917630 32.191397 33.691754 1.112807 0.299554 0.020664 -0.010392 183963.000000 0 0 1
-3.302022 -8.030730 32.049177 33.204604 1.180695 0.264579 0.021041 -0.012732 -650774.000000 0 0 1
-3.534622 -7.089630 30.914697 31.913553 1.108300 0.250852 0.015765 -0.007050 967126.000000 0 0 1
-4.688022 -6.214130 31.023847 31.985497 0.924477 0.245834 -0.000815 -0.007447 1227510.000000 0 0 1
-5.921922 -6.810030 30.611857 31.914439 0.855040 0.286690 0.011498 -0.006244 123308.000000 0 0 1
-7.083922 -5.773130 30.640157 31.973898 0.683798 0.289851 0.001401 0.002758 318072.000000 0 0 1
-8.243922 -6.295730 30.000277 31.742953 0.652200 0.332895 -0.004268 0.007335 37042.500000 0 0 1
-9.252122 -5.294930 30.049297 31.884138 0.519798 0.340904 0.000228 0.004868 -755084.000000 0 0 1
-10.493422 -5.574930 29.264397 31.584754 0.488356 0.385699 0.011422 -0.002915 -1079920.000000 0 0 1
-10.266422 -5.486230 27.880677 30.213081 0.490776 0.395507 -0.000981 0.005150 252019.000000 0 0 1
-11.233922 -6.139130 27.093597 29.965862 0.500138 0.441413 0.010423 0.001418 -122734.000000 0 0 1
-10.819822 -6.113530 25.574257 28.433895 0.514310 0.452336 0.001583 -0.000893 768616.000000 0 0 1
-9.580222 -6.768930 25.231147 27.824626 0.615110 0.435185 0.001758 -0.000614 829921.000000 0 0 1
-9.061322 -6.358930 23.983277 26.414790 0.611910 0.432433 0.000425 -0.000129 -1183390.000000 0 0 1
-9.803522 -6.728730 22.746677 25.667025 0.601512 0.481672 0.002588 -0.000507 -419726.000000 0 0 1
-11.005522 -5.990030 22.596377 25.837922 0.498437 0.506303 -0.003036 0.000650 -79817.800000 0 0 1
-11.698322 -6.344130 21.416677 25.214535 0.496921 0.555990 0.000984 0.001877 313112.000000 0 0 1
-12.874722 -5.363630 21.166877 25.348839 0.394736 0.582621 0.005884 0.005174 409408.000000 0 0 1
-12.396922 -4.067630 20.837577 24.585237 0.317048 0.559417 -0.010029 0.010804 -90570.500000 0 1 0
-13.478822 -3.171530 20.945477 25.108768 0.231094 0.584134 -0.006609 0.013985 82425.400000 0 0 1
-13.139522 -1.729530 20.436177 24.357250 0.130876 0.575320 -0.008675 0.009632 46148.600000 0 1 0
-12.275822 -0.898530 21.157977 24.477809 0.073065 0.526893 -0.003724 0.005027 -281606.000000 0 1 0
-12.648622 0.459470 21.041277 24.554716 -0.036310 0.541544 0.010760 -0.006330 -252913.000000 0 1 0
-12.359622 1.223470 19.755077 23.334956 -0.098668 0.561256 0.028127 -0.011833 265166.000000 0 1 0
-13.107022 0.884470 18.558077 22.737162 -0.067378 0.615993 0.032142 -0.007957 438296.000000 0 1 0
-14.382222 1.523470 18.561377 23.530703 -0.105534 0.661917 0.025250 0.000360 364596.000000 0 1 0
-15.477922 0.907470 17.651177 23.493693 -0.058563 0.720743 0.030361 0.005811 13881.500000 0 1 0
-15.916322 -0.267530 18.307677 24.260501 0.016807 0.715708 0.010543 0.009972 525781.000000 0 1 0
-16.728322 -1.094530 17.443077 24.192885 0.065337 0.765552 0.001078 0.015367 284535.000000 0 1 0
-16.504222 -2.580530 17.741877 24.368477 0.155100 0.755299 -0.007060 0.014801 -399205.000000 0 1 0
-16.989322 -2.997530 19.031977 25.687320 0.174639 0.736373 -0.005578 0.021487 238978.000000 0 0 1
-16.752322 -4.318330 19.219677 25.858930 0.252283 0.732880 -0.003870 0.021123 -360274.000000 0 0 1
-17.345022 -4.850830 20.537277 27.315931 0.272700 0.719944 -0.002312 0.023059 -62000.400000 0 0 1
-16.627622 -4.424430 21.708377 27.700307 0.260063 0.670216 0.004594 0.020773 201036.000000 0 0 1
-17.336422 -4.620430 22.895577 29.087924 0.260462 0.664677 0.003769 0.012590 -248470.000000 0 0 1
-17.549522 -6.043230 23.451977 29.908219 0.331635 0.669501 0.029173 0.008149 -223961.000000 0 0 1
-16.350622 -6.640230 23.864277 29.680620 0.385767 0.636745 0.001215 0.000632 -164888.000000 0 0 1
-15.802622 -7.531330 22.946477 28.861472 0.444743 0.651697 0.027560 0.007307 -535959.000000 0 0 1
-14.623222 -8.288530 23.535377 28.921485 0.515654 0.620190 0.033439 0.015166 -334796.000000 0 0 1
-15.077722 -9.215630 24.491817 30.201235 0.548620 0.625015 0.022234 0.001697 758980.000000 0 0 1
-14.214622 -9.135830 25.641847 30.708682 0.571231 0.582658 0.034005 0.003913 557645.000000 0 0 1
-14.777222 -9.932630 26.844167 32.212307 0.591795 0.585653 0.030173 -0.008124 121736.000000 0 0 1
-14.824322 -11.324530 26.500037 32.407676 0.652348 0.613377 0.032284 -0.009110 56449.900000 0 0 1
-14.013022 -12.031230 27.413417 33.054662 0.709451 0.592878 0.037933 -0.013495 -73560.900000 0 0 1
-14.011922 -13.515430 27.152477 33.410444 0.767364 0.622035 0.026812 -0.014846 190709.000000 0 0 1
-15.270322 -14.132430 27.433767 34.431379 0.746717 0.648871 0.025371 -0.012453 453500.000000 0 0 1
-15.337222 -15.531030 27.182307 34.861455 0.791677 0.676572 0.023305 -0.005455 -494974.000000 0 0 1
-14.446822 -16.445230 28.024447 35.560173 0.849998 0.663104 0.021879 -0.007205 -794879.000000 0 0 1
-13.167022 -16.456230 27.460307 34.615696 0.895980 0.654602 0.017244 -0.011116 -874098.000000 0 0 1
-12.444622 -17.330830 28.264307 35.413237 0.948050 0.646614 0.018140 -0.013684 671452.000000 0 0 1
-11.075722 -17.805630 27.597937 34.660614 1.014332 0.649753 0.024532 -0.014585 1183010.000000 0 0 1
-10.175322 -18.531830 28.414557 35.416845 1.068665 0.639676 0.035574 -0.020302 271539.000000 0 0 1
-9.124022 -19.075830 27.643487 34.803698 1.124657 0.652993 0.027948 -0.019392 234449.000000 0 0 1
-8.023022 -19.822730 28.486737 35.620271 1.186212 0.643945 0.040397 -0.017447 120967.000000 0 0 1
-8.395522 -20.937930 29.194537 36.894480 1.189452 0.657867 0.031781 -0.009843 207767.000000 0 0 1
-7.264022 -21.482530 29.847597 37.485252 1.244729 0.649727 0.042071 -0.008707 292085.000000 0 0 1
-7.663022 -22.763030 30.627747 38.922183 1.246070 0.665032 0.035852 -0.004869 181555.000000 0 0 1
-7.836322 -23.816130 29.745327 38.902448 1.252920 0.700355 0.033652 0.001418 159575.000000 0 0 1
-7.999222 -25.033530 30.394507 40.180732 1.261510 0.712936 0.028811 0.003489 -197227.000000 0 0 1
-8.163022 -26.138430 29.349937 40.140643 1.268094 0.750750 0.028000 0.007201 -347239.000000 0 0 1
-9.382922 -26.133030 28.644537 39.893408 1.226087 0.769833 0.017513 0.005511 117539.000000 0 0 1
-9.461122 -27.396230 28.012857 40.308639 1.238275 0.802433 0.018714 0.005407 -415264.000000 0 0 1
-10.711522 -27.601730 27.158877 40.177068 1.200613 0.828503 0.012969 0.001398 -398639.000000 0 0 1
-10.842122 -26.969130 25.866937 38.909947 1.188550 0.843584 0.025349 -0.005899 165444.000000 0 0 1
-10.960422 -25.532430 25.809517 37.923172 1.165311 0.822251 0.024326 0.001722 -369521.000000 0 0 1
-11.154222 -25.067930 24.364177 36.693745 1.152142 0.844658 0.039515 -0.022453 -195562.000000 0 0 1
-12.459922 -25.376930 23.931977 37.040218 1.114379 0.868322 0.028066 -0.018675 144157.000000 0 0 1
-12.753522 -24.846630 22.657277 35.963308 1.096573 0.889229 0.030092 -0.026442 -430155.000000 0 0 1
-14.199222 -25.082330 22.235477 36.402714 1.055673 0.913702 0.018037 -0.022193 -724813.000000 0 0 1
-14.497922 -26.372430 21.765377 37.140631 1.068154 0.944651 0.028558 -0.019573 1582640.000000 0 0 1
-15.884922 -26.433730 21.313677 37.487940 1.029690 0.966057 0.031928 -0.018316 1232100.000000 0 0 1
-16.125722 -27.825030 20.684877 38.237878 1.045557 0.999227 0.027539 -0.023464 -363905.000000 0 0 1
-15.353722 -28.081130 19.550677 37.503541 1.070442 1.022420 0.017827 -0.019227 -111829.000000 0 0 1
-15.389822 -29.470630 19.145677 38.365630 1.089540 1.048315 0.020031 -0.005732 -177651.000000 0 0 1
-14.293222 -29.815730 18.135977 37.711903 1.123776 1.069106 0.019110 -0.002708 -193302.000000 0 0 1
-14.520922 -29.317630 16.820877 36.787532 1.110919 1.095903 0.025631 -0.011403 722329.000000 0 0 1
-13.391922 -29.709830 15.998577 36.303885 1.147313 1.114435 0.024018 -0.015801 627133.000000 0 0 1
-13.533422 -29.080830 14.584077 35.235543 1.135232 1.144060 0.009598 -0.008342 -382961.000000 0 0 1
-13.477422 -27.653730 14.578577 34.042688 1.117309 1.128248 0.014891 -0.010633 6026.160000 0 0 1
-13.902522 -27.116830 13.342777 33.266083 1.097048 1.158087 0.011384 0.003012 448552.000000 0 0 1
-12.840322 -27.277730 12.203477 32.524964 1.130841 1.186180 0.002456 0.003382 343074.000000 0 0 1
-13.272122 -26.573130 11.054677 31.693633 1.107584 1.214508 0.002652 0.012353 -416480.000000 0 0 1
-12.471922 -26.725130 9.936077 31.120846 1.134163 1.245833 0.010211 0.003771 -450320.000000 0 0 1
-12.872522 -25.925330 8.663777 30.213997 1.109934 1.279967 0.012958 0.010594 -318862.000000 0 0 1
-13.873422 -26.520430 7.882177 30.950505 1.088823 1.313290 0.025583 -0.000505 -70453.100000 0 0 1
-14.183522 -25.709730 6.729077 30.123795 1.066665 1.345515 0.028055 -0.003283 163180.000000 0 0 1
-15.236522 -26.282630 5.735777 30.916458 1.045423 1.384190 0.018418 0.003733 218346.000000 0 0 1
-14.790022 -27.362730 4.939377 31.493828 1.075263 1.413310 0.040169 -0.011206 399443.000000 0 0 1
-15.722922 -27.574430 3.855477 31.975368 1.052577 1.449926 0.038007 -0.001485 365638.000000 0 0 1
-15.276522 -28.667930 2.849377 32.608914 1.081193 1.483304 0.027877 -0.002046 85006.500000 0 0 1
-13.949922 -28.522030 2.373977 31.839320 1.115912 1.496166 0.039650 0.002626 -15009.900000 0 0 1
-13.643622 -29.692830 1.614877 32.717280 1.140077 1.521418 0.031865 -0.000693 22897.700000 0 0 1
-12.189122 -29.620730 1.080177 32.048855 1.180410 1.537086 0.013304 -0.003074 189846.000000 0 0 1
-11.955022 -28.805230 -0.057523 31.187612 1.177401 1.572641 0.024731 -0.002753 -9238.720000 0 0 1
-11.731422 -27.446530 0.264077 29.849757 1.166871 1.561949 0.022300 0.001923 -423371.000000 0 0 1
-11.519922 -26.542830 -0.979023 28.951493 1.161317 1.604619 0.018999 0.007095 790433.000000 0 0 1
-10.323222 -26.895830 -1.699023 28.858990 1.204313 1.629704 0.023546 -0.002088 341297.000000 0 0 1
-10.119522 -26.006530 -2.781623 28.044282 1.199709 1.670147 0.032223 -0.004947 -82064.000000 0 0 1
-8.804922 -26.330130 -3.486323 27.981366 1.248082 1.695715 0.022147 -0.008601 -387246.000000 0 0 1
-8.360622 -25.278030 -4.342223 26.976540 1.251376 1.732463 0.019614 -0.009091 -929754.000000 0 0 1
-7.171522 -25.780430 -4.861623 27.197366 1.299479 1.750516 0.020825 -0.001417 -586048.000000 0 0 1
-6.486422 -24.822030 -5.806723 26.304465 1.315195 1.793380 0.015185 -0.003505 -96484.700000 0 0 1
-7.018122 -24.905530 -7.138323 26.842040 1.296129 1.839973 0.012503 0.002959 450002.000000 0 0 1
-6.306522 -23.873130 -7.863423 25.913934 1.312528 1.879101 0.011393 0.003122 11329.400000 0 0 1
-6.558822 -23.751530 -9.418523 26.379195 1.301368 1.935897 0.012718 0.005186 240821.000000 0 0 1
-5.716822 -24.727730 -10.074023 27.306202 1.343597 1.948652 -0.005846 0.002302 357522.000000 0 0 1
-5.867622 -24.690630 -11.485223 27.856176 1.337479 1.995778 -0.010109 0.004419 -285416.000000 0 0 1
-7.180522 -25.290130 -11.996923 28.897695 1.294151 1.998906 -0.009026 -0.000303 -179819.000000 0 0 1
-7.393222 -25.233030 -13.384323 29.504333 1.285776 2.041641 -0.000525 0.000986 -378456.000000 0 0 1
-8.481322 -26.006230 -13.788923 30.633172 1.255546 2.037708 0.014820 -0.003042 -1246530.000000 0 0 1
-8.831122 -26.100130 -15.310223 31.521555 1.244533 2.077968 0.015533 -0.008170 191099.000000 0 0 1
-7.947322 -26.937130 -16.013423 32.329532 1.283903 2.088998 0.009248 -0.010269 619622.000000 0 0 1
-6.559522 -26.610330 -15.934623 31.702511 1.329112 2.097434 0.004288 -0.012108 -149459.000000 0 0 1
-5.627422 -27.452630 -16.851123 32.699773 1.368611 2.112187 -0.004154 -0.009330 -345291.000000 0 0 1
-5.669422 -27.044630 -18.208323 33.092256 1.364157 2.153435 0.017123 -0.007938 482623.000000 0 0 1
-4.648222 -27.656930 -19.011823 33.881576 1.404285 2.166541 0.015030 -0.010225 -4258.070000 0 0 1
-24.332122 14.870984 -5.158839 28.979509 -0.548590 1.749767 -0.005330 -0.009399 -185807.000000 0 0 1
-24.700122 13.569384 -4.737139 28.577346 -0.502356 1.737331 -0.013390 -0.007433 716963.000000 0 0 1
-23.509422 12.816484 -4.498239 27.151231 -0.499123 1.737237 0.000539 -0.005299 111684.000000 0 0 1
-23.794322 11.366784 -3.980239 26.668630 -0.445657 1.720604 0.013789 -0.013422 5309.560000 0 0 1
-24.123922 10.326484 -4.930439 26.700358 -0.404460 1.756520 0.014358 -0.008122 372083.000000 0 0 1
-25.470672 10.369584 -5.369439 28.019891 -0.386628 1.763619 0.014850 -0.008342 -82763.100000 0 0 1
-25.870982 9.623284 -6.632839 28.388552 -0.356113 1.806621 0.027226 -0.010396 -234469.000000 0 0 1
-25.065842 10.044584 -7.695939 28.078775 -0.381134 1.848433 0.028652 -0.006097 -226659.000000 0 0 1
-25.467652 9.438184 -8.909339 28.584208 -0.354903 1.887765 0.047112 -0.016134 -309381.000000 0 0 1
-26.029952 10.390684 -10.025539 29.766359 -0.379801 1.914321 0.024483 -0.005529 -340160.000000 0 0 1
-25.176122 11.239984 -10.753939 29.594283 -0.419901 1.942689 0.020014 -0.005137 -488489.000000 0 0 1
-25.798472 11.821484 -11.889339 30.767922 -0.429672 1.967543 0.007839 -0.004038 -216496.000000 0 0 1
-25.034822 12.905184 -12.698339 30.895532 -0.475962 1.994357 0.009322 0.002117 -186300.000000 0 0 1
-24.843622 14.100284 -11.935439 30.959300 -0.516226 1.966568 0.013216 -0.001995 228990.000000 0 0 1
-24.048922 15.017884 -12.676639 31.057763 -0.558220 1.991238 0.016395 -0.000958 70682.200000 0 0 1
-24.022922 16.496184 -12.085439 31.548101 -0.601734 1.963924 0.024939 0.003168 -370299.000000 0 0 1
-23.133322 16.587684 -11.000239 30.517325 -0.622076 1.939556 0.025419 0.006367 -207477.000000 0 0 1
-23.219722 17.830284 -10.350239 31.051602 -0.654855 1.910623 0.020053 0.008637 -85613.500000 0 0 1
-22.040622 18.262284 -9.412939 30.131436 -0.691923 1.888511 0.007806 0.008619 74027.400000 0 0 1
-22.030622 17.915084 -8.060839 29.517379 -0.682732 1.847398 0.008234 0.004877 -14288.400000 0 0 1
-22.581022 18.835284 -7.173539 30.267642 -0.695202 1.810077 -0.003103 0.003168 -729630.000000 0 0 1
-22.845122 18.254684 -5.749639 29.802541 -0.674169 1.764938 -0.009194 0.006651 -566124.000000 0 0 1
-21.784822 18.126284 -4.864339 28.754172 -0.693986 1.740784 -0.011367 -0.007478 -484519.000000 0 0 1
-22.277022 17.655584 -3.635739 28.656656 -0.670180 1.698012 -0.015188 -0.003492 636148.000000 0 0 1
-21.147822 17.479684 -2.527739 27.552844 -0.690720 1.662667 -0.018272 -0.010944 299448.000000 0 0 1
-20.714422 18.688484 -1.907439 27.963995 -0.734027 1.639060 -0.015398 -0.004648 225090.000000 0 0 1
-19.770422 18.391484 -0.907039 27.017383 -0.749280 1.604375 0.015253 -0.018760 -226941.000000 0 0 1
-19.186622 19.635484 -0.168939 27.453729 -0.796960 1.576950 0.017708 -0.012930 -129674.000000 0 0 1
-20.036422 20.270884 0.779261 28.512702 -0.791215 1.543463 0.015337 -0.011414 268132.000000 0 0 1
-19.505422 21.562284 1.018461 29.093484 -0.835441 1.535783 0.020380 -0.008076 573206.000000 0 0 1
-20.441722 22.399584 1.961561 30.388371 -0.831067 1.506202 0.014241 -0.013263 408981.000000 0 0 1
-20.379722 21.974784 3.336761 30.155566 -0.823040 1.459918 0.032276 -0.013394 44751.100000 0 0 1
-21.459922 22.481784 4.080161 31.346556 -0.808649 1.440263 0.015836 -0.013504 -187751.000000 0 0 1
-21.529322 22.090684 5.555061 31.342762 -0.798267 1.392619 0.035648 -0.015263 -539572.000000 0 0 1
-20.605422 22.812784 6.315461 31.382982 -0.836194 1.368174 0.039567 -0.004734 -99652.200000 0 0 1
-19.945722 22.062884 7.315661 30.628770 -0.835754 1.329616 0.032953 -0.005875 -473052.000000 0 0 1
-20.687022 21.767684 8.597761 31.236300 -0.810847 1.291948 0.031149 -0.029474 -1408560.000000 0 0 1
-21.736322 20.866184 8.423261 31.286045 -0.764976 1.298199 0.037752 -0.020867 340124.000000 0 0 1
-22.378922 20.381584 9.640861 31.767457 -0.738722 1.262451 0.049302 -0.021776 496638.000000 0 0 1
-22.820622 21.454184 10.723961 33.106889 -0.754545 1.240927 0.046403 -0.027196 -647283.000000 0 0 1
-23.840522 22.370184 10.371261 34.298085 -0.753591 1.263601 0.046584 -0.023176 250472.000000 0 0 1
-24.192422 23.167484 11.520461 35.422120 -0.763760 1.239538 0.044093 -0.017255 -442071.000000 0 0 1
-25.345312 24.064884 11.117561 36.675654 -0.759490 1.262819 0.034649 -0.025299 -664293.000000 0 0 1
-26.104602 24.473884 12.214161 37.810144 -0.753168 1.241857 0.028910 -0.022845 -38872.700000 0 0 1
-26.623112 25.802784 12.070161 38.990544 -0.769752 1.256059 0.026451 -0.021609 -83992.900000 0 0 1
-27.047952 26.333684 13.481161 40.084864 -0.772019 1.227795 0.031808 -0.027263 -30148.800000 0 0 1
-26.010702 26.275184 14.443761 39.693376 -0.790456 1.198363 0.023467 -0.023185 -3259.410000 0 0 1
-26.230172 27.098484 15.585261 40.807476 -0.801679 1.178922 0.030460 -0.026084 3506.910000 0 0 1
-25.111982 26.978484 16.645861 40.441747 -0.821215 1.146586 0.022096 -0.022880 -25243.700000 0 0 1
-25.115662 25.798684 17.424861 39.999929 -0.798812 1.120067 0.023682 -0.015150 -437126.000000 0 0 1
-24.042722 25.920684 18.298261 39.809053 -0.822967 1.093194 0.018409 -0.008214 -364195.000000 0 0 1
-23.625722 24.527084 18.832761 38.915620 -0.804115 1.065647 0.020809 -0.000876 -656239.000000 0 0 1
-22.408222 24.485784 19.499161 38.495445 -0.829673 1.039639 0.018952 -0.006936 -229782.000000 0 0 1
-22.028922 23.126284 19.775861 37.565717 -0.809695 1.016396 0.023555 -0.010759 -1019220.000000 0 0 1
-20.622522 23.038184 20.318161 36.998297 -0.840670 0.989432 0.022493 -0.008331 -1592670.000000 0 0 1
-19.659222 23.142884 19.290761 35.975152 -0.866609 1.004838 0.022699 -0.013343 -501246.000000 0 0 1
-18.419122 22.622084 19.655761 35.176294 -0.887451 0.977884 0.021000 -0.009461 -1437590.000000 0 0 1
-18.337022 21.076184 19.720661 34.195853 -0.854785 0.956116 0.037333 -0.006805 -856474.000000 0 0 1
-18.773722 20.487384 20.940861 34.795189 -0.829018 0.925003 0.050229 -0.015497 81454.600000 0 0 1
-17.854022 20.694684 21.967661 35.065855 -0.858955 0.893782 0.055808 -0.021902 -305242.000000 0 0 1
-18.560622 20.416384 23.305061 36.117188 -0.832974 0.869430 0.036508 -0.015515 -149416.000000 0 0 1
-19.639122 21.277384 23.550461 37.323536 -0.825416 0.887979 0.021474 -0.005721 -138416.000000 0 0 1
-20.232022 21.009284 24.803461 38.287549 -0.804243 0.866076 0.023007 -0.005708 743355.000000 0 0 1
-21.360222 22.100684 25.158861 39.719864 -0.802434 0.884847 0.021830 -0.011068 401087.000000 0 0 1
-20.807422 23.378784 25.391861 40.302145 -0.843526 0.889195 0.017652 -0.012362 552053.000000 0 0 1
-21.771222 24.433184 25.630861 41.568108 -0.842947 0.906381 0.013311 -0.015860 262711.000000 0 0 1
-22.541022 24.969484 24.386161 41.548257 -0.836468 0.943527 0.011940 -0.015353 629813.000000 0 0 1
-23.691922 24.226184 23.969261 41.505910 -0.796547 0.955145 0.012635 -0.017793 607663.000000 0 0 1
-24.270522 24.771984 22.772161 41.488320 -0.795623 0.989771 0.010682 -0.014995 401059.000000 0 0 1
-25.466212 23.918884 22.259261 41.426026 -0.754077 1.003534 0.017827 -0.012580 -187321.000000 0 0 1
-26.585892 23.875484 23.093561 42.545986 -0.731737 0.997040 0.020720 -0.019066 -503116.000000 0 0 1
-27.310892 22.723784 22.689561 42.155324 -0.693975 1.002452 0.029522 -0.018497 987924.000000 0 0 1
-28.862032 22.973284 22.892761 43.415057 -0.672278 1.015377 0.033971 -0.013067 643444.000000 0 0 1
-29.451172 23.784184 21.929461 43.748831 -0.679346 1.045744 0.029882 -0.018313 562510.000000 0 0 1
-30.822162 24.102784 22.175561 44.974497 -0.663666 1.055182 0.026317 -0.019126 1296130.000000 0 0 1
-31.945062 23.191884 21.546161 44.973186 -0.627959 1.071180 0.031885 -0.024126 -75246.500000 0 0 1
-31.871132 21.825584 21.980861 44.444160 -0.600457 1.053453 0.035684 -0.016593 251030.000000 0 0 1
-32.386702 20.845284 21.079261 43.906259 -0.571889 1.070031 0.019134 -0.004651 1160110.000000 0 0 1
-33.955252 20.812884 20.861061 44.959083 -0.549887 1.088290 0.021840 -0.008051 1153750.000000 0 0 1
-34.383233 19.949084 19.777261 44.399467 -0.525732 1.109132 0.021396 -0.000460 -874703.000000 0 0 1
34.721861 20.084384 19.434861 44.572457 0.524413 1.119616 0.023383 -0.002645 -874791.000000 0 0 1
34.124783 19.250284 18.280961 43.235030 0.513615 1.134233 0.026009 0.004309 -231716.000000 0 0 1
34.098363 17.899484 18.524761 42.734724 0.483397 1.122443 0.032950 0.002871 418958.000000 0 0 1
33.601203 17.189284 17.375661 41.550282 0.472859 1.139351 0.034056 -0.003201 106542.000000 0 0 1
33.937953 15.700684 17.464261 41.271013 0.433306 1.133866 0.027911 -0.001734 -13690.600000 0 0 1
33.066743 14.945584 16.673361 39.934708 0.424501 1.140087 0.042484 -0.012338 375933.000000 0 0 1
33.646103 13.629984 16.517361 39.883078 0.384894 1.143794 0.034025 -0.021263 -602.171000 0 0 1
32.818253 12.672984 15.676061 38.514687 0.368516 1.151612 0.043477 -0.022620 -335738.000000 0 0 1
32.770673 13.048084 14.297361 38.060268 0.378922 1.185698 0.037314 -0.017649 251286.000000 0 0 1
31.957603 12.196184 13.520761 36.781059 0.364576 1.194368 0.038552 -0.009497 -282333.000000 0 0 1
31.982403 12.540784 12.054761 36.406904 0.373691 1.233315 0.039671 -0.005507 348649.000000 0 0 1
33.267743 12.280384 11.474761 37.272251 0.353621 1.257850 0.041364 -0.009908 621941.000000 0 0 1
33.343193 12.521084 10.053761 37.008434 0.359228 1.295677 0.027215 -0.001424 -815565.000000 0 0 1
34.709067 12.378584 9.406861 38.032062 0.342576 1.320862 0.024204 -0.001943 -827248.000000 0 0 1
-35.112078 11.142184 9.453361 38.031202 -0.307281 1.319594 0.014271 0.000280 -79576.400000 0 0 1
-33.772772 11.113384 9.009761 36.678103 -0.317903 1.322612 -0.007510 0.010011 -61371.000000 0 0 1
-33.476322 11.035684 7.474961 36.032284 -0.318438 1.361827 0.013358 0.000293 -628663.000000 0 0 1
-33.631732 12.228284 6.674861 36.402996 -0.348733 1.386393 0.006472 0.001009 67483.200000 0 0 1
-33.316932 11.854484 5.384161 35.770602 -0.341841 1.419703 0.001888 -0.001051 -95456.600000 0 0 1
-34.155879 12.670884 4.331261 36.686989 -0.355235 1.452460 0.007642 0.009321 -664567.000000 0 0 1
34.969908 12.139384 4.314561 37.267607 0.334123 1.454764 0.011458 0.000149 -569926.000000 0 0 1
33.967743 13.117784 4.240361 36.658757 0.368539 1.454866 0.012311 0.000310 -83427.300000 0 0 1
33.778393 13.937584 5.520661 36.955565 0.391337 1.420849 0.033515 -0.000067 -1481990.000000 0 0 1
32.896053 15.077384 5.423661 36.590899 0.429763 1.422024 0.023820 0.008600 550326.000000 0 0 1
32.518363 15.507784 6.737861 36.651522 0.444992 1.385909 0.006801 0.018207 423836.000000 0 0 1
31.317983 14.707984 7.361561 35.374192 0.439061 1.361159 0.025719 0.000668 -90783.500000 0 0 1
31.621763 13.368584 7.532661 35.148199 0.399976 1.354810 0.042644 0.006605 -18763.800000 0 0 1
30.452233 12.585584 7.667161 33.830767 0.391910 1.342177 0.055519 0.018442 -57202.300000 0 0 1
30.552613 11.356784 6.791861 33.295166 0.355885 1.365365 0.055064 0.010836 -213540.000000 0 0 1
30.379103 11.630184 5.445261 32.981843 0.365622 1.404938 0.051605 0.005967 252152.000000 0 0 1
30.910793 10.666484 4.548361 33.014218 0.332279 1.432587 0.053136 -0.006663 -369530.000000 0 0 1
30.472313 10.900184 3.058061 32.507347 0.343525 1.476584 0.038863 -0.016222 -687871.000000 0 0 1
29.104403 10.668484 2.927461 31.136038 0.351350 1.476636 0.048654 -0.006507 -448880.000000 0 0 1
28.669233 11.353784 1.738061 30.884530 0.377076 1.514490 0.046758 -0.018047 -531492.000000 0 0 1
27.159993 11.270184 1.537461 29.445646 0.393332 1.518559 0.058046 -0.010385 -433749.000000 0 0 1
26.723543 9.986384 1.038261 28.547392 0.357624 1.534419 0.049329 -0.015072 236275.000000 0 0 1
25.362663 9.748584 1.369661 27.206167 0.366958 1.520431 0.057376 -0.012023 51814.400000 0 0 1
25.096463 8.248984 1.382061 26.453512 0.317567 1.518528 0.063203 -0.010484 9677.300000 0 0 1
25.574833 7.536584 2.531961 26.782140 0.286576 1.476116 0.069069 -0.010504 -281375.000000 0 0 1
26.948243 7.299184 2.497361 28.030746 0.264513 1.481584 0.081129 -0.019472 -927233.000000 0 0 1
27.441873 6.568984 3.748761 28.465087 0.234957 1.438716 0.076896 -0.020822 633837.000000 0 0 1
28.859103 6.412184 3.907061 29.819944 0.218638 1.439397 0.080500 -0.013375 859217.000000 0 0 1
29.142203 5.610184 5.024961 30.099708 0.190184 1.403067 0.057167 -0.011101 1039840.000000 0 0 1
30.634533 5.688384 5.551061 31.648801 0.183594 1.394489 0.039847 -0.005549 1152770.000000 0 0 1
30.954693 6.925184 6.111361 32.303250 0.220096 1.380462 0.044221 -0.011497 -1206840.000000 0 0 1
32.144903 6.870484 6.780161 33.562910 0.210567 1.367383 0.010260 -0.001693 -979940.000000 0 0 1
32.394333 8.089884 7.696961 34.264884 0.244726 1.344232 0.021924 -0.013170 -276498.000000 0 0 1
31.557543 8.082984 8.803461 33.744838 0.250744 1.306859 0.028337 -0.010634 -456703.000000 0 0 1
32.034473 8.974184 9.782161 34.676132 0.273140 1.284813 0.029616 -0.004776 -24369.200000 0 0 1
31.226733 8.864384 11.098361 34.305390 0.276595 1.241353 0.041450 -0.005939 -228600.000000 0 0 1
30.025983 9.590784 11.143461 33.432313 0.309173 1.230980 0.040543 -0.001776 -357974.000000 0 0 1
29.430733 9.464484 12.369761 33.297980 0.311140 1.190186 0.027805 -0.006055 -518937.000000 0 0 1
28.062143 10.162684 12.501061 32.358006 0.347457 1.174141 0.036252 -0.010180 -373543.000000 0 0 1
28.065583 11.594284 12.317661 32.769332 0.391760 1.185439 0.036693 -0.007945 104797.000000 0 0 1
28.261183 12.129084 11.027161 32.671202 0.405404 1.226516 0.048737 -0.006884 -92752.400000 0 0 1
26.991933 12.199584 10.125261 31.303597 0.424492 1.241419 0.035593 -0.001980 162947.000000 0 0 1
27.188753 13.070484 9.025561 31.488515 0.448114 1.280089 0.025398 0.012249 291433.000000 0 0 1
26.144643 12.966784 8.057661 30.275497 0.460413 1.301405 0.026749 0.018458 241227.000000 0 0 1
25.953143 14.243084 7.183861 30.463731 0.501921 1.332737 0.026755 0.018290 10059.500000 0 0 1
25.644463 15.395184 7.954361 30.950316 0.540663 1.310875 0.023802 0.022737 241078.000000 0 0 1
25.932673 16.611684 7.299061 31.650085 0.569717 1.338084 0.021575 0.023380 -650760.000000 0 0 1
25.712233 17.925784 8.092461 32.371910 0.608824 1.318133 0.024268 0.019330 1602450.000000 0 0 1
24.351763 18.414484 8.330961 31.646587 0.647449 1.304407 0.019110 0.011737 1643400.000000 0 0 1
23.449963 17.577184 9.068761 30.677363 0.643220 1.270695 0.023750 0.003920 -345616.000000 0 0 1
22.167463 18.420484 9.218561 30.260412 0.693342 1.261235 0.025185 0.000609 -446001.000000 0 0 1
21.568663 18.611184 7.952361 29.577414 0.711925 1.298581 0.033292 -0.009355 410203.000000 0 0 1
20.416663 19.455184 7.962461 29.304353 0.761289 1.295621 0.043190 -0.016924 832954.000000 0 0 1
19.753463 19.786284 6.545361 28.714771 0.786228 1.340831 0.036202 -0.017802 713444.000000 0 0 1
20.735163 20.457084 5.739961 29.688153 0.778647 1.376229 0.022818 -0.003387 699637.000000 0 0 1
20.183063 20.858584 4.483761 29.369043 0.801856 1.417527 0.025976 -0.010092 -39248.800000 0 0 1
17.644878 17.285884 33.161700 41.350234 0.775121 0.640208 0.013059 -0.009273 -528157.000000 0 0 1
17.233078 18.057384 32.107737 40.668843 0.808752 0.660815 0.019009 -0.012088 161011.000000 0 0 1
16.597878 17.228384 31.115667 39.249095 0.804036 0.655449 0.028570 -0.014683 38733.800000 0 0 1
16.009478 18.043384 29.924107 38.435911 0.845055 0.678451 0.021486 -0.015043 -85224.800000 0 0 1
16.881978 18.553684 28.971367 38.322062 0.832539 0.713620 0.015494 -0.007479 -429673.000000 0 0 1
16.118878 18.983384 27.880047 37.382938 0.866822 0.729067 0.039540 -0.016245 383452.000000 0 0 1
17.094878 19.401384 26.715527 37.180208 0.848513 0.769093 0.030639 -0.006933 276221.000000 0 0 1
17.684778 20.603284 27.125457 38.380165 0.861476 0.785892 0.037239 -0.015522 262117.000000 0 0 1
18.724878 21.018384 26.215887 38.466430 0.843042 0.820950 0.034297 -0.007896 365007.000000 0 0 1
19.390878 22.306884 26.679047 39.816764 0.855216 0.836526 0.047323 -0.016882 -384436.000000 0 0 1
18.632078 23.416984 26.285037 39.829795 0.898704 0.850065 0.046851 -0.027042 451068.000000 0 0 1
19.188478 24.559784 26.893277 41.165872 0.907564 0.858874 0.051684 -0.024371 380765.000000 0 0 1
18.263878 25.710384 26.372687 41.110968 0.953145 0.874344 0.063247 -0.026027 457106.000000 0 0 1
18.300678 25.912684 24.977467 40.376427 0.955892 0.903818 0.076037 -0.032598 -17748.900000 0 0 1
17.560678 27.051884 24.623967 40.577353 0.995020 0.918717 0.078313 -0.035104 -258198.000000 0 0 1
17.883778 27.698484 23.239277 40.337321 0.997479 0.956818 0.067992 -0.035657 -36922.200000 0 0 1
19.036078 28.521084 23.279477 41.445850 0.982259 0.974376 0.074246 -0.032670 11795.100000 0 0 1
19.101178 29.379384 22.156277 41.459664 0.994312 1.006992 0.066027 -0.034638 -824806.000000 0 0 1
20.427478 30.073784 22.027977 42.508188 0.974136 1.026045 0.077222 -0.028731 -1354500.000000 0 0 1
21.508878 29.279484 21.628777 42.281485 0.937221 1.033817 0.080534 -0.031918 -1098480.000000 0 0 1
22.518378 30.100384 21.141277 43.128460 0.928506 1.058485 0.065771 -0.032323 -588837.000000 0 0 1
22.553478 30.467584 19.664377 42.703873 0.933568 1.092258 0.046456 -0.027726 -24867.900000 0 0 1
21.579678 31.454884 19.264477 42.734205 0.969493 1.103138 0.043778 -0.019448 586895.000000 0 0 1
21.717578 31.691384 17.888477 42.379176 0.970016 1.135030 0.043442 -0.007378 -421734.000000 0 0 1
21.025278 32.909584 17.364377 42.739029 1.002278 1.152408 0.048507 -0.002126 -776789.000000 0 0 1
21.755978 34.118584 17.487677 44.081960 1.003147 1.162868 0.044331 -0.004819 79145.300000 0 0 1
21.952678 -34.196930 16.323277 43.792687 -1.000102 1.188836 0.036068 -0.004848 -213320.000000 0 0 1
22.973278 34.370784 15.283077 44.076010 0.981598 1.216699 0.029288 -0.006197 -417846.000000 0 0 1
22.597478 33.197784 14.643577 42.745446 0.973146 1.221139 0.046524 -0.012048 320114.000000 0 0 1
21.712778 33.476884 13.548177 42.139050 0.995413 1.243471 0.021565 -0.011634 380794.000000 0 0 1
21.251278 32.281484 12.659977 40.669227 0.988600 1.254245 0.019183 -0.020246 226406.000000 0 0 1
22.358778 31.820584 11.877877 40.663847 0.958293 1.274375 0.046076 -0.034445 336910.000000 0 0 1
22.008278 30.802184 10.998177 39.422059 0.950402 1.288059 0.043077 -0.031791 -590264.000000 0 0 1
23.162278 30.218084 10.135077 39.399790 0.916816 1.310635 0.042969 -0.026820 1113160.000000 0 0 1
24.251778 29.497584 10.762877 39.674875 0.882688 1.296077 0.042111 -0.022079 705847.000000 0 0 1
25.064178 30.192484 11.653277 40.934068 0.877942 1.282119 0.042648 -0.021378 3777.990000 0 0 1
26.530478 29.679784 11.901777 41.550067 0.841367 1.280283 0.037672 -0.012700 983041.000000 0 0 1
26.646878 28.405384 12.482577 40.899103 0.817330 1.260644 0.040467 -0.005321 561777.000000 0 0 1
27.939778 28.335884 13.117177 41.900046 0.792437 1.252384 0.026136 0.011430 806307.000000 0 0 1
28.026178 27.060984 13.987877 41.393528 0.767879 1.226086 0.008147 -0.005326 552190.000000 0 0 1
29.186178 27.155084 14.835877 42.536276 0.749364 1.214525 -0.006508 -0.000632 581293.000000 0 0 1
29.169978 26.071684 15.748577 42.173901 0.729371 1.188103 -0.000198 -0.004522 222306.000000 0 0 1
30.239078 26.337184 16.867977 43.503767 0.716540 1.172622 0.005012 -0.007483 8975.670000 0 0 1
31.498278 26.360884 16.237577 44.166691 0.696839 1.194323 0.013435 -0.004167 -495813.000000 0 0 1
32.452278 26.717584 17.241577 45.434036 0.688781 1.181556 -0.002442 -0.003293 1329840.000000 0 0 1
33.921278 26.875184 16.661777 46.373952 0.670016 1.203288 0.008096 -0.017267 1092060.000000 0 0 1
34.074178 28.060384 15.953877 46.935710 0.688912 1.223976 0.013037 -0.011086 -294891.000000 0 0 1
-34.993407 28.315584 15.691577 47.671128 -0.680307 1.235379 0.028664 -0.017004 146235.000000 0 0 1
-34.706407 29.489684 14.680177 47.850640 -0.704314 1.258976 0.017140 -0.012658 10459.700000 0 0 1
-34.999907 30.694784 15.297077 49.001672 -0.719959 1.253315 0.018484 -0.012125 9984.410000 0 0 1
-34.973307 31.702784 14.299277 49.322085 -0.736387 1.276657 0.005576 0.012124 -125220.000000 0 0 1
34.528278 32.870384 14.719677 49.893216 0.760805 1.271316 0.001403 0.014599 -733931.000000 0 0 1
34.574578 34.005384 13.850477 50.434148 0.777099 1.292597 -0.019312 0.007331 816951.000000 0 0 1
33.418578 -34.235130 14.037877 49.858876 -0.797467 1.285385 -0.010251 0.018872 1469820.000000 0 0 1
32.013478 34.290484 13.595477 48.841960 0.819727 1.288714 0.021137 0.020043 138118.000000 0 0 1
31.415378 33.244584 14.310277 47.926113 0.813680 1.267581 0.006643 0.008949 421749.000000 0 0 1
30.286778 32.738284 13.581077 46.621130 0.824276 1.275203 0.018248 0.011641 356322.000000 0 0 1
29.620578 31.456684 14.158977 45.468431 0.815451 1.254128 0.033310 0.008212 -310712.000000 0 0 1
28.842278 31.835484 15.247277 45.583489 0.834688 1.229731 0.031592 0.014825 -79113.200000 0 0 1
28.374578 30.788884 16.102477 44.859356 0.826183 1.203649 0.031851 0.004739 27156.700000 0 0 1
27.582578 31.263184 17.322677 45.147097 0.847863 1.177003 0.018159 0.006998 -198298.000000 0 0 1
27.382378 30.251384 18.250577 44.699266 0.835137 1.150209 0.005932 0.010582 195231.000000 0 0 1
28.090978 30.536484 19.471677 45.833678 0.827087 1.132019 0.001583 0.006691 118493.000000 0 0 1
27.954278 29.465884 20.542877 45.515819 0.811717 1.102536 0.004838 -0.002045 1201180.000000 0 0 1
26.677178 29.455584 21.233177 45.057197 0.834855 1.080090 0.016711 -0.013726 1282740.000000 0 0 1
26.935378 28.686784 22.377777 45.268212 0.816875 1.053724 0.005701 -0.016095 80750.500000 0 0 1
25.776378 28.691684 23.406177 45.116333 0.838870 1.025354 0.028115 -0.020283 146917.000000 0 0 1
24.738978 27.860784 22.875877 43.721231 0.844679 1.020170 0.059049 -0.026205 -972829.000000 0 0 1
23.599178 27.987784 23.627177 43.571558 0.870266 0.997670 0.074718 -0.028229 -728527.000000 0 0 1
23.124578 26.783384 24.446537 43.008475 0.858578 0.966222 0.053204 -0.034369 -103712.000000 0 0 1
24.128878 26.588384 25.423237 43.994157 0.833855 0.954671 0.029721 -0.030137 261006.000000 0 0 1
23.768178 25.664984 26.439727 43.848339 0.823750 0.923563 0.048356 -0.027903 121850.000000 0 0 1
25.018878 25.340684 27.333247 44.890989 0.791788 0.916148 0.054600 -0.033756 654661.000000 0 0 1
25.423978 26.371084 28.274817 46.273945 0.803682 0.913434 0.064904 -0.028295 313509.000000 0 0 1
26.105878 27.451684 27.639227 46.893908 0.810521 0.940482 0.038858 -0.011082 -695925.000000 0 0 1
26.466578 28.645284 28.569177 48.344905 0.824910 0.938567 0.011030 -0.006560 -481060.000000 0 0 1
27.426578 28.402884 29.554937 49.319725 0.802884 0.928230 0.002241 -0.001373 -73602.500000 0 0 1
27.658678 29.616784 30.298957 50.598252 0.819572 0.928777 0.011457 -0.004587 -237766.000000 0 0 1
29.129478 30.035084 30.361907 51.696016 0.800704 0.943057 -0.006094 0.002873 -283665.000000 0 0 1
29.657378 30.365884 29.088227 51.456505 0.797201 0.970003 -0.019668 -0.001418 -754124.000000 0 0 1
31.044978 30.444484 29.150417 52.348868 0.775633 0.980209 -0.015224 -0.005032 -842259.000000 0 0 1
31.653178 30.957484 27.863007 52.312872 0.774287 1.009100 -0.019992 0.003713 -632635.000000 0 0 1
31.386678 32.316484 27.570127 52.816575 0.799993 1.021605 -0.018703 0.006971 64589.100000 0 0 1
31.873878 32.780984 26.358717 52.776121 0.799427 1.047839 -0.011517 0.000008 -458205.000000 0 0 1
31.727078 34.277284 26.171107 53.539392 0.824016 1.060060 -0.006688 -0.006282 -1097530.000000 0 0 1
32.492478 -33.964430 27.024887 54.218891 -0.807544 1.048997 0.000407 -0.002137 172276.000000 0 0 1
32.245278 -32.569130 26.801857 53.092803 -0.790395 1.041633 -0.002837 0.000531 -491708.000000 0 0 1
33.327078 -31.765430 27.484857 53.620463 -0.761412 1.032608 -0.006421 0.004016 -523093.000000 0 0 1
33.148478 -31.793030 28.910567 54.271901 -0.764529 1.009010 -0.013529 -0.000083 323073.000000 0 0 1
34.122578 -31.030130 29.591027 54.798250 -0.737969 1.000360 -0.004656 -0.003927 -250929.000000 0 0 1
33.722478 -30.566930 31.039297 55.090659 -0.736354 0.972274 0.004560 -0.007880 -368851.000000 0 0 1
33.525678 -31.602030 32.020267 56.106656 -0.755870 0.963434 0.001221 -0.006467 653065.000000 0 0 1
32.411878 -32.492230 31.923767 55.905292 -0.786636 0.963033 -0.004322 -0.011616 -170986.000000 0 0 1
32.492378 -33.477930 33.164707 57.240058 -0.800336 0.952808 0.002896 -0.009096 -518051.000000 0 0 1
32.087478 -32.844430 34.364648 57.352348 -0.797055 0.928314 -0.001560 -0.013870 456226.000000 0 0 1
32.747078 -33.384130 -33.551889 57.555196 -0.795031 2.193153 -0.006950 -0.013814 14292.900000 0 0 1
32.088478 34.373384 -32.993169 57.443443 0.819764 2.182617 0.007947 -0.011447 199765.000000 0 0 1
32.175178 33.301184 -33.894499 57.385085 0.802594 2.202660 -0.006171 -0.010042 789603.000000 0 0 1
31.121578 32.315984 -33.704389 56.114715 0.804224 2.215090 -0.000835 -0.003201 740523.000000 0 0 1
31.167178 31.314084 34.194694 55.868076 0.787749 0.912132 0.005788 0.004160 380802.000000 0 0 1
32.409278 30.616484 34.132973 56.149712 0.756960 0.917393 0.000211 0.000790 304298.000000 0 0 1
32.268878 29.564284 33.231764 54.951592 0.741686 0.921349 -0.001301 -0.000862 68389.500000 0 0 1
33.546378 28.799984 32.789237 55.044823 0.709415 0.932681 -0.004070 -0.000069 181038.000000 0 0 1
33.981578 27.779184 33.716736 55.346625 0.685308 0.915755 -0.008428 0.005082 639605.000000 0 0 1
-35.198507 27.166284 33.427413 55.626736 -0.657309 0.926140 -0.006313 -0.001923 477089.000000 0 0 1
-34.881807 25.895184 34.299860 55.351435 -0.638600 0.902469 -0.001012 -0.002162 -307753.000000 0 0 1
34.752578 24.841284 33.926478 54.551232 0.620593 0.899605 -0.005221 -0.005319 -234922.000000 0 0 1
34.906978 23.746184 -34.275087 54.379775 0.597362 2.252724 0.006216 -0.022002 -177958.000000 0 0 1
34.536778 22.480484 34.033945 53.445960 0.577018 0.880466 0.001078 -0.028680 -697969.000000 0 0 1
-34.929807 22.010784 33.129002 52.934835 -0.562289 0.894582 0.009469 -0.027726 -376556.000000 0 0 1
35.105378 20.961784 32.270317 52.087976 0.538292 0.902646 0.007443 -0.026414 -231384.000000 0 0 1
-34.268107 20.330184 31.330237 50.687309 -0.535455 0.904463 -0.002798 -0.033090 -293786.000000 0 0 1
-33.788807 21.214084 30.331547 50.117099 -0.560641 0.920762 -0.006454 -0.030248 -300153.000000 0 0 1
-32.647807 20.639684 29.754287 48.756471 -0.563754 0.914403 0.017027 -0.030205 -389138.000000 0 0 1
-32.876707 19.558184 28.657147 47.797829 -0.536657 0.927859 0.025352 -0.022791 -965569.000000 0 0 1
-33.675607 18.521984 29.119887 48.219065 -0.502852 0.922401 0.012447 -0.017877 66995.200000 0 0 1
-34.023107 17.653284 28.043777 47.493828 -0.478623 0.939153 0.012964 -0.020588 209940.000000 0 0 1
-34.860007 16.428384 28.493667 47.927038 -0.440398 0.934126 0.009411 -0.009987 -446190.000000 0 0 1
-34.009707 15.539484 29.079347 47.368177 -0.428588 0.909804 0.014376 -0.005278 -146203.000000 0 0 1
-34.679107 14.367484 29.467177 47.721898 -0.392771 0.905265 0.020188 -0.005954 -1501.400000 0 0 1
-33.694207 13.204884 29.759317 46.853874 -0.373507 0.882591 0.021134 0.004176 -400888.000000 0 0 1
-32.968207 13.346484 30.916357 47.125921 -0.384662 0.855240 0.025178 0.006520 -193614.000000 0 0 1
-32.352607 12.133184 31.325357 46.638861 -0.358797 0.834352 0.024481 0.011047 -792550.000000 0 0 1
-30.847207 12.296384 31.320337 45.647724 -0.379318 0.814639 0.020841 0.012055 -1968430.000000 0 0 1
-30.308307 12.526684 30.058767 44.486411 -0.391926 0.828904 0.019497 0.011529 -516615.000000 0 0 1
-28.992407 12.954284 29.910677 43.623637 -0.420203 0.815296 0.030783 0.006849 -301243.000000 0 0 1
-27.894807 11.949184 30.317867 42.896111 -0.404718 0.785868 0.027702 0.008196 -786533.000000 0 0 1
-27.731807 10.867484 29.440387 41.879490 -0.373485 0.791219 0.016072 0.000369 357558.000000 0 0 1
-26.544507 10.171584 29.809847 41.191006 -0.365931 0.761651 0.013945 0.000467 29966.400000 0 0 1
-26.155607 8.998184 28.933347 40.027761 -0.331342 0.762904 0.011728 -0.001658 -214427.000000 0 0 1
-26.796807 7.747684 29.016767 40.250071 -0.281452 0.765679 0.018970 -0.003105 883250.000000 0 0 1
-28.192507 7.775284 28.636517 40.930705 -0.269103 0.795911 0.027750 -0.003129 738635.000000 0 0 1
-28.858107 6.380284 28.757597 41.237092 -0.217591 0.799072 0.029117 -0.004855 -233605.000000 0 0 1
-29.309307 6.089584 30.088757 42.443513 -0.204855 0.782841 0.029921 -0.001945 -59318.700000 0 0 1
-29.862307 4.832784 30.136767 42.700561 -0.160445 0.787287 0.032175 -0.002645 90942.200000 0 0 1
-30.760207 4.557184 31.423537 44.208562 -0.147082 0.780159 0.013734 -0.000270 227942.000000 0 0 1
-31.924407 5.355084 31.403017 45.099824 -0.166195 0.800567 0.016879 0.000405 -555196.000000 0 0 1
-32.673007 4.987084 32.524787 46.370876 -0.151467 0.793429 0.016503 -0.005143 -461169.000000 0 0 1
-34.029907 5.693184 32.513997 47.408933 -0.165764 0.815066 0.006527 0.003070 -251286.000000 0 0 1
-33.965007 7.014884 33.011194 47.880781 -0.203669 0.810073 0.009956 -0.004864 693225.000000 0 0 1
35.169078 7.630884 32.916807 48.771001 0.213665 0.829932 0.014791 -0.004834 561429.000000 0 0 1
35.068178 9.020384 33.568097 49.375718 0.251766 0.823238 0.013146 0.008256 -130084.000000 0 0 1
35.149278 8.998984 -34.112490 49.800757 0.250638 2.325372 0.015972 0.004633 210152.000000 0 0 1
34.960978 10.261084 -33.583729 49.552262 0.285484 2.315486 0.018702 0.009171 -352784.000000 0 0 1
34.737578 10.113684 -32.023009 48.316240 0.283314 2.295321 0.018607 0.003527 -1111090.000000 0 0 1
33.548878 9.496084 -31.693649 47.118895 0.275837 2.308555 0.034515 -0.002288 -544737.000000 0 0 1
33.191778 9.759184 -30.296179 45.986892 0.285965 2.290019 0.019380 -0.000631 209264.000000 0 0 1
31.921478 9.014484 -29.805339 44.593721 0.275229 2.302819 0.030964 0.000338 -62432.300000 0 0 1
32.066878 7.632484 -29.539859 44.262205 0.233670 2.301486 0.029214 -0.003592 817174.000000 0 0 1
30.895178 6.920784 -29.061989 42.976837 0.220371 2.313422 0.019796 0.005306 407518.000000 0 0 1
34.333643 6.209484 -19.216439 39.832503 0.178923 2.074224 0.020571 -0.009254 -376610.000000 0 0 1
34.018683 7.297684 -18.410339 39.363277 0.211317 2.057487 0.031797 0.008918 271892.000000 0 0 1
34.370857 8.574084 -18.936039 40.167703 0.244468 2.061702 0.008349 0.000188 -1191010.000000 0 0 1
-34.603834 8.968884 -18.792439 40.385913 -0.253607 2.054794 0.002875 -0.000092 -355296.000000 0 0 1
-33.629322 8.199284 -19.507439 39.732855 -0.239148 2.083993 0.002529 -0.008638 519922.000000 0 0 1
-33.466912 8.791484 -20.789839 40.367584 -0.256888 2.111819 -0.018453 -0.001250 -440956.000000 0 0 1
-32.536152 7.900784 -21.705639 39.901859 -0.238220 2.145964 -0.019810 0.003849 -95312.800000 0 0 1
-33.111262 6.679084 -22.115839 40.374202 -0.199045 2.150495 -0.022509 0.008904 345509.000000 0 0 1
-34.098030 6.695584 -23.134039 41.745542 -0.193896 2.158159 -0.013449 0.001148 119979.000000 0 0 1
-33.879602 5.648184 -24.268239 42.055640 -0.165194 2.185909 0.003501 0.001191 -52381.500000 0 0 1
-32.752572 5.797984 -25.101739 41.670672 -0.175209 2.217281 -0.001332 0.002365 -74394.400000 0 0 1
-32.458952 4.559484 -25.714389 41.660560 -0.139556 2.236021 0.001738 0.004058 -251368.000000 0 0 1
-31.083152 4.527284 -26.424169 41.047477 -0.144634 2.270180 0.010876 -0.000007 -544025.000000 0 0 1
-30.099192 4.768384 -25.477789 39.721740 -0.157117 2.267127 0.007314 -0.000711 -1389770.000000 0 0 1
-28.888132 4.404684 -26.060949 39.154802 -0.151308 2.299077 0.012724 -0.004442 -414077.000000 0 0 1
-27.659452 4.878284 -25.218769 37.746911 -0.174574 2.302451 0.012140 -0.003877 33277.100000 0 0 1
-27.311612 6.145884 -25.558619 37.906979 -0.221341 2.310739 -0.004443 -0.000324 333579.000000 0 0 1
-26.024382 6.437684 -25.023539 36.672739 -0.242503 2.321765 0.006656 0.007808 129038.000000 0 0 1
-25.643022 7.924184 -25.240159 36.843221 -0.299711 2.325495 -0.002982 0.002142 -80122.900000 0 0 1
-26.348932 8.765284 -24.318439 36.911826 -0.321146 2.290052 -0.010684 0.004994 174576.000000 0 0 1
-25.923382 10.129084 -24.360439 36.987175 -0.372491 2.289778 -0.025773 0.007844 683204.000000 0 0 1
-24.539622 10.480184 -23.713439 35.698102 -0.403624 2.297323 0.004872 0.004102 502937.000000 0 0 1
-24.636422 10.610584 -22.294539 34.879568 -0.406678 2.264236 -0.009366 0.012882 592187.000000 0 0 1
-23.353822 10.772784 -21.696139 33.647828 -0.432199 2.271559 0.016530 -0.007078 -47823.200000 0 0 1
-23.547222 11.276284 -20.282639 33.060727 -0.446609 2.231277 0.033973 0.000824 -628981.000000 0 0 1
-24.129122 12.555284 -20.172739 33.864275 -0.479785 2.208926 0.019027 0.003354 1770660.000000 0 0 1
-25.558102 12.816584 -20.266439 35.045827 -0.464822 2.187420 0.012719 0.025694 1151450.000000 0 0 1
-26.544552 11.990884 -19.447539 35.022869 -0.424289 2.159497 0.005906 0.008951 -765894.000000 0 0 1
-26.341682 12.205284 -18.083739 34.203432 -0.433896 2.127878 0.016109 -0.010108 376412.000000 0 0 1
-27.221482 11.351384 -17.355739 34.221115 -0.395076 2.102688 -0.003683 -0.015920 -412424.000000 0 0 1
-26.579912 10.672184 -16.112439 32.863322 -0.381810 2.083215 0.015823 -0.015504 -186402.000000 0 0 1
-25.590212 9.711484 -16.357539 31.886376 -0.362710 2.109466 0.023144 -0.020392 54092.200000 0 0 1
-24.283422 10.261684 -16.296539 30.992966 -0.399819 2.124468 0.037820 -0.019692 -362021.000000 0 0 1
-23.280422 9.094984 -16.150439 29.757914 -0.372438 2.144477 0.037654 -0.027323 -955164.000000 0 0 1
-21.933922 9.433684 -16.075339 28.783812 -0.406179 2.163355 0.046112 -0.018043 -638676.000000 0 0 1
-21.195822 8.266084 -15.886739 27.748504 -0.371844 2.180380 0.056826 -0.021757 -168556.000000 0 0 1
-19.697622 8.601084 -15.656139 26.591157 -0.411702 2.200336 0.059371 -0.020746 -15373.100000 0 0 1
-19.136022 9.048284 -16.859339 27.060970 -0.441685 2.243385 0.060524 -0.029001 -71570.700000 0 0 1
-17.735822 9.214884 -16.717839 26.056854 -0.479176 2.267367 0.049452 -0.025921 -80340.400000 0 0 1
-17.157722 9.648584 -18.128339 26.760405 -0.512273 2.315061 0.041524 -0.013029 -345696.000000 0 0 1
-17.045722 8.632084 -19.119439 27.030029 -0.468761 2.356525 0.059836 -0.023473 408977.000000 0 0 1
-15.980922 7.701384 -18.920939 25.936521 -0.449072 2.388401 0.046742 -0.022628 -418988.000000 0 0 1
-15.647222 7.002084 -20.239739 26.523797 -0.420770 2.438859 0.027065 -0.025629 -257107.000000 0 0 1
-16.522822 6.133884 -20.928939 27.361445 -0.355468 2.441692 0.028038 -0.020269 -435550.000000 0 0 1
-17.547922 6.805384 -21.628839 28.671406 -0.369960 2.425490 0.036346 -0.018915 -649530.000000 0 0 1
-18.513522 5.839484 -22.266139 29.540329 -0.305540 2.424552 0.031826 -0.015310 -508268.000000 0 0 1
-19.343922 5.211584 -21.291539 29.234869 -0.263168 2.386623 0.044488 -0.015695 266937.000000 0 0 1
-19.959322 4.037284 -21.776239 29.814070 -0.199583 2.389706 0.030832 -0.001204 -548095.000000 0 0 1
-20.924722 3.381084 -20.824339 29.714118 -0.160199 2.347347 0.037116 -0.008963 -554240.000000 0 0 1
-21.424622 2.123984 -21.245139 30.247011 -0.098815 2.349543 0.048414 -0.004356 312505.000000 0 0 1
-22.339222 1.682184 -20.252139 30.199664 -0.075160 2.305825 0.052320 -0.009496 -357873.000000 0 0 1
-23.089822 0.408184 -20.634739 30.969323 -0.017676 2.300027 0.045911 -0.000281 -712235.000000 0 0 1
-22.331322 -0.754316 -20.574439 30.373747 0.033766 2.314986 0.047244 -0.007423 -378289.000000 0 0 1
-22.978622 -1.965116 -20.897539 31.122113 0.085312 2.306986 0.044932 -0.010457 -668711.000000 0 0 1
-23.464222 -2.119316 -22.348539 32.473350 0.090077 2.329818 0.055300 -0.016800 -121474.000000 0 0 1
-22.487822 -2.240816 -23.363239 32.504836 0.099318 2.372816 0.035033 -0.014242 -527862.000000 0 0 1
-21.620822 -3.305916 -23.229839 31.906339 0.151729 2.386289 0.031598 -0.021960 -798635.000000 0 0 1
-20.545622 -3.275716 -24.334439 32.015900 0.158106 2.434223 0.018049 -0.009403 -371860.000000 0 0 1
-21.022022 -3.631416 -25.592589 33.318062 0.171055 2.446711 0.016983 -0.010118 13578.700000 0 0 1
-20.131422 -3.324916 -26.652369 33.566025 0.163683 2.488204 0.014162 -0.018966 -470949.000000 0 0 1
-20.839822 -3.320916 -28.034779 35.089536 0.158026 2.496343 0.005976 -0.017669 -88009.500000 0 0 1
-21.242122 -4.653016 -28.359369 35.736986 0.215641 2.487430 0.015369 -0.010758 166481.000000 0 0 1
-21.703522 -4.721116 -29.690139 37.078783 0.214191 2.499311 -0.012749 -0.008858 -975064.000000 0 0 1
-21.462722 -6.136216 -30.302309 37.636838 0.278472 2.506680 -0.002067 -0.008159 492251.000000 0 0 1
-20.168322 -6.071516 -30.932819 37.422772 0.292413 2.543796 -0.007757 -0.006604 472580.000000 0 0 1
-19.690822 -7.333816 -31.198619 37.614720 0.356532 2.548875 -0.013489 -0.006215 1079520.000000 0 0 1
-18.218022 -7.200516 -31.826959 37.372438 0.376397 2.589857 0.007328 -0.008658 939535.000000 0 0 1
-18.097622 -6.620816 -33.161669 38.354341 0.350715 2.615176 0.002954 -0.011548 301913.000000 0 0 1
-18.438822 -7.557416 -34.178407 39.563471 0.388981 2.613735 0.001798 -0.014931 -734510.000000 0 0 1
-18.399222 -6.931516 33.439806 38.791725 0.360285 0.531526 0.003964 -0.022087 -491276.000000 0 0 1
-17.177322 -6.869116 32.767847 37.629469 0.380415 0.513963 0.009880 -0.016644 -111501.000000 0 0 1
-16.326422 -5.826016 33.277312 37.521647 0.342761 0.480242 0.000405 -0.015491 -155314.000000 0 0 1
-15.102722 -5.619916 32.363337 36.153302 0.356237 0.461985 0.003177 -0.014129 -171586.000000 0 0 1
-15.475922 -5.418216 31.025437 35.091864 0.336769 0.486188 0.007256 -0.009815 692527.000000 0 0 1
-14.310322 -5.025716 30.299397 33.883574 0.337739 0.464109 0.013136 -0.005630 471766.000000 0 0 1
-14.601222 -5.195716 28.804907 32.709537 0.341869 0.493612 0.019808 -0.002615 292364.000000 0 0 1
-15.663822 -4.338416 28.414117 32.734373 0.270197 0.519594 0.010852 -0.006913 153863.000000 0 0 1
-16.226322 -4.497716 27.125937 31.927095 0.270398 0.555530 0.029053 -0.004773 -362364.000000 0 0 1
-15.331722 -4.036116 25.972447 30.428932 0.257412 0.548046 0.026318 -0.003552 -151920.000000 0 0 1
-15.343722 -2.633216 25.688477 30.037667 0.169960 0.544843 0.025882 0.002427 99347.500000 0 0 1
-14.312722 -2.406716 24.740787 28.683668 0.166594 0.530530 0.002994 0.012198 67343.100000 0 0 1
-13.962222 -0.917416 24.543917 28.252241 0.065613 0.518139 0.008073 -0.000500 -48794.900000 0 0 1
-14.850422 -0.079516 23.813277 28.064453 0.005354 0.557612 0.013765 -0.000734 -238160.000000 0 0 1
-14.888122 1.284184 24.286997 28.516022 -0.086043 0.551582 0.001595 0.003718 291338.000000 0 0 1
-15.819722 2.274284 23.499877 28.419715 -0.142784 0.597248 0.007326 0.001991 127491.000000 0 0 1
-15.142722 2.810984 22.392377 27.177605 -0.183543 0.602489 0.002520 0.008694 -203098.000000 0 0 1
-15.853222 3.788684 21.708277 27.146419 -0.234585 0.644045 -0.003098 0.015514 -449179.000000 0 0 1
-15.105522 4.544884 20.586677 25.935382 -0.292260 0.653817 0.004024 0.010812 106460.000000 0 0 1
-14.296922 5.590384 21.126877 26.115116 -0.372741 0.628364 0.017191 0.006769 312483.000000 0 0 1
-13.262622 5.948684 20.213177 24.896917 -0.421631 0.623440 0.027452 0.011573 405801.000000 0 1 0
-12.260822 6.941284 20.899677 25.205270 -0.515147 0.593159 0.025927 0.006402 345925.000000 0 0 1
-12.711522 8.276084 20.785777 25.731787 -0.577127 0.630410 0.024897 0.002463 146900.000000 0 0 1
-11.626822 9.162384 20.900877 25.612085 -0.667405 0.616244 0.032373 -0.000214 -19975.600000 0 0 1
-12.040222 10.648784 20.848077 26.325004 -0.724148 0.656801 0.028802 0.001675 -149170.000000 0 0 1
-12.373922 11.077084 19.547777 25.650172 -0.730155 0.704259 0.032346 -0.001863 176792.000000 0 0 1
-12.985222 12.341784 19.638277 26.581902 -0.759998 0.739532 0.021900 -0.001411 -622983.000000 0 0 1
-13.169122 13.044884 18.302577 26.049550 -0.780659 0.791743 0.014390 -0.004694 -381020.000000 0 0 1
-12.041822 13.517684 17.595877 25.245755 -0.843076 0.799614 0.016526 -0.006753 -16063.300000 0 0 1
-11.684422 14.853984 17.900477 26.030628 -0.904268 0.812522 0.014005 -0.007436 -366232.000000 0 0 1
-12.619422 16.030884 17.437277 26.838362 -0.903913 0.863587 0.013168 -0.002530 82949.300000 0 0 1
-12.692322 16.391684 16.073177 26.232220 -0.911915 0.911290 0.007278 -0.010960 109242.000000 0 0 1
-13.520322 15.577984 15.260977 25.658724 -0.855995 0.933820 0.016447 -0.011053 -230858.000000 0 0 1
-13.803422 16.047184 13.839677 25.289982 -0.860423 0.991734 0.010418 -0.014827 136290.000000 0 0 1
-14.663922 17.193584 13.878977 26.519350 -0.864637 1.020015 0.008184 -0.016195 215151.000000 0 0 1
-15.103822 17.622184 12.571977 26.395481 -0.862200 1.074363 -0.005997 -0.013439 834489.000000 0 0 1
-16.272522 18.698584 12.702077 27.852733 -0.854661 1.097251 0.009957 -0.011515 246887.000000 0 0 1
-17.508422 18.120984 12.968777 28.339091 -0.802589 1.095470 0.027345 -0.019582 -103101.000000 0 0 1
-18.494722 19.008884 13.546377 29.780811 -0.799107 1.098571 0.044224 -0.022653 475764.000000 0 0 1
-19.836022 18.327984 13.784777 30.321656 -0.745904 1.098853 0.051787 -0.020576 65777.500000 0 0 1
-20.581022 17.866884 12.635877 30.041128 -0.714922 1.136669 0.052354 -0.023944 -365799.000000 0 0 1
-21.784922 17.310284 13.034477 30.726639 -0.671439 1.132710 0.067077 -0.024953 -511346.000000 0 0 1
-22.506522 16.525284 11.898877 30.351471 -0.633341 1.167952 0.059074 -0.026094 377233.000000 0 0 1
-21.777222 15.399984 11.423777 29.015678 -0.615515 1.166132 0.061227 -0.018788 730703.000000 0 0 1
-22.569422 14.932084 10.322777 28.963868 -0.584491 1.206382 0.051524 -0.014828 502371.000000 0 0 1
-22.000222 13.578084 9.688677 27.608777 -0.552956 1.212235 0.060471 -0.002072 -164776.000000 0 0 1
-22.353722 12.358284 10.368077 27.566521 -0.505030 1.185201 0.057107 -0.004596 81938.500000 0 0 1
-23.713222 11.989884 10.461377 28.557216 -0.468134 1.195734 0.045646 -0.005360 135534.000000 0 0 1
-24.400922 11.526384 9.144277 28.493514 -0.441304 1.244090 0.041239 0.003322 -232131.000000 0 0 1
-24.667122 12.650284 8.268877 28.928721 -0.473867 1.280917 0.046343 0.009145 -587144.000000 0 0 1
-25.763572 12.367184 7.490777 29.543538 -0.447541 1.314447 0.026679 0.014929 -1331450.000000 0 0 1
-26.235202 13.585184 6.639277 30.280737 -0.477804 1.349743 0.010195 0.018416 -880955.000000 0 0 1
-25.552922 13.970584 5.417077 29.622183 -0.500330 1.386889 0.001296 0.028303 1032700.000000 0 0 1
-24.168722 14.258284 5.670677 28.628349 -0.532995 1.371399 0.010165 0.023043 58652.000000 0 0 1
-23.759222 15.664884 6.157377 29.117048 -0.582898 1.357718 0.019938 0.006301 -650866.000000 0 0 1
-22.373622 15.867684 6.302577 28.144002 -0.616883 1.344941 0.013996 -0.007019 243225.000000 0 0 1
-22.161222 17.152384 6.890177 28.858250 -0.658674 1.329708 0.017111 -0.012001 -444113.000000 0 0 1
-20.680622 17.523384 6.856977 27.960244 -0.702944 1.323029 0.021920 -0.018016 -569600.000000 0 0 1
-20.326822 18.215984 5.706777 27.884925 -0.730687 1.364686 0.015983 -0.010764 260775.000000 0 0 1
-18.919722 18.357684 5.602277 26.950806 -0.770322 1.361399 0.008502 -0.018214 33594.500000 0 0 1
-18.523822 19.384184 4.501677 27.187197 -0.808090 1.404449 0.018955 -0.014365 857284.000000 0 0 1
-17.086922 19.531584 4.434177 26.326937 -0.852060 1.401562 0.009993 -0.020087 1122210.000000 0 0 1
-16.615522 20.702284 3.757777 26.810092 -0.894476 1.430171 0.016874 -0.005771 150326.000000 0 0 1
-16.921822 22.148384 4.252077 28.195374 -0.918382 1.419411 0.022514 -0.010626 -157242.000000 0 0 1
-16.064322 22.454784 5.329577 28.119106 -0.949804 1.380107 0.007723 -0.009619 158281.000000 0 0 1
-16.372822 23.680984 5.927677 29.393803 -0.965872 1.367740 0.009775 -0.007260 83608.700000 0 0 1
-15.515122 23.943984 7.196977 29.424987 -0.995845 1.323702 0.004543 0.003211 -223846.000000 0 0 1
-16.033422 23.334884 8.336777 29.514221 -0.968780 1.284432 0.008155 -0.004915 -119297.000000 0 0 1
-15.167522 23.240184 9.432977 29.311106 -0.992566 1.243142 0.006771 0.000803 -148679.000000 0 0 1
-15.906022 22.520984 10.589577 29.535324 -0.955871 1.204094 -0.003766 -0.005826 -414179.000000 0 0 1
-16.997422 23.240984 11.044077 30.838731 -0.939335 1.204539 -0.000796 -0.001754 -1178480.000000 0 0 1
-17.877622 22.382084 11.705677 30.944950 -0.896820 1.182865 0.007745 -0.009084 192228.000000 0 0 1
-19.181222 23.115084 12.162577 32.406090 -0.878139 1.186057 0.025264 -0.013616 155224.000000 0 0 1
-20.046822 23.615284 11.193477 32.937071 -0.866946 1.224045 0.042184 -0.018845 -114037.000000 0 0 1
-19.595922 24.797084 10.549977 33.319627 -0.902028 1.248622 0.013762 -0.011837 -292936.000000 0 0 1
-20.743022 25.534384 9.791477 34.324200 -0.888566 1.281514 0.023551 -0.002666 397861.000000 0 0 1
-21.568222 26.158884 10.773077 35.574353 -0.881289 1.263133 0.030858 -0.011733 -17522.400000 0 0 1
-22.521322 27.012484 10.192577 36.616565 -0.875820 1.288710 0.025725 -0.012516 174957.000000 0 0 1
-23.540222 27.646184 11.210977 38.001836 -0.865443 1.271329 0.018881 -0.017894 -347683.000000 0 0 1
-22.992922 28.576384 12.081477 38.616658 -0.893249 1.252597 0.020808 -0.016824 -70991.100000 0 0 1
-23.895622 29.236684 12.929677 39.911915 -0.885585 1.240889 0.016155 -0.026296 -280700.000000 0 0 1
8.508378 -32.847130 28.087447 44.048055 -1.317337 0.879347 -0.021299 -0.008648 -564401.000000 0 0 1
9.883478 -33.041230 27.964047 44.400382 -1.280142 0.889481 -0.011082 -0.009201 -297934.000000 0 0 1
10.276078 -32.678130 26.617047 43.381161 -1.266124 0.910232 -0.002044 -0.007956 757884.000000 0 0 1
11.811978 -32.932430 26.382357 43.818906 -1.226416 0.924696 -0.015357 0.003499 709682.000000 0 0 1
12.054078 -34.344930 26.280977 44.895042 -1.233257 0.945439 0.005018 -0.006715 282469.000000 0 0 1
13.455478 34.520884 26.234747 45.398273 1.199133 0.954668 0.026011 -0.003053 223537.000000 0 0 1
13.996578 33.127884 25.864617 44.298299 1.171044 0.947304 0.053087 -0.003585 84197.100000 0 0 1
13.847878 32.773384 24.480147 43.187220 1.171016 0.968134 0.042994 -0.011594 -146853.000000 0 0 1
14.694978 31.724884 24.179297 42.509399 1.137019 0.965752 0.060146 -0.017976 -590180.000000 0 0 1
14.857278 31.291484 22.699077 41.414294 1.127509 0.990708 0.061945 -0.019107 -44321.300000 0 0 1
13.874278 30.384884 22.214077 40.114859 1.142453 0.983921 0.047299 -0.008215 -79290.000000 0 0 1
13.996578 28.955784 22.501177 39.251045 1.120535 0.960314 0.049215 -0.007339 -185614.000000 0 0 1
13.679078 28.399884 23.905777 39.562062 1.121928 0.921959 0.057503 -0.021620 41610.900000 0 0 1
14.580878 28.770784 24.960307 40.784518 1.101728 0.912204 0.064832 -0.021831 427989.000000 0 0 1
14.021578 28.550784 26.268517 41.252719 1.114286 0.880494 0.054538 -0.021245 -43707.000000 0 0 1
15.008778 28.900484 27.414177 42.568045 1.091808 0.871070 0.058788 -0.026977 223093.000000 0 0 1
15.253578 30.284384 27.603667 43.723883 1.104211 0.887545 0.063965 -0.020680 -375702.000000 0 0 1
16.139878 30.432584 28.651387 44.805577 1.083166 0.877000 0.066715 -0.019082 -424835.000000 0 0 1
16.190878 31.774884 29.510417 46.288794 1.099538 0.879511 0.058721 -0.021241 -412895.000000 0 0 1
16.725678 32.855784 28.759597 46.758584 1.099924 0.908327 0.063791 -0.016554 -59342.300000 0 0 1
16.148278 34.115184 29.023697 47.612893 1.128699 0.915270 0.075775 -0.002759 -125294.000000 0 0 1
16.787878 -33.757730 28.279367 47.128970 -1.109307 0.927243 0.064975 -0.010300 -407914.000000 0 0 1
16.866978 -33.932430 26.833807 46.432294 -1.109491 0.954628 0.068358 -0.008780 91506.900000 0 0 1
17.206078 -32.794730 26.062817 45.285912 -1.087616 0.957560 0.067615 -0.005665 631264.000000 0 0 1
18.650978 -32.170730 26.213787 45.497005 -1.045400 0.956767 0.055734 -0.001946 516608.000000 0 0 1
18.873678 -31.320230 27.300047 45.634034 -1.028465 0.929495 0.039881 -0.001035 -17824.100000 0 0 1
19.999178 -30.487430 27.109557 45.435433 -0.990228 0.931462 0.047063 0.001707 -79506.100000 0 0 1
20.329578 -29.593630 28.257457 45.689808 -0.968877 0.904011 0.060627 -0.008099 -535277.000000 0 0 1
19.287278 -28.722830 28.584267 44.878284 -0.979457 0.880289 0.053029 -0.012316 -401716.000000 0 0 1
19.562678 -27.900430 29.642927 45.164538 -0.959292 0.854850 0.059155 -0.006962 -558546.000000 0 0 1
18.315078 -27.335130 30.315757 44.740323 -0.980476 0.826311 0.036454 -0.006598 162158.000000 0 0 1
17.544578 -26.436530 29.480067 43.310237 -0.984886 0.822117 0.054395 -0.004324 559412.000000 0 0 1
16.244178 -26.248930 30.013197 43.054287 -1.016631 0.799450 0.038781 -0.002980 -231862.000000 0 0 1
15.271378 -25.613230 29.039147 41.623606 -1.033153 0.798670 0.021727 0.012167 -1215620.000000 0 0 1
14.954378 -26.467530 27.951157 41.296861 -1.056503 0.827342 0.016932 0.011013 824902.000000 0 0 1
14.214378 -25.815030 26.839557 39.860082 -1.067474 0.832073 0.023402 -0.007083 900353.000000 0 0 1
12.773678 -25.234930 27.206707 39.245043 -1.102209 0.804805 -0.005799 0.009934 1130400.000000 0 0 1
11.737378 -26.209730 27.395657 39.689268 -1.149752 0.808957 -0.011222 0.015213 643951.000000 0 0 1
11.392578 -26.948130 26.216457 39.284795 -1.170825 0.840160 -0.007758 0.014463 -1189020.000000 0 0 1
10.614978 -28.227430 26.457797 40.118332 -1.211104 0.850651 -0.004099 0.020676 481429.000000 0 0 1
9.211778 -27.928030 26.559727 39.626390 -1.252193 0.836246 -0.030958 0.014490 504271.000000 0 0 1
8.514878 -29.120030 26.804817 40.484287 -1.286321 0.847173 -0.030332 0.005070 -898325.000000 0 0 1
7.000978 -29.044230 26.910757 40.209076 -1.334263 0.837570 -0.020351 0.007158 -189254.000000 0 0 1
6.179778 -28.796730 25.731717 39.109622 -1.359403 0.852719 -0.001062 0.003398 440350.000000 0 0 1
6.346978 -27.579830 25.055677 37.798387 -1.344603 0.846142 0.004759 0.007201 -270301.000000 0 0 1
5.169678 -27.149530 24.101237 36.670045 -1.382634 0.853638 0.020107 0.006145 -42781.000000 0 0 1
4.876578 -27.962030 22.923377 36.484755 -1.398133 0.891430 0.011227 0.002210 -200148.000000 0 0 1
4.169878 -29.152230 23.153277 37.460841 -1.428722 0.904516 0.010280 0.004102 478859.000000 0 0 1
2.722678 -29.117830 23.786677 37.697042 -1.477562 0.887960 -0.001743 -0.006803 459745.000000 0 0 1
1.720578 -28.775630 22.803577 36.755957 -1.511075 0.901537 -0.005622 0.001171 1350150.000000 0 0 1
0.448178 -28.408130 23.378177 36.793503 -1.555021 0.882285 -0.013449 -0.001576 854213.000000 0 0 1
0.368078 -26.964730 23.975677 36.084141 -1.557147 0.844055 0.000411 -0.004785 -646218.000000 0 0 1
1.303078 -26.675130 24.978247 36.567381 -1.521985 0.818832 0.001725 -0.009080 -194227.000000 0 0 1
1.257278 -25.305030 25.383797 35.864501 -1.521152 0.784461 0.005522 -0.006933 -678374.000000 0 0 1
2.504078 -24.790830 26.097197 36.082119 -1.470130 0.762267 0.011839 -0.002623 -209736.000000 0 0 1
3.664078 -24.701930 25.269087 35.526575 -1.423538 0.779489 0.012513 0.000878 890776.000000 0 0 1
4.673578 -23.743230 25.675807 35.282153 -1.376443 0.755793 0.015313 -0.002245 712417.000000 0 0 1
4.227078 -22.241030 25.903847 34.402629 -1.382979 0.718246 0.021891 -0.001308 -453132.000000 0 0 1
3.969878 -21.449530 24.750547 32.991390 -1.387787 0.722413 0.029268 -0.004014 259786.000000 0 0 1
3.441078 -20.164730 25.095327 32.376423 -1.401776 0.683905 0.026207 -0.002763 36911.600000 0 0 1
3.470478 -19.098430 24.005247 30.871445 -1.391042 0.679977 0.027383 -0.004288 -71500.100000 0 0 1
4.788178 -18.708630 23.682777 30.558361 -1.320240 0.684079 0.030257 -0.000499 -206474.000000 0 0 1
4.938278 -17.918530 22.547577 29.220772 -1.301876 0.689399 0.026777 -0.004139 832610.000000 0 0 1
6.426078 -17.480130 22.276277 29.035873 -1.218510 0.696334 0.030561 -0.004312 949368.000000 0 0 1
7.194978 -18.627930 21.888077 29.628624 -1.202202 0.739586 0.029951 -0.002310 165266.000000 0 0 1
8.523978 -18.388430 21.463277 29.520583 -1.136731 0.756764 0.019828 -0.002566 1365740.000000 0 0 1
9.670178 -18.265630 22.587877 30.616299 -1.083891 0.741031 0.005417 0.005677 705761.000000 0 0 1
9.521878 -17.280230 23.567377 30.735871 -1.067165 0.697001 -0.004984 0.019010 2070.030000 0 0 1
10.498678 -17.419630 24.593177 31.913792 -1.028400 0.690994 -0.015374 0.028963 154075.000000 0 0 1
10.380078 -16.465530 25.837237 32.348454 -1.008314 0.645638 -0.016640 0.018877 -163384.000000 0 0 1
10.559278 -15.086630 25.458807 31.420624 -0.960131 0.626204 -0.006405 0.016902 140565.000000 0 0 1
10.692978 -14.349230 26.652177 32.102628 -0.930377 0.591298 -0.016504 0.012129 -235298.000000 0 0 1
11.039778 -12.842730 26.497877 31.447574 -0.860748 0.568694 -0.005948 0.012150 -284702.000000 0 0 1
10.095278 -12.027930 25.828597 30.227506 -0.872536 0.546260 -0.006439 0.008526 197935.000000 0 0 1
10.441378 -10.656530 25.866307 29.860506 -0.795596 0.523173 0.000123 0.010020 239601.000000 0 0 1
9.312978 -9.834130 25.133987 28.550989 -0.812610 0.494261 -0.009926 0.014636 168776.000000 0 0 1
8.099678 -9.851430 25.846617 28.821920 -0.882675 0.458382 -0.024059 0.015116 101017.000000 0 0 1
7.117778 -9.201230 24.998487 27.572626 -0.912381 0.435542 -0.020308 0.012984 264607.000000 0 0 1
5.658878 -9.292630 25.445567 27.674044 -1.023812 0.404056 -0.016136 0.008646 -1063640.000000 0 0 1
5.302478 -8.320730 26.422017 28.204145 -1.003429 0.357389 -0.014359 0.012202 -246350.000000 0 0 1
3.984078 -8.303530 26.893007 28.426313 -1.123435 0.329945 -0.013559 0.012739 275013.000000 0 0 1
2.791478 -8.206230 25.908947 27.320470 -1.242909 0.322851 -0.001666 0.009305 -575099.000000 0 0 1
2.838478 -6.998230 25.255077 26.360028 -1.185472 0.290564 -0.003782 0.012453 423581.000000 0 0 1
1.822478 -6.821830 24.244527 25.251849 -1.309739 0.283405 0.007536 0.000871 523406.000000 0 0 1
2.017578 -5.464330 23.546177 24.255967 -1.217097 0.242513 0.004178 0.000763 -222428.000000 0 1 0
1.707378 -4.311030 24.294137 24.732675 -1.193701 0.188594 0.007061 0.008462 -95849.900000 0 1 0
2.111178 -3.221530 23.490077 23.803761 -0.990681 0.162524 0.003718 0.004402 -710886.000000 0 1 0
1.088678 -2.664530 22.462377 22.646044 -1.182914 0.127447 0.002718 -0.001679 1103880.000000 0 1 0
-0.085822 -1.946530 22.913977 22.996666 1.526735 0.084828 0.002730 -0.003141 1226540.000000 0 1 0
-0.997322 -2.706530 23.729677 23.904341 1.217748 0.120960 0.007726 -0.000247 -303404.000000 0 1 0
-2.046522 -1.756530 24.343057 24.492000 0.709293 0.110340 0.013526 -0.007460 -17793.500000 0 1 0
-1.431322 -0.914530 25.313357 25.370279 0.568561 0.067000 0.011162 -0.005960 233777.000000 0 0 1
-2.047222 0.344470 25.478137 25.562575 -0.166701 0.081302 0.015342 -0.010319 -308217.000000 0 0 1
-1.525822 1.188470 26.679077 26.749088 -0.661745 0.072367 0.014628 -0.007269 -465435.000000 0 0 1
-1.838622 0.742470 27.980567 28.050738 -0.383794 0.070748 0.026662 -0.002852 94552.800000 0 0 1
-1.203022 -0.497530 28.427857 28.457650 0.392147 0.045763 0.023802 -0.006225 -178174.000000 0 0 1
0.105778 -0.197530 29.262267 29.263124 -1.079152 0.007657 0.024074 -0.004109 820091.000000 0 0 1
1.132778 0.366470 28.434067 28.458982 0.312888 0.041847 0.008210 0.002663 606071.000000 0 0 1
1.878878 -0.575530 27.618827 27.688644 -0.297241 0.071029 0.008516 0.002013 -187986.000000 0 0 1
3.053578 -1.333530 28.249007 28.444842 -0.411748 0.117411 0.008654 -0.004117 -349304.000000 0 0 1
2.631078 -2.413530 29.101397 29.319601 -0.742300 0.122078 0.004660 0.000270 295130.000000 0 0 1
3.723678 -3.173530 29.610557 30.012033 -0.705803 0.163751 -0.003712 0.014322 131912.000000 0 0 1
4.223278 -4.299630 28.757317 29.382072 -0.794356 0.206586 -0.001237 0.013199 7771.410000 0 0 1
4.977978 -3.856530 27.610177 28.319162 -0.659134 0.224235 -0.001101 0.008680 216404.000000 0 0 1
5.335678 -4.819830 26.610897 27.565196 -0.734647 0.263899 -0.002754 0.010149 -1048850.000000 0 0 1
6.153478 -4.260730 25.399947 26.479736 -0.605614 0.286559 -0.002858 0.014640 -388082.000000 0 0 1
7.462778 -3.932530 25.741977 27.088876 -0.484976 0.316667 -0.003883 0.016166 -703425.000000 0 0 1
8.302578 -5.050830 25.918307 27.680360 -0.546533 0.358732 -0.000044 0.014120 -970877.000000 0 0 1
9.208278 -5.434130 24.725577 26.938380 -0.533134 0.408150 -0.005810 0.014503 -715870.000000 0 0 1
8.521578 -6.094730 23.690177 25.903426 -0.620862 0.416383 -0.004563 0.006774 -319956.000000 0 0 1
9.103278 -6.238830 22.408277 24.978461 -0.600818 0.457626 0.006794 0.000082 -265130.000000 0 1 0
9.330578 -4.881230 21.639077 24.065239 -0.481990 0.452895 0.014373 -0.003117 480176.000000 0 1 0
8.098878 -4.269330 21.263777 23.150965 -0.485132 0.406568 0.011416 -0.007812 29727.200000 0 1 0
8.277778 -3.023530 20.554477 22.364030 -0.350203 0.405041 0.015339 -0.002839 -338133.000000 0 1 0
6.983478 -2.288530 20.215777 21.510090 -0.316678 0.348671 0.014458 -0.002279 -187499.000000 0 1 0
6.395378 -1.730530 21.384077 22.386923 -0.264262 0.300448 0.010077 0.007554 -182379.000000 0 1 0
5.256878 -0.968530 21.096177 21.762846 -0.182197 0.248158 0.003525 0.005090 -392419.000000 0 1 0
4.621678 -0.423530 22.358377 22.834980 -0.091385 0.204669 0.001112 0.006081 -593768.000000 0 1 0
3.394078 0.231470 22.308377 22.566280 0.068093 0.151331 0.003003 0.007160 -464766.000000 0 1 0
2.932078 0.509470 23.609677 23.796501 0.172040 0.125389 0.010962 0.005652 903648.000000 0 1 0
1.420578 0.962470 23.600177 23.662475 0.595479 0.072580 0.008819 0.001674 809205.000000 0 1 0
1.277978 2.312470 23.167277 23.317449 1.065924 0.113554 0.013108 0.002930 1004880.000000 0 1 0
-0.097322 2.557470 22.816177 22.959269 -1.532761 0.111704 0.001533 -0.009241 907847.000000 0 1 0
-0.465922 4.040470 22.403877 22.770072 -1.455990 0.179586 0.005738 -0.006787 -163715.000000 0 1 0
-0.553022 4.934470 23.480777 24.000035 -1.459189 0.208395 0.002065 0.000122 424636.000000 0 1 0
-1.455922 6.018470 23.177477 23.990355 -1.333447 0.261062 0.006238 -0.004626 54713.400000 0 1 0
-1.454822 7.268470 24.134967 25.247649 -1.373252 0.297988 0.011524 0.002404 253052.000000 0 0 1
-0.323022 8.127470 23.981877 25.323714 -1.531073 0.326993 0.001451 0.005707 168340.000000 0 0 1
-0.506222 9.418470 24.392247 26.152352 -1.517100 0.368974 0.014444 -0.000229 -453986.000000 0 0 1
0.379978 10.445470 23.646477 25.853589 1.534435 0.416204 0.014606 -0.005892 1429820.000000 0 0 1
1.812978 10.442470 23.818277 26.069951 1.398894 0.418672 0.009463 -0.001022 795293.000000 0 0 1
2.301678 10.877470 25.109717 27.461153 1.362272 0.416842 0.019962 -0.000740 118203.000000 0 0 1
3.687778 11.608470 25.036097 27.841739 1.263199 0.452793 0.015225 -0.005768 608469.000000 0 0 1
4.791578 10.906470 24.499667 27.242319 1.156848 0.452576 0.009126 -0.004474 10341.100000 0 0 1
4.745678 10.448470 23.177177 25.862589 1.144457 0.459744 0.006451 -0.007117 -606346.000000 0 0 1
6.128378 9.974470 22.633477 25.481784 1.019851 0.477336 0.012508 -0.003041 471226.000000 0 0 1
6.954778 10.960470 22.078777 25.611974 1.005371 0.531498 0.010850 -0.007049 -562614.000000 0 0 1
8.141878 10.418470 21.584577 25.312618 0.907447 0.549626 0.015856 -0.010381 32036.200000 0 0 1
9.051778 11.558470 20.994277 25.618208 0.906427 0.610248 0.025566 -0.011968 46375.100000 0 0 1
8.431878 12.191470 19.804577 24.737618 0.965716 0.642525 0.017173 -0.013382 545108.000000 0 1 0
9.152178 13.242470 19.169977 25.032247 0.966053 0.698494 0.024852 -0.014326 1534320.000000 0 0 1
10.628678 12.909470 18.628177 25.032622 0.881994 0.731526 0.026794 -0.010921 1818540.000000 0 0 1
11.619178 12.873470 19.665577 26.219581 0.836564 0.722683 0.028260 -0.010649 -471377.000000 0 0 1
12.842478 12.460470 19.157977 26.214893 0.770302 0.751296 0.027935 -0.012160 -419250.000000 0 0 1
13.916978 12.288470 20.269277 27.486949 0.723334 0.741562 0.037103 -0.007787 144280.000000 0 0 1
14.385478 13.508470 20.805177 28.675357 0.753968 0.758975 0.031178 -0.006396 -332847.000000 0 0 1
15.513978 13.319470 21.614077 29.753321 0.709435 0.757665 0.031403 -0.007065 279830.000000 0 0 1
16.272378 14.679470 21.938677 31.009396 0.733979 0.784863 0.030537 -0.002890 28594.100000 0 0 1
15.583278 15.490470 22.833477 31.688497 0.782411 0.766186 0.031065 -0.004397 -170863.000000 0 0 1
16.429678 16.501470 23.291077 32.934891 0.787578 0.785287 0.022140 0.001777 -228309.000000 0 0 1
-20.725222 12.711084 -25.367719 35.137269 -0.550152 2.377428 -0.005694 0.000907 64889.300000 0 0 1
-20.375122 12.578484 -26.709499 35.871454 -0.553076 2.410716 -0.003630 -0.009141 -84245.400000 0 0 1
-21.049722 13.582284 -27.412769 37.135282 -0.573027 2.401175 -0.011599 -0.001828 -114021.000000 0 0 1
-20.835722 13.407884 -28.908199 38.073385 -0.571795 2.432996 -0.008574 -0.002036 1337380.000000 0 0 1
-19.442722 13.556184 -29.306179 37.691401 -0.608869 2.461524 -0.017661 -0.002182 1103310.000000 0 0 1
-19.250722 14.128484 -30.561909 38.784464 -0.633130 2.478340 -0.005163 -0.006968 -1010780.000000 0 0 1
-17.879722 14.722584 -30.769259 38.512157 -0.688861 2.496342 -0.013286 -0.008867 -952106.000000 0 0 1
-16.925422 13.654884 -30.860929 37.753446 -0.678854 2.527737 -0.014971 -0.011572 -332170.000000 0 0 1
-15.647322 14.225184 -30.689719 37.270007 -0.737827 2.538249 -0.020118 -0.002003 -387173.000000 0 0 1
-14.978222 13.905384 -29.349389 35.764416 -0.748272 2.533311 -0.003654 0.007308 -851598.000000 0 0 1
-15.677022 14.357884 -28.226789 35.336518 -0.741506 2.496093 -0.017367 0.001678 -121989.000000 0 0 1
-16.392522 13.313784 -27.592019 34.746095 -0.682128 2.488329 0.001436 0.007435 272956.000000 0 0 1
-17.244322 13.810584 -26.359149 34.393366 -0.675276 2.444018 0.001360 -0.002407 5514.350000 0 0 1
-16.420422 14.280384 -25.312389 33.380783 -0.715804 2.431486 0.032421 0.001242 527901.000000 0 0 1
-17.215822 14.779284 -24.229739 33.194759 -0.709391 2.389011 0.011653 0.004063 -24313.800000 0 0 1
-16.352022 15.475884 -23.206839 32.333404 -0.757878 2.371341 0.021557 0.007681 -102972.000000 0 0 1
-15.757522 16.687184 -23.631939 32.942832 -0.814044 2.370805 0.000998 0.005012 -87284.100000 0 0 1
-15.230222 17.348984 -22.493739 32.232208 -0.850341 2.343209 -0.004312 0.011639 -275252.000000 0 0 1
-14.955222 18.868484 -22.750739 33.125134 -0.900582 2.327890 -0.009526 0.004646 778591.000000 0 0 1
-16.126222 19.711584 -22.852039 34.217207 -0.885110 2.302116 -0.022683 0.006507 984199.000000 0 0 1
-16.846822 19.544084 -24.079939 35.293485 -0.859382 2.321669 -0.028026 0.014660 147470.000000 0 0 1
-18.084922 20.457584 -24.163439 36.461609 -0.846880 2.295227 -0.030352 0.009420 -34164.000000 0 0 1
-17.629822 21.741684 -24.424339 37.149156 -0.889458 2.288248 -0.025366 0.003638 874158.000000 0 0 1
-18.757322 22.653884 -24.374639 38.198935 -0.879216 2.262821 -0.018870 -0.007569 825024.000000 0 0 1
-18.352522 24.139684 -24.630139 39.066394 -0.920759 2.252953 -0.012176 -0.013389 -207714.000000 0 0 1
-17.791322 24.672384 -23.487339 38.430623 -0.946047 2.228324 -0.010902 -0.006048 -608479.000000 0 0 1
-17.030322 25.813884 -23.801739 39.024496 -0.987608 2.226753 -0.009595 -0.002510 -338684.000000 0 0 1
-15.907422 25.918684 -22.725039 37.963820 -1.020333 2.212545 -0.005757 -0.010165 -427683.000000 0 0 1
-14.872822 24.956884 -22.717639 36.880049 -1.033367 2.234435 0.001083 -0.020969 -249508.000000 0 0 1
-15.134622 23.561084 -22.534339 35.944094 -0.999813 2.248399 -0.015501 0.001068 -1012490.000000 0 0 1
-13.917822 22.667484 -22.225439 34.662526 -1.020147 2.266851 0.002070 0.000157 69387.900000 0 0 1
-13.412122 22.932384 -20.933639 33.823017 -1.041587 2.238159 0.011377 -0.006399 251117.000000 0 0 1
-12.344522 22.042484 -20.574839 32.581933 -1.060283 2.254257 0.017857 -0.005153 28624.800000 0 0 1
-11.679422 22.362484 -19.243239 31.729983 -1.089486 2.222408 0.013642 -0.005688 -331202.000000 0 0 1
-12.194822 22.033184 -17.963939 30.933444 -1.065289 2.190420 0.018513 -0.002401 332341.000000 0 0 1
-13.428622 22.687384 -17.603939 31.700851 -1.036355 2.159537 0.007664 -0.010534 567509.000000 0 0 1
-13.909222 22.409284 -16.128839 30.915723 -1.015302 2.119643 0.012016 -0.004689 385821.000000 0 0 1
-13.105822 23.082584 -15.172139 30.573879 -1.054405 2.090065 0.021722 -0.007626 -243741.000000 0 0 1
-13.885922 23.405684 -14.062639 30.633359 -1.035339 2.047736 0.027036 -0.013607 -140019.000000 0 0 1
-13.083022 23.799184 -12.811239 30.028228 -1.068164 2.011571 0.040784 -0.009551 -97055.700000 0 0 1
-12.618822 25.123484 -12.759039 30.874216 -1.105333 1.996826 0.036381 -0.002774 801283.000000 0 0 1
-11.667422 25.475984 -11.727839 30.375923 -1.141328 1.967185 0.032523 -0.005485 581806.000000 0 0 1
-11.316822 27.030384 -11.705139 31.555069 -1.174299 1.950821 0.037501 0.003129 -30631.900000 0 0 1
-10.764522 27.380284 -12.938439 32.139665 -1.196210 1.985118 0.038416 -0.000920 -47562.900000 0 0 1
-10.771422 28.778084 -12.999339 33.364419 -1.212646 1.971012 0.026072 0.012469 -761010.000000 0 0 1
-10.253022 29.296984 -14.375339 34.206550 -1.234150 2.004518 0.042139 -0.001300 937687.000000 0 0 1
-8.848222 29.207684 -14.675139 33.863543 -1.276643 2.019015 0.032366 -0.001689 849728.000000 0 0 1
-8.182222 27.962584 -14.572139 32.576097 -1.286130 2.034570 0.031152 -0.003462 -288073.000000 0 0 1
-6.744322 28.032784 -15.135239 32.563758 -1.334696 2.054191 0.037706 -0.008782 182942.000000 0 0 1
-5.856122 28.860784 -14.445839 32.801239 -1.370605 2.026846 0.028837 -0.005844 -459440.000000 0 0 1
-4.573622 28.795384 -15.058139 32.815236 -1.413280 2.047527 0.035636 -0.010448 686692.000000 0 0 1
-3.503422 29.662684 -14.323639 33.125752 -1.453232 2.017951 0.020319 -0.006926 169938.000000 0 0 1
-3.596722 31.064184 -14.446939 34.447554 -1.455526 2.003569 0.011269 -0.005210 -397390.000000 0 0 1
-4.676922 31.590984 -13.724239 34.759439 -1.423818 1.976684 0.001990 -0.001522 -155894.000000 0 0 1
-4.864722 33.139584 -13.907339 36.267225 -1.425042 1.964345 0.007335 -0.008516 284554.000000 0 0 1
-3.894822 33.968684 -13.232039 36.662351 -1.456636 1.940047 -0.008995 -0.011079 322763.000000 0 0 1
-4.090622 -33.777430 -13.557039 36.625692 1.450278 1.949968 0.007032 -0.010930 86046.700000 0 0 1
-3.246922 -32.854830 -12.682139 35.366920 1.472290 1.937551 0.001647 -0.009446 -16512.800000 0 0 1
-3.614322 -32.873030 -11.298839 34.948007 1.461288 1.900016 -0.010355 -0.006581 -485951.000000 0 0 1
-2.630222 -32.265130 -10.546839 34.046916 1.489457 1.885751 -0.025392 -0.005902 -747099.000000 0 0 1
-2.842322 -32.361730 -8.968639 33.701586 1.483191 1.840161 -0.031336 -0.004882 -846273.000000 0 0 1
-1.995522 -31.502930 -8.307239 32.640878 1.507537 1.828131 -0.022436 -0.008642 -566439.000000 0 0 1
-2.242122 -31.550630 -6.939039 32.382397 1.499851 1.786755 -0.024417 -0.011740 125521.000000 0 0 1
-1.138922 -30.797830 -6.171039 31.430641 1.533833 1.768418 -0.006519 -0.009282 171118.000000 0 0 1
-1.390722 -30.972630 -4.811839 31.375018 1.525925 1.724769 -0.000731 -0.006712 -250482.000000 0 0 1
-0.373422 -30.417930 -4.035939 30.686784 1.558521 1.702699 0.001761 -0.005289 -406529.000000 0 0 1
-0.501322 -30.689830 -2.460239 30.792366 1.554463 1.650779 0.011231 0.000655 -403240.000000 0 0 1
-0.343622 -32.063530 -1.973039 32.126016 1.560080 1.632251 0.012046 -0.002487 875822.000000 0 0 1
0.875878 -32.732430 -2.380339 32.830552 -1.544044 1.643364 0.011996 -0.003028 1540250.000000 0 0 1
2.199578 -32.228030 -1.687039 32.347027 -1.502652 1.622974 0.020874 -0.002864 -272891.000000 0 0 1
2.277778 -32.466430 -0.306439 32.547677 -1.500753 1.580212 0.018465 -0.002973 -382572.000000 0 0 1
3.509278 -32.228330 0.307761 32.420287 -1.462336 1.561303 0.018554 -0.004581 -224065.000000 0 0 1
3.997378 -30.762030 0.407261 31.023336 -1.441575 1.557668 0.011085 -0.006312 -644381.000000 0 0 1
4.261078 -30.078230 -0.804739 30.389214 -1.430066 1.597281 0.010988 -0.009749 99737.900000 0 0 1
4.281578 -28.660330 -0.576839 28.984119 -1.422503 1.590700 0.019324 -0.003988 -319403.000000 0 0 1
3.736378 -27.971530 -1.849739 28.280533 -1.438005 1.636250 0.013787 -0.009088 117395.000000 0 0 1
2.356378 -28.224430 -2.067439 28.397980 -1.487502 1.643663 0.009398 -0.006036 248351.000000 0 0 1
1.716878 -27.375030 -3.034639 27.596177 -1.508161 1.680985 0.006096 -0.000111 43178.400000 0 0 1
2.211778 -27.240730 -4.510739 27.700110 -1.489780 1.734367 -0.001782 -0.001434 -267758.000000 0 0 1
1.942178 -28.389630 -5.301339 28.945593 -1.502491 1.754984 -0.005778 -0.006581 177709.000000 0 0 1
2.537278 -28.158130 -6.588739 29.029805 -1.480931 1.799756 0.007719 -0.006072 -45071.500000 0 0 1
1.940378 -29.056930 -7.686439 30.118958 -1.504117 1.828854 -0.001014 -0.002004 -741160.000000 0 0 1
0.687578 -28.628530 -8.091439 29.757972 -1.546784 1.846172 -0.012954 -0.000658 -1014620.000000 0 0 1
0.416878 -28.944930 -9.461339 30.454880 -1.556395 1.886691 -0.012019 0.004807 400791.000000 0 0 1
-1.037722 -28.472930 -9.758839 30.116766 1.534367 1.900786 -0.026663 0.004055 -42466.300000 0 0 1
-1.166122 -27.067330 -9.719139 28.783014 1.527741 1.915236 -0.024325 0.005341 -507665.000000 0 0 1
-2.428522 -26.458430 -9.761339 28.306006 1.479266 1.922876 -0.018203 -0.003020 486016.000000 0 0 1
-3.477922 -26.668030 -8.609939 28.238464 1.441113 1.880631 -0.010470 -0.004821 103245.000000 0 0 1
-3.040022 -26.198430 -7.327339 27.373151 1.455275 1.841784 -0.006673 -0.007070 -496980.000000 0 0 1
-1.982522 -26.961330 -6.828639 27.883221 1.497396 1.818214 -0.015314 -0.004594 -137581.000000 0 0 1
-1.591822 -26.723630 -5.328339 27.296108 1.511301 1.767263 -0.001114 -0.001561 -29390.700000 0 0 1
-2.537722 -27.178130 -4.391839 27.647406 1.477693 1.730324 0.006153 -0.003604 -195385.000000 0 0 1
-2.158722 -26.758330 -3.118439 27.025784 1.490296 1.686441 0.008544 -0.003804 -347266.000000 0 0 1
-3.219322 -26.989330 -2.037339 27.256902 1.452076 1.645612 0.000992 -0.006359 -519731.000000 0 0 1
-4.344322 -26.178730 -2.247939 26.631791 1.406346 1.655305 0.003069 -0.003674 -488016.000000 0 0 1
-5.137922 -26.340530 -1.065539 26.858093 1.378158 1.610480 0.011306 -0.005769 439382.000000 0 0 1
-6.320022 -25.324030 -0.973839 26.118912 1.326226 1.608090 0.017985 -0.001859 268131.000000 0 0 1
-5.874022 -24.000330 -0.890939 24.724760 1.330767 1.606838 0.006806 -0.000274 -468191.000000 0 1 0
-6.450422 -23.322330 0.171261 24.198520 1.300965 1.563719 0.019376 -0.000892 -59143.700000 0 1 0
-5.800222 -21.917130 0.459161 22.676287 1.312084 1.550546 0.002767 -0.002056 600202.000000 0 1 0
-4.738022 -21.921530 1.415961 22.472367 1.357935 1.507746 -0.000112 -0.003698 203311.000000 0 1 0
-4.182922 -20.613930 1.538761 21.090252 1.370597 1.497771 -0.008590 0.002716 -418031.000000 0 1 0
-3.254722 -20.497630 2.700061 20.929319 1.413326 1.441427 -0.007813 0.004834 -385858.000000 0 1 0
-3.917822 -20.513230 3.967861 21.257607 1.382079 1.383039 -0.007921 0.012495 -177788.000000 0 1 0
-2.994122 -20.211030 4.978061 21.029303 1.423723 1.331808 0.000488 0.002189 -186672.000000 0 1 0
-2.221122 -21.423130 5.474261 22.222768 1.467487 1.321899 -0.002104 -0.004571 -85291.600000 0 1 0
-1.476022 -22.089530 4.501561 22.591813 1.504076 1.370197 0.002912 -0.001252 -1043490.000000 0 1 0
-0.643622 -23.082530 4.943461 23.614725 1.542920 1.359898 0.006072 -0.009334 -1124780.000000 0 1 0
0.427878 -23.410230 3.830261 23.725363 -1.552521 1.408645 0.011206 -0.017681 625482.000000 0 1 0
1.472178 -22.425430 3.807961 22.794030 -1.505243 1.402950 0.010936 -0.024204 -778900.000000 0 1 0
2.461578 -22.837630 4.663261 23.438488 -1.463425 1.370502 0.025926 -0.022392 -2109820.000000 0 1 0
3.631678 -21.867330 4.680461 22.655594 -1.406221 1.362706 0.033682 -0.020107 -531824.000000 0 1 0
4.268178 -21.726030 3.442461 22.407326 -1.376812 1.416554 0.020619 -0.012765 663409.000000 0 1 0
5.578378 -21.117930 3.621261 22.140434 -1.312542 1.406499 0.027005 -0.004553 1650750.000000 0 1 0
6.271378 -20.821030 2.229261 21.858982 -1.278235 1.468635 0.025708 -0.000270 252471.000000 0 1 0
6.860378 -21.953730 1.655161 23.060152 -1.267918 1.498959 0.019272 0.004749 -256361.000000 0 1 0
6.595978 -21.871930 0.243461 22.846171 -1.277897 1.560140 0.018326 -0.006718 -239295.000000 0 1 0
7.534778 -22.728930 -0.586239 23.952470 -1.250691 1.595274 0.015504 -0.001375 -633847.000000 0 1 0
8.783078 -22.122630 -0.725939 23.813446 -1.192863 1.601285 0.010374 0.004535 -1046620.000000 0 1 0
9.644278 -23.009530 -1.405939 24.988542 -1.173897 1.627089 0.004423 0.003228 70053.100000 0 1 0
10.981478 -22.463830 -1.919539 25.077902 -1.116107 1.647414 0.001095 0.005745 -113864.000000 0 0 1
10.856578 -21.573030 -2.984539 24.334510 -1.104554 1.693752 0.002258 0.011504 118233.000000 0 1 0
12.170178 -21.313030 -3.487339 24.789514 -1.051958 1.711943 0.000371 0.006377 354026.000000 0 1 0
12.331578 -20.104330 -4.429439 23.997330 -1.020597 1.756441 -0.000101 -0.001819 -260990.000000 0 1 0
12.421078 -18.871130 -3.803839 22.910083 -0.988674 1.737602 0.011616 0.002497 202292.000000 0 1 0
12.502378 -17.879030 -4.821439 22.343130 -0.960556 1.788298 0.008818 -0.001458 -1206190.000000 0 1 0
12.746478 -16.511030 -4.213339 21.280015 -0.913365 1.770108 0.015484 0.003408 1190260.000000 0 1 0
14.031678 -16.204430 -3.572639 21.730975 -0.857134 1.735949 0.011220 0.000723 1898870.000000 0 1 0
15.128878 -16.337830 -4.480139 22.712976 -0.823799 1.769349 0.006925 0.004800 -249806.000000 0 1 0
16.524178 -15.883430 -3.977139 23.262619 -0.765629 1.742607 0.008216 0.008427 389336.000000 0 1 0
17.202478 -16.923430 -3.241339 24.348183 -0.777221 1.704317 0.011053 0.006946 -175018.000000 0 1 0
18.506278 -16.469530 -3.045339 24.960005 -0.727231 1.693110 0.002187 0.013631 -1096580.000000 0 1 0
19.317878 -17.380030 -2.173739 26.076254 -0.732642 1.654254 0.003441 0.010215 -1002010.000000 0 0 1
20.686378 -17.170230 -2.372039 26.988324 -0.692783 1.658801 0.005150 0.013614 -410936.000000 0 0 1
21.309978 -18.036030 -1.432239 27.954693 -0.702380 1.622053 0.001689 0.017978 474508.000000 0 0 1
22.869578 -18.068730 -1.435139 29.181436 -0.668661 1.619996 0.002325 0.009863 659146.000000 0 0 1
23.515878 -16.847930 -1.119239 28.949991 -0.621681 1.609467 0.008174 0.005709 -538821.000000 0 0 1
24.862878 -16.910230 -0.802239 30.079265 -0.597272 1.597470 0.017806 -0.000681 -592245.000000 0 0 1
25.420178 -15.578230 -0.201939 29.814551 -0.549799 1.577570 0.017958 -0.010959 -90559.400000 0 0 1
24.843078 -15.107530 0.992161 29.092961 -0.546367 1.536687 0.013501 -0.006399 -191881.000000 0 0 1
25.620478 -14.157930 1.647661 29.318436 -0.504839 1.514568 0.015950 -0.015091 -83965.300000 0 0 1
24.780578 -13.458430 2.749761 28.333153 -0.497533 1.473592 0.020791 -0.014420 -40295.100000 0 0 1
24.512178 -14.164030 3.966261 28.586672 -0.523963 1.431602 0.034841 -0.006752 631822.000000 0 0 1
25.617378 -14.717930 4.728561 29.920341 -0.521480 1.412093 0.055465 -0.012388 879898.000000 0 0 1
25.058078 -15.253730 6.090661 29.961303 -0.546818 1.366085 0.037902 -0.002309 350411.000000 0 0 1
24.182278 -16.333630 5.869561 29.766118 -0.594051 1.372306 0.037688 -0.003275 -117580.000000 0 0 1
23.625578 -16.824730 7.067761 29.852851 -0.618828 1.331774 0.012202 0.004837 23980.700000 0 0 1
22.842478 -18.178330 7.059961 30.034539 -0.672182 1.333515 0.006710 0.006921 176356.000000 0 0 1
23.616278 -19.320930 6.719661 31.243892 -0.685692 1.354032 0.014145 -0.000645 -95918.900000 0 0 1
22.859578 -20.500030 6.974861 31.487461 -0.731034 1.347431 0.003016 0.006313 -84195.300000 0 0 1
1.822478 23.285584 -2.693439 23.511581 1.492689 1.685606 -0.004475 -0.004481 39201.600000 0 1 0
2.716678 24.322184 -2.397339 24.590571 1.459562 1.668442 -0.002206 -0.001142 -428610.000000 0 1 0
3.264678 24.890384 -3.565639 25.355534 1.440379 1.711890 0.006148 0.003216 -364138.000000 0 0 1
4.179278 26.031684 -3.154539 26.553080 1.411609 1.689879 0.002455 0.007528 -554806.000000 0 0 1
5.208378 25.495284 -2.371939 26.129730 1.369281 1.661697 -0.002380 0.009121 -618551.000000 0 0 1
5.870378 26.522984 -1.626439 27.213513 1.352976 1.630598 0.004058 0.006280 255273.000000 0 0 1
7.071478 25.850784 -0.872639 26.814741 1.303779 1.603345 0.006254 -0.002922 925367.000000 0 0 1
8.193278 25.573584 -1.730339 26.909702 1.260748 1.635142 0.006080 -0.005335 8615.550000 0 0 1
9.109678 24.681984 -1.162739 26.335119 1.217224 1.614962 0.010379 -0.000950 -231405.000000 0 0 1
10.243478 24.382184 -2.145439 26.533425 1.173065 1.651743 0.024706 -0.004441 -725149.000000 0 0 1
11.147578 25.469884 -2.335839 27.900531 1.158237 1.654615 0.037901 -0.003091 -127176.000000 0 0 1
11.934478 25.426784 -3.489539 28.304240 1.131955 1.694398 0.051237 -0.003585 217279.000000 0 0 1
13.070278 24.365584 -3.540739 27.875629 1.078436 1.698160 0.053630 -0.004623 -758314.000000 0 0 1
12.666978 23.023584 -3.595639 26.522940 1.067820 1.706782 0.052009 -0.008772 -292072.000000 0 0 1
12.497178 22.545384 -4.920139 26.242743 1.064649 1.759398 0.045087 -0.012095 -593860.000000 0 0 1
11.557178 21.355184 -4.935839 24.778514 1.074743 1.771336 0.042743 -0.010516 379738.000000 0 1 0
10.165878 21.622284 -4.788439 24.367958 1.131306 1.768589 0.023285 -0.004936 408562.000000 0 1 0
9.410278 20.413184 -4.600339 22.943725 1.138841 1.772670 0.006566 0.000158 890665.000000 0 1 0
7.879778 20.737684 -4.534339 22.642938 1.207672 1.772414 -0.009059 0.002535 579074.000000 0 1 0
7.564678 21.370384 -3.279039 22.905671 1.230581 1.714444 -0.012213 0.011554 1275370.000000 0 1 0
6.113878 21.333684 -3.186739 22.420100 1.291693 1.713417 -0.010035 0.000277 1304730.000000 0 1 0
5.666978 22.206884 -2.003339 23.005949 1.320939 1.657986 -0.002211 0.003876 -34318.600000 0 1 0
5.641578 21.526184 -0.756439 22.266032 1.314481 1.604776 0.003805 0.008166 -237058.000000 0 1 0
4.832478 22.231484 0.140161 22.751074 1.356755 1.564636 0.005529 0.005844 224420.000000 0 1 0
4.340978 21.426584 1.405961 21.907061 1.370904 1.506574 0.007732 0.000679 136936.000000 0 1 0
3.499378 22.056184 2.367061 22.457156 1.413450 1.465197 0.012718 0.006377 275873.000000 0 1 0
2.912078 21.131284 3.237361 21.575260 1.433850 1.420178 0.007765 0.006041 -96655.900000 0 1 0
1.887378 21.735784 4.213261 22.220667 1.484181 1.380031 0.012538 -0.001350 336028.000000 0 1 0
0.593278 21.932884 3.620261 22.237573 1.543753 1.407269 0.019016 0.001930 162725.000000 0 1 0
-0.288022 22.237884 4.674161 22.725629 -1.557845 1.363640 0.022352 -0.011455 791743.000000 0 1 0
-1.803622 22.348684 4.271361 22.824575 -1.490267 1.382548 0.006115 -0.008669 1225700.000000 0 1 0
-2.680822 22.843384 5.294561 23.601681 -1.453974 1.344541 0.014438 -0.010439 121885.000000 0 1 0
-4.010222 22.790584 4.844261 23.642323 -1.396620 1.364437 0.012999 -0.012552 -73766.000000 0 1 0
-5.156822 23.219084 5.764961 24.473525 -1.352249 1.333003 0.029913 -0.015472 -65017.200000 0 1 0
-5.238722 24.541784 5.989561 25.799577 -1.360491 1.336501 0.026857 -0.011151 424390.000000 0 0 1
-6.361422 24.854984 6.830061 26.549720 -1.320234 1.310615 0.041192 -0.014679 572601.000000 0 0 1
-6.413722 26.359884 7.240661 28.078577 -1.332120 1.309978 0.038145 -0.018994 -400167.000000 0 0 1
-5.348622 26.746784 8.069661 28.444993 -1.373427 1.283153 0.036529 -0.018461 -325585.000000 0 0 1
-5.395622 28.055584 8.593961 29.834287 -1.380797 1.278600 0.054564 -0.029652 -223610.000000 0 0 1
-5.547722 29.273884 7.638761 30.758546 -1.383506 1.319824 0.061098 -0.025717 -219633.000000 0 0 1
-6.871022 29.361484 7.183661 30.998591 -1.340918 1.336929 0.056294 -0.026999 -607357.000000 0 0 1
-7.057122 30.530284 6.453061 31.992861 -1.343635 1.367700 0.056642 -0.032359 -108871.000000 0 0 1
-8.441422 30.607384 5.739561 32.264719 -1.301689 1.391955 0.042236 -0.029986 908202.000000 0 0 1
-9.520522 31.032784 6.567061 33.117975 -1.273123 1.371180 0.036578 -0.022017 138281.000000 0 0 1
-10.078522 30.000584 7.394261 32.500565 -1.246698 1.341275 0.018495 -0.016228 -93293.400000 0 0 1
-11.094322 30.544984 8.465061 33.581800 -1.222400 1.315975 0.003935 -0.013460 60828.400000 0 0 1
-10.507322 31.080284 9.646461 34.197106 -1.244789 1.284831 0.006984 -0.013239 -441243.000000 0 0 1
-11.348522 31.259284 10.733261 34.944737 -1.222548 1.258600 0.010789 -0.005124 -426838.000000 0 0 1
-10.595022 31.925084 11.948361 35.696341 -1.250362 1.229486 0.009622 -0.006564 -9541.040000 0 0 1
-10.128222 33.195484 11.695961 36.623988 -1.274660 1.245750 0.001794 -0.007834 224815.000000 0 0 1
-9.304722 33.643184 12.760561 37.165489 -1.300970 1.220321 0.000206 -0.007376 16962.600000 0 0 1
-8.901822 -33.936130 12.799861 37.346215 1.314265 1.220969 -0.015156 -0.001836 -304216.000000 0 0 1
-9.913022 -33.082430 13.251761 36.990869 1.279664 1.204410 -0.019571 0.007709 -20930.200000 0 0 1
-9.423322 -31.772330 13.353461 35.729468 1.282472 1.187760 -0.019250 0.004560 845446.000000 0 0 1
-10.479522 -30.870530 14.150461 35.539352 1.243536 1.161283 -0.014140 0.001932 392695.000000 0 0 1
-10.484522 -30.957230 15.569561 36.203405 1.244244 1.126239 -0.010591 -0.003387 137205.000000 0 0 1
-9.345522 -30.352230 16.173361 35.639504 1.272106 1.099766 -0.000426 -0.000417 138682.000000 0 0 1
-9.087322 -30.882030 17.590961 36.684072 1.284615 1.070682 -0.017240 -0.012127 -304355.000000 0 0 1
-9.584322 -30.214530 18.755461 36.831296 1.263627 1.036511 0.017636 -0.016852 15464.200000 0 0 1
-10.666222 -30.871530 19.364361 37.971017 1.238133 1.035638 0.005323 -0.015819 -144923.000000 0 0 1
-11.205422 -30.151130 20.635661 38.216261 1.214973 1.000394 0.028871 -0.024392 110950.000000 0 0 1
-10.221122 -30.120430 21.646361 38.474363 1.243648 0.973247 0.037744 -0.023376 163076.000000 0 0 1
-10.613622 -29.260230 22.663561 38.502559 1.222824 0.941440 0.038151 -0.026225 -73080.400000 0 0 1
-9.486822 -29.008630 23.680861 38.630086 1.254725 0.910924 0.032522 -0.022017 102040.000000 0 0 1
-9.350922 -30.197130 24.445561 39.961129 1.270498 0.912546 0.029983 -0.008721 -595623.000000 0 0 1
-8.084822 -30.156930 25.023461 40.012228 1.308864 0.895158 0.025199 -0.001043 -573001.000000 0 0 1
-7.788622 -31.164830 26.060461 41.364923 1.325896 0.889226 0.032802 -0.001148 -333322.000000 0 0 1
-7.230822 -32.404530 25.661161 41.962287 1.351251 0.912805 0.044020 0.002377 364316.000000 0 0 1
-7.074422 -33.400230 26.680661 43.329903 1.362074 0.907451 0.039852 0.002518 -176396.000000 0 0 1
-6.999422 34.224684 26.032761 43.566335 -1.369064 0.930363 0.035120 -0.003571 -682891.000000 0 0 1
-5.793722 34.058484 25.376261 42.866095 -1.402298 0.937272 0.041334 -0.000672 -786637.000000 0 0 1
-5.515622 32.784884 24.841561 41.501492 -1.404120 0.929081 0.033999 0.005985 -103918.000000 0 0 1
-6.397222 32.125084 23.708361 40.435527 -1.374233 0.944282 0.030041 0.005988 265705.000000 0 0 1
-7.662222 31.634984 24.089961 40.494543 -1.333165 0.933663 0.018863 0.004204 207985.000000 0 0 1
-8.503622 31.428384 22.976861 39.849605 -1.306552 0.956248 0.012760 0.018584 283049.000000 0 0 1
-9.519322 30.247884 23.113361 39.240023 -1.265899 0.940944 0.014354 0.003821 303047.000000 0 0 1
-8.922522 28.993584 22.917061 38.018824 -1.272253 0.923813 0.002257 0.009149 -189077.000000 0 0 1
-9.788322 27.963784 23.267961 37.672038 -1.234090 0.905051 0.002087 0.004722 -787641.000000 0 0 1
-9.233622 26.584084 23.070961 36.390143 -1.236496 0.884095 -0.010933 0.004867 -535944.000000 0 0 1
-8.006822 26.344084 23.700961 36.329815 -1.275736 0.860072 -0.009123 -0.000111 -196739.000000 0 0 1
-7.673222 24.975084 23.500861 35.141480 -1.272715 0.838270 -0.009250 -0.004225 -278062.000000 0 0 1
-6.265222 24.562584 23.935961 34.864075 -1.321050 0.814062 -0.015514 0.002160 405072.000000 0 0 1
-5.226322 25.192384 23.163461 34.619598 -1.366242 0.837819 -0.015826 0.000654 15171.300000 0 0 1
-3.949622 25.044284 23.744161 34.736160 -1.414379 0.818171 -0.003038 0.009216 147960.000000 0 0 1
-2.941922 25.762484 22.807861 34.533447 -1.457095 0.849369 -0.005267 0.012336 -252413.000000 0 0 1
-2.880522 25.283084 21.488961 33.306263 -1.457355 0.869521 0.003973 0.008350 296518.000000 0 0 1
-1.822622 25.873484 20.733061 33.205706 -1.500469 0.896456 0.004081 0.005675 323912.000000 0 0 1
-1.243422 24.933884 19.663161 31.778681 -1.520969 0.903642 0.002035 0.003177 -12425.200000 0 0 1
-0.481722 23.808584 20.133261 31.183792 -1.550566 0.868945 0.009806 0.004106 250123.000000 0 0 1
-0.177822 22.833484 19.103361 29.771429 -1.563009 0.874126 -0.007086 0.006940 11284.600000 0 0 1
0.956278 21.794284 19.397261 29.191762 1.526947 0.844002 -0.005304 0.010618 363831.000000 0 0 1
2.222978 22.405784 19.479761 29.772837 1.471905 0.857567 -0.003238 -0.000432 138681.000000 0 0 1
3.256578 21.427584 19.681761 29.276584 1.419970 0.833526 0.005845 0.003955 1331540.000000 0 0 1
4.690678 21.850084 19.203761 29.465455 1.359330 0.860922 0.005288 -0.004449 285417.000000 0 0 1
5.589978 20.811484 19.177861 28.847115 1.308389 0.843556 0.022719 -0.008212 -882569.000000 0 0 1
6.842078 21.264584 18.741661 29.158985 1.259498 0.872726 0.037545 -0.007531 -895945.000000 0 0 1
7.883078 20.256884 18.390561 28.472741 1.199673 0.868594 0.036322 -0.004796 -901691.000000 0 0 1
8.385878 19.598084 19.483561 28.879352 1.166478 0.830301 0.035924 -0.005404 290664.000000 0 0 1
9.371878 18.606884 19.106461 28.268446 1.104211 0.828620 0.030802 -0.004972 653524.000000 0 0 1
9.899778 17.932084 20.415361 28.919754 1.066365 0.787059 0.044251 -0.009666 -193166.000000 0 0 1
8.942378 17.046084 20.917661 28.426812 1.087663 0.743886 0.041116 -0.010596 75618.600000 0 0 1
9.538878 16.194384 21.922261 28.876180 1.038487 0.708742 0.045260 -0.016373 469260.000000 0 0 1
8.539978 15.151884 22.510161 28.446760 1.057553 0.657850 0.025206 -0.012676 364234.000000 0 0 1
7.563178 15.806484 23.314861 29.165550 1.124508 0.644505 0.022007 0.002673 428229.000000 0 0 1
6.443778 15.000284 23.737361 28.809600 1.165055 0.602469 0.009753 0.002584 735215.000000 0 0 1
6.679878 13.826484 24.744161 29.121571 1.120742 0.555409 0.014175 0.001528 -501763.000000 0 0 1
6.870978 14.368184 26.039761 30.524157 1.124734 0.548923 0.019268 -0.004029 -852.152000 0 0 1
7.105678 13.276384 26.933561 30.857247 1.079378 0.509796 0.016818 -0.009542 -574532.000000 0 0 1
8.065578 13.743984 28.048261 32.259193 1.040106 0.516677 0.009660 -0.007804 690796.000000 0 0 1
9.453978 13.832384 27.697561 32.370780 0.971253 0.544021 0.038490 -0.005551 788743.000000 0 0 1
9.873378 15.043284 27.106761 32.535526 0.989983 0.586029 0.031245 -0.003186 -514816.000000 0 0 1
11.258778 14.952684 26.454161 32.406256 0.925403 0.615770 0.045357 -0.011562 -379237.000000 0 0 1
11.229778 14.161484 25.284061 31.079563 0.900350 0.620605 0.047223 -0.012990 1130960.000000 0 0 1
12.493878 13.666884 24.732061 30.895882 0.830207 0.642672 0.047998 -0.016527 302682.000000 0 0 1
12.322478 12.596884 23.600161 29.453226 0.796409 0.641372 0.048641 -0.021658 129059.000000 0 0 1
11.806578 11.286884 23.973461 29.008892 0.762898 0.598081 0.043602 -0.012674 368570.000000 0 0 1
10.478178 11.327784 24.464061 28.924058 0.824341 0.562727 0.036935 -0.008091 -266194.000000 0 0 1
10.050278 9.950684 25.077461 28.790679 0.780419 0.513507 0.029050 -0.005897 20957.100000 0 0 1
10.281778 8.870184 24.193761 27.744066 0.711826 0.511454 0.028854 -0.004639 172269.000000 0 0 1
9.962278 7.618984 24.711261 27.711772 0.652895 0.469655 0.033376 -0.010611 -129727.000000 0 0 1
10.206978 6.514584 23.701161 26.615169 0.568069 0.472324 0.033766 -0.017083 -357444.000000 0 0 1
11.557478 6.187384 23.507461 26.915789 0.491532 0.508716 0.038109 -0.014136 -108419.000000 0 0 1
11.742978 5.112484 22.588661 25.966952 0.410617 0.515796 0.038180 -0.016965 -143229.000000 0 0 1
11.595778 3.675584 23.124261 26.128594 0.306957 0.484265 0.024915 -0.012361 -247815.000000 0 0 1
12.601478 3.316084 24.045761 27.349447 0.257317 0.496606 0.031306 -0.008743 51502.700000 0 0 1
12.418178 1.987784 24.528561 27.564701 0.158724 0.473771 0.025125 -0.006456 -661735.000000 0 0 1
13.674378 1.525784 25.250061 28.755559 0.111120 0.498934 0.025101 -0.007193 136949.000000 0 0 1
14.649478 1.023484 24.302761 28.395051 0.069752 0.543546 0.020737 -0.008767 1840200.000000 0 0 1
15.972478 0.967184 24.926661 29.620836 0.060479 0.570697 0.021308 -0.011685 1338360.000000 0 0 1
17.009078 0.189684 24.081961 29.483649 0.011151 0.614971 0.036197 -0.015652 -62194.800000 0 0 1
17.042878 -1.208716 24.410661 29.795990 -0.070804 0.610677 0.025620 -0.014973 88835.000000 0 0 1
18.122278 -1.915216 23.853961 30.018269 -0.105292 0.652369 0.026174 -0.006153 -405574.000000 0 0 1
17.942478 -3.405416 24.165161 30.290004 -0.187565 0.647170 0.026225 -0.000435 -298903.000000 0 0 1
16.988478 -4.098616 23.424061 29.224881 -0.236735 0.640979 0.018488 0.002893 -87676.100000 0 0 1
16.811578 -5.420616 23.847561 29.676900 -0.311909 0.637522 0.036551 0.003108 -361727.000000 0 0 1
15.861878 -6.127716 22.870961 28.499630 -0.368655 0.639322 0.032822 0.001874 -667242.000000 0 0 1
16.198578 -6.319316 21.525861 27.671111 -0.371956 0.679450 0.022503 0.000863 -309369.000000 0 0 1
15.389278 -7.242316 20.847361 26.905268 -0.439859 0.684330 0.020648 0.000214 -192495.000000 0 0 1
15.789278 -8.780616 20.967661 27.677487 -0.507524 0.711213 0.030473 -0.008928 19931.400000 0 0 1
15.619278 -9.230016 22.260361 28.717220 -0.533729 0.683832 0.019515 -0.005377 371631.000000 0 0 1
16.360278 -10.453916 22.517361 29.731710 -0.568590 0.711548 0.025668 -0.003709 190832.000000 0 0 1
15.974578 -11.226916 23.765961 30.757953 -0.612602 0.687749 0.025533 0.001679 -151164.000000 0 0 1
14.843378 -12.015816 23.487261 30.271391 -0.680511 0.682672 0.024108 0.000653 -171813.000000 0 0 1
14.627978 -12.920916 24.520361 31.339686 -0.723512 0.672276 0.021060 0.011057 112162.000000 0 0 1
13.610378 -14.013816 24.088961 31.014633 -0.800002 0.681392 0.004746 0.012370 21886.200000 0 0 1
14.092978 -14.912316 23.126861 30.916677 -0.813639 0.725695 0.015102 0.006510 -749747.000000 0 0 1
13.034378 -15.491216 22.497061 30.265335 -0.871314 0.732765 0.003390 0.011295 -747192.000000 0 0 1
13.463178 -16.296416 21.211561 29.945962 -0.880316 0.783670 0.004402 -0.007719 223474.000000 0 0 1
14.270078 -17.457916 21.464361 31.130897 -0.885536 0.810015 0.020738 -0.001413 408285.000000 0 0 1
14.324378 -18.135216 20.291961 30.754472 -0.902266 0.850237 0.028214 -0.006443 32294.300000 0 0 1
-22.849222 -32.516830 27.060127 48.079951 0.958268 0.973009 0.025085 -0.003571 -479957.000000 0 0 1
-23.562922 -33.439930 27.773977 49.445263 0.956967 0.974343 0.022301 -0.006818 -103957.000000 0 0 1
-24.803122 -33.716430 27.125897 49.877919 0.936550 0.995783 0.023405 -0.012040 568856.000000 0 0 1
-25.681722 34.373484 27.972037 51.220329 -0.929130 0.993080 0.022259 -0.007938 -265617.000000 0 0 1
-26.331972 -34.168030 29.142337 52.058648 0.914203 0.976654 0.036794 -0.010660 278509.000000 0 0 1
-25.585612 -33.819030 30.291467 52.114521 0.923120 0.950535 0.037299 -0.016822 -123797.000000 0 0 1
-26.641452 -33.213930 31.230377 52.804058 0.894766 0.937954 0.032881 -0.018506 129294.000000 0 0 1
-26.963482 -31.901430 30.932837 51.976639 0.869088 0.933369 0.033435 -0.014689 245482.000000 0 0 1
-27.775672 -31.322130 31.962977 52.670634 0.845336 0.918710 0.026604 -0.002749 120834.000000 0 0 1
-27.854652 -29.752830 31.701767 51.634432 0.818336 0.909721 0.018431 -0.016523 152726.000000 0 0 1
-28.581392 -29.581530 30.463317 51.185707 0.802592 0.933341 0.006008 0.006481 540744.000000 0 0 1
-29.067472 -28.263630 30.377027 50.660778 0.771378 0.927775 0.012920 0.008879 151849.000000 0 0 1
-29.839712 -27.851930 29.081047 50.118317 0.750957 0.951763 0.009682 -0.000653 -165149.000000 0 0 1
-29.028232 -27.790730 27.949127 48.950144 0.763622 0.963108 0.010251 0.005939 -139396.000000 0 0 1
-28.483162 -26.527030 27.803767 47.833286 0.749854 0.950515 0.003983 0.010766 349133.000000 0 0 1
-27.407762 -26.473330 26.628337 46.487535 0.768057 0.960871 0.001145 0.018022 248012.000000 0 0 1
-27.961782 -26.387030 25.355867 46.054930 0.756431 0.987765 -0.016888 0.014589 165052.000000 0 0 1
-27.041122 -25.974230 24.335287 44.699990 0.765277 0.995106 -0.002610 0.024567 -48413.000000 0 0 1
-27.387382 -26.456530 22.897577 44.433272 0.768112 1.029409 -0.020983 0.025840 -153306.000000 0 0 1
-28.196742 -25.575730 22.165677 44.051010 0.736694 1.043519 -0.023820 0.018023 41265.200000 0 0 1
-28.442122 -26.000730 20.856777 43.817775 0.740585 1.074708 -0.026197 0.026951 -289998.000000 0 0 1
-28.996652 -24.907630 19.976077 43.130494 0.709686 1.089245 -0.028593 0.021320 131041.000000 0 0 1
-30.350972 -24.569230 20.235577 43.980759 0.680509 1.092688 -0.016595 0.017181 241488.000000 0 0 1
-30.838672 -23.575530 19.351477 43.374059 0.652704 1.108334 -0.011826 0.013395 -1246570.000000 0 0 1
-32.216142 -23.164630 19.806177 44.348219 0.623389 1.107828 0.002322 0.026528 -1032860.000000 0 0 1
-33.167332 -24.130430 19.444877 45.392211 0.628968 1.128103 -0.009981 0.018667 316404.000000 0 0 1
-34.502264 -23.626730 19.492277 46.136509 0.600443 1.134604 -0.003323 0.017086 477599.000000 0 0 1
34.888340 -24.470030 18.748477 46.556246 -0.611652 1.156325 0.016605 0.007164 -85452.400000 0 0 1
34.803848 -25.802530 19.184177 47.382603 -0.637955 1.153951 0.012030 0.009367 87888.300000 0 0 1
34.115753 -26.690330 18.302777 47.023930 -0.663883 1.171009 0.022892 0.010369 74460.300000 0 0 1
33.852243 -28.065630 18.990077 47.898611 -0.692213 1.163134 0.014822 0.018742 -124820.000000 0 0 1
32.811733 -28.198930 19.949177 47.641989 -0.709935 1.138749 0.012577 0.016424 -70091.800000 0 0 1
32.891213 -27.482630 21.171277 47.805333 -0.696052 1.112005 0.010150 0.015841 -998460.000000 0 0 1
31.558253 -27.477030 21.882777 47.220403 -0.716376 1.088948 0.007938 0.012299 -1018670.000000 0 0 1
30.643523 -26.545530 21.359377 45.824815 -0.713863 1.085908 0.005520 0.017114 -1251840.000000 0 0 1
29.712253 -26.350930 22.344077 45.568051 -0.725514 1.058310 0.011996 0.019379 -602665.000000 0 0 1
28.582953 -25.361330 21.937277 44.061620 -0.725748 1.049647 0.007470 0.020425 398430.000000 0 0 1
29.120993 -24.086130 21.482477 43.470343 -0.691051 1.053897 0.008112 0.018799 -88687.900000 0 0 1
29.981743 -23.365530 22.308277 44.073939 -0.662007 1.040075 0.016462 0.013760 -612851.000000 0 0 1
30.705983 -22.222430 21.601877 43.627226 -0.626466 1.052793 0.002248 0.024985 -535888.000000 0 0 1
29.940093 -21.108730 21.315977 42.383470 -0.614095 1.043809 -0.003898 0.015470 -973941.000000 0 0 1
30.713513 -20.130230 20.743977 42.176518 -0.580176 1.056598 -0.013655 0.013663 -1150160.000000 0 0 1
30.084653 -18.735630 20.568277 40.977606 -0.556990 1.044957 -0.028961 0.022771 -96850.000000 0 0 1
29.825813 -18.052330 21.809277 41.123112 -0.544277 1.011793 -0.025572 0.021239 -715859.000000 0 0 1
28.670623 -18.543630 22.377977 40.824560 -0.574109 0.990646 -0.010557 0.009375 -1681330.000000 0 0 1
28.597753 -18.354130 23.925777 41.558975 -0.570591 0.957328 -0.013611 0.008796 -9851.140000 0 0 1
28.370233 -16.994430 24.349617 41.068049 -0.539701 0.936130 -0.012018 0.017059 257419.000000 0 0 1
28.475363 -16.897030 25.715677 41.924360 -0.535546 0.910460 -0.010217 0.014176 -165136.000000 0 0 1
28.322753 -15.399730 26.161357 41.518028 -0.498011 0.889088 -0.005668 0.017877 524728.000000 0 0 1
26.940233 -15.078930 26.346377 40.586720 -0.510274 0.864346 0.009677 0.014649 741965.000000 0 0 1
26.718533 -13.894530 27.133627 40.536054 -0.479546 0.837436 0.012019 0.006645 32005.100000 0 0 1
27.301563 -12.538030 26.587587 40.118292 -0.430513 0.846338 0.016217 0.003514 -479401.000000 0 0 1
26.627003 -12.098530 25.461197 38.776852 -0.426483 0.854484 0.017550 0.003408 74637.700000 0 0 1
27.328163 -11.205430 24.584527 38.429014 -0.389125 0.876638 0.018529 -0.002728 263105.000000 0 0 1
28.438493 -11.822130 23.688377 38.854213 -0.393975 0.915148 0.011162 -0.000559 -29827.700000 0 0 1
27.899073 -12.721630 22.733577 38.170848 -0.427822 0.932816 0.012791 0.001423 161884.000000 0 0 1
28.443163 -14.008030 22.899977 39.110707 -0.457623 0.945279 0.003100 -0.000797 11010.200000 0 0 1
28.030943 -15.002930 21.806777 38.553303 -0.491431 0.969603 0.005854 0.003357 -154804.000000 0 0 1
28.427323 -14.686830 20.492877 37.997022 -0.476875 1.001157 -0.004874 -0.000175 -72503.400000 0 0 1
28.151373 -15.770430 19.599977 37.754011 -0.510641 1.024941 -0.008824 -0.007313 -223072.000000 0 0 1
28.388863 -15.497930 18.066977 37.047659 -0.499702 1.061379 -0.008154 -0.008215 -123272.000000 0 0 1
28.068123 -16.464830 17.127777 36.773236 -0.530510 1.086295 -0.004693 -0.015316 361663.000000 0 0 1
26.679023 -16.598430 16.809577 35.634815 -0.556549 1.079558 0.014180 -0.015466 387782.000000 0 0 1
26.124513 -15.648330 15.681877 34.253200 -0.539677 1.095252 0.011221 -0.014444 -340142.000000 0 0 1
26.371713 -15.950830 14.299577 33.976082 -0.543975 1.136390 0.004660 -0.017805 126864.000000 0 0 1
25.677713 -17.119130 13.910277 33.851224 -0.588020 1.147329 0.007684 -0.020225 -62527.000000 0 0 1
26.089963 -17.561930 12.475577 33.834119 -0.592464 1.193156 -0.012440 -0.002052 -375142.000000 0 0 1
25.490843 -16.806430 11.499077 32.626185 -0.582894 1.210609 -0.011133 -0.005744 -385413.000000 0 0 1
25.124863 -17.569830 10.317077 32.348103 -0.610256 1.246186 0.007401 -0.011472 49489.100000 0 0 1
26.261743 -18.024530 9.354577 33.197454 -0.601500 1.285141 0.003397 -0.000376 57954.100000 0 0 1
27.116363 -18.897230 10.013977 34.535231 -0.608638 1.276607 -0.008901 0.007788 -1352650.000000 0 0 1
28.319623 -19.151030 9.368177 35.447507 -0.594605 1.303336 -0.002359 0.013087 -282470.000000 0 0 1
29.253423 -19.970830 10.319377 36.892904 -0.599009 1.287303 0.019494 -0.017382 -112695.000000 0 0 1
29.561223 -19.232730 11.496877 37.093692 -0.576802 1.255665 0.018386 -0.024893 -2631.740000 0 0 1
29.594023 -20.051630 12.652277 37.920366 -0.595504 1.230619 -0.000207 -0.022117 -324772.000000 0 0 1
29.506933 -19.301530 13.984377 37.931135 -0.579277 1.193210 0.005183 -0.010712 -7527.730000 0 0 1
29.224923 -20.202430 15.033577 38.577749 -0.604846 1.170495 0.011302 -0.009419 -42765.900000 0 0 1
28.952543 -19.456730 16.231377 38.474299 -0.591701 1.135283 0.007886 -0.009546 -25379.900000 0 0 1
28.892603 -20.511430 17.367377 39.460449 -0.617353 1.115063 0.001758 0.000597 701364.000000 0 0 1
27.622553 -21.168130 17.521077 38.962589 -0.653874 1.104378 -0.016223 0.001821 539719.000000 0 0 1
27.607623 -22.064630 18.562177 39.919709 -0.674267 1.087176 -0.000295 0.008702 -356173.000000 0 0 1
26.466203 -23.054330 18.375077 39.618247 -0.716609 1.088513 0.000990 0.019326 -100454.000000 0 0 1
25.203963 -22.490730 18.654077 38.588175 -0.728572 1.066245 0.004463 0.009353 -900981.000000 0 0 1
24.148963 -23.337130 18.454677 38.319305 -0.768304 1.068314 0.010200 0.007898 -660006.000000 0 0 1
22.914063 -22.863130 19.260677 37.666307 -0.784286 1.034041 0.018309 -0.000265 -269784.000000 0 0 1
22.428963 -21.571530 18.904777 36.411260 -0.765914 1.024880 0.016103 -0.006588 -124317.000000 0 0 1
21.250163 -21.274930 19.623277 35.906338 -0.785981 0.992602 0.021706 -0.008389 54006.500000 0 0 1
21.363763 -20.745130 21.087177 36.488900 -0.770708 0.954635 0.015755 0.004109 -252847.000000 0 0 1
21.695763 -21.649430 22.108077 37.791150 -0.784329 0.945908 0.022290 0.006392 -245594.000000 0 0 1
21.820263 -20.956130 23.343377 38.212518 -0.765200 0.913621 0.012494 0.002618 127224.000000 0 0 1
22.141563 -21.954130 24.536597 39.677163 -0.781148 0.904084 0.006223 0.000069 -346692.000000 0 0 1
21.087363 -22.838830 24.796077 39.763482 -0.825250 0.897471 0.015328 -0.000801 -213254.000000 0 0 1
21.440463 -23.718730 25.812247 41.091893 -0.835805 0.891611 0.019152 0.001956 168249.000000 0 0 1
20.213563 -24.448330 26.444587 41.299215 -0.879934 0.875886 0.016662 0.000024 257143.000000 0 0 1
19.518163 -25.368830 25.622977 41.000892 -0.915010 0.895745 0.024442 0.001641 -369594.000000 0 0 1
18.581863 -26.013330 26.414917 41.469589 -0.950524 0.880234 0.044639 -0.007499 -793153.000000 0 0 1
17.826863 -27.074330 25.693437 41.363862 -0.988510 0.900579 0.050747 -0.003104 -558220.000000 0 0 1
17.017463 -26.669130 24.636477 40.097288 -1.002835 0.909149 0.041877 -0.003246 -94758.000000 0 0 1
16.534363 -27.694930 23.838077 40.107957 -1.032573 0.934342 0.045603 -0.000848 -288922.000000 0 0 1
15.720963 -27.147030 22.649277 38.692372 -1.045883 0.945462 0.033895 -0.001145 -526399.000000 0 0 1
14.521263 -26.633430 23.129877 38.147056 -1.071625 0.919353 0.021826 0.001768 -804438.000000 0 0 1
14.026163 -25.644330 22.233577 36.724608 -1.070298 0.920511 0.020194 0.000363 756570.000000 0 0 1
12.561663 -25.209630 22.597477 36.110480 -1.108519 0.894656 0.010319 0.000044 1101090.000000 0 0 1
11.566863 -26.218530 22.423477 36.387030 -1.155309 0.906825 0.009753 -0.003466 364185.000000 0 0 1
10.299663 -25.657930 22.099877 35.395155 -1.189064 0.896464 0.016679 -0.008239 701283.000000 0 0 1
9.084063 -26.567130 22.409377 35.923708 -1.241330 0.897195 0.022271 -0.007061 116765.000000 0 0 1
8.785063 -27.363330 21.265377 35.751160 -1.260139 0.933759 0.021287 -0.010018 -169058.000000 0 0 1
7.487063 -27.901130 21.342377 35.916935 -1.308630 0.934507 0.017436 -0.003622 -450491.000000 0 0 1
7.164363 -28.673230 20.066477 35.723182 -1.325947 0.974331 0.018937 -0.002484 -220057.000000 0 0 1
7.834463 -29.880130 19.978177 36.787614 -1.314372 0.996710 0.016654 -0.008893 16740.700000 0 0 1
7.394563 -30.561130 18.809977 36.639834 -1.333399 1.031683 0.011374 -0.008755 100122.000000 0 0 1
7.986663 -31.975430 18.679277 37.883114 -1.326029 1.055174 0.007454 -0.000746 -95148.500000 0 0 1
7.619863 -32.892730 19.664177 39.072674 -1.343154 1.043415 0.011460 -0.001877 -45850.700000 0 0 1
8.355163 -34.067330 19.519977 40.142511 -1.330289 1.062984 0.003260 -0.001057 -327070.000000 0 0 1
8.097963 33.965684 20.640477 40.561977 1.336750 1.036933 0.005355 -0.007338 -263695.000000 0 0 1
6.992463 33.182584 20.264177 39.504623 1.363108 1.032170 0.006835 -0.008770 -216484.000000 0 0 1
6.993663 32.037684 21.129877 39.010206 1.355873 0.998398 -0.001638 -0.009829 -222647.000000 0 0 1
6.064563 30.911284 20.657677 37.669961 1.377064 0.990364 0.003465 -0.013042 685615.000000 0 0 1
4.658863 30.970384 20.880177 37.641087 1.421486 0.982773 0.003784 -0.011946 532216.000000 0 0 1
3.985663 29.763584 20.631777 36.433867 1.437678 0.968811 0.005398 -0.009170 500290.000000 0 0 1
2.557463 29.537384 21.196777 36.445864 1.484428 0.950107 -0.002867 -0.006146 317272.000000 0 0 1
2.451463 29.368684 22.610777 37.145343 1.487517 0.916361 -0.006344 -0.006762 149166.000000 0 0 1
1.136863 28.974984 22.983977 37.001423 1.531580 0.900568 -0.013847 -0.002087 126013.000000 0 0 1
0.985063 28.461684 24.440547 37.528364 1.536200 0.861559 -0.004998 0.007763 -550537.000000 0 0 1
1.099263 29.363384 25.535307 38.929020 1.533377 0.855362 -0.007114 0.004340 -30717.800000 0 0 1
0.914063 28.803084 26.783387 39.342127 1.539072 0.821967 -0.012061 0.009034 -462720.000000 0 0 1
2.070263 28.037184 27.453407 39.294519 1.497090 0.797277 -0.012831 0.007728 -244326.000000 0 0 1
2.562063 26.880684 26.776417 38.027777 1.475771 0.789602 -0.004863 0.008462 228838.000000 0 0 1
3.481463 26.227084 27.632097 38.255892 1.438825 0.763679 -0.014099 0.015246 -150438.000000 0 0 1
3.882963 24.860184 27.116647 36.992143 1.415856 0.748019 -0.014318 0.025097 -431040.000000 0 0 1
2.874563 23.887684 27.093317 36.234408 1.451036 0.726169 -0.000122 0.022606 -112824.000000 0 0 1
3.448963 22.592084 26.834627 35.247621 1.419304 0.705454 -0.003730 0.026093 484049.000000 0 0 1
2.351363 21.493784 26.645167 34.314378 1.461832 0.681702 -0.004446 0.027190 85570.500000 0 0 1
2.754763 20.151284 26.706087 33.569004 1.434934 0.650868 0.001591 0.025930 87396.500000 0 0 1
3.536863 19.698584 25.596397 32.491832 1.393140 0.663601 0.006054 0.023728 -150254.000000 0 0 1
3.906163 18.209384 25.664077 31.709377 1.359485 0.627747 0.004925 0.012752 -236646.000000 0 0 1
5.020863 18.053884 26.491757 32.449421 1.299546 0.615644 -0.002551 0.017070 -501938.000000 0 0 1
6.245563 17.827784 25.847567 32.014585 1.233830 0.631118 0.006022 0.017242 291550.000000 0 0 1
7.483363 17.855884 26.844987 33.098136 1.173935 0.624813 0.003195 0.007064 780000.000000 0 0 1
7.886563 19.119484 27.425617 34.349920 1.179571 0.646132 -0.005709 0.007638 178502.000000 0 0 1
8.219763 20.181584 26.528947 34.331412 1.184021 0.687664 -0.005516 0.006191 -318156.000000 0 0 1
8.680663 21.428284 27.319547 35.789424 1.185899 0.702327 -0.012654 0.004812 -335378.000000 0 0 1
9.815363 21.219784 28.096957 36.552148 1.137549 0.694019 0.007063 -0.012781 -506384.000000 0 0 1
10.038563 22.334184 28.978857 37.938933 1.148383 0.701571 0.011576 -0.014772 -68695.500000 0 0 1
11.083563 22.100784 30.084077 38.940232 1.105949 0.687917 0.028679 -0.020417 311971.000000 0 0 1
12.410263 21.995884 29.602517 38.911984 1.057110 0.706320 0.019089 -0.026588 59209.000000 0 0 1
13.360563 21.989784 30.680187 40.041592 1.024822 0.697877 0.019438 -0.022235 2099840.000000 0 0 1
14.873463 21.873684 30.165337 40.120138 0.973640 0.719895 0.015493 -0.022094 1660880.000000 0 0 1
15.246863 23.023884 29.417947 40.348255 0.985879 0.753789 0.011969 -0.032130 -268371.000000 0 0 1
16.576363 22.844084 28.975847 40.450311 0.943075 0.772265 0.047123 -0.023865 -280870.000000 0 0 1
-8.897622 16.790284 4.486261 19.524545 -1.083495 1.338949 0.002990 -0.010731 -264863.000000 0 1 0
-8.609822 18.028384 4.938161 20.580017 -1.125253 1.328483 0.001424 -0.014004 999854.000000 0 1 0
-7.216722 18.281984 5.237161 20.340596 -1.194828 1.310390 0.000548 -0.011160 858924.000000 0 1 0
-6.927222 19.695384 5.871061 21.687874 -1.232592 1.296669 -0.001323 -0.010952 -160989.000000 0 1 0
-7.195322 20.834284 5.098761 22.623824 -1.238261 1.343472 0.003250 -0.011476 186333.000000 0 1 0
-8.547522 21.085484 4.760361 23.244758 -1.185665 1.364544 0.000371 -0.016703 115287.000000 0 1 0
-8.623722 22.273584 3.710361 24.171220 -1.201397 1.416684 0.013258 -0.012741 80190.300000 0 1 0
-7.947022 22.125084 2.475961 23.639054 -1.225961 1.465864 0.004850 -0.011349 -176313.000000 0 1 0
-8.372022 20.994184 1.708961 22.666430 -1.191344 1.495329 0.021176 -0.012683 -514012.000000 0 1 0
-7.738922 20.997384 0.280561 22.379896 -1.217678 1.558260 0.010413 -0.003119 693335.000000 0 1 0
-6.395022 20.543884 0.096261 21.516429 -1.269018 1.566322 -0.002027 0.000008 92257.900000 0 1 0
-5.476322 21.543484 0.436061 22.232902 -1.321870 1.551182 0.006842 -0.002143 -1084970.000000 0 1 0
-4.112822 21.228184 -0.178539 21.623667 -1.379424 1.579053 0.007463 -0.001431 -739523.000000 0 1 0
-3.956122 21.557084 -1.530839 21.970485 -1.389297 1.640530 0.008328 -0.004494 -368048.000000 0 1 0
-2.670822 21.495084 -2.082239 21.760231 -1.447177 1.666633 0.007372 0.001648 -445679.000000 0 1 0
-2.572322 21.873484 -3.566239 22.311078 -1.453734 1.731327 0.011792 0.000160 -207271.000000 0 1 0
-1.266122 21.943984 -4.085139 22.356875 -1.513162 1.754553 0.007967 -0.002221 -14869.700000 0 1 0
-1.288722 22.358984 -5.466239 23.053519 -1.513222 1.810187 0.009021 -0.007921 21365.300000 0 1 0
0.007478 23.000784 -6.002439 23.771104 1.570471 1.826070 -0.000978 -0.005121 819036.000000 0 1 0
1.147478 22.110284 -5.969839 22.930773 1.518945 1.834173 -0.001126 -0.000606 139094.000000 0 1 0
2.315878 22.781784 -6.367839 23.768095 1.469490 1.842025 -0.005430 0.005961 -88800.100000 0 1 0
3.475778 21.778484 -6.527839 22.999915 1.412534 1.858572 0.000194 0.011347 -227593.000000 0 1 0
3.392378 21.051884 -7.717739 22.677159 1.411026 1.918065 0.001858 0.008654 -127599.000000 0 1 0
4.093678 19.827384 -7.687439 21.655948 1.367191 1.933690 0.002604 0.005586 349036.000000 0 1 0
3.576678 18.901284 -8.816439 21.160831 1.383778 2.000542 -0.002810 0.002182 95674.100000 0 1 0
3.929678 19.325084 -10.140439 22.174980 1.370186 2.045744 0.002265 -0.004055 -448920.000000 0 1 0
2.994878 18.978384 -11.105139 22.191721 1.414282 2.094878 0.006698 -0.007416 -325914.000000 0 1 0
3.516178 19.469084 -12.480139 23.391507 1.392119 2.133569 0.008280 -0.008506 216339.000000 0 1 0
3.396778 20.861584 -12.661539 24.638554 1.409388 2.110511 0.024088 -0.007540 -33193.700000 0 1 0
3.869978 21.044684 -13.991739 25.566075 1.388935 2.149904 0.033390 -0.007246 96534.800000 0 0 1
4.025978 22.490184 -14.483239 27.051452 1.393662 2.135773 0.034636 -0.011467 250665.000000 0 0 1
2.835678 23.244184 -14.650539 27.621938 1.449401 2.129863 0.040266 -0.012354 -147730.000000 0 0 1
3.169478 24.534584 -15.206439 29.038374 1.442324 2.121946 0.043635 -0.009949 -333567.000000 0 0 1
1.908578 25.270084 -15.636339 29.777759 1.495412 2.123630 0.051670 -0.009920 -192130.000000 0 0 1
1.176378 25.743284 -14.507939 29.573313 1.525132 2.083546 0.048408 -0.018955 -323863.000000 0 0 1
1.296478 27.112884 -14.340239 30.699052 1.523015 2.056831 0.042132 -0.017116 -575901.000000 0 0 1
0.403778 27.568584 -13.127539 30.537225 1.556151 2.015163 0.037075 -0.016923 47341.100000 0 0 1
-0.986222 27.557584 -13.310039 30.619442 -1.535024 2.020493 0.031564 -0.019615 -365075.000000 0 0 1
-1.649422 26.330284 -13.561039 29.663213 -1.508235 2.045603 0.022428 -0.017760 -821794.000000 0 0 1
-1.646322 25.148684 -12.551939 28.155245 -1.505426 2.032877 0.028827 -0.014377 -315301.000000 0 0 1
-2.401822 25.294584 -11.358439 27.831616 -1.476126 1.991182 0.022123 -0.014138 6525.960000 0 0 1
-2.291322 24.119684 -10.565439 26.431758 -1.476083 1.982013 0.036211 -0.015865 -19264.000000 0 0 1
-3.189022 24.221584 -9.302639 26.141807 -1.439889 1.934623 0.023646 -0.009275 191809.000000 0 0 1
-2.572022 24.604584 -8.014339 26.004432 -1.466640 1.884088 0.019198 -0.011578 199989.000000 0 0 1
-2.064622 25.913084 -7.938039 27.180196 -1.491289 1.867168 0.007486 -0.010074 -355044.000000 0 0 1
-1.969022 26.573984 -6.556839 27.441680 -1.496836 1.812068 0.010401 -0.007343 -119576.000000 0 0 1
-0.958722 26.029184 -5.741739 26.672179 -1.533980 1.787765 0.000878 -0.005462 -244566.000000 0 0 1
-0.861422 26.581184 -4.462939 26.967002 -1.538400 1.737058 0.004249 -0.002954 -523683.000000 0 0 1
-1.614522 25.713584 -3.439439 25.992784 -1.508090 1.703508 0.014504 -0.002668 291773.000000 0 0 1
-3.007722 25.746184 -3.704839 26.184694 -1.454501 1.712761 0.010882 0.000328 22292.500000 0 0 1
-3.771522 25.170584 -2.671339 25.591380 -1.422064 1.675371 0.009780 0.001474 -736711.000000 0 0 1
-5.096022 24.636784 -3.165339 25.356654 -1.366827 1.695956 0.013735 0.005486 -406171.000000 0 0 1
-6.154822 25.612284 -3.083239 26.521261 -1.334961 1.687315 0.011921 0.002783 -555977.000000 0 0 1
-7.220322 25.066384 -3.770539 26.356662 -1.290340 1.714347 0.021847 0.005204 -798887.000000 0 0 1
-8.419922 25.988984 -3.970339 27.605904 -1.257487 1.715119 0.025202 0.004948 -60312.400000 0 0 1
-9.139322 26.229584 -2.754439 27.912456 -1.235516 1.669639 0.023543 0.006727 -1379410.000000 0 0 1
-10.436522 26.569284 -3.034439 28.706370 -1.196509 1.676700 0.032040 0.005063 -489874.000000 0 0 1
-11.430722 26.445284 -1.802039 28.866274 -1.162809 1.633264 0.025778 0.007497 457230.000000 0 0 1
-11.684222 25.134184 -1.295239 27.747538 -1.135642 1.617493 0.022769 0.011476 507064.000000 0 0 1
-10.559522 24.506784 -0.663939 26.693197 -1.163954 1.595672 0.027900 0.004075 369009.000000 0 0 1
-10.851622 23.045184 -0.242139 25.473453 -1.130711 1.580302 0.021911 0.000222 -145988.000000 0 0 1
-11.647822 23.009084 0.922661 25.805833 -1.102179 1.535035 0.024270 -0.004352 -32081.600000 0 0 1
-12.106322 21.687684 1.166161 24.865208 -1.061670 1.523880 0.028281 -0.011455 200497.000000 0 1 0
-13.148022 21.624584 2.347361 25.416593 -1.024506 1.478309 0.028224 -0.009693 160601.000000 0 0 1
-12.592622 21.785184 3.612861 25.420880 -1.046683 1.428192 0.035072 -0.019567 -39451.200000 0 0 1
-12.633722 23.139484 4.066861 26.675569 -1.071044 1.417743 0.016972 -0.013373 -71851.900000 0 0 1
-12.287222 23.246784 5.549061 26.873423 -1.084566 1.362811 0.012051 -0.014785 364934.000000 0 0 1
-10.968022 23.056784 6.068161 26.243768 -1.126780 1.337462 -0.001127 -0.010882 550248.000000 0 0 1
-11.120322 22.775884 7.459861 26.420673 -1.116593 1.284554 -0.009868 -0.002637 -96604.600000 0 0 1
-9.895022 22.184884 8.180961 25.632180 -1.151253 1.245945 -0.002835 -0.013740 146376.000000 0 0 1
-8.830322 23.092584 8.457561 26.129913 -1.205564 1.241187 0.002311 -0.017736 643170.000000 0 0 1
-7.796922 22.501884 9.269061 25.554691 -1.237242 1.199617 0.011843 -0.019423 -163124.000000 0 0 1
-7.979122 22.355984 10.837761 26.094318 -1.227977 1.142490 0.014336 -0.021380 61862.100000 0 0 1
-8.892922 21.274684 11.088461 25.586133 -1.174865 1.122559 0.010729 -0.019921 426573.000000 0 0 1
-8.571022 20.780684 12.365761 25.655628 -1.179602 1.067872 0.006776 -0.020244 120572.000000 0 0 1
-9.604822 19.708984 12.838761 25.407291 -1.117334 1.041046 0.011792 -0.019629 29617.400000 0 0 1
-9.505522 18.517884 12.095561 24.074251 -1.096553 1.044392 0.013715 -0.027581 89382.300000 0 1 0
-10.309322 17.485684 12.665561 23.925879 -1.038069 1.012943 0.016977 -0.025504 -10612.300000 0 1 0
-10.436022 16.303484 11.773661 22.656858 -1.001405 1.024354 0.015169 -0.027628 -199753.000000 0 1 0
-11.040722 15.162884 12.347461 22.455965 -0.941432 0.988609 0.010840 -0.023419 -142823.000000 0 1 0
-11.415422 14.254884 11.368161 21.511593 -0.895563 1.014003 0.009256 -0.019198 -6709.570000 0 1 0
-11.858822 12.842484 11.894161 21.143134 -0.825199 0.973324 0.017187 -0.025882 883438.000000 0 1 0
-12.983622 12.896184 12.796361 22.330088 -0.782020 0.960568 0.032776 -0.020217 431336.000000 0 1 0
-13.195522 11.618484 13.344361 22.072221 -0.721929 0.921561 0.021259 -0.011713 168368.000000 0 1 0
-13.958922 11.684584 14.699861 23.398011 -0.696939 0.891491 0.020057 -0.008487 208427.000000 0 1 0
-15.239622 12.246784 14.556861 24.374823 -0.676941 0.930780 0.021223 -0.012837 -762.172000 0 1 0
-15.905622 12.493084 15.827561 25.682243 -0.665806 0.906781 0.015513 -0.010250 176118.000000 0 0 1
-16.860422 13.698284 15.759961 26.838278 -0.682288 0.943177 0.027053 -0.012822 506980.000000 0 0 1
-17.947422 13.440284 14.853261 26.895549 -0.642777 0.985727 0.023258 -0.013593 863617.000000 0 0 1
-18.876822 14.518784 14.646761 27.958131 -0.655634 1.019394 0.048943 -0.011283 768912.000000 0 0 1
-20.150222 14.109684 13.856061 28.233049 -0.610877 1.057818 0.053232 -0.017699 14799.200000 0 0 1
-21.004022 13.228084 14.537261 28.766006 -0.562035 1.040994 0.055661 -0.013291 -434110.000000 0 0 1
-22.209422 13.058484 13.869361 29.259897 -0.531527 1.076962 0.049769 -0.018425 -7399.800000 0 0 1
-23.239322 12.108784 14.609561 30.002133 -0.480343 1.062201 0.038314 -0.015330 614481.000000 0 0 1
-23.852222 12.579484 15.795561 31.251746 -0.485321 1.040916 0.041790 -0.013973 37774.000000 0 0 1
-24.503422 11.668184 16.586561 31.806889 -0.444415 1.022215 0.039586 -0.015433 -353929.000000 0 0 1
-25.288062 12.282284 17.774561 33.260721 -0.452138 1.006997 0.032342 -0.014922 -161495.000000 0 0 1
-26.419302 12.993284 17.291961 34.144060 -0.457074 1.039744 0.027016 -0.005125 57168.600000 0 0 1
-27.068732 13.446984 18.431461 35.401361 -0.461062 1.023193 0.015610 0.004850 -75246.300000 0 0 1
-28.149712 14.520784 18.102161 36.482156 -0.476240 1.051589 0.009544 0.006240 333893.000000 0 0 1
-27.577702 15.757684 17.781761 36.400896 -0.519119 1.060429 0.010857 0.011637 208743.000000 0 0 1
-28.596882 16.661284 17.424961 37.403333 -0.527546 1.086183 0.009365 0.010236 94683.300000 0 0 1
-27.934332 18.079584 17.163361 37.440342 -0.574417 1.094581 0.017067 0.010341 -400080.000000 0 0 1
-27.372992 18.581084 18.345461 37.829794 -0.596363 1.064493 0.016409 0.011267 -781583.000000 0 0 1
-28.182802 19.093584 19.325061 39.144517 -0.595459 1.054474 0.022657 0.001319 -1333580.000000 0 0 1
-27.544192 19.354584 20.704661 39.521708 -0.612518 1.019396 0.024082 -0.006680 113925.000000 0 0 1
-27.153992 18.180784 21.419561 39.072724 -0.589992 0.990589 0.023439 -0.003786 173588.000000 0 0 1
-26.030932 17.450384 20.935661 37.688555 -0.590563 0.981843 0.034597 0.001974 -172330.000000 0 0 1
-25.754962 16.205684 21.807161 37.436540 -0.561632 0.948983 0.029951 -0.003039 590049.000000 0 0 1
-26.809612 15.228284 21.686061 37.695373 -0.516570 0.957828 -0.002910 0.002606 907783.000000 0 0 1
-26.341332 14.042584 22.216461 37.210631 -0.489776 0.930983 -0.003765 0.011573 950964.000000 0 0 1
-27.592462 13.095984 22.464261 37.914269 -0.443140 0.936636 0.001447 0.001839 1386270.000000 0 0 1
-28.360462 12.658684 21.319861 37.670871 -0.419814 0.969210 0.007258 -0.002072 807296.000000 0 0 1
-29.496202 11.878284 21.707761 38.501252 -0.382837 0.971793 0.017642 -0.008305 642312.000000 0 0 1
-30.460052 11.465384 20.524561 38.477622 -0.360004 1.008163 0.026346 -0.005679 27788.300000 0 0 1
-29.945272 10.775884 19.400461 37.272200 -0.345425 1.023351 0.022196 -0.008666 257885.000000 0 0 1
-29.103402 9.633484 19.598661 36.385705 -0.319657 1.001979 0.028114 -0.011248 -12019.300000 0 0 1
-28.201462 9.388584 18.373061 34.943345 -0.321371 1.017146 0.038619 -0.012730 -308502.000000 0 0 1
-28.894032 8.937784 17.226861 34.806807 -0.299994 1.053044 0.029882 -0.009939 395790.000000 0 0 1
-29.735392 9.891484 16.583061 35.454660 -0.321136 1.084080 0.014224 -0.006362 -303032.000000 0 0 1
-29.088612 11.026184 15.758861 34.872135 -0.362321 1.101898 0.019151 -0.011886 -393993.000000 0 0 1
-28.594942 10.613084 14.515161 33.778664 -0.355393 1.126620 0.013960 -0.012321 502604.000000 0 0 1
-27.661092 11.600484 14.062661 33.128019 -0.397100 1.132393 0.030539 -0.009618 89134.800000 0 0 1
-27.493192 11.726784 12.519761 32.405825 -0.403169 1.174133 0.029990 -0.009073 -324843.000000 0 0 1
-26.815842 10.676084 11.811661 31.186271 -0.378890 1.182356 0.053210 -0.004590 968799.000000 0 0 1
-27.562382 9.449584 11.779961 31.428443 -0.330285 1.186595 0.032449 0.007345 -250605.000000 0 0 1
-26.843762 8.299384 10.987961 30.169564 -0.299852 1.198015 0.024984 0.014976 -49989.300000 0 0 1
-26.598542 8.492684 9.608261 29.528407 -0.309060 1.239372 0.030815 0.015047 555707.000000 0 0 1
-25.969092 7.354884 9.013961 28.455923 -0.275989 1.248475 0.030393 0.016383 -103682.000000 0 0 1
-25.361772 7.594884 7.611061 27.546869 -0.290963 1.290859 0.025545 0.025635 56086.700000 0 0 1
-26.286992 7.808884 6.545761 28.192758 -0.288760 1.336479 0.017598 0.018842 -120441.000000 0 0 1
-25.617762 8.130884 5.378661 27.410053 -0.307336 1.373285 0.015198 0.020569 -622277.000000 0 0 1
-26.427412 8.314384 4.117761 28.008803 -0.304808 1.423245 -0.003925 0.009482 -716192.000000 0 0 1
-27.001162 7.115984 3.559161 28.149025 -0.257684 1.444017 0.007692 0.006892 444015.000000 0 0 1
-26.175602 6.051384 3.002861 27.033286 -0.227193 1.459486 0.017455 0.003736 79572.500000 0 0 1
-25.292142 6.392784 1.748061 26.146048 -0.247572 1.503889 0.042117 -0.002826 95888.300000 0 0 1
-24.366422 7.421984 2.006161 25.550598 -0.295671 1.492198 0.045948 0.003088 383257.000000 0 0 1
-23.353522 7.460584 1.013761 24.537217 -0.309216 1.529469 0.053427 -0.001739 -323389.000000 0 1 0
-22.040422 8.149284 1.337161 23.536759 -0.354154 1.513954 0.047545 0.000159 -498985.000000 0 1 0
-22.303822 9.519484 1.525261 24.298302 -0.403402 1.507983 0.029425 -0.005581 555628.000000 0 1 0
-21.309522 10.170184 2.266861 23.720603 -0.445291 1.475085 0.057250 -0.008958 -353174.000000 0 1 0
-21.781222 11.599084 2.523061 24.805770 -0.489329 1.468907 0.057079 -0.010069 -119166.000000 0 1 0
-20.728722 12.478084 2.850961 24.362070 -0.541867 1.453503 0.047989 -0.012574 281825.000000 0 1 0
-21.186522 13.680384 3.336361 25.439200 -0.573355 1.439267 0.041788 -0.015678 -64648.600000 0 0 1
-20.114022 14.507484 4.132561 25.141977 -0.624854 1.405678 0.028689 -0.008582 264657.000000 0 0 1
-19.800122 13.767284 5.289361 24.689274 -0.607573 1.354886 0.035492 -0.010066 -31018.200000 0 1 0
-18.920922 14.480084 6.111161 24.597162 -0.653218 1.319717 0.030081 -0.009520 -518016.000000 0 1 0
-18.218322 13.614384 7.188361 23.852279 -0.641765 1.264667 0.020630 -0.006577 76238.100000 0 1 0
-17.364522 12.668984 6.530661 22.465069 -0.630310 1.275835 0.034318 -0.006498 527900.000000 0 1 0
-16.791322 11.716284 7.455761 21.790093 -0.609220 1.221579 0.021124 -0.006665 -108670.000000 0 1 0
9.809378 -32.846830 -14.570939 37.248496 -1.280588 1.972712 -0.014001 0.011281 -350719.000000 0 0 1
10.823878 -32.841230 -13.564139 37.144160 -1.252426 1.944618 -0.017152 0.013225 533888.000000 0 0 1
11.676678 -31.735930 -13.869039 36.549478 -1.218236 1.960008 -0.016377 -0.003355 135221.000000 0 0 1
13.090478 -31.749430 -13.247939 36.808896 -1.179727 1.938969 -0.008195 -0.003033 -45334.000000 0 0 1
14.003578 -32.645330 -13.812839 38.113151 -1.165575 1.941656 -0.006123 -0.001942 172766.000000 0 0 1
15.350478 -32.283530 -13.516639 38.217313 -1.126949 1.932297 0.003614 -0.010164 711324.000000 0 0 1
16.391478 -33.232930 -14.128739 39.657653 -1.112579 1.935067 0.012883 -0.017627 155032.000000 0 0 1
16.190278 34.511584 -13.530839 40.450688 1.132152 1.911873 0.016153 -0.014434 -389971.000000 0 0 1
17.232278 33.647284 -13.875339 40.269295 1.097480 1.922570 0.019818 -0.012677 -243055.000000 0 0 1
17.220978 32.313184 -13.163339 38.909863 1.081146 1.915910 0.022962 -0.008766 -242886.000000 0 0 1
18.007678 32.308084 -12.008039 38.888067 1.062310 1.884711 0.022376 -0.009149 -398658.000000 0 0 1
18.060078 31.039684 -11.437139 37.688679 1.043838 1.879122 0.006713 -0.011590 58271.500000 0 0 1
19.025478 30.827684 -10.256039 37.649718 1.017858 1.846690 0.008225 -0.003828 891017.000000 0 0 1
20.386778 30.535984 -10.623939 38.222181 0.982126 1.852458 0.014282 -0.006209 746708.000000 0 0 1
21.127578 30.259784 -9.448839 38.096058 0.961275 1.821439 0.010725 0.002561 -562816.000000 0 0 1
22.386678 29.455484 -9.684739 38.243732 0.920915 1.826821 0.003684 0.010966 -572503.000000 0 0 1
23.336778 30.163384 -10.461039 39.545774 0.912312 1.838513 0.007133 -0.002353 -444923.000000 0 0 1
24.573678 29.517884 -10.365939 39.782205 0.876549 1.834406 0.005233 0.006836 -159800.000000 0 0 1
25.658178 30.084884 -11.329739 41.131561 0.864645 1.849855 0.000711 -0.000593 36303.700000 0 0 1
26.123778 31.354684 -10.885739 42.238221 0.876155 1.831461 0.001247 -0.010203 146922.000000 0 0 1
27.118778 31.860784 -11.756239 43.459715 0.865626 1.844718 -0.005786 -0.000234 124518.000000 0 0 1
27.579878 33.309984 -11.338339 44.707523 0.879228 1.827208 -0.003775 -0.008680 -466826.000000 0 0 1
26.790278 34.328484 -11.900439 45.141824 0.908115 1.837573 0.000482 -0.005589 -38299.100000 0 0 1
27.203678 -33.450930 -11.447239 44.609910 -0.888033 1.830307 0.019002 -0.013777 414837.000000 0 0 1
26.227378 -32.256730 -11.871339 43.235410 -0.888129 1.848943 0.017612 -0.017521 693072.000000 0 0 1
24.948678 -32.345530 -11.266039 42.374444 -0.913791 1.839901 0.013757 -0.010521 536012.000000 0 0 1
23.896878 -31.497030 -11.777739 41.253349 -0.921749 1.860322 0.024898 -0.014078 812504.000000 0 0 1
24.018378 -30.059230 -11.338039 40.112229 -0.896644 1.857360 0.027174 -0.026409 -325863.000000 0 0 1
24.959278 -29.331130 -12.126339 40.377331 -0.865752 1.875830 0.023610 -0.015696 165131.000000 0 0 1
25.553978 -28.238030 -11.441639 39.765604 -0.835254 1.862649 0.020302 -0.007798 382882.000000 0 0 1
26.574878 -27.411030 -12.296039 40.109616 -0.800885 1.882374 0.036220 -0.004509 864423.000000 0 0 1
27.788678 -28.051930 -12.680939 41.472010 -0.790112 1.881544 0.025165 0.001103 309835.000000 0 0 1
27.672078 -28.837930 -13.831639 42.292841 -0.806026 1.903971 0.027626 -0.010054 -306845.000000 0 0 1
28.897478 -29.710830 -14.151939 43.795834 -0.799275 1.899836 0.019428 0.004370 -37738.100000 0 0 1
29.170778 -30.767430 -13.248539 44.419510 -0.812030 1.873665 0.010585 -0.005363 159804.000000 0 0 1
30.236978 -31.585530 -13.697839 45.820862 -0.807208 1.874381 -0.007005 0.000654 -54934.000000 0 0 1
30.752778 -32.556130 -12.652839 46.537397 -0.813875 1.846148 -0.005613 0.007069 309145.000000 0 0 1
31.871178 -33.326130 -13.115439 47.941816 -0.807711 1.847899 -0.003320 0.001706 315305.000000 0 0 1
32.514678 -34.147030 -12.170839 48.696543 -0.809880 1.823407 -0.001224 0.002971 -378505.000000 0 0 1
31.844978 33.657884 -11.592739 47.763452 0.813068 1.815956 -0.006572 -0.004697 -478644.000000 0 0 1
31.172078 33.966984 -10.428139 47.267330 0.828279 1.793247 -0.012691 -0.011071 -455442.000000 0 0 1
30.701678 32.850084 -9.752339 46.009012 0.819191 1.784382 -0.007545 -0.009398 -675712.000000 0 0 1
30.022178 33.172084 -8.425139 45.526929 0.835202 1.756928 -0.009850 -0.011761 426799.000000 0 0 1
28.888578 34.029684 -8.637339 45.466174 0.866928 1.761931 -0.018056 -0.014917 161831.000000 0 0 1
28.309478 -34.488230 -7.470139 45.240110 -0.883474 1.736678 -0.007191 -0.007151 140495.000000 0 0 1
27.294878 -33.382030 -7.696439 43.801889 -0.885384 1.747423 -0.006782 -0.011288 -364840.000000 0 0 1
27.908878 -32.109930 -7.964739 43.282677 -0.855280 1.755868 -0.021606 -0.013477 444745.000000 0 0 1
26.984878 -31.101930 -8.381339 42.020954 -0.856157 1.771599 -0.005900 -0.010751 181316.000000 0 0 1
26.067778 -30.469130 -7.321839 40.761578 -0.863091 1.751403 -0.000380 -0.006686 205611.000000 0 0 1
25.301478 -29.479030 -8.003639 39.664042 -0.861511 1.773977 0.011106 -0.014970 15730.500000 0 0 1
24.269578 -28.916930 -7.224039 38.436805 -0.872555 1.759867 0.008457 -0.016689 5485.490000 0 0 1
23.266578 -28.071930 -8.045439 37.337595 -0.878728 1.787978 0.031679 -0.025533 -216606.000000 0 0 1
22.428278 -28.872730 -8.821439 37.609573 -0.910364 1.807555 0.039989 -0.029467 -612043.000000 0 0 1
21.350678 -28.198030 -9.374139 36.590365 -0.922723 1.829876 0.046276 -0.037233 436711.000000 0 0 1
20.222078 -29.226630 -9.861139 36.883200 -0.965523 1.841450 0.043463 -0.033515 500261.000000 0 0 1
20.349978 -29.550330 -11.244039 37.600160 -0.967725 1.874485 0.049798 -0.029878 12322.500000 0 0 1
19.432378 -30.488830 -11.799939 38.031890 -1.003358 1.886267 0.049301 -0.028176 228826.000000 0 0 1
19.135578 -31.831330 -11.130239 38.772234 -1.029528 1.861960 0.047174 -0.028415 77639.100000 0 0 1
20.163678 -32.779730 -11.324839 40.116538 -1.019329 1.856986 0.040600 -0.026700 156494.000000 0 0 1
19.763778 -34.054330 -10.833739 40.837167 -1.044943 1.839302 0.037661 -0.018350 555004.000000 0 0 1
21.053878 34.145984 -10.845739 41.555313 1.018272 1.834849 0.015725 -0.011996 793299.000000 0 0 1
22.092178 -34.434230 -9.999939 42.116260 -1.000366 1.810522 0.014783 -0.010291 -699345.000000 0 0 1
23.288078 34.049784 -10.393539 42.541133 0.970929 1.817612 0.016366 -0.015943 -806215.000000 0 0 1
24.422778 34.396084 -9.422239 43.224313 0.953360 1.790545 0.015271 -0.011231 -854014.000000 0 0 1
24.428078 33.752684 -8.138939 42.452526 0.944316 1.763709 0.008610 -0.009821 69075.400000 0 0 1
24.695178 32.365084 -7.979139 41.485143 0.919015 1.764340 -0.001463 0.002250 -219518.000000 0 0 1
24.830578 32.017584 -6.460239 41.029477 0.911156 1.728908 -0.003621 -0.001738 241092.000000 0 0 1
25.976378 32.541284 -5.764139 42.034898 0.897118 1.708357 0.000720 -0.006890 372692.000000 0 0 1
26.934678 31.586984 -5.361339 41.856402 0.864728 1.699238 0.011545 -0.007618 111984.000000 0 0 1
26.497978 30.484584 -4.317839 40.621379 0.855246 1.677292 0.012336 0.001841 -433068.000000 0 0 1
26.065178 30.971484 -3.051539 40.594805 0.871207 1.646038 0.009733 0.003049 -27759.300000 0 0 1
25.839278 29.999384 -2.075739 39.647699 0.859763 1.623175 0.001223 0.005570 -204594.000000 0 0 1
24.508678 29.230884 -2.116539 38.204706 0.873045 1.626225 -0.011015 0.015156 301274.000000 0 0 1
23.404278 29.908384 -1.498439 38.006801 0.906798 1.610232 -0.026288 0.023388 448157.000000 0 0 1
22.276378 29.063384 -1.386139 36.644763 0.916834 1.608632 -0.012987 0.022777 448567.000000 0 0 1
21.040878 29.663084 -0.666039 36.373901 0.953837 1.589108 0.003915 0.012849 361006.000000 0 0 1
21.192278 29.519384 0.760561 36.346735 0.948151 1.549870 0.014593 -0.001187 868578.000000 0 0 1
20.053578 30.114784 1.418661 36.208546 0.983321 1.531606 0.011638 -0.005838 463742.000000 0 0 1
19.524178 29.200084 2.506761 35.215370 0.981433 1.499552 0.009221 -0.013275 -388113.000000 0 0 1
19.039078 27.908084 2.019761 33.844158 0.972112 1.511083 0.028386 -0.007309 213766.000000 0 0 1
18.408278 27.161284 3.010661 32.949417 0.975167 1.479297 0.039576 -0.015689 -440919.000000 0 0 1
17.931178 25.829084 2.398761 31.534469 0.963957 1.494655 0.024156 -0.005650 -29267.800000 0 0 1
18.930478 24.914084 1.999761 31.354005 0.921033 1.506973 0.020899 -0.006011 -84225.800000 0 0 1
19.820478 24.455884 3.001361 31.621982 0.889711 1.475739 0.020154 -0.004799 115390.000000 0 0 1
21.053878 23.780884 2.316361 31.845906 0.846147 1.497996 0.012588 0.006955 71863.800000 0 0 1
20.674578 22.602684 1.642361 30.675998 0.829921 1.517232 0.032854 -0.003787 709977.000000 0 0 1
21.838778 21.915384 1.190361 30.961803 0.787149 1.532341 0.017566 -0.009171 377999.000000 0 0 1
21.506078 20.952584 0.013561 30.025362 0.772363 1.570345 0.039686 -0.015552 -113487.000000 0 0 1
21.433478 21.607584 -1.233839 30.459875 0.789443 1.611314 0.025695 -0.008815 203375.000000 0 0 1
21.274678 20.665984 -2.222139 29.742776 0.770886 1.645578 0.063725 -0.020930 -72196.900000 0 0 1
21.103578 21.369584 -3.591039 30.247573 0.791661 1.689799 0.036632 -0.013706 435275.000000 0 0 1
22.233578 22.175584 -3.941239 31.648410 0.784092 1.695652 0.009663 0.004996 765450.000000 0 0 1
21.893578 22.857884 -5.149239 32.067527 0.806943 1.732069 0.025481 -0.005165 53652.600000 0 0 1
22.670778 24.204884 -5.416539 33.603266 0.818114 1.732694 0.011310 0.012181 52806.400000 0 0 1
22.587878 25.328084 -4.508539 34.235230 0.842524 1.702873 -0.011424 0.017648 56481.200000 0 0 1
22.969378 25.076984 -3.146139 34.151803 0.829236 1.663049 -0.000539 0.018165 -1324490.000000 0 0 1
21.902578 24.801184 -2.160139 33.158526 0.847382 1.635988 0.003789 0.009790 -3026560.000000 0 0 1
21.189478 26.018484 -1.932439 33.610858 0.887336 1.628323 0.005156 0.018966 479422.000000 0 0 1
20.122778 25.955384 -0.998439 32.857343 0.911309 1.601188 0.026234 0.009357 -1075.360000 0 0 1
19.108378 24.809084 -1.218539 31.338564 0.914481 1.609689 0.044900 -0.003179 -2342640.000000 0 0 1
18.521078 24.980484 -2.452539 31.194067 0.932808 1.649500 0.043086 0.002412 -369426.000000 0 0 1
17.940778 23.780384 -2.935639 29.933195 0.924462 1.669027 0.060606 -0.004153 -413785.000000 0 0 1
17.071878 24.146784 -4.109739 29.856425 0.955385 1.708885 0.054911 -0.019961 -706179.000000 0 0 1
16.546378 23.022784 -4.777139 28.751561 0.947633 1.737723 0.051675 -0.026335 -78421.000000 0 0 1
16.199978 23.496684 -6.076539 29.179749 0.967181 1.780577 0.040544 -0.026818 -477704.000000 0 0 1
15.397378 22.546484 -6.916439 28.164877 0.971628 1.818904 0.049413 -0.015781 -620607.000000 0 0 1
16.053178 21.308284 -7.149639 27.620008 0.925137 1.832635 0.028576 -0.014745 54327.100000 0 0 1
15.193178 20.481784 -7.879339 26.691199 0.932570 1.870465 0.033017 -0.004479 -584531.000000 0 0 1
15.785078 19.238784 -8.514939 26.302161 0.883690 1.900471 0.016046 -0.001478 -260322.000000 0 0 1
16.616178 19.546484 -9.617339 27.398095 0.866253 1.929459 0.014169 -0.004258 283047.000000 0 0 1
17.154478 18.372684 -10.269739 27.153253 0.819674 1.958663 -0.008426 -0.004004 607521.000000 0 0 1
18.668878 18.477584 -10.631839 28.336974 0.780248 1.955401 -0.014817 -0.001192 395036.000000 0 0 1
18.906178 18.995184 -11.914339 29.329372 0.787747 1.989116 -0.015139 0.002621 184336.000000 0 0 1
20.271278 19.248384 -12.202639 30.501301 0.759521 1.982389 -0.007970 0.004627 96932.500000 0 0 1
20.549878 19.625784 -13.681139 31.537952 0.762401 2.019501 -0.009082 0.001293 -441986.000000 0 0 1
20.433178 18.536084 -14.551239 31.190379 0.736755 2.056160 -0.013938 0.006064 192328.000000 0 0 1
20.493578 18.977884 -15.862139 32.120932 0.747017 2.087280 -0.009698 0.001776 -97967.500000 0 0 1
20.360578 17.874184 -16.995839 31.982779 0.720460 2.131056 -0.010443 -0.001555 -744665.000000 0 0 1
21.358678 16.914384 -17.078139 32.155129 0.669795 2.130715 0.002750 -0.005319 -556790.000000 0 0 1
21.428478 16.278584 -18.361539 32.577877 0.649662 2.169558 0.010056 -0.012378 -706165.000000 0 0 1
22.269378 16.982184 -19.425439 34.083243 0.651504 2.177230 0.013279 -0.008342 -49760.400000 0 0 1
23.645078 16.870684 -19.056139 34.739691 0.619727 2.151414 0.042539 -0.014311 439323.000000 0 0 1
24.527978 17.273984 -20.083939 36.102311 0.613577 2.160730 0.058273 -0.015432 -414451.000000 0 0 1
25.970578 17.322084 -19.597539 36.859043 0.588226 2.131390 0.066507 -0.018763 -501470.000000 0 0 1
26.195378 18.522484 -18.856039 37.213310 0.615468 2.102151 0.052067 -0.017835 1189500.000000 0 0 1
27.574478 18.841284 -18.538439 38.197114 0.599421 2.077544 0.056607 -0.025108 1236170.000000 0 0 1
27.581578 19.865584 -17.363939 38.169245 0.624187 2.043078 0.042341 -0.018118 715413.000000 0 0 1
26.794278 19.338684 -16.243839 36.820922 0.625173 2.027685 0.024051 -0.023343 754010.000000 0 0 1
25.547478 20.006584 -16.155639 36.248334 0.664359 2.032745 0.027153 -0.014969 176086.000000 0 0 1
24.539378 19.585584 -15.056139 34.820446 0.673599 2.017942 0.023665 -0.010209 84543.100000 0 0 1
25.017178 19.867884 -13.757739 34.783148 0.671176 1.977440 0.021389 -0.009794 -219893.000000 0 0 1
24.106578 19.619484 -12.737539 33.590120 0.683138 1.959733 0.021459 -0.009995 -696555.000000 0 0 1
24.612478 20.063484 -11.321639 33.711971 0.683926 1.913287 0.029013 -0.010687 -12728.900000 0 0 1
24.650778 21.474284 -11.092439 34.523151 0.716640 1.897903 0.022790 -0.008709 54685.500000 0 0 1
25.253378 21.887984 -9.870039 34.845869 0.714130 1.857976 0.016867 -0.006719 87641.100000 0 0 1
24.487078 21.560284 -8.554939 33.729065 0.721923 1.827235 0.024204 -0.006215 -413036.000000 0 0 1
24.687578 20.216384 -8.023839 32.902290 0.686153 1.817149 0.036499 -0.007961 232491.000000 0 0 1
23.897678 19.914884 -6.896439 31.863184 0.694742 1.788962 0.039701 -0.012453 -494800.000000 0 0 1
22.408078 19.618384 -7.014239 30.597426 0.719116 1.802096 0.027434 -0.009657 -265129.000000 0 0 1
21.647078 20.746284 -7.455439 30.896405 0.764153 1.814506 0.025344 -0.004531 1780800.000000 0 0 1
20.214778 20.495284 -7.643039 29.784391 0.792288 1.830312 0.033346 -0.011399 1731470.000000 0 0 1
19.473878 21.831984 -7.859939 30.292674 0.842425 1.833266 0.024512 -0.007938 -721965.000000 0 0 1
19.839078 22.569384 -9.015339 31.372638 0.849691 1.862269 0.012679 0.000926 -66386.500000 0 0 1
19.149878 22.192784 -10.169839 31.026813 0.858868 1.904745 0.002115 -0.002444 -33464.000000 0 0 1
17.633178 22.470284 -10.240339 30.343157 0.905434 1.915039 0.014649 0.001560 -454704.000000 0 0 1
17.340178 23.841684 -10.143939 31.177029 0.941979 1.902195 0.021743 0.000392 1039480.000000 0 0 1
15.944378 24.134784 -10.391139 30.735757 0.986978 1.915672 0.015780 0.005292 1218580.000000 0 0 1
15.505578 25.595584 -10.072239 31.575415 1.026130 1.895460 0.034932 -0.003973 291331.000000 0 0 1
16.101978 26.559384 -10.970939 32.939886 1.025784 1.910343 0.022537 0.001563 232899.000000 0 0 1
16.295078 27.802584 -10.372339 33.854079 1.040661 1.882188 0.040158 -0.010965 40126.600000 0 0 1
19.141778 29.527184 33.591827 48.648464 0.995634 0.808614 0.007321 0.015075 397842.000000 0 0 1
17.756678 29.828684 33.435178 48.197107 1.033848 0.804159 0.008544 -0.000938 -76886.500000 0 0 1
17.029178 28.663284 33.526418 47.282105 1.034718 0.782615 0.008702 -0.004224 146551.000000 0 0 1
15.492878 28.947684 33.507088 46.911860 1.079385 0.775236 0.028995 -0.015392 592879.000000 0 0 1
14.973478 29.345284 32.256397 46.106679 1.098981 0.795954 0.040097 -0.017590 249507.000000 0 0 1
13.648378 29.874084 32.328877 46.085739 1.142249 0.793304 0.033399 -0.009232 200542.000000 0 0 1
12.962878 29.911684 30.940087 44.944788 1.161856 0.811513 0.031946 -0.010281 -87013.200000 0 0 1
12.616378 28.590684 30.527947 43.687020 1.155221 0.797095 0.027175 -0.013221 196571.000000 0 0 1
11.402978 28.057684 31.034977 43.363940 1.184775 0.773190 0.018107 -0.008489 -290781.000000 0 0 1
11.305878 26.510584 30.949917 42.291031 1.167684 0.749790 0.004857 -0.009311 87278.700000 0 0 1
11.331578 25.889484 29.682927 40.984706 1.158226 0.760859 0.001720 -0.001987 391057.000000 0 0 1
12.674478 25.866484 29.218897 41.030005 1.115184 0.778262 0.005512 -0.012119 97207.800000 0 0 1
12.824278 25.163984 27.841457 39.658982 1.099476 0.792564 0.014163 -0.021025 -310761.000000 0 0 1
12.101578 25.793584 26.834357 39.138726 1.132115 0.815339 0.012901 -0.011928 -204830.000000 0 0 1
12.049978 25.154984 25.585127 37.849358 1.124065 0.828513 0.022768 -0.015809 559993.000000 0 0 1
11.042478 23.940584 25.392927 36.604489 1.138630 0.804168 0.014546 -0.008643 159433.000000 0 0 1
11.178278 23.501084 24.084877 35.458936 1.126818 0.824079 0.029693 -0.013029 592579.000000 0 0 1
10.229778 22.433984 23.811777 34.277291 1.142968 0.802820 0.029021 -0.010658 648437.000000 0 0 1
10.388078 21.996784 22.350577 33.035117 1.129591 0.827701 0.043744 -0.016803 -218935.000000 0 0 1
9.899378 22.919784 21.453777 32.917757 1.163084 0.860922 0.042101 -0.019519 11793.700000 0 0 1
10.256478 22.601184 20.119277 31.949869 1.144785 0.889611 0.043826 -0.011072 -353384.000000 0 0 1
9.957378 23.893084 19.184977 32.219437 1.175937 0.932974 0.030531 -0.008892 632235.000000 0 0 1
8.600478 24.228784 18.933977 31.929573 1.229701 0.936027 0.026679 -0.009671 361282.000000 0 0 1
7.812878 24.791984 19.998077 32.796442 1.265511 0.915034 0.016860 -0.007284 540895.000000 0 0 1
6.556278 25.472984 19.360177 32.659977 1.318882 0.936290 0.017650 -0.004977 65130.300000 0 0 1
6.801178 26.637884 18.606477 33.196895 1.320817 0.975821 0.015858 -0.012322 -857450.000000 0 0 1
5.670178 27.326384 18.211377 33.324712 1.366201 0.992638 0.016359 -0.012968 -968981.000000 0 0 1
6.000878 28.414484 17.225077 33.765318 1.362664 1.035447 0.015027 -0.013356 34602.600000 0 0 1
6.542678 27.887484 16.045377 32.832491 1.340354 1.060192 0.020415 -0.012753 -235817.000000 0 0 1
6.992878 28.879984 15.168977 33.362429 1.333233 1.098792 0.005951 -0.009237 -295151.000000 0 0 1
7.533478 28.203084 13.926077 32.343513 1.309775 1.125674 0.009637 -0.012569 233029.000000 0 0 1
6.523578 27.671384 13.040477 31.278053 1.339272 1.140741 0.006841 -0.016559 149248.000000 0 0 1
7.048778 26.805284 12.076677 30.233336 1.313656 1.159881 0.009524 -0.018212 -244394.000000 0 0 1
6.450478 26.878984 10.643777 29.620574 1.335268 1.203239 -0.000663 -0.019205 -291793.000000 0 0 1
6.898078 27.926584 9.746077 30.372085 1.328636 1.244128 -0.004202 -0.015390 -53818.600000 0 0 1
6.556078 29.291884 10.013377 31.642761 1.350606 1.248811 -0.002495 -0.010335 -105513.000000 0 0 1
6.857178 30.313784 8.865077 32.319281 1.348334 1.292938 0.000269 -0.004900 -202171.000000 0 0 1
5.876178 30.312684 7.851177 31.859523 1.379319 1.321800 0.000850 -0.005890 -39316.600000 0 0 1
6.139478 29.261684 6.971177 30.700759 1.363983 1.341730 0.010365 -0.005573 242763.000000 0 0 1
4.839978 28.612184 6.419377 29.720209 1.403225 1.353087 0.008100 -0.000195 281352.000000 0 0 1
4.198078 29.439984 5.454377 30.233867 1.429153 1.389397 -0.011165 -0.005049 883921.000000 0 0 1
2.826878 28.983084 5.322777 29.603080 1.473568 1.390008 0.013508 -0.015082 1163440.000000 0 0 1
1.820778 30.074784 4.917077 30.528437 1.510328 1.409026 0.020865 -0.013677 -589426.000000 0 0 1
1.939878 30.527584 3.547877 30.794219 1.507337 1.455327 0.012721 -0.012895 -85541.100000 0 0 1
0.777878 31.112084 3.018477 31.267844 1.545799 1.474110 0.019264 -0.015807 196204.000000 0 0 1
-0.375822 30.137584 2.631777 30.254610 -1.558327 1.483699 0.019538 -0.004278 -175993.000000 0 0 1
-0.136922 29.470984 1.438677 29.506396 -1.566150 1.522019 0.020099 0.000834 -329560.000000 0 0 1
-0.987322 28.363284 1.366877 28.413360 -1.536001 1.522671 0.022802 -0.000098 45351.000000 0 0 1
-1.290722 27.931384 -0.091123 27.961339 -1.524619 1.574055 0.016131 -0.004060 -194425.000000 0 0 1
-2.172522 28.766784 -0.780623 28.859263 -1.495418 1.597849 0.019617 -0.005068 -424535.000000 0 0 1
-1.589322 29.858584 -1.477723 29.937345 -1.517618 1.620177 0.012458 -0.000427 -243049.000000 0 0 1
-2.553222 30.941984 -2.106123 31.118500 -1.488466 1.638529 0.008741 -0.000132 -4590.150000 0 0 1
-3.539622 30.471084 -2.991523 30.821503 -1.455151 1.668009 0.004488 0.001217 -21617.800000 0 0 1
-3.104022 29.721384 -4.133023 30.167491 -1.466736 1.708231 0.009757 0.004440 -603774.000000 0 0 1
-4.304322 29.211984 -4.928223 29.935841 -1.424501 1.736175 0.004811 0.004840 354769.000000 0 0 1
-5.075622 30.276684 -5.526523 31.192659 -1.404700 1.748910 -0.009026 0.002279 925842.000000 0 0 1
-6.266822 29.782384 -6.182523 31.056192 -1.363401 1.771211 -0.005206 0.001046 734798.000000 0 0 1
-7.053622 30.822784 -7.000623 32.385279 -1.345826 1.788683 -0.002183 0.001625 -292384.000000 0 0 1
-7.792122 31.584584 -6.063023 33.091741 -1.328920 1.755056 0.003933 -0.003799 -219440.000000 0 0 1
-8.067022 32.853784 -6.636523 34.474503 -1.330017 1.764511 -0.010011 0.002069 -395327.000000 0 0 1
-8.961122 33.730284 -5.765523 35.373366 -1.311125 1.734517 0.004016 -0.011839 -212459.000000 0 0 1
-10.327322 33.446984 -5.962823 35.509288 -1.271316 1.739519 0.010094 -0.013514 -452724.000000 0 0 1
-11.128422 -34.497230 -5.695923 36.692563 1.258747 1.726660 0.011695 -0.009474 980966.000000 0 0 1
-12.661022 34.365884 -5.987223 37.110137 -1.217808 1.732841 0.031684 -0.012415 995434.000000 0 0 1
-13.065022 34.434584 -7.349223 37.555911 -1.208160 1.767755 0.037532 -0.011760 -948542.000000 0 0 1
-14.388422 34.054084 -7.451223 37.712439 -1.171031 1.769685 0.030335 -0.017945 -1588360.000000 0 0 1
-14.997222 34.315184 -8.844423 38.479505 -1.158769 1.802717 0.049761 -0.010634 799136.000000 0 0 1
-16.387022 33.985284 -8.973623 38.782211 -1.121506 1.804297 0.056687 -0.005457 988334.000000 0 0 1
-17.337422 -34.195230 -8.441523 39.257602 1.101554 1.787518 0.056966 -0.006963 743133.000000 0 0 1
-18.844322 -34.493130 -8.901023 40.300282 1.070782 1.793500 0.046102 -0.005778 1850740.000000 0 0 1
-19.561822 33.553184 -8.158023 39.686703 -1.042964 1.777833 0.033568 -0.010776 502241.000000 0 0 1
-19.870422 33.873884 -6.791323 39.854683 -1.040288 1.742034 0.032041 -0.015217 -759532.000000 0 0 1
-19.945222 32.597584 -5.910323 38.669707 -1.021700 1.724239 0.006405 -0.015483 -887720.000000 0 0 1
-19.798122 32.781884 -4.504123 38.560403 -1.027489 1.687871 0.006735 -0.020816 21222.400000 0 0 1
-20.941722 32.954884 -3.680623 39.218963 -1.004706 1.664783 0.006282 -0.022180 -74207.100000 0 0 1
-21.560922 34.381784 -3.699223 40.751254 -1.010686 1.661697 0.007861 -0.019288 -71550.100000 0 0 1
-22.158622 -34.278430 -4.919623 41.112261 0.996935 1.690747 0.011095 -0.030330 207298.000000 0 0 1
-22.738822 -32.972330 -4.823523 40.342223 0.967062 1.690648 0.008339 -0.028443 63928.100000 0 0 1
-23.345622 -32.520130 -6.182023 40.506720 0.948169 1.724012 0.014122 -0.009559 -398898.000000 0 0 1
-22.342222 -32.231230 -7.102523 39.855651 0.964658 1.749959 0.024715 -0.006551 -249735.000000 0 0 1
-22.513622 -32.925430 -8.359723 40.753308 0.971042 1.777393 0.016334 -0.002331 -739235.000000 0 0 1
-23.664022 -32.489030 -9.257223 41.245839 0.941283 1.797165 0.006977 0.005447 -1824030.000000 0 0 1
-24.841422 -33.013130 -8.706023 42.222717 0.925716 1.778479 0.000513 0.009213 -1427070.000000 0 0 1
-25.927652 -32.780030 -9.510323 42.862802 0.901593 1.794537 0.005020 0.005930 -877372.000000 0 0 1
-26.508612 -31.342430 -9.502123 42.134841 0.868761 1.798270 0.005745 0.013996 -1121960.000000 0 0 1
-25.733152 -30.295730 -10.085223 41.009000 0.866651 1.819272 -0.007147 0.015946 -159848.000000 0 0 1
-26.140232 -30.002230 -11.414523 41.397305 0.854079 1.850147 -0.020001 0.026083 -421299.000000 0 0 1
-25.283072 -29.016430 -12.230323 40.382766 0.854045 1.878488 -0.004495 0.031402 -1182950.000000 0 0 1
-24.078622 -29.594230 -12.526323 40.156037 0.887802 1.888032 -0.008975 0.026434 -1165490.000000 0 0 1
-23.365422 -28.957030 -13.546323 39.597417 0.891862 1.919948 -0.013122 0.022302 802402.000000 0 0 1
-22.021022 -29.738230 -13.889523 39.524759 0.933406 1.929877 0.014414 0.007887 721480.000000 0 0 1
-22.063022 -30.938530 -14.614723 40.713140 0.951316 1.937959 0.023505 0.004508 -67859.000000 0 0 1
-22.620922 -32.100630 -14.010923 41.694874 0.956931 1.913500 0.004962 0.008397 -109075.000000 0 0 1
-22.842922 -33.310330 -14.940323 43.064956 0.969691 1.925087 0.011348 0.004748 -232458.000000 0 0 1
-23.329022 -34.433030 -14.215523 43.954044 0.975318 1.900136 0.004469 -0.001558 72831.300000 0 0 1
-23.204222 33.378484 -14.843123 43.276754 -0.963309 1.920885 0.012120 -0.003848 -212700.000000 0 0 1
-23.760922 32.228084 -13.906523 42.386580 -0.935490 1.905075 -0.000510 -0.003459 338097.000000 0 0 1
-22.916522 31.841384 -12.801323 41.266386 -0.946965 1.886212 0.002338 0.002169 496466.000000 0 0 1
-22.658222 32.835484 -11.826223 41.610378 -0.966777 1.858982 0.015666 -0.000732 -149780.000000 0 0 1
-21.780822 32.334984 -10.693323 40.426508 -0.978010 1.838495 0.011063 0.003317 -82227.200000 0 0 1
-22.538822 31.463284 -9.880923 39.944579 -0.949179 1.820757 0.007987 0.001189 406069.000000 0 0 1
-21.752522 31.058784 -8.743123 38.913526 -0.959825 1.797412 0.009123 0.000894 97776.400000 0 0 1
-22.465122 29.962784 -7.922723 38.278188 -0.927444 1.779281 0.004864 0.001423 -107095.000000 0 0 1
-22.558122 28.645084 -8.458323 37.429306 -0.903721 1.798747 0.014109 0.010274 -46278.800000 0 0 1
-22.896522 27.579584 -7.591723 36.640393 -0.877911 1.779504 0.009557 0.002928 -189515.000000 0 0 1
-21.888722 27.119084 -6.522523 35.455665 -0.891721 1.755813 0.004369 0.006396 -812113.000000 0 0 1
-22.148622 27.743684 -5.267223 35.888955 -0.897074 1.718093 0.005567 -0.000689 908397.000000 0 0 1
-21.110022 27.452284 -4.261023 34.891507 -0.915264 1.693224 0.001400 0.007820 949074.000000 0 0 1
-19.848722 28.339584 -4.382023 34.875577 -0.959810 1.696777 -0.001064 0.006217 -123723.000000 0 0 1
-19.271222 28.135484 -5.690923 34.574153 -0.970247 1.736149 0.001417 0.003425 164168.000000 0 0 1
-18.007722 28.831184 -5.704523 34.468200 -1.012491 1.737062 0.002655 0.000110 188966.000000 0 0 1
-17.168222 28.431584 -6.899723 33.922102 -1.027556 1.775625 0.012518 0.001646 -710535.000000 0 0 1
-17.491422 28.941884 -8.185123 34.793372 -1.027174 1.808272 0.019742 -0.003859 138301.000000 0 0 1
-17.568422 30.335984 -8.408423 36.050284 -1.045865 1.806206 0.031147 -0.008179 -71139.000000 0 0 1
-17.697122 30.707984 -9.908323 36.801403 -1.047983 1.843398 0.022900 -0.003285 -94425.900000 0 0 1
-16.392622 30.786384 -10.436623 36.406628 -1.081517 1.861544 0.029053 -0.006195 228435.000000 0 0 1
-16.363022 31.355084 -11.714523 37.257480 -1.089813 1.890643 0.038082 -0.006087 -628200.000000 0 0 1
-14.920022 31.519784 -12.188823 36.941457 -1.128692 1.907047 0.036782 -0.002759 -379944.000000 0 0 1
-14.711222 32.174984 -13.410923 37.835202 -1.141950 1.933129 0.036049 -0.001002 -29335.000000 0 0 1
-15.341822 31.616784 -14.553823 38.036907 -1.119024 1.963431 0.033454 0.000746 -306814.000000 0 0 1
-14.929022 32.308384 -15.796223 38.938773 -1.137943 1.988506 0.058122 -0.002810 547493.000000 0 0 1
-13.584022 32.022684 -16.200523 38.372319 -1.169603 2.006659 0.057581 -0.007221 587148.000000 0 0 1
-13.218422 32.769284 -17.393723 39.383934 -1.187381 2.028228 0.033717 -0.009605 750795.000000 0 0 1
-11.689422 32.711584 -17.759923 39.014166 -1.227590 2.043413 0.047955 -0.014232 907392.000000 0 0 1
-11.312122 31.525284 -18.409523 38.219343 -1.226280 2.073368 0.044503 -0.013503 911521.000000 0 0 1
-9.872922 31.477184 -18.536023 37.840083 -1.266861 2.082716 0.038848 -0.011353 1241410.000000 0 0 1
-9.352622 31.125184 -19.946023 38.132564 -1.278895 2.121246 0.039121 -0.025132 -448878.000000 0 0 1
-9.589222 29.753584 -20.236523 37.239036 -1.259019 2.145305 0.044740 -0.031975 64829.700000 0 0 1
-9.441322 29.504484 -21.625523 37.779841 -1.261097 2.180237 0.023364 -0.029308 36971.400000 0 0 1
-10.774422 29.508384 -22.442223 38.606816 -1.220706 2.191124 0.031376 -0.028742 236350.000000 0 0 1
-11.344522 30.802584 -22.638923 39.875032 -1.217915 2.174563 0.040243 -0.028705 -331785.000000 0 0 1
-12.509622 30.818184 -21.860423 39.801121 -1.185200 2.152253 0.040794 -0.030202 -737193.000000 0 0 1
-13.336722 32.118384 -21.904523 41.100692 -1.177225 2.132877 0.052573 -0.030317 -79563.300000 0 0 1
-13.945922 32.280884 -23.129223 42.089252 -1.162996 2.152596 0.049180 -0.032867 -634193.000000 0 0 1
-14.564622 33.521284 -23.202223 43.291429 -1.160916 2.136434 0.055374 -0.028320 166498.000000 0 0 1
-15.229822 33.837684 -24.609523 44.526003 -1.147872 2.156397 0.061065 -0.016088 478622.000000 0 0 1
-14.292622 33.844884 -25.679523 44.824024 -1.171217 2.180832 0.055846 -0.016757 197106.000000 0 0 1
-14.930122 33.781384 -26.952723 45.722420 -1.154646 2.201219 0.056074 -0.007405 395199.000000 0 0 1
-15.442322 -33.921730 -27.575923 46.363570 1.143598 2.207783 0.053111 -0.005076 940697.000000 0 0 1
-16.756622 -33.535430 -27.146523 46.285453 1.107413 2.197530 0.042978 -0.006966 543346.000000 0 0 1
-17.263322 -32.551330 -28.033823 46.298020 1.083171 2.221200 0.019412 0.001637 -503674.000000 0 0 1
-18.719822 -32.213530 -27.736123 46.448206 1.044377 2.210728 0.009850 -0.002762 -787715.000000 0 0 1
-19.591122 -33.254930 -28.021723 47.696115 1.038416 2.198769 0.011145 0.000109 -1758300.000000 0 0 1
-20.810322 -32.962630 -27.462223 47.684150 1.007658 2.184525 0.011744 -0.000600 -795889.000000 0 0 1
-21.928822 -33.983930 -27.757723 49.053766 0.997753 2.172276 0.004772 0.005471 -45564.500000 0 0 1
-21.810722 33.918684 -27.013223 48.537603 -0.999337 2.161014 0.029896 -0.005168 -154218.000000 0 0 1
-23.044522 33.235984 -26.933223 48.590937 -0.964540 2.158300 0.016933 -0.004026 110439.000000 0 0 1
-22.862422 31.715784 -26.735223 47.364052 -0.946212 2.170578 0.029208 -0.006344 177048.000000 0 0 1
-22.247222 31.305084 -25.500123 46.099929 -0.952953 2.156936 0.042826 -0.008635 -49711.800000 0 0 1
-22.493322 29.969484 -25.186123 45.149311 -0.926949 2.162578 0.030500 -0.011705 -477197.000000 0 0 1
30.155753 10.280584 -26.506059 41.444312 0.328560 2.264720 0.024275 -0.004331 -85916.400000 0 0 1
29.930983 8.916084 -26.342349 40.856819 0.289518 2.271490 0.015126 -0.005206 684946.000000 0 0 1
28.561483 8.650884 -26.695859 40.040792 0.294103 2.300591 0.018064 -0.008507 926329.000000 0 0 1
28.163553 7.197684 -26.194429 39.129791 0.250212 2.304230 0.000937 -0.002105 41739.300000 0 0 1
28.263473 7.083584 -24.798439 38.261778 0.245568 2.275917 0.000341 0.013026 -100133.000000 0 0 1
27.904093 5.835184 -24.358939 37.497276 0.206145 2.277879 -0.007679 0.017650 -226554.000000 0 0 1
28.048123 5.593784 -22.847639 36.606041 0.196852 2.244839 -0.009672 0.023871 1296560.000000 0 0 1
29.383093 5.127684 -22.478539 37.348950 0.172772 2.216614 0.005058 0.014412 1288960.000000 0 0 1
29.405753 4.888384 -21.114939 36.529923 0.164733 2.187094 -0.003662 0.010393 286397.000000 0 0 1
30.780953 4.697584 -20.388439 37.218582 0.151445 2.150532 0.001232 0.009486 458088.000000 0 0 1
31.305683 3.383684 -20.532439 37.590906 0.107667 2.148626 0.010133 0.008278 30405.000000 0 0 1
32.249193 3.044384 -19.556339 37.838197 0.094123 2.113953 0.026339 0.000660 -277210.000000 0 0 1
32.689343 1.560384 -19.527239 38.109592 0.047698 2.108770 0.034514 0.000926 49037.600000 0 0 1
31.729653 0.671884 -18.951039 36.964364 0.021172 2.109104 0.029356 0.001484 147728.000000 0 0 1
32.039123 -0.707916 -19.137539 37.326291 -0.022092 2.109134 0.025310 0.005601 286735.000000 0 0 1
30.884953 -1.602016 -18.584139 36.080702 -0.051824 2.111887 0.000133 0.007026 509944.000000 0 0 1
30.786143 -1.672616 -17.187739 35.298763 -0.054277 2.079358 0.010753 0.009176 -1182180.000000 0 0 1
29.498863 -1.508816 -16.737539 33.950032 -0.051104 2.086337 -0.005042 0.007672 -1108710.000000 0 0 1
29.215003 -2.036416 -15.280439 33.032639 -0.069592 2.051706 -0.001515 0.008812 -286450.000000 0 0 1
29.060163 -3.438116 -15.078339 32.919144 -0.117763 2.046587 -0.016425 0.010052 386792.000000 0 0 1
28.518373 -3.753316 -13.811939 31.908536 -0.130858 2.018460 -0.000887 0.011947 -176877.000000 0 0 1
28.537033 -5.275216 -13.510939 32.011493 -0.182792 2.006519 -0.004013 0.014281 36951.700000 0 0 1
27.807473 -6.091316 -14.429239 31.914928 -0.215647 2.039932 -0.015265 0.014638 440778.000000 0 0 1
27.464203 -7.259516 -13.792539 31.578746 -0.258416 2.022797 -0.009142 0.005043 -393585.000000 0 0 1
26.831843 -8.205316 -14.794039 31.719688 -0.296774 2.056012 -0.009701 0.002736 -1327490.000000 0 0 1
25.537643 -7.953116 -15.159639 30.744722 -0.301907 2.086424 0.008225 0.003553 -1048100.000000 0 0 1
25.098263 -8.898816 -16.165739 31.151932 -0.340731 2.116398 0.007958 0.000710 216238.000000 0 0 1
23.776663 -8.370016 -16.768539 30.274920 -0.338479 2.157808 0.000268 -0.000528 -133048.000000 0 0 1
23.857963 -7.211516 -17.571239 30.495194 -0.293537 2.184864 -0.009250 0.000556 511378.000000 0 0 1
22.555963 -6.841916 -18.039739 29.681905 -0.294510 2.224044 0.024527 -0.001250 978938.000000 0 0 1
21.987563 -7.330216 -19.396239 30.222493 -0.321793 2.267615 0.014103 -0.001341 135843.000000 0 0 1
22.651663 -6.560916 -20.384539 31.171668 -0.281929 2.283583 0.013490 -0.008550 408788.000000 0 0 1
22.349063 -6.993516 -21.726739 31.944344 -0.303269 2.318755 0.025902 -0.013946 12586.200000 0 0 1
22.599963 -5.963416 -22.823439 32.668487 -0.257988 2.344288 0.024005 -0.019589 -50375.800000 0 0 1
22.753563 -6.409016 -24.141139 33.787494 -0.274557 2.366704 0.033757 -0.027884 50643.100000 0 0 1
22.923763 -5.354016 -25.077079 34.395121 -0.229444 2.387785 0.029499 -0.030361 -168555.000000 0 0 1
23.027163 -5.729816 -26.596139 35.643171 -0.243876 2.413098 0.043382 -0.035363 -560024.000000 0 0 1
21.845063 -6.316616 -27.021709 35.316840 -0.281478 2.442028 0.054892 -0.028403 -870888.000000 0 0 1
21.695563 -6.361016 -28.451189 36.340476 -0.285201 2.470120 0.051621 -0.028785 1237290.000000 0 0 1
20.273863 -6.917416 -28.893919 35.968580 -0.328813 2.503629 0.044035 -0.033049 1293740.000000 0 0 1
20.283963 -8.321416 -28.664869 36.088223 -0.389308 2.488651 0.040227 -0.028818 354164.000000 0 0 1
19.167063 -8.984616 -29.253179 36.108838 -0.438339 2.515186 0.034305 -0.031923 182372.000000 0 0 1
19.235263 -10.532116 -29.138919 36.469130 -0.500954 2.496431 0.039479 -0.025483 -222930.000000 0 0 1
18.459563 -10.925116 -28.014059 35.283157 -0.534398 2.488121 0.050156 -0.024978 273626.000000 0 0 1
18.657163 -12.294616 -27.620859 35.526880 -0.582659 2.461419 0.053838 -0.021061 -237296.000000 0 0 1
18.352463 -13.365216 -28.715819 36.606559 -0.629436 2.472596 0.036633 -0.010559 -143706.000000 0 0 1
17.030663 -13.400716 -29.191889 36.356417 -0.666676 2.503002 0.031352 -0.007833 161107.000000 0 0 1
17.177263 -14.185816 -30.356139 37.653565 -0.690305 2.508490 0.013194 -0.005829 438547.000000 0 0 1
15.840663 -14.572316 -31.081639 37.806710 -0.743718 2.535921 0.007569 -0.010790 519487.000000 0 0 1
15.006463 -15.506916 -30.424119 37.299939 -0.801798 2.524668 0.010329 -0.017349 -271142.000000 0 0 1
13.926163 -15.861816 -31.228049 37.692523 -0.850288 2.547210 -0.003557 -0.020865 -723526.000000 0 0 1
12.835663 -16.532416 -30.403629 36.911458 -0.910616 2.538686 0.004659 -0.029312 -290000.000000 0 0 1
13.188663 -17.898216 -30.100759 37.421153 -0.935751 2.505424 -0.000338 -0.026464 -527885.000000 0 0 1
12.167063 -18.452516 -29.379479 36.765291 -0.987861 2.496608 0.005011 -0.025621 -664201.000000 0 0 1
12.588163 -19.697816 -28.470489 36.837950 -1.002148 2.454128 0.013239 -0.028548 57895.900000 0 0 1
13.457363 -19.371216 -27.392089 36.147907 -0.963630 2.430697 0.004304 -0.019246 16179.900000 0 0 1
13.493963 -20.412516 -26.457119 36.037994 -0.986683 2.395203 0.005705 -0.012953 -40684.300000 0 0 1
14.587363 -20.237016 -25.359779 35.573114 -0.946230 2.364410 0.003029 0.000937 556730.000000 0 0 1
15.926163 -20.386116 -25.827349 36.555279 -0.907608 2.355377 0.009519 -0.000653 414365.000000 0 0 1
16.846863 -20.344716 -24.763839 36.207348 -0.879172 2.323953 0.012113 0.000127 662311.000000 0 0 1
18.310763 -20.758216 -25.207179 37.437808 -0.847961 2.309470 -0.003924 0.006917 686448.000000 0 0 1
18.510163 -22.160816 -25.425559 38.473198 -0.874919 2.292766 -0.009758 0.009104 239120.000000 0 0 1
18.173063 -23.051316 -24.341039 38.132789 -0.903185 2.263114 -0.008101 0.007343 -609760.000000 0 0 1
18.552863 -24.543916 -24.436939 39.290922 -0.923527 2.242025 -0.008194 0.005139 185805.000000 0 0 1
19.973363 -24.721716 -24.472239 40.112205 -0.891240 2.226976 -0.005062 0.007420 481792.000000 0 0 1
20.287063 -26.076936 -24.235439 40.974725 -0.909634 2.203681 0.000999 -0.004430 -78420.100000 0 0 1
20.313463 -26.483786 -22.719839 40.375968 -0.916494 2.168453 0.015379 -0.004809 -95765.200000 0 0 1
19.055363 -26.632146 -22.043639 39.475310 -0.949742 2.163271 0.006697 0.000240 488607.000000 0 0 1
19.161863 -26.660266 -20.629239 38.775151 -0.947602 2.131783 0.008197 -0.000052 -83799.100000 0 0 1
17.911263 -27.158706 -19.847639 38.109546 -0.987769 2.118590 0.002735 -0.002598 -323279.000000 0 0 1
17.703663 -28.568006 -19.952939 39.085425 -1.016016 2.106557 0.003570 0.000077 848907.000000 0 0 1
16.607363 -29.159856 -19.198439 38.661115 -1.053084 2.090454 -0.003091 0.003421 1067780.000000 0 0 1
15.185963 -28.805516 -19.714639 38.066235 -1.085635 2.115195 -0.003267 0.000462 -335126.000000 0 0 1
14.599063 -27.641986 -19.206339 36.689175 -1.084885 2.121736 0.006775 -0.001192 -194704.000000 0 0 1
13.396463 -27.344486 -19.890139 36.370370 -1.115250 2.149426 -0.003755 0.010923 90482.900000 0 0 1
12.512363 -26.272776 -19.234439 34.882398 -1.126330 2.154848 -0.003267 0.006630 -358303.000000 0 0 1
11.699563 -26.810536 -18.224539 34.464742 -1.159327 2.127968 0.000268 0.005918 -336071.000000 0 0 1
10.860163 -25.877246 -17.577539 33.114120 -1.173440 2.130361 0.012429 -0.008622 743559.000000 0 0 1
9.358363 -26.252626 -17.803239 33.071660 -1.228366 2.139242 0.013983 -0.007167 -102524.000000 0 0 1
8.813563 -27.229686 -16.830239 33.202284 -1.257763 2.102381 0.014866 -0.000281 153289.000000 0 0 1
7.400963 -27.213326 -16.851939 32.853116 -1.305258 2.109412 0.008227 0.008571 356602.000000 0 0 1
6.758863 -27.976026 -18.040139 33.967439 -1.333744 2.130696 0.014231 0.014250 -573182.000000 0 0 1
6.894363 -27.360246 -19.323639 34.198222 -1.323951 2.171288 0.022046 0.011916 -302793.000000 0 0 1
6.341463 -28.198886 -20.283639 35.310301 -1.349593 2.182716 0.023804 0.014023 -123269.000000 0 0 1
6.283663 -27.574226 -21.747139 35.675768 -1.346741 2.226324 0.021265 0.004371 -544938.000000 0 0 1
5.324663 -26.595226 -21.955839 34.895802 -1.373198 2.251298 0.027296 -0.000988 -354176.000000 0 0 1
5.470363 -25.935756 -23.141239 35.186720 -1.362923 2.288517 0.023330 0.003213 -5134.090000 0 0 1
4.281263 -24.976316 -23.466639 34.537353 -1.401033 2.317818 -0.000504 0.009855 78741.900000 0 0 1
3.088663 -25.714036 -23.504739 34.974623 -1.451253 2.307772 -0.011738 0.018309 -705711.000000 0 0 1
2.062163 -25.043736 -24.167339 34.864044 -1.488639 2.336699 -0.006524 0.015066 160493.000000 0 0 1
0.960963 -25.954836 -24.750639 35.877167 -1.533789 2.332108 -0.028315 0.016094 -56205.200000 0 0 1
1.496263 -26.706626 -25.827519 37.182569 -1.514829 2.338679 -0.047835 0.025699 167679.000000 0 0 1
0.611863 -27.693726 -26.341279 38.225382 -1.548706 2.331049 -0.035620 0.019031 -182249.000000 0 0 1
1.309563 -28.618646 -27.360819 39.615102 -1.525069 2.333206 -0.049895 0.025924 -802478.000000 0 0 1
1.777563 -27.882926 -28.468629 39.888346 -1.507132 2.365574 -0.044036 0.025805 -123968.000000 0 0 1
2.000663 -28.678726 -29.597939 41.261483 -1.501148 2.370753 -0.032276 0.019342 -295625.000000 0 0 1
3.380763 -29.371876 -29.625209 41.854387 -1.456199 2.357198 -0.010797 0.020627 -482905.000000 0 0 1
3.625463 -30.299026 -28.575899 41.806184 -1.451706 2.323388 -0.024277 0.011792 -191748.000000 0 0 1
4.595163 -31.179236 -29.100229 42.896196 -1.424471 2.316362 0.000763 0.005602 -324169.000000 0 0 1
5.080263 -32.195116 -28.079699 43.020973 -1.414291 2.281936 0.019195 -0.002811 -325418.000000 0 0 1
4.197463 -33.250416 -27.735499 43.502492 -1.445223 2.262125 -0.003537 -0.004519 230723.000000 0 0 1
4.838963 -34.299803 -27.037619 43.942291 -1.430643 2.233561 0.020046 -0.017650 -186770.000000 0 0 1
3.846263 33.646823 -26.654289 43.097025 1.456978 2.237593 0.031267 -0.014219 48628.300000 0 0 1
3.270163 33.042828 -27.805599 43.309050 1.472150 2.267936 0.010020 -0.005653 868402.000000 0 0 1
1.846863 32.945048 -27.629839 43.037136 1.514796 2.267900 -0.018604 0.005204 693197.000000 0 0 1
1.043763 33.162666 -28.922219 44.015300 1.539333 2.287754 -0.025380 0.018073 -188092.000000 0 0 1
0.977263 32.020338 -29.840089 43.779995 1.540286 2.320732 -0.015790 0.014304 95312.900000 0 0 1
0.057563 32.266698 -30.876439 44.659798 1.569012 2.334180 -0.018375 0.020302 -24782.000000 0 0 1
-0.136637 31.093898 -31.818949 44.489265 -1.566402 2.367714 -0.010435 0.019899 -68865.500000 0 0 1
0.869363 30.975488 -32.824249 45.140536 1.542738 2.384967 -0.006667 0.016246 162547.000000 0 0 1
0.648363 29.959558 -33.782529 45.158108 1.549158 2.415982 0.001086 0.011874 -382773.000000 0 0 1
1.906063 29.589118 34.467532 45.466028 1.506467 0.710411 -0.004030 0.012042 -39111.800000 0 0 1
2.317063 30.630238 33.628038 45.545858 1.495294 0.740200 -0.004125 0.007923 -108939.000000 0 0 1
3.207563 30.284568 32.562007 44.583941 1.465276 0.751958 -0.010457 0.006007 -14143.500000 0 0 1
2.682563 29.448088 31.383987 43.120072 1.479952 0.755647 -0.012751 0.016385 -398353.000000 0 0 1
2.385363 28.095128 31.590037 42.343318 1.486096 0.728693 -0.004647 0.005534 -92434.700000 0 0 1
3.499863 27.269138 31.863667 42.085011 1.443149 0.711894 -0.003956 0.009671 -302958.000000 0 0 1
3.218663 25.784128 32.104427 41.302242 1.446608 0.680426 0.012688 -0.004357 -116410.000000 0 0 1
2.493363 25.176738 31.022437 40.030945 1.472084 0.684142 0.010224 0.007265 404729.000000 0 0 1
2.670063 23.763198 31.230107 39.333680 1.458904 0.653470 0.011335 0.010116 -480381.000000 0 0 1
1.911263 22.811098 30.306687 37.980184 1.487205 0.646893 0.005881 0.023466 -883300.000000 0 0 1
0.639463 22.608198 30.813947 38.223537 1.542519 0.633178 -0.000865 0.014912 -832033.000000 0 0 1
-0.191737 22.025098 29.805977 37.061273 -1.562091 0.636409 0.006489 0.018593 -61903.300000 0 0 1
-1.558337 21.586098 30.301107 37.236341 -1.498730 0.620219 0.003567 0.018212 -481377.000000 0 0 1
-2.570037 22.535298 30.523607 38.028085 -1.457242 0.639055 0.012721 0.010895 -188615.000000 0 0 1
-3.824137 21.902798 30.639777 37.857000 -1.397943 0.627742 -0.007015 0.009229 -24292.200000 0 0 1
-4.960637 22.922998 30.855097 38.757047 -1.357678 0.649947 -0.024147 0.003931 -382518.000000 0 0 1
-4.832737 23.556398 32.118117 40.122720 -1.368448 0.642672 -0.023575 0.001491 90982.100000 0 0 1
-4.535437 24.953678 32.108717 40.917306 -1.391005 0.668549 -0.017658 0.002276 -304935.000000 0 0 1
-4.619437 25.538288 33.512784 42.386908 -1.391848 0.658943 -0.012472 -0.001172 39914.300000 0 0 1
-5.953837 25.657758 33.959826 42.977185 -1.342784 0.659689 -0.022432 -0.003714 -8986.530000 0 0 1
-5.980037 26.024318 -33.739739 43.027851 -1.344931 2.472101 -0.011836 -0.002758 13297.100000 0 0 1
-7.401637 26.355418 -33.232169 43.055422 -1.297010 2.452536 -0.007131 0.006620 -192308.000000 0 0 1
-7.932037 27.570788 -33.731669 44.281949 -1.290664 2.436803 -0.003447 0.006002 -256648.000000 0 0 1
-9.162137 27.943608 -33.168269 44.327464 -1.253962 2.416225 0.005230 0.009181 -101821.000000 0 0 1
-9.090637 28.353758 -31.678539 43.475339 -1.260536 2.387153 0.016778 0.004657 -406808.000000 0 0 1
-8.563237 29.657748 -31.496989 44.101829 -1.289706 2.366259 0.018653 0.006653 118466.000000 0 0 1
-8.740037 29.921818 -30.074489 43.314874 -1.286607 2.338274 0.017656 0.002767 16295.500000 0 0 1
-8.337137 31.398728 -29.701649 44.017904 -1.311260 2.311440 0.008312 0.007006 632930.000000 0 0 1
-6.936537 31.687178 -29.796449 44.045671 -1.355289 2.313782 -0.008310 0.007236 465047.000000 0 0 1
-6.682237 32.923578 -29.196389 44.508914 -1.370554 2.286260 -0.001966 0.009799 -1112200.000000 0 0 1
-5.215937 33.181625 -29.360039 44.612085 -1.414879 2.289113 -0.010358 0.011900 -1328710.000000 0 0 1
-4.763037 34.428885 -28.840179 45.164040 -1.433325 2.263429 -0.012714 0.013240 -59905.300000 0 0 1
-4.570537 -33.568836 -29.778269 45.105453 1.435474 2.291871 -0.004040 0.006866 -653189.000000 0 0 1
-3.295437 -33.586926 -30.589299 45.548290 1.472993 2.307135 -0.001380 0.011303 -966668.000000 0 0 1
-3.162837 34.504928 -31.597539 46.893476 -1.479388 2.310156 -0.001114 0.011500 -40696.900000 0 0 1
-4.022037 -34.489171 -32.708189 47.702257 1.454703 2.326325 0.008125 0.000118 -150992.000000 0 0 1
-3.548737 -33.529956 -33.797309 47.740021 1.465351 2.357381 0.001197 -0.001565 -34767.700000 0 0 1
-3.389337 -32.163616 -33.424959 46.510361 1.465806 2.372664 -0.002127 -0.000298 216633.000000 0 0 1
-2.824237 -31.339096 -34.476831 46.677266 1.480920 2.401819 -0.006504 -0.006282 360138.000000 0 0 1
31.422503 19.870784 12.364377 39.180347 0.563885 1.249733 0.024503 0.002446 762750.000000 0 0 1
32.481373 18.993784 12.845777 39.759495 0.529138 1.241807 0.014255 0.003508 981285.000000 0 0 1
31.969873 17.705084 12.844477 38.736589 0.505760 1.232813 0.017395 0.004699 -250529.000000 0 0 1
32.874463 16.662184 13.509777 39.253952 0.469107 1.219449 0.030822 -0.001716 536142.000000 0 0 1
34.157603 16.628184 12.836377 40.100011 0.453038 1.244952 0.014871 0.009569 547361.000000 0 0 1
34.824869 15.574084 13.446977 40.449287 0.420533 1.231906 0.018645 0.003010 -262757.000000 0 0 1
-34.554982 14.892984 12.543177 39.663321 -0.406936 1.249032 0.006038 0.001523 185287.000000 0 0 1
-33.790612 13.791784 12.987777 38.738884 -0.387516 1.228910 0.007749 -0.000863 -216229.000000 0 0 1
-34.522639 12.660284 13.186877 39.063911 -0.351495 1.226460 0.008818 -0.009619 -882979.000000 0 0 1
-33.861072 11.893784 14.330277 38.644419 -0.337790 1.190900 -0.002693 -0.009404 -112464.000000 0 0 1
-33.813652 12.532284 15.606177 39.293434 -0.354932 1.162365 -0.000806 -0.008521 208483.000000 0 0 1
-33.205232 11.712684 16.605377 38.929589 -0.339110 1.130123 -0.007095 -0.012409 -308624.000000 0 0 1
-32.902122 12.495284 17.853577 39.464312 -0.362947 1.101344 0.005549 -0.009653 -637933.000000 0 0 1
-33.991572 12.905684 18.614477 40.847061 -0.362861 1.097625 0.008220 -0.003584 -450021.000000 0 0 1
-33.574772 13.559084 19.797877 41.268269 -0.383819 1.070442 0.011013 -0.009078 -116938.000000 0 0 1
-34.660481 13.874484 20.857377 42.765411 -0.380762 1.061325 0.019609 -0.006827 4210.430000 0 0 1
-34.976261 12.678984 21.520177 42.979221 -0.347769 1.046376 0.018473 0.008047 494291.000000 0 0 1
34.226983 12.856384 22.235277 42.792295 0.359315 1.024403 0.017008 0.002428 632101.000000 0 0 1
33.585443 11.553684 22.861077 42.238589 0.331327 0.998889 0.017195 0.006917 132133.000000 0 0 1
34.434046 10.964684 23.844277 43.295235 0.308274 0.987550 0.017559 0.008331 350896.000000 0 0 1
34.109903 11.509284 25.061537 43.863763 0.325422 0.962647 0.017172 0.008956 81059.000000 0 0 1
-35.033669 11.531284 25.965987 45.106107 -0.317980 0.957380 0.014860 0.007072 683107.000000 0 0 1
-34.159199 12.591184 25.754497 44.594651 -0.353151 0.955103 0.021396 0.001410 -53534.500000 0 0 1
-33.282942 12.528884 24.662117 43.277559 -0.360029 0.964462 0.018782 -0.000626 -362173.000000 0 0 1
-32.341192 13.793684 24.438287 42.818784 -0.403145 0.963393 0.019286 -0.000042 748727.000000 0 0 1
-31.366902 14.037684 25.449927 42.762576 -0.420799 0.933350 0.014721 -0.005202 90788.900000 0 0 1
-31.854622 14.515684 26.682407 44.015598 -0.427572 0.919518 0.009152 -0.006200 -559603.000000 0 0 1
-30.831302 15.124184 27.689057 44.113422 -0.456056 0.892229 0.009115 -0.003732 -102623.000000 0 0 1
-30.175352 16.286384 27.188887 43.761098 -0.494920 0.900392 0.030991 -0.019691 -114037.000000 0 0 1
-29.885182 17.041284 28.312767 44.554935 -0.518238 0.882195 0.048564 -0.025275 -252272.000000 0 0 1
-29.162392 18.328784 27.884987 44.316610 -0.561118 0.890244 0.048709 -0.027661 -75373.000000 0 0 1
-29.953152 19.220584 27.083627 44.722981 -0.570510 0.920294 0.038367 -0.038946 230259.000000 0 0 1
-29.388222 20.520584 26.948137 44.843773 -0.609556 0.926128 0.042721 -0.044427 -338408.000000 0 0 1
-30.307192 21.480184 26.199547 45.457017 -0.616573 0.956531 0.048950 -0.031814 -914327.000000 0 0 1
-31.511172 21.817484 26.821727 46.779927 -0.605589 0.960196 0.036004 -0.036451 -228621.000000 0 0 1
-32.350182 22.474684 25.927447 47.158013 -0.607181 0.988672 0.029432 -0.026472 -875947.000000 0 0 1
-32.284532 24.032084 26.099457 47.968883 -0.639897 0.995491 0.026390 -0.027106 -851878.000000 0 0 1
-33.287282 24.652684 25.400067 48.589725 -0.637460 1.020728 0.019270 -0.023503 -569115.000000 0 0 1
-33.055912 26.011884 25.421077 49.148169 -0.666705 1.027181 0.019738 -0.014776 356385.000000 0 0 1
-33.840882 26.795884 24.308767 49.539286 -0.669733 1.057907 0.022824 -0.010154 172754.000000 0 0 1
-33.613512 26.455084 22.959277 48.547585 -0.666787 1.078191 0.028489 -0.017923 -418268.000000 0 0 1
-34.399592 27.183184 22.083577 49.091158 -0.668748 1.104201 0.035582 -0.019512 -457547.000000 0 0 1
-34.065961 27.026184 20.580877 48.109009 -0.670672 1.128743 0.044568 -0.035450 -50153.900000 0 0 1
-34.258359 25.693784 20.065377 47.290856 -0.643501 1.132611 0.044308 -0.035705 -54826.100000 0 0 1
-33.732992 25.536984 18.792477 46.294810 -0.647987 1.152800 0.047783 -0.032721 -371865.000000 0 0 1
-33.991952 24.099584 18.343077 45.527038 -0.616727 1.156108 0.041052 -0.017943 441143.000000 0 0 1
35.112140 23.849684 17.902677 46.067078 0.596659 1.171661 0.024388 -0.022451 -32434.500000 0 0 1
35.166635 23.067484 16.721177 45.259240 0.580545 1.192376 0.021453 -0.016590 -29551.600000 0 0 1
33.871973 23.118284 15.882277 43.977407 0.598898 1.201299 0.016968 -0.010738 573232.000000 0 0 1
32.871553 22.230284 16.395577 42.936458 0.594627 1.178992 0.010590 -0.012065 376981.000000 0 0 1
31.754643 22.057684 15.530577 41.666504 0.607112 1.188841 0.013021 -0.010940 -818662.000000 0 0 1
30.813923 20.976984 16.118977 40.612229 0.597698 1.162660 -0.002793 -0.011914 -123638.000000 0 0 1
30.002593 21.364784 17.167377 40.636540 0.618799 1.134637 -0.009292 -0.008343 311247.000000 0 0 1
29.055083 22.439584 16.888777 40.409944 0.657628 1.139624 -0.011953 -0.000243 -312204.000000 0 0 1
28.271413 22.913184 18.129077 40.656490 0.681094 1.108607 -0.010247 0.002129 -343699.000000 0 0 1
29.017223 23.521584 19.174277 41.987106 0.681176 1.096547 -0.026619 0.006390 -688696.000000 0 0 1
28.317793 24.269784 20.111077 42.371868 0.708573 1.076250 -0.020560 -0.000484 -386412.000000 0 0 1
29.294483 25.052384 21.002677 43.896482 0.707500 1.071897 -0.018552 -0.002688 115640.000000 0 0 1
30.042243 26.041384 20.347877 44.662357 0.714181 1.097758 -0.009597 0.000021 140410.000000 0 0 1
31.025313 26.525184 21.258477 46.022584 0.707362 1.090644 -0.000771 -0.008240 -905.803000 0 0 1
31.909323 27.724484 20.788077 47.106221 0.715337 1.113747 0.012634 -0.011835 809817.000000 0 0 1
32.851493 28.176584 21.810977 48.465030 0.708945 1.103991 0.017370 -0.009554 878316.000000 0 0 1
32.287223 29.098284 22.761277 49.063740 0.733495 1.088390 0.000011 -0.001721 164116.000000 0 0 1
33.194893 29.451084 23.999987 50.450636 0.725708 1.075023 -0.003457 -0.007365 298256.000000 0 0 1
34.475243 29.965684 23.727777 51.473216 0.715532 1.091705 0.020339 -0.006387 86170.700000 0 0 1
35.111429 30.250084 25.007207 52.661565 0.711159 1.075984 0.015968 -0.003244 766096.000000 0 0 1
-33.980542 31.054284 24.952527 52.361000 -0.740433 1.074072 0.030399 -0.003745 1042350.000000 0 0 1
-32.872812 30.364384 24.337237 50.940344 -0.745752 1.072694 0.028202 -0.008816 584706.000000 0 0 1
-31.739502 31.239184 24.416877 50.788448 -0.777454 1.069279 0.034486 -0.006242 -87097.700000 0 0 1
-30.450842 30.504084 24.070867 49.367596 -0.786272 1.061476 0.043578 -0.010527 -772779.000000 0 0 1
-30.208502 30.236784 22.643277 48.368736 -0.785866 1.083613 0.031970 -0.013255 361738.000000 0 0 1
-30.861902 29.064384 22.075777 47.796813 -0.755412 1.090697 0.036950 -0.012606 -11897.100000 0 0 1
-30.327832 27.734984 22.683977 46.942193 -0.740772 1.066454 0.028484 -0.010160 -125289.000000 0 0 1
-28.907622 27.777184 22.643877 46.043107 -0.765458 1.056644 0.007294 -0.013697 237359.000000 0 0 1
-28.339782 26.766484 23.481677 45.507989 -0.756856 1.028633 0.013072 -0.012025 -20171.000000 0 0 1
-28.154832 27.279484 24.964307 46.476676 -0.769609 1.003758 0.034723 -0.010956 66373.900000 0 0 1
-29.348352 27.233484 25.757077 47.606884 -0.748038 0.999127 0.031052 -0.005399 481140.000000 0 0 1
-29.034462 27.717884 27.027537 48.391826 -0.762204 0.978202 0.041418 -0.011805 -1049970.000000 0 0 1
-30.198632 28.091784 27.877737 49.782265 -0.749270 0.976419 0.042470 -0.004597 -850186.000000 0 0 1
-30.862002 26.988384 28.460867 49.908486 -0.718539 0.963973 0.032405 -0.007138 -231943.000000 0 0 1
-31.785262 27.307184 29.437567 51.210892 -0.709762 0.958400 0.025332 0.004376 -239934.000000 0 0 1
-32.627272 26.136684 30.005817 51.458859 -0.675392 0.948253 0.016874 0.000264 42057.900000 0 0 1
-31.959942 25.433884 31.034007 51.297465 -0.672178 0.921054 0.024568 -0.005024 231012.000000 0 0 1
-32.543252 24.146784 31.286927 51.195724 -0.638355 0.913317 0.011219 -0.021312 -71306.800000 0 0 1
-31.648832 23.296684 32.234257 50.827466 -0.634545 0.883836 0.034619 -0.034725 -1070690.000000 0 0 1
-30.528622 22.910884 31.505807 49.492638 -0.643803 0.880746 0.036426 -0.031506 -732560.000000 0 0 1
-29.741412 21.948784 32.153477 48.991293 -0.635769 0.854879 0.042694 -0.034363 435870.000000 0 0 1
-28.814022 22.353784 33.377236 49.436620 -0.659807 0.829626 0.042091 -0.036635 497840.000000 0 0 1
-29.678172 22.926184 34.404665 50.892875 -0.657742 0.828447 0.053887 -0.036780 628549.000000 0 0 1
-29.563682 22.308184 -33.397749 49.870593 -0.646426 2.304585 0.046740 -0.030836 -431819.000000 0 0 1
-28.358522 22.740284 -32.556299 48.797940 -0.675889 2.301193 0.056283 -0.029872 -303428.000000 0 0 1
-28.377322 24.090284 -32.124289 49.168935 -0.703871 2.282791 0.047867 -0.028349 269831.000000 0 0 1
-27.292932 24.370184 -31.248449 48.117311 -0.728885 2.277621 0.065727 -0.024323 128356.000000 0 0 1
-27.532852 25.675684 -30.470999 48.433258 -0.750509 2.251235 0.042551 -0.015952 -108287.000000 0 0 1
-27.246072 26.921184 -31.115339 49.348383 -0.779400 2.253024 0.044424 -0.009166 607796.000000 0 0 1
-28.391342 27.418884 -31.835699 50.708729 -0.767976 2.249539 0.039559 -0.004542 181155.000000 0 0 1
-28.275732 28.894284 -32.337859 51.770009 -0.796217 2.245473 0.049585 -0.003060 -156196.000000 0 0 1
-28.475632 29.862784 -31.355549 51.824878 -0.809171 2.220599 0.045867 -0.009637 51848.400000 0 0 1
-28.338512 31.161284 -31.925569 52.852047 -0.832804 2.219377 0.059535 -0.024637 -83060.900000 0 0 1
-28.602142 32.390984 -30.942859 53.148085 -0.847438 2.192229 0.049133 -0.011481 192156.000000 0 0 1
-27.553372 32.613684 -30.030379 52.198318 -0.869305 2.183783 0.032791 -0.004166 91391.400000 0 0 1
-27.960402 33.620284 -29.095729 52.523033 -0.877051 2.157911 0.018895 -0.000977 117958.000000 0 0 1
-26.976092 33.839384 -27.939159 51.511261 -0.897777 2.144075 0.022243 -0.009192 589435.000000 0 0 1
-25.714062 34.514284 -28.043029 51.369838 -0.930486 2.148265 0.007023 -0.011171 638666.000000 0 0 1
-25.722492 -33.183730 -28.336239 50.653223 0.911390 2.164478 0.015851 -0.001395 -700021.000000 0 0 1
-25.934602 -32.223030 -27.087899 49.443721 0.893107 2.150592 0.005106 -0.002597 165001.000000 0 0 1
-27.300582 -32.227230 -26.690829 49.963152 0.867972 2.134370 -0.011894 -0.000981 29805.800000 0 0 1
-27.559972 -31.357730 -25.645419 48.995376 0.849768 2.121662 -0.015946 0.000847 -53906.900000 0 0 1
-29.070132 -31.047230 -25.651769 49.669068 0.818274 2.113501 -0.032823 0.000279 -287287.000000 0 0 1
-29.455962 -30.240930 -26.730989 49.967123 0.798547 2.135270 -0.029680 -0.005033 15892.900000 0 0 1
-30.765202 -29.757330 -26.533729 50.359062 0.768747 2.125735 -0.029141 -0.014925 -324900.000000 0 0 1
-31.390692 -29.008630 -27.720149 50.943919 0.745980 2.146149 -0.016030 -0.019070 -387380.000000 0 0 1
-32.773232 -28.841030 -27.529999 51.611923 0.721665 2.133416 -0.008030 -0.014978 -226562.000000 0 0 1
-33.289602 -28.017730 -28.509699 52.019167 0.699618 2.150841 0.002060 -0.017939 -973967.000000 0 0 1
-34.778406 -27.987130 -28.750149 53.097910 0.677617 2.142964 0.002259 -0.023379 -921491.000000 0 0 1
34.821374 -27.468630 -27.753899 52.319525 -0.667901 2.129950 0.003281 -0.007067 -652689.000000 0 0 1
33.519553 -27.893930 -28.057609 51.854231 -0.694051 2.142525 0.018056 -0.010758 -439491.000000 0 0 1
32.480303 -27.522230 -26.988479 50.406560 -0.702954 2.135797 0.023724 -0.013304 -213678.000000 0 0 1
32.406433 -28.388030 -25.820089 50.226827 -0.719396 2.110719 0.022171 -0.011489 295010.000000 0 0 1
31.694003 -27.623930 -24.835039 48.830017 -0.716891 2.104357 0.024883 -0.007668 -3191.700000 0 0 1
31.585653 -28.429730 -23.527939 48.574345 -0.732861 2.076439 0.029791 -0.000215 199723.000000 0 0 1
30.886613 -29.682630 -23.685439 48.949376 -0.765523 2.075875 0.036369 -0.002315 43602.900000 0 0 1
30.533793 -30.294030 -22.467839 48.526741 -0.781457 2.052172 0.040019 -0.009059 -229670.000000 0 0 1
31.537493 -30.505530 -21.321139 48.783110 -0.768767 2.023124 0.015478 -0.002777 -867476.000000 0 0 1
32.690533 -31.326330 -21.535939 50.137876 -0.764091 2.014773 0.005164 -0.001150 959200.000000 0 0 1
33.775833 -31.170730 -20.631739 50.379460 -0.745308 1.992732 -0.002808 0.005961 666777.000000 0 0 1
34.467838 -29.767730 -20.793839 50.065291 -0.712358 1.999107 -0.021056 0.001023 -1655050.000000 0 0 1
33.730203 -28.740130 -20.273539 48.731285 -0.705688 1.999868 -0.018313 0.008005 -646485.000000 0 0 1
34.209213 -27.456830 -20.683439 48.496932 -0.676333 2.011405 -0.017968 0.003985 -248703.000000 0 0 1
33.261583 -26.280330 -20.357539 47.025717 -0.668682 2.018506 -0.012757 0.006543 200422.000000 0 0 1
32.163903 -26.314430 -21.245939 46.672860 -0.685702 2.043404 -0.002032 0.002000 108375.000000 0 0 1
31.118653 -25.394430 -20.943639 45.297723 -0.684452 2.051446 0.017592 -0.002920 -10341.000000 0 0 1
29.972933 -25.412930 -21.939339 45.005870 -0.703252 2.079994 0.030277 -0.008911 -254813.000000 0 0 1
29.125563 -26.548430 -21.895239 45.083468 -0.739141 2.077914 0.039653 -0.004951 50079.700000 0 0 1
28.091483 -26.494330 -22.844339 44.865853 -0.756147 2.105016 0.028535 0.002201 86669.900000 0 0 1
27.535073 -27.906530 -23.266639 45.588279 -0.792098 2.106405 0.032247 0.000394 -181358.000000 0 0 1
26.798893 -28.440230 -22.231239 44.958374 -0.815103 2.088038 0.041058 -0.006352 -300222.000000 0 0 1
26.530333 -29.782130 -22.470939 45.779657 -0.843080 2.083861 0.042446 -0.015270 -161834.000000 0 0 1
26.036213 -30.611230 -21.279939 45.472713 -0.865986 2.057790 0.044052 -0.008512 155535.000000 0 0 1
26.932123 -30.824230 -20.186439 45.639509 -0.852685 2.028960 0.043968 -0.013108 111945.000000 0 0 1
27.727003 -31.985330 -20.289139 46.941423 -0.856592 2.017752 0.044005 -0.011562 -51102.600000 0 0 1
28.527583 -32.323330 -19.017039 47.119725 -0.847695 1.986233 0.031984 -0.005745 -324509.000000 0 0 1
27.824233 -32.875430 -17.886939 46.636085 -0.868423 1.964426 0.027556 -0.009118 332897.000000 0 0 1
27.046643 -31.954330 -17.097839 45.220971 -0.868387 1.958534 0.019528 -0.014838 156166.000000 0 0 1
26.562723 -32.652730 -15.817539 44.966361 -0.887883 1.930251 0.016192 -0.011469 -762047.000000 0 0 1
25.358363 -33.318330 -15.983939 44.817899 -0.920233 1.935467 0.034493 -0.016973 -604953.000000 0 0 1
24.984563 -34.080730 -14.827139 44.783575 -0.938200 1.908249 0.040177 -0.016364 -696879.000000 0 0 1
23.479063 -34.286930 -14.674439 44.070389 -0.970357 1.910256 0.041445 -0.015519 -563656.000000 0 0 1
22.973663 -33.017230 -14.479139 42.750113 -0.962889 1.916323 0.037994 -0.015090 -495844.000000 0 0 1
21.566763 -33.075330 -14.426539 42.038408 -0.992981 1.921092 0.035413 -0.018244 -171388.000000 0 0 1
-0.849122 -7.319316 -28.835089 29.761649 1.455301 2.891410 0.027948 -0.003519 9757.770000 0 0 1
-0.236822 -8.564716 -28.959319 30.200209 1.543152 2.853936 0.037187 -0.004274 -282939.000000 0 0 1
-0.204722 -8.867816 -30.297449 31.569218 1.547714 2.856782 0.027921 -0.004960 1241.370000 0 0 1
0.204478 -10.318716 -30.457619 32.158736 -1.550983 2.814880 0.043530 -0.001373 -850489.000000 0 0 1
1.483778 -10.657616 -30.089379 31.955549 -1.432463 2.798150 -0.010334 -0.000153 -1122470.000000 0 0 1
1.518278 -11.974416 -29.632819 31.996809 -1.444676 2.754785 0.003568 0.001994 -332435.000000 0 0 1
2.940078 -12.445416 -29.352059 32.016805 -1.338812 2.730714 0.002428 -0.002375 -721952.000000 0 0 1
3.736178 -12.585416 -30.548129 33.249661 -1.282218 2.735699 0.016653 -0.007270 105559.000000 0 0 1
5.105978 -12.807116 -30.292699 33.282741 -1.191426 2.714472 0.022471 -0.002290 212055.000000 0 0 1
5.501978 -14.198116 -29.692279 33.368993 -1.201099 2.667739 0.029603 -0.007203 -1301520.000000 0 0 1
5.158678 -14.344716 -28.358929 32.196455 -1.225575 2.648365 0.031634 -0.009770 -473184.000000 0 0 1
5.636078 -15.503716 -27.697989 32.238319 -1.222119 2.604429 0.048167 -0.008656 -189350.000000 0 0 1
5.141778 -16.938916 -27.977199 33.107227 -1.276087 2.577451 0.038442 -0.015275 18453.600000 0 0 1
5.684678 -17.331516 -29.230779 34.454832 -1.253857 2.583713 0.047305 -0.030017 116696.000000 0 0 1
5.206078 -18.599316 -29.599339 35.343439 -1.297874 2.563447 0.041038 -0.026729 -425962.000000 0 0 1
5.500878 -19.098116 -30.958349 36.788818 -1.290355 2.570878 0.040069 -0.041824 -822241.000000 0 0 1
6.837978 -19.444416 -31.095379 37.306379 -1.232636 2.556234 0.032619 -0.036313 -758952.000000 0 0 1
6.993978 -20.278616 -32.258259 38.739299 -1.238677 2.554764 0.043235 -0.037525 -520645.000000 0 0 1
8.405878 -20.299216 -32.829699 39.503242 -1.178195 2.551813 0.023320 -0.026410 -468768.000000 0 0 1
8.784978 -18.981316 -33.201979 39.240765 -1.137331 2.579439 0.012688 -0.026120 584635.000000 0 0 1
10.060178 -19.001816 -33.860579 40.110037 -1.083881 2.575853 -0.001922 -0.018917 207026.000000 0 0 1
10.465478 -17.649016 -34.459524 40.105770 -1.035556 2.604532 -0.017311 -0.007004 -204353.000000 0 0 1
9.655778 -17.347816 33.467367 38.913306 -1.062901 0.535430 0.006567 -0.010384 282643.000000 0 0 1
9.724178 -15.944016 33.215918 38.106016 -1.023133 0.512194 -0.019758 0.002181 230050.000000 0 0 1
8.679478 -15.541916 32.128647 36.730565 -1.061484 0.505956 -0.000945 -0.006149 87381.400000 0 0 1
8.869478 -16.284116 30.933517 36.065531 -1.072054 0.540011 -0.009013 0.000885 287508.000000 0 0 1
7.926178 -15.752316 30.024867 34.820287 -1.104612 0.531040 0.000552 -0.000870 -154656.000000 0 0 1
8.032778 -16.423116 28.664047 33.998115 -1.115895 0.567761 -0.003873 0.017317 -149396.000000 0 0 1
7.418078 -17.711916 28.671697 34.508058 -1.174173 0.590128 -0.004416 0.004873 425028.000000 0 0 1
7.522978 -18.428816 27.435497 33.895766 -1.183225 0.627653 -0.005967 0.010217 -45934.900000 0 0 1
7.140678 -19.949916 27.607587 34.801829 -1.227074 0.654619 0.003680 0.002492 38211.500000 0 0 1
7.977378 -20.574016 28.568017 36.097926 -1.200903 0.657695 -0.006737 0.010764 355775.000000 0 0 1
7.420378 -21.774416 29.046797 37.052714 -1.242355 0.669823 -0.015062 0.013361 -194356.000000 0 0 1
7.788778 -22.094216 30.544677 38.494113 -1.231873 0.654275 -0.012943 0.006078 -356811.000000 0 0 1
7.218878 -21.241816 31.541957 38.706873 -1.243199 0.618252 0.015848 -0.005886 273440.000000 0 0 1
7.485578 -19.862916 31.431207 37.927432 -1.210394 0.593980 0.011056 -0.014952 -476187.000000 0 0 1
7.040278 -18.987216 32.615547 38.390803 -1.215721 0.555633 0.022681 -0.023123 -716338.000000 0 0 1
5.665278 -18.944816 32.865457 38.355439 -1.280220 0.541638 0.042903 -0.030598 -505363.000000 0 0 1
5.375878 -17.958516 33.783625 38.636015 -1.279936 0.506583 0.052740 -0.033010 -104609.000000 0 0 1
3.888078 -17.990616 34.159554 38.802764 -1.357953 0.494222 0.045327 -0.037135 -96720.100000 0 0 1
3.499578 -18.893716 -33.873809 38.944249 -1.387648 2.625598 0.037026 -0.029545 -126027.000000 0 0 1
2.207778 -18.626916 -33.387689 38.295876 -1.452821 2.629733 0.034961 -0.046114 -360002.000000 0 0 1
1.713678 -19.633416 -32.393529 37.917654 -1.483733 2.595023 0.017859 -0.011371 -1169280.000000 0 0 1
0.728178 -20.523816 -32.908119 38.790483 -1.535332 2.583668 -0.003845 -0.004496 357490.000000 0 0 1
0.015678 -21.252516 -31.911839 38.341038 -1.570059 2.554068 -0.005153 -0.003610 300383.000000 0 0 1
-0.672722 -20.393716 -30.795919 36.942453 1.537822 2.556424 -0.000675 -0.005467 -1297880.000000 0 0 1
-1.672622 -19.502216 -31.218359 36.847253 1.485240 2.581559 0.005071 -0.005808 -162078.000000 0 0 1
-1.993622 -18.555816 -30.202959 35.503684 1.463768 2.588111 0.011658 -0.004468 120060.000000 0 0 1
-2.339222 -17.176616 -30.791239 35.335655 1.435443 2.628831 0.023342 -0.004430 -27425.800000 0 0 1
-2.678022 -16.256516 -29.770739 34.025623 1.407527 2.636130 0.027078 -0.007378 -589465.000000 0 0 1
-2.416822 -14.980716 -30.237219 33.831233 1.410846 2.676470 0.039209 -0.011765 -46892.700000 0 0 1
-3.163122 -13.832316 -29.520559 32.753652 1.345986 2.693536 0.035110 -0.007905 414316.000000 0 0 1
-2.825522 -13.606616 -28.148779 31.392314 1.366048 2.683002 0.027571 -0.006212 -248452.000000 0 0 1
-3.908622 -12.873516 -27.639789 30.740246 1.276024 2.688597 0.023571 -0.004201 53998.400000 0 0 1
-4.032622 -12.556816 -26.158699 29.295277 1.260051 2.674614 0.021098 -0.012068 -660637.000000 0 0 1
-4.630422 -13.657416 -25.541739 29.331660 1.243918 2.627605 0.018114 -0.008831 104982.000000 0 0 1
-4.864322 -13.628916 -24.116239 28.124758 1.227977 2.601136 0.017595 -0.005428 136135.000000 0 0 1
-5.942022 -12.671516 -23.509139 27.359726 1.132314 2.604619 0.027667 -0.011042 -362395.000000 0 0 1
-7.243322 -13.028816 -23.838039 28.115261 1.063399 2.582748 0.021117 -0.014187 -490477.000000 0 0 1
-8.217922 -12.167116 -23.257639 27.504377 0.976758 2.578480 0.017386 -0.015348 1083010.000000 0 0 1
-9.674722 -12.750016 -23.299139 28.266819 0.921686 2.539686 0.014287 -0.018554 636751.000000 0 0 1
-10.059122 -13.666816 -22.287939 28.012855 0.936299 2.490847 0.013725 -0.014262 672227.000000 0 0 1
-11.263022 -14.339416 -22.740139 29.147701 0.904985 2.465733 0.009268 -0.014879 712408.000000 0 0 1
-11.683122 -15.504416 -21.753839 29.156677 0.925037 2.412984 0.015468 -0.016543 -617163.000000 0 0 1
-10.775322 -16.530816 -21.651239 29.294225 0.993134 2.402523 0.018771 -0.013198 -1063920.000000 0 0 1
-11.289422 -17.844016 -21.687439 30.268878 1.006699 2.369558 0.011116 -0.003900 -49316.700000 0 0 1
-11.674122 -18.408416 -23.057139 31.729901 1.005628 2.384257 0.006501 -0.002919 14702.500000 0 0 1
-12.811522 -17.827416 -23.653239 32.271157 0.947669 2.393449 0.002360 -0.005415 -196360.000000 0 0 1
-13.232222 -18.424116 -24.879639 33.668030 0.947959 2.402336 0.008643 -0.007353 999718.000000 0 0 1
-14.551922 -17.743316 -25.413079 34.240448 0.883898 2.407136 0.006240 -0.013950 2142470.000000 0 0 1
-15.833422 -18.043516 -24.790539 34.508500 0.850545 2.372281 0.009904 -0.012806 1824900.000000 0 0 1
-17.006122 -17.660516 -25.506869 35.379407 0.804273 2.375972 0.008112 -0.016431 579641.000000 0 0 1
-17.694922 -16.349616 -25.143579 34.822691 0.745903 2.377551 0.008495 -0.006256 -167807.000000 0 0 1
-18.484422 -16.382316 -23.952939 34.406358 0.725181 2.340855 0.007226 -0.008325 237689.000000 0 0 1
-19.045222 -15.095416 -23.783039 34.003309 0.670218 2.345400 0.004265 -0.008811 -198666.000000 0 0 1
-19.841422 -14.904616 -22.466739 33.475125 0.644260 2.306552 0.005430 -0.016250 287883.000000 0 0 1
-19.031422 -14.964816 -21.271039 32.227285 0.666345 2.291658 -0.002031 -0.008930 254084.000000 0 0 1
-19.787122 -14.988916 -20.104239 31.943360 0.648289 2.251540 -0.006610 -0.013578 -406263.000000 0 0 1
-20.110722 -13.651516 -19.322539 31.051016 0.596368 2.242453 0.005794 -0.014402 -284782.000000 0 0 1
-21.164322 -12.887816 -19.827939 31.735966 0.546968 2.245644 0.016441 -0.020189 -220609.000000 0 0 1
-21.579122 -11.808616 -18.986139 31.073709 0.500710 2.228124 0.025722 -0.011442 2003730.000000 0 0 1
-23.086122 -11.279916 -19.221939 32.088760 0.454487 2.213078 0.031754 -0.014280 1882920.000000 0 0 1
-23.357522 -10.626416 -20.480639 32.832166 0.426960 2.244389 0.039820 -0.020556 1828350.000000 0 0 1
-24.815422 -10.454816 -20.600939 33.904381 0.398735 2.223855 0.027901 -0.019843 2029550.000000 0 0 1
-25.325032 -9.448416 -21.668639 34.643322 0.357092 2.246540 0.041398 -0.023201 -71696.700000 0 0 1
-25.325482 -9.933816 -22.960239 35.598221 0.373804 2.271797 0.024278 -0.017836 85496.900000 0 0 1
-26.227782 -9.177816 -23.700639 36.521900 0.336610 2.276991 0.039011 -0.021341 -634678.000000 0 0 1
-26.214972 -9.687316 -25.158539 37.603470 0.353970 2.303724 0.013996 -0.003469 434515.000000 0 0 1
-25.012122 -9.481116 -25.922289 37.248663 0.362326 2.340504 -0.002595 -0.008514 346152.000000 0 0 1
-24.277422 -10.679016 -25.903009 37.072908 0.414402 2.344381 -0.006582 -0.003705 161045.000000 0 0 1
-23.160322 -10.780216 -26.988109 37.161427 0.435636 2.383633 -0.023668 0.010812 412426.000000 0 0 1
-23.742222 -10.988716 -28.244359 38.499206 0.433476 2.394452 -0.024062 0.013049 185730.000000 0 0 1
-22.725822 -11.086416 -29.237049 38.654581 0.453867 2.428538 -0.033313 0.012384 252268.000000 0 0 1
-23.138122 -11.368916 -30.713899 40.099483 0.456704 2.443302 -0.032478 0.006378 76696.000000 0 0 1
-23.747622 -10.314616 -31.432269 40.722579 0.409758 2.452563 -0.028691 0.006820 -179770.000000 0 0 1
-22.815922 -9.591116 -32.162019 40.582648 0.397942 2.485705 -0.027523 0.004704 -685486.000000 0 0 1
-23.507422 -8.316216 -32.743579 41.157020 0.340029 2.490756 -0.036971 0.006382 -234430.000000 0 0 1
-24.375022 -8.511616 -33.875899 42.593026 0.335957 2.490363 -0.003053 0.003427 957007.000000 0 0 1
-25.628352 -9.106316 -33.602129 43.230088 0.341408 2.461136 0.000441 0.000919 -229335.000000 0 0 1
-26.660382 -8.371916 -32.682539 43.000155 0.304270 2.434196 0.000015 0.000368 -183567.000000 0 0 1
-27.963442 -8.954316 -32.807439 44.027968 0.309898 2.411556 -0.006294 -0.003879 2968.820000 0 0 1
-28.772272 -8.474016 -31.780139 43.699312 0.286422 2.385097 -0.005827 -0.000327 636850.000000 0 0 1
-30.278962 -8.885416 -32.001219 44.942677 0.285439 2.363203 0.005381 -0.008135 741729.000000 0 0 1
-30.510872 -10.273016 -31.827389 45.270640 0.324778 2.350469 -0.001895 -0.016590 -299264.000000 0 0 1
-31.821592 -10.748616 -31.901149 46.323102 0.325745 2.330444 -0.007915 -0.019159 -577504.000000 0 0 1
-31.795002 -12.329316 -31.986139 46.755185 0.369924 2.324192 -0.003144 -0.023310 -339397.000000 0 0 1
-33.110852 -12.827716 -31.911559 47.741245 0.369612 2.302889 0.013684 -0.028351 -45626.000000 0 0 1
-33.101892 -14.258016 -31.946189 48.162073 0.406715 2.296024 0.014420 -0.029785 32904.000000 0 0 1
-34.436257 -14.979316 -31.657179 49.116318 0.410299 2.271211 0.005997 -0.035603 -82223.300000 0 0 1
-34.686299 -14.783716 -30.245629 48.337312 0.402897 2.246851 0.012444 -0.029460 -297670.000000 0 0 1
35.109344 -15.914916 -29.773989 48.707710 -0.425591 2.228472 0.006882 -0.015934 -445293.000000 0 0 1
34.948947 -15.931816 -28.243679 47.675540 -0.427716 2.204849 0.010809 0.002885 457926.000000 0 0 1
-34.251887 -15.998716 -27.507729 46.752817 0.436975 2.199832 0.006911 -0.012157 513096.000000 0 0 1
-34.406524 -15.740016 -26.141789 45.988587 0.429050 2.175406 0.009099 -0.010234 -220622.000000 0 0 1
-33.089992 -15.488116 -25.379589 44.485423 0.437771 2.177929 0.019464 -0.007937 152664.000000 0 0 1
-32.211752 -16.619016 -25.393989 44.256563 0.476310 2.181923 0.016867 -0.005447 581227.000000 0 0 1
-30.955382 -16.253616 -24.835139 42.885894 0.483499 2.188418 0.017233 0.011107 666819.000000 0 0 1
-29.710762 -17.081216 -25.253879 42.570597 0.521772 2.205853 0.008276 0.004218 161418.000000 0 0 1
-29.381452 -18.363616 -24.726539 42.566347 0.558604 2.190623 0.013984 -0.009351 -188192.000000 0 0 1
-30.251832 -19.447016 -25.014039 43.807099 0.571324 2.178525 0.009505 -0.006833 -477612.000000 0 0 1
-30.035072 -20.721016 -24.162039 43.763800 0.603911 2.155678 0.009363 -0.007831 -904766.000000 0 0 1
-28.785162 -21.287416 -24.306239 43.272773 0.636765 2.167233 0.006156 -0.001321 -704418.000000 0 0 1
-28.771262 -22.407716 -23.526639 43.398088 0.661694 2.143745 0.006921 -0.001923 189380.000000 0 0 1
-27.475902 -23.286316 -23.625639 43.073757 0.703051 2.151357 0.012929 -0.006008 843026.000000 0 0 1
-26.213432 -22.806516 -23.196139 41.777292 0.716009 2.159440 0.013549 -0.009595 249095.000000 0 0 1
-26.047862 -22.489516 -21.813639 40.744378 0.712218 2.135751 0.000981 -0.010245 -398589.000000 0 0 1
-25.890292 -23.688216 -20.813439 40.799976 0.741011 2.106136 0.005611 -0.004395 -159331.000000 0 0 1
-25.824692 -23.172316 -19.514339 39.808044 0.731318 2.083128 -0.003311 -0.001026 -91938.700000 0 0 1
-25.914212 -24.275516 -18.606939 40.088219 0.752760 2.053471 -0.004748 0.022703 -51306.400000 0 0 1
-25.815912 -23.845616 -17.111439 39.088056 0.745744 2.023909 -0.016689 0.024310 138624.000000 0 0 1
-26.930742 -23.057916 -16.751739 39.211646 0.708079 2.012205 -0.011966 0.015244 -161672.000000 0 0 1
-26.655402 -22.323716 -15.556039 38.090014 0.697188 1.991499 -0.024008 0.010287 706241.000000 0 0 1
-27.895132 -21.609216 -14.881039 38.295456 0.659097 1.969892 -0.021485 0.004693 656070.000000 0 0 1
-28.534832 -20.700716 -15.733139 38.604248 0.627606 1.990565 -0.012087 0.005351 -414155.000000 0 0 1
-29.788742 -20.343816 -15.232939 39.157151 0.599182 1.970365 -0.005148 0.001825 -306825.000000 0 0 1
-30.824362 -19.787616 -16.228939 40.063319 0.570693 1.987865 0.017993 -0.014410 -74244.000000 0 0 1
-31.455682 -20.813316 -16.999239 41.371829 0.584536 1.994226 0.017403 -0.008032 185342.000000 0 0 1
-32.339602 -20.080816 -17.869939 42.052631 0.555671 2.009694 0.018322 -0.010629 62325.800000 0 0 1
-33.122122 -20.933416 -18.910039 43.507154 0.563622 2.020437 0.014258 -0.010378 341359.000000 0 0 1
-34.282520 -21.646316 -18.554439 44.588355 0.563195 1.999979 0.010295 -0.007512 -134665.000000 0 0 1
-34.187944 -22.560916 -17.485839 44.537232 0.583309 1.974266 0.009428 -0.002958 -593436.000000 0 0 1
-35.184452 -23.722016 -17.543539 45.917921 0.593213 1.962824 0.004799 0.008750 306878.000000 0 0 1
33.915223 -23.410616 -17.151239 44.637029 -0.604165 1.965179 0.009085 0.001356 58541.300000 0 0 1
33.204743 -24.597716 -16.925439 44.655046 -0.637580 1.959540 -0.002374 0.003489 -366416.000000 0 0 1
31.735923 -24.448316 -16.507839 43.328948 -0.656409 1.961662 0.005637 0.001454 -346511.000000 0 0 1
30.884523 -24.055016 -17.566739 42.907900 -0.661723 1.992599 0.004007 -0.001193 -1195860.000000 0 0 1
29.673543 -24.610516 -17.208539 42.217656 -0.692398 1.990637 0.020440 -0.000186 -79762.300000 0 0 1
28.410603 -24.248416 -18.085839 41.499948 -0.706522 2.021728 0.036800 0.000920 740720.000000 0 0 1
27.946643 -22.914516 -18.110339 40.423685 -0.686781 2.035338 0.027763 -0.001965 204668.000000 0 0 1
26.726643 -22.952216 -18.838639 39.950119 -0.709567 2.061849 0.028145 -0.007066 45575.200000 0 0 1
33.497063 30.018284 -18.617239 48.680101 0.730682 1.963232 0.005442 0.010268 -391164.000000 0 0 1
32.531303 30.312684 -19.584439 48.586981 0.750109 1.985676 -0.007731 0.001267 -547357.000000 0 0 1
32.965323 29.848284 -20.821039 49.103444 0.735815 2.008680 -0.005290 0.008164 546768.000000 0 0 1
31.954543 30.085284 -22.047839 49.115419 0.755277 2.036329 -0.006500 0.009727 -495356.000000 0 0 1
30.887753 29.202984 -22.067739 47.894182 0.757368 2.049648 -0.005762 -0.001249 -97927.100000 0 0 1
29.999453 29.473784 -23.177939 48.019663 0.776560 2.074504 0.001535 0.008402 606269.000000 0 0 1
28.954273 30.606284 -22.958639 47.981180 0.813128 2.069734 -0.004922 0.006485 -1013430.000000 0 0 1
29.434753 31.881884 -23.053739 49.135874 0.825287 2.059162 0.017362 -0.005105 189034.000000 0 0 1
28.372563 32.826784 -23.074439 49.142953 0.858052 2.059563 0.018473 -0.000318 103203.000000 0 0 1
28.967433 34.236384 -22.795239 50.307704 0.868570 2.041054 0.027339 -0.000056 420036.000000 0 0 1
29.582983 34.266484 -21.506239 50.118491 0.858619 2.014301 0.024337 -0.009481 559049.000000 0 0 1
31.006643 34.174884 -21.502639 50.908723 0.833966 2.006862 0.018560 -0.005596 440506.000000 0 0 1
31.675303 33.923984 -20.144039 50.595887 0.819664 1.980280 0.010819 -0.003538 -261403.000000 0 0 1
31.317023 -34.069730 -19.299639 50.139591 -0.827472 1.965915 0.012108 -0.003892 196381.000000 0 0 1
31.599263 -34.339930 -17.966539 50.005408 -0.826938 1.938305 -0.009169 -0.006580 -410889.000000 0 0 1
31.366433 -33.009130 -17.172139 48.665575 -0.810910 1.931422 -0.006563 -0.001113 -136524.000000 0 0 1
32.426503 -32.056130 -17.134439 48.709985 -0.779654 1.930252 -0.000446 0.003921 -72743.900000 0 0 1
33.429833 -32.406530 -16.207839 49.299402 -0.769856 1.905790 -0.001447 0.002258 -864937.000000 0 0 1
34.702149 -31.650430 -16.484539 49.776791 -0.739438 1.908339 0.006299 0.011965 -626371.000000 0 0 1
-35.003020 -31.922330 -17.697139 50.571091 0.739399 1.928310 -0.007363 0.007556 -255882.000000 0 0 1
-33.861622 -31.105530 -17.811139 49.309230 0.743001 1.940365 -0.027638 0.017613 -190562.000000 0 0 1
-32.811872 -31.756730 -18.722839 49.352341 0.769058 1.959913 -0.038707 0.008389 -993054.000000 0 0 1
-32.144822 -32.819830 -18.048739 49.357754 0.795788 1.945151 -0.023608 0.006581 496101.000000 0 0 1
-31.235482 -33.576830 -18.857139 49.584782 0.821508 1.960918 -0.026423 0.009272 1165360.000000 0 0 1
-29.956582 -32.894730 -19.486739 48.571526 0.832112 1.983619 -0.029615 0.010281 -257999.000000 0 0 1
-30.248612 -32.196530 -20.658239 48.768411 0.816582 2.008211 -0.035043 0.008266 131180.000000 0 0 1
-29.099912 -31.767030 -21.366539 48.088232 0.829189 2.031211 -0.010516 -0.003814 178910.000000 0 0 1
-28.263562 -32.815630 -22.146439 48.643183 0.859788 2.043487 -0.004179 0.009829 -251876.000000 0 0 1
-29.082232 -33.553130 -22.971739 49.992895 0.856657 2.048229 -0.010592 0.017141 -307012.000000 0 0 1
-28.284732 -34.396530 -23.775339 50.481820 0.882597 2.061184 -0.013337 0.006360 -84614.600000 0 0 1
-29.036832 34.159884 -25.007839 51.336413 -0.866286 2.079604 -0.024083 0.002093 -350208.000000 0 0 1
-30.111212 33.343584 -24.587639 51.215541 -0.836294 2.071544 -0.027077 0.007547 -128946.000000 0 0 1
-30.684162 32.583284 -25.647589 51.584756 -0.815407 2.091157 -0.008618 0.004174 943536.000000 0 0 1
-31.750142 33.210384 -26.617109 53.098697 -0.807873 2.095869 -0.001141 -0.009425 230153.000000 0 0 1
-31.061372 33.964484 -27.602299 53.668258 -0.830014 2.111003 -0.013249 -0.007828 86223.100000 0 0 1
-31.905772 -34.103930 -28.109689 54.508816 0.818686 2.112610 -0.010622 -0.012259 -61898.900000 0 0 1
-31.195142 -33.171530 -29.074469 54.026031 0.816094 2.139045 0.007404 -0.015773 -118853.000000 0 0 1
-30.906042 -33.671930 -30.384489 54.883509 0.828202 2.157499 0.015246 -0.010142 53375.000000 0 0 1
-32.014362 -33.694330 -31.268049 56.017124 0.810960 2.162996 0.007401 -0.009306 293.450000 0 0 1
-31.937392 34.393784 -32.488109 57.082455 -0.822413 2.176260 0.027706 -0.006979 -160210.000000 0 0 1
-30.992662 -34.251330 -33.431099 57.020497 0.835303 2.197280 0.042320 -0.027275 -204824.000000 0 0 1
-30.990612 34.063484 34.466164 57.520913 -0.832599 0.928303 0.022090 -0.032566 90802.200000 0 0 1
-29.898552 34.465184 33.412559 56.552377 -0.856230 0.938715 0.041112 -0.029861 -326862.000000 0 0 1
-28.597252 34.097984 33.683244 55.812510 -0.872912 0.922904 0.053203 -0.023905 -834040.000000 0 0 1
-28.219542 32.962884 32.928457 54.471805 -0.862771 0.921652 0.053692 -0.025099 -1272900.000000 0 0 1
-26.852502 32.486584 33.301467 53.716130 -0.880062 0.902114 0.043340 -0.023701 -1402110.000000 0 0 1
-26.749172 31.811484 -34.463410 53.992734 -0.871629 2.263081 0.046449 -0.023512 30288.900000 0 0 1
-25.385242 31.544384 -34.219421 53.013465 -0.893168 2.272455 0.050138 -0.021319 -255996.000000 0 0 1
-24.899522 30.140184 34.378069 52.060239 -0.880328 0.849509 0.055617 -0.017894 -290414.000000 0 0 1
-25.308922 29.098984 -33.825199 51.297529 -0.854946 2.290807 0.047807 -0.016930 171834.000000 0 0 1
-24.753922 27.883184 -34.254138 50.631755 -0.844778 2.313843 0.036843 -0.016376 -303512.000000 0 0 1
-24.673622 26.761184 -33.245079 49.296895 -0.825962 2.310928 0.039989 -0.025915 657494.000000 0 0 1
-23.659922 26.843284 -32.178409 48.122799 -0.848348 2.303219 0.038648 -0.014186 902179.000000 0 0 1
-23.788822 27.953984 -31.296729 48.237107 -0.865722 2.276816 0.026980 -0.010046 -203470.000000 0 0 1
-22.543722 27.982284 -30.413999 47.076947 -0.892624 2.273193 0.047930 -0.003339 -482233.000000 0 0 1
-21.344722 28.288884 -31.071759 47.130800 -0.924404 2.290639 0.040504 -0.006604 75786.600000 0 0 1
-20.165722 28.257884 -30.272769 46.060883 -0.950980 2.287939 0.013675 0.000254 560658.000000 0 0 1
-19.926322 29.390484 -29.241409 45.999118 -0.974998 2.259705 0.008424 0.005662 -590842.000000 0 0 1
-19.668322 30.706484 -29.807189 47.097766 -1.001110 2.256062 0.006877 0.007958 76845.300000 0 0 1
-19.420522 31.746184 -28.911789 47.126091 -1.021787 2.231280 0.017818 0.000796 -216791.000000 0 0 1
-19.049322 33.057484 -29.591279 48.283721 -1.048024 2.230474 0.016384 0.005107 541917.000000 0 0 1
-17.751522 32.896284 -30.177179 48.041068 -1.075957 2.249975 0.014159 0.001950 229102.000000 0 0 1
-17.554722 33.951884 -31.102559 49.277458 -1.093604 2.253860 0.005646 0.013845 368554.000000 0 0 1
-16.087722 34.138084 -31.583949 49.211476 -1.130408 2.267640 0.016850 0.010666 -21745.400000 0 0 1
-15.194222 -34.505330 -30.605809 48.561278 1.156001 2.252673 0.033167 0.006382 69235.300000 0 0 1
-13.846022 -34.375730 -31.041219 48.342119 1.187892 2.268051 0.040042 0.013942 1303330.000000 0 0 1
-12.930622 33.392784 -31.112669 47.437087 -1.201349 2.286134 0.041569 0.004734 45190.500000 0 0 1
-12.960322 32.735384 -29.839429 46.151564 -1.193819 2.273854 0.050594 -0.009327 12507.100000 0 0 1
-12.428422 31.441184 -29.831699 45.088180 -1.194356 2.293787 0.043460 -0.009937 -228537.000000 0 0 1
-12.264422 30.900184 -28.333029 43.680636 -1.192961 2.276593 0.040948 -0.019494 -562552.000000 0 0 1
-11.056922 31.287184 -27.765219 43.267202 -1.231095 2.267529 0.028123 -0.010003 -654418.000000 0 0 1
-11.003222 30.922884 -26.391449 42.116555 -1.228939 2.248016 0.014703 -0.014906 -176560.000000 0 0 1
-9.613622 31.156384 -25.790789 41.572909 -1.271505 2.240017 0.007902 -0.008150 -384687.000000 0 0 1
-8.628422 30.273784 -26.271059 41.001466 -1.293145 2.266251 0.009798 0.001348 -227175.000000 0 0 1
-7.400022 30.810884 -25.803929 40.864577 -1.335085 2.254218 0.006269 -0.002868 267373.000000 0 0 1
-6.102922 30.142284 -26.336269 40.489530 -1.371026 2.278968 -0.004105 0.001273 83404.900000 0 0 1
-5.802922 29.039284 -25.498069 39.078196 -1.373564 2.281660 0.005515 -0.012825 -303423.000000 0 0 1
-4.788722 28.245484 -26.051589 38.722403 -1.402854 2.308754 0.005877 -0.011209 -383692.000000 0 0 1
-4.438422 26.912584 -25.365689 37.247885 -1.407348 2.319919 0.014427 -0.017498 -448989.000000 0 0 1
-5.320522 25.829584 -25.298219 36.544155 -1.367652 2.335419 0.021897 -0.016299 -349196.000000 0 0 1
-4.817022 24.857684 -24.457239 35.203192 -1.379385 2.338862 0.028773 -0.028745 393204.000000 0 0 1
-5.776522 23.567784 -24.451539 34.448315 -1.330432 2.360016 0.043975 -0.029481 664860.000000 0 0 1
-5.813922 22.876584 -25.639859 34.850282 -1.321922 2.397517 0.032929 -0.030346 -164373.000000 0 0 1
-6.508422 21.680084 -25.504549 34.100845 -1.279153 2.415712 0.026889 -0.028223 -557348.000000 0 0 1
-6.689622 20.684984 -26.654289 34.395795 -1.258008 2.457399 0.014317 -0.018063 -93915.200000 0 0 1
-5.474722 20.115084 -27.085479 34.179122 -1.305063 2.485623 0.025941 -0.024209 -398849.000000 0 0 1
-5.155922 19.033184 -26.211819 32.800992 -1.306254 2.496621 0.027898 -0.020571 -241869.000000 0 0 1
-3.957922 18.227584 -26.739829 32.602583 -1.356976 2.532513 0.030396 -0.022367 -162990.000000 0 0 1
-4.175522 17.738284 -27.981049 33.391927 -1.339609 2.564328 0.024894 -0.021386 -359809.000000 0 0 1
-3.207022 16.804684 -28.355039 33.116320 -1.382223 2.598715 0.024882 -0.015365 -440549.000000 0 0 1
-2.912022 16.592984 -29.854209 34.279451 -1.397068 2.627841 0.017390 -0.018133 -219003.000000 0 0 1
-2.211222 17.683884 -30.347139 35.193154 -1.446400 2.610595 0.021635 -0.020963 -90959.800000 0 0 1
-1.916322 17.685384 -31.712389 36.360978 -1.462861 2.630385 0.015409 -0.017294 100532.000000 0 0 1
-1.282022 19.018784 -32.227949 37.443270 -1.503490 2.607467 0.022822 -0.018963 -340527.000000 0 0 1
0.056378 19.194784 -31.864769 37.199549 1.567859 2.599421 0.031034 -0.023189 -274242.000000 0 0 1
0.644878 20.432884 -32.291219 38.218339 1.539246 2.577201 0.037116 -0.020994 329967.000000 0 0 1
0.317178 21.648584 -31.373729 38.119190 1.556146 2.537544 0.029219 -0.020224 -315603.000000 0 0 1
0.986678 21.547384 -30.148989 37.070539 1.525037 2.520576 0.035594 -0.034041 -357001.000000 0 0 1
0.784378 22.642784 -29.314009 37.048914 1.536169 2.483605 0.035876 -0.031170 -582894.000000 0 0 1
1.681078 22.674984 -28.100939 36.147527 1.496794 2.461312 0.035075 -0.019151 217785.000000 0 0 1
3.007078 22.933984 -28.571589 36.760656 1.440421 2.461052 0.033676 -0.021793 462327.000000 0 0 1
3.985178 23.052684 -27.521859 36.121470 1.399616 2.437077 0.027469 -0.019828 481545.000000 0 0 1
4.491478 24.503584 -27.364399 37.005531 1.389510 2.403076 0.031606 -0.023277 -383693.000000 0 0 1
5.244878 24.996484 -28.441169 38.226078 1.363972 2.409871 0.029636 -0.035245 -47449.600000 0 0 1
5.595478 26.351384 -28.249019 39.034752 1.361563 2.379929 0.034128 -0.029523 -341320.000000 0 0 1
6.291178 26.867284 -29.499869 40.393962 1.340783 2.389563 0.038180 -0.020960 -367614.000000 0 0 1
7.649278 26.478484 -29.521529 40.387402 1.289566 2.390522 0.042960 -0.018876 -85850.300000 0 0 1
8.411478 27.289184 -30.384029 41.697023 1.271802 2.387197 0.061476 -0.026134 -436959.000000 0 0 1
9.907478 27.198184 -30.102449 41.761906 1.221466 2.375768 0.054134 -0.023042 -518811.000000 0 0 1
10.715378 28.090784 -30.848069 43.075687 1.206378 2.369047 0.056252 -0.016691 -699728.000000 0 0 1
11.985478 28.104584 -30.270349 43.009457 1.167690 2.351538 0.047436 -0.027105 -788233.000000 0 0 1
12.845178 29.153284 -30.967319 44.428453 1.155780 2.342023 0.052447 -0.020310 -816445.000000 0 0 1
12.442178 30.476884 -30.839039 45.107589 1.183198 2.323586 0.041003 -0.016554 39114.700000 0 0 1
13.268778 31.332484 -31.605789 46.440402 1.170211 2.319332 0.076208 -0.025176 -169930.000000 0 0 1
12.938878 32.840184 -31.430649 47.262860 1.195477 2.298314 0.068232 -0.029566 595539.000000 0 0 1
11.614378 33.151984 -31.875229 47.433933 1.233821 2.307692 0.053884 -0.028102 653014.000000 0 0 1
11.187378 34.466184 -31.545939 48.043954 1.256935 2.287106 0.041359 -0.021994 -530596.000000 0 0 1
9.861178 -34.284430 -32.209449 48.063641 -1.290728 2.305196 0.001907 -0.013257 -906975.000000 0 0 1
9.915478 -33.936030 -33.592469 48.769097 -1.286528 2.330638 -0.004051 -0.003322 266489.000000 0 0 1
8.620478 -33.757330 -34.138821 48.778367 -1.320774 2.346021 -0.001436 -0.008694 -52144.000000 0 0 1
8.691978 -33.290430 33.436659 47.977217 -1.315403 0.799692 -0.001589 -0.002612 -12491.300000 0 0 1
9.083178 -31.920830 33.228148 46.963319 -1.293570 0.784794 -0.023382 -0.009251 207939.000000 0 0 1
9.288278 -31.628930 31.876567 45.856045 -1.285162 0.802176 -0.027000 0.008630 -362850.000000 0 0 1
9.344278 -30.105730 31.448057 44.526967 -1.269842 0.786581 -0.047592 -0.008830 -43137.600000 0 0 1
8.072578 -29.488730 31.425847 43.844447 -1.303591 0.771655 -0.037430 0.001317 -147760.000000 0 0 1
7.506078 -29.165130 32.687857 44.445945 -1.318898 0.744463 -0.025582 -0.001083 494518.000000 0 0 1
5.972778 -28.782730 32.593977 43.891764 -1.366188 0.733854 -0.034430 -0.006255 1758510.000000 0 0 1
5.033678 -29.860830 32.316357 44.287176 -1.403795 0.752913 -0.002368 -0.017025 556475.000000 0 0 1
5.167778 -30.607130 31.108117 43.945617 -1.403532 0.784308 -0.017826 -0.021150 -973486.000000 0 0 1
4.904378 -29.952830 29.777117 42.519427 -1.408500 0.794954 -0.002397 -0.010083 -177427.000000 0 0 1
3.536878 -29.647730 29.618457 42.056514 -1.452061 0.789425 0.011100 -0.014551 149211.000000 0 0 1
3.342778 -29.091230 28.329257 40.743351 -1.456391 0.801945 0.018974 -0.016685 -229760.000000 0 0 1
1.885278 -29.135530 27.800697 40.315160 -1.506179 0.809882 0.016611 -0.028625 139993.000000 0 0 1
1.492278 -30.343230 27.201647 40.778280 -1.521656 0.840538 0.012133 -0.030486 161982.000000 0 0 1
0.937778 -31.284530 28.087787 42.053835 -1.540830 0.839412 0.027382 -0.028971 -596366.000000 0 0 1
0.849778 -32.720030 27.524627 42.765963 -1.544831 0.871590 0.009510 -0.021097 1382740.000000 0 0 1
2.155678 -33.301030 27.188997 43.044710 -1.506153 0.887122 0.007342 -0.023783 1481570.000000 0 0 1
2.681878 -32.859530 25.943637 41.952514 -1.489360 0.904085 0.007497 -0.022160 -112655.000000 0 0 1
4.224878 -32.740030 26.066987 42.062417 -1.442462 0.902408 0.004363 -0.006403 -47947.500000 0 0 1
4.761978 -32.541930 24.783817 41.181200 -1.425494 0.925014 0.008036 -0.013378 -772998.000000 0 0 1
6.133278 -32.405830 24.971647 41.368322 -1.383744 0.922735 -0.003870 -0.011727 -867225.000000 0 0 1
6.898878 -31.833930 23.762177 40.319160 -1.357382 0.940540 -0.000712 -0.004247 -928872.000000 0 0 1
8.264078 -31.725930 23.976577 40.616571 -1.315976 0.939347 -0.005012 0.006278 -875834.000000 0 0 1
8.917478 -31.492830 22.775177 39.875161 -1.294861 0.962876 0.003751 0.005259 158277.000000 0 0 1
10.100978 -30.482530 22.869077 39.423458 -1.250814 0.951960 0.001623 0.002191 6230.090000 0 0 1
11.208678 -30.925930 23.600977 40.485228 -1.223086 0.948438 0.012626 0.000083 -953962.000000 0 0 1
12.237878 -30.005830 23.450177 40.000329 -1.183541 0.944375 0.016636 0.003087 -614017.000000 0 0 1
13.438978 -30.465830 24.281757 41.211365 -1.155354 0.940727 0.043761 0.000995 -405658.000000 0 0 1
13.315878 -30.117330 25.633617 41.730666 -1.154503 0.909344 0.027020 0.005673 -146927.000000 0 0 1
14.564778 -30.210630 26.249297 42.589206 -1.121565 0.906714 0.025500 0.007241 -501569.000000 0 0 1
-10.431422 -13.798416 26.070447 31.287043 0.923475 0.585806 0.018228 -0.004150 239989.000000 0 0 1
-9.054722 -14.115916 25.899917 30.855352 1.000452 0.574622 0.009000 -0.005687 -450719.000000 0 0 1
-8.386622 -14.304616 27.100987 31.771386 1.040520 0.549090 0.015860 -0.008819 -367402.000000 0 0 1
-6.880422 -14.363316 26.770407 31.149635 1.124067 0.536675 0.030951 -0.008833 -219458.000000 0 0 1
-6.330222 -15.373916 25.912487 30.787757 1.180201 0.570467 0.025408 -0.006329 37724.000000 0 0 1
-6.761422 -15.316716 24.588517 29.747500 1.155083 0.597803 0.018739 0.001092 -844011.000000 0 0 1
-6.021122 -16.311016 23.646377 29.350542 1.217169 0.634018 0.019683 0.003119 -191465.000000 0 0 1
-6.481122 -17.598016 23.439577 30.018476 1.217924 0.674790 0.022541 -0.000460 -437838.000000 0 0 1
-6.782622 -18.401416 24.603727 31.463621 1.217655 0.672970 0.029605 -0.004800 -294957.000000 0 0 1
-7.299822 -19.800116 24.396407 32.257041 1.217582 0.713138 0.039013 -0.007399 938701.000000 0 0 1
-8.685322 -19.799216 23.986077 32.292037 1.157404 0.733574 0.030031 -0.009595 664497.000000 0 0 1
-9.142222 -20.999016 23.472977 32.795115 1.160180 0.773104 0.020819 -0.015898 83730.900000 0 0 1
-10.669122 -21.227216 23.582377 33.474668 1.105059 0.789100 0.022715 -0.016525 93544.100000 0 0 1
-11.033322 -21.193816 24.919957 34.524141 1.090811 0.764379 0.019964 -0.015706 -210249.000000 0 0 1
-12.404722 -20.948416 25.112317 34.976302 1.036165 0.769899 0.025943 -0.010402 -161958.000000 0 0 1
-12.825922 -20.869316 26.601347 36.161641 1.019723 0.744210 0.024491 -0.015109 -394469.000000 0 0 1
-12.656122 -22.112816 27.272897 37.322446 1.050961 0.751395 0.025072 -0.014166 -165652.000000 0 0 1
-11.743722 -21.923516 28.306707 37.680568 1.079023 0.720875 0.019108 -0.013122 -395903.000000 0 0 1
-11.505022 -23.191416 29.125317 38.967825 1.110282 0.726627 0.016441 -0.003373 -420026.000000 0 0 1
-12.481722 -23.604216 30.011847 40.170429 1.084381 0.727088 0.011594 0.001064 -688027.000000 0 0 1
-12.011622 -24.786016 30.569547 41.147574 1.119534 0.733367 0.009087 0.008596 -456416.000000 0 0 1
-12.873522 -25.357116 31.630387 42.534601 1.101017 0.732300 0.018416 -0.000435 -451537.000000 0 0 1
-12.868422 -24.642716 32.836367 43.024257 1.089547 0.702536 0.029322 -0.004446 36728.900000 0 0 1
-13.923122 -25.088416 33.665462 44.233983 1.064151 0.705825 0.019467 -0.005648 -215960.000000 0 0 1
-13.761922 -24.459616 -33.977729 44.069824 1.058302 2.451203 0.027146 -0.015761 12856.200000 0 0 1
-13.815822 -23.052316 -33.833539 43.208733 1.030874 2.470312 0.036402 -0.019336 185928.000000 0 0 1
-15.086922 -22.518916 -34.191609 43.632361 0.980513 2.471283 0.026980 -0.018560 -19549.900000 0 0 1
-15.254322 -21.006516 -34.010759 42.786678 0.942721 2.489625 0.023087 -0.021714 10854.400000 0 0 1
-15.484322 -20.736716 -32.654719 41.666609 0.929404 2.471420 0.031230 -0.022835 -21699.100000 0 0 1
-15.892522 -19.410516 -32.420959 40.993402 0.884722 2.483046 0.023003 -0.022378 -239180.000000 0 0 1
-16.069222 -19.001316 -30.944259 39.709156 0.868810 2.464301 0.011433 -0.015004 395920.000000 0 0 1
-17.128122 -19.700216 -30.271269 39.972751 0.855125 2.429961 0.022441 -0.014666 463847.000000 0 0 1
-17.202622 -19.315116 -28.902069 38.785739 0.843182 2.411590 0.023734 -0.016259 42284.000000 0 0 1
-16.267622 -20.146316 -27.981049 38.124122 0.891515 2.394910 0.019507 -0.018692 -229273.000000 0 0 1
-14.912922 -19.958216 -28.271269 37.682759 0.929085 2.419228 0.013150 -0.014651 -652058.000000 0 0 1
-14.125222 -20.983116 -27.797099 37.583132 0.978304 2.403296 0.018340 -0.011445 -204490.000000 0 0 1
-12.603822 -20.934716 -27.994619 37.159351 1.028868 2.423963 0.023706 -0.017534 -696078.000000 0 0 1
-11.962122 -19.828216 -27.383159 35.862068 1.027963 2.439618 0.015115 -0.018723 712990.000000 0 0 1
-10.531022 -19.826216 -27.484059 35.487389 1.082527 2.456679 0.005100 -0.027712 1000410.000000 0 0 1
-9.879322 -20.762716 -26.423549 35.027066 1.126679 2.425498 0.012557 -0.012805 -778935.000000 0 0 1
-10.002022 -22.110416 -26.815589 36.166100 1.145976 2.406035 0.008667 -0.013557 134483.000000 0 0 1
-9.443322 -23.005016 -25.847269 35.867652 1.181280 2.375505 0.022545 -0.012171 21280.200000 0 0 1
-9.462622 -24.488216 -26.201439 37.090826 1.202055 2.355214 0.025922 -0.009945 -597589.000000 0 0 1
-8.399622 -24.896516 -26.999679 37.674565 1.245407 2.369791 0.015682 -0.004768 -428064.000000 0 0 1
-8.506422 -26.122966 -27.710219 39.020826 1.255995 2.360492 0.015197 -0.007892 -306106.000000 0 0 1
-8.397122 -27.438626 -26.888319 39.323932 1.273814 2.323706 0.014524 0.000208 -1037070.000000 0 0 1
-9.477722 -27.731936 -26.104429 39.247022 1.241479 2.298466 0.018245 -0.002281 -594244.000000 0 0 1
-9.184922 -28.902466 -25.322259 39.508634 1.263099 2.266505 0.041053 0.001816 168973.000000 0 0 1
-10.342622 -29.095216 -24.289939 39.287436 1.229252 2.237326 0.038990 -0.004925 369197.000000 0 0 1
-10.353022 -28.130176 -23.236139 37.926377 1.218142 2.230224 0.032946 -0.009259 -8562.240000 0 0 1
-11.236522 -27.036336 -23.441039 37.506069 1.176907 2.245919 0.029136 -0.010454 -78939.500000 0 0 1
-11.142922 -25.959986 -22.314539 36.000337 1.165344 2.239338 0.028796 -0.011641 18784.200000 0 0 1
-11.498522 -26.428826 -21.009839 35.666682 1.160423 2.200692 0.035088 -0.012618 91504.100000 0 0 1
-11.506822 -25.387366 -20.083739 34.355231 1.145243 2.195171 0.032136 -0.005054 -376195.000000 0 0 1
-12.149222 -25.775746 -18.730939 34.100451 1.130336 2.152307 0.044458 -0.005897 -568930.000000 0 0 1
-13.507322 -26.055866 -18.862839 34.887858 1.092538 2.142030 0.054167 -0.009635 -640191.000000 0 0 1
-13.875622 -26.620276 -17.608339 34.802667 1.090299 2.101277 0.062666 -0.007005 7113.030000 0 0 1
-15.394422 -26.823066 -17.383639 35.477543 1.049770 2.082875 0.053554 -0.010602 -668405.000000 0 0 1
-16.073822 -25.593636 -17.140739 34.744883 1.010014 2.086712 0.049691 -0.011175 456765.000000 0 0 1
-17.447022 -25.719946 -16.778039 35.318789 0.974752 2.065812 0.045051 -0.001116 780109.000000 0 0 1
-18.483222 -26.273746 -17.794039 36.722841 0.957734 2.076645 0.035279 0.001153 -904825.000000 0 0 1
-18.335222 -27.633206 -18.153939 37.806613 0.984974 2.071655 0.039682 -0.006064 -125042.000000 0 0 1
-18.645022 -28.663346 -17.245739 38.296733 0.994082 2.037919 0.040490 -0.007362 -897700.000000 0 0 1
-20.091822 -29.145616 -17.125939 39.324878 0.967247 2.021389 0.034934 -0.003348 -278858.000000 0 0 1
-20.677722 -29.796146 -18.206339 40.581391 0.964127 2.036037 0.034852 -0.008270 -445201.000000 0 0 1
-21.839122 -30.492576 -17.882939 41.551703 0.949273 2.015708 0.026836 0.000268 -366666.000000 0 0 1
-22.386322 -31.479466 -18.922039 43.013344 0.952633 2.026296 0.020099 -0.005934 -390515.000000 0 0 1
-21.498822 -32.493896 -19.251639 43.458926 0.986291 2.029721 0.019291 -0.007192 -212576.000000 0 0 1
-21.980022 -33.306146 -20.297139 44.770466 0.987466 2.041328 0.023715 -0.007159 136377.000000 0 0 1
-21.252722 34.419263 -20.230339 45.228646 -1.017633 2.034530 0.027328 -0.003924 225389.000000 0 0 1
-21.965522 33.537506 -19.378239 44.528245 -0.990946 2.021045 0.023699 -0.002328 19542.600000 0 0 1
-21.127822 32.473748 -19.016339 43.157274 -0.993991 2.027095 0.017060 -0.010329 -288229.000000 0 0 1
-21.838122 31.175168 -18.609639 42.368778 -0.959737 2.025538 0.025113 -0.009835 319668.000000 0 0 1
-22.703622 31.180028 -17.472039 42.342895 -0.941429 1.996138 0.012626 -0.010200 -54040.200000 0 0 1
-23.310922 29.957918 -17.141539 41.649829 -0.909539 1.994965 0.014219 -0.003216 -86307.700000 0 0 1
-22.442122 28.729308 -16.723239 40.108462 -0.907651 2.000884 0.011903 -0.006368 69140.400000 0 0 1
-21.777322 28.058218 -17.801539 39.729210 -0.910770 2.035404 0.006680 -0.006243 -99463.900000 0 0 1
-21.136322 26.911718 -17.420739 38.398787 -0.905025 2.041686 0.013227 -0.011450 -72873.800000 0 0 1
-20.354622 26.232628 -18.610439 38.063235 -0.910907 2.081665 0.019059 -0.014494 -677998.000000 0 0 1
-20.112722 24.865868 -18.370539 36.882376 -0.890683 2.092185 0.020653 -0.018350 43944.100000 0 0 1
-19.542422 24.256458 -19.557239 36.779989 -0.892615 2.131445 0.007223 -0.003365 1470280.000000 0 0 1
-18.037822 24.698898 -19.905939 36.491711 -0.940017 2.147772 -0.000776 -0.010308 -29906.600000 0 0 1
-17.206322 24.093518 -18.943839 35.148601 -0.950638 2.140003 0.006692 -0.010942 -139078.000000 0 0 1
-16.013622 24.845908 -18.779439 35.020316 -0.998285 2.136777 0.022014 -0.015324 -167220.000000 0 0 1
-16.162422 26.148038 -17.979939 35.612104 -1.017165 2.100043 0.008475 -0.010299 -445610.000000 0 0 1
-17.060722 27.135648 -18.478639 36.998266 -1.009526 2.093756 0.008741 -0.009561 -1678.270000 0 0 1
-17.023722 28.276188 -17.654239 37.430229 -1.028870 2.061966 0.017184 -0.016115 -167050.000000 0 0 1
-18.090122 29.334188 -18.027139 38.893763 -1.018195 2.052734 0.017080 -0.016392 -30134.400000 0 0 1
-17.916622 30.068738 -19.247939 39.945181 -1.033430 2.073571 0.012499 -0.020292 -66175.800000 0 0 1
-18.187422 29.285568 -20.375539 40.044842 -1.015052 2.104608 0.009203 -0.013911 -208651.000000 0 0 1
-18.126822 30.165548 -21.658439 41.323479 -1.029707 2.122477 0.028312 -0.020147 63002.700000 0 0 1
-19.069122 31.210438 -21.671439 42.513223 -1.022338 2.105699 0.034320 -0.018066 -107340.000000 0 0 1
-19.660722 31.291698 -22.954639 43.504365 -1.009824 2.126616 0.027536 -0.019321 124855.000000 0 0 1
-20.353522 32.660768 -23.217739 44.945022 -1.013507 2.113649 0.023471 -0.020548 -111557.000000 0 0 1
-19.473322 33.757710 -23.263039 45.386807 -1.047569 2.108949 0.016978 -0.016520 -205738.000000 0 0 1
-19.771722 -34.440037 -24.321339 46.567851 1.049645 2.120316 0.011867 -0.010834 -420049.000000 0 0 1
-18.881022 -33.221796 -24.311639 45.290579 1.053987 2.137427 0.028020 -0.008095 -524032.000000 0 0 1
-19.009622 -32.384526 -23.152639 44.115394 1.039993 2.123300 0.027964 -0.009998 -235863.000000 0 0 1
-18.353522 -32.820996 -22.025039 43.579490 1.060917 2.100641 0.027667 -0.015118 -680738.000000 0 0 1
-18.154222 -31.730906 -20.934239 42.126815 1.051121 2.090858 0.037585 -0.021384 -228473.000000 0 0 1
-17.046222 -30.903406 -21.202439 41.172049 1.066728 2.111771 0.031930 -0.016799 22262.500000 0 0 1
-16.703122 -30.138376 -20.099139 39.890994 1.064723 2.098848 0.034846 -0.014831 -329397.000000 0 0 1
-15.530422 -29.162606 -20.222339 38.737509 1.081452 2.120032 0.046882 -0.017680 700710.000000 0 0 1
-14.260322 -29.817886 -20.295939 38.786445 1.124702 2.121485 0.062091 -0.020938 763733.000000 0 0 1
-13.156822 -28.953996 -20.575139 37.878387 1.144286 2.145027 0.051986 -0.019376 407782.000000 0 0 1
-11.791222 -29.705386 -20.703439 38.079854 1.192932 2.145618 0.053820 -0.015637 448887.000000 0 0 1
-11.335422 -30.321746 -19.507439 37.794712 1.213045 2.113137 0.052684 -0.016587 151925.000000 0 0 1
-10.754522 -29.441016 -18.565939 36.429758 1.220565 2.105559 0.047058 -0.016035 -509936.000000 0 0 1
-10.198722 -30.154946 -17.239839 36.201475 1.244663 2.067146 0.037170 -0.009046 508846.000000 0 0 1
-11.228722 -30.735456 -16.423339 36.612546 1.220526 2.035963 0.045362 -0.015572 495547.000000 0 0 1
-11.448922 -32.111706 -16.745339 37.982179 1.228312 2.027368 0.050646 -0.013905 30931.600000 0 0 1
-12.508622 -32.775106 -15.838439 38.490640 1.206208 1.994882 0.059505 -0.013539 -177530.000000 0 0 1
-12.073522 -33.054046 -14.506139 38.062685 1.220587 1.961795 0.047685 -0.005761 -634374.000000 0 0 1
-13.078022 -33.530676 -13.704939 38.511898 1.198913 1.934633 0.053880 0.004629 -1435000.000000 0 0 1
-12.622322 -34.106198 -12.349339 38.406535 1.216338 1.898155 0.039041 0.008768 -100478.000000 0 0 1
-12.131022 -33.222576 -11.368939 37.150425 1.220694 1.881811 0.033115 0.011604 87386.700000 0 0 1
-11.690922 -34.010354 -10.277439 37.403310 1.239704 1.849150 0.036273 0.005658 -830686.000000 0 0 1
-10.740622 -33.280526 -9.353139 36.199939 1.258619 1.832135 0.014257 0.005478 839108.000000 0 0 1
-9.415722 -33.320966 -9.944439 36.025470 1.295400 1.850467 -0.009566 0.011976 1023420.000000 0 0 1
-8.356222 -32.779126 -9.162339 35.046341 1.321188 1.835305 -0.025955 0.009423 424388.000000 0 0 1
-6.969122 -33.236626 -9.629139 35.298191 1.364109 1.847092 -0.025751 0.011492 -184826.000000 0 0 1
-6.671622 34.481035 -9.247739 36.317667 -1.379671 1.828266 -0.031318 0.012625 -896672.000000 0 0 1
-5.589422 34.029578 -9.970539 35.897987 -1.407998 1.852244 -0.029887 0.006646 -818707.000000 0 0 1
-4.881122 32.963958 -9.130639 34.551649 -1.423790 1.838234 -0.026246 0.002267 -206018.000000 0 0 1
-4.259622 33.452619 -7.955639 34.648438 -1.444145 1.802474 -0.025617 0.003345 130809.000000 0 0 1
-3.485322 32.436968 -7.326239 33.436180 -1.463758 1.791700 -0.015487 -0.004843 53610.500000 0 0 1
-2.980722 32.921628 -5.933439 33.584579 -1.480503 1.748400 -0.013085 0.000500 -613642.000000 0 0 1
-2.173822 34.062948 -5.931339 34.643769 -1.507065 1.742853 -0.017021 0.004890 -107875.000000 0 0 1
-1.684922 34.480292 -4.640139 34.831887 -1.521969 1.704409 -0.009701 0.001875 711166.000000 0 0 1
-0.555622 33.561225 -4.024839 33.806269 -1.554242 1.690135 -0.003507 -0.002156 -1011030.000000 0 0 1
0.708178 33.715203 -4.530439 34.025597 1.549795 1.704341 0.006051 -0.003831 -2060340.000000 0 0 1
1.583678 32.969888 -3.793039 33.225121 1.522799 1.685208 0.009660 -0.007116 -976296.000000 0 0 1
3.014078 33.058228 -4.317739 33.474975 1.479873 1.700141 0.016117 -0.005255 -347516.000000 0 0 1
3.587678 34.331369 -3.964039 34.745185 1.466673 1.685134 0.019122 -0.003710 -910725.000000 0 0 1
4.971478 34.302297 -4.006239 34.891447 1.426867 1.685870 0.030236 -0.004517 -586670.000000 0 0 1
5.684178 -33.424266 -3.739439 34.109747 -1.402346 1.680647 0.029748 -0.005327 -97270.600000 0 0 1
5.422778 -32.413036 -4.687139 33.196095 -1.405029 1.712465 0.027631 -0.006254 -43499.800000 0 0 1
5.811778 -31.165486 -4.140139 31.971942 -1.386433 1.700654 0.027198 -0.006205 -232805.000000 0 0 1
5.446678 -30.057346 -5.097739 30.969296 -1.391532 1.736155 0.022609 -0.005816 323120.000000 0 0 1
6.453078 -29.880516 -6.127639 31.177483 -1.358100 1.768625 0.037298 -0.006334 388963.000000 0 0 1
6.293978 -28.667216 -6.847739 30.138264 -1.354672 1.800009 0.018944 -0.003366 -27535.700000 0 0 1
6.835978 -27.393546 -6.152539 28.896206 -1.326244 1.785357 0.026336 -0.009770 88133.400000 0 0 1
6.082778 -27.058036 -4.999639 28.180382 -1.349668 1.749156 0.029504 -0.017903 -283504.000000 0 0 1
6.594278 -25.909586 -4.339239 27.085423 -1.321576 1.731695 0.020369 -0.018366 -512944.000000 0 0 1
5.680578 -25.308466 -3.280539 26.144777 -1.350002 1.696604 0.014087 -0.014100 -355519.000000 0 0 1
4.601578 -24.564516 -3.806939 25.280086 -1.385616 1.721962 0.007462 -0.017165 -149311.000000 0 0 1
3.817678 -23.954916 -2.791239 24.417283 -1.412756 1.685361 0.008169 -0.015509 -132406.000000 0 1 0
2.681278 -23.112316 -3.349139 23.507130 -1.455302 1.713756 0.011358 -0.017718 91199.600000 0 1 0
1.660178 -23.917316 -3.922939 24.293696 -1.501494 1.732986 0.005542 -0.011695 -65899.900000 0 1 0
0.580878 -23.167216 -4.458539 23.599489 -1.545728 1.760864 0.004677 -0.009967 265448.000000 0 1 0
-15.348322 23.676084 18.535877 33.759542 -0.995643 0.989562 -0.025462 0.003362 -452140.000000 0 0 1
-15.401022 22.821584 19.680177 33.842658 -0.977153 0.950201 0.002916 -0.003069 -21507.900000 0 0 1
-14.905222 23.577284 20.799477 34.794715 -1.007046 0.930071 -0.002641 0.000950 -1188060.000000 0 0 1
-14.887522 22.853884 22.152177 35.137690 -0.993422 0.888677 0.005386 -0.004785 -950078.000000 0 0 1
-13.904822 21.871284 22.395677 34.252934 -1.004499 0.858158 -0.003022 -0.009593 817381.000000 0 0 1
-12.539422 22.203584 22.121677 33.758033 -1.056701 0.856215 -0.012766 -0.011559 232902.000000 0 0 1
-11.910522 23.407384 23.001777 34.912002 -1.100105 0.851507 -0.003535 0.013889 -680394.000000 0 0 1
-11.697022 23.217684 24.401267 35.655336 -1.104115 0.817064 -0.010298 0.015729 25567.500000 0 0 1
-11.720722 24.371784 25.167927 36.942979 -1.122534 0.821308 -0.000298 0.017029 -129229.000000 0 0 1
-11.215922 24.136184 26.605487 37.632488 -1.135791 0.785575 -0.010906 0.009374 45313.100000 0 0 1
-9.828122 23.890384 26.651367 37.116543 -1.180515 0.769806 -0.035500 0.012610 -411667.000000 0 0 1
-9.584022 23.293784 27.887207 37.578586 -1.180466 0.734593 -0.043795 0.017935 93874.500000 0 0 1
-8.114722 22.744184 28.084097 37.038670 -1.228092 0.710191 -0.039586 -0.000136 1265870.000000 0 0 1
-7.133322 23.715984 28.409547 37.688652 -1.278623 0.716977 -0.033267 0.005297 56884.900000 0 0 1
-6.854922 24.717684 27.491367 37.599589 -1.300266 0.750774 -0.030708 0.012238 -1269260.000000 0 0 1
-5.765322 25.694684 27.908287 38.370929 -1.350074 0.756374 -0.028891 0.005881 -479022.000000 0 0 1
-4.468822 25.179884 27.942607 37.878571 -1.395149 0.741155 -0.032517 0.001671 -1175200.000000 0 0 1
-3.573822 26.106684 28.439907 38.770600 -1.434749 0.747276 -0.024699 0.009111 -352598.000000 0 0 1
-2.109222 25.699984 28.195177 38.208716 -1.488909 0.740805 -0.012005 0.012620 -104335.000000 0 0 1
-1.663122 25.666984 26.866367 37.193570 -1.506091 0.763618 -0.014749 0.009755 -329847.000000 0 0 1
-0.416722 25.007884 26.810867 36.665931 -1.554134 0.750687 -0.003094 0.013489 161839.000000 0 0 1
0.120278 24.784784 25.392907 35.483795 1.565943 0.773285 -0.007887 0.012041 -57835.200000 0 0 1
-0.545922 23.707084 24.806787 34.317641 -1.547773 0.762867 -0.006550 0.016504 150208.000000 0 0 1
-0.040722 23.451184 23.468377 33.177166 -1.569060 0.785032 -0.007553 0.011117 133278.000000 0 0 1
-0.497822 22.069384 22.968677 31.856956 -1.548243 0.765560 -0.007580 0.016531 -47458.100000 0 0 1
0.128878 20.971984 23.526477 31.517230 1.564651 0.728064 -0.003076 0.016606 -178871.000000 0 0 1
-0.294122 19.842284 22.788877 30.218134 -1.555974 0.716444 -0.006812 0.011246 183933.000000 0 0 1
0.664878 18.668084 23.109877 29.715414 1.535196 0.679787 0.001314 0.014776 798297.000000 0 0 1
1.870578 18.675884 22.327777 29.168773 1.470969 0.699027 0.009748 0.012584 33037.400000 0 0 1
2.651878 17.530484 22.514877 28.657808 1.420662 0.667058 -0.001671 0.005633 -1240370.000000 0 0 1
3.999578 17.784184 21.912277 28.503012 1.349582 0.693880 0.003295 0.006659 -1349160.000000 0 0 1
4.882678 18.595784 22.647977 29.708156 1.314023 0.703862 -0.001346 0.012511 -709026.000000 0 0 1
5.979078 18.885684 21.802077 29.457579 1.264187 0.737551 0.024441 -0.002546 396201.000000 0 0 1
7.169678 19.512284 22.616677 30.718847 1.218666 0.743288 0.024494 -0.006081 193023.000000 0 0 1
6.803978 20.640684 23.405577 31.939833 1.252374 0.748365 0.003640 0.004662 -45190.100000 0 0 1
6.495878 21.813884 22.707677 32.150902 1.281372 0.786561 0.012286 -0.000361 207172.000000 0 0 1
5.370378 22.708584 23.330077 32.997170 1.338572 0.785503 -0.007038 0.006665 293485.000000 0 0 1
5.199578 23.970384 22.741477 33.448313 1.357189 0.823171 -0.010792 0.004370 352316.000000 0 0 1
4.192778 24.794884 23.321977 34.296942 1.403282 0.823031 -0.021093 0.015480 101292.000000 0 0 1
4.034978 26.130784 22.518377 34.730047 1.417592 0.865338 -0.015040 0.009790 -150296.000000 0 0 1
3.866478 26.046284 21.117077 33.753362 1.423426 0.894859 -0.008292 0.002223 363991.000000 0 0 1
2.610778 25.570184 20.638077 32.963323 1.469046 0.894265 -0.000665 0.003699 71474.500000 0 0 1
2.378978 25.820784 19.120477 32.217465 1.478921 0.935418 0.011161 -0.007071 -400624.000000 0 0 1
2.321578 27.225984 18.875477 33.210353 1.485731 0.966284 0.010565 -0.010504 161336.000000 0 0 1
1.771578 27.488184 17.605577 32.690902 1.506437 1.002085 0.011679 -0.009042 91693.200000 0 0 1
0.487178 28.353684 17.684777 33.420354 1.553616 1.013184 0.002826 0.001882 124435.000000 0 0 1
0.701778 29.703384 17.992377 34.734840 1.547175 1.026294 0.000831 0.000649 -224435.000000 0 0 1
-0.512022 30.360984 18.223877 35.414138 -1.553933 1.030263 -0.002498 0.003304 -252914.000000 0 0 1
-0.212322 31.778484 18.793777 36.920498 -1.564115 1.036735 -0.003331 -0.001562 -299194.000000 0 0 1
0.298978 31.720684 20.077277 37.541819 1.561371 1.006528 -0.012029 -0.003810 -72039.500000 0 0 1
0.720678 33.055984 20.515677 38.911572 1.548998 1.015449 -0.018101 -0.002981 135947.000000 0 0 1
1.519678 32.998884 21.821377 39.590507 1.524776 0.987022 -0.015265 -0.002199 228635.000000 0 0 1
0.583678 32.826984 22.890077 40.023832 1.553018 0.961963 -0.021280 -0.001495 217707.000000 0 0 1
1.135978 33.079984 24.156517 40.976982 1.536469 0.940339 -0.016087 -0.008357 -659691.000000 0 0 1
0.289978 32.845084 25.414757 41.530633 1.561968 0.912270 -0.013620 0.010286 476066.000000 0 0 1
-0.951322 33.586984 25.388597 42.113790 -1.542480 0.923719 -0.015457 0.012070 549374.000000 0 0 1
-1.947522 33.230184 26.292067 42.418283 -1.512256 0.902272 -0.007750 0.003277 -119038.000000 0 0 1
-1.687922 33.566084 27.819127 43.628372 -1.520552 0.879368 0.006369 -0.006840 -576990.000000 0 0 1
-0.688922 32.790084 28.431627 43.405318 -1.549789 0.856579 -0.003297 -0.012888 56785.400000 0 0 1
-0.329422 33.181984 29.732587 44.555351 -1.560869 0.840194 0.009887 -0.011006 25486.000000 0 0 1
0.744478 32.270084 30.502947 44.411061 1.547730 0.813675 -0.001684 -0.006994 1355940.000000 0 0 1
2.108478 32.332484 30.072697 44.206360 1.505676 0.822652 -0.011800 -0.009990 789127.000000 0 0 1
2.334978 31.964784 28.706427 43.026253 1.497877 0.840374 -0.019042 -0.007276 -2014870.000000 0 0 1
3.795578 31.885284 28.365367 42.844740 1.452315 0.847245 -0.026278 -0.004341 -939565.000000 0 0 1
4.446578 30.764684 28.935337 42.467535 1.427255 0.821188 -0.026968 -0.004342 -330465.000000 0 0 1
5.841778 30.864884 28.881567 42.672149 1.383740 0.827356 -0.016729 -0.009273 -212763.000000 0 0 1
6.554978 29.705384 29.643757 42.475050 1.353611 0.798321 -0.013320 -0.003317 3649.050000 0 0 1
6.596378 29.944784 31.044337 43.634311 1.353974 0.779214 -0.011926 -0.002550 66778.000000 0 0 1
7.108078 28.821384 31.678807 43.413635 1.328997 0.752917 -0.012068 0.006659 -165682.000000 0 0 1
7.174578 28.877984 33.215016 44.594280 1.327282 0.730521 0.006178 -0.005564 280802.000000 0 0 1
5.828878 28.852184 33.715994 44.757039 1.371454 0.717713 0.000171 -0.004271 691493.000000 0 0 1
5.812678 28.491584 -33.951379 44.701831 1.369544 2.433352 0.017174 -0.006620 -14294.500000 0 0 1
5.869778 26.998184 -33.456229 43.389809 1.356714 2.451303 0.016586 -0.008781 477737.000000 0 0 1
7.100378 26.365084 -33.828519 43.473000 1.307728 2.462511 0.003768 -0.003399 607949.000000 0 0 1
7.037378 24.992084 -33.517529 42.397567 1.296319 2.482508 0.012963 -0.013639 -557350.000000 0 0 1
8.290578 24.263084 -33.948149 42.543011 1.241539 2.494720 0.006263 -0.010453 -1072760.000000 0 0 1
8.475778 24.131984 33.738649 42.337783 1.233030 0.648663 -0.007004 -0.006057 257658.000000 0 0 1
9.772378 23.736984 33.325388 42.065725 1.180250 0.656355 -0.000648 -0.013736 -127030.000000 0 0 1
10.057678 22.260384 33.576873 41.522138 1.146430 0.628943 0.004686 -0.016925 -1011130.000000 0 0 1
9.388878 21.336484 32.708427 40.165131 1.156257 0.619190 0.004594 -0.015010 193196.000000 0 0 1
9.197578 20.091684 33.404354 40.051492 1.141491 0.584415 0.008112 -0.015551 360184.000000 0 0 1
7.913378 20.047484 34.280531 40.492937 1.194840 0.561269 0.013293 -0.021179 -255007.000000 0 0 1
8.087578 20.751584 -33.566239 40.283118 1.199172 2.555771 0.018570 -0.019758 -430581.000000 0 0 1
6.865778 20.857584 -32.901269 39.555925 1.252794 2.553078 0.023125 -0.019332 -720403.000000 0 0 1
6.763178 21.423584 -31.486379 38.679485 1.265009 2.521859 0.029250 -0.027517 -445203.000000 0 0 1
7.101178 22.776784 -31.364539 39.407397 1.268574 2.491297 0.035514 -0.026907 148553.000000 0 0 1
7.099178 23.183084 -30.002309 38.574503 1.273641 2.461915 0.018290 -0.026456 7349.170000 0 0 1
8.546878 23.348484 -29.467509 38.555608 1.219889 2.440730 0.018144 -0.024854 140059.000000 0 0 1
9.202078 22.158384 -29.280619 37.855341 1.177182 2.455121 0.016880 -0.018127 -682415.000000 0 0 1
10.598378 22.291984 -29.280869 38.296572 1.126994 2.441189 0.031958 -0.018565 -46613.000000 0 0 1
11.371878 20.951884 -29.363109 37.821862 1.073527 2.459655 0.029624 -0.026171 -400770.000000 0 0 1
11.375078 20.092084 -30.526769 38.274899 1.055641 2.494046 0.026442 -0.026096 38284.100000 0 0 1
10.155678 19.660784 -31.118419 38.184293 1.094001 2.523445 0.023946 -0.028311 -399191.000000 0 0 1
10.338178 18.640484 -32.277269 38.680327 1.064422 2.557952 0.031310 -0.028771 -429234.000000 0 0 1
10.719178 17.324684 -31.804859 37.770286 1.016724 2.571888 0.028077 -0.024037 233216.000000 0 0 1
10.540178 16.337084 -32.797979 38.127459 0.997825 2.606496 0.028490 -0.019114 -1149690.000000 0 0 1
11.780178 16.035684 -33.631799 39.077022 0.937210 2.607349 0.022502 -0.009607 -467173.000000 0 0 1
12.093478 17.067584 34.464051 40.315325 0.954346 0.545511 0.031669 -0.015953 -104331.000000 0 0 1
12.865478 16.547484 33.420288 39.449403 0.909933 0.560163 0.032875 -0.015732 -187344.000000 0 0 1
12.321378 16.679584 31.967947 38.104783 0.934560 0.575448 0.044789 -0.018847 -498383.000000 0 0 1
12.488978 17.907184 31.283427 38.148323 0.961798 0.609303 0.036608 -0.018127 -15713.800000 0 0 1
11.814778 18.007384 30.042677 36.965082 0.990140 0.621972 0.034514 -0.016439 1554120.000000 0 0 1
10.244978 18.275684 30.061527 36.642265 1.059867 0.608676 0.016499 -0.007367 1237420.000000 0 0 1
9.498378 17.209584 30.589587 36.360855 1.066477 0.571153 0.021328 -0.010106 -233539.000000 0 0 1
8.122078 17.532684 30.601987 36.191777 1.136976 0.563200 0.005356 -0.009926 225587.000000 0 0 1
7.348778 16.612984 31.588517 36.439404 1.154321 0.521891 0.010143 -0.009438 -83758.600000 0 0 1
7.619278 16.931184 32.948487 37.819587 1.147930 0.513152 0.017558 -0.010886 196857.000000 0 0 1
7.061178 15.920084 33.824537 38.044823 1.153328 0.475485 0.029853 -0.016817 -60832.800000 0 0 1
7.271678 16.132784 -33.736069 38.095490 1.147328 2.658507 0.030783 -0.021098 -1225840.000000 0 0 1
6.349578 17.062284 -33.301699 37.953153 1.214534 2.641300 0.028667 -0.023440 -700231.000000 0 0 1
6.419678 17.296484 -31.902859 36.853399 1.215401 2.617282 0.029442 -0.024831 -425976.000000 0 0 1
5.276078 18.088184 -31.249879 36.490743 1.286984 2.599011 0.025438 -0.025513 -863450.000000 0 0 1
5.130378 18.012484 -29.878129 35.262912 1.293320 2.581670 0.019063 -0.028956 182987.000000 0 0 1
4.352478 19.085884 -29.343929 35.274370 1.346584 2.553277 0.019291 -0.031096 -84907.300000 0 0 1
2.832378 18.942784 -29.407199 35.094655 1.422373 2.564293 0.029640 -0.028633 -1229790.000000 0 0 1
2.335278 17.974384 -28.540949 33.810025 1.441597 2.575786 0.034989 -0.023188 1006860.000000 0 0 1
0.897278 17.833684 -28.544379 33.669377 1.520525 2.582590 0.044674 -0.021219 1535840.000000 0 0 1
-0.021922 18.927084 -27.912799 33.724759 -1.569638 2.545730 0.043111 -0.027037 -497244.000000 0 0 1
-0.056322 18.897584 -26.506829 32.553553 -1.567816 2.522238 0.043420 -0.036279 -106258.000000 0 0 1
-0.456022 20.110384 -25.998129 32.871541 -1.548124 2.483076 0.062357 -0.032508 -347696.000000 0 0 1
-0.894322 20.040984 -24.538439 31.695044 -1.526201 2.456253 0.044811 -0.040808 -172668.000000 0 0 1
-2.233222 19.638384 -24.374939 31.381381 -1.457566 2.460258 0.047326 -0.029690 -94808.600000 0 0 1
-2.688522 19.775484 -23.040739 30.482349 -1.435672 2.427781 0.057596 -0.033078 -158807.000000 0 0 1
-3.934222 19.035784 -22.568639 29.785611 -1.366991 2.430582 0.061942 -0.029729 -226936.000000 0 0 1
-5.163822 19.558084 -23.025839 30.649192 -1.312662 2.420782 0.058306 -0.026566 -98251.400000 0 0 1
-6.188522 18.695484 -22.556339 29.943403 -1.251132 2.423860 0.049861 -0.022090 1342260.000000 0 0 1
-7.674022 19.262684 -22.501039 30.598012 -1.191680 2.397017 0.050516 -0.021492 838095.000000 0 0 1
-8.000122 20.259384 -21.559439 30.647251 -1.194707 2.351065 0.039286 -0.017620 51283.500000 0 0 1
-7.339422 21.500484 -21.665539 31.393208 -1.241839 2.332471 0.027160 -0.012761 -296537.000000 0 0 1
-7.619822 22.539084 -20.518239 31.417672 -1.244787 2.282440 0.035039 -0.020418 -28214.200000 0 0 1
-6.905322 22.285684 -19.327039 30.296363 -1.270323 2.262607 0.044860 -0.015664 152097.000000 0 0 1
-7.159422 23.323784 -18.451739 30.589588 -1.272968 2.218308 0.051744 -0.012727 -128629.000000 0 0 1
-6.170322 23.258584 -17.284739 29.627636 -1.311478 2.193704 0.057483 -0.017690 370119.000000 0 0 1
-4.843822 23.631684 -17.595539 29.858367 -1.368625 2.200989 0.057681 -0.023500 -88950.900000 0 0 1
-4.001122 23.801584 -16.448139 29.207288 -1.404250 2.168991 0.055341 -0.016209 -67925.400000 0 0 1
-2.640422 24.363384 -16.799939 29.711685 -1.462841 2.171753 0.054975 -0.017736 -640177.000000 0 0 1
-2.612722 25.775384 -16.820639 30.889005 -1.469776 2.146650 0.040031 -0.020301 -333877.000000 0 0 1
-1.489522 26.296884 -17.487239 31.615634 -1.514214 2.156901 0.043292 -0.017876 -88906.300000 0 0 1
-1.274722 27.798784 -17.190039 32.709246 -1.524973 2.124147 0.040267 -0.026620 278935.000000 0 0 1
-2.272022 28.702584 -17.692439 33.793828 -1.491804 2.121798 0.037494 -0.026839 252346.000000 0 0 1
-2.098922 28.987884 -19.105139 34.780874 -1.498516 2.152323 0.041749 -0.026157 480026.000000 0 0 1
-3.484122 29.363684 -19.757139 35.562756 -1.452694 2.159829 0.046750 -0.023120 952643.000000 0 0 1
-3.996622 30.656684 -19.419339 36.509122 -1.441160 2.131643 0.034792 -0.013061 -277343.000000 0 0 1
-4.860422 30.522084 -18.317639 35.927110 -1.412879 2.105813 0.026761 -0.014640 -388219.000000 0 0 1
-5.101122 31.894984 -17.643439 36.804923 -1.412205 2.070741 0.036026 -0.006145 9634.330000 0 0 1
-6.176522 32.611384 -18.204439 37.855692 -1.383616 2.072466 0.042638 -0.011526 6943.180000 0 0 1
-6.182322 33.943184 -17.752039 38.800718 -1.390634 2.045999 0.035553 -0.020543 -211219.000000 0 0 1
-6.947022 -34.141730 -18.610539 39.500266 1.370061 2.061390 0.025031 -0.005131 -1600050.000000 0 0 1
-8.285022 -34.368530 -18.641039 39.966559 1.334245 2.056031 0.036147 -0.015923 -1210750.000000 0 0 1
-8.970722 -33.548830 -19.634639 39.893821 1.309516 2.085380 0.062978 -0.020868 560566.000000 0 0 1
27.413378 -20.777716 -26.740009 43.568737 -0.648564 2.231589 0.016218 0.011854 219006.000000 0 0 1
27.278278 -22.207416 -26.690349 44.154825 -0.683283 2.219899 0.026690 -0.007108 378392.000000 0 0 1
25.934478 -22.567016 -26.356469 43.318943 -0.716079 2.224875 -0.001603 -0.003583 400678.000000 0 0 1
25.899578 -23.860916 -25.486909 43.470841 -0.744452 2.197279 0.009117 0.003692 247000.000000 0 0 1
26.406478 -25.105716 -25.958829 44.737679 -0.760152 2.189826 0.012807 0.018294 -1030720.000000 0 0 1
27.726478 -25.170826 -26.360379 45.795171 -0.737122 2.184152 0.021787 0.016678 -818329.000000 0 0 1
27.999978 -26.538896 -27.112629 47.153011 -0.758615 2.183391 0.031279 0.003614 -23012.200000 0 0 1
27.726178 -27.593046 -26.232769 47.098570 -0.782992 2.161537 0.036297 -0.009015 -340767.000000 0 0 1
27.837478 -28.903446 -26.740879 48.222495 -0.804183 2.158596 0.032333 -0.003321 1016080.000000 0 0 1
26.712778 -29.508996 -27.725139 48.508110 -0.835093 2.179198 0.034852 -0.002252 354057.000000 0 0 1
26.531878 -28.840996 -28.960579 48.728418 -0.827075 2.207224 0.007551 -0.003246 287734.000000 0 0 1
27.504878 -28.968856 -30.027829 49.973828 -0.811316 2.215387 -0.001099 -0.004435 -19949.000000 0 0 1
27.792878 -30.366046 -30.550979 51.263078 -0.829613 2.209263 0.011099 -0.003606 -1829370.000000 0 0 1
28.312278 -31.373606 -29.740799 51.675946 -0.836644 2.184042 0.025420 -0.005592 -117530.000000 0 0 1
29.637278 -31.199076 -29.289339 52.053972 -0.811065 2.168411 0.027137 -0.000369 -189967.000000 0 0 1
30.742478 -30.837666 -30.290439 53.043118 -0.786944 2.178585 0.021004 0.000320 -1899180.000000 0 0 1
30.717278 -29.509336 -30.751529 52.535784 -0.765344 2.196101 0.027102 -0.009634 -388335.000000 0 0 1
31.889178 -29.073536 -31.404289 53.370587 -0.739245 2.199899 0.018113 -0.009566 -314598.000000 0 0 1
31.877078 -27.597086 -31.963649 52.909566 -0.713558 2.219456 0.010428 -0.006776 -80241.400000 0 0 1
31.786678 -26.502996 -31.112849 51.776550 -0.695000 2.215431 0.012936 -0.000472 440132.000000 0 0 1
30.516778 -26.252956 -30.494459 50.501520 -0.710432 2.219097 0.017521 0.004853 479838.000000 0 0 1
30.443378 -24.853316 -29.849639 49.350659 -0.684648 2.220371 0.025555 0.005008 -185326.000000 0 0 1
31.093378 -24.861816 -28.568489 49.000680 -0.674488 2.193240 0.028194 -0.001375 148419.000000 0 0 1
31.165078 -23.479416 -28.134939 48.105300 -0.645666 2.195506 0.023607 0.004748 173300.000000 0 0 1
32.218078 -23.228416 -26.995829 48.024355 -0.624665 2.167753 0.023678 0.002489 92141.800000 0 0 1
32.022978 -23.978816 -25.814789 47.611533 -0.642733 2.143845 0.027839 -0.005963 -488712.000000 0 0 1
31.048378 -23.526816 -24.934739 46.252071 -0.648441 2.140171 0.038316 -0.001092 -522183.000000 0 0 1
31.276278 -22.290216 -24.052239 45.316327 -0.619190 2.130297 0.021780 0.004017 -464300.000000 0 0 1
31.538478 -21.060116 -24.700339 45.258268 -0.588759 2.148097 0.015368 0.005772 145985.000000 0 0 1
31.670978 -20.041916 -23.713439 44.351510 -0.564200 2.134914 -0.005562 0.007006 991.161000 0 0 1
31.996378 -18.731416 -24.367639 44.366834 -0.529632 2.152240 -0.007550 0.015671 232164.000000 0 0 1
30.930078 -18.453216 -25.266789 43.995472 -0.537924 2.182550 -0.008234 0.014107 410886.000000 0 0 1
31.247078 -17.380616 -26.089939 44.262294 -0.507615 2.201161 -0.012966 0.011845 -274637.000000 0 0 1
30.413378 -17.115316 -27.336889 44.330724 -0.512584 2.235286 -0.016395 0.025804 70368.700000 0 0 1
29.081878 -16.658916 -27.155499 43.135789 -0.520200 2.251751 -0.008895 0.028258 317474.000000 0 0 1
28.324578 -16.713716 -28.335739 43.411337 -0.533092 2.281974 -0.001585 0.015591 -320895.000000 0 0 1
26.848578 -16.333916 -28.140649 42.184584 -0.546552 2.301084 -0.015611 0.020971 149474.000000 0 0 1
26.043178 -17.244016 -27.344669 41.513060 -0.584857 2.289887 -0.015488 0.026148 467684.000000 0 0 1
26.043378 -16.871616 -25.982049 40.471914 -0.574846 2.267871 -0.017329 0.024721 -28494.500000 0 0 1
25.132078 -17.783216 -25.105129 39.725705 -0.615802 2.254878 -0.008748 0.014845 4514.290000 0 0 1
25.313478 -17.505116 -23.772639 38.888811 -0.605021 2.228496 -0.008054 0.023864 230775.000000 0 0 1
24.585678 -18.496216 -22.992739 38.408744 -0.644982 2.212590 -0.003601 0.014271 -189062.000000 0 0 1
24.472578 -18.240416 -21.470139 37.317379 -0.640513 2.183815 -0.009204 0.017306 -85054.000000 0 0 1
23.548178 -17.222116 -21.135139 36.025159 -0.631462 2.197746 -0.006021 0.016180 -23600.000000 0 0 1
23.782278 -15.858716 -21.610739 35.834616 -0.588115 2.218139 -0.001287 0.019249 79072.300000 0 0 1
25.049578 -15.078816 -21.140039 36.079819 -0.541859 2.196816 0.000321 0.011287 391757.000000 0 0 1
24.989878 -14.649016 -19.807639 35.091741 -0.530209 2.170567 0.004601 0.007833 -360611.000000 0 0 1
26.196878 -13.994016 -19.592839 35.580729 -0.490621 2.153950 -0.009724 0.018153 -818527.000000 0 0 1
26.255378 -12.986816 -18.376839 34.579047 -0.459346 2.131101 0.002556 0.013910 -249909.000000 0 0 1
26.292378 -13.618816 -17.093039 34.189666 -0.477925 2.094335 0.005821 0.012734 155192.000000 0 0 1
25.903778 -12.711416 -16.070239 33.027843 -0.456193 2.078952 0.001303 0.014380 25560.800000 0 0 1
26.338778 -12.966216 -14.599939 32.787379 -0.457458 2.032296 0.019759 0.000504 -435048.000000 0 0 1
25.754078 -14.121716 -14.057739 32.562485 -0.501560 2.017190 0.042083 -0.013165 51395.000000 0 0 1
26.250378 -14.444516 -12.769239 32.569616 -0.503042 1.973666 0.045986 -0.018832 -322150.000000 0 0 1
25.708578 -15.715016 -12.074939 32.460697 -0.548669 1.951944 0.061981 -0.034816 -239785.000000 0 0 1
24.371278 -15.534216 -11.670839 31.168567 -0.567465 1.954592 0.048290 -0.035118 -307345.000000 0 0 1
23.721378 -16.720716 -11.426039 31.190391 -0.613993 1.945860 0.023971 -0.033960 461640.000000 0 0 1
22.269078 -16.375116 -10.906639 29.715502 -0.634046 1.946616 0.026451 -0.034946 300155.000000 0 0 1
22.275578 -15.788716 -9.594139 28.940153 -0.616601 1.908707 0.009696 -0.034206 -380383.000000 0 0 1
20.989978 -15.841116 -9.082239 27.820985 -0.646502 1.903345 -0.002376 -0.021901 -926017.000000 0 0 1
20.861378 -15.488416 -7.577139 27.064759 -0.638648 1.854552 -0.000980 -0.017184 -706443.000000 0 0 1
21.156978 -14.196316 -7.235039 26.485825 -0.590996 1.847479 0.014370 -0.015864 410289.000000 0 0 1
21.097578 -13.920416 -5.827539 25.939275 -0.583241 1.797391 -0.000117 -0.004932 -660886.000000 0 0 1
21.986778 -14.703216 -4.830239 26.887435 -0.589430 1.751424 0.006731 -0.000782 -1078830.000000 0 0 1
23.340978 -14.591016 -5.105139 27.995740 -0.558689 1.754177 0.024516 -0.003302 -627330.000000 0 0 1
24.091278 -15.064816 -4.034939 28.698765 -0.558831 1.711860 0.019090 -0.012984 -1018020.000000 0 0 1
25.590978 -14.917716 -4.216639 29.920168 -0.527773 1.712197 0.041635 -0.022687 -1051110.000000 0 0 1
26.071978 -13.695016 -3.718239 29.683780 -0.483664 1.696388 0.034744 -0.020104 666209.000000 0 0 1
27.404078 -13.499016 -4.212739 30.837544 -0.457703 1.707836 0.046980 -0.033513 334887.000000 0 0 1
28.131378 -12.297816 -3.546639 30.906138 -0.412122 1.685805 0.054553 -0.029988 -610910.000000 0 0 1
28.478578 -12.553716 -2.122639 31.195044 -0.415187 1.638893 0.052218 -0.038554 703028.000000 0 0 1
28.991078 -11.370616 -1.414739 31.173306 -0.373774 1.616195 0.054419 -0.033132 658783.000000 0 0 1
30.481678 -10.997516 -1.705339 32.449749 -0.346256 1.623374 0.060608 -0.032193 98221.300000 0 0 1
30.591178 -10.424016 -2.997539 32.457134 -0.328413 1.663282 0.062214 -0.025895 84779.700000 0 0 1
31.788678 -10.832916 -3.606639 33.776915 -0.328437 1.677779 0.068599 -0.033548 -276329.000000 0 0 1
31.639978 -10.531916 -5.121839 33.737853 -0.321331 1.723198 0.063915 -0.031880 -399014.000000 0 0 1
30.731978 -11.337816 -5.785339 33.263654 -0.353435 1.745609 0.056012 -0.039186 -114991.000000 0 0 1
30.979078 -11.316416 -7.146439 33.746646 -0.350233 1.784179 0.051659 -0.027839 253367.000000 0 0 1
29.827378 -11.893316 -8.032239 33.100458 -0.379418 1.815906 0.086398 -0.031053 198394.000000 0 0 1
29.637778 -13.269516 -7.835839 33.404765 -0.420959 1.807575 0.072162 -0.034024 1150670.000000 0 0 1
28.290178 -13.676216 -8.173539 32.468135 -0.450301 1.825274 0.070191 -0.035431 1042670.000000 0 0 1
28.184078 -15.199916 -8.309739 33.082193 -0.494598 1.824700 0.073107 -0.041118 -46237.700000 0 0 1
28.641178 -15.830916 -9.502939 34.076984 -0.504939 1.853410 0.079669 -0.042577 271575.000000 0 0 1
28.729878 -17.197316 -9.412039 34.781318 -0.539379 1.844819 0.072116 -0.040848 -214295.000000 0 0 1
28.995678 -17.899416 -10.737239 35.727115 -0.553053 1.876050 0.071790 -0.038717 40362.500000 0 0 1
30.279478 -17.693816 -11.308639 36.848382 -0.528833 1.882727 0.073575 -0.030838 456495.000000 0 0 1
30.574378 -18.247216 -12.611239 37.772964 -0.538074 1.911202 0.068331 -0.019013 153888.000000 0 0 1
29.800778 -17.563916 -13.819439 37.249892 -0.532572 1.950874 0.058310 -0.023949 270804.000000 0 0 1
30.351678 -16.285816 -14.167839 37.244863 -0.492474 1.961022 0.047749 -0.019806 -211582.000000 0 0 1
29.609678 -15.600316 -15.113639 36.722268 -0.484908 1.994968 0.048473 -0.017744 -923350.000000 0 0 1
30.385278 -14.395416 -15.797439 37.149054 -0.442438 2.010029 0.027118 -0.008870 713462.000000 0 0 1
31.425078 -14.728016 -16.724239 38.524670 -0.438272 2.019855 0.007897 -0.008119 479834.000000 0 0 1
32.576678 -15.215216 -16.071139 39.383045 -0.436949 1.991138 0.027608 -0.012328 -891792.000000 0 0 1
33.796678 -15.362916 -16.996639 40.830386 -0.426647 2.000140 0.027501 -0.006985 309351.000000 0 0 1
35.077078 -15.572416 -16.417139 41.742353 -0.417810 1.975011 0.024709 -0.010348 170087.000000 0 0 1
-34.460107 -16.123816 -17.352539 41.816110 0.437638 1.998709 0.037360 -0.010752 283951.000000 0 0 1
-32.970407 -15.995716 -16.893939 40.352396 0.451700 2.002766 0.022979 -0.012526 275926.000000 0 0 1
-32.601107 -16.933616 -15.917339 40.036749 0.479061 1.979661 0.021460 -0.018925 107950.000000 0 0 1
-33.093407 -16.643216 -14.606639 39.818641 0.465978 1.946395 0.020384 -0.022611 -543489.000000 0 0 1
-32.488307 -17.589216 -13.559839 39.354033 0.496218 1.922567 0.015926 -0.019927 -427047.000000 0 0 1
-31.098207 -17.438016 -13.419039 38.095322 0.511052 1.930769 -0.007901 -0.016240 -362661.000000 0 0 1
-30.679807 -18.096316 -12.242039 37.664237 0.532919 1.901841 -0.003687 -0.010574 -34405.100000 0 0 1
-29.161807 -17.867816 -12.080939 36.271462 0.549715 1.910354 0.010913 -0.014612 -83196.700000 0 0 1
-28.779107 -16.562116 -11.868139 35.261785 0.522203 1.914071 0.010062 -0.018824 154387.000000 0 0 1
-27.579007 -16.326116 -11.132739 33.927594 0.534499 1.905122 0.001161 -0.009161 267435.000000 0 0 1
-27.695407 -16.152416 -9.559939 33.456368 0.527987 1.860578 0.010444 -0.012171 -48488.900000 0 0 1
-27.955307 -17.365616 -8.895239 34.090895 0.555856 1.834779 0.012946 -0.011778 -56217.000000 0 0 1
-28.371407 -17.221816 -7.525339 34.031727 0.545560 1.793766 0.022824 -0.011476 -193938.000000 0 0 1
-28.634007 -18.610416 -6.862439 34.833132 0.576334 1.769102 0.017790 -0.015456 -136594.000000 0 0 1
-29.781207 -19.254816 -7.365639 36.220449 0.573941 1.775580 0.019264 -0.014771 -193681.000000 0 0 1
-29.687507 -19.762916 -8.685339 36.706349 0.587332 1.809679 0.014259 -0.010494 40597.500000 0 0 1
-31.049907 -20.342216 -9.160239 38.233657 0.579984 1.812735 0.011431 -0.009460 -59720.200000 0 0 1
-32.070207 -19.491816 -9.544039 38.723608 0.546125 1.819828 0.012219 -0.007357 -222449.000000 0 0 1
-33.172407 -20.277716 -9.957639 40.134137 0.548674 1.821524 0.009132 -0.018352 10427.400000 0 0 1
-34.458807 -19.608616 -10.452539 41.001986 0.517348 1.828569 0.020297 -0.027755 -189356.000000 0 0 1
-34.505107 -19.257216 -11.732939 41.220198 0.509039 1.859428 0.011775 -0.029764 663531.000000 0 0 1
34.565378 -19.009416 -12.126239 41.269467 -0.502809 1.869028 0.029452 -0.030364 664707.000000 0 0 1
34.259578 -18.789416 -13.624739 41.381087 -0.501647 1.906306 0.024099 -0.026762 -358372.000000 0 0 1
34.511478 -20.003116 -14.356739 42.394371 -0.525290 1.916275 0.019840 -0.020891 240404.000000 0 0 1
33.984878 -19.836516 -15.689339 42.362893 -0.528338 1.950188 0.023335 -0.015541 -159894.000000 0 0 1
32.708978 -20.665716 -15.839439 41.807139 -0.563478 1.959370 0.029088 -0.016190 -450274.000000 0 0 1
31.695678 -20.157116 -14.974039 40.436953 -0.566440 1.950135 0.041620 -0.019769 636486.000000 0 0 1
30.481278 -20.921316 -14.963639 39.883835 -0.601517 1.955388 0.042089 -0.017397 1220710.000000 0 0 1
29.436978 -20.871116 -16.114439 39.519797 -0.616747 1.990792 0.033381 -0.013971 -166879.000000 0 0 1
28.740378 -19.674616 -16.321039 38.463959 -0.600291 2.009007 0.031688 -0.011469 -41.174200 0 0 1
27.856178 -19.810516 -17.392639 38.352668 -0.618184 2.041476 0.021200 -0.011352 -121319.000000 0 0 1
26.905278 -18.593916 -17.654239 37.165843 -0.604720 2.065775 0.026651 -0.016754 308259.000000 0 0 1
25.898378 -18.457516 -16.665839 35.904820 -0.619192 2.053490 0.035384 -0.019864 169381.000000 0 0 1
25.353578 -17.140816 -16.621139 34.826337 -0.594485 2.068328 0.023305 0.002225 -794073.000000 0 0 1
24.053378 -17.008916 -15.768139 33.414105 -0.615497 2.062242 0.019488 0.002049 1243500.000000 0 0 1
22.845178 -17.489216 -16.406539 33.120226 -0.653382 2.089049 0.006850 -0.001789 1034670.000000 0 0 1
22.464478 -16.697016 -17.538439 33.030894 -0.639175 2.130542 0.006542 0.007845 -558529.000000 0 0 1
21.238078 -17.320416 -18.307939 32.958055 -0.684143 2.159751 0.012174 0.012807 541341.000000 0 0 1
19.993078 -17.246916 -17.672339 31.772486 -0.711789 2.160621 0.010976 0.012463 -177624.000000 0 0 1
18.997978 -17.873216 -18.491139 31.973384 -0.754902 2.187475 0.012053 0.005592 678848.000000 0 0 1
17.556278 -17.777116 -17.933239 30.754672 -0.791648 2.193343 0.020053 0.006354 86021.700000 0 0 1
16.915878 -16.555716 -18.012339 29.743622 -0.774638 2.221299 0.019409 0.006368 191088.000000 0 0 1
15.516878 -16.767816 -17.874439 29.007391 -0.824126 2.234709 0.019877 0.006175 -359592.000000 0 0 1
14.644778 -15.563716 -17.675039 27.732757 -0.815809 2.261830 0.028449 0.008005 -649468.000000 0 0 1
14.422578 -14.862316 -18.861339 28.011593 -0.800413 2.309514 0.030936 0.009066 888263.000000 0 0 1
13.143278 -14.214516 -18.718739 26.929341 -0.824535 2.339363 0.036246 0.008746 1008520.000000 0 0 1
12.501878 -13.725816 -20.053139 27.328069 -0.832030 2.394684 0.044942 0.006503 199221.000000 0 0 1
13.110478 -12.567016 -20.548939 27.423957 -0.764236 2.417810 0.051550 0.001903 -125804.000000 0 0 1
12.252978 -11.947316 -21.470639 27.456551 -0.772768 2.468642 0.061503 -0.001685 -7221.180000 0 0 1
12.703678 -10.525416 -21.912239 27.428344 -0.691899 2.496244 0.056776 0.000524 -682628.000000 0 0 1
13.824378 -10.502316 -22.721039 28.594715 -0.649677 2.489126 0.052403 -0.001065 -983160.000000 0 0 1
14.272078 -9.189616 -22.828539 28.447908 -0.572066 2.502216 0.064976 -0.003800 449665.000000 0 0 1
15.489978 -9.100816 -23.826739 29.840874 -0.531199 2.495529 0.039453 -0.006435 481823.000000 0 0 1
15.219578 -9.280316 -25.196849 30.864884 -0.547566 2.525876 0.048172 -0.008963 60343.100000 0 0 1
16.392778 -9.546116 -25.964259 32.155781 -0.527331 2.510617 0.041527 -0.013196 100659.000000 0 0 1
21.806378 4.781084 -6.921639 23.372761 0.215836 1.871446 0.018835 0.023483 -93683.300000 0 1 0
21.903678 6.181984 -7.076839 23.834212 0.275080 1.872261 0.013579 0.016158 918142.000000 0 1 0
21.196978 6.833084 -6.001639 23.065615 0.311843 1.834024 0.007689 0.010094 -125167.000000 0 1 0
21.158978 8.397384 -6.215539 23.597698 0.377806 1.837337 0.008243 0.006472 -193000.000000 0 1 0
20.199378 8.898484 -7.154339 23.203070 0.414953 1.884240 0.008625 0.008891 739861.000000 0 1 0
19.961178 10.271984 -7.305739 23.607967 0.475258 1.885422 0.020466 0.004774 -48055.700000 0 1 0
19.520978 11.079384 -6.012039 23.237167 0.516227 1.832498 0.036827 -0.000559 550836.000000 0 1 0
20.595878 11.251084 -5.059639 24.007853 0.499981 1.783138 0.040498 0.000918 782678.000000 0 1 0
20.289178 12.400584 -4.264739 24.158088 0.548608 1.748261 0.063707 0.004317 280547.000000 0 1 0
21.318378 12.846784 -3.181339 25.092509 0.542340 1.697923 0.052092 -0.005108 -301915.000000 0 0 1
22.563078 13.308984 -3.686539 26.453962 0.532928 1.710608 0.063005 -0.014378 456241.000000 0 0 1
23.405578 13.747184 -2.649439 27.273168 0.531063 1.668094 0.072566 -0.015928 -31137.200000 0 0 1
24.230578 12.572484 -1.976739 27.369614 0.478628 1.643083 0.051196 -0.012881 -183401.000000 0 0 1
25.466078 12.255184 -2.631739 28.383740 0.448524 1.663650 0.028379 -0.017534 598151.000000 0 0 1
26.093678 11.223584 -1.952639 28.472121 0.406205 1.639431 0.049870 -0.018758 372475.000000 0 0 1
27.519278 10.800084 -2.486539 29.667075 0.373985 1.654710 0.025007 -0.014802 608231.000000 0 0 1
28.455278 11.683384 -1.910639 30.819715 0.389600 1.632830 0.020812 -0.020019 -304237.000000 0 0 1
29.774978 11.496484 -2.358739 32.004407 0.368477 1.644564 0.023926 -0.013048 -45907.800000 0 0 1
30.618478 12.749384 -1.983139 33.226056 0.394560 1.630518 -0.000554 -0.009588 -387943.000000 0 0 1
30.722478 13.114384 -0.617239 33.410159 0.403450 1.589272 0.001963 -0.006347 376238.000000 0 0 1
31.418178 14.320584 -0.330639 34.529558 0.427671 1.580372 -0.014553 -0.006808 -608783.000000 0 0 1
32.930678 14.188184 -0.185039 35.857612 0.406815 1.575957 -0.010769 -0.014274 -426056.000000 0 0 1
33.676078 15.394084 -0.099039 37.027906 0.428761 1.573471 -0.008227 0.002292 73315.600000 0 0 1
34.384478 15.781784 -1.253039 37.854024 0.430296 1.603904 0.001078 -0.009413 -213377.000000 0 0 1
33.514678 16.558984 -2.299539 37.452923 0.458902 1.632233 -0.021440 0.004796 243616.000000 0 0 1
32.402278 15.874284 -2.825639 36.192330 0.455545 1.648949 -0.019826 -0.002315 -83629.200000 0 0 1
31.731078 16.639484 -3.846639 36.035127 0.482969 1.677747 -0.019650 0.004097 -806877.000000 0 0 1
30.422078 16.087484 -4.306539 34.682218 0.486429 1.695289 -0.015083 -0.007415 -1460030.000000 0 0 1
30.517478 14.885784 -5.101139 34.335472 0.453823 1.719916 -0.006655 -0.006440 807699.000000 0 0 1
29.359578 14.708884 -5.930239 33.369205 0.464440 1.749461 0.001869 -0.022771 352727.000000 0 0 1
28.124778 14.067584 -5.282639 31.887401 0.463795 1.737229 0.003296 -0.021091 81712.700000 0 0 1
26.996578 13.969384 -6.168739 31.016322 0.477510 1.771018 0.009062 -0.022322 532501.000000 0 0 1
25.918978 13.372684 -5.498139 29.679145 0.476320 1.757125 0.015883 -0.018392 -539471.000000 0 0 1
24.750478 12.944884 -6.397339 28.654531 0.481890 1.795951 0.013413 -0.016942 -607588.000000 0 0 1
24.999178 11.957284 -7.448939 28.695335 0.446143 1.833391 0.009873 -0.010925 -12730.500000 0 0 1
23.896378 11.596484 -8.251439 27.813694 0.451804 1.871998 0.015319 -0.010230 45807.900000 0 0 1
23.282278 12.659584 -9.221539 28.060048 0.498027 1.905655 0.013838 -0.004312 31264.200000 0 0 1
22.733078 13.853584 -8.706539 28.009256 0.547304 1.886878 0.015810 -0.017500 319734.000000 0 0 1
22.709878 14.871684 -9.694539 28.825156 0.579781 1.913805 0.006482 -0.011238 -1063300.000000 0 0 1
22.132578 16.161384 -9.095039 28.874921 0.630713 1.891233 0.015009 -0.021398 625701.000000 0 0 1
20.714478 15.995384 -8.992139 27.673100 0.657548 1.901746 0.015017 -0.011769 369127.000000 0 0 1
20.337778 15.863284 -7.660739 26.906429 0.662421 1.859508 0.018600 -0.017193 -364057.000000 0 0 1
18.995578 15.104484 -7.444439 25.384978 0.671781 1.868433 0.036900 -0.007617 -1116100.000000 0 0 1
17.955878 15.887984 -7.935939 25.255113 0.724373 1.890443 0.039687 -0.009136 -471454.000000 0 0 1
16.721478 15.233584 -7.704139 23.896101 0.738870 1.899062 0.048824 -0.013210 276712.000000 0 1 0
16.080978 15.327284 -6.260939 23.080789 0.761406 1.845500 0.061636 -0.007996 -376469.000000 0 1 0
16.900778 14.745384 -5.225239 23.029671 0.717394 1.799681 0.084673 -0.003825 465961.000000 0 1 0
16.382378 15.011984 -3.977139 22.573427 0.741775 1.747908 0.086465 0.001132 -458173.000000 0 1 0
16.007878 13.872284 -3.035539 21.398760 0.714048 1.713132 0.063704 0.007974 20025.400000 0 1 0
17.138878 13.200884 -2.510039 21.778539 0.656323 1.686306 0.070612 0.004226 691925.000000 0 1 0
16.764178 12.339184 -1.421839 20.864198 0.634510 1.638997 0.048640 -0.000879 87736.900000 0 1 0
16.677078 13.080784 -0.052839 21.195156 0.665130 1.573289 0.047246 -0.009793 280695.000000 0 1 0
15.567678 13.984284 0.051761 20.926430 0.731869 1.568323 0.048482 -0.014602 722407.000000 0 1 0
15.639478 14.793784 1.219761 21.562401 0.757617 1.514197 0.043840 -0.016203 436519.000000 0 1 0
14.392578 15.755784 1.396661 21.385548 0.830584 1.505441 0.045565 -0.014158 451172.000000 0 1 0
14.380478 16.904584 0.560661 22.200843 0.865905 1.545540 0.058760 -0.016488 169254.000000 0 1 0
13.278078 17.631384 1.042561 22.096606 0.925318 1.523597 0.042801 -0.021956 -198968.000000 0 1 0
13.117878 19.097084 0.489661 23.173629 0.968913 1.549665 0.034004 -0.022025 -655370.000000 0 1 0
12.747878 19.206384 -0.826439 23.066785 0.984829 1.606632 0.042796 -0.022022 -111985.000000 0 1 0
12.204878 20.479084 -1.064839 23.863902 1.033347 1.615432 0.038031 -0.022852 -1571690.000000 0 1 0
10.736678 20.594384 -0.901739 23.242591 1.090223 1.609603 0.031309 -0.017974 -1981140.000000 0 1 0
10.263978 20.529484 0.444661 22.956626 1.107178 1.551426 0.022686 -0.023205 128889.000000 0 1 0
8.844778 20.465784 0.319361 22.297542 1.162865 1.556473 0.014013 -0.013984 395308.000000 0 1 0
8.203278 20.670784 1.707761 22.304518 1.193005 1.494156 0.015443 -0.009648 -277635.000000 0 1 0
8.171378 21.984284 2.299561 23.566250 1.214929 1.473062 0.022858 0.002521 513614.000000 0 1 0
7.264678 22.005184 3.408461 23.422665 1.251927 1.424758 0.017643 0.001355 259136.000000 0 1 0
6.809478 23.394884 3.935461 24.681520 1.287555 1.410663 0.019482 0.001681 -45702.500000 0 1 0
7.669978 23.840784 4.939361 25.526629 1.259537 1.376070 0.022618 -0.001217 122751.000000 0 0 1
7.204678 25.019784 5.590361 26.629853 1.290422 1.359295 0.016388 -0.003604 9863.240000 0 0 1
7.735778 25.257284 7.038261 27.336967 1.273589 1.310400 0.011990 -0.007124 -11569.200000 0 0 1
7.278578 24.275884 7.950861 26.561484 1.279498 1.266798 0.019565 -0.023623 216348.000000 0 0 1
8.108878 24.197484 9.088061 27.089942 1.247445 1.228684 0.011844 -0.026873 -283951.000000 0 0 1
7.482778 23.269884 10.124061 26.457061 1.259674 1.178123 0.012434 -0.021404 431964.000000 0 0 1
6.272478 23.742084 10.707861 26.789714 1.312505 1.159606 0.009378 -0.020542 319933.000000 0 0 1
5.677178 22.851484 11.636061 26.264397 1.327288 1.111815 0.005557 -0.010889 404786.000000 0 0 1
4.328978 23.421084 12.189861 26.755932 1.388027 1.097756 0.019553 -0.019280 624116.000000 0 0 1
3.342478 23.368784 11.149261 26.107053 1.428728 1.129558 0.021739 -0.024329 -170763.000000 0 0 1
2.062078 23.433384 11.753461 26.296758 1.483025 1.107438 0.017736 -0.029167 64654.600000 0 0 1
0.992678 23.498684 10.625961 25.808615 1.528577 1.146454 0.030896 -0.025093 -186520.000000 0 0 1
0.906678 24.776484 10.078561 26.763288 1.534218 1.184693 0.028607 -0.017425 -351776.000000 0 0 1
-0.006622 24.868484 9.035961 26.459216 -1.570530 1.222278 0.029840 -0.017879 663056.000000 0 0 1
-1.316922 25.691184 9.394461 27.386623 -1.519581 1.220655 0.029693 -0.025953 760092.000000 0 0 1
-2.195422 24.960284 10.214461 27.058656 -1.483065 1.183709 0.022299 -0.022996 -1018860.000000 0 0 1
-3.426122 25.592484 10.196561 27.761185 -1.437715 1.194697 0.031225 -0.025227 -1318540.000000 0 0 1
-4.587022 24.671984 10.583961 27.235414 -1.386975 1.171674 0.037472 -0.023148 -292413.000000 0 0 1
-4.919022 24.427884 11.956561 27.638336 -1.372085 1.123413 0.030954 -0.018214 296465.000000 0 0 1
-5.528022 25.545784 12.635861 29.031209 -1.357686 1.120479 0.036193 -0.017212 -231373.000000 0 0 1
-5.891022 25.164384 14.063761 29.423455 -1.340836 1.072445 0.017700 -0.016104 184272.000000 0 0 1
-7.119522 24.436284 14.064361 29.079646 -1.287294 1.065977 0.011480 -0.018763 331281.000000 0 0 1
-7.578222 24.234884 15.364061 29.678501 -1.267730 1.026656 0.002024 0.007789 -541028.000000 0 0 1
-8.935622 23.587784 15.610861 29.663578 -1.208677 1.016596 -0.001374 0.002634 -283513.000000 0 0 1
-9.994022 24.466884 15.287961 30.532452 -1.183008 1.046375 -0.007560 0.016359 398079.000000 0 0 1
-11.253622 23.784984 15.326861 30.451307 -1.128867 1.043356 -0.012135 0.004043 -24856.000000 0 0 1
-12.495622 24.636384 15.248961 31.553491 -1.101404 1.066407 -0.013126 0.004314 -794614.000000 0 0 1
-12.753422 25.384384 16.388461 32.796316 -1.105221 1.047539 -0.018301 0.004261 331956.000000 0 0 1
-13.690822 26.398584 15.983861 33.761037 -1.092364 1.077603 -0.017280 0.008061 127767.000000 0 0 1
-14.154522 27.403084 17.032561 35.233331 -1.094012 1.066237 -0.007059 0.014026 -87146.200000 0 0 1
-15.062522 26.862484 17.964861 35.654015 -1.059755 1.042727 -0.002225 0.007996 -293589.000000 0 0 1
-15.570022 27.886984 18.784661 37.053649 -1.061583 1.039144 0.008887 0.006571 -142399.000000 0 0 1
-16.790322 27.369584 19.582561 37.609649 -1.020534 1.023150 0.010566 -0.005918 -381742.000000 0 0 1
-17.894422 27.244184 18.770661 37.613742 -0.989644 1.048309 0.013498 -0.007341 -1440680.000000 0 0 1
-19.066922 26.778384 19.348061 38.144158 -0.952044 1.038823 0.009543 -0.003006 -1159300.000000 0 0 1
-20.231722 26.975884 18.444961 38.434847 -0.927300 1.070253 0.006026 -0.004704 -1278690.000000 0 0 1
-20.601222 28.316084 18.342161 39.530315 -0.941822 1.088288 0.005491 -0.007765 -34783.600000 0 0 1
-21.189322 28.548184 17.088561 39.446230 -0.932287 1.122743 0.015958 -0.008916 -265943.000000 0 0 1
-22.110022 29.799884 17.078961 40.848220 -0.932467 1.139435 0.001700 -0.016637 280325.000000 0 0 1
-23.369322 29.476984 17.648961 41.551217 -0.900462 1.132108 -0.002505 -0.016050 -127037.000000 0 0 1
-24.263722 30.537084 17.561661 42.774450 -0.899378 1.147724 0.003175 -0.013562 -484133.000000 0 0 1
-25.604002 30.489384 18.298461 43.817817 -0.872273 1.139990 0.002036 -0.016075 225042.000000 0 0 1
-26.464142 29.529184 17.626661 43.393809 -0.840083 1.152502 0.017225 -0.021819 997708.000000 0 0 1
-27.815642 29.483484 18.121561 44.400188 -0.814498 1.150379 0.037722 -0.025185 925211.000000 0 0 1
-28.096232 28.326584 19.180561 44.268358 -0.789481 1.122668 0.028799 -0.025637 -357820.000000 0 0 1
-28.383182 27.090984 18.589861 43.417846 -0.762109 1.128339 0.031228 -0.024951 40112.600000 0 0 1
-28.586182 26.087784 19.548561 43.357681 -0.739734 1.103060 0.033555 -0.016575 -56942.100000 0 0 1
-28.684712 24.688984 18.985861 42.341723 -0.710674 1.105826 0.029992 -0.013222 861.526000 0 0 1
-29.869482 24.647584 18.230961 42.802538 -0.689905 1.130805 0.042819 -0.020154 -21124.400000 0 0 1
-29.635722 23.632284 17.253961 41.646849 -0.673169 1.143631 0.032787 -0.010226 -259513.000000 0 0 1
-30.139342 22.196484 17.453061 41.299796 -0.634780 1.134490 0.025410 0.001105 -791390.000000 0 0 1
-31.472562 21.959784 17.159261 42.038012 -0.609210 1.150332 0.025854 0.004995 -827332.000000 0 0 1
-31.644482 20.614284 16.824061 41.344540 -0.577382 1.151713 0.012187 0.003876 504715.000000 0 0 1
-33.057792 20.215684 16.294861 42.035865 -0.548851 1.172724 0.013967 -0.001142 295383.000000 0 0 1
-33.245392 20.504184 14.889961 41.801777 -0.552647 1.206594 0.009581 0.001405 109334.000000 0 0 1
-34.457052 19.990484 14.370661 42.348834 -0.525701 1.224581 0.026473 -0.000644 245274.000000 0 0 1
-34.530677 20.164884 12.817361 41.991367 -0.528549 1.260608 0.023625 0.001092 55176.900000 0 0 1
-34.783112 21.518884 12.425661 42.747214 -0.554026 1.275861 0.009894 -0.005117 -98355.500000 0 0 1
-34.681657 21.900784 11.056361 42.481817 -0.563246 1.307504 0.010427 -0.013269 557012.000000 0 0 1
-33.380132 21.591084 10.206161 41.043560 -0.574140 1.319493 0.004997 -0.009331 493175.000000 0 0 1
-33.375472 20.310484 9.564261 40.223289 -0.546679 1.330718 0.007233 0.002583 310036.000000 0 0 1
-32.125782 19.761484 9.148461 38.810777 -0.551469 1.332837 0.019260 0.002247 62991.200000 0 0 1
-31.439162 18.800684 10.087961 37.995441 -0.538949 1.302069 0.003297 0.001683 -412084.000000 0 0 1
-31.123862 19.422084 11.278361 38.381161 -0.557898 1.272543 0.002639 0.005621 172597.000000 0 0 1
-30.542062 18.482684 12.176961 37.718769 -0.544201 1.242072 -0.003287 0.000542 32418.700000 0 0 1
-30.097872 19.011684 13.538961 38.087130 -0.563376 1.207376 -0.001304 0.009727 66160.400000 0 0 1
-28.995062 19.882084 13.594561 37.693805 -0.601068 1.201823 0.010903 0.009701 -198392.000000 0 0 1
-29.429492 21.201784 13.430361 38.677968 -0.624304 1.216175 0.013589 0.013090 1184770.000000 0 0 1
-28.243552 22.295084 13.517161 38.438036 -0.668236 1.211451 0.013214 -0.001021 1208130.000000 0 0 1
-27.672852 22.216884 14.782361 38.443398 -0.676470 1.176106 0.020561 0.014634 -362071.000000 0 0 1
-26.562042 23.020384 15.073561 38.245161 -0.714090 1.165675 0.035005 -0.008828 -191903.000000 0 0 1
-25.987922 22.668884 16.508261 38.233141 -0.717290 1.124332 0.032136 -0.009246 -256343.000000 0 0 1
-25.406412 21.374784 16.620361 37.129551 -0.699430 1.106681 0.049030 -0.007608 312021.000000 0 0 1
-24.898322 21.203184 17.925561 37.293795 -0.705417 1.069391 0.038447 0.002330 -381820.000000 0 0 1
-23.939722 20.049884 18.194161 36.140498 -0.697201 1.043234 0.044917 -0.003746 -236060.000000 0 0 1
-23.403122 20.070684 19.491561 36.475463 -0.708894 1.007029 0.036604 -0.002171 244555.000000 0 0 1
-22.480322 18.993084 19.674561 35.400430 -0.701512 0.981505 0.034552 -0.002002 258869.000000 0 0 1
-21.881822 19.061384 21.075361 35.865322 -0.716620 0.942676 0.025378 -0.013308 58184.500000 0 0 1
-22.793222 18.557084 22.030061 36.731729 -0.683309 0.927601 0.031117 -0.002130 143149.000000 0 0 1
-22.207622 18.705984 23.281861 37.217433 -0.700020 0.894943 0.044574 -0.011967 -179036.000000 0 0 1
-22.894322 18.024184 24.511961 38.076993 -0.666935 0.871411 0.039578 -0.018621 -397625.000000 0 0 1
-22.520822 16.655884 24.654161 37.315326 -0.636797 0.849048 0.039637 -0.016883 -420245.000000 0 0 1
-23.317922 15.909384 25.476061 38.024514 -0.598735 0.836600 0.044713 -0.018964 -703162.000000 0 0 1
20.438178 25.682384 34.121949 47.345658 0.898618 0.765987 0.018205 -0.008661 222713.000000 0 0 1
20.328878 24.624384 33.170105 46.042148 0.880664 0.766375 0.024804 -0.019626 -122510.000000 0 0 1
20.223278 23.354884 33.782963 45.779036 0.857137 0.740758 0.020361 -0.021389 232587.000000 0 0 1
19.284878 22.377684 32.985237 44.279714 0.859497 0.730368 0.026838 -0.022315 180115.000000 0 0 1
19.817078 21.802884 31.799027 43.350437 0.833075 0.747289 0.023923 -0.017951 159367.000000 0 0 1
18.837978 20.956584 31.242087 42.072744 0.838587 0.733892 0.023384 -0.019329 -229216.000000 0 0 1
19.277878 20.259784 29.933787 40.964948 0.810228 0.751425 0.023085 -0.009699 -476533.000000 0 0 1
20.420078 19.438884 30.050467 41.205343 0.760786 0.753519 0.023532 -0.009479 -454780.000000 0 0 1
20.590778 18.722084 28.822207 40.065149 0.737900 0.767882 0.023551 -0.002761 618190.000000 0 0 1
21.800578 17.732484 29.017087 40.394275 0.682855 0.769374 0.023462 0.003450 1017610.000000 0 0 1
23.106678 18.284184 29.010487 41.350191 0.669410 0.793183 0.031137 0.000345 -121170.000000 0 0 1
24.056078 17.452684 29.580657 41.932163 0.627636 0.787752 0.027657 0.012782 532777.000000 0 0 1
25.503678 18.028784 29.785987 43.158772 0.615348 0.809101 0.030760 -0.000063 497050.000000 0 0 1
26.254478 18.098784 28.607717 42.839993 0.603549 0.839573 0.026229 0.012226 204274.000000 0 0 1
27.506678 18.703484 28.914487 44.073633 0.597150 0.855224 0.027212 0.006986 862524.000000 0 0 1
28.655878 18.873484 27.870867 44.205802 0.582415 0.888625 0.032543 0.019840 436481.000000 0 0 1
28.526778 19.914984 26.909427 43.982961 0.609460 0.912443 0.029375 0.007910 29119.000000 0 0 1
29.581378 19.821384 25.975677 44.075854 0.590350 0.940554 0.029912 -0.000120 -77970.800000 0 0 1
29.638578 20.971384 24.954697 44.056567 0.615789 0.968636 0.024195 -0.003575 -37.171300 0 0 1
28.643878 20.823184 23.962277 42.758244 0.628597 0.975912 0.024055 -0.005385 286676.000000 0 0 1
28.905578 21.593384 22.776877 42.668405 0.641599 1.007695 0.005462 -0.009482 -93273.200000 0 0 1
29.745078 20.954984 21.617177 42.322374 0.613730 1.034711 0.014114 -0.003689 -139000.000000 0 0 1
29.042278 19.993684 20.898477 40.987164 0.602921 1.035753 0.010372 -0.005899 63308.600000 0 0 1
29.722478 19.581284 19.720477 40.690903 0.582539 1.064844 0.010551 -0.000002 570754.000000 0 0 1
30.904278 18.574484 19.929377 41.197887 0.541179 1.065865 0.028556 -0.007407 188927.000000 0 0 1
30.415578 17.294284 20.277277 40.439678 0.517011 1.045557 0.034034 -0.000857 -237338.000000 0 0 1
31.439778 16.356684 20.389177 40.886664 0.479720 1.048726 0.027122 0.007273 -689519.000000 0 0 1
30.934378 14.883384 20.721977 40.098019 0.448436 1.027707 0.027551 0.000745 174441.000000 0 0 1
30.383278 14.620184 21.983877 40.251512 0.448488 0.993020 0.020298 -0.000644 990285.000000 0 0 1
29.047478 15.134984 22.182477 39.558640 0.480340 0.975506 0.018100 0.002478 416560.000000 0 0 1
28.503278 14.650984 23.527977 39.757438 0.474793 0.937521 0.020625 -0.004131 34851.700000 0 0 1
27.944178 13.327284 23.451177 38.838785 0.445018 0.922526 0.018313 0.002353 57768.100000 0 0 1
27.383678 12.871684 24.663747 39.036476 0.439401 0.886907 0.012225 0.009435 -100242.000000 0 0 1
26.663778 11.547984 24.354177 37.913571 0.408708 0.873222 0.010216 0.000968 -737189.000000 0 0 1
25.511078 11.689484 23.597377 36.664633 0.429662 0.871603 0.016661 0.002265 -434720.000000 0 0 1
25.267178 10.353384 23.027177 35.719374 0.388889 0.870206 0.011807 0.004138 -249795.000000 0 0 1
24.103578 10.136584 22.043577 34.200176 0.398089 0.870367 -0.001723 0.002469 -247600.000000 0 0 1
22.859878 10.109484 22.698977 33.764171 0.416379 0.833512 0.003916 0.003936 -162129.000000 0 0 1
21.880878 9.441484 21.978177 32.418431 0.407359 0.825822 0.001580 0.019634 -464093.000000 0 0 1
20.424578 9.556584 22.450177 31.819838 0.437636 0.787611 0.017250 0.007670 -273030.000000 0 0 1
20.046278 8.730784 23.582277 32.159036 0.410757 0.747631 0.027497 0.005410 110159.000000 0 0 1
18.650678 8.729984 23.743777 31.429720 0.437786 0.714446 0.031230 0.002652 -390568.000000 0 0 1
18.172778 7.977084 24.964437 31.892112 0.413633 0.671679 0.033765 0.000383 -401687.000000 0 0 1
18.358378 6.559684 25.025657 31.722909 0.343175 0.661807 0.036396 0.003421 215191.000000 0 0 1
18.218778 6.047784 26.336427 32.589982 0.320508 0.629853 0.032505 -0.005033 -554748.000000 0 0 1
18.207778 4.586284 26.389987 32.388093 0.246753 0.618403 0.030969 -0.008634 567816.000000 0 0 1
19.428478 3.947384 25.961707 32.665851 0.200447 0.652174 0.041900 -0.004265 613472.000000 0 0 1
19.510378 2.549184 26.039557 32.637581 0.129922 0.647093 0.038644 -0.001683 -225472.000000 0 0 1
20.952478 2.131484 25.684937 33.215441 0.101381 0.686794 0.045347 -0.011165 -45154.700000 0 0 1
21.851878 2.494684 26.695227 34.588483 0.113671 0.689137 0.054681 -0.018007 -362155.000000 0 0 1
23.197978 2.542384 26.280827 35.146717 0.109159 0.726135 0.048028 -0.010977 148677.000000 0 0 1
24.086978 2.964684 27.476317 36.659512 0.122466 0.723489 0.038324 -0.011662 -936648.000000 0 0 1
24.250478 1.955884 28.428127 37.417503 0.080479 0.707860 0.051185 -0.019767 -475.287000 0 0 1
25.007278 2.346784 29.533267 38.769642 0.093570 0.704767 0.051432 -0.005562 738647.000000 0 0 1
26.547378 2.611684 29.417857 39.711389 0.098063 0.736549 0.042332 -0.006054 -137359.000000 0 0 1
26.824478 3.629584 28.481187 39.292550 0.134492 0.759980 0.035290 0.008992 -4108.120000 0 0 1
28.193578 3.946684 28.263437 40.115782 0.139081 0.789012 0.014547 0.019304 604820.000000 0 0 1
29.053078 2.915384 27.494527 40.106481 0.100012 0.815454 0.016431 0.014099 -576203.000000 0 0 1
28.676978 2.918284 26.162457 38.927620 0.101415 0.833783 0.015269 0.032701 -90738.800000 0 0 1
29.239978 1.907884 25.357377 38.750650 0.065157 0.857443 0.015107 0.026947 -368800.000000 0 0 1
28.856378 2.144084 23.859877 37.504418 0.074166 0.881248 0.016586 0.014369 357236.000000 0 0 1
29.406178 3.271484 23.090777 37.531452 0.110796 0.908108 0.009562 0.019797 -445599.000000 0 0 1
30.758078 3.163584 22.753177 38.389773 0.102493 0.936404 0.003169 0.015692 -450262.000000 0 0 1
31.305778 4.433584 22.157177 38.608922 0.140686 0.959551 -0.014502 0.019682 -541907.000000 0 0 1
30.864378 4.649284 20.785377 37.500101 0.149512 0.983304 -0.015300 0.005479 222314.000000 0 0 1
31.226778 5.891784 20.152677 37.629179 0.186485 1.005626 -0.002035 0.008220 -221720.000000 0 0 1
32.737778 6.164884 20.034977 38.873747 0.186131 1.029339 -0.009313 0.005271 -121551.000000 0 0 1
33.525578 6.398684 21.238077 40.199048 0.188592 1.014172 -0.006655 0.013092 559561.000000 0 0 1
33.298278 7.615884 21.969577 40.613290 0.224850 0.999235 0.001654 0.015280 -310131.000000 0 0 1
33.955778 7.533484 23.372277 41.904791 0.218325 0.979127 0.010804 0.017801 145659.000000 0 0 1
33.367078 6.421584 24.029347 41.617402 0.190128 0.955272 0.010923 0.020203 199784.000000 0 0 1
34.118778 6.154184 25.163627 42.838920 0.178456 0.942953 0.008006 0.015196 123236.000000 0 0 1
33.424878 5.076884 26.077527 42.697009 0.150737 0.913779 0.011819 0.019176 231079.000000 0 0 1
33.374378 3.776284 25.614187 42.239744 0.112670 0.919271 0.012477 0.012763 85077.800000 0 0 1
32.843378 2.891784 26.611057 42.369780 0.087821 0.891730 0.011968 0.020973 60271.600000 0 0 1
33.146178 1.427284 26.227687 42.291817 0.043034 0.901850 0.005571 0.018316 201778.000000 0 0 1
32.325978 1.045784 25.116897 40.950226 0.032340 0.910499 0.009403 0.009950 155971.000000 0 0 1
32.638078 -0.289516 24.647697 40.900329 -0.008870 0.924006 0.020209 0.003721 589426.000000 0 0 1
31.477678 -0.941616 23.779177 39.461121 -0.029905 0.924044 0.022796 0.005417 833466.000000 0 0 1
30.303978 -1.342316 24.449777 38.960550 -0.044266 0.892391 0.025663 0.007076 -257130.000000 0 0 1
29.522378 -2.166216 23.620677 37.870829 -0.073244 0.897307 0.027877 0.000005 386287.000000 0 0 1
28.000478 -2.230016 23.920977 36.894618 -0.079474 0.865369 0.043597 0.004901 443799.000000 0 0 1
27.425778 -0.965216 23.748077 36.291543 -0.035179 0.857448 0.025537 0.009409 21690.300000 0 0 1
26.008078 -0.933416 23.739577 35.225827 -0.035874 0.831287 0.035761 0.008372 517935.000000 0 0 1
25.320678 0.446784 23.634477 34.639931 0.017643 0.819906 0.037773 0.008062 49768.700000 0 0 1
25.399178 1.037884 22.311377 33.822965 0.040840 0.850441 0.028980 0.002895 -136902.000000 0 0 1
24.572678 2.167084 22.258777 33.225982 0.087963 0.836694 0.031808 0.010788 -87295.700000 0 0 1
24.681878 3.091284 21.059477 32.592218 0.124596 0.868267 0.028963 0.007922 -431829.000000 0 0 1
24.380978 2.501384 19.828277 31.525380 0.102238 0.890579 0.034407 0.009994 168891.000000 0 0 1
23.710578 3.422884 19.026177 30.592532 0.143371 0.899601 0.026443 0.010068 -60721.100000 0 0 1
23.255778 2.892384 17.663077 29.345892 0.123737 0.924927 0.023271 0.006769 25036.600000 0 0 1
24.362678 2.780684 16.796377 29.721887 0.113645 0.970220 0.011567 -0.009105 295527.000000 0 0 1
24.001178 3.164784 15.497777 28.744625 0.131103 1.001364 0.003942 -0.008366 -5537.630000 0 0 1
23.336378 2.139584 14.542777 27.580006 0.091429 1.015383 0.012077 0.004220 -548316.000000 0 0 1
22.011478 1.812384 14.798777 26.585592 0.082153 0.980453 0.021222 0.016663 -416328.000000 0 0 1
21.726078 0.622384 14.079977 25.897018 0.028639 0.995968 0.021461 0.011921 -758024.000000 0 0 1
20.231878 0.342784 13.921077 24.561001 0.016941 0.968185 0.027772 -0.003277 -276987.000000 0 1 0
19.420678 1.258784 13.175477 23.501924 0.064726 0.975671 0.048558 -0.001065 691153.000000 0 1 0
19.663478 1.251184 11.761377 22.946629 0.063544 1.032640 0.058389 -0.007384 -1007940.000000 0 1 0
19.239978 0.002484 10.925477 22.125614 0.000129 1.054350 0.044569 -0.011558 9900.570000 0 1 0
20.169678 -1.055416 11.022377 23.009185 -0.052279 1.071233 0.035439 -0.014945 1480220.000000 0 1 0
21.507978 -0.833516 10.533277 23.963259 -0.038734 1.115688 0.047510 -0.010785 318442.000000 0 1 0
22.506878 -1.930116 10.940077 25.099207 -0.085547 1.119788 0.042893 -0.014571 -125116.000000 0 0 1
22.875878 -1.780216 12.292777 26.030507 -0.077664 1.078960 0.034672 -0.018601 186445.000000 0 0 1
23.920578 -2.664216 12.642177 27.186701 -0.110920 1.087147 0.019406 -0.016411 81165.000000 0 0 1
24.346978 -2.560016 14.150577 28.276631 -0.104762 1.046697 0.025177 -0.010580 5640.110000 0 0 1
25.105878 -1.391716 14.409877 28.980796 -0.055377 1.050403 0.015876 -0.010525 180797.000000 0 0 1
25.155078 -1.274416 15.816477 29.741604 -0.050619 1.010076 0.012419 -0.013235 1263.530000 0 0 1
26.336178 -0.381316 16.275077 30.961553 -0.014478 1.017312 0.024415 -0.013668 66807.900000 0 0 1
27.568178 -1.073616 16.239577 32.013762 -0.038924 1.038784 0.017985 -0.013138 -248501.000000 0 0 1
28.622178 -0.180616 16.505777 33.040919 -0.006310 1.047711 0.002754 -0.008238 -371557.000000 0 0 1
29.965678 -0.904016 16.666577 34.300640 -0.030159 1.063407 0.014100 -0.003342 -320197.000000 0 0 1
30.407778 -1.432716 15.420377 34.124385 -0.047082 1.101916 0.016728 0.006464 -225297.000000 0 0 1
31.765778 -1.781416 15.530977 35.404086 -0.056021 1.116670 0.012743 0.005363 -278641.000000 0 0 1
32.176678 -2.432416 14.224377 35.264545 -0.075452 1.155608 0.012193 -0.002436 -291596.000000 0 0 1
32.156978 -1.408816 13.227577 34.799781 -0.043783 1.180886 0.014333 -0.000038 55962.700000 0 0 1
32.478578 -1.896816 11.967477 34.665205 -0.058336 1.218312 0.012643 0.003664 -100566.000000 0 0 1
31.909978 -1.077116 10.716377 33.678593 -0.033742 1.246971 0.006965 0.018436 -139252.000000 0 0 1
32.454678 0.227084 10.513077 34.115722 0.006997 1.257539 0.012402 0.019601 159626.000000 0 0 1
31.572278 1.058684 9.801277 33.075589 0.033520 1.269949 -0.005603 0.016875 -438177.000000 0 0 1
32.114078 2.394484 9.292977 33.517264 0.074424 1.289856 -0.008543 0.015546 169801.000000 0 0 1
32.945378 2.127284 8.137277 34.002037 0.064481 1.329134 0.000184 0.016548 606892.000000 0 0 1
33.452378 3.338284 7.570977 34.460491 0.099463 1.349289 -0.000743 0.011685 -287431.000000 0 0 1
34.180678 3.136984 6.263177 34.891070 0.091520 1.390311 0.004898 0.004093 -350295.000000 0 0 1
34.361878 4.383284 5.668077 35.100982 0.126877 1.408607 -0.007975 0.008879 191038.000000 0 0 1
34.905178 4.346784 4.356977 35.443606 0.123893 1.447558 0.007043 -0.009087 13885.800000 0 0 1
-34.899307 5.664484 3.872377 35.567448 -0.160906 1.461706 0.007391 -0.016882 76028.200000 0 0 1
34.500278 6.626984 3.913777 35.348320 0.189773 1.459849 0.020485 -0.024999 97450.900000 0 0 1
34.950678 7.913884 3.501377 36.006098 0.222675 1.473398 0.013628 -0.019890 -567734.000000 0 0 1
33.810078 8.975984 3.385977 35.144765 0.259497 1.474303 0.034877 -0.016662 429604.000000 0 0 1
32.876878 8.735984 2.320077 34.096763 0.259717 1.502700 0.036558 -0.029051 195782.000000 0 0 1
32.001978 7.636684 2.477877 32.993718 0.234251 1.495624 0.039662 -0.027855 -1408760.000000 0 0 1
30.793578 7.835384 1.573277 31.813722 0.249161 1.521323 0.059080 -0.029266 -668585.000000 0 0 1
31.057378 7.759884 0.162577 32.012544 0.244843 1.565718 0.055477 -0.028808 -493570.000000 0 0 1
29.935378 8.029584 -0.591023 30.999200 0.262062 1.589863 0.073827 -0.018590 -810219.000000 0 0 1
30.164178 7.469384 -1.930123 31.135104 0.242741 1.632828 0.040238 -0.024118 -435976.000000 0 0 1
29.046378 7.192384 -2.747023 30.049436 0.242735 1.662341 0.047240 -0.017482 441899.000000 0 0 1
29.462178 6.944584 -4.046923 30.538906 0.231486 1.703704 0.044007 -0.015276 -226243.000000 0 0 1
28.317178 6.324984 -4.873823 29.421457 0.219755 1.737219 0.038358 -0.004226 -228114.000000 0 0 1
28.228878 4.888784 -4.744523 29.039288 0.171483 1.734915 0.048044 -0.003708 731276.000000 0 0 1
27.051478 4.416084 -5.379323 27.932443 0.161820 1.764590 0.034248 -0.001947 -128424.000000 0 0 1
26.847478 2.906784 -5.378023 27.534698 0.107850 1.767378 0.035957 0.010697 -579096.000000 0 0 1
26.589878 2.471384 -4.076723 27.013867 0.092678 1.722287 0.035879 0.003892 463211.000000 0 0 1
26.314178 1.095784 -4.129823 26.658810 0.041618 1.726337 0.020409 0.004164 -248827.000000 0 0 1
26.512278 0.449984 -2.746523 26.657959 0.016971 1.674008 0.018713 -0.000189 -1343470.000000 0 0 1
27.792778 0.401584 -2.285823 27.889510 0.014448 1.652848 0.046665 -0.005579 -1176100.000000 0 0 1
27.719778 0.093084 -0.891723 27.734273 0.003358 1.602954 0.053359 -0.002151 204016.000000 0 0 1
29.019978 0.546984 -0.195523 29.025791 0.018846 1.577533 0.072804 -0.007545 991709.000000 0 0 1
30.217978 -0.214816 -0.452523 30.222130 -0.007109 1.585770 0.062980 -0.004804 1500130.000000 0 0 1
31.377078 0.305584 0.204877 31.379235 0.009739 1.564267 0.030900 -0.010348 267349.000000 0 0 1
-2.802722 -21.107216 -8.694639 22.999274 1.438784 1.958474 -0.000040 0.005277 231592.000000 0 1 0
-3.181822 -21.512216 -7.398039 22.970207 1.423953 1.898713 0.003109 -0.002228 -305846.000000 0 1 0
-2.715522 -22.795016 -7.096239 24.027972 1.452227 1.870600 -0.004352 0.002961 -256995.000000 0 1 0
-3.234122 -23.286316 -5.747639 24.202220 1.432794 1.810571 -0.008501 0.001200 -654012.000000 0 1 0
-2.681022 -22.753016 -4.543139 23.356535 1.453506 1.766557 -0.009435 0.000451 -236292.000000 0 1 0
-3.182622 -23.463316 -3.428639 23.925130 1.435977 1.714598 -0.000469 -0.000719 -19984.500000 0 1 0
-2.846222 -22.814316 -2.057539 23.083056 1.446682 1.660051 0.001117 -0.008209 989412.000000 0 1 0
-1.447822 -22.900816 -1.735139 23.012047 1.507659 1.646269 0.005507 -0.009319 237768.000000 0 1 0
-1.188822 -22.465916 -0.450139 22.501851 1.517929 1.590802 0.000858 -0.015626 -187570.000000 0 1 0
0.318678 -22.379016 -0.209339 22.382264 -1.556557 1.580149 0.007837 -0.022011 -663532.000000 0 1 0
0.994578 -21.349716 -0.846639 21.389632 -1.524245 1.610388 0.001550 -0.019172 -135144.000000 0 1 0
2.239678 -21.231016 -0.129239 21.349213 -1.465694 1.576850 0.004725 -0.018943 360842.000000 0 1 0
3.048078 -20.057816 -0.663339 20.298936 -1.419986 1.603481 0.011206 -0.017915 181518.000000 0 1 0
3.635678 -20.470916 -1.918139 20.879555 -1.395027 1.662793 0.004276 -0.015234 145958.000000 0 1 0
4.779778 -19.719616 -2.325439 20.423448 -1.332996 1.684905 0.018450 -0.008622 -100646.000000 0 1 0
5.578378 -20.382116 -3.427039 21.407792 -1.303649 1.731572 0.010320 -0.003615 -1357120.000000 0 1 0
6.405178 -21.427416 -2.992739 22.563620 -1.280327 1.703824 0.018189 -0.005943 -99792.800000 0 1 0
7.111978 -22.020816 -4.129339 23.506340 -1.258405 1.747382 0.010733 -0.006274 1054600.000000 0 1 0
8.325478 -21.261716 -4.743239 23.321074 -1.197577 1.775614 0.001810 -0.001327 -136609.000000 0 1 0
7.805678 -20.138216 -5.430439 22.270295 -1.201021 1.817122 -0.000239 0.000703 462780.000000 0 1 0
8.919578 -19.444616 -6.031539 22.226818 -1.140717 1.845605 0.002079 -0.003861 312720.000000 0 1 0
8.644878 -18.291416 -6.975339 21.400121 -1.129292 1.902811 0.001382 0.005287 -146335.000000 0 1 0
9.810778 -17.836516 -7.648839 21.746205 -1.067923 1.930217 0.011923 0.005423 300296.000000 0 1 0
9.538678 -16.659016 -8.390639 20.950227 -1.050780 1.982863 0.007364 0.009507 67104.800000 0 1 0
10.124678 -16.459516 -9.762839 21.650354 -1.019329 2.038606 0.008695 0.003130 -492477.000000 0 1 0
9.411278 -17.272416 -10.658539 22.372147 -1.071898 2.067375 0.011337 0.004536 72604.500000 0 1 0
9.166578 -16.598016 -11.877739 22.374114 -1.066212 2.130423 0.008064 0.013201 69344.800000 0 1 0
8.606178 -17.556616 -12.976439 23.466765 -1.115023 2.156722 0.009915 0.010996 838760.000000 0 1 0
7.254478 -18.016216 -12.861739 23.294545 -1.187996 2.155719 0.009792 0.014561 870780.000000 0 1 0
6.777078 -18.593316 -14.082339 24.288937 -1.221272 2.189260 0.009746 0.016612 103385.000000 0 1 0
5.480678 -19.395316 -13.927139 24.498599 -1.295399 2.175462 0.007392 0.027233 -20949.600000 0 1 0
5.788278 -20.667516 -13.381339 25.292502 -1.297726 2.128293 0.017420 0.018542 560167.000000 0 0 1
4.565678 -21.394716 -13.259439 25.581087 -1.360548 2.115693 0.030571 0.006801 530965.000000 0 0 1
4.741978 -22.860116 -12.932639 26.689407 -1.366262 2.076657 0.010338 0.002430 -53138.700000 0 0 1
5.122778 -23.673116 -14.063439 28.007849 -1.357686 2.096851 0.020374 -0.001743 -227123.000000 0 0 1
4.923878 -25.068826 -13.858439 29.064531 -1.376851 2.067825 0.006983 0.002672 994193.000000 0 0 1
3.450078 -25.552246 -14.177439 29.424821 -1.436587 2.073526 0.006693 -0.004305 772988.000000 0 0 1
2.450978 -25.036316 -13.337339 28.472953 -1.473210 2.058299 0.015973 -0.001731 298020.000000 0 0 1
1.121478 -25.271986 -13.811239 28.821543 -1.526449 2.070538 0.004310 -0.006435 998755.000000 0 0 1
0.369178 -26.521746 -13.282839 29.664341 -1.556877 2.035068 -0.006076 -0.003453 -498016.000000 0 0 1
1.075178 -27.663456 -13.757039 30.914058 -1.531950 2.031981 0.000554 0.002579 210427.000000 0 0 1
0.607878 -28.939546 -13.294739 31.853052 -1.549794 2.001354 -0.002114 0.005984 -1288970.000000 0 0 1
-0.741722 -29.445626 -13.663239 32.469665 1.545612 2.005123 -0.011118 0.000826 -968875.000000 0 0 1
-1.844322 -28.710126 -13.174939 31.642565 1.506645 2.000243 -0.020697 -0.004689 -610147.000000 0 0 1
-3.038222 -29.200506 -13.739239 32.413995 1.467122 2.008507 -0.024739 0.003429 -462387.000000 0 0 1
-4.202822 -28.360926 -13.152139 31.543377 1.423676 2.000888 -0.023134 -0.001679 -230486.000000 0 0 1
-4.536022 -28.415556 -11.788839 31.096560 1.412500 1.959624 -0.020046 -0.005001 -13144.800000 0 0 1
-4.947822 -29.694206 -11.293739 32.152378 1.405687 1.929709 -0.034406 -0.004564 -749375.000000 0 0 1
-5.183122 -29.774396 -9.797539 31.770603 1.398444 1.884290 -0.022469 -0.003651 299831.000000 0 0 1
-6.511522 -29.534186 -9.314939 31.645476 1.353794 1.869575 -0.014672 0.004335 249644.000000 0 0 1
-6.746022 -28.180036 -9.077239 30.364775 1.335828 1.874378 -0.005168 0.003547 -37725.900000 0 0 1
-8.278522 -27.848916 -8.988339 30.411944 1.281850 1.870831 -0.006777 0.006309 930668.000000 0 0 1
-9.130922 -27.960516 -10.097039 31.098463 1.255150 1.901469 0.018002 -0.005667 -98761.800000 0 0 1
-9.171422 -29.218266 -10.736739 32.451497 1.266642 1.908006 0.006188 -0.004447 -252389.000000 0 0 1
-10.460822 -29.501856 -11.606839 33.384233 1.230046 1.925886 0.036093 -0.012073 486217.000000 0 0 1
-10.677222 -28.671086 -12.703239 33.127127 1.214304 1.964346 0.043791 -0.010773 -419442.000000 0 0 1
-11.754722 -29.135056 -13.436339 34.169580 1.187314 1.974933 0.046913 -0.013504 -741265.000000 0 0 1
-12.006422 -28.341256 -14.754439 34.133187 1.170080 2.017795 0.047556 -0.012690 -298979.000000 0 0 1
-12.935722 -27.273926 -14.774239 33.607709 1.127928 2.025959 0.044416 -0.017948 14035.900000 0 0 1
-12.868522 -26.261196 -13.760939 32.320469 1.115164 2.010604 0.051676 -0.016520 271406.000000 0 0 1
-13.917322 -25.112256 -14.013939 31.948517 1.064731 2.024883 0.069629 -0.014839 396120.000000 0 0 1
-13.459822 -24.153316 -14.930539 31.424043 1.062392 2.065909 0.064702 -0.015608 -205129.000000 0 0 1
-14.531122 -23.380316 -15.385639 31.535862 1.014710 2.080453 0.073094 -0.013091 -480743.000000 0 0 1
-14.305722 -22.491016 -16.635239 31.420227 1.004281 2.128741 0.066756 -0.009370 164708.000000 0 0 1
-13.566122 -21.285416 -16.337539 30.066989 1.003370 2.145244 0.058186 -0.007472 523016.000000 0 0 1
-13.542922 -20.424816 -17.505439 30.116844 0.985293 2.191061 0.048401 -0.000614 -189540.000000 0 0 1
-13.314822 -18.916316 -17.276739 28.872084 0.957471 2.212285 0.041732 -0.007932 739147.000000 0 0 1
-11.971922 -18.426416 -17.429239 28.047070 0.994621 2.241361 0.047388 -0.007789 856214.000000 0 0 1
-12.066422 -17.063116 -17.918239 27.528381 0.955278 2.279566 0.036451 -0.007100 372039.000000 0 0 1
-10.686622 -16.349616 -17.987839 26.553271 0.991873 2.315052 0.040331 -0.012224 97880.300000 0 0 1
-10.247922 -15.871416 -16.737239 25.239987 0.997461 2.295781 0.042106 -0.006059 -1110170.000000 0 0 1
-9.087822 -15.196816 -16.972339 24.527373 1.031843 2.335018 0.038426 -0.008152 -1431570.000000 0 1 0
-8.326822 -14.688316 -15.695939 23.053093 1.055070 2.319733 0.030077 -0.010300 -30465.700000 0 1 0
-7.990422 -15.682916 -14.721239 22.945928 1.099579 2.267329 0.028382 -0.001771 758048.000000 0 1 0
-6.769422 -16.382016 -15.058139 23.258183 1.178943 2.275009 0.022224 -0.003830 541221.000000 0 1 0
-6.314122 -17.167916 -13.774339 22.898426 1.218365 2.216225 0.018734 -0.000846 -169972.000000 0 1 0
-5.781822 -16.534816 -12.600339 21.577724 1.234411 2.194384 0.015015 -0.005519 323236.000000 0 1 0
-5.609722 -17.426416 -11.481939 21.609810 1.259363 2.130966 0.013826 -0.004724 -361288.000000 0 1 0
-4.575522 -18.566616 -11.529839 22.329170 1.329173 2.113389 0.018419 -0.004852 -573197.000000 0 1 0
-3.299922 -18.041616 -11.775239 21.795542 1.389890 2.141541 0.016685 0.002696 -826916.000000 0 1 0
-2.330422 -19.080516 -11.826739 22.569199 1.449262 2.122362 0.009806 0.011134 1132800.000000 0 1 0
-0.946822 -18.454316 -12.261139 22.176424 1.519535 2.156626 0.012014 0.011261 -196298.000000 0 1 0
-0.730722 -18.242516 -13.669339 22.807328 1.530762 2.213472 0.018342 0.007512 157775.000000 0 1 0
0.577978 -17.708916 -13.905939 22.523653 -1.538170 2.236220 0.020610 0.009042 1316290.000000 0 1 0
1.769578 -18.713016 -13.721639 23.272124 -1.476513 2.201381 0.021870 0.008819 -667922.000000 0 1 0
1.754278 -19.700516 -14.760139 24.678929 -1.481983 2.211908 0.029797 0.009616 352482.000000 0 1 0
0.807378 -20.774116 -14.650839 25.433499 -1.531951 2.184678 0.015219 0.008471 -428183.000000 0 0 1
0.739478 -21.789216 -15.823839 26.939018 -1.536872 2.198632 0.016094 0.003158 748764.000000 0 0 1
1.933578 -22.525716 -16.211339 27.820031 -1.485168 2.192870 0.029358 -0.001067 1098380.000000 0 0 1
2.892378 -21.700016 -16.905839 27.659790 -1.438288 2.228380 0.032140 -0.001081 -146889.000000 0 0 1
4.144078 -22.485416 -17.309839 28.677480 -1.388541 2.218810 0.025826 -0.001486 -250295.000000 0 0 1
3.956878 -23.472816 -18.254239 29.997454 -1.403794 2.224998 0.023286 -0.003210 -437494.000000 0 0 1
5.196078 -24.087816 -18.420739 30.765984 -1.358338 2.212720 0.035031 -0.003388 -203879.000000 0 0 1
5.770278 -24.002716 -19.830539 31.665072 -1.334872 2.247542 0.029541 -0.003174 55923.800000 0 0 1
6.108278 -22.667916 -20.263439 31.012134 -1.307580 2.282868 0.042143 -0.007550 182154.000000 0 0 1
6.575678 -22.531516 -21.616839 31.909192 -1.286839 2.315085 0.054716 -0.005457 43113.800000 0 0 1
6.837178 -21.131716 -22.168239 31.380364 -1.257876 2.355247 0.048084 -0.005635 -153855.000000 0 0 1
5.629978 -20.460516 -22.389239 30.848135 -1.302279 2.382977 0.046632 -0.001207 -348056.000000 0 0 1
5.811978 -19.046016 -22.671139 30.174665 -1.274617 2.420872 0.052705 -0.005029 -275936.000000 0 0 1
4.524778 -18.237216 -22.867439 29.597119 -1.327600 2.453760 0.054967 -0.001779 -825730.000000 0 0 1
3.940678 -18.519916 -24.080939 30.633444 -1.361143 2.475270 0.052196 0.002721 240383.000000 0 0 1
3.066378 -17.526216 -24.650939 30.401312 -1.397590 2.516401 0.045447 0.007288 1230110.000000 0 0 1
1.727978 -17.062916 -23.984139 29.485046 -1.469869 2.520828 0.033866 0.011011 -2683.430000 0 0 1
1.879578 -16.172816 -22.842539 28.051282 -1.455097 2.522342 0.037254 0.007495 -125596.000000 0 0 1
0.663378 -15.637116 -22.358039 27.291783 -1.528398 2.530850 0.020766 0.003558 242654.000000 0 0 1
0.922578 -15.115316 -20.921039 25.826611 -1.509836 2.515046 0.010808 0.002415 -429437.000000 0 0 1
1.599078 -13.939716 -20.917439 25.187537 -1.456582 2.550743 0.012883 0.001087 -599058.000000 0 0 1
1.754678 -13.385316 -19.624739 23.819655 -1.440450 2.539034 0.009718 -0.001081 -539260.000000 0 1 0
2.888178 -12.351316 -19.598639 23.345305 -1.341088 2.567179 0.007414 -0.005495 -996590.000000 0 1 0
4.096678 -13.120316 -19.524239 23.877215 -1.268149 2.528189 0.005417 0.001966 1195900.000000 0 1 0
5.338778 -12.346016 -19.516339 23.702619 -1.162650 2.538144 0.014122 -0.003174 1591370.000000 0 1 0
5.435378 -11.329216 -18.357739 22.246372 -1.123466 2.541355 0.011579 -0.004163 -1534100.000000 0 1 0
4.661878 -10.149616 -18.395639 21.520859 -1.140223 2.595927 -0.006604 0.005237 -210035.000000 0 1 0
5.200878 -9.119816 -19.246139 21.923368 -1.052514 2.642218 0.006266 -0.001859 -74892.900000 0 1 0
4.604578 -9.031216 -20.647139 23.001508 -1.099299 2.685188 0.016567 -0.010963 733669.000000 0 1 0
3.200878 -8.712416 -20.688939 22.675626 -1.218712 2.719874 0.005545 -0.016399 546732.000000 0 1 0
2.832078 -8.587616 -22.055439 23.837161 -1.252242 2.752502 0.015007 -0.027728 202737.000000 0 1 0
1.300878 -8.718816 -22.257539 23.939676 -1.422685 2.764487 0.011174 -0.021239 286845.000000 0 1 0
0.617778 -7.677516 -21.559339 22.893908 -1.490503 2.798463 0.014997 -0.020674 325897.000000 0 1 0
-0.791822 -7.610416 -21.787639 23.092134 1.467125 2.803862 0.012767 -0.015519 772618.000000 0 1 0
-1.071322 -6.518716 -22.867539 23.802642 1.407907 2.860361 0.028195 -0.014839 -243795.000000 0 1 0
-0.704522 -6.989816 -24.159539 25.160231 1.470343 2.858611 0.029696 -0.018378 -204915.000000 0 0 1
-1.289122 -6.256316 -25.233269 26.029238 1.367589 2.893653 0.029591 -0.017866 110429.000000 0 0 1
-0.566022 -4.978916 -25.778959 26.261469 1.457599 2.949604 0.032326 -0.018248 -291152.000000 0 0 1
-1.262122 -4.356516 -26.875949 27.255987 1.288807 2.974405 0.028673 -0.013544 218446.000000 0 0 1
-0.722422 -3.110016 -27.400129 27.585525 1.342555 3.025590 0.017314 -0.010131 -530556.000000 0 0 1
-0.958422 -1.788316 -26.558899 26.636287 1.078815 3.065346 0.016152 -0.012158 518587.000000 0 0 1
-2.326422 -1.426016 -26.376049 26.516820 0.549898 3.038506 0.002458 -0.004678 463379.000000 0 0 1
-2.926622 -0.862516 -27.541319 27.709806 0.286600 3.031261 0.008243 -0.004150 -1232270.000000 0 0 1
-4.431622 -0.925316 -27.457919 27.828633 0.205841 2.978185 0.007754 0.004503 -1211080.000000 0 0 1
-4.935622 0.005084 -26.580739 27.035090 -0.001030 2.957999 0.009721 -0.004182 470938.000000 0 0 1
-6.349422 -0.312116 -26.520149 27.271430 0.049117 2.906324 0.010400 -0.012479 533161.000000 0 0 1
-7.084222 0.830984 -25.785879 26.754220 -0.116767 2.871724 0.018381 -0.007543 -902002.000000 0 0 1
-7.356022 1.993984 -26.544259 27.616747 -0.264707 2.861990 0.028302 -0.015661 152638.000000 0 0 1
-8.294522 1.956184 -27.596009 28.881923 -0.231608 2.842068 0.035284 -0.013820 546608.000000 0 0 1
-9.768022 1.583684 -27.214579 28.957825 -0.160731 2.792842 0.038107 -0.009903 538315.000000 0 0 1
-10.793522 1.914084 -28.183799 30.240542 -0.175512 2.770653 0.033076 -0.013270 198357.000000 0 0 1
-12.034922 1.493984 -27.728049 30.264105 -0.123506 2.729295 0.013286 -0.008164 -986833.000000 0 0 1
-13.200022 2.052084 -28.512509 31.486740 -0.154226 2.703448 -0.002832 -0.003791 -548705.000000 0 0 1
-14.495022 1.625884 -28.076919 31.639573 -0.111702 2.662468 0.001501 -0.000611 793156.000000 0 0 1
-15.552922 2.254284 -28.790739 32.800638 -0.143940 2.641941 -0.002638 0.005396 107979.000000 0 0 1
-15.918322 3.679284 -28.475599 32.829710 -0.227146 2.620695 -0.008600 0.007287 -783621.000000 0 0 1
-14.903922 4.667684 -28.603509 32.589491 -0.303509 2.641819 -0.001301 0.001037 -206620.000000 0 0 1
-14.768522 5.304184 -29.878739 33.748817 -0.344807 2.657993 -0.010597 0.000709 -678974.000000 0 0 1
-15.996322 5.849484 -30.637419 35.053534 -0.350572 2.634207 -0.000932 0.006646 -329454.000000 0 0 1
-16.751022 6.779684 -29.937279 34.968579 -0.384579 2.598509 -0.001307 0.007968 -254784.000000 0 0 1
-17.669222 7.427984 -30.786209 36.265232 -0.397960 2.584731 -0.011621 0.003066 -457363.000000 0 0 1
-18.426222 8.480484 -29.980729 36.197906 -0.431337 2.546765 -0.007429 -0.005468 -393996.000000 0 0 1
-17.624522 9.528484 -29.410789 35.586659 -0.495627 2.543579 -0.009646 -0.003480 206621.000000 0 0 1
-18.351822 10.539884 -28.758149 35.705877 -0.521326 2.507176 -0.003650 0.005703 -287193.000000 0 0 1
-8.159422 24.656084 31.445727 40.783972 -1.251211 0.690337 -0.027604 0.007087 -720500.000000 0 0 1
-9.023522 25.746784 31.265467 41.495183 -1.233701 0.717469 -0.017755 0.000357 -153995.000000 0 0 1
-8.872822 26.829884 32.123677 42.784346 -1.251412 0.721482 -0.008420 0.002024 619932.000000 0 0 1
-7.529322 27.647084 31.948307 42.915571 -1.304908 0.731092 -0.007097 -0.001447 687860.000000 0 0 1
-7.496822 28.324884 30.703227 42.440423 -1.312056 0.762020 0.008086 0.014000 -430285.000000 0 0 1
-6.173022 28.675184 30.478757 42.300437 -1.358758 0.766229 0.005706 0.005880 -829930.000000 0 0 1
-5.807622 29.801684 29.525337 42.351084 -1.378333 0.799373 0.022524 -0.001355 -425461.000000 0 0 1
-6.134422 31.037284 30.127247 43.687471 -1.375664 0.809848 0.027818 -0.000314 257098.000000 0 0 1
-5.541722 32.091284 29.444677 43.903874 -1.399797 0.835695 0.046340 0.007603 18538.700000 0 0 1
-5.961722 33.470084 30.078587 45.392841 -1.394524 0.846474 0.038362 0.008577 -304496.000000 0 0 1
-5.222922 33.754784 31.224657 46.277894 -1.417282 0.830210 0.024937 0.004024 -550671.000000 0 0 1
-5.752022 -34.363530 32.102407 47.376180 1.404946 0.826293 0.025326 -0.000248 -464039.000000 0 0 1
-7.027322 34.293884 32.831317 47.993219 -1.368680 0.817451 0.012345 0.004485 -488871.000000 0 0 1
-6.863722 33.331784 33.851238 48.000258 -1.367714 0.788048 0.015399 0.003802 -19382.500000 0 0 1
-6.841122 31.993184 33.415239 46.764762 -1.360138 0.774832 0.018403 0.004489 -228079.000000 0 0 1
-6.653022 31.092884 -34.415047 46.855369 -1.360002 2.395719 0.012199 0.002805 -176471.000000 0 0 1
-5.364522 31.006284 -33.859099 46.223439 -1.399478 2.392797 0.000359 0.005714 -325785.000000 0 0 1
-5.414022 30.742584 -32.468559 45.040265 -1.396476 2.375865 0.004989 0.008017 -427059.000000 0 0 1
-4.065022 30.334084 -31.842979 44.166236 -1.437582 2.376012 -0.006603 0.009202 159282.000000 0 0 1
-3.610522 29.000684 -32.068289 43.387218 -1.446936 2.402557 -0.001261 0.012339 127359.000000 0 0 1
-3.001822 28.880784 -33.360439 44.227022 -1.467230 2.425383 -0.002641 0.011420 -553486.000000 0 0 1
-2.350822 27.494884 -33.550579 43.441183 -1.485503 2.453285 -0.002086 0.000593 -608568.000000 0 0 1
-1.104722 27.332084 -32.904799 42.790058 -1.530400 2.448044 0.016163 0.005057 162492.000000 0 0 1
-0.525422 26.070084 -33.171259 42.193101 -1.550645 2.475395 0.022160 -0.000735 464948.000000 0 0 1
0.106478 25.698284 34.464505 42.990873 1.566653 0.640712 0.016651 0.003291 -434582.000000 0 0 1
-0.848422 25.130584 33.612686 41.977121 -1.537049 0.642270 0.014076 0.001035 -137905.000000 0 0 1
-0.656422 25.239284 32.223947 40.936965 -1.544794 0.664606 0.018989 0.004846 -568652.000000 0 0 1
-0.479622 26.614984 31.552827 41.281573 -1.552778 0.700792 0.008945 0.005495 400745.000000 0 0 1
-1.625922 27.488484 31.676587 41.972211 -1.511716 0.715594 -0.007135 0.004781 700370.000000 0 0 1
-1.519322 28.593484 30.808527 42.060206 -1.517711 0.748829 -0.011985 0.006615 422950.000000 0 0 1
-2.592522 29.654084 31.202047 43.123701 -1.483593 0.761868 -0.004325 -0.006310 70125.000000 0 0 1
-2.233822 30.398884 32.360627 44.455509 -1.497444 0.755494 0.005232 0.011263 49124.900000 0 0 1
-2.989622 31.587684 32.433787 45.372570 -1.476432 0.774412 0.007676 0.016090 -89317.500000 0 0 1
-2.333822 32.446984 33.483942 46.684342 -1.498993 0.770961 0.027774 0.010277 -266231.000000 0 0 1
-1.121022 33.002584 33.092796 46.749977 -1.536842 0.784322 -0.007703 0.000249 -892504.000000 0 0 1
-0.350722 33.418884 34.169442 47.796397 -1.560302 0.774321 -0.009892 0.005066 630946.000000 0 0 1
1.032178 34.059184 33.773601 47.976551 1.540500 0.789838 0.010626 -0.008722 532365.000000 0 0 1
0.788278 -33.828030 33.032569 47.287499 -1.547498 0.797431 0.024396 -0.023546 -629582.000000 0 0 1
1.905478 -33.147630 32.612037 46.539673 -1.513375 0.794367 0.006848 -0.030502 -1031520.000000 0 0 1
1.638978 -31.766130 31.882207 45.036079 -1.519247 0.784239 0.009493 -0.021178 -817306.000000 0 0 1
1.015978 -30.808430 32.697847 44.937075 -1.537831 0.755927 0.000554 -0.001748 -292106.000000 0 0 1
1.667178 -29.608030 32.942197 44.323845 -1.514547 0.732932 0.015474 -0.010692 -788660.000000 0 0 1
1.479178 -28.967430 34.324607 44.938609 -1.519777 0.701599 0.008399 -0.000503 761574.000000 0 0 1
0.124478 -28.547630 -34.507300 44.785449 -1.566436 2.450425 0.007978 -0.000406 732031.000000 0 0 1
-0.067022 -28.087730 -33.172959 43.466887 1.568410 2.439013 -0.006959 0.014671 462098.000000 0 0 1
-1.478822 -27.474430 -32.900119 42.888799 1.517023 2.445109 -0.010610 0.020881 481090.000000 0 0 1
-1.668222 -26.928030 -31.611439 41.559414 1.508924 2.435083 -0.005485 0.021295 1093040.000000 0 0 1
-2.926122 -26.200130 -31.671109 41.207623 1.459574 2.447406 0.006835 0.006943 846769.000000 0 0 1
-3.421822 -25.707730 -30.359689 39.928774 1.438469 2.434642 0.005288 0.001626 -460885.000000 0 0 1
-3.866122 -26.641230 -29.437629 39.890802 1.426684 2.400832 -0.006013 0.002882 -66272.800000 0 0 1
-4.376722 -26.078030 -28.219959 38.672800 1.404514 2.388695 0.003753 0.001199 -23604.000000 0 0 1
-3.381422 -25.584030 -27.152699 37.459921 1.439389 2.381608 0.004460 0.000728 112470.000000 0 0 1
-2.642022 -24.412230 -27.542549 36.898906 1.462991 2.413481 0.005818 0.000652 -207680.000000 0 0 1
-1.648722 -24.079430 -26.618079 35.931315 1.502433 2.405064 0.000932 0.004060 -495205.000000 0 0 1
-0.735522 -22.994430 -27.349159 35.738793 1.538820 2.442228 -0.005844 0.005291 594419.000000 0 0 1
-0.082422 -23.266830 -28.602609 36.870875 1.567254 2.458700 -0.026172 0.003046 326417.000000 0 0 1
0.816078 -24.360930 -28.540179 37.532156 -1.537309 2.434755 -0.024242 0.014275 -356218.000000 0 0 1
1.425178 -24.698730 -29.925399 38.827670 -1.513158 2.450772 -0.036664 0.014782 -131981.000000 0 0 1
2.223578 -23.670530 -30.402899 38.595007 -1.477133 2.477931 -0.009496 0.003001 38712.300000 0 0 1
3.030078 -24.020630 -31.525059 39.749232 -1.445314 2.486676 -0.004474 0.002547 -430066.000000 0 0 1
4.098378 -22.976230 -31.947789 39.564695 -1.394278 2.510668 0.010019 -0.009645 -219555.000000 0 0 1
5.253678 -22.902030 -31.130519 39.002735 -1.345300 2.495035 0.024735 -0.014576 611226.000000 0 0 1
6.186278 -23.967430 -31.165779 39.799668 -1.318198 2.470377 0.011010 -0.008926 -232255.000000 0 0 1
7.069578 -24.112230 -32.430959 41.026159 -1.285595 2.482413 0.011304 -0.006747 -339367.000000 0 0 1
6.362778 -24.889830 -33.396979 42.134865 -1.320519 2.485892 -0.016023 -0.002821 140523.000000 0 0 1
6.757178 -24.721930 34.338055 42.847815 -1.303986 0.641171 -0.000992 -0.002397 -229204.000000 0 0 1
6.369978 -23.373830 33.680715 41.488590 -1.304732 0.623557 -0.005901 0.002354 -1036070.000000 0 0 1
5.023078 -23.139130 33.866075 41.322653 -1.357031 0.610167 0.004217 0.000671 -1141250.000000 0 0 1
4.568378 -22.003630 33.179193 40.073540 -1.366085 0.595340 0.021945 -0.014869 -1145680.000000 0 0 1
3.097478 -21.759730 33.452114 40.026543 -1.429397 0.581302 0.009112 -0.018401 -647612.000000 0 0 1
2.183778 -22.705130 32.934457 40.062080 -1.474911 0.605732 0.011708 -0.007342 26525.900000 0 0 1
1.899978 -23.758830 33.821093 41.375817 -1.490997 0.613892 0.004443 -0.004137 -671306.000000 0 0 1
0.678078 -24.585230 33.403683 41.481313 -1.543223 0.634665 0.007957 -0.005165 -239298.000000 0 0 1
0.754478 -25.560830 32.343497 41.231384 -1.541288 0.669006 0.017098 -0.006236 178004.000000 0 0 1
-0.528822 -26.013030 31.922497 41.182559 1.550470 0.683850 0.028308 -0.015224 372443.000000 0 0 1
-0.490322 -27.105930 30.852297 41.071110 1.552709 0.720930 0.038175 -0.030761 817878.000000 0 0 1
-1.820622 -27.279030 30.323867 40.828875 1.504154 0.733693 0.042443 -0.027003 917380.000000 0 0 1
-1.958322 -28.501530 29.602767 41.139957 1.502195 0.767624 0.040817 -0.018190 397737.000000 0 0 1
-3.375022 -28.614330 28.964297 40.854634 1.453390 0.782774 0.042218 -0.012105 592669.000000 0 0 1
-4.437222 -28.811330 29.884457 41.747604 1.417987 0.772975 0.042631 -0.009332 -704763.000000 0 0 1
-5.602022 -29.085330 29.207537 41.598309 1.380520 0.792408 0.032291 0.003864 -885735.000000 0 0 1
-6.738622 -29.643430 30.096247 42.777635 1.347272 0.790414 0.026454 0.011435 64222.700000 0 0 1
-7.807422 -30.148830 29.266157 42.736585 1.317400 0.816463 0.038795 0.013950 928734.000000 0 0 1
-8.922822 -30.590930 30.079877 43.820323 1.286988 0.814219 0.025377 0.013097 419695.000000 0 0 1
-8.809222 -31.804730 31.052837 45.314699 1.300592 0.815821 0.018985 0.015679 -735916.000000 0 0 1
-8.788022 -33.112730 30.522807 45.883809 1.311380 0.843009 0.031063 0.010864 888938.000000 0 0 1
-9.992622 -33.496430 29.828057 45.951891 1.280882 0.864376 0.032018 0.009005 493764.000000 0 0 1
-9.920922 34.138684 29.315117 46.078742 -1.287980 0.881238 0.036879 0.005109 -314774.000000 0 0 1
-10.067322 33.172384 30.304907 46.045036 -1.276145 0.852427 0.033083 0.006151 242365.000000 0 0 1
-9.783422 31.893984 29.816787 44.743517 -1.273160 0.841435 0.026316 -0.003904 -173630.000000 0 0 1
-10.129322 30.727184 30.729147 44.621110 -1.252361 0.811145 0.025816 0.013568 -679632.000000 0 0 1
-11.494922 30.580284 30.928907 44.987601 -1.211243 0.812758 0.020412 0.023438 -702018.000000 0 0 1
-11.838122 29.366384 31.623557 44.750139 -1.187605 0.786016 0.012356 0.019486 69064.000000 0 0 1
-11.757522 29.327584 33.180464 45.818006 -1.189512 0.760952 0.019457 0.009313 -296313.000000 0 0 1
-12.803722 30.121184 33.679507 46.963072 -1.168863 0.771094 0.015685 0.014226 126728.000000 0 0 1
-12.902022 29.972384 -33.999429 47.125016 -1.164307 2.376724 0.023318 0.006169 -99789.600000 0 0 1
-14.325922 30.213884 -33.451239 47.297952 -1.128041 2.356390 0.019512 0.006700 -16152.400000 0 0 1
-14.474422 30.123784 -32.039759 46.297920 -1.122872 2.335100 0.018236 0.001205 439303.000000 0 0 1
-15.849522 30.375384 -31.732669 46.699396 -1.089870 2.317890 0.023911 -0.003864 690822.000000 0 0 1
-16.170922 30.018284 -30.287839 45.606461 -1.076668 2.297103 0.036778 -0.005895 -222593.000000 0 0 1
-16.070722 28.621184 -30.080009 44.522435 -1.059169 2.312594 0.028678 -0.012433 122637.000000 0 0 1
-15.971122 28.407484 -28.676289 43.409578 -1.058623 2.292412 0.026166 -0.015141 -172303.000000 0 0 1
-16.399722 26.983584 -28.254579 42.371995 -1.024686 2.300732 0.011589 -0.015613 -871133.000000 0 0 1
-17.755222 26.769184 -28.408309 42.882038 -0.985148 2.294915 0.005368 -0.006115 -960206.000000 0 0 1
-18.087922 25.376284 -28.223449 42.043927 -0.951539 2.306737 -0.005567 -0.003665 -193955.000000 0 0 1
-19.507222 24.991084 -28.648499 42.729644 -0.908017 2.305624 -0.012617 0.001834 62514.100000 0 0 1
-20.556322 25.319684 -27.743259 42.817487 -0.888859 2.275676 -0.007628 -0.000670 135327.000000 0 0 1
-21.795422 24.872884 -28.223929 43.477476 -0.851246 2.277279 0.008585 -0.008025 -294250.000000 0 0 1
-22.996722 25.009784 -27.291469 43.579385 -0.827307 2.247527 0.038665 -0.024301 -202338.000000 0 0 1
-23.404622 26.407784 -27.198079 44.552025 -0.845615 2.227462 0.025479 -0.009114 436673.000000 0 0 1
-24.516022 26.680784 -26.335659 44.793599 -0.827656 2.199298 0.022472 -0.016444 354816.000000 0 0 1
-24.340022 26.420184 -24.812939 43.659418 -0.826355 2.175271 0.023766 -0.002216 -522519.000000 0 0 1
-24.268122 25.005484 -24.522939 42.609747 -0.800362 2.184041 0.021344 -0.005806 -117238.000000 0 0 1
-25.500092 24.343284 -24.293739 42.813969 -0.762193 2.174172 0.021333 -0.004833 -445766.000000 0 0 1
-26.169882 24.574984 -22.907539 42.585771 -0.753979 2.138759 0.010996 -0.004456 -354891.000000 0 0 1
-25.594972 24.047384 -21.701939 41.283816 -0.754233 2.124307 0.004814 0.000683 237428.000000 0 0 1
-24.319622 24.610384 -21.427239 40.696948 -0.791340 2.125283 0.012683 -0.001411 -49127.700000 0 0 1
-23.604222 23.931784 -20.248939 39.241676 -0.792289 2.112978 0.015186 -0.004281 740.599000 0 0 1
-24.238122 24.186984 -18.988239 39.154182 -0.784342 2.077115 0.019184 0.000632 408657.000000 0 0 1
-23.372122 23.838184 -17.927139 37.893237 -0.795270 2.063598 0.013777 -0.009914 -244882.000000 0 0 1
-23.998322 23.890284 -16.529039 37.681219 -0.783142 2.024897 0.010309 -0.010436 -401248.000000 0 0 1
-24.284922 25.220484 -16.128739 38.548236 -0.804294 2.002484 0.012841 -0.018440 367404.000000 0 0 1
-24.877822 25.284184 -14.790539 38.431186 -0.793499 1.965850 -0.025523 -0.004757 244575.000000 0 0 1
-24.892922 26.647684 -14.095139 39.095135 -0.819431 1.939637 -0.025448 0.004425 413737.000000 0 0 1
-23.612522 27.096284 -13.642939 38.443329 -0.853992 1.933587 -0.003411 -0.004013 430474.000000 0 0 1
-23.730122 27.783784 -12.387339 38.581129 -0.863927 1.897658 -0.000397 -0.007082 -1519470.000000 0 0 1
-22.470122 28.322384 -11.856939 38.048007 -0.900111 1.887705 0.002165 -0.000828 -1785840.000000 0 0 1
-21.579222 27.352084 -11.439839 36.669732 -0.902834 1.888062 -0.003345 -0.005797 -680246.000000 0 0 1
-20.423122 27.920284 -10.902039 36.269831 -0.939254 1.876099 -0.009875 0.004072 -480906.000000 0 0 1
-19.517022 26.857284 -10.217939 34.736639 -0.942379 1.869367 0.013132 -0.002054 -213728.000000 0 0 1
-18.805122 26.159584 -11.196139 34.107330 -0.947523 1.905259 0.009874 -0.004503 -361676.000000 0 0 1
-18.389222 24.992484 -10.601239 32.789846 -0.936452 1.900020 0.011239 0.005920 -461338.000000 0 0 1
-17.579222 24.064784 -11.517939 31.950051 -0.939895 1.939598 0.016185 -0.003843 -117604.000000 0 0 1
-17.424222 22.761984 -11.021439 30.711293 -0.917451 1.937856 0.007490 -0.004923 -29427.700000 0 0 1
-16.655522 21.944184 -11.851739 29.990287 -0.921563 1.977067 0.030178 -0.010520 -222603.000000 0 0 1
-16.325222 20.558784 -11.323139 28.590032 -0.899678 1.978010 0.023614 -0.005151 -733120.000000 0 0 1
-17.443622 19.747284 -11.166439 28.616857 -0.847261 1.971651 0.020160 -0.001323 -698557.000000 0 0 1
-17.102622 18.430984 -10.972139 27.433350 -0.822764 1.982265 0.029451 -0.005480 -628407.000000 0 0 1
-18.248822 17.371784 -10.759839 27.396579 -0.760781 1.974410 0.026348 -0.004436 229178.000000 0 0 1
-19.105922 17.013984 -11.777939 28.164370 -0.727546 2.002243 0.027952 -0.003456 288591.000000 0 0 1
-19.885122 18.066884 -12.393339 29.587586 -0.737526 2.002996 0.027490 0.006773 -231293.000000 0 0 1
-20.648022 17.559784 -13.679439 30.361388 -0.704746 2.038182 0.032693 0.004722 9394.430000 0 0 1
-19.809722 17.378084 -14.766639 30.207226 -0.720103 2.081561 0.046113 0.001821 301478.000000 0 0 1
-20.628922 17.006284 -15.860039 31.085478 -0.689437 2.106222 0.018003 0.010391 465659.000000 0 0 1
-19.747522 16.911084 -17.100339 31.118660 -0.708178 2.152586 0.030954 0.008240 321910.000000 0 0 1
-19.113522 18.089284 -17.642739 31.683042 -0.757874 2.161386 0.005984 0.001394 616025.000000 0 0 1
-18.207422 17.682684 -18.668539 31.507172 -0.770779 2.204976 -0.001620 0.011628 203787.000000 0 0 1
-17.294522 18.835684 -19.219139 31.988417 -0.828028 2.215317 -0.010890 0.019539 281662.000000 0 0 1
-16.161722 19.134984 -18.416539 31.088869 -0.869436 2.204811 -0.010483 0.007339 580200.000000 0 0 1
-15.307922 20.096184 -19.035339 31.631206 -0.919828 2.216537 0.002992 0.007000 107216.000000 0 0 1
32.081173 31.425084 1.935661 44.949798 0.775067 1.527720 0.035197 -0.005847 -728190.000000 0 0 1
33.364873 31.247084 1.463861 45.735521 0.752633 1.538784 0.045811 -0.008469 -757913.000000 0 0 1
33.463373 31.661284 0.116261 46.067860 0.757734 1.568273 0.045761 -0.000929 280375.000000 0 0 1
34.911855 31.454884 -0.415539 46.993830 0.733356 1.579639 0.029592 0.004688 202661.000000 0 0 1
-34.642892 32.384784 0.178761 47.422950 -0.751722 1.567027 0.013563 0.012068 261868.000000 0 0 1
-33.349792 32.262984 -0.416139 46.403469 -0.768836 1.579764 0.017232 0.014113 19647.200000 0 0 1
-32.367512 33.351384 -0.018839 46.475488 -0.800368 1.571202 0.002970 0.013454 -401915.000000 0 0 1
-31.900442 33.148284 1.288461 46.022897 -0.804579 1.542797 -0.010714 0.009710 -345896.000000 0 0 1
-31.196082 34.268684 1.700461 46.372727 -0.832299 1.534119 -0.006137 0.012071 -237886.000000 0 0 1
-30.511252 34.064184 3.093161 45.835279 -0.840363 1.503261 0.001168 0.016392 -96419.500000 0 0 1
-30.103422 -33.786030 3.637161 45.397586 0.842975 1.490592 0.004185 0.019530 118919.000000 0 0 1
-29.445062 -34.002330 4.886761 45.244343 0.857103 1.462577 0.011772 0.007707 -334217.000000 0 0 1
-29.206342 -32.783230 5.739561 44.279715 0.843036 1.440810 0.014354 0.005787 140075.000000 0 0 1
-30.325812 -32.118630 6.332661 44.624700 0.814101 1.428406 0.013485 0.001254 549294.000000 0 0 1
-30.897812 -32.818330 7.451761 45.686391 0.815531 1.406958 0.004893 -0.010145 -332665.000000 0 0 1
-32.021922 -32.098230 8.302661 46.093753 0.786588 1.389682 0.001628 -0.009807 1946470.000000 0 0 1
-33.389182 -31.967630 7.842561 46.885740 0.763651 1.402737 -0.004536 0.005068 1512880.000000 0 0 1
-33.978462 -33.209530 7.358361 48.078626 0.773954 1.417144 -0.004805 -0.000772 88673.300000 0 0 1
34.906976 -33.129730 7.063761 48.641266 -0.759282 1.425059 -0.003174 0.007404 1025330.000000 0 0 1
34.133593 -32.971230 8.247161 48.168661 -0.768078 1.398734 0.000205 0.012177 928183.000000 0 0 1
32.716943 -33.026230 7.977461 47.167469 -0.790103 1.400849 0.005201 0.016435 854891.000000 0 0 1
32.053143 -32.610330 9.318461 46.665526 -0.794015 1.369759 0.012797 0.006099 395089.000000 0 0 1
30.627993 -32.496030 9.198561 45.592537 -0.814983 1.367646 0.016955 0.000693 1117740.000000 0 0 1
29.847923 -32.487930 10.404261 45.327837 -0.827724 1.339198 0.023821 0.007468 348887.000000 0 0 1
29.959093 -31.156730 11.254861 44.664986 -0.804992 1.316066 0.030243 0.009351 -429875.000000 0 0 1
29.319773 -29.968430 10.832361 43.302378 -0.796338 1.317955 0.035548 -0.002015 146642.000000 0 0 1
29.811923 -29.407330 9.591361 42.959702 -0.778566 1.345634 0.034474 -0.010185 302134.000000 0 0 1
29.151723 -28.006230 9.203961 41.459435 -0.765360 1.346932 0.038119 -0.014477 161450.000000 0 0 1
29.507543 -27.615430 7.901161 41.179308 -0.752287 1.377727 0.043289 -0.018817 215625.000000 0 0 1
28.788003 -26.429730 7.468561 39.787676 -0.742715 1.381966 0.034349 -0.013137 345063.000000 0 0 1
29.205773 -25.895530 6.047361 39.498433 -0.725395 1.417088 0.024982 -0.002131 550159.000000 0 0 1
30.575753 -25.510630 5.971361 40.265694 -0.695333 1.421948 0.038101 -0.005150 162098.000000 0 0 1
30.755123 -24.923230 4.694361 39.863292 -0.681036 1.452761 0.029392 -0.004900 -1836.900000 0 0 1
32.227093 -24.619730 4.367661 40.789620 -0.652366 1.463513 0.039831 -0.013244 -188154.000000 0 0 1
33.047553 -25.746430 4.258361 42.108824 -0.661849 1.469496 0.026585 -0.007014 101669.000000 0 0 1
34.414843 -25.315930 4.234061 42.932564 -0.634228 1.472015 0.033874 -0.011045 1094000.000000 0 0 1
-35.034318 -26.547930 4.210261 44.157925 0.648455 1.475306 0.029946 -0.005454 42710.100000 0 0 1
34.979165 -27.473830 5.212161 44.783032 -0.665796 1.454145 0.022043 0.000716 -211553.000000 0 0 1
-35.110101 -28.840330 5.042361 45.715526 0.687669 1.460273 0.018030 0.001708 -1386000.000000 0 0 1
34.523618 -29.745630 6.015361 45.965936 -0.711191 1.439554 0.021550 0.002004 219537.000000 0 0 1
33.183603 -30.023630 5.678061 45.108871 -0.735446 1.444587 0.020474 0.007234 -401635.000000 0 0 1
32.367283 -28.895130 5.821961 43.777446 -0.728782 1.437411 0.022149 0.000659 -2805230.000000 0 0 1
30.947753 -29.162730 5.447061 42.870721 -0.755711 1.443394 0.018635 -0.002191 -1578300.000000 0 0 1
30.865153 -29.548130 4.091261 42.924213 -0.763601 1.475338 0.014237 0.005278 467381.000000 0 0 1
29.587523 -29.274930 3.514061 41.770704 -0.780088 1.486569 0.015880 0.010660 1554730.000000 0 0 1
28.339013 -30.228430 3.780761 41.607113 -0.817648 1.479803 0.026891 0.007198 899379.000000 0 0 1
28.392523 -31.466830 3.142461 42.499080 -0.836712 1.496787 0.025834 0.012962 -351727.000000 0 0 1
27.287753 -32.313530 3.405461 42.430919 -0.869522 1.490451 0.028928 0.005264 -203228.000000 0 0 1
27.486423 -33.725630 2.796061 43.597472 -0.886975 1.506619 0.027157 0.003250 -352095.000000 0 0 1
27.346613 -33.814630 1.361061 43.509987 -0.890760 1.539510 0.031563 0.000471 146737.000000 0 0 1
27.535683 33.970484 0.817161 43.736431 0.889639 1.552111 0.020596 0.005713 -787106.000000 0 0 1
27.097843 33.922784 -0.667239 43.422270 0.896782 1.586163 0.019433 -0.002147 -768349.000000 0 0 1
28.011333 34.505284 -1.527139 44.470007 0.888903 1.605144 0.015467 0.002590 -257454.000000 0 0 1
27.572673 34.458284 -2.850739 44.223889 0.895948 1.635303 0.020664 0.001654 -427601.000000 0 0 1
28.632433 -34.002730 -3.779239 44.612605 -0.870928 1.655610 0.008692 0.008785 8873.350000 0 0 1
28.705883 -32.589130 -3.705439 43.586803 -0.848667 1.655912 0.003073 0.006600 97329.200000 0 0 1
29.665633 -32.088830 -4.613739 43.943480 -0.824617 1.675983 0.005959 0.002320 -189866.000000 0 0 1
29.784853 -30.560530 -4.691839 42.931304 -0.798251 1.680302 0.012976 0.013070 59691.300000 0 0 1
28.603463 -29.838330 -5.054539 41.641715 -0.806525 1.692478 -0.000808 0.005652 366292.000000 0 0 1
28.825603 -28.438730 -5.018139 40.802678 -0.778642 1.694094 0.012263 -0.002489 430722.000000 0 0 1
29.933923 -27.708530 -5.869239 41.209834 -0.746810 1.713706 0.024623 -0.008661 1422530.000000 0 0 1
31.296623 -27.992130 -5.472139 42.343622 -0.729720 1.700390 0.025268 -0.002848 1761250.000000 0 0 1
32.311433 -27.679530 -6.498639 43.039719 -0.708341 1.722368 0.026350 -0.004155 1065780.000000 0 0 1
32.405243 -28.605130 -7.744739 43.912803 -0.723192 1.748090 0.023314 -0.005010 -174743.000000 0 0 1
31.270183 -28.502730 -8.628339 43.181920 -0.739132 1.771964 0.020099 -0.001952 497345.000000 0 0 1
31.075303 -29.517130 -9.622439 43.926379 -0.759688 1.791646 0.009996 0.003459 56295.100000 0 0 1
30.981263 -30.961330 -9.175639 44.750810 -0.785076 1.777299 0.001687 0.009878 432165.000000 0 0 1
32.196693 -31.562730 -8.698139 45.918304 -0.775455 1.761374 0.009352 0.008071 85516.400000 0 0 1
32.030383 -32.890230 -8.305039 46.654972 -0.798642 1.749760 0.006677 -0.004128 228550.000000 0 0 1
33.342183 -33.463230 -7.717439 47.864891 -0.787210 1.732737 0.012438 -0.008348 -42118.000000 0 0 1
33.220853 34.421184 -7.025039 48.350741 0.803142 1.716606 0.005918 -0.008517 -133095.000000 0 0 1
32.676253 34.519384 -5.715639 47.874773 0.812821 1.690469 0.014292 -0.003726 11215.300000 0 0 1
32.409143 33.194084 -4.997739 46.660231 0.797363 1.678111 0.004399 -0.002400 4791.580000 0 0 1
31.475153 32.380084 -5.687939 45.513819 0.799569 1.696096 0.019297 -0.014054 58073.400000 0 0 1
31.628293 30.991184 -5.392439 44.608080 0.775224 1.691978 0.021296 -0.001339 -872157.000000 0 0 1
30.536533 30.131384 -5.932239 43.307870 0.778720 1.708207 0.036288 -0.008774 -794555.000000 0 0 1
30.525893 30.007384 -7.352739 43.431970 0.776833 1.740909 0.018711 -0.008716 -759381.000000 0 0 1
29.339953 29.559384 -7.903639 42.391715 0.789124 1.758337 0.011292 -0.013864 -582590.000000 0 0 1
29.478673 29.117684 -9.375239 42.482076 0.779238 1.793315 0.000327 -0.004477 -477028.000000 0 0 1
30.158723 27.893584 -9.584139 42.183603 0.746399 1.799998 -0.006114 -0.001959 93579.400000 0 0 1
30.538933 27.546584 -10.924939 42.553437 0.733927 1.830438 -0.008160 0.007422 -326048.000000 0 0 1
31.642423 28.440184 -11.435639 44.055202 0.732151 1.833379 -0.004640 -0.001152 -1321790.000000 0 0 1
32.923343 28.237884 -10.882839 44.718685 0.708939 1.816627 0.008086 -0.008616 571368.000000 0 0 1
33.832533 29.333784 -11.074239 46.127540 0.714298 1.813243 0.007695 -0.010646 228323.000000 0 0 1
33.677063 30.506084 -10.081139 46.544550 0.736033 1.789118 0.006521 -0.010162 -724285.000000 0 0 1
34.409261 30.313884 -8.894239 46.712271 0.722207 1.762371 0.002013 -0.009243 120579.000000 0 0 1
34.282133 31.429384 -8.007039 47.193045 0.742012 1.741287 0.006852 -0.015442 -1116490.000000 0 0 1
-35.026767 31.544284 -7.001139 47.654299 -0.733134 1.718245 -0.000616 -0.007366 480989.000000 0 0 1
-33.706002 31.870184 -7.457639 46.983184 -0.757410 1.730201 0.017223 -0.007996 921765.000000 0 0 1
-32.954482 30.908184 -8.176439 45.914789 -0.753367 1.749830 0.026814 -0.011349 -1025970.000000 0 0 1
-31.675452 31.504184 -8.756739 45.525030 -0.782687 1.764353 0.049482 -0.016496 -47724.500000 0 0 1
-30.728732 31.875584 -7.727539 44.944662 -0.803715 1.743589 0.051870 -0.015215 1049080.000000 0 0 1
-29.415872 32.226184 -8.173739 44.391784 -0.830957 1.755980 0.050103 -0.027135 584374.000000 0 0 1
-29.263262 33.665184 -8.887839 45.482709 -0.855236 1.767473 0.038402 -0.018303 -438826.000000 0 0 1
-29.327332 -34.199830 -8.129839 45.780073 0.861948 1.749328 0.031623 -0.022241 113213.000000 0 0 1
-28.378502 -34.110330 -7.102439 44.936607 0.876868 1.729517 0.035381 -0.024513 -227327.000000 0 0 1
-28.504082 -32.706930 -6.458639 43.862740 0.853952 1.718580 0.031811 -0.025536 223199.000000 0 0 1
-29.550252 -32.525130 -5.516239 44.289168 0.833285 1.695671 0.028082 -0.024506 81406.100000 0 0 1
-29.291082 -33.070830 -4.278039 44.384107 0.845934 1.667333 0.025730 -0.019048 -763247.000000 0 0 1
-30.542072 -33.353030 -3.475939 45.357744 0.829363 1.647505 0.020280 -0.005505 -465025.000000 0 0 1
-31.303972 -32.096730 -3.260339 44.952960 0.797901 1.643388 -0.000807 0.002553 644291.000000 0 0 1
-31.802322 -31.895530 -1.919739 45.082124 0.786861 1.613392 0.018002 0.007493 70741.800000 0 0 1
-32.810062 -30.745030 -1.754739 44.998180 0.752918 1.609802 0.028810 0.016404 242909.000000 0 0 1
-33.434692 -30.606130 -0.471839 45.330304 0.741259 1.581205 0.016220 0.016790 23405.000000 0 0 1
-33.887152 -29.265430 -0.227539 44.775621 0.712345 1.575878 0.027385 0.006354 -164927.000000 0 0 1
-34.830399 -29.088730 0.985261 45.390326 0.695812 1.549088 0.023742 0.009663 -558199.000000 0 0 1
34.358443 -29.695330 0.717861 45.418395 -0.712726 1.554990 0.012828 0.022417 -617408.000000 0 0 1
33.423643 -29.534930 1.734461 44.636984 -0.723710 1.531930 0.009743 0.018255 160171.000000 0 0 1
32.528203 -28.247630 1.588461 43.110739 -0.715082 1.533942 0.013221 0.019917 7399.050000 0 0 1
31.502443 -28.336530 0.584561 42.375755 -0.732540 1.557001 0.005275 0.020000 683367.000000 0 0 1
30.745343 -27.122230 0.465561 41.001320 -0.722869 1.559441 0.010178 0.021046 604890.000000 0 0 1
29.544783 -27.319930 -0.541739 40.243835 -0.746293 1.584258 0.000489 0.019526 1117220.000000 0 0 1
28.409603 -27.938330 0.117761 39.845573 -0.777035 1.567841 0.004559 0.022871 679157.000000 0 0 1
28.191033 -29.332030 0.003461 40.682949 -0.805231 1.570711 0.013554 0.020730 -170567.000000 0 0 1
27.837943 -29.918430 -1.380539 40.889723 -0.821404 1.604565 0.007497 0.008475 200395.000000 0 0 1
26.447643 -29.776430 -1.653339 39.860346 -0.844535 1.612287 0.004330 0.016754 344451.000000 0 0 1
26.091733 -30.125430 -2.963539 39.963767 -0.857027 1.645020 -0.002990 0.015924 1479430.000000 0 0 1
24.510063 -30.330630 -3.020439 39.112829 -0.891138 1.648097 -0.011046 0.008982 1747530.000000 0 0 1
23.691463 -29.191830 -3.241139 37.735307 -0.889035 1.656794 0.002270 0.011398 498133.000000 0 0 1
22.320763 -29.594630 -3.281639 37.213274 -0.924602 1.659096 -0.000204 0.005748 558932.000000 0 0 1
21.371663 -28.391330 -3.487239 35.706812 -0.925536 1.668615 -0.003935 0.004036 -201940.000000 0 0 1
21.515263 -27.850330 -4.810939 35.520312 -0.913030 1.706656 -0.001819 0.007978 206132.000000 0 0 1
20.947963 -26.559530 -4.684639 34.149256 -0.902973 1.708412 0.003562 -0.001878 -357599.000000 0 0 1
20.451063 -25.960130 -6.034639 33.594512 -0.903547 1.751408 0.005540 -0.018843 181882.000000 0 0 1
19.247663 -26.560430 -6.488439 33.436938 -0.943702 1.766085 0.007962 -0.019003 -25890.100000 0 0 1
18.730363 -26.014430 -7.708939 32.969756 -0.946774 1.806800 0.019952 -0.021909 -306304.000000 0 0 1
17.230563 -26.273030 -7.835439 32.381454 -0.990336 1.815195 0.021120 -0.019007 -29715.500000 0 0 1
16.512663 -25.525430 -6.819639 31.156430 -0.996596 1.791467 0.013435 -0.015948 -363417.000000 0 0 1
15.130063 -25.713330 -6.869739 30.615151 -1.038940 1.797114 0.019566 -0.018643 -60875.600000 0 0 1
14.338463 -24.828230 -5.815339 29.254926 -1.047080 1.770911 0.007003 -0.007395 61359.600000 0 0 1
14.531163 -25.290330 -4.493239 29.511772 -1.049282 1.723643 -0.002499 -0.003971 204005.000000 0 0 1
13.969663 -24.396530 -3.558339 28.337324 -1.050761 1.696699 -0.004350 0.004422 -272662.000000 0 0 1
14.064663 -24.965230 -2.100839 28.731359 -1.057746 1.643982 0.003340 0.003074 -431538.000000 0 0 1
13.410963 -26.168130 -1.889639 29.465161 -1.097205 1.634972 0.010095 0.003662 -262094.000000 0 0 1
14.223763 -27.318830 -1.804839 30.852737 -1.090759 1.629328 0.018841 -0.002170 -703841.000000 0 0 1
13.519863 -28.631730 -2.072939 31.731053 -1.129636 1.636171 0.026766 -0.002892 -620250.000000 0 0 1
12.607563 -29.019430 -1.119739 31.659624 -1.160947 1.606172 0.036690 -0.012658 -446418.000000 0 0 1
11.852463 -30.200730 -1.378039 32.472511 -1.196810 1.613246 0.039962 -0.018744 -113532.000000 0 0 1
12.424463 -31.587930 -1.000539 33.958294 -1.196054 1.600264 0.032709 -0.016310 -135842.000000 0 0 1
13.605863 -31.843430 -1.755139 34.672815 -1.167001 1.621438 0.038608 -0.017824 -255251.000000 0 0 1
14.180763 -33.065530 -1.437539 36.006803 -1.165654 1.610731 0.038982 -0.016909 -190909.000000 0 0 1
15.650563 -33.045930 -1.913439 36.614681 -1.128491 1.623079 0.024466 -0.009094 -46307.900000 0 0 1
16.492163 -32.218930 -1.128739 36.212221 -1.097691 1.601971 0.022038 -0.000497 108788.000000 0 0 1
17.712563 -32.042230 -1.829039 36.657670 -1.065815 1.620712 0.006466 0.002381 -498893.000000 0 0 1
18.683763 -31.076630 -1.221139 36.281278 -1.029483 1.604460 0.003349 0.005305 -587894.000000 0 0 1
18.347563 -29.753730 -1.553339 34.990433 -1.018226 1.615204 -0.006663 -0.001209 278762.000000 0 0 1
18.756063 -28.837030 -0.547939 34.404425 -0.994129 1.586723 -0.003719 0.004143 -249883.000000 0 0 1
18.030663 -27.474030 -0.721039 32.870154 -0.990019 1.592734 -0.002217 0.009268 -281343.000000 0 0 1
18.389763 -26.614230 -1.790839 32.399194 -0.966153 1.626099 -0.001647 0.008494 448206.000000 0 0 1
17.784863 -26.922030 -3.088939 32.413556 -0.987001 1.666239 0.004562 0.007524 -278900.000000 0 0 1
31.337483 -29.225230 13.953161 45.064871 -0.750535 1.255999 0.007176 -0.005993 -192046.000000 0 0 1
32.231303 -29.643430 14.934061 46.266792 -0.743598 1.242130 0.027379 0.007790 -311235.000000 0 0 1
31.518353 -30.273930 15.931461 46.515899 -0.765262 1.221225 0.033951 0.012908 -252164.000000 0 0 1
32.370573 -31.009130 16.982061 47.935483 -0.763921 1.208664 0.024898 0.014325 -120496.000000 0 0 1
31.613933 -31.272330 18.165561 48.035268 -0.779966 1.182976 0.008393 0.012342 84682.200000 0 0 1
32.393133 -31.506530 19.283361 49.130688 -0.771524 1.167458 -0.002200 0.015982 -569433.000000 0 0 1
32.891413 -33.000730 19.449961 50.489546 -0.787057 1.175342 0.000630 0.010544 341286.000000 0 0 1
34.002693 -33.182230 18.548261 51.002760 -0.773187 1.198590 -0.000505 0.018820 788114.000000 0 0 1
34.627963 -34.461730 18.679261 52.303169 -0.782992 1.205598 0.013848 0.005174 -874595.000000 0 0 1
-34.663124 34.354984 17.754361 51.932787 -0.780934 1.221888 0.010339 0.004747 -1212620.000000 0 0 1
-33.528622 -33.983630 18.108861 51.058657 0.792138 1.208238 0.008584 0.002832 680350.000000 0 0 1
-32.512212 -33.916830 17.063561 49.985602 0.806540 1.222423 0.019619 -0.000828 621813.000000 0 0 1
-31.211432 -33.192730 17.490861 48.804109 0.816152 1.204255 0.008156 -0.010134 99567.600000 0 0 1
-30.093232 -33.265630 16.662361 47.852263 0.835427 1.215142 0.010393 -0.012046 -32233.300000 0 0 1
-30.220312 -32.241930 15.688161 46.892726 0.817752 1.229664 0.009298 -0.006398 -626395.000000 0 0 1
-29.114282 -32.214330 14.607261 45.812406 0.835903 1.246281 -0.002859 -0.011629 -887442.000000 0 0 1
-27.936412 -31.791330 15.179861 44.961761 0.849850 1.226412 -0.001173 -0.002185 -1133600.000000 0 0 1
-26.993122 -31.540130 14.142061 43.856657 0.862925 1.242468 0.009319 -0.004614 -287560.000000 0 0 1
-25.647152 -31.120630 14.739961 42.936424 0.881520 1.220371 0.025057 -0.009723 -536671.000000 0 0 1
-24.612322 -31.127930 13.806061 42.015732 0.901762 1.235983 0.027336 -0.007357 120022.000000 0 0 1
-23.432522 -30.574130 14.434661 41.136601 0.916871 1.212269 0.024550 -0.004156 964374.000000 0 0 1
-22.163922 -30.546130 13.529261 40.091725 0.943102 1.226581 0.028557 -0.002560 402150.000000 0 0 1
-21.770222 -31.902430 13.254061 40.833537 0.971980 1.240221 0.027226 -0.009279 80813.100000 0 0 1
-20.474122 -31.858030 12.684961 39.937852 0.999593 1.247581 0.017285 -0.008432 229346.000000 0 0 1
-19.896222 -33.191330 12.255161 40.592031 1.030788 1.264100 0.020992 -0.004709 -120909.000000 0 0 1
-20.412322 -33.563030 10.993861 40.792216 1.024385 1.297913 0.027085 -0.011271 92477.000000 0 0 1
-20.518422 34.101084 10.870761 41.256066 -1.029132 1.304153 0.023529 -0.013107 425175.000000 0 0 1
-21.658022 33.678984 9.868961 41.240032 -0.999307 1.329146 0.009969 -0.010442 174118.000000 0 0 1
-21.352622 33.846684 8.507361 40.913417 -1.007992 1.361332 -0.001338 -0.016423 112159.000000 0 0 1
-22.511422 33.531784 7.750161 41.124319 -0.979561 1.381206 0.006235 -0.013564 -285074.000000 0 0 1
-22.372222 33.757884 6.230561 40.974760 -0.985527 1.418146 0.002532 -0.014529 -1103130.000000 0 0 1
-21.652222 32.819484 5.409461 39.688783 -0.987607 1.434074 0.002575 -0.018680 977564.000000 0 0 1
-20.231522 32.795884 5.670561 38.949194 -1.018049 1.424688 -0.004168 -0.016565 460205.000000 0 0 1
-19.469422 34.075884 5.236061 39.593441 -1.051706 1.438162 -0.002136 -0.020947 -1625610.000000 0 0 1
-19.460922 -33.848830 6.081461 39.515250 1.049010 1.416281 -0.002637 -0.014546 188098.000000 0 0 1
-18.621122 -34.094630 7.218361 39.513222 1.070906 1.387082 0.002468 -0.018060 -320333.000000 0 0 1
-18.459622 -32.941930 8.200261 38.641593 1.060027 1.356957 0.003315 -0.011510 -720686.000000 0 0 1
-17.770622 -31.778230 7.721261 37.219199 1.060912 1.361825 0.000324 -0.012757 -80456.800000 0 0 1
-17.773422 -30.623430 8.586561 36.433749 1.044923 1.332882 0.010234 -0.014257 227773.000000 0 0 1
-17.193722 -30.809230 10.054361 36.686822 1.061778 1.293185 0.008775 -0.006017 237665.000000 0 0 1
-15.835022 -31.174130 9.988261 36.363989 1.100806 1.292545 0.005747 -0.011816 -333020.000000 0 0 1
-15.220822 -31.293530 11.271361 36.578710 1.118097 1.257559 0.006202 -0.004469 -529310.000000 0 0 1
-13.813122 -31.829930 11.193461 36.458749 1.161356 1.258739 0.010176 -0.004432 -1006550.000000 0 0 1
-12.866122 -30.967830 10.671561 35.191275 1.177028 1.262701 -0.011798 0.001540 -838714.000000 0 0 1
-11.889522 -31.617030 9.923661 35.206198 1.211107 1.285051 -0.017894 0.008682 -711250.000000 0 0 1
-10.771022 -30.683130 9.494761 33.876539 1.233195 1.286715 -0.021374 0.015278 -603659.000000 0 0 1
-10.058222 -30.236830 10.588861 33.579126 1.249663 1.249981 -0.022540 0.009760 -319455.000000 0 0 1
-9.063422 -29.288530 10.223661 32.318522 1.270690 1.248927 -0.015122 0.010222 407384.000000 0 0 1
-8.350822 -28.521130 11.357261 31.814752 1.285963 1.205762 -0.015192 0.017967 -77865.300000 0 0 1
-9.142822 -27.504530 11.918261 31.339038 1.249876 1.180675 -0.005906 0.002505 -127270.000000 0 0 1
-8.570922 -27.042830 13.110461 31.251553 1.263873 1.137887 -0.006411 0.007061 -533412.000000 0 0 1
-9.367322 -25.893030 13.726461 30.767051 1.223675 1.108347 -0.009191 -0.000704 -28976.200000 0 0 1
-9.199722 -24.617030 13.057361 29.344978 1.213154 1.109666 -0.000023 0.000009 -150803.000000 0 0 1
-9.726522 -24.478630 11.783361 28.855782 1.192579 1.150147 0.007399 0.003133 -348137.000000 0 0 1
-9.232322 -23.213730 11.037661 27.311957 1.192266 1.154766 0.004352 0.004296 701120.000000 0 0 1
-7.974822 -23.380930 10.367661 26.790933 1.242088 1.173438 0.004799 0.008210 450419.000000 0 0 1
-7.454922 -22.133930 9.922761 25.376129 1.245920 1.169049 0.006892 0.008798 828142.000000 0 0 1
-6.150622 -22.136430 9.043461 24.690805 1.299782 1.195801 0.013770 0.001879 1387760.000000 0 1 0
-4.952622 -22.527630 9.698461 25.021645 1.354392 1.172767 -0.001134 0.000789 679503.000000 0 0 1
-3.857322 -22.839230 8.815761 24.783604 1.403485 1.207123 0.001356 -0.000157 928059.000000 0 1 0
-2.645522 -23.562830 9.432861 25.518319 1.458989 1.192163 0.008991 -0.005237 150592.000000 0 0 1
-1.873522 -22.781730 10.340961 25.088898 1.488743 1.145959 0.012223 0.000130 -88984.500000 0 0 1
-1.021122 -23.710830 11.007861 26.161406 1.527757 1.136505 0.018429 -0.005316 373843.000000 0 0 1
-0.089922 -23.078030 12.054461 26.036774 1.566900 1.089444 0.018192 0.002248 -19018.300000 0 0 1
-0.926222 -22.622430 13.115461 26.165770 1.529877 1.045759 0.009303 -0.000594 656890.000000 0 0 1
-0.215022 -22.202630 14.315661 26.418576 1.561112 0.998126 0.011603 -0.001471 514623.000000 0 0 1
0.593478 -20.865230 14.335761 25.322403 -1.542361 0.968993 0.009926 -0.007395 324117.000000 0 0 1
1.778278 -20.781530 13.581561 24.889617 -1.485434 0.993606 0.024849 -0.009469 -182109.000000 0 1 0
2.330478 -19.487330 13.370761 23.747935 -1.451772 0.972751 0.019759 -0.009571 796581.000000 0 1 0
3.817678 -19.452230 12.894761 23.648230 -1.377000 0.994081 0.034290 -0.005643 641183.000000 0 1 0
4.023278 -19.930730 11.566961 23.392635 -1.371610 1.053571 0.029043 -0.007447 501319.000000 0 1 0
5.424078 -20.150730 11.304461 23.733170 -1.307853 1.074338 0.047984 -0.006585 927199.000000 0 1 0
5.666878 -20.903430 10.051461 23.876741 -1.306061 1.136279 0.042682 -0.013184 -351067.000000 0 1 0
5.569278 -20.171130 8.812261 22.705666 -1.301406 1.172218 0.037701 -0.017573 -254096.000000 0 1 0
5.996678 -20.942330 7.674661 23.096358 -1.291916 1.232067 0.036772 -0.019522 741307.000000 0 1 0
7.388578 -21.716030 7.642861 24.178304 -1.242846 1.249176 0.033771 -0.006011 876285.000000 0 1 0
8.501878 -21.072830 7.049061 23.791498 -1.187318 1.269996 0.041053 -0.006427 28058.100000 0 1 0
9.031878 -19.966730 7.774461 23.252685 -1.145993 1.229884 0.053598 0.000635 -206560.000000 0 1 0
9.797078 -20.146030 9.103561 24.180986 -1.118166 1.184807 0.054904 0.005035 223442.000000 0 1 0
8.896578 -20.328830 10.210061 24.426538 -1.158274 1.139564 0.057193 -0.005699 -74573.000000 0 1 0
9.494378 -19.902730 11.447561 24.845694 -1.125686 1.091960 0.064249 -0.003618 128785.000000 0 1 0
8.796378 -20.181930 12.807561 25.469986 -1.159768 1.043905 0.057876 -0.009914 -144642.000000 0 0 1
8.661078 -21.589330 13.015361 26.655451 -1.189278 1.060677 0.052942 -0.018379 -164971.000000 0 0 1
7.724478 -21.785730 14.042661 27.045922 -1.230060 1.024864 0.049720 -0.015996 100498.000000 0 0 1
7.891078 -23.170430 14.722661 28.563870 -1.242550 1.029288 0.048093 -0.019956 249429.000000 0 0 1
7.549078 -24.322530 13.908561 29.017617 -1.269850 1.070923 0.047454 -0.012796 -262533.000000 0 0 1
7.634278 -25.501030 14.698961 30.407963 -1.279916 1.066271 0.046795 -0.012149 252488.000000 0 0 1
7.569878 -26.747330 13.787761 31.029423 -1.294995 1.110354 0.033917 -0.013061 33133.500000 0 0 1
8.694078 -26.882930 12.963961 31.086061 -1.258008 1.140616 0.039363 -0.005628 -420954.000000 0 0 1
8.493478 -28.029530 12.199061 31.727130 -1.276572 1.176131 0.031313 -0.008559 -296437.000000 0 0 1
9.721878 -28.636830 11.521861 32.362574 -1.243516 1.206786 0.031136 -0.009217 104012.000000 0 0 1
10.642978 -29.268230 12.448861 33.539177 -1.222026 1.190524 0.029089 -0.012892 748634.000000 0 0 1
11.890878 -29.418730 11.763461 33.841301 -1.186680 1.215779 0.029781 -0.008879 168685.000000 0 0 1
12.887478 -30.319230 12.471961 35.226306 -1.168875 1.208896 0.021461 -0.010935 -1246170.000000 0 0 1
13.321878 -29.744130 13.680161 35.345898 -1.149705 1.173381 0.024939 -0.012446 742194.000000 0 0 1
14.407678 -30.445930 14.323861 36.602033 -1.128800 1.168708 0.028411 -0.012913 1055640.000000 0 0 1
15.787778 -30.422730 13.611761 36.879215 -1.092106 1.192766 0.029536 -0.008042 -713365.000000 0 0 1
16.455878 -29.177330 13.725461 36.200840 -1.057272 1.181921 0.022199 -0.015240 99445.400000 0 0 1
17.638078 -29.186030 12.944861 36.475959 -1.027197 1.208003 0.011472 -0.007347 -290188.000000 0 0 1
18.542978 -28.029130 13.393261 36.178082 -0.986337 1.191568 0.010593 -0.017965 -183658.000000 0 0 1
19.723978 -28.055030 12.616661 36.541759 -0.958029 1.218273 -0.004576 -0.013870 669320.000000 0 0 1
20.640378 -26.929530 12.840161 36.278017 -0.916844 1.209018 -0.007971 -0.017586 699473.000000 0 0 1
22.026978 -27.179530 12.208961 37.053655 -0.889731 1.235029 -0.002666 -0.013696 -234335.000000 0 0 1
22.760278 -28.104530 12.952761 38.414436 -0.890082 1.226871 0.012290 -0.021608 -61783.500000 0 0 1
23.893278 -28.587230 12.259461 39.222606 -0.874603 1.252908 0.006560 -0.023867 -132173.000000 0 0 1
25.046278 -29.153130 13.143761 40.619939 -0.861027 1.241287 0.017809 -0.016364 337074.000000 0 0 1
25.909278 -28.208830 13.795361 40.710450 -0.827864 1.225086 0.012894 -0.014279 606399.000000 0 0 1
27.110378 -28.091630 13.048961 41.162940 -0.803172 1.248224 0.011997 -0.015387 555346.000000 0 0 1
28.262078 -27.156130 13.635961 41.498673 -0.765444 1.235988 0.035350 -0.012173 503960.000000 0 0 1
28.025578 -25.780530 13.742261 40.483558 -0.743698 1.224461 0.039973 -0.016145 3201.430000 0 0 1
27.297878 -25.429330 14.920961 40.180344 -0.749975 1.190334 0.040246 -0.013032 -243650.000000 0 0 1
28.114978 -25.338030 16.270061 41.196876 -0.733494 1.164800 0.013782 -0.004736 49015.200000 0 0 1
28.451278 -26.591430 16.814161 42.418102 -0.751622 1.163214 0.014510 -0.001474 111794.000000 0 0 1
29.229978 -26.323630 17.987161 43.253475 -0.733130 1.141914 0.019348 0.016058 190156.000000 0 0 1
29.607878 -27.691930 18.653361 44.625299 -0.751973 1.139554 0.011824 0.024435 44018.700000 0 0 1
28.517578 -28.395330 19.223661 44.599284 -0.783250 1.125162 0.003589 0.022231 76384.200000 0 0 1
28.964878 -29.617330 19.854261 45.938460 -0.796535 1.123874 0.008338 0.015555 11771.400000 0 0 1
27.844078 -30.536830 20.370961 46.073492 -0.831489 1.112813 0.014690 0.021025 -1130920.000000 0 0 1
27.050478 -29.985530 21.437661 45.721261 -0.836812 1.082777 0.009598 0.026610 1087660.000000 0 0 1
25.897278 -30.752230 21.837361 45.751929 -0.870891 1.073218 0.003663 0.021402 1901040.000000 0 0 1
24.835578 -31.098730 20.674561 44.848349 -0.896907 1.091688 0.032195 0.010355 -293684.000000 0 0 1
25.293678 -32.173830 19.891661 45.503886 -0.904553 1.118378 0.028476 0.013843 70262.300000 0 0 1
24.559878 -32.380830 18.679661 44.728464 -0.921897 1.139968 0.037416 0.012244 -35552.300000 0 0 1
24.999178 -31.468730 17.454961 43.816841 -0.899471 1.161066 0.030196 0.015597 702624.000000 0 0 1
26.289878 -31.719330 16.882461 44.522927 -0.878723 1.181880 0.025028 0.006498 577100.000000 0 0 1
26.633778 -30.548230 16.165061 43.633263 -0.853748 1.191275 0.031097 -0.005146 300713.000000 0 0 1
27.825878 -30.837430 15.177161 44.221859 -0.836689 1.220469 0.038628 -0.006717 30366.800000 0 0 1
27.538278 -31.687630 14.095261 44.284749 -0.855344 1.246874 0.050856 0.004189 211636.000000 0 0 1
27.538878 -33.053130 14.488161 45.396101 -0.876154 1.245964 0.024676 -0.001538 -402375.000000 0 0 1
26.839778 -34.104430 13.620561 45.486322 -0.904040 1.266688 0.045934 -0.001688 -317069.000000 0 0 1
27.405978 -34.296230 12.360361 45.608086 -0.896607 1.296352 0.060657 -0.007068 46027.700000 0 0 1
26.709778 33.785984 11.632661 44.611924 0.901839 1.306995 0.057953 -0.010077 -580509.000000 0 0 1
27.254778 33.286684 10.291061 44.234965 0.884703 1.336000 0.059166 -0.012632 257117.000000 0 0 1
28.502678 32.617184 10.532161 44.578131 0.852615 1.332278 0.040339 -0.013637 784836.000000 0 0 1
28.838278 31.774184 9.411761 43.929788 0.833798 1.354877 0.040982 -0.020240 -457106.000000 0 0 1
30.273778 31.253884 9.473261 44.531444 0.801326 1.356426 0.015208 -0.015150 -443036.000000 0 0 1
30.503778 30.363284 10.606661 44.327313 0.783090 1.329172 0.000711 -0.005305 -34971.500000 0 0 1
31.883378 30.218384 10.836561 45.245238 0.758594 1.328938 0.010862 -0.003100 -80573.400000 0 0 1
32.232278 29.288084 12.057661 45.189587 0.737577 1.300700 -0.002181 0.011778 119595.000000 0 0 1
31.852678 27.887484 11.807561 43.951375 0.719121 1.298805 -0.004551 0.005033 326611.000000 0 0 1
32.044978 27.102884 12.948161 43.921541 0.702037 1.271548 -0.002690 -0.002256 -33169.000000 0 0 1
31.827078 25.584684 12.741561 42.777170 0.677093 1.268347 -0.010383 -0.003285 -309556.000000 0 0 1
32.865778 25.106584 11.945361 43.048711 0.652346 1.289621 -0.005708 -0.004285 -496089.000000 0 0 1
32.767778 23.743784 11.480661 42.063049 0.627051 1.294349 -0.000315 -0.008635 -1092260.000000 0 0 1
31.558778 23.316884 10.668461 40.662631 0.636320 1.305324 -0.000723 -0.011009 -336855.000000 0 0 1
30.468578 23.069584 11.533961 39.919571 0.648068 1.277687 -0.007531 -0.007903 -369792.000000 0 0 1
29.255278 22.966484 10.827361 38.737093 0.665551 1.287514 -0.008880 -0.004389 22302.400000 0 0 1
28.041978 22.538584 11.684561 37.826832 0.677020 1.256764 -0.015534 0.001303 59531.200000 0 0 1
27.833078 23.435484 12.759861 38.557959 0.699832 1.233511 -0.016027 0.004712 -82809.400000 0 0 1
26.960078 22.932784 13.753761 37.972678 0.704854 1.200168 0.016670 -0.006257 -251479.000000 0 0 1
23.494778 9.723184 26.279427 36.567105 0.392384 0.768919 0.006280 0.006615 -572605.000000 0 0 1
23.142578 8.447384 26.749097 36.365525 0.349988 0.744301 0.011701 0.006056 661839.000000 0 0 1
21.727878 8.235284 26.760467 35.440699 0.362290 0.715024 0.019432 0.000540 320150.000000 0 0 1
21.475978 6.772284 27.274367 35.369090 0.305472 0.690173 0.034443 -0.002140 -680024.000000 0 0 1
21.776078 6.594484 28.636947 36.575395 0.294053 0.671392 0.025942 0.001810 1512350.000000 0 0 1
23.169778 6.551484 29.057777 37.737447 0.275566 0.691958 0.025591 0.000806 1044570.000000 0 0 1
23.334078 6.309784 30.549087 38.955606 0.264095 0.669386 0.037823 -0.002301 -794645.000000 0 0 1
23.047078 7.475384 31.319787 39.597704 0.313646 0.658437 0.027599 0.003031 358368.000000 0 0 1
23.247778 7.166884 32.708547 40.763616 0.299038 0.639498 0.024906 0.001164 -923835.000000 0 0 1
22.919178 8.341384 33.667130 41.573345 0.349046 0.626943 0.020795 0.002447 222966.000000 0 0 1
23.988178 9.290684 33.697574 42.394291 0.369513 0.652018 0.018354 0.000370 220976.000000 0 0 1
23.962078 9.997784 -34.144900 42.895350 0.395274 2.491462 0.030084 0.000454 133430.000000 0 0 1
25.166278 10.964384 -34.044859 43.733416 0.410880 2.463010 0.018784 -0.000941 35639.200000 0 0 1
24.898878 12.224584 34.474663 44.248129 0.456397 0.677533 0.011366 -0.009841 210068.000000 0 0 1
25.219078 13.234184 -33.650219 44.084949 0.483266 2.439208 0.007471 -0.008901 -289926.000000 0 0 1
24.749378 14.587184 -34.212210 44.674299 0.532586 2.443103 0.006938 -0.008353 -1021060.000000 0 0 1
25.624878 15.060184 33.887739 45.075740 0.531339 0.720016 0.006693 -0.014588 -172271.000000 0 0 1
25.359078 16.412684 33.535767 45.134318 0.574412 0.733223 0.014152 -0.005495 -115944.000000 0 0 1
25.774278 17.552584 34.520129 46.519306 0.597868 0.734658 0.005719 -0.013308 -87951.100000 0 0 1
25.365078 17.430084 -33.196029 45.267774 0.602062 2.393997 0.001506 -0.019934 680895.000000 0 0 1
26.447078 16.954384 -32.380609 45.115440 0.570071 2.371330 0.003222 -0.018782 195569.000000 0 0 1
25.886078 16.741584 -30.976029 43.702220 0.574081 2.358589 0.004708 -0.011633 -67935.500000 0 0 1
24.909378 15.741884 -31.050479 42.806732 0.563593 2.382360 0.007316 -0.005026 37083.100000 0 0 1
24.042678 15.681684 -29.899919 41.448411 0.577951 2.376585 0.016775 -0.011663 260979.000000 0 0 1
23.125278 14.482584 -30.139269 40.655864 0.559509 2.405841 0.010539 -0.008301 -887181.000000 0 0 1
22.451078 14.391684 -31.351249 41.159109 0.570039 2.436742 0.012767 -0.007082 64213.000000 0 0 1
21.921078 13.108384 -31.652829 40.672656 0.538933 2.462644 0.008624 0.000808 43709.100000 0 0 1
21.006078 12.306884 -30.682769 39.168189 0.529967 2.470849 0.010864 0.004322 -198661.000000 0 0 1
19.692878 12.835284 -30.592549 38.580539 0.577621 2.486437 0.020208 -0.003297 32907.200000 0 0 1
18.933778 11.946084 -29.820139 37.288572 0.562860 2.497613 0.019273 0.000018 328259.000000 0 0 1
17.569278 12.484484 -29.263539 36.344141 0.617795 2.506774 0.023135 -0.004467 785319.000000 0 0 1
16.585178 12.678884 -30.277609 36.777110 0.652698 2.537950 0.005925 -0.003439 -334524.000000 0 0 1
15.450278 13.235784 -29.690799 35.992230 0.708353 2.540861 0.020945 -0.014874 -684518.000000 0 0 1
14.465478 13.671784 -30.811409 36.681203 0.757198 2.568039 0.016073 -0.015740 -31083.600000 0 0 1
13.833578 12.675884 -31.578469 36.732079 0.741755 2.605473 0.008921 -0.015012 -272547.000000 0 0 1
12.654778 12.081284 -31.096399 35.680343 0.762218 2.629105 0.011046 -0.015553 -162782.000000 0 0 1
11.851678 11.463584 -32.240349 36.212099 0.768754 2.668843 0.011072 -0.011907 -60721.100000 0 0 1
11.510278 12.329984 -33.275519 37.306503 0.819768 2.672435 0.016963 -0.016098 -45166.800000 0 0 1
10.338278 11.834584 -33.902559 37.367377 0.852780 2.707559 0.027360 -0.015600 252738.000000 0 0 1
9.735478 12.867484 34.193428 37.809287 0.923088 0.440905 0.034074 -0.011643 91115.100000 0 0 1
10.695178 13.132384 33.176644 37.249644 0.887329 0.472009 0.027096 -0.000661 472015.000000 0 0 1
10.121178 13.608584 31.962157 36.183024 0.931317 0.487841 0.029234 -0.011592 -1230270.000000 0 0 1
10.905078 13.396084 30.730717 35.252698 0.887547 0.512081 0.039143 -0.009267 -846060.000000 0 0 1
11.138678 12.081884 30.398607 34.556003 0.825995 0.495584 0.031418 -0.010565 -16579.000000 0 0 1
11.445878 11.916784 29.045687 33.416609 0.805552 0.517216 0.037794 -0.004701 -234159.000000 0 0 1
11.799878 10.483084 28.521267 32.597466 0.726373 0.505457 0.043498 -0.004943 603722.000000 0 0 1
10.815378 9.462084 28.815017 32.199513 0.718758 0.462612 0.025993 -0.007524 558022.000000 0 0 1
11.401378 8.268184 28.399997 31.700380 0.627434 0.460370 0.025727 -0.010401 131806.000000 0 0 1
10.518278 6.994184 28.490157 31.164753 0.586817 0.417319 0.005775 -0.006061 146053.000000 0 0 1
9.458378 6.860384 27.545837 29.921546 0.627520 0.401177 0.001363 -0.010500 61896.400000 0 0 1
8.715678 5.672984 27.887807 29.763661 0.577004 0.356927 0.003624 -0.016889 -527732.000000 0 0 1
9.329178 4.300284 27.449327 29.308557 0.431922 0.358103 0.005859 -0.008011 -424750.000000 0 0 1
10.482578 3.831184 28.076207 30.213172 0.350399 0.378364 -0.000329 -0.005101 -111015.000000 0 0 1
10.802978 2.544584 27.587407 29.736245 0.231328 0.382494 -0.008444 -0.004896 -107811.000000 0 0 1
11.361078 1.519084 28.619137 30.829153 0.132921 0.380944 -0.010449 -0.006364 229800.000000 0 0 1
10.314378 1.213784 29.521037 31.294588 0.117140 0.338279 -0.014377 0.002282 240049.000000 0 0 1
10.684078 0.182484 30.448217 32.268820 0.017078 0.337516 -0.014052 0.001086 439864.000000 0 0 1
9.544778 -0.083216 31.470107 32.885822 -0.008718 0.294489 0.003881 -0.000697 100250.000000 0 0 1
9.539878 1.051884 32.310907 33.706237 0.109818 0.288741 -0.002545 -0.001067 188713.000000 0 0 1
8.405978 1.231384 33.163927 34.234819 0.145454 0.250780 0.009012 -0.002924 85774.000000 0 0 1
8.548178 2.417584 34.133202 35.270264 0.275620 0.254611 0.016922 -0.006725 -117297.000000 0 0 1
8.479978 3.728784 33.554675 34.809913 0.414269 0.269365 0.008612 -0.011034 690912.000000 0 0 1
9.571678 4.093984 32.686087 34.303906 0.404171 0.308340 -0.004877 -0.003587 158845.000000 0 0 1
9.303778 5.359284 31.951907 33.707663 0.522610 0.324180 0.000527 -0.008458 -66116.200000 0 0 1
9.574978 6.485984 32.786237 34.766154 0.595389 0.339112 -0.000337 -0.006568 149203.000000 0 0 1
9.680078 7.659784 32.032467 34.328634 0.669410 0.367824 -0.002540 -0.006037 -74729.800000 0 0 1
9.986178 8.885484 32.892307 35.504639 0.727139 0.385999 0.030356 -0.016454 750946.000000 0 0 1
8.818878 9.387384 33.576693 35.962340 0.816614 0.366290 0.028259 -0.019718 546101.000000 0 0 1
8.403778 8.770884 -34.280959 36.369438 0.806770 2.801057 0.023384 -0.009628 585085.000000 0 0 1
7.004278 9.330284 -33.835699 35.790622 0.926845 2.809551 0.027072 -0.013459 887290.000000 0 0 1
6.370378 8.578384 -32.821449 34.516922 0.932043 2.826863 0.029307 -0.008243 485000.000000 0 0 1
5.038578 8.984684 -32.498269 34.091778 1.059702 2.834638 0.032645 -0.005550 817272.000000 0 0 1
4.482078 8.226684 -31.240429 32.614901 1.071937 2.850245 0.019820 0.001227 -176922.000000 0 0 1
4.977278 8.774084 -30.040779 31.689214 1.054790 2.817629 0.021707 -0.005584 56605.400000 0 0 1
4.659378 8.090384 -28.898439 30.369128 1.048274 2.829109 0.017103 -0.005524 -69525.100000 0 0 1
3.219078 8.162684 -28.333069 29.660659 1.195157 2.841269 0.015322 -0.003331 -175908.000000 0 0 1
2.311978 7.461484 -29.103909 30.133976 1.270323 2.879373 0.013404 0.000618 34868.300000 0 0 1
0.939778 7.824784 -28.937279 29.991275 1.451266 2.875693 0.024186 0.013059 946671.000000 0 0 1
0.042278 7.000884 -29.945399 30.752904 1.564757 2.911925 0.025494 0.007298 119388.000000 0 0 1
0.023878 7.667484 -31.195059 32.123552 1.567682 2.900578 0.028117 0.009395 223708.000000 0 0 1
-0.393422 6.872584 -32.287579 33.013254 -1.513614 2.931534 0.027364 0.001487 -543699.000000 0 0 1
-0.266522 7.706484 -33.605139 34.478491 -1.536226 2.916036 0.034586 -0.003663 -80991.000000 0 0 1
1.086478 8.022384 -33.841579 34.796430 1.436185 2.906784 0.027409 0.001702 490701.000000 0 0 1
1.969378 7.048384 -34.441598 35.210536 1.298336 2.932221 0.039317 -0.005240 84725.900000 0 0 1
1.716478 6.710884 33.088499 33.805783 1.320390 0.206365 0.034319 -0.016427 -615971.000000 0 0 1
0.509278 6.006084 32.876397 33.424390 1.486205 0.181329 0.035847 -0.018689 -221029.000000 0 0 1
0.214878 5.730684 31.524337 32.041703 1.533318 0.179946 0.051609 -0.016681 46191.500000 0 0 1
1.073878 4.678284 30.737687 31.110206 1.345160 0.154907 0.052259 -0.014934 -148356.000000 0 0 1
0.708178 4.443184 29.431117 29.773042 1.412741 0.151700 0.037359 -0.015855 830302.000000 0 0 1
1.726678 3.687684 28.697057 28.984504 1.132888 0.140952 0.028047 -0.005903 717458.000000 0 0 1
1.765378 3.945684 27.175477 27.517113 1.150090 0.157742 0.026105 -0.002416 -66501.200000 0 0 1
2.093778 5.252484 26.837877 27.427069 1.191475 0.207651 0.019431 -0.005835 -104377.000000 0 0 1
2.010778 5.465484 25.451627 26.109386 1.218261 0.224940 0.011183 0.000670 -482780.000000 0 0 1
2.587678 6.810384 24.932847 25.975455 1.207684 0.284287 0.009825 0.005851 -1169570.000000 0 0 1
3.938278 6.995284 25.035287 26.290865 1.058034 0.310297 0.004978 0.010335 -1500750.000000 0 0 1
4.617278 6.593984 23.869277 25.190122 0.959919 0.325269 0.009693 0.000986 86306.200000 0 0 1
6.176178 6.450684 23.981477 25.590383 0.807135 0.356487 0.008290 0.000547 649748.000000 0 0 1
6.598478 5.459884 24.897717 26.329575 0.691254 0.331307 0.005345 -0.000292 -163527.000000 0 0 1
6.314678 4.089284 24.586387 25.711628 0.574675 0.296941 0.001279 0.004896 -926237.000000 0 0 1
6.643078 3.469184 23.195477 24.376133 0.481269 0.312509 0.009785 0.003522 19532.200000 0 1 0
5.850578 3.907384 22.110377 23.202708 0.588830 0.308064 -0.001353 0.004469 -786354.000000 0 1 0
4.546678 3.415584 22.153677 22.871902 0.644285 0.251268 0.003405 0.002411 -924091.000000 0 1 0
3.729978 4.043584 21.022077 21.729956 0.825719 0.255948 0.005186 -0.005050 -122448.000000 0 1 0
3.366578 5.437684 21.101177 22.049079 1.016437 0.294286 0.002610 -0.011967 -480811.000000 0 1 0
2.147678 5.621284 20.472577 21.338644 1.205849 0.285882 -0.001530 -0.006441 -748045.000000 0 1 0
1.565778 7.080884 20.553977 21.795792 1.353171 0.339188 -0.002822 -0.000625 -136494.000000 0 1 0
2.258478 7.991084 19.746077 21.421150 1.295355 0.398091 -0.012066 -0.003683 -265777.000000 0 1 0
2.016778 9.399984 20.137777 22.314953 1.359449 0.445410 -0.000683 0.003003 92815.200000 0 1 0
3.059278 10.422184 19.656677 22.458095 1.285281 0.504823 0.008727 -0.004860 -1028620.000000 0 1 0
2.893078 10.751884 18.320777 21.438838 1.307946 0.546093 -0.010220 -0.000764 523168.000000 0 1 0
3.899778 11.647984 17.781877 21.612009 1.247724 0.604515 -0.009065 -0.003315 1022970.000000 0 1 0
5.381178 11.150184 17.876477 21.745162 1.121158 0.605724 -0.000232 -0.010965 -298748.000000 0 1 0
5.648878 9.914584 17.255477 20.687201 1.052913 0.584272 -0.001470 -0.007544 -418860.000000 0 1 0
6.951578 9.498184 17.544677 21.127130 0.938990 0.590911 -0.000868 -0.000301 -465529.000000 0 1 0
6.985278 7.998584 17.976177 20.878563 0.852922 0.533589 0.002812 -0.000764 -384475.000000 0 1 0
6.560678 7.898384 19.295577 21.857407 0.877652 0.489020 0.007637 -0.004401 -130976.000000 0 1 0
6.705678 6.640784 19.896177 22.020989 0.780536 0.442907 0.006397 -0.007139 921986.000000 0 1 0
8.181178 6.188284 20.250977 22.700850 0.647588 0.468869 0.019706 -0.005120 898042.000000 0 1 0
8.964178 5.979984 19.107677 21.936727 0.588301 0.513489 0.017232 -0.005784 281462.000000 0 1 0
10.218678 5.295884 19.321477 22.489714 0.478145 0.537239 0.026352 -0.008263 779658.000000 0 1 0
10.317878 3.773584 19.314077 22.220083 0.350621 0.517180 0.025822 -0.003880 -496343.000000 0 1 0
9.646678 3.176984 20.387377 22.777110 0.318147 0.462182 0.026575 -0.009704 175174.000000 0 1 0
9.900978 1.757784 20.255177 22.613964 0.175706 0.460808 0.024468 -0.015892 124510.000000 0 1 0
9.067978 0.921884 21.278477 23.148470 0.101316 0.404708 0.029009 -0.010625 -18458.000000 0 1 0
9.387578 1.020784 22.642777 24.532916 0.108312 0.395108 0.019958 -0.007496 333937.000000 0 1 0
8.652578 0.083484 23.457477 25.002546 0.009648 0.353394 0.020525 -0.004089 -136747.000000 0 0 1
8.853778 0.391784 24.964767 26.491177 0.044222 0.341120 0.011684 0.001186 148662.000000 0 0 1
10.057878 -0.057116 25.587537 27.493385 -0.005679 0.374530 0.019427 0.001462 582570.000000 0 0 1
10.179078 -1.495516 25.661277 27.646904 -0.145877 0.381307 0.018116 0.000075 -188067.000000 0 0 1
11.639478 -1.974916 25.505567 28.105367 -0.168073 0.433507 0.008227 -0.000416 -30723.100000 0 0 1
11.710278 -3.348116 25.286327 28.066685 -0.278483 0.448871 0.007109 0.002712 640377.000000 0 0 1
13.062478 -3.825516 25.298357 28.727509 -0.284896 0.493602 0.006612 0.000480 419677.000000 0 0 1
13.162478 -5.350216 25.478167 29.172120 -0.386076 0.508709 0.005928 -0.003609 -431249.000000 0 0 1
12.652678 -6.050016 24.386357 28.131608 -0.446024 0.521914 0.014819 -0.001476 165450.000000 0 0 1
12.776178 -7.440616 24.551237 28.659322 -0.527364 0.542040 0.022096 -0.001673 -143921.000000 0 0 1
12.347278 -8.220216 23.285277 27.608537 -0.587369 0.567200 0.026284 -0.002422 19220.800000 0 0 1
11.938078 -9.566816 23.443077 27.993205 -0.675576 0.578185 0.019901 0.003250 -561948.000000 0 0 1
12.058478 -10.207116 22.196577 27.244818 -0.702440 0.618571 0.021814 -0.004520 -109728.000000 0 0 1
11.468878 -11.633616 22.126877 27.504088 -0.792529 0.635973 0.021041 0.000851 811890.000000 0 0 1
10.041478 -11.591516 22.270177 27.039883 -0.856928 0.603059 0.006115 0.001825 128015.000000 0 0 1
9.548378 -12.850516 22.363777 27.503560 -0.931768 0.621299 0.006923 0.005785 685562.000000 0 0 1
7.989478 -12.893416 22.565377 27.189486 -1.016049 0.591814 -0.001674 0.010442 842527.000000 0 0 1
7.225078 -12.483716 21.470877 25.865875 -1.046141 0.591536 0.002971 -0.006642 -337387.000000 0 0 1
5.854078 -12.382416 21.793577 25.740133 -1.129166 0.561088 -0.005207 -0.002704 135277.000000 0 0 1
5.189578 -11.120416 21.156377 24.457875 -1.134165 0.525620 -0.008996 -0.006467 53566.400000 0 1 0
5.395378 -9.910216 21.889677 24.626823 -1.072243 0.475956 -0.008709 0.001974 -200055.000000 0 1 0
4.704078 -8.888416 21.228777 23.490280 -1.084034 0.442402 -0.008499 0.001274 40870.600000 0 1 0
4.985978 -7.512916 21.924177 23.705978 -0.984882 0.390188 -0.011150 0.001129 1839.740000 0 1 0
4.321378 -6.422316 21.351177 22.711081 -0.978512 0.347810 -0.025318 0.003449 -175577.000000 0 1 0
5.025278 -5.243616 21.614777 22.802357 -0.806657 0.324160 -0.000681 -0.003170 -250201.000000 0 1 0
-7.770422 -15.892716 -21.025039 27.477448 1.116044 2.442108 0.009486 0.003252 -94435.800000 0 0 1
-7.300722 -15.377316 -19.813539 26.121614 1.127534 2.431822 0.004195 0.000966 -206891.000000 0 0 1
-6.817222 -14.088316 -19.955239 25.360732 1.120118 2.476494 0.017002 -0.010477 24493.300000 0 0 1
-6.176122 -13.513516 -18.639539 23.836779 1.142109 2.468609 0.019274 -0.015083 81553.900000 0 1 0
-5.035822 -14.240116 -18.213539 23.661645 1.230886 2.449245 0.010477 -0.006455 -298311.000000 0 1 0
-4.394022 -13.573116 -17.178539 22.330229 1.257714 2.448534 0.012437 -0.008620 279284.000000 0 1 0
-3.387322 -14.543216 -16.465739 22.228353 1.341962 2.404988 0.010369 -0.003588 -461249.000000 0 1 0
-2.283222 -14.898716 -17.189339 22.861720 1.418730 2.421710 0.002167 -0.002949 -1532500.000000 0 1 0
-1.342022 -15.523216 -16.391039 22.614983 1.484558 2.381521 0.007433 0.000099 -259218.000000 0 1 0
0.006778 -15.778216 -17.118839 23.281040 -1.570367 2.396924 0.006119 0.002371 167086.000000 0 1 0
0.012478 -16.588816 -18.271839 24.678920 -1.570044 2.404435 0.009502 0.004279 -285701.000000 0 1 0
-0.249022 -17.956216 -18.006039 25.430399 1.556929 2.357532 0.008333 0.006429 -242198.000000 0 0 1
-0.622222 -18.646516 -19.343039 26.874391 1.537439 2.374249 0.006900 0.003397 973538.000000 0 0 1
-1.914522 -18.264516 -19.881339 27.065210 1.466356 2.395832 0.016957 0.005152 717958.000000 0 0 1
-2.162522 -18.484716 -21.260939 28.255774 1.454336 2.422564 0.014252 0.001499 -255464.000000 0 0 1
-3.381222 -17.638416 -21.626539 28.111450 1.381398 2.448563 0.010297 0.007512 -150056.000000 0 0 1
-3.099422 -16.287416 -21.760239 27.356797 1.382749 2.490502 0.007551 0.014992 -246881.000000 0 0 1
-3.365222 -15.576816 -20.604439 26.048126 1.358026 2.483261 0.012784 0.004726 -336872.000000 0 0 1
-2.543222 -14.289416 -20.455639 25.081638 1.394661 2.524497 0.014640 -0.004831 -521217.000000 0 0 1
-2.796822 -13.329216 -21.411939 25.376394 1.363970 2.575073 0.013512 -0.016572 -61972.600000 0 0 1
-1.941722 -12.201216 -21.325339 24.645691 1.412978 2.616498 0.006883 -0.009233 -32782.200000 0 1 0
-1.945122 -11.251116 -22.515439 25.245121 1.399606 2.672266 0.014214 -0.008892 476659.000000 0 0 1
-3.172122 -10.593116 -22.847339 25.382620 1.279843 2.690835 0.021020 -0.006688 458521.000000 0 0 1
-3.116822 -10.054816 -24.181939 26.373853 1.270206 2.731016 0.027012 -0.009978 408268.000000 0 0 1
-4.126522 -8.845616 -24.318339 26.204098 1.134302 2.759901 0.033958 -0.003857 975919.000000 0 0 1
-5.505122 -9.196816 -24.137939 26.410754 1.031414 2.723694 0.024917 -0.007608 468158.000000 0 0 1
-6.223522 -8.037516 -23.991239 26.055968 0.911918 2.740815 0.034025 -0.011731 -493640.000000 0 0 1
-7.745422 -8.255616 -23.702439 26.266945 0.817272 2.696028 0.010796 -0.014934 719740.000000 0 0 1
-8.612822 -8.587916 -24.765039 27.590581 0.783950 2.685069 0.007232 -0.009151 26521.600000 0 0 1
-8.734822 -7.610816 -25.780139 28.263709 0.716741 2.719244 0.000527 -0.011325 -502713.000000 0 0 1
-9.744822 -7.997816 -26.888229 29.696860 0.687251 2.703172 -0.003987 -0.013887 32044.700000 0 0 1
-10.166122 -6.996216 -27.746979 30.367613 0.602755 2.723101 -0.003235 -0.015728 -47639.300000 0 0 1
-10.784522 -7.480516 -28.928699 31.766865 0.606441 2.715666 0.012922 -0.014035 -205553.000000 0 0 1
-11.337122 -6.324216 -29.751369 32.460284 0.508837 2.730155 0.018610 -0.014976 313145.000000 0 0 1
-10.393422 -5.459016 -30.392279 32.580895 0.483633 2.772972 -0.020112 -0.002851 -52812.400000 0 0 1
-11.120422 -4.816016 -31.390479 33.648477 0.408693 2.773164 0.000589 -0.009528 -152092.000000 0 0 1
-10.376522 -3.702216 -32.151469 33.986697 0.342709 2.811467 -0.014814 -0.003382 629722.000000 0 0 1
-9.247722 -4.169016 -32.931619 34.458564 0.423532 2.842783 -0.018268 0.009804 704350.000000 0 0 1
-8.740422 -3.158816 -33.771029 35.026497 0.346797 2.873043 -0.012777 0.016173 -495898.000000 0 0 1
-7.710022 -3.646116 34.290896 35.335593 0.441738 0.243770 -0.011745 0.007471 -125686.000000 0 0 1
-6.455122 -4.002316 -34.208731 35.041753 0.555011 2.923111 -0.006902 0.005085 -309572.000000 0 0 1
-5.563322 -4.423116 33.857729 34.595669 0.671715 0.206914 -0.005497 0.005781 -203853.000000 0 0 1
-4.155022 -3.949216 34.286662 34.762562 0.760009 0.165658 0.002408 0.002617 -203702.000000 0 0 1
-3.935322 -2.536716 34.261322 34.579761 0.572571 0.135816 0.004461 0.000957 744268.000000 0 0 1
-2.567922 -2.121716 34.414946 34.575777 0.690537 0.096490 0.010402 -0.001096 980102.000000 0 0 1
-2.639222 -0.584516 -34.225805 34.332389 0.217955 3.062776 0.007797 -0.002441 19601.800000 0 0 1
-2.974522 -0.531816 -32.869639 33.008238 0.176921 3.049921 0.005578 -0.003628 287742.000000 0 0 1
-3.567822 0.689384 -32.423909 32.626898 -0.190870 3.029986 0.017933 -0.003415 -449357.000000 0 0 1
-4.142922 0.545384 -30.970569 31.251199 -0.130890 3.007479 0.023179 -0.007390 161346.000000 0 0 1
-5.197322 -0.373116 -30.870999 31.307666 0.071667 2.974379 0.015773 -0.006927 -594633.000000 0 0 1
-6.464722 0.160784 -31.117749 31.782587 -0.024866 2.936695 0.025275 -0.005080 -1038420.000000 0 0 1
-7.563022 -0.852216 -30.798149 31.724621 0.112209 2.899325 0.021455 -0.007146 -365145.000000 0 0 1
-7.642922 -1.315416 -29.448109 30.452187 0.170439 2.884085 0.009348 -0.005518 -48124.900000 0 0 1
-8.582122 -2.357716 -29.342729 30.662802 0.268110 2.847097 -0.004443 -0.001487 -189150.000000 0 0 1
-8.872222 -2.797116 -27.900159 29.410187 0.305403 2.819757 -0.008445 -0.006895 127274.000000 0 0 1
-9.804322 -1.983916 -27.190069 28.971719 0.199655 2.789067 0.002191 -0.006705 319770.000000 0 0 1
-9.898822 -2.437016 -25.855079 27.792280 0.241392 2.766018 0.002589 -0.005547 231187.000000 0 0 1
-10.953922 -1.605116 -25.063839 27.400016 0.145498 2.725656 0.004131 -0.005719 200096.000000 0 0 1
-10.529722 -0.364316 -24.567239 26.731199 0.034585 2.736453 0.014474 -0.007343 -455855.000000 0 0 1
-11.481022 0.263784 -23.779939 26.407744 -0.022972 2.691694 0.017902 -0.011106 -289165.000000 0 0 1
-10.923922 1.549684 -23.127939 25.624894 -0.140921 2.696469 0.017800 -0.013817 274936.000000 0 0 1
-10.583622 2.577784 -24.078339 26.427721 -0.238912 2.716745 0.008527 -0.015406 -384179.000000 0 0 1
-9.678122 3.479484 -23.547539 25.695514 -0.345131 2.729805 0.023833 -0.018454 -844527.000000 0 0 1
-9.684822 4.837884 -24.240539 26.548157 -0.463274 2.721566 0.022556 -0.028308 -474847.000000 0 0 1
-10.923322 5.439184 -24.491939 27.363457 -0.462000 2.679362 0.004534 -0.021665 -436610.000000 0 0 1
-11.644822 4.951484 -25.596429 28.553393 -0.402048 2.682468 -0.000410 -0.018351 -400727.000000 0 0 1
-13.028522 5.533284 -25.883959 29.501508 -0.401621 2.641165 -0.011203 -0.006471 -337631.000000 0 0 1
-12.992022 6.836084 -26.494829 30.290273 -0.484368 2.635608 -0.006472 -0.004198 101989.000000 0 0 1
-14.264622 7.325884 -26.878089 31.298238 -0.474445 2.603667 0.000363 -0.007080 -49456.700000 0 0 1
-14.382522 8.871284 -26.873259 31.744743 -0.552688 2.580252 0.004303 0.000938 -427950.000000 0 0 1
-14.170622 9.479384 -25.638269 30.789383 -0.589579 2.554759 0.013235 -0.006181 104580.000000 0 0 1
-14.148122 10.882084 -25.688129 31.280491 -0.655647 2.534340 0.009909 -0.002461 -150251.000000 0 0 1
-13.774822 11.567784 -24.358939 30.280642 -0.698529 2.505527 0.007998 -0.004188 -37980.800000 0 0 1
-14.740122 11.343184 -23.351339 29.853376 -0.655893 2.468987 0.018769 -0.000854 3517.650000 0 0 1
-14.373922 11.944684 -22.103839 28.945895 -0.693358 2.439707 0.014217 0.001781 -1460.220000 0 0 1
-15.398022 11.818384 -20.929839 28.545253 -0.654624 2.393836 0.027252 0.002144 -227330.000000 0 0 1
-16.584022 12.511584 -21.154139 29.649066 -0.646334 2.365255 0.021102 0.004328 -533845.000000 0 0 1
-16.923722 13.257184 -19.993539 29.358251 -0.664505 2.319950 0.021909 0.005030 -1045340.000000 0 0 1
-18.346422 13.732484 -19.976539 30.401224 -0.642547 2.287757 0.018475 0.002787 -1038670.000000 0 0 1
-18.641522 14.776684 -20.855439 31.635519 -0.670259 2.290606 0.004469 0.010010 -275061.000000 0 0 1
-20.007922 15.087384 -20.840339 32.592420 -0.646101 2.264544 -0.016034 0.013912 -237557.000000 0 0 1
-20.283122 16.318284 -21.759639 33.928945 -0.677494 2.267026 -0.025018 0.019566 -331587.000000 0 0 1
-20.140822 16.151984 -23.165539 34.686907 -0.675930 2.302108 -0.012313 0.016523 76489.600000 0 0 1
-20.567922 17.313284 -23.877439 35.957215 -0.699692 2.297021 -0.031933 0.025913 -34314.100000 0 0 1
-20.498722 17.110084 -25.382129 36.840264 -0.695539 2.330874 -0.035762 0.019283 327025.000000 0 0 1
-19.140822 17.199984 -25.781059 36.426275 -0.732042 2.357119 -0.025240 0.005589 268375.000000 0 0 1
-19.016022 16.792584 -27.116789 37.133815 -0.723385 2.389477 -0.026741 -0.000474 -187867.000000 0 0 1
-18.206922 17.698484 -28.053109 37.837882 -0.771239 2.405955 -0.046775 0.009193 -404244.000000 0 0 1
-18.903822 18.857084 -28.351499 38.945495 -0.784160 2.386166 -0.051827 -0.000692 353354.000000 0 0 1
-18.195222 19.978984 -27.824229 38.786771 -0.832091 2.370808 -0.061430 -0.006236 -1491270.000000 0 0 1
-18.845722 21.354384 -28.082129 39.997212 -0.847722 2.349142 -0.023013 0.000164 576105.000000 0 0 1
-19.905222 21.718284 -27.187399 40.088108 -0.828929 2.316095 -0.013382 0.003621 955190.000000 0 0 1
-21.096522 20.922084 -27.223929 40.298128 -0.781247 2.312525 0.008960 -0.007802 6987.170000 0 0 1
-22.184822 21.482884 -26.255019 40.534019 -0.769325 2.275395 0.013058 0.004825 179612.000000 0 0 1
-21.899522 21.069784 -24.922539 39.302135 -0.766091 2.257675 -0.019254 0.008491 173742.000000 0 0 1
-22.913222 21.516384 -24.047639 39.575996 -0.753969 2.223872 -0.014998 -0.001964 -302352.000000 0 0 1
-22.591222 21.113084 -22.646439 38.327364 -0.751590 2.202931 -0.012341 0.018431 -242543.000000 0 0 1
-21.551822 21.887584 -22.097039 37.839483 -0.793127 2.194404 -0.010961 0.013866 -598837.000000 0 0 1
-20.452922 21.152784 -21.676839 36.546513 -0.802218 2.205738 -0.018352 0.018438 -886254.000000 0 0 1
-20.534522 20.522984 -20.272339 35.409422 -0.785117 2.180363 -0.010027 0.009521 -960494.000000 0 0 1
-21.523522 19.515984 -20.185239 35.377670 -0.736520 2.177989 -0.001015 0.014891 153281.000000 0 0 1
-22.051522 19.431084 -18.880739 34.933064 -0.722312 2.141808 -0.000455 0.019030 404780.000000 0 0 1
-23.235622 20.400384 -18.550739 36.058282 -0.720515 2.111180 -0.005846 0.011828 -118245.000000 0 0 1
-24.470322 20.097984 -19.158839 37.010630 -0.687607 2.114907 -0.012385 0.016689 -303492.000000 0 0 1
-25.455372 20.948284 -18.660939 37.881885 -0.688574 2.085881 -0.011084 0.005603 -664387.000000 0 0 1
-26.872572 20.629484 -19.212239 38.946385 -0.654719 2.086675 -0.013054 0.015374 74690.800000 0 0 1
-27.476032 19.390484 -18.815539 38.535019 -0.614557 2.080904 -0.010641 0.017265 353640.000000 0 0 1
-27.796372 19.201984 -17.410239 38.006196 -0.604531 2.046641 -0.032747 0.018807 -944450.000000 0 0 1
-28.843552 18.117784 -17.172639 38.145827 -0.560854 2.037768 -0.038576 0.020819 -664587.000000 0 0 1
-28.436202 16.783184 -17.398339 37.322849 -0.533186 2.055739 -0.025628 0.018423 -39693.800000 0 0 1
-29.190352 15.783784 -16.714839 37.156296 -0.495690 2.037396 -0.030186 0.015649 -2755.080000 0 0 1
-28.314182 14.770384 -15.954039 35.698579 -0.480825 2.034104 -0.009866 0.012813 -305898.000000 0 0 1
-27.693922 15.256384 -14.778239 34.901389 -0.503528 2.008023 -0.018062 0.012395 78477.600000 0 0 1
-28.498112 15.420384 -13.588339 35.136499 -0.495986 1.967879 -0.044066 0.022180 294537.000000 0 0 1
-27.754972 16.091784 -12.389939 34.391781 -0.525419 1.939342 -0.036273 0.012923 -100048.000000 0 0 1
-27.348032 17.475684 -12.484839 34.773346 -0.568611 1.938030 -0.036852 0.022839 174614.000000 0 0 1
-28.379922 18.458984 -12.397939 36.053612 -0.576673 1.921837 -0.045052 0.022534 -295186.000000 0 0 1
-28.011062 19.938684 -12.667639 36.642050 -0.618611 1.923795 -0.014193 0.012518 376599.000000 0 0 1
-27.041092 20.443384 -11.731739 35.871804 -0.647338 1.903973 -0.042394 0.000139 747384.000000 0 0 1
-26.282872 21.518684 -12.305739 36.128581 -0.686060 1.918361 -0.037740 -0.000209 228734.000000 0 0 1
-25.474892 22.417984 -11.316939 35.771626 -0.721657 1.892693 -0.013359 0.004884 -50462.200000 0 0 1
-26.264522 23.332384 -10.558139 36.683778 -0.726348 1.862741 -0.017934 -0.003071 121953.000000 0 0 1
-25.612462 24.563984 -10.233639 36.933926 -0.764505 1.851550 0.002108 0.001915 -172420.000000 0 0 1
-26.285842 25.356784 -9.101239 37.639667 -0.767410 1.815016 0.026432 0.010882 35054.600000 0 0 1
-26.010432 24.721084 -7.839739 36.730588 -0.759988 1.785890 0.032196 0.002872 466276.000000 0 0 1
-26.864812 25.158784 -6.768639 37.423215 -0.752617 1.752665 0.045447 -0.004404 313549.000000 0 0 1
-26.602872 24.362684 -5.451639 36.482510 -0.741471 1.720790 0.051189 -0.011719 -136166.000000 0 0 1
-26.891982 23.032884 -5.640639 35.853999 -0.708253 1.728775 0.054203 -0.011350 9718.630000 0 0 1
-26.619142 22.289284 -4.467139 35.004946 -0.697098 1.698760 0.052801 -0.009077 12265.500000 0 0 1
-26.555572 20.713184 -4.648139 33.997641 -0.662422 1.707945 0.045992 -0.003732 450589.000000 0 0 1
-25.473022 20.241484 -5.474439 32.993363 -0.671455 1.737493 0.028902 -0.009620 429083.000000 0 0 1
-25.556272 20.568384 -6.890939 33.521135 -0.677677 1.777842 0.006652 -0.002543 -1224420.000000 0 0 1
-26.745232 20.106584 -7.717639 34.338668 -0.644641 1.797484 -0.001212 -0.008568 -554311.000000 0 0 1
-26.696532 18.682484 -7.684939 33.478326 -0.610598 1.802411 -0.017028 0.003451 408713.000000 0 0 1
-26.979282 18.087984 -8.974739 33.698706 -0.590610 1.840373 -0.029456 0.011565 -286601.000000 0 0 1
-26.367342 16.664684 -9.112739 32.496006 -0.563631 1.855035 -0.019708 0.014851 -279230.000000 0 0 1
-26.773452 15.789984 -8.087639 32.117771 -0.532858 1.825348 -0.031011 0.015731 46917.500000 0 0 1
-26.191882 14.544884 -8.346039 31.100236 -0.506919 1.842486 -0.013817 0.007942 -30229.000000 0 0 1
-26.796142 13.412684 -7.502439 30.890450 -0.464084 1.816122 0.012831 -0.003230 303446.000000 0 0 1
-28.106892 12.994984 -7.852339 31.945676 -0.433070 1.819144 -0.008452 0.000248 157918.000000 0 0 1
-28.691462 12.090784 -6.915939 31.893844 -0.398823 1.789375 -0.011360 -0.000578 510371.000000 0 0 1
-29.720612 11.226784 -7.710239 32.692556 -0.361174 1.808880 -0.009375 -0.000465 690054.000000 0 0 1
-28.961652 10.215784 -8.396639 31.837762 -0.339109 1.837686 0.001323 0.000764 796001.000000 0 0 1
-29.845062 9.141384 -8.711439 32.406509 -0.297222 1.842962 -0.006885 0.007139 -6595.500000 0 0 1
-29.149242 7.850784 -9.176639 31.551923 -0.263088 1.865904 0.022458 0.000029 -420093.000000 0 0 1
-28.657502 7.830384 -10.479539 31.502192 -0.266729 1.909920 0.015791 -0.016219 -172038.000000 0 0 1
-27.626792 6.904084 -10.611039 30.389146 -0.244890 1.927484 0.041703 -0.025679 -475458.000000 0 0 1
-26.868802 7.034384 -11.950839 30.236363 -0.256058 1.977133 0.045510 -0.036517 -178267.000000 0 0 1
-26.204272 8.264784 -12.246339 30.082276 -0.305523 1.990067 0.048193 -0.030210 550576.000000 0 0 1
-25.389492 8.019084 -13.388039 29.802208 -0.305927 2.036699 0.047543 -0.027252 -194305.000000 0 0 1
-30.944722 26.339784 -33.903939 52.922936 -0.705183 2.266113 0.025603 -0.005302 -346862.000000 0 0 1
-31.045552 27.708584 -34.209245 53.868956 -0.728664 2.258864 0.022280 -0.010304 239332.000000 0 0 1
-31.125772 28.014184 33.472861 53.610079 -0.732833 0.896464 0.027051 -0.011377 -27079.900000 0 0 1
-31.177312 29.498484 33.243352 54.289094 -0.757736 0.911780 0.039738 -0.008445 52110.600000 0 0 1
-31.418382 29.861584 31.893707 53.814844 -0.759999 0.936444 0.048703 -0.012642 185001.000000 0 0 1
-31.601192 31.270484 31.790897 54.654731 -0.780138 0.950019 0.046548 -0.014201 -159406.000000 0 0 1
-31.758122 31.674084 30.345617 54.154246 -0.784073 0.975982 0.058725 -0.013348 48527.200000 0 0 1
-30.534872 31.850584 29.638447 53.153322 -0.806485 0.979301 0.045170 -0.011297 268564.000000 0 0 1
-30.634372 32.542084 28.409047 52.957775 -0.815586 1.004575 0.059696 -0.005724 859647.000000 0 0 1
-29.210242 32.603084 27.730897 51.818934 -0.840232 1.006111 0.040327 -0.005937 689997.000000 0 0 1
-28.783562 31.389184 27.137027 50.499431 -0.828673 1.003477 0.041560 -0.010661 206502.000000 0 0 1
-27.460952 31.505084 26.634317 49.558662 -0.853875 1.003410 0.025960 -0.003302 135603.000000 0 0 1
-27.113002 32.165484 25.271567 49.075302 -0.870426 1.029841 0.032249 -0.015191 -632158.000000 0 0 1
-27.100692 33.589584 25.167387 49.961035 -0.891912 1.042873 0.024755 -0.007111 308798.000000 0 0 1
-28.180832 34.254284 24.521687 50.683610 -0.882369 1.065783 0.026402 -0.001589 -58247.800000 0 0 1
-28.379912 -33.438530 25.154567 50.559934 0.867046 1.050059 0.027867 -0.005664 -234182.000000 0 0 1
-28.920692 -33.585130 26.456017 51.616744 0.859884 1.032648 0.036947 -0.008848 368269.000000 0 0 1
-28.729742 -32.449030 27.269817 51.205278 0.846117 1.009176 0.030811 -0.009391 -342666.000000 0 0 1
-29.249292 -32.696130 28.677387 52.411359 0.840984 0.991829 0.038374 -0.016899 168705.000000 0 0 1
-30.666602 -32.738730 28.811437 53.313824 0.818067 0.999869 0.025145 -0.016297 262269.000000 0 0 1
-30.959172 -32.964430 30.168667 54.362418 0.816757 0.982488 0.022532 -0.013546 -334725.000000 0 0 1
-32.444982 -33.201630 30.437307 55.510852 0.796924 0.990451 0.022470 -0.018370 -238127.000000 0 0 1
-32.684532 -33.649430 31.774077 56.658227 0.799943 0.975442 0.019573 -0.019101 1413850.000000 0 0 1
-34.118671 -33.723530 32.029977 57.682576 0.779574 0.982097 0.009448 -0.021594 1391670.000000 0 0 1
-34.520453 -34.337430 33.390829 59.039548 0.782740 0.969676 0.006418 -0.013406 -520197.000000 0 0 1
-34.269220 33.333984 33.407297 58.323078 -0.771565 0.960882 0.001948 -0.003337 508415.000000 0 0 1
-35.116693 32.692284 34.408145 59.041409 -0.749660 0.948651 0.003783 -0.006267 422838.000000 0 0 1
-34.670901 31.315184 -34.193484 57.895652 -0.734587 2.202605 0.000229 0.000822 1240670.000000 0 0 1
-33.458872 31.345684 -33.373859 56.708575 -0.752801 2.200017 0.007599 0.000284 795598.000000 0 0 1
-33.263402 30.080084 -32.764379 55.540705 -0.735186 2.201752 0.004469 -0.007245 287319.000000 0 0 1
-32.714572 30.231284 -31.339009 54.463816 -0.745967 2.183901 0.009579 -0.010930 941344.000000 0 0 1
-33.771662 30.525084 -30.385589 54.731983 -0.734947 2.159364 -0.002963 -0.017429 551969.000000 0 0 1
-33.848142 31.813984 -29.860639 55.222134 -0.754429 2.142109 -0.006349 -0.007411 -39288.300000 0 0 1
-34.789176 31.846084 -28.658229 55.188350 -0.741260 2.116805 -0.011933 -0.004323 132818.000000 0 0 1
-34.216391 31.371884 -27.452879 53.931596 -0.742056 2.104856 -0.008742 -0.006484 -991325.000000 0 0 1
-35.211142 31.257984 -26.550649 54.053890 -0.725995 2.084250 -0.005895 -0.004265 -1256370.000000 0 0 1
-34.759093 31.173884 -25.112219 53.015367 -0.731075 2.064259 0.001284 -0.006489 -180311.000000 0 0 1
-34.246258 32.365084 -24.522439 53.119251 -0.757165 2.050649 0.006617 -0.006071 -104746.000000 0 0 1
-33.774522 32.311584 -23.209139 52.186406 -0.763265 2.031675 0.001785 -0.010365 -328215.000000 0 0 1
-34.731606 32.058184 -22.025039 52.145124 -0.745392 2.006865 -0.003956 -0.002441 -451093.000000 0 0 1
34.803278 33.088484 -21.683239 52.690405 0.760146 1.994919 -0.004221 -0.006543 -294427.000000 0 0 1
-35.116426 34.209384 -21.006539 53.335916 -0.772315 1.975617 0.002017 -0.010351 -371778.000000 0 0 1
-34.914604 34.041484 -19.457439 52.501849 -0.772737 1.950456 -0.002197 -0.000855 -383417.000000 0 0 1
-33.879672 33.157884 -19.178839 51.138100 -0.774632 1.955236 0.005353 -0.004617 -468038.000000 0 0 1
-33.776122 32.786784 -17.830139 50.336006 -0.770536 1.932879 0.016942 0.003058 -541541.000000 0 0 1
-32.565542 31.961884 -17.457739 48.855391 -0.776043 1.936209 0.012583 0.015934 -541945.000000 0 0 1
-32.566172 31.574484 -16.077039 48.124576 -0.769938 1.911416 0.033076 0.007255 -181184.000000 0 0 1
-31.389812 30.857784 -15.803039 46.768143 -0.776851 1.915483 0.030144 0.011513 -207131.000000 0 0 1
-31.100822 30.795184 -14.253939 46.030199 -0.780460 1.885637 0.030216 0.007442 -63023.700000 0 0 1
-32.111412 30.083784 -13.545039 46.039602 -0.752809 1.869419 0.032759 0.008196 359512.000000 0 0 1
-31.600122 29.537384 -12.373139 44.990214 -0.751672 1.849405 0.038391 0.003372 721712.000000 0 0 1
-32.686112 28.584384 -11.690339 44.967910 -0.718553 1.833788 0.031445 0.000842 551379.000000 0 0 1
-32.164592 28.014884 -10.538039 43.936829 -0.716552 1.813003 0.036543 0.002339 295392.000000 0 0 1
-32.981832 27.019984 -9.903539 43.771690 -0.686362 1.799027 0.031253 0.002873 -28105.500000 0 0 1
-32.194232 26.291584 -8.780439 42.483080 -0.684814 1.778978 0.023289 0.003372 250318.000000 0 0 1
-31.825612 26.896684 -7.565439 42.350172 -0.701658 1.750400 0.031461 -0.005853 -431352.000000 0 0 1
-30.703422 27.705584 -7.741439 42.074094 -0.734118 1.755846 0.034584 -0.009456 -881476.000000 0 0 1
-30.224412 28.336084 -6.429339 41.925948 -0.753164 1.724754 0.046026 -0.008572 -272410.000000 0 0 1
-29.481902 27.510884 -5.572039 40.707234 -0.750828 1.708108 0.057397 -0.012858 168539.000000 0 0 1
-29.442772 27.939184 -4.233039 40.809232 -0.759201 1.674711 0.048591 -0.016519 -290176.000000 0 0 1
-28.781642 26.872684 -3.359139 39.519715 -0.751111 1.655898 0.044797 -0.018424 -435092.000000 0 0 1
-29.548832 25.771884 -3.062139 39.328109 -0.717230 1.648737 0.042599 -0.014225 -443541.000000 0 0 1
-28.768392 24.964284 -2.234739 38.155339 -0.714719 1.629399 0.021651 -0.009974 -161.619000 0 0 1
-29.424832 23.653284 -1.736439 37.793039 -0.677087 1.616759 0.031041 -0.010035 -396918.000000 0 0 1
-29.495732 22.691284 -2.710939 37.312756 -0.655744 1.643515 0.020369 -0.006730 203764.000000 0 0 1
-30.606722 21.832884 -2.520839 37.680245 -0.619620 1.637747 0.026934 -0.004517 47979.100000 0 0 1
-30.905522 20.867884 -3.672139 37.471382 -0.593898 1.668952 0.014889 -0.005209 323858.000000 0 0 1
-29.905232 19.865484 -3.887139 36.111912 -0.586349 1.678647 0.018201 -0.011282 680564.000000 0 0 1
-30.224832 19.210984 -5.123639 36.178088 -0.566187 1.712897 0.015378 -0.012134 -172580.000000 0 0 1
-29.251852 18.066684 -5.395239 34.802076 -0.553279 1.726450 0.022877 -0.003382 -276995.000000 0 0 1
-29.300732 16.942384 -4.606139 34.158363 -0.524254 1.706055 0.009247 -0.011331 471649.000000 0 0 1
-28.373532 15.977084 -5.113539 32.961687 -0.512844 1.726561 -0.006231 -0.006071 187583.000000 0 0 1
-27.958192 14.845084 -4.111339 31.920842 -0.488119 1.699953 -0.011452 -0.005164 -112915.000000 0 0 1
-29.084982 14.022884 -3.889339 32.522368 -0.449254 1.690673 -0.003477 -0.003626 572448.000000 0 0 1
-28.762112 12.927984 -3.070439 31.683110 -0.422421 1.667860 -0.005250 -0.007769 -233696.000000 0 0 1
-30.024482 12.190584 -2.631839 32.511635 -0.385686 1.651836 0.002995 -0.014791 -559798.000000 0 0 1
-30.804782 11.631284 -3.653239 33.129557 -0.361031 1.681292 -0.002557 0.001779 793658.000000 0 0 1
-31.862052 10.799084 -3.137939 33.788419 -0.326781 1.663801 -0.008354 0.006940 688129.000000 0 0 1
-33.026392 10.533784 -4.137639 34.911649 -0.308751 1.689593 -0.000938 0.007466 251220.000000 0 0 1
-32.627622 9.692084 -5.200139 34.431667 -0.288750 1.722404 -0.006585 0.003419 719697.000000 0 0 1
-33.756792 9.310884 -5.976339 35.523657 -0.269131 1.739836 -0.000323 0.014423 386840.000000 0 0 1
-33.274192 8.480384 -7.195339 35.083638 -0.249551 1.777353 -0.001989 -0.000627 -214369.000000 0 0 1
-32.696712 7.285984 -6.814939 34.184850 -0.219253 1.771497 -0.020341 0.006205 304382.000000 0 0 1
-32.337262 6.410784 -7.874239 33.893957 -0.195710 1.805258 -0.002370 0.002629 -639239.000000 0 0 1
-31.579062 5.127084 -7.416939 32.841059 -0.160953 1.798605 0.005564 -0.000000 168478.000000 0 0 1
-30.258392 5.453684 -7.007439 31.534381 -0.178323 1.794883 0.012562 -0.004570 520024.000000 0 0 1
-29.516562 4.308084 -6.596539 30.549981 -0.144931 1.788437 0.008056 -0.003321 -54039.700000 0 0 1
-28.018652 4.539184 -6.303839 29.075547 -0.160610 1.789341 0.054660 -0.005835 85306.100000 0 0 1
-27.362572 5.005284 -7.491439 28.807723 -0.180924 1.833870 0.052349 -0.010703 60664.400000 0 0 1
-25.985242 4.738084 -7.330539 27.412024 -0.180356 1.841511 0.076305 -0.020804 -258121.000000 0 0 1
-25.056422 5.266584 -8.412039 26.950391 -0.207173 1.888231 0.076184 -0.021900 -253956.000000 0 0 1
-25.143902 4.466584 -9.581839 27.275957 -0.175807 1.929748 0.070485 -0.033977 396807.000000 0 0 1
-24.035422 4.715884 -10.415239 26.616128 -0.193744 1.972854 0.070385 -0.037621 -147426.000000 0 0 1
-24.216522 3.853384 -11.671139 27.157025 -0.157799 2.015029 0.074717 -0.047223 -21705.000000 0 0 1
-25.324872 4.331084 -12.394539 28.525989 -0.169382 2.020279 0.065422 -0.034501 118623.000000 0 0 1
-25.565252 3.469984 -13.520039 29.127553 -0.134906 2.053490 0.063185 -0.035605 724305.000000 0 0 1
-26.455472 4.231284 -14.605039 30.513979 -0.158597 2.069895 0.048269 -0.030465 424996.000000 0 0 1
-25.656482 5.208384 -15.259139 30.302206 -0.200283 2.098517 0.043515 -0.030150 228791.000000 0 0 1
-26.334422 6.065484 -16.109539 31.461232 -0.226377 2.108359 0.059146 -0.032230 114324.000000 0 0 1
-27.335542 5.589284 -17.238239 32.796781 -0.201689 2.124226 0.021134 -0.006990 1167750.000000 0 0 1
-28.606092 5.073084 -16.809739 33.565042 -0.175518 2.095332 0.011399 -0.019576 762385.000000 0 0 1
-29.156692 4.253584 -17.870839 34.461175 -0.144865 2.115984 0.015281 -0.004799 328824.000000 0 0 1
-30.564322 3.631584 -17.635939 35.473829 -0.118263 2.091111 -0.001307 -0.005110 172772.000000 0 0 1
-30.603762 2.591984 -16.701239 34.960550 -0.084493 2.068850 0.009496 -0.014162 266575.000000 0 0 1
-30.064752 1.355384 -17.179939 34.653668 -0.045052 2.089507 0.035093 -0.020778 -69722.000000 0 0 1
-30.236422 0.169984 -16.211139 34.308471 -0.005622 2.062934 0.039047 -0.016560 -209306.000000 0 0 1
-29.544962 -0.956316 -16.709539 33.956266 0.032357 2.085285 0.032130 -0.008993 364099.000000 0 0 1
-29.948322 -2.098716 -15.933939 33.988190 0.069964 2.058737 0.042037 -0.019864 77199.000000 0 0 1
-29.959112 -3.476816 -16.593839 34.423715 0.115535 2.073786 0.027359 -0.016637 -42557.800000 0 0 1
-31.002872 -3.645016 -17.527439 35.800494 0.117033 2.082412 0.019772 -0.017925 69153.400000 0 0 1
-30.723262 -4.739716 -18.436239 36.142477 0.153065 2.106096 0.006848 -0.008769 48759.900000 0 0 1
-31.905192 -4.975116 -19.385039 37.662618 0.154689 2.111457 0.006521 0.002456 -189062.000000 0 0 1
-31.718012 -6.173816 -20.108039 38.058922 0.192243 2.127440 0.008830 0.007051 710472.000000 0 0 1
-32.712042 -6.342516 -21.164739 39.474693 0.191513 2.136677 0.018772 0.016304 220585.000000 0 0 1
-32.451862 -7.649416 -22.033139 39.963685 0.231490 2.154753 0.013728 0.015068 446412.000000 0 0 1
-31.321622 -7.484216 -22.909539 39.520937 0.234549 2.189134 0.008952 0.008644 496525.000000 0 0 1
-31.212202 -8.448116 -23.943239 40.234947 0.264334 2.208169 0.008687 0.017457 -567561.000000 0 0 1
-29.890572 -8.328216 -24.683739 39.649621 0.271732 2.242789 0.002671 0.006002 -715170.000000 0 0 1
-29.788762 -7.085416 -25.319349 39.732140 0.233516 2.261722 0.014656 0.001367 -46.276700 0 0 1
-29.591662 -7.176316 -26.745689 40.527742 0.237918 2.291529 0.017618 0.003315 -439577.000000 0 0 1
-30.846512 -7.212316 -27.608079 42.020600 0.229687 2.287646 0.012861 0.006849 -258788.000000 0 0 1
-31.597092 -8.425916 -27.565679 42.769603 0.260603 2.271186 0.005444 -0.001280 -369839.000000 0 0 1
-32.718702 -8.365516 -28.399329 44.125018 0.250317 2.270003 0.026321 -0.001522 -248767.000000 0 0 1
-33.614572 -9.591516 -28.225329 44.928898 0.277952 2.250062 0.039354 0.000211 -937669.000000 0 0 1
-33.053012 -10.782016 -28.706879 45.087009 0.315320 2.261007 0.030238 0.000245 510795.000000 0 0 1
-33.937112 -11.892216 -28.436009 45.844945 0.337048 2.239877 0.009267 0.005693 921594.000000 0 0 1
35.077289 -11.957516 -29.107339 47.123621 -0.328537 2.236586 0.015565 -0.006165 674244.000000 0 0 1
34.180353 -11.073016 -28.392669 45.793579 -0.313290 2.239557 0.006748 0.001162 434306.000000 0 0 1
33.201623 -10.543116 -29.315619 45.529228 -0.307477 2.270362 0.018238 -0.007950 555804.000000 0 0 1
32.331593 -9.389816 -28.707099 44.244753 -0.282647 2.276836 0.008253 0.001698 -539123.000000 0 0 1
31.305563 -9.753916 -27.888679 43.045971 -0.302039 2.275596 -0.019799 0.008115 -798189.000000 0 0 1
30.571433 -8.640016 -27.402429 41.954208 -0.275434 2.282534 -0.030716 0.014221 120711.000000 0 0 1
29.490693 -9.090016 -26.406099 40.615409 -0.298993 2.278578 -0.043432 0.014051 -556682.000000 0 0 1
29.979613 -9.479716 -25.188609 40.287818 -0.306257 2.246205 -0.052130 0.024846 -181438.000000 0 0 1
28.965763 -10.012416 -24.362339 39.150830 -0.332807 2.242434 -0.056928 0.020211 -225301.000000 0 0 1
29.361353 -10.168816 -22.915239 38.608316 -0.333405 2.206236 -0.062901 0.021771 -303973.000000 0 0 1
30.237793 -11.228816 -22.644939 39.410706 -0.355567 2.182898 -0.073700 0.026759 -3439.390000 0 0 1
30.520593 -11.124616 -21.273039 38.830476 -0.349530 2.150581 -0.050878 0.022246 -81547.800000 0 0 1
31.472833 -12.225516 -20.760839 39.636031 -0.370507 2.122087 -0.017002 0.018078 203533.000000 0 0 1
32.794083 -12.154916 -21.275439 40.937003 -0.354946 2.117310 -0.015149 0.021883 185684.000000 0 0 1
33.569313 -13.178116 -20.685739 41.574768 -0.374080 2.091574 -0.002103 0.021887 434413.000000 0 0 1
34.909455 -13.450616 -21.481839 43.139988 -0.367770 2.092037 0.004828 0.017262 167210.000000 0 0 1
-34.588112 -12.408116 -21.325039 42.485952 0.344439 2.096627 0.000271 0.019765 1567.370000 0 0 1
-34.702693 -11.278316 -22.201839 42.712984 0.314230 2.117403 -0.008196 0.028093 -706569.000000 0 0 1
-34.284111 -11.445016 -23.687339 43.214335 0.322196 2.150930 -0.001685 0.028118 159535.000000 0 0 1
-35.125377 -12.261516 -24.481239 44.536142 0.335854 2.152794 0.000815 0.031238 -602178.000000 0 0 1
34.083693 -11.757516 -24.888439 43.810635 -0.332178 2.174981 -0.001086 0.033216 -981262.000000 0 0 1
33.321373 -12.907016 -25.586569 43.949716 -0.369553 2.192202 -0.007410 0.018724 -116568.000000 0 0 1
32.844143 -14.069216 -24.917739 43.561156 -0.404716 2.179760 0.005687 0.014945 416242.000000 0 0 1
31.904673 -13.916216 -23.882639 42.213146 -0.411303 2.172155 -0.019046 0.021383 -472326.000000 0 0 1
-29.543022 8.179484 -19.826339 36.507230 -0.270101 2.144897 -0.015311 0.009136 -196850.000000 0 0 1
-28.266572 7.608484 -19.953339 35.426316 -0.262937 2.169092 -0.014802 0.005064 296781.000000 0 0 1
-27.261362 8.464184 -20.497839 35.142363 -0.301046 2.193557 0.001455 -0.003682 680572.000000 0 0 1
-25.909182 7.799384 -20.813639 34.136838 -0.292399 2.226494 0.012275 -0.001981 33528.200000 0 0 1
-25.160322 7.255984 -19.761739 32.805753 -0.280772 2.217284 0.025548 -0.008878 533760.000000 0 0 1
-24.018022 6.508684 -20.193239 32.046767 -0.264636 2.252501 0.056611 -0.019647 879057.000000 0 0 1
-22.664722 6.955584 -19.551939 30.730247 -0.297766 2.260416 0.042220 -0.014767 545189.000000 0 0 1
-22.116122 8.141884 -20.150439 31.007311 -0.352745 2.278198 0.039178 -0.007902 408604.000000 0 0 1
-20.768822 8.295684 -19.688539 29.795988 -0.380015 2.292651 0.032426 -0.004903 338358.000000 0 0 1
-20.134522 9.505484 -20.380339 30.184622 -0.441079 2.312018 0.023011 -0.001175 -641745.000000 0 0 1
-19.912822 9.354984 -21.736339 30.927409 -0.439195 2.350147 0.024874 -0.012736 170172.000000 0 0 1
-19.261122 10.539084 -22.265339 31.269929 -0.500667 2.363191 0.011928 -0.008512 837198.000000 0 0 1
-18.152122 10.213084 -23.344139 31.285068 -0.512495 2.413095 0.033986 -0.005181 684778.000000 0 0 1
-18.651822 9.393084 -24.412639 32.126273 -0.466525 2.433950 0.034390 -0.011699 829246.000000 0 0 1
-17.531622 8.702384 -25.025039 31.770141 -0.460749 2.477848 0.023137 -0.010239 549226.000000 0 0 1
-17.960022 7.703384 -26.067769 32.579643 -0.405185 2.498299 0.015548 -0.003284 -574177.000000 0 0 1
-18.435722 6.451084 -25.597039 32.197838 -0.336606 2.489792 0.028391 -0.002688 325567.000000 0 0 1
-18.949522 5.689984 -26.699419 33.231300 -0.291705 2.503850 0.028809 -0.010153 -422074.000000 0 0 1
-19.265122 4.264284 -26.146889 32.756509 -0.217835 2.495130 0.028726 0.006637 317070.000000 0 0 1
-18.212322 3.324384 -25.931699 31.862097 -0.180547 2.521583 0.025398 0.004842 256634.000000 0 0 1
-17.177222 3.624484 -25.007039 30.553983 -0.207955 2.529512 0.019916 -0.001262 -288011.000000 0 0 1
-16.481822 2.279384 -24.700839 29.782168 -0.137425 2.548800 0.022872 -0.000358 -53262.400000 0 0 1
-17.120222 1.515484 -23.691839 29.269471 -0.088290 2.513992 0.010940 -0.005185 111207.000000 0 0 1
-18.468222 1.137584 -23.893039 30.219971 -0.061519 2.482646 0.016361 -0.001035 -318622.000000 0 0 1
-18.937322 0.338384 -22.662439 29.535112 -0.017867 2.445424 0.026079 -0.003199 -245891.000000 0 0 1
-18.418822 -0.960716 -22.559639 29.139549 0.052112 2.456236 0.026393 0.000176 169711.000000 0 0 1
-18.975022 -1.570616 -21.404939 28.647683 0.082585 2.414603 0.024173 -0.001581 -162633.000000 0 0 1
-18.243322 -2.854416 -20.973839 27.944023 0.155205 2.419715 0.020785 -0.012499 -124470.000000 0 0 1
-18.525122 -3.899716 -21.895739 28.944971 0.207480 2.428681 0.032975 -0.018092 349661.000000 0 0 1
-18.401622 -5.147616 -21.223439 28.557872 0.272765 2.408596 0.036354 -0.019089 -245578.000000 0 0 1
-18.526422 -6.358116 -22.144939 29.564375 0.330597 2.417410 0.014973 -0.015586 -1229190.000000 0 0 1
-17.399422 -6.605616 -22.860739 29.478593 0.362837 2.458308 0.007717 -0.007251 -1211330.000000 0 0 1
-17.609722 -7.511516 -23.948839 30.660595 0.403187 2.467214 0.023985 -0.019339 -381688.000000 0 0 1
-16.336822 -7.733316 -24.739139 30.638553 0.442115 2.510615 0.024079 -0.017307 -899733.000000 0 0 1
-16.516022 -8.694916 -25.789329 31.835045 0.484586 2.515106 0.023724 -0.028109 -253267.000000 0 0 1
-15.362022 -8.821716 -26.573779 31.937128 0.521274 2.553617 0.024034 -0.032449 -370245.000000 0 0 1
-14.199322 -9.644816 -26.032949 31.182650 0.596660 2.558663 0.024114 -0.036941 -1049950.000000 0 0 1
-13.535122 -9.070616 -24.961039 29.808205 0.590413 2.563284 0.018386 -0.014546 -555486.000000 0 0 1
-12.655722 -9.985216 -24.392639 29.238206 0.667990 2.557609 -0.004962 -0.011431 -268939.000000 0 0 1
-11.873522 -9.366516 -23.205839 27.698793 0.667910 2.564024 0.022972 -0.007228 87389.300000 0 0 1
-12.651322 -9.109916 -22.069339 27.020405 0.624073 2.526579 0.020725 -0.001899 158510.000000 0 0 1
-11.826322 -8.437916 -21.150039 25.659004 0.619720 2.539714 0.022535 -0.001978 -248313.000000 0 0 1
-12.493722 -8.240616 -19.780439 24.804569 0.583081 2.493856 0.008509 0.006525 195811.000000 0 1 0
-13.131222 -6.983416 -19.524239 24.543696 0.488777 2.490610 -0.001234 0.010647 1081160.000000 0 1 0
-14.527722 -6.849616 -19.825439 25.515094 0.440577 2.460696 0.000366 0.001062 696938.000000 0 0 1
-15.130322 -5.455116 -19.459939 25.246271 0.346035 2.450899 -0.006291 -0.001486 -330392.000000 0 0 1
-15.282122 -5.343416 -18.067239 24.259441 0.336364 2.410958 -0.011537 0.005717 297150.000000 0 1 0
-15.288522 -3.955816 -17.832339 23.819734 0.253191 2.416800 -0.003969 0.001066 -394616.000000 0 1 0
-14.947722 -3.644216 -16.360139 22.458158 0.239132 2.386885 0.006939 -0.005499 -334103.000000 0 1 0
-16.014122 -3.662116 -15.460039 22.558280 0.224815 2.325864 0.008923 -0.012095 -48185.800000 0 1 0
-16.744922 -2.407116 -15.509839 22.950855 0.142774 2.312825 -0.010982 -0.011204 351448.000000 0 1 0
-17.965622 -2.308616 -14.550439 23.233781 0.127802 2.247546 0.000314 -0.013636 97295.900000 0 1 0
-17.565922 -2.450416 -13.203739 22.111194 0.138604 2.210742 0.005778 -0.031269 427995.000000 0 1 0
-18.469222 -1.773716 -12.368039 22.298579 0.095743 2.158746 0.002650 -0.031012 -512327.000000 0 1 0
-17.901722 -0.528916 -11.769139 21.430447 0.029537 2.152177 0.001514 -0.024815 -353611.000000 0 1 0
-17.537222 0.336784 -12.807339 21.718552 -0.019202 2.201478 0.015289 -0.027224 330936.000000 0 1 0
-16.499422 1.172884 -12.351939 20.644055 -0.070967 2.212210 0.011659 -0.018428 -817295.000000 0 1 0
-16.049122 2.254784 -13.400639 21.029396 -0.139579 2.261700 0.019938 -0.015364 88860.400000 0 1 0
-15.357222 1.738584 -14.509639 21.198976 -0.112730 2.324645 0.015128 -0.019392 37012.300000 0 1 0
-14.093522 1.169784 -14.293439 20.107167 -0.082812 2.361521 0.016097 -0.019325 -1085950.000000 0 1 0
-13.616922 0.225684 -15.379739 20.542830 -0.016572 2.416845 0.013112 -0.014265 -199514.000000 0 1 0
-13.295422 0.882084 -16.590639 21.278995 -0.066248 2.464938 0.011896 -0.015333 257432.000000 0 1 0
-12.827022 0.012084 -17.599439 21.777808 -0.000942 2.511778 0.000211 -0.004727 -224361.000000 0 1 0
-12.312722 0.772684 -18.804639 22.490323 -0.062673 2.560970 0.012612 -0.007902 272475.000000 0 1 0
-11.046522 1.393984 -18.573839 21.655400 -0.125529 2.601576 0.003595 -0.005026 168097.000000 0 1 0
-10.740222 2.202484 -19.677739 22.525912 -0.202265 2.633266 0.006453 -0.003701 -446595.000000 0 1 0
-9.385222 2.875484 -19.543839 21.870356 -0.297304 2.676149 0.011496 -0.003468 -813018.000000 0 1 0
-8.325522 1.922684 -19.665839 21.441928 -0.226960 2.731710 0.017149 0.001351 654385.000000 0 1 0
-7.008522 2.464284 -19.493039 20.860744 -0.338111 2.777470 0.013635 0.006688 1079940.000000 0 1 0
-6.497622 3.598084 -20.460539 21.766924 -0.505721 2.793377 0.014589 0.008185 -873687.000000 0 1 0
-6.210722 3.173284 -21.752539 22.843287 -0.472358 2.831322 0.007433 0.012367 118556.000000 0 1 0
-5.750322 4.300484 -22.460939 23.580801 -0.642135 2.832170 0.011126 -0.004684 -418818.000000 0 1 0
-5.155022 3.816484 -23.802139 24.651200 -0.637292 2.878372 0.021377 -0.007845 -531302.000000 0 1 0
-3.983622 3.075284 -23.704439 24.232768 -0.657422 2.932394 0.037449 -0.013067 -828182.000000 0 1 0
-3.639822 2.412684 -24.884239 25.264495 -0.585361 2.967875 0.038081 -0.011837 181239.000000 0 0 1
-2.248922 1.694484 -24.916239 25.074846 -0.645715 3.029058 0.026131 -0.012148 -97109.600000 0 0 1
-1.227322 2.641984 -24.631239 24.802910 -1.135912 3.023869 0.021145 -0.016692 729507.000000 0 1 0
0.097978 2.087484 -24.734339 24.822464 1.523895 3.057304 0.012361 -0.015102 865872.000000 0 1 0
0.554478 1.154284 -23.579239 23.613986 1.122979 3.087337 0.013275 -0.023769 -1135860.000000 0 1 0
-0.039822 -0.102716 -23.533139 23.533397 1.200947 3.136911 0.012569 -0.027898 -10096.100000 0 1 0
0.719078 -1.014616 -22.710439 22.744462 -0.954243 3.086889 0.017139 -0.019566 -190309.000000 0 1 0
0.154378 -2.467616 -22.803239 22.936885 -1.508316 3.033590 0.025068 -0.026482 -6974.680000 0 1 0
-1.057822 -2.844416 -22.168939 22.375691 1.214751 3.005546 0.019747 -0.017095 376554.000000 0 1 0
-2.239322 -2.634516 -22.950339 23.209337 0.866306 2.992060 0.028148 -0.018327 357453.000000 0 1 0
-2.895622 -1.231316 -22.848739 23.064381 0.402069 3.004741 0.022148 -0.016219 -2049200.000000 0 1 0
-3.536022 -1.038916 -21.630239 21.941970 0.285768 2.972828 0.016015 -0.007709 93709.200000 0 1 0
-4.349422 0.137784 -21.595339 22.029415 -0.031668 2.942749 0.010833 -0.006132 404857.000000 0 1 0
-5.600822 0.128484 -22.509439 23.196133 -0.022936 2.897662 0.010261 0.005390 -620612.000000 0 1 0
-6.411522 -1.032016 -22.256439 23.184516 0.159594 2.857691 0.015845 0.015624 -61484.700000 0 1 0
-7.737922 -0.692616 -21.918239 23.254341 0.089271 2.800961 0.006398 0.004301 -207295.000000 0 1 0
-8.472222 -1.961616 -21.512739 23.203975 0.227526 2.757435 0.008818 0.005538 -316315.000000 0 1 0
-8.557822 -2.955716 -22.462039 24.218088 0.332555 2.758439 0.025358 -0.000345 -193586.000000 0 1 0
-8.878422 -4.239016 -21.976739 24.078470 0.445447 2.720672 0.004539 -0.002536 -591762.000000 0 1 0
-9.699122 -5.107916 -22.996739 25.475749 0.484729 2.696780 0.003994 -0.004982 570702.000000 0 0 1
-11.096022 -4.836316 -22.916239 25.916514 0.411033 2.655646 0.002436 -0.004288 239703.000000 0 0 1
-11.787722 -5.555216 -23.925439 27.244035 0.440402 2.642861 -0.005383 -0.013386 -622444.000000 0 0 1
-13.293222 -5.419516 -23.784939 27.781365 0.387118 2.598563 0.034734 -0.013230 -702031.000000 0 0 1
-13.730422 -4.126216 -24.183539 28.113942 0.291930 2.606453 0.023930 -0.017403 1125890.000000 0 0 1
-15.179822 -4.060616 -24.124039 28.790361 0.261381 2.564259 0.019549 -0.012614 1487840.000000 0 0 1
-15.691122 -2.656316 -24.542739 29.250870 0.167698 2.566318 0.022663 -0.010729 -12057.200000 0 0 1
-15.546922 -2.465416 -25.957019 30.357074 0.157269 2.596457 0.022986 -0.018082 177673.000000 0 0 1
-16.012022 -1.144416 -26.335869 30.842707 0.071351 2.594185 0.014870 -0.009840 1514680.000000 0 0 1
-17.484922 -1.153316 -26.969549 32.162233 0.065865 2.565407 0.023202 -0.001160 846204.000000 0 0 1
-17.664422 -1.816516 -28.181709 33.309763 0.102475 2.579327 0.036702 -0.016646 98487.300000 0 0 1
-17.009522 -1.150816 -29.275609 33.877862 0.067554 2.614258 0.022926 -0.009209 71187.500000 0 0 1
-17.057222 -1.962116 -30.586229 35.075863 0.114528 2.630074 0.015980 -0.005952 -276115.000000 0 0 1
-18.316322 -1.899716 -31.179399 36.211207 0.103348 2.608113 0.009252 -0.007862 -316092.000000 0 0 1
-18.264022 -2.562316 -32.411769 37.291591 0.139383 2.624266 0.006746 -0.007351 23941.500000 0 0 1
-19.643322 -3.177516 -32.807119 38.370090 0.160371 2.596382 -0.020823 -0.002483 1244630.000000 0 0 1
-20.729322 -2.248616 -33.040439 39.069575 0.108053 2.578638 -0.011517 -0.014230 938617.000000 0 0 1
-21.395822 -1.704116 -31.944509 38.485541 0.079479 2.549974 -0.007965 -0.002581 -360208.000000 0 0 1
-22.444222 -0.592216 -32.209299 39.262358 0.026380 2.532838 -0.011266 0.002384 227011.000000 0 0 1
-21.875722 0.571184 -32.710769 39.355659 -0.026104 2.551983 -0.008420 -0.002801 109777.000000 0 0 1
-22.954222 1.366184 -33.130159 40.328281 -0.059448 2.534854 -0.004970 -0.004710 -20141.800000 0 0 1
-22.582622 2.760184 -33.687439 40.650178 -0.121623 2.547605 -0.001923 -0.001049 -684896.000000 0 0 1
-22.277822 3.726984 -32.652069 39.703267 -0.165761 2.536418 0.005559 -0.005050 409240.000000 0 0 1
-23.293822 4.124684 -31.720759 39.570465 -0.175255 2.500808 0.005444 -0.006387 -519088.000000 0 0 1
-24.466022 4.949384 -32.244719 40.777501 -0.199602 2.482826 0.006660 -0.011998 170699.000000 0 0 1
-25.574922 4.171884 -32.749129 41.761067 -0.161700 2.472206 0.006366 -0.008600 889998.000000 0 0 1
-26.193132 4.876384 -33.836449 43.066978 -0.184063 2.474575 0.011228 -0.013170 -342283.000000 0 0 1
-27.314522 4.165984 34.467859 44.175466 -0.151353 0.675733 0.014686 -0.007587 -509811.000000 0 0 1
-26.983892 2.887684 33.871712 43.402327 -0.106609 0.675471 0.019617 -0.009420 559203.000000 0 0 1
-28.023492 2.333384 33.054015 43.397335 -0.083074 0.704925 0.026196 -0.005453 211344.000000 0 0 1
-27.952412 0.745184 32.942207 43.209740 -0.026653 0.703815 0.025380 0.003749 -275389.000000 0 0 1
-28.291362 -0.020916 34.088336 44.299168 0.000739 0.692734 0.018676 0.012805 233398.000000 0 0 1
-28.332842 -1.379016 33.831723 44.150165 0.048634 0.697753 0.013889 0.005570 -886905.000000 0 0 1
-28.198422 -2.197616 -33.954439 44.191453 0.077777 2.447053 -0.011566 0.013645 905229.000000 0 0 1
-26.876742 -2.297616 -33.374279 42.912479 0.085280 2.461841 -0.007381 0.004108 1420670.000000 0 0 1
-26.276482 -1.068716 -32.902199 42.120665 0.040650 2.467288 -0.023514 0.015764 -609431.000000 0 0 1
-26.500242 -0.636316 -31.449089 41.130438 0.024007 2.441245 -0.003626 0.015579 -403112.000000 0 0 1
-25.784962 -1.438816 -30.524639 39.983597 0.055743 2.439402 -0.012745 0.006322 495640.000000 0 0 1
-25.912822 -0.875516 -29.179309 39.034254 0.033774 2.415133 -0.010567 0.007058 60302.000000 0 0 1
-24.841422 -1.374716 -28.181319 37.592191 0.055283 2.418343 0.002633 0.006833 92999.700000 0 0 1
-25.241932 -2.632716 -27.706189 37.572853 0.103924 2.400008 -0.006913 0.002083 228738.000000 0 0 1
-24.265122 -3.215916 -26.859549 36.339698 0.131765 2.402565 0.021621 -0.002669 -414303.000000 0 0 1
-24.618922 -4.515816 -26.137109 36.188844 0.181412 2.377835 0.020236 -0.013261 -94744.200000 0 0 1
-25.728002 -4.292316 -25.294399 36.334016 0.165312 2.340835 0.018027 -0.012679 -92816.200000 0 0 1
-26.040632 -5.432916 -24.534439 36.187979 0.205682 2.315797 0.013720 -0.015438 -882637.000000 0 0 1
-27.208432 -5.217916 -23.638439 36.418419 0.189475 2.277170 0.028551 -0.017404 -807478.000000 0 0 1
-27.196502 -6.148316 -22.562139 35.867836 0.222333 2.251108 0.014087 -0.013317 127479.000000 0 0 1
-28.372942 -6.022916 -21.777139 36.270417 0.209172 2.214811 0.003501 -0.008021 194021.000000 0 0 1
-28.821392 -7.234216 -20.943839 36.354517 0.245921 2.184746 0.001822 -0.011001 -314039.000000 0 0 1
-27.819342 -7.508716 -19.971639 35.059421 0.263628 2.176878 0.000040 -0.010429 280932.000000 0 0 1
-28.076862 -8.600016 -19.117339 35.039166 0.297229 2.147900 0.017555 -0.007295 -248742.000000 0 0 1
-28.649722 -8.124316 -17.772839 34.679748 0.276320 2.108872 0.008773 -0.012012 -508553.000000 0 0 1
-27.786402 -7.291116 -17.044339 33.402904 0.256614 2.106289 0.030464 -0.024221 106978.000000 0 0 1
-28.321802 -6.912116 -15.774639 33.147263 0.239377 2.066778 0.019425 -0.020015 35835.100000 0 0 1
-27.329682 -6.160716 -14.838539 31.702495 0.221716 2.057886 0.038057 -0.024375 -19976.400000 0 0 1
-27.130012 -4.827016 -15.179639 31.460437 0.176079 2.074302 0.035564 -0.019045 -534110.000000 0 0 1
-25.942862 -4.404116 -14.620439 30.102916 0.168159 2.077939 0.046978 -0.029073 -823662.000000 0 0 1
-14.193222 21.118184 -5.115639 25.953709 -0.979052 1.769202 0.023747 0.006911 196199.000000 0 0 1
-14.252022 20.739084 -6.482839 25.985706 -0.968709 1.822937 0.053061 0.004153 -117756.000000 0 0 1
-14.843122 19.485784 -6.522639 25.348745 -0.919823 1.831040 0.021391 -0.008278 -345609.000000 0 0 1
-15.071422 18.995984 -7.978739 25.527543 -0.900092 1.888677 0.036404 -0.016000 -110315.000000 0 0 1
-13.810222 18.643484 -8.541239 24.723561 -0.933239 1.923535 0.043312 -0.013032 454239.000000 0 1 0
-13.775222 17.657984 -9.481939 24.320121 -0.908300 1.971298 0.024094 -0.019284 -419775.000000 0 1 0
-14.082722 16.221284 -8.968839 23.278599 -0.855852 1.966310 0.024263 -0.027846 1305960.000000 0 1 0
-15.480222 16.105584 -8.544339 23.917208 -0.805194 1.936115 0.019737 -0.027655 1660050.000000 0 1 0
-15.721622 15.105584 -7.531239 23.066591 -0.765417 1.903394 0.021225 -0.022078 1132590.000000 0 1 0
-17.194622 15.238084 -6.958439 24.005710 -0.725145 1.864883 0.037747 -0.018994 1080250.000000 0 1 0
-18.215922 14.966184 -7.874639 24.855913 -0.687773 1.893162 0.036695 -0.013275 821927.000000 0 1 0
-19.520222 15.457084 -7.435339 25.985472 -0.669752 1.860987 0.027953 -0.003835 996571.000000 0 0 1
-20.600522 14.924084 -8.361639 26.777356 -0.626949 1.888373 0.021752 0.005633 -608146.000000 0 0 1
-20.990722 13.582984 -8.025939 26.258781 -0.574330 1.881415 0.035566 -0.004857 330990.000000 0 0 1
-21.737422 12.969584 -9.084239 26.893290 -0.537951 1.915362 0.026211 -0.005332 762223.000000 0 0 1
-22.437922 11.612484 -8.745539 26.735643 -0.477580 1.904042 0.033932 -0.001107 846924.000000 0 0 1
-21.337322 10.748984 -8.469939 25.348803 -0.466655 1.911484 0.040176 0.002003 785079.000000 0 0 1
-21.876422 9.727784 -7.626739 25.127172 -0.418412 1.879187 0.043680 -0.001850 -157498.000000 0 0 1
-20.926522 8.584584 -7.261639 23.755964 -0.389290 1.881445 0.051473 -0.002912 -489793.000000 0 1 0
-20.528822 7.701384 -8.257739 23.429343 -0.358902 1.930987 0.030875 -0.000696 239670.000000 0 1 0
-19.689722 6.721184 -7.649839 22.167082 -0.328953 1.923141 0.031723 -0.004737 -98182.200000 0 1 0
-19.476822 5.553684 -8.670239 22.030957 -0.277772 1.975284 0.021513 -0.009036 -192361.000000 0 1 0
-20.463722 4.534584 -8.696139 22.692492 -0.218068 1.964073 0.030567 -0.011130 597285.000000 0 1 0
-20.206222 3.582884 -9.745139 22.717751 -0.175492 2.014144 0.019275 -0.004625 -306062.000000 0 1 0
-21.009022 2.298884 -9.522139 23.180488 -0.108990 1.994109 0.011555 -0.010710 -303755.000000 0 1 0
-20.425922 1.438084 -8.595039 22.207230 -0.070289 1.968213 0.000301 -0.017284 726667.000000 0 1 0
-21.352322 0.481584 -8.035539 22.819366 -0.022550 1.930650 0.018035 -0.020511 226994.000000 0 1 0
-21.464222 -0.886416 -8.783439 23.208778 0.041274 1.958921 0.008433 -0.020825 -291422.000000 0 1 0
-20.417322 -1.749716 -8.480039 22.177457 0.085489 1.963158 -0.000833 -0.014563 -420983.000000 0 1 0
-20.594522 -2.999216 -9.095439 22.712478 0.144615 1.982815 -0.001129 -0.009016 231201.000000 0 1 0
-21.566322 -4.077216 -8.516539 23.542756 0.186850 1.940938 0.011301 -0.002442 127932.000000 0 1 0
-21.141822 -4.549116 -7.288839 22.821005 0.211940 1.895884 -0.006549 -0.004047 -120714.000000 0 1 0
-22.038822 -5.462116 -6.719139 23.678919 0.242945 1.858510 0.009147 -0.001742 -901780.000000 0 1 0
-21.886522 -6.895416 -7.213039 24.053992 0.305209 1.875351 -0.000953 -0.004383 -223774.000000 0 1 0
-20.899022 -7.610916 -6.501439 23.172481 0.349247 1.855181 -0.014107 -0.000456 457219.000000 0 1 0
-21.099622 -8.980116 -6.613639 23.865807 0.402383 1.851589 -0.009952 -0.002191 -928506.000000 0 1 0
-20.055022 -9.896316 -6.019439 23.159763 0.458401 1.833725 -0.008626 0.001881 -993506.000000 0 1 0
-18.825022 -9.921116 -6.681339 22.303594 0.485027 1.875031 -0.009965 0.008437 -799956.000000 0 1 0
-17.879822 -10.464316 -5.853139 21.527870 0.529510 1.846149 -0.003597 0.004336 -625665.000000 0 1 0
-17.247322 -11.834116 -6.401539 21.874554 0.601365 1.867791 -0.009864 0.006741 283164.000000 0 1 0
-16.208022 -11.793916 -7.418239 21.373505 0.629049 1.925248 -0.012489 0.005019 888063.000000 0 1 0
-16.395322 -11.027016 -8.627939 21.560218 0.592079 1.982508 -0.018878 -0.004730 -636357.000000 0 1 0
-15.311122 -11.298616 -9.653739 21.337382 0.635735 2.040288 -0.015829 -0.001185 -21089.500000 0 1 0
-15.547622 -12.580316 -10.285439 22.489624 0.680294 2.045800 -0.009963 0.001786 704633.000000 0 1 0
-14.533322 -12.764116 -11.280639 22.391805 0.720677 2.098770 0.001864 0.010655 552049.000000 0 1 0
-14.865022 -14.079616 -11.988939 23.726339 0.758270 2.100527 0.023033 0.003026 -61696.400000 0 1 0
-15.835422 -13.931416 -12.995339 24.773449 0.721521 2.123003 0.022688 -0.001114 -14618.700000 0 1 0
-16.070222 -15.185516 -13.600039 25.957908 0.757100 2.122251 0.022897 -0.001120 -342915.000000 0 0 1
-16.766622 -15.167216 -14.933539 27.095658 0.735355 2.154528 0.041512 0.001200 -341698.000000 0 0 1
-16.766622 -16.429616 -15.556939 28.161503 0.775247 2.156059 0.033360 0.005159 219226.000000 0 0 1
-17.094622 -16.332816 -16.927539 29.077974 0.762612 2.192158 0.022964 0.004496 -455278.000000 0 0 1
-17.190822 -17.733816 -17.684839 30.377066 0.800945 2.192200 0.014611 0.003674 -377439.000000 0 0 1
-18.426822 -18.380516 -17.585039 31.410584 0.784140 2.164994 -0.014333 0.009998 -196917.000000 0 0 1
-19.293222 -18.203816 -18.714539 32.462922 0.756353 2.185222 -0.006495 0.005616 -100026.000000 0 0 1
-20.733822 -17.901316 -18.305439 32.945980 0.712215 2.159905 -0.014694 0.001883 -917421.000000 0 0 1
-20.865222 -16.701416 -17.649539 32.028129 0.675011 2.154435 -0.016968 0.008344 217308.000000 0 0 1
-20.840122 -16.843616 -16.215439 31.320258 0.679739 2.114992 -0.027611 0.010762 -479111.000000 0 0 1
-20.810222 -15.531916 -15.343839 30.161883 0.641167 2.104489 -0.014141 0.001561 -285816.000000 0 0 1
-22.000722 -14.794216 -15.439039 30.680035 0.591990 2.098126 -0.023447 0.001775 100026.000000 0 0 1
-21.817222 -13.484316 -14.990539 29.707478 0.553592 2.099721 -0.010782 -0.000065 -478385.000000 0 0 1
-23.088522 -12.631816 -14.792639 30.190476 0.500617 2.082860 0.004533 -0.008785 -203331.000000 0 0 1
-23.844422 -13.202416 -13.750039 30.527428 0.505672 2.038027 0.008231 -0.002738 100588.000000 0 0 1
-24.951022 -12.440216 -13.345239 30.909673 0.462515 2.017228 0.014557 -0.010171 -458121.000000 0 0 1
-25.578752 -12.969316 -12.041739 31.104328 0.469260 1.968324 0.010367 -0.008201 -1180580.000000 0 0 1
-26.546722 -12.140216 -11.557839 31.395811 0.428920 1.947797 0.018156 -0.019735 -672793.000000 0 0 1
-26.997782 -12.646516 -10.252039 31.526480 0.438073 1.902007 0.007526 -0.012624 640745.000000 0 0 1
-27.993882 -11.666316 -9.542539 31.793402 0.394858 1.875638 0.010547 -0.012775 24598.300000 0 0 1
-27.252382 -10.564416 -9.087639 30.608568 0.369816 1.872239 0.022945 -0.021738 423711.000000 0 0 1
-28.043552 -9.785116 -8.190739 30.810348 0.335717 1.839875 0.032516 -0.021926 -229805.000000 0 0 1
-27.263032 -8.675416 -7.500739 29.576965 0.308080 1.827197 0.032972 -0.017702 -415000.000000 0 0 1
-26.379142 -9.055716 -6.492339 28.635915 0.330685 1.799505 0.006740 -0.020414 -416229.000000 0 0 1
-25.617702 -7.995216 -5.967539 27.491847 0.302518 1.789604 0.007105 -0.015141 -187781.000000 0 0 1
-26.314062 -6.724916 -5.354639 27.682603 0.250208 1.765453 0.015739 -0.017409 -366357.000000 0 0 1
-27.087352 -6.990516 -4.201539 28.288600 0.252562 1.719872 0.012864 -0.018033 252759.000000 0 0 1
-26.342032 -7.257016 -3.014739 27.489190 0.268823 1.680687 0.014713 -0.011943 -90376.100000 0 0 1
-25.749382 -6.011316 -2.289939 26.540731 0.229347 1.657184 0.018901 -0.010933 -58794.700000 0 0 1
-26.742352 -5.154216 -1.795739 27.293663 0.190401 1.636637 0.018241 -0.013466 -268071.000000 0 0 1
-26.161492 -4.173516 -0.919839 26.508263 0.158196 1.605503 0.002046 -0.011951 -909029.000000 0 0 1
-26.995642 -3.052316 -0.336339 27.169734 0.112589 1.583176 0.014948 -0.014534 -663631.000000 0 0 1
-27.960862 -3.405416 0.621761 28.174337 0.121195 1.548726 0.009824 -0.002518 1576.120000 0 0 1
-27.408842 -3.815816 1.842961 27.734484 0.138329 1.504297 -0.001826 0.004226 471211.000000 0 0 1
-28.554682 -4.178616 2.890661 29.003217 0.145306 1.470964 -0.002603 0.007791 841255.000000 0 0 1
-28.857512 -5.547316 2.857261 29.524442 0.189915 1.473869 0.017852 0.012042 314573.000000 0 0 1
-29.955952 -5.812516 3.735761 30.742484 0.191654 1.448977 0.037465 0.005698 42599.800000 0 0 1
-30.531372 -7.215416 3.599161 31.578171 0.232070 1.456572 0.036621 0.011827 -982774.000000 0 0 1
-29.663812 -8.288716 3.848061 31.039525 0.272472 1.446504 0.034226 0.019183 -284952.000000 0 0 1
-30.242302 -9.612416 3.785961 31.958237 0.307748 1.452052 0.050173 0.018146 -11669.300000 0 0 1
-29.454272 -10.773816 4.472661 31.680182 0.350664 1.429141 0.039694 0.014237 43052.700000 0 0 1
-29.643612 -10.776316 5.889061 32.086660 0.348676 1.386214 0.015440 0.022014 181123.000000 0 0 1
-28.725072 -11.621916 6.551761 31.672137 0.384458 1.362430 0.008931 0.022697 -358091.000000 0 0 1
-28.918562 -11.874916 8.033761 32.277518 0.389639 1.319256 0.017135 0.007492 -235183.000000 0 0 1
-28.690512 -10.716716 8.851361 31.880089 0.357480 1.289454 0.033607 0.004167 479666.000000 0 0 1
-28.774172 -11.019016 10.240061 32.468917 0.365721 1.249939 0.039539 0.003437 -342098.000000 0 0 1
-28.904792 -9.795316 11.108061 32.478058 0.326736 1.221733 0.034790 0.004672 -769548.000000 0 0 1
-27.810712 -8.962116 11.023361 31.229309 0.311746 1.210041 0.045715 0.005172 -233998.000000 0 0 1
-28.060772 -7.822716 11.842061 31.445766 0.271875 1.184687 0.050325 -0.002818 -141036.000000 0 0 1
-26.960612 -6.792316 11.615561 30.131900 0.246799 1.175057 0.054544 -0.006312 -370502.000000 0 0 1
-27.145602 -5.951716 10.522661 29.715872 0.215836 1.208835 0.054745 -0.010681 -359794.000000 0 0 1
-26.409892 -4.807016 10.502461 28.825188 0.180045 1.197861 0.051230 -0.012767 -724540.000000 0 0 1
-26.523212 -4.015916 9.228061 28.368389 0.150270 1.239474 0.054759 -0.010501 82906.000000 0 0 1
-25.834612 -4.623616 8.126461 27.474431 0.177095 1.270522 0.029256 -0.000529 195372.000000 0 0 1
-26.130392 -4.006116 6.904361 27.322455 0.152128 1.315327 0.021972 -0.003284 11193.900000 0 0 1
-25.225982 -4.447516 5.712361 26.244269 0.174514 1.351379 0.004050 0.007309 -13337.800000 0 0 1
-23.859222 -4.123116 5.836961 24.906479 0.171120 1.334241 0.016990 -0.010431 162764.000000 0 1 0
-23.207622 -4.375116 4.644261 24.068746 0.186334 1.376620 0.009946 -0.004101 -186788.000000 0 1 0
-21.824722 -3.681116 4.524261 22.590663 0.167095 1.369162 0.007392 -0.009179 134559.000000 0 1 0
-21.892722 -2.309416 4.575261 22.484610 0.105099 1.365881 0.001441 -0.004579 -845296.000000 0 1 0
-20.654822 -1.815616 4.862961 21.297101 0.087677 1.340425 0.000977 -0.004223 -1517070.000000 0 1 0
-20.709622 -0.269816 5.027961 21.312945 0.013028 1.332640 0.008654 -0.000268 -530370.000000 0 1 0
-20.730722 0.591584 3.931361 21.108491 -0.028529 1.383457 0.011831 -0.002760 -745013.000000 0 1 0
-21.917722 0.794284 3.303861 22.179561 -0.036223 1.421280 -0.000330 -0.001767 -1672450.000000 0 1 0
-21.792322 1.963884 2.253461 21.996368 -0.089875 1.468169 0.013180 -0.005661 -407680.000000 0 1 0
-21.559022 3.281684 2.790161 21.985129 -0.151059 1.443542 0.015188 0.000631 183665.000000 0 1 0
-21.565122 4.261484 1.782661 22.054311 -0.195096 1.489878 0.025156 -0.005112 48984.800000 0 1 0
-20.282522 4.419384 0.936561 20.779528 -0.214538 1.525710 0.014215 -0.004768 -921709.000000 0 1 0
-20.436722 5.225484 -0.221639 21.095365 -0.250328 1.581303 0.019466 0.004646 670928.000000 0 1 0
-21.420522 4.862584 -1.218039 21.999252 -0.223223 1.626192 0.043733 -0.015281 387267.000000 0 1 0
-21.145622 3.586184 -2.081039 21.548289 -0.167996 1.667523 0.052271 -0.012957 -314200.000000 0 1 0
-21.149622 2.361484 -1.357039 21.324274 -0.111196 1.634478 0.036640 -0.009714 520191.000000 0 1 0
-20.586922 1.270384 -2.054939 20.728194 -0.061630 1.670097 0.019833 -0.009447 -174412.000000 0 1 0
-19.714422 0.299084 -1.226939 19.754829 -0.015170 1.632945 0.011760 -0.004997 161580.000000 0 1 0
-20.548522 -0.451316 -0.296639 20.555618 0.021960 1.585228 0.012625 -0.009279 812003.000000 0 1 0
-19.877922 -1.175016 0.696961 19.924814 0.059043 1.535810 0.010967 -0.010017 -1480840.000000 0 1 0
-19.044522 -2.322316 0.228361 19.186952 0.121342 1.558894 0.001923 -0.006812 -576917.000000 0 1 0
-18.263922 -2.951516 1.232861 18.541905 0.160218 1.504257 0.001560 -0.002839 589491.000000 0 1 0
-17.738922 -4.264416 0.914261 18.267197 0.235922 1.520726 0.006686 -0.003443 43637.000000 0 1 0
-18.762422 -5.386016 0.602261 19.529474 0.279547 1.539953 0.004102 0.000129 65126.000000 0 1 0
-19.394722 -5.926316 1.743561 20.354765 0.296553 1.485033 0.033883 -0.002380 246948.000000 0 1 0
-20.376422 -6.886016 1.456861 21.557788 0.325891 1.503165 -0.000572 0.002184 -443763.000000 0 1 0
-21.037322 -7.375416 2.801461 22.468063 0.337198 1.445785 0.001414 0.007261 -829722.000000 0 1 0
-20.208222 -8.179016 3.558061 22.089100 0.384583 1.409014 0.001619 0.007552 -379026.000000 0 1 0
-20.763522 -8.652816 4.758361 22.992109 0.394846 1.362334 -0.002701 0.008697 -555314.000000 0 1 0
-19.873522 -9.445416 5.685661 22.726626 0.443674 1.317934 -0.005136 0.008059 -508165.000000 0 1 0
-19.601122 -10.780016 5.287561 22.986323 0.502820 1.338687 0.003422 0.009889 569214.000000 0 1 0
-18.558822 -11.329416 6.116561 22.587560 0.548075 1.296579 0.014702 0.003441 593181.000000 0 1 0
-17.931022 -12.627216 5.532861 22.618150 0.613546 1.323668 0.007334 0.000799 396214.000000 0 1 0
-18.801422 -13.783716 5.617161 23.979925 0.632611 1.334355 0.015607 0.005323 360860.000000 0 1 0
-18.152522 -14.947416 5.115661 24.064690 0.688868 1.356582 0.006335 0.004241 -358840.000000 0 1 0
-18.896822 -16.290016 5.319761 25.509888 0.711449 1.360717 0.020490 0.003342 -957203.000000 0 0 1
-18.157222 -17.387016 4.946961 25.621582 0.763733 1.376498 0.014450 -0.003519 -190744.000000 0 0 1
-18.636722 -18.655416 5.395561 26.915870 0.785899 1.368969 0.014802 0.003445 244681.000000 0 0 1
-17.506022 -19.667116 5.071461 26.813728 0.843469 1.380513 0.016408 -0.003233 -231250.000000 0 0 1
-17.119222 -19.767416 3.683961 26.408144 0.857068 1.430839 0.022086 -0.010085 188111.000000 0 0 1
-16.315622 -20.913116 3.482261 26.752273 0.908269 1.440259 0.023889 -0.006893 657411.000000 0 0 1
-14.835122 -20.963316 4.009561 25.992654 0.954941 1.415920 0.025328 -0.010099 295499.000000 0 0 1
-14.387522 -22.326916 3.895161 26.845191 0.998366 1.425185 0.032551 -0.007338 46406.900000 0 0 1
-13.009022 -22.313916 4.229061 26.173087 1.042970 1.408504 0.027555 -0.000549 214821.000000 0 0 1
-12.415422 -23.778316 4.353461 27.175424 1.089600 1.409905 0.024438 -0.002289 -233667.000000 0 0 1
-12.362222 -24.541716 3.204661 27.665687 1.104175 1.454700 0.030496 -0.004376 48006.900000 0 0 1
-11.844122 -25.805466 3.583861 28.619039 1.140502 1.445240 0.037903 -0.002895 -14243.900000 0 0 1
17.422578 19.501284 -24.725139 35.988593 0.841636 2.328186 0.017444 0.004313 -94632.600000 0 0 1
16.684878 19.401384 -25.928969 36.429525 0.860535 2.362793 0.014141 -0.001598 -377003.000000 0 0 1
17.467678 19.588684 -27.042249 37.684474 0.842573 2.371142 0.022034 -0.008642 -540005.000000 0 0 1
16.659378 19.714384 -28.355159 38.343277 0.869191 2.403135 0.018935 -0.004611 117490.000000 0 0 1
16.141078 21.044384 -28.452329 38.896472 0.916503 2.391299 0.015931 0.007345 196336.000000 0 0 1
15.268578 21.074984 -29.559409 39.383284 0.943824 2.419701 0.016502 0.006805 -250703.000000 0 0 1
14.938278 22.478284 -30.034359 40.379303 0.984250 2.409543 0.020796 0.005037 -610177.000000 0 0 1
14.122978 23.124784 -29.108009 39.767956 1.022525 2.391970 0.018023 0.001082 134141.000000 0 0 1
14.052678 24.540484 -29.376619 40.776205 1.050743 2.375226 0.026083 0.004448 -238728.000000 0 0 1
13.424178 25.286184 -28.220199 40.199245 1.082743 2.349010 0.018642 -0.000262 799981.000000 0 0 1
12.028078 24.998484 -28.007819 39.421273 1.122340 2.360969 0.023671 -0.012730 956026.000000 0 0 1
11.463978 25.869984 -27.006999 39.115941 1.153663 2.332886 0.029187 -0.007207 -536496.000000 0 0 1
10.001778 25.643284 -26.588759 38.269775 1.198910 2.338899 0.033755 -0.003373 322531.000000 0 0 1
9.366478 26.734484 -25.869659 38.362779 1.233808 2.310871 0.030387 -0.014782 286723.000000 0 0 1
9.183578 27.915084 -26.594689 39.634171 1.252966 2.306358 0.046049 -0.019389 -517651.000000 0 0 1
8.681278 29.071684 -25.641399 39.724158 1.280609 2.272456 0.051890 -0.011651 -31262.000000 0 0 1
9.629978 29.305084 -24.631439 39.474450 1.253302 2.244627 0.045615 -0.016729 131805.000000 0 0 1
9.049978 30.044184 -23.559839 39.238006 1.278219 2.214840 0.046917 -0.015445 -353831.000000 0 0 1
10.009078 30.301884 -22.400939 38.989587 1.251767 2.182834 0.016966 -0.008519 -182967.000000 0 0 1
10.961778 31.296484 -22.771539 40.226527 1.233894 2.172542 0.016782 -0.018102 315402.000000 0 0 1
11.844078 31.537584 -21.685739 40.064606 1.211540 2.142742 -0.013143 -0.001784 786291.000000 0 0 1
13.207778 32.194184 -22.128739 41.238234 1.181482 2.137208 -0.022820 0.008331 -39629.900000 0 0 1
14.173478 31.348784 -22.598839 41.162377 1.146179 2.151984 -0.018298 0.002808 -1182520.000000 0 0 1
15.178478 32.171184 -23.112739 42.421339 1.129959 2.146992 -0.018397 0.014137 -297038.000000 0 0 1
16.532078 31.518684 -23.452839 42.623617 1.087728 2.153437 -0.028372 0.017066 -12498.600000 0 0 1
17.205078 30.960284 -22.363039 41.888655 1.063576 2.133966 -0.009637 0.013294 431824.000000 0 0 1
18.525178 30.600984 -22.793939 42.416578 1.026431 2.138127 -0.016585 0.021959 85088.100000 0 0 1
19.410278 29.930284 -21.803639 41.808844 0.995465 2.119413 -0.006089 0.026402 -417207.000000 0 0 1
19.839578 30.822184 -20.755739 42.123824 0.998878 2.086022 -0.007544 0.026181 352778.000000 0 0 1
20.914178 30.166784 -20.080139 41.840766 0.964591 2.071358 0.006782 0.007317 443080.000000 0 0 1
21.613978 31.006784 -18.965639 42.288062 0.962038 2.035868 0.014025 -0.002787 -326396.000000 0 0 1
22.556278 31.956784 -19.363639 43.645988 0.956164 2.030466 0.003522 0.001151 -97800.700000 0 0 1
23.134078 32.633184 -18.256439 43.970533 0.954114 1.998956 0.018401 0.003093 27683.400000 0 0 1
24.290478 33.594284 -18.672339 45.467125 0.944765 1.993994 0.017544 -0.000673 781500.000000 0 0 1
25.384378 32.784984 -19.139639 45.667796 0.911943 2.003257 0.013549 -0.002046 434604.000000 0 0 1
26.639778 33.377784 -18.812039 46.665266 0.897197 1.985728 0.016936 -0.006298 19720.300000 0 0 1
27.858278 32.633184 -19.297939 47.046985 0.864170 1.993453 -0.003427 0.000490 -496140.000000 0 0 1
28.070278 31.367284 -18.689139 46.055737 0.840811 1.988644 0.000199 0.004808 -293098.000000 0 0 1
29.369178 30.968984 -19.047339 46.737862 0.811906 1.990550 -0.004212 0.012154 -262857.000000 0 0 1
29.769178 29.579184 -18.541739 45.879496 0.782197 1.986835 -0.017971 0.007320 -663180.000000 0 0 1
29.989678 29.634384 -17.129539 45.508226 0.779439 1.956710 -0.016704 0.011724 2624.480000 0 0 1
30.286078 28.350984 -16.636039 44.696561 0.752409 1.952174 -0.023042 0.002588 -166251.000000 0 0 1
30.624978 28.386684 -15.144339 44.418961 0.747487 1.918716 -0.015245 0.010051 -101128.000000 0 0 1
31.766978 29.110584 -14.738439 45.538869 0.741791 1.900376 -0.007392 0.015038 -15410.000000 0 0 1
31.456278 30.481184 -14.572939 46.162436 0.769656 1.891978 -0.007161 0.010892 96134.900000 0 0 1
32.691478 31.394984 -14.757239 47.667115 0.765171 1.885558 0.004091 0.007375 683600.000000 0 0 1
33.700178 31.257384 -13.753339 47.977915 0.747810 1.861535 -0.000055 0.003249 -930370.000000 0 0 1
34.866778 31.826784 -14.174139 49.290390 0.739848 1.862479 0.020885 0.000352 -828330.000000 0 0 1
-34.599607 32.110984 -12.994139 48.960145 -0.748111 1.839418 0.023820 -0.002090 -423076.000000 0 0 1
-35.080507 33.024884 -12.020039 49.656483 -0.755224 1.815289 0.013429 -0.003558 890473.000000 0 0 1
-34.071307 33.560784 -11.119339 49.100101 -0.777850 1.799241 0.030201 -0.003901 480131.000000 0 0 1
-34.720907 -34.392830 -10.307639 49.946528 0.780651 1.778664 0.034985 -0.003884 88061.800000 0 0 1
-33.803607 -33.651330 -9.498839 48.634595 0.783141 1.767370 0.034646 -0.012379 355285.000000 0 0 1
-33.424207 -34.220230 -8.242639 48.540116 0.797165 1.741434 0.028118 -0.018242 -26697.700000 0 0 1
-33.006507 -33.250530 -7.165939 47.395970 0.789081 1.722571 0.025868 -0.007838 -59613.000000 0 0 1
-34.033107 -32.379430 -6.769939 47.460636 0.760503 1.713928 0.022421 -0.004788 -253064.000000 0 0 1
-33.577107 -31.470230 -5.792939 46.382709 0.753020 1.696018 0.041120 -0.005904 -29198.900000 0 0 1
-34.748607 -30.636630 -5.223639 46.619258 0.722592 1.683081 0.027390 0.008667 281795.000000 0 0 1
34.943678 -31.516830 -4.372739 47.259836 -0.733882 1.663454 0.017967 0.008234 -542056.000000 0 0 1
33.605478 -31.249030 -4.120439 46.073941 -0.749080 1.660347 0.007836 0.008481 -610098.000000 0 0 1
33.204978 -30.207730 -3.038939 44.992362 -0.738168 1.638391 0.018038 0.014664 -479389.000000 0 0 1
33.619278 -28.927930 -3.356139 44.478587 -0.710533 1.646323 0.041272 0.007914 -106633.000000 0 0 1
33.163678 -27.982430 -2.485639 43.462908 -0.700865 1.628017 0.029541 0.003371 -399410.000000 0 0 1
33.806678 -26.626930 -2.729639 43.120016 -0.667149 1.634142 0.038008 -0.005956 -284396.000000 0 0 1
33.456778 -26.066030 -3.992939 42.599736 -0.661864 1.664666 0.032521 -0.016788 251223.000000 0 0 1
33.433178 -24.637330 -3.940239 41.716914 -0.635072 1.665389 0.032544 -0.023878 -168946.000000 0 0 1
32.989278 -23.979130 -5.287739 41.124826 -0.628537 1.699731 0.031315 -0.023624 161200.000000 0 0 1
34.025978 -23.828830 -6.252939 42.008089 -0.610936 1.720202 0.038312 -0.020351 258897.000000 0 0 1
33.464178 -23.285630 -7.418439 41.437966 -0.607927 1.750792 0.025161 -0.008991 454240.000000 0 0 1
34.585578 -23.169930 -8.521739 42.492681 -0.590259 1.772712 0.021990 -0.012734 367084.000000 0 0 1
35.026978 -24.423730 -9.032739 43.646285 -0.608900 1.779256 0.021390 -0.002482 -176207.000000 0 0 1
-34.340907 -24.313230 -9.945239 43.235852 0.616072 1.802898 0.026372 -0.000925 -83529.800000 0 0 1
-33.866207 -25.711230 -10.433139 43.781706 0.649363 1.811410 0.020670 -0.001116 -33094.900000 0 0 1
-33.073607 -26.469430 -9.542939 43.423058 0.674935 1.792372 0.022941 -0.002770 215591.000000 0 0 1
-33.914107 -27.384230 -8.865039 44.482038 0.679272 1.771435 0.024567 -0.005879 220738.000000 0 0 1
-33.186807 -28.661330 -8.382239 44.644126 0.712358 1.759674 0.030537 -0.006758 -117127.000000 0 0 1
-32.553507 -29.347830 -9.420039 44.830382 0.733658 1.782500 0.026879 -0.010227 -56909.300000 0 0 1
-31.926607 -30.503930 -8.934239 45.051289 0.762614 1.770432 0.028354 -0.018707 99312.500000 0 0 1
-31.232907 -31.391730 -10.063739 45.411607 0.787934 1.794263 0.025130 -0.011176 327788.000000 0 0 1
-29.998707 -30.917830 -10.572439 44.357763 0.800485 1.811457 0.007877 0.006491 475652.000000 0 0 1
-29.507507 -31.622030 -11.706739 44.807293 0.819975 1.835133 -0.015811 0.010159 -321138.000000 0 0 1
-29.958707 -30.888730 -12.979239 44.945505 0.800681 1.863746 -0.026214 0.013320 -361718.000000 0 0 1
-29.053007 -29.965630 -13.548339 43.881360 0.800860 1.884674 -0.023919 0.024040 -74061.800000 0 0 1
-29.672407 -29.331930 -14.595939 44.202436 0.779628 1.907319 -0.027363 0.034699 -54381.900000 0 0 1
-28.761307 -28.213930 -15.190339 43.057927 0.775791 1.931346 -0.026413 0.023512 255144.000000 0 0 1
-27.615407 -28.724730 -15.809639 42.868001 0.805085 1.948512 -0.016627 0.023371 -246740.000000 0 0 1
-26.621207 -27.793130 -16.199739 41.756177 0.806932 1.969214 -0.006277 0.033183 1101200.000000 0 0 1
-25.347807 -28.531930 -16.789839 41.695097 0.844426 1.985241 0.023333 0.019362 358518.000000 0 0 1
-25.562107 -29.303330 -17.959139 42.832665 0.853482 2.003455 0.019211 0.007107 -149877.000000 0 0 1
-25.481407 -28.694730 -19.262039 42.938512 0.844641 2.035990 0.012325 0.008089 -415065.000000 0 0 1
-24.156007 -28.067230 -19.679839 41.935405 0.860153 2.059282 0.025145 0.008113 -461596.000000 0 0 1
-23.788707 -26.913630 -19.040039 40.654264 0.846953 2.058208 0.017857 0.013254 219093.000000 0 0 1
-22.391607 -26.663130 -19.193939 39.758193 0.872256 2.074608 0.015073 0.000683 596856.000000 0 0 1
-22.087307 -25.319730 -18.466239 38.339795 0.853477 2.073329 0.006886 0.004480 -185197.000000 0 0 1
-22.398407 -25.476930 -17.071539 37.976309 0.849613 2.037037 0.012047 0.012991 235193.000000 0 0 1
-21.866807 -24.401930 -16.330039 36.609857 0.840135 2.033150 0.002365 0.010885 -117442.000000 0 0 1
-21.989207 -24.486830 -14.833739 36.099445 0.839087 1.994252 -0.012921 0.021254 210396.000000 0 0 1
-23.343907 -24.377930 -14.390239 36.691968 0.807062 1.973808 -0.036706 0.034768 467832.000000 0 0 1
-23.480307 -24.577330 -12.948539 36.373544 0.808221 1.934767 -0.042862 0.041383 -332656.000000 0 0 1
-24.928907 -24.564230 -12.446039 37.145063 0.778030 1.912471 -0.046512 0.039790 5640.180000 0 0 1
-25.722707 -25.570330 -13.109339 38.566232 0.782427 1.917626 -0.031289 0.039010 1500020.000000 0 0 1
-27.015407 -25.814930 -12.479239 39.395105 0.762679 1.893120 -0.027082 0.033922 1387190.000000 0 0 1
-28.260007 -25.013030 -12.950439 39.899794 0.724524 1.901358 -0.022582 0.021880 -322718.000000 0 0 1
-28.410107 -23.782730 -12.288339 39.035314 0.696970 1.891043 -0.022560 0.020345 368227.000000 0 0 1
-29.154507 -23.775630 -11.061239 39.212459 0.684124 1.856763 0.000484 0.007065 573074.000000 0 0 1
-30.704207 -23.991130 -11.088939 40.512804 0.663273 1.848049 0.000651 0.007182 492433.000000 0 0 1
-31.547307 -22.920830 -11.556739 40.671308 0.628326 1.858916 0.010976 -0.004272 487183.000000 0 0 1
-31.501907 -22.663030 -12.979739 40.920126 0.623639 1.893569 0.013383 0.000282 -414599.000000 0 0 1
-32.954507 -22.418830 -13.452739 42.066373 0.597379 1.896313 -0.000158 -0.007337 73378.600000 0 0 1
-33.703607 -23.611430 -13.294639 43.245580 0.611102 1.883279 0.003580 0.000891 702831.000000 0 0 1
-35.091907 -23.289030 -13.540939 44.240004 0.585917 1.881868 0.020945 -0.008044 1302210.000000 0 0 1
34.377378 -24.516830 -13.269239 44.260047 -0.619509 1.875281 0.020879 0.005332 177224.000000 0 0 1
34.399378 -25.539930 -14.240039 45.148466 -0.638654 1.891679 0.006046 0.012374 -43668.800000 0 0 1
33.872278 -26.719030 -13.661639 45.253488 -0.667885 1.877472 0.001417 0.007616 116425.000000 0 0 1
33.618878 -27.862830 -14.653539 46.057491 -0.692048 1.894582 -0.003127 0.004685 748347.000000 0 0 1
32.459078 -27.611030 -15.455139 45.330145 -0.704866 1.918720 0.000055 -0.002019 281610.000000 0 0 1
32.311078 -28.729730 -16.309239 46.210328 -0.726794 1.931502 -0.006877 0.004815 -97491.200000 0 0 1
31.511678 -28.507230 -17.591639 45.990366 -0.735382 1.963305 -0.004738 0.001104 -393969.000000 0 0 1
30.124978 -28.568030 -17.435339 45.029298 -0.758877 1.968389 0.029619 -0.002161 -480197.000000 0 0 1
29.467678 -28.389430 -18.685839 44.982934 -0.766764 1.999177 0.033499 -0.003313 383755.000000 0 0 1
27.921078 -28.384630 -18.709439 43.992237 -0.793631 2.010078 0.048937 -0.003642 258437.000000 0 0 1
27.406078 -27.544030 -17.697439 42.696207 -0.787909 1.998186 0.044693 -0.007429 -839990.000000 0 0 1
26.021478 -27.506130 -17.603939 41.756475 -0.813127 2.005990 0.046454 -0.008302 -646981.000000 0 0 1
25.456878 -26.806330 -16.400339 40.442590 -0.811213 1.988346 0.043726 -0.015492 -77310.100000 0 0 1
25.554078 -25.398130 -16.457139 39.609511 -0.782338 1.999272 0.042888 -0.012070 -92433.100000 0 0 1
25.215378 -24.845930 -15.192439 38.522016 -0.778018 1.976193 0.043382 -0.009428 -44405.100000 0 0 1
25.118178 -23.298730 -15.272739 37.510135 -0.747837 1.990142 0.038614 -0.017107 256988.000000 0 0 1
23.975578 -22.837530 -15.978639 36.765446 -0.761093 2.020402 0.046029 -0.011853 52008.300000 0 0 1
24.064078 -21.420430 -16.206839 36.063504 -0.727342 2.036887 0.037383 -0.013047 -536787.000000 0 0 1
22.708678 -20.784930 -16.469139 34.913177 -0.741196 2.062033 0.040596 -0.003936 -189000.000000 0 0 1
21.902678 -20.705130 -15.270039 33.787628 -0.757299 2.039737 0.037939 -0.012658 817874.000000 0 0 1
20.707778 -19.969830 -15.588539 32.720158 -0.767259 2.067375 0.022383 -0.012840 532385.000000 0 0 1
20.314178 -18.853930 -14.571839 31.312538 -0.748134 2.054846 0.011462 -0.001999 -110835.000000 0 0 1
19.958878 -19.346530 -13.302339 30.815536 -0.769820 2.017147 0.005447 -0.014128 231137.000000 0 0 1
19.726178 -18.220430 -12.459939 29.603315 -0.745738 2.005230 -0.005110 -0.019552 -815013.000000 0 0 1
18.757878 -18.495630 -11.332039 28.676845 -0.778359 1.977042 -0.008108 -0.004516 -945130.000000 0 0 1
19.378978 -19.058730 -10.199739 29.031270 -0.777067 1.929794 -0.004368 -0.014892 -200618.000000 0 0 1
18.511578 -19.384030 -9.169439 28.328391 -0.808417 1.900417 -0.005471 -0.010258 -621432.000000 0 0 1
19.202178 -19.868430 -7.875739 28.731610 -0.802449 1.848465 0.002505 -0.012572 -97600.600000 0 0 1
19.894178 -18.826630 -7.148639 28.307656 -0.757835 1.826094 -0.000509 -0.010766 77511.200000 0 0 1
20.620278 -19.407330 -6.119339 28.970444 -0.755105 1.783626 0.007255 -0.000090 -306072.000000 0 0 1
21.831278 -18.521430 -5.726639 29.196617 -0.703558 1.768217 0.002611 -0.004827 243891.000000 0 0 1
22.827378 -18.558630 -6.747539 30.183459 -0.682617 1.796252 0.002249 -0.020997 505893.000000 0 0 1
23.760078 -17.492130 -6.782239 30.273994 -0.634609 1.796742 0.021292 -0.022724 -103422.000000 0 0 1
24.760478 -17.599530 -7.967839 31.405592 -0.617932 1.827308 0.035921 -0.035287 -80629.600000 0 0 1
25.711678 -18.608130 -7.838239 32.692367 -0.626471 1.812912 0.049745 -0.041036 57596.600000 0 0 1
25.342478 -19.723830 -8.614239 33.248696 -0.661363 1.832871 0.053269 -0.042214 -266954.000000 0 0 1
26.254478 -20.926230 -8.248539 34.572288 -0.672942 1.811708 0.065219 -0.046449 64063.600000 0 0 1
27.623478 -20.634530 -8.391239 35.485959 -0.641574 1.809524 0.062915 -0.041519 -58193.600000 0 0 1
28.387378 -21.818530 -8.145639 36.718428 -0.655299 1.794498 0.054337 -0.036392 232158.000000 0 0 1
-29.101712 30.559384 4.126461 42.400628 -0.809826 1.473321 -0.012112 0.004750 185402.000000 0 0 1
-28.356832 31.465684 3.377661 42.492444 -0.837319 1.491224 -0.022823 0.016006 516955.000000 0 0 1
-27.198482 31.971484 4.101761 42.175320 -0.865890 1.473387 -0.010555 0.007221 984599.000000 0 0 1
-26.542932 33.177884 3.336661 42.619626 -0.896044 1.492427 -0.008376 0.001344 -333235.000000 0 0 1
-25.873542 32.715784 2.165561 41.766641 -0.901655 1.518924 -0.018524 0.004505 142231.000000 0 0 1
-25.304042 33.759784 1.395661 42.213332 -0.927595 1.537728 -0.012261 -0.004251 -788035.000000 0 0 1
-24.009222 34.412284 1.823761 41.999692 -0.961620 1.527359 -0.013617 -0.007348 -658133.000000 0 0 1
-22.817722 33.718084 1.469661 40.739631 -0.975866 1.534714 -0.012037 -0.008260 404060.000000 0 0 1
-21.726622 34.234984 2.260361 40.610214 -1.005300 1.515108 -0.005281 -0.014957 811736.000000 0 0 1
-20.354422 33.805484 1.670361 39.495612 -1.028831 1.528491 -0.002019 -0.014221 148006.000000 0 0 1
-20.041522 34.399284 0.410061 39.813835 -1.043258 1.560497 -0.004525 -0.017859 -579667.000000 0 0 1
-18.669422 34.335184 0.167461 39.082991 -1.072772 1.566512 0.000129 -0.017623 -648030.000000 0 0 1
-18.201722 -33.866130 -1.034539 38.461510 1.077631 1.597698 0.003862 -0.014534 -224026.000000 0 0 1
-18.382022 -32.471330 -0.908339 37.324404 1.055676 1.595135 -0.002112 -0.017297 502496.000000 0 0 1
-17.553722 -31.880930 0.129561 36.394281 1.067491 1.567236 0.000518 -0.013519 -55668.700000 0 0 1
-17.308022 -30.376830 0.168161 34.962090 1.052896 1.565987 0.007337 -0.010360 -203628.000000 0 0 1
-16.428322 -29.941330 -0.859739 34.163023 1.068964 1.595965 0.022685 -0.006372 213752.000000 0 0 1
-16.456422 -28.535030 -0.846239 32.951144 1.047678 1.596481 0.012344 -0.003594 -33346.800000 0 0 1
-15.534222 -27.923930 -1.928839 32.012159 1.063125 1.631086 0.015366 0.005839 -398.569000 0 0 1
-15.935722 -28.194530 -3.312039 32.555313 1.056354 1.672708 0.016593 0.002494 -308610.000000 0 0 1
-15.035922 -27.608630 -4.197339 31.716448 1.072101 1.703525 0.020219 0.007422 -313186.000000 0 0 1
-15.511222 -27.721330 -5.683939 32.270378 1.060657 1.747855 0.035226 -0.005373 -120709.000000 0 0 1
-16.536222 -26.784730 -5.866339 32.020030 1.017699 1.755045 0.032817 -0.001198 -730796.000000 0 0 1
-16.981422 -26.729030 -7.180239 32.470996 1.004812 1.793767 0.038752 -0.010686 428995.000000 0 0 1
-17.844822 -25.426630 -7.344439 31.920088 0.958852 1.802965 0.023967 -0.002949 204258.000000 0 0 1
-17.057022 -24.314930 -7.019239 30.519298 0.959062 1.802867 0.017677 0.008571 27906.600000 0 0 1
-17.621722 -23.092530 -7.444339 29.986801 0.918969 1.821674 -0.007357 0.011339 -222236.000000 0 0 1
-16.567922 -22.010730 -7.223239 28.480581 0.925557 1.827217 -0.000384 0.012853 731685.000000 0 0 1
-15.522122 -22.113630 -8.231839 28.243797 0.958779 1.866545 0.025840 0.002182 176579.000000 0 0 1
-14.396522 -21.388630 -7.778039 26.930118 0.978358 1.863794 0.032523 -0.003708 470270.000000 0 0 1
-13.320322 -21.182130 -8.862639 26.545433 1.009435 1.911199 0.037132 -0.001542 527293.000000 0 0 1
-13.919322 -20.267730 -9.799739 26.468156 0.969003 1.950071 0.052811 -0.001430 478847.000000 0 0 1
-13.034822 -20.091630 -10.906239 26.315893 0.995287 1.998119 0.052489 -0.001598 272567.000000 0 0 1
-13.626722 -19.290730 -12.064939 26.521361 0.955797 2.043072 0.066634 -0.001637 434827.000000 0 0 1
-14.831622 -19.807730 -12.662639 27.796864 0.928077 2.043777 0.050213 0.011657 473382.000000 0 0 1
-15.030222 -19.077430 -13.817539 27.942446 0.903506 2.088056 0.051900 0.001417 714791.000000 0 0 1
-16.154622 -19.703930 -14.758039 29.445142 0.884058 2.095787 0.057158 0.000571 -1377.590000 0 0 1
-17.391522 -19.798630 -14.132839 29.902976 0.850032 2.063061 0.045921 0.000433 -391533.000000 0 0 1
-18.411822 -20.136630 -15.078539 31.174371 0.830112 2.075655 0.020465 0.003501 -49243.900000 0 0 1
-19.815522 -20.103630 -14.472739 31.721776 0.792615 2.044561 -0.010841 0.014414 -221888.000000 0 0 1
-20.795322 -20.686330 -15.318239 33.091058 0.782771 2.052074 -0.021554 0.008141 -74157.100000 0 0 1
-22.102222 -20.377530 -14.856939 33.533276 0.744820 2.029795 -0.049201 0.017862 -148624.000000 0 0 1
-23.084322 -20.824530 -15.951839 34.942927 0.733978 2.044866 -0.046555 0.014874 -584004.000000 0 0 1
-22.935122 -20.108730 -17.178439 35.006851 0.719829 2.083708 -0.037000 -0.004967 70883.400000 0 0 1
-23.822122 -20.571830 -18.165239 36.341018 0.712314 2.094228 -0.030547 -0.006086 -159799.000000 0 0 1
-23.831922 -19.811630 -19.485539 36.608024 0.693541 2.132082 -0.018081 -0.011592 -577891.000000 0 0 1
-22.634122 -19.848730 -20.200639 36.253847 0.719927 2.161806 -0.015854 -0.016858 -269113.000000 0 0 1
-22.815322 -19.210330 -21.423539 36.722524 0.699827 2.193692 -0.011526 -0.022037 -1563360.000000 0 0 1
-21.580022 -18.833030 -22.129139 36.195016 0.717530 2.228608 -0.015537 -0.006455 -1474620.000000 0 0 1
-20.756822 -19.908430 -22.493439 36.512273 0.764538 2.234516 -0.009923 -0.018712 144978.000000 0 0 1
-19.667322 -19.381130 -23.262939 36.105347 0.778069 2.270914 -0.006208 -0.023901 8028.550000 0 0 1
-18.358722 -20.166030 -23.177339 35.789670 0.832277 2.275225 0.016158 -0.021044 -491926.000000 0 0 1
-18.315022 -21.340230 -23.992839 36.966225 0.861538 2.277128 0.009532 -0.024159 -865460.000000 0 0 1
-17.163422 -22.049630 -23.738439 36.664462 0.909366 2.275031 0.011792 -0.012742 -878508.000000 0 0 1
-17.136722 -23.357930 -24.528439 37.959248 0.937837 2.273362 0.015314 -0.014829 -306977.000000 0 0 1
-16.915222 -23.129330 -25.886879 38.616333 0.939350 2.305491 0.012816 -0.020159 157411.000000 0 0 1
-17.470322 -24.157530 -26.655009 39.991098 0.944680 2.300332 0.016138 -0.022476 -558162.000000 0 0 1
-17.376922 -23.909330 -28.146729 40.814849 0.942320 2.331760 0.023889 -0.015529 -349848.000000 0 0 1
-16.025322 -23.918230 -28.600729 40.581947 0.980486 2.352888 0.016757 -0.011249 350244.000000 0 0 1
-15.820322 -23.779130 -29.946629 41.382729 0.983739 2.379873 0.034732 -0.015676 -903170.000000 0 0 1
-14.351322 -23.650630 -30.308289 41.035413 1.025388 2.401771 0.003653 -0.016912 -472563.000000 0 0 1
-13.531522 -24.770330 -30.021689 41.206470 1.070814 2.387024 0.016886 -0.016330 227074.000000 0 0 1
-12.326222 -24.741830 -30.778639 41.369295 1.108595 2.409829 0.044660 -0.016064 133279.000000 0 0 1
-11.405622 -25.885330 -30.303489 41.454071 1.155769 2.390603 0.032909 -0.010808 -1128050.000000 0 0 1
-11.657522 -27.153730 -30.884079 42.743997 1.165276 2.378260 0.030232 -0.001529 34446.600000 0 0 1
-10.705622 -28.151430 -30.638769 42.963328 1.207399 2.364760 0.026467 0.000657 -299633.000000 0 0 1
-9.368522 -28.042030 -31.398029 43.127264 1.248366 2.386243 0.036046 -0.001243 -31111.900000 0 0 1
-8.603322 -26.910730 -30.837439 41.822867 1.261367 2.399912 0.028250 -0.009342 -384879.000000 0 0 1
-7.656322 -26.573830 -31.784769 42.131452 1.290278 2.425565 0.027204 -0.004293 -734275.000000 0 0 1
-6.830822 -25.302330 -31.474489 40.957435 1.307114 2.447240 0.035040 -0.008103 -566429.000000 0 0 1
-7.490622 -24.099330 -31.468869 40.338280 1.269440 2.465661 0.043399 -0.013634 45291.500000 0 0 1
-8.338022 -23.739530 -30.371829 39.440283 1.233027 2.449749 0.037076 -0.016308 197201.000000 0 0 1
-8.763922 -22.240530 -30.344449 38.629433 1.195428 2.474343 0.041489 -0.025655 83731.300000 0 0 1
-9.574622 -21.865630 -31.458779 39.489669 1.158063 2.492501 0.042615 -0.025651 319006.000000 0 0 1
-10.066122 -20.527430 -31.256729 38.725771 1.114879 2.510071 0.041481 -0.022738 99710.500000 0 0 1
-10.812322 -20.035530 -32.497229 39.678693 1.075928 2.530479 0.034336 -0.020837 -90601.300000 0 0 1
-11.357322 -18.759430 -32.386129 39.112228 1.026402 2.546383 0.027832 -0.022007 -513067.000000 0 0 1
-12.082622 -18.429930 -33.471089 40.074504 0.990496 2.559332 0.036618 -0.023023 -574684.000000 0 0 1
-12.923322 -17.108430 -33.381169 39.673834 0.923863 2.570647 0.048146 -0.022368 152570.000000 0 0 1
-12.257822 -15.848130 -33.564139 39.089243 0.912452 2.603434 0.050509 -0.021932 57198.100000 0 0 1
-11.433922 -15.440530 -32.489309 37.745195 0.933394 2.607544 0.037826 -0.015373 -45200.600000 0 0 1
-11.120122 -13.946830 -32.528039 37.097770 0.897690 2.640003 0.037613 -0.018365 -228398.000000 0 0 1
-10.224122 -13.476130 -33.511809 37.539048 0.921761 2.674139 0.031427 -0.018458 30011.300000 0 0 1
-10.663722 -13.603430 34.173706 38.296350 0.905950 0.468273 0.035357 -0.019872 -288824.000000 0 0 1
-11.403822 -12.384230 33.601264 37.582725 0.826589 0.464465 0.029709 -0.021015 336227.000000 0 0 1
-12.658122 -12.096830 34.190106 38.412559 0.762728 0.473284 0.024789 -0.012105 -400661.000000 0 0 1
-13.399222 -11.175030 33.473960 37.748198 0.695135 0.480487 0.013292 -0.013193 238492.000000 0 0 1
-14.510122 -10.489830 34.270176 38.665555 0.625951 0.481453 0.033498 -0.011737 304208.000000 0 0 1
-13.876222 -9.655030 -33.872019 37.856081 0.607899 2.678685 0.030170 -0.011254 556055.000000 0 0 1
-14.894622 -9.081430 -33.044929 37.366957 0.547530 2.655865 0.030542 -0.017923 656621.000000 0 0 1
-14.309122 -8.271030 -31.845959 35.879326 0.524105 2.662873 0.028201 -0.024549 -319782.000000 0 0 1
-13.789222 -6.992930 -32.143589 35.668670 0.469335 2.693261 0.021216 -0.023256 167773.000000 0 0 1
-14.752922 -5.967030 -32.364019 36.064996 0.384349 2.684593 0.020914 -0.019530 -75257.100000 0 0 1
-15.126022 -5.166030 -31.102159 34.968968 0.329112 2.666875 0.032337 -0.024490 -157047.000000 0 0 1
-15.591722 -6.056430 -30.092319 34.428619 0.370500 2.634272 0.024085 -0.026753 -184072.000000 0 0 1
-15.988722 -5.431530 -28.890459 33.463404 0.327479 2.612658 0.041879 -0.027959 232507.000000 0 0 1
-14.889522 -4.739130 -28.008759 32.072540 0.308148 2.632720 0.033570 -0.027356 231356.000000 0 0 1
-14.450522 -3.635530 -28.726209 32.360930 0.246470 2.663082 0.033656 -0.022722 -909912.000000 0 0 1
-13.161422 -3.298530 -28.320969 31.403513 0.245563 2.694808 0.025166 -0.016605 -477900.000000 0 0 1
-12.752622 -2.014530 -29.015849 31.758577 0.156675 2.722942 -0.003385 0.002179 -134300.000000 0 0 1
-12.752422 -2.104530 -30.386179 33.020800 0.163556 2.739421 0.003032 -0.005655 152523.000000 0 0 1
-12.657322 -0.772530 -30.959059 33.455462 0.060959 2.752837 0.002223 -0.003303 -35043.100000 0 0 1
-12.794822 -0.768530 -32.520749 34.955647 0.059994 2.766144 -0.009374 -0.004199 304260.000000 0 0 1
-14.082922 -1.179530 -32.984169 35.884194 0.083561 2.736799 0.001684 -0.011600 783128.000000 0 0 1
-13.991422 -1.276530 -34.404514 37.162616 0.090985 2.753898 -0.015931 -0.004798 112330.000000 0 0 1
-15.341522 -1.719530 34.029582 37.367520 0.111618 0.425887 -0.007820 -0.009183 81890.500000 0 0 1
-15.335522 -2.107530 32.645287 36.129415 0.136573 0.442777 -0.007112 -0.019127 -258247.000000 0 0 1
-16.617022 -1.994530 32.096127 36.197582 0.119458 0.480654 -0.008951 -0.009999 -302196.000000 0 0 1
-16.600722 -2.083530 30.560197 34.840360 0.124856 0.500903 -0.005190 -0.006346 -249073.000000 0 0 1
-16.149822 -0.884530 30.015297 34.095706 0.054716 0.494250 -0.005383 0.007709 -74138.900000 0 0 1
-16.220522 -0.764530 28.622377 32.907906 0.047099 0.516056 -0.005655 0.000331 -193270.000000 0 0 1
-15.565322 0.555470 28.091027 32.119987 -0.035671 0.506258 -0.008142 0.005007 -136582.000000 0 0 1
-16.084822 1.813470 28.531857 32.803613 -0.112270 0.516044 -0.013289 0.008206 -187668.000000 0 0 1
-17.446922 2.014470 28.217557 33.236782 -0.114954 0.556733 -0.013365 0.007691 -146944.000000 0 0 1
-17.683922 2.694470 26.857127 32.268971 -0.151205 0.587571 -0.004535 0.003915 -584882.000000 0 0 1
-17.522322 4.081470 26.764387 32.249381 -0.228849 0.591833 -0.012094 0.010545 89523.600000 0 0 1
-17.765222 4.599470 25.473737 31.395374 -0.253340 0.624279 -0.007828 0.016908 -433572.000000 0 0 1
-17.778422 6.198470 25.463357 31.668215 -0.335473 0.636692 -0.015926 0.012492 265320.000000 0 0 1
-16.539822 6.885470 25.446777 31.120955 -0.394476 0.613438 -0.024452 0.010045 -161874.000000 0 0 1
-15.957422 6.924470 24.173977 29.782021 -0.409414 0.623745 -0.012411 0.011085 -248610.000000 0 0 1
-14.794522 7.903470 23.970177 29.255975 -0.490644 0.610562 -0.001145 0.006636 119429.000000 0 0 1
-13.682722 7.639470 24.834107 29.365136 -0.509216 0.562920 -0.009069 0.006333 575956.000000 0 0 1
-12.631022 8.431470 24.260297 28.621572 -0.588594 0.559307 0.011824 0.002924 487331.000000 0 0 1
-11.184022 8.303470 24.816227 28.458304 -0.638645 0.511481 0.022392 0.009753 633317.000000 0 0 1
-10.273922 9.146470 24.074197 27.726852 -0.727408 0.519106 0.024051 0.002049 294743.000000 0 0 1
-9.040422 9.275470 24.736827 27.922646 -0.798230 0.482354 0.013629 -0.004199 -389049.000000 0 0 1
-9.005322 10.642470 25.487617 29.051275 -0.868531 0.500522 0.004198 -0.016356 -533512.000000 0 0 1
-9.888522 10.721470 26.602937 30.338903 -0.825791 0.501507 -0.008723 -0.007635 433425.000000 0 0 1
-10.101322 12.000470 27.199567 31.398478 -0.871115 0.523109 -0.011666 -0.004988 -487328.000000 0 0 1
-10.921822 13.059470 26.408397 31.420365 -0.874301 0.572616 -0.017372 -0.016799 313238.000000 0 0 1
-12.306622 12.782470 26.240007 31.676212 -0.804362 0.594583 -0.014824 -0.018905 414517.000000 0 0 1
-12.561422 11.936470 25.122637 30.519101 -0.759893 0.603812 -0.008567 -0.011500 429670.000000 0 0 1
-14.074122 11.674470 24.759687 30.780127 -0.692471 0.636123 -0.017599 -0.015861 932885.000000 0 0 1
-14.741122 12.787470 24.229147 31.110635 -0.714549 0.678036 0.008429 -0.019207 304172.000000 0 0 1
-16.063422 12.639470 23.719677 31.311544 -0.666670 0.711263 0.019071 -0.014030 501942.000000 0 0 1
-16.226622 12.158470 22.273677 30.120563 -0.643048 0.738493 0.016419 -0.004734 -317990.000000 0 0 1
-16.057522 10.779470 22.137777 29.395954 -0.591206 0.718051 0.007571 0.003093 103283.000000 0 0 1
-15.987322 10.508470 20.778677 28.244925 -0.581490 0.744155 -0.004224 0.002161 -368112.000000 0 0 1
-16.341022 9.034470 20.573777 27.783645 -0.505044 0.736983 -0.002471 -0.005361 568202.000000 0 0 1
-17.704022 8.719470 20.853677 28.711276 -0.457640 0.757838 -0.007460 0.005266 205022.000000 0 0 1
-17.955922 7.324470 20.957577 28.553161 -0.387310 0.746626 -0.015448 0.011831 -977896.000000 0 0 1
-19.417322 7.072470 21.200577 29.606024 -0.349300 0.772612 -0.013617 0.015028 -1137470.000000 0 0 1
-19.697022 7.441470 22.525477 30.834157 -0.361220 0.751689 -0.013999 0.014650 120280.000000 0 0 1
-21.037322 7.877470 22.691677 31.930168 -0.358290 0.780352 -0.014320 0.017802 -154160.000000 0 0 1
-21.370822 8.540470 24.022517 33.267596 -0.380189 0.763964 -0.002503 0.008219 -599040.000000 0 0 1
-21.058122 9.924470 24.117687 33.520179 -0.440416 0.767718 -0.002828 0.003193 851933.000000 0 0 1
-19.692322 10.340470 23.997687 32.720052 -0.483527 0.747450 -0.009134 0.000092 324324.000000 0 0 1
-18.661222 9.913470 25.029657 32.756706 -0.488321 0.701139 -0.014622 -0.003806 -705272.000000 0 0 1
-18.889022 10.472470 26.310427 34.039776 -0.506231 0.687347 -0.008159 0.000183 289014.000000 0 0 1
-17.989022 9.905470 27.234077 34.108916 -0.503334 0.646089 -0.003509 0.000702 -80866.900000 0 0 1
-30.406662 -14.247916 21.079977 39.647618 0.438196 1.010209 0.021784 0.000044 88720.800000 0 0 1
-29.616322 -15.396816 21.312577 39.603212 0.479422 1.002552 0.019195 0.004748 186121.000000 0 0 1
-30.134202 -16.529716 20.608377 40.075015 0.501719 1.030669 0.010207 0.012616 260224.000000 0 0 1
-29.765822 -16.627716 19.048777 39.055614 0.509435 1.061303 -0.002787 0.011734 90438.400000 0 0 1
-30.214812 -15.556916 18.303477 38.600127 0.475478 1.076762 0.007589 0.005040 -540376.000000 0 0 1
-29.537072 -15.586716 17.137777 37.537817 0.485561 1.096686 0.018483 0.002895 -1352040.000000 0 0 1
-30.106482 -14.459516 16.177277 37.110405 0.447747 1.119733 0.006575 0.001546 759383.000000 0 0 1
-31.451942 -14.693616 15.746877 38.119433 0.437046 1.144948 0.015315 0.001587 1416640.000000 0 0 1
-32.553112 -14.493116 16.663877 39.337518 0.418867 1.133366 0.010445 0.006077 167549.000000 0 0 1
-32.826582 -13.025116 17.180377 39.273445 0.377732 1.118029 0.001729 0.008115 -631996.000000 0 0 1
-33.931732 -12.953616 18.054377 40.560068 0.364680 1.109480 -0.011544 0.007830 89555.900000 0 0 1
-34.218883 -11.583916 18.325877 40.508725 0.326415 1.101349 -0.003652 0.010170 105917.000000 0 0 1
35.008281 -11.542316 19.292677 41.605435 -0.318479 1.088623 -0.012469 0.018715 -23939.700000 0 0 1
-35.037628 -12.084116 20.551977 42.379771 0.332115 1.064493 -0.027118 0.017639 188989.000000 0 0 1
34.495838 -11.740516 21.599877 42.359854 -0.328049 1.035712 -0.030432 0.015909 -1342200.000000 0 0 1
34.938377 -12.276216 22.977277 43.581544 -0.337893 1.015465 -0.030640 0.015296 -382220.000000 0 0 1
-34.316367 -11.730716 23.494677 43.211371 0.329387 0.995939 -0.027817 0.012498 -123108.000000 0 0 1
-33.164492 -12.239416 22.829277 42.081620 0.353546 0.997386 -0.013693 0.005158 -1256520.000000 0 0 1
-31.958442 -11.304816 22.903677 40.911115 0.339998 0.976604 0.001982 -0.000958 -570417.000000 0 0 1
-32.081502 -10.072716 22.224577 40.306503 0.304226 0.986768 0.004989 0.003738 -72739.600000 0 0 1
-30.843962 -9.398816 22.256477 39.179567 0.295783 0.966646 0.017709 0.001407 -220021.000000 0 0 1
-30.941552 -8.018316 21.548977 38.549078 0.253566 0.977616 0.007761 -0.008796 44776.400000 0 0 1
-31.227472 -7.931516 20.162777 38.007914 0.248732 1.011619 0.009443 -0.000308 -420359.000000 0 0 1
-32.475232 -8.372716 19.758977 38.925059 0.252324 1.038381 -0.000451 0.003978 -1147130.000000 0 0 1
-32.565362 -8.363016 18.215377 38.239283 0.251375 1.074295 0.006982 -0.000494 -631999.000000 0 0 1
-33.840722 -8.504116 17.664877 39.109619 0.246200 1.102153 -0.014198 0.004419 -202060.000000 0 0 1
-33.810642 -8.255916 16.266177 38.417550 0.239495 1.133596 0.000760 0.001188 -913633.000000 0 0 1
35.206425 -8.201116 15.758177 39.434386 -0.228862 1.159710 -0.010159 0.006855 -913015.000000 0 0 1
34.508101 -9.438016 15.871377 39.138035 -0.266973 1.153245 -0.018314 0.022172 -283496.000000 0 0 1
33.156393 -9.074916 16.007577 37.920219 -0.267158 1.134994 -0.014545 0.014817 -517304.000000 0 0 1
32.221803 -10.274716 15.814177 37.335005 -0.308682 1.133408 -0.018611 0.014618 -502609.000000 0 0 1
32.224653 -11.144516 16.939477 38.073277 -0.332962 1.109714 -0.018880 0.016798 -749827.000000 0 0 1
31.070053 -11.876416 17.034077 37.370540 -0.365109 1.097508 -0.014970 0.006978 -871711.000000 0 0 1
30.754683 -12.358516 18.475577 37.946415 -0.382093 1.062275 -0.012188 -0.001866 -236231.000000 0 0 1
31.564613 -13.397416 18.940977 39.173667 -0.401400 1.066133 -0.014330 0.008843 -119131.000000 0 0 1
31.480633 -13.469916 20.328077 39.820844 -0.404307 1.035044 -0.017873 0.008614 -331008.000000 0 0 1
32.054473 -14.738516 20.835977 40.973785 -0.430970 1.037332 -0.028567 0.023932 -378268.000000 0 0 1
32.146603 -14.747016 22.257477 41.788442 -0.430100 1.009100 -0.033193 0.023928 -73995.400000 0 0 1
32.262543 -16.097916 22.703877 42.608457 -0.462820 1.008832 -0.027021 0.041986 -87783.500000 0 0 1
32.515863 -16.111116 24.243727 43.641812 -0.460029 0.981813 -0.025390 0.028583 -228645.000000 0 0 1
33.742963 -15.515516 24.536237 44.512310 -0.430986 0.986966 -0.020522 0.022486 -407133.000000 0 0 1
33.882853 -15.409016 25.901737 45.347387 -0.426816 0.962848 -0.021544 0.022460 342352.000000 0 0 1
35.111403 -14.518616 26.304007 46.211488 -0.392091 0.965253 -0.010626 0.011958 -824804.000000 0 0 1
-34.091959 -15.065916 26.040387 45.468068 0.416114 0.960979 -0.012699 0.010909 -1161620.000000 0 0 1
-33.155182 -14.085516 26.419447 44.672755 0.401732 0.938003 -0.015028 -0.000888 -622265.000000 0 0 1
-31.704402 -14.528616 26.259237 43.655439 0.429695 0.925405 0.016532 -0.008474 -809505.000000 0 0 1
-31.210732 -14.591116 24.927027 42.524900 0.437314 0.944467 0.009829 -0.004234 116491.000000 0 0 1
-29.928602 -15.168316 24.792017 41.718619 0.469086 0.934442 0.041625 -0.017545 81853.100000 0 0 1
-29.595142 -16.653916 25.182947 42.277727 0.512560 0.932715 0.048327 -0.017006 -710462.000000 0 0 1
-29.753782 -16.977016 26.546427 43.338429 0.518509 0.911529 0.051903 -0.016316 177621.000000 0 0 1
-29.283072 -18.248416 26.908617 43.755876 0.557284 0.908446 0.055834 -0.019795 -238180.000000 0 0 1
-28.841612 -18.286816 28.410677 44.423111 0.565076 0.876887 0.048849 -0.026216 233260.000000 0 0 1
-27.564962 -17.678016 28.577917 43.463050 0.570250 0.853271 0.051157 -0.025000 203270.000000 0 0 1
-26.988642 -18.117416 29.792567 44.093362 0.591202 0.828923 0.059926 -0.026520 537173.000000 0 0 1
-25.805742 -17.156816 30.194347 43.266514 0.586740 0.798379 0.038918 -0.023769 246892.000000 0 0 1
-26.128122 -15.904216 30.799027 43.407406 0.546793 0.781960 0.046849 -0.035708 -93169.500000 0 0 1
-24.990022 -15.075516 30.749627 42.394716 0.542814 0.759301 0.033385 -0.031496 -447777.000000 0 0 1
-25.160022 -13.753316 31.442947 42.553958 0.500255 0.739366 0.027369 -0.022598 -154740.000000 0 0 1
-24.567222 -13.804716 32.727917 43.188368 0.511946 0.710870 0.018427 -0.019688 210179.000000 0 0 1
-24.407222 -12.487316 33.258841 43.102158 0.472903 0.689399 0.009879 -0.005963 -453319.000000 0 0 1
-23.682222 -12.363416 -34.421009 43.571867 0.481135 2.481577 0.007178 -0.001375 -835296.000000 0 0 1
-22.341622 -12.648116 -34.274435 42.823590 0.515138 2.498698 -0.013824 0.001495 -769987.000000 0 0 1
-21.901422 -13.988416 -34.502459 43.194534 0.568390 2.496043 -0.012216 -0.003364 -497561.000000 0 0 1
-21.917822 -14.825116 -33.202369 42.456711 0.594708 2.468711 -0.011217 -0.004293 -1056990.000000 0 0 1
-20.921422 -14.462216 -32.304289 41.114824 0.604838 2.474638 -0.022889 0.000041 -375229.000000 0 0 1
-20.914822 -15.272416 -31.189649 40.539742 0.630721 2.448635 -0.007490 -0.001378 412270.000000 0 0 1
-19.606922 -15.239216 -30.321819 39.192829 0.660706 2.455390 0.001943 0.001628 517775.000000 0 0 1
-19.362322 -14.137916 -29.445369 37.971173 0.630693 2.458250 0.001909 -0.000382 298709.000000 0 0 1
-20.119822 -14.232116 -28.234459 37.477261 0.615654 2.423977 0.002003 0.003037 144540.000000 0 0 1
-19.779322 -13.067616 -27.247919 36.116939 0.583840 2.425591 0.005019 0.001892 -365496.000000 0 0 1
-18.502422 -13.098016 -26.690279 35.018119 0.616014 2.437478 0.017979 -0.010749 -467539.000000 0 0 1
-18.167622 -11.896516 -25.999449 33.875669 0.579756 2.445723 0.020513 -0.010172 602538.000000 0 0 1
-16.879822 -12.018616 -25.120889 32.564315 0.618742 2.451872 0.026868 -0.020713 -358296.000000 0 0 1
-17.013022 -12.885816 -24.020439 32.132051 0.648226 2.415168 0.024351 -0.013205 404079.000000 0 0 1
-15.872422 -13.053716 -23.142939 30.950427 0.688260 2.415451 0.016443 -0.018157 816301.000000 0 0 1
-14.696922 -13.849316 -23.796239 31.210000 0.755715 2.437896 0.006932 -0.016190 -328041.000000 0 0 1
-13.893622 -13.135416 -24.720439 31.251752 0.757354 2.483254 0.018215 -0.018837 80742.600000 0 0 1
-13.470422 -13.892316 -25.843969 32.285592 0.800816 2.498892 0.019488 -0.021092 433848.000000 0 0 1
-12.384322 -13.242916 -26.793749 32.351990 0.818889 2.546675 0.031103 -0.014183 201896.000000 0 0 1
-12.783522 -12.126716 -27.508409 32.667848 0.759037 2.571894 0.047406 -0.014732 -493398.000000 0 0 1
-11.710622 -11.450316 -28.102449 32.526852 0.774160 2.613911 0.046684 -0.016757 -592362.000000 0 0 1
-11.654722 -11.508216 -29.644799 33.868654 0.779073 2.636826 0.033063 -0.017925 -180983.000000 0 0 1
-11.096422 -10.396816 -30.243919 33.851426 0.752860 2.675723 0.041984 -0.019059 -113311.000000 0 0 1
-11.201322 -10.538516 -31.588729 35.133713 0.754920 2.688506 0.040154 -0.012535 -120353.000000 0 0 1
-10.836922 -9.274816 -32.375959 35.378861 0.707882 2.726606 0.027141 -0.004551 526842.000000 0 0 1
-9.459822 -8.934016 -32.175659 34.707030 0.756820 2.757302 0.004089 0.000634 411961.000000 0 0 1
-9.053222 -7.702716 -32.764999 34.854524 0.704973 2.793574 -0.006106 0.003431 135795.000000 0 0 1
-7.498322 -7.551516 -32.730979 34.417543 0.788933 2.827241 0.009362 0.005288 525089.000000 0 0 1
-6.891522 -7.414716 -31.433559 33.023321 0.821953 2.830042 -0.001113 -0.000526 -35839.500000 0 0 1
-7.325522 -6.284816 -30.695879 32.177620 0.709082 2.836940 -0.009922 0.011185 -774379.000000 0 0 1
-6.575122 -4.998116 -31.067399 32.146488 0.649969 2.881757 -0.004543 0.011331 262547.000000 0 0 1
-5.240022 -4.941316 -30.571749 31.408698 0.756068 2.910222 0.018943 0.005039 236727.000000 0 0 1
-4.679022 -3.722016 -30.950639 31.522829 0.671972 2.950769 0.018774 -0.002956 -234374.000000 0 0 1
-3.186322 -3.490416 -30.657179 31.019321 0.830912 2.988638 0.008457 -0.000132 -495742.000000 0 0 1
-2.366222 -4.348616 -31.459939 31.847092 1.072469 2.985507 0.006014 -0.006535 1694570.000000 0 0 1
-0.939422 -4.313216 -31.152599 31.463801 1.356345 3.000829 0.011132 -0.008167 1710960.000000 0 0 1
-0.157822 -3.031316 -31.439689 31.585881 1.518779 3.045344 0.001298 -0.001082 -1063710.000000 0 0 1
-0.103922 -2.069816 -30.420059 30.490571 1.520630 3.073571 0.000118 -0.008111 -322699.000000 0 0 1
0.467678 -0.936616 -30.905999 30.923725 -1.107687 3.107732 0.011138 0.010380 -157831.000000 0 0 1
0.821678 0.116684 -29.791259 29.802817 0.141063 3.113742 0.013940 0.000380 345768.000000 0 0 1
-0.314222 0.745084 -29.220459 29.231646 -1.171701 3.113926 0.004652 0.001798 -99974.500000 0 0 1
0.083978 1.877684 -28.569019 28.630781 1.526102 3.075897 0.018160 -0.004646 -412236.000000 0 0 1
-1.085222 2.768984 -28.169879 28.326438 -1.197274 3.036407 0.013112 0.001349 -320016.000000 0 0 1
-1.826522 3.226084 -29.287159 29.520866 -1.055621 3.015679 -0.001135 0.000800 -512270.000000 0 0 1
-2.787922 4.153384 -28.931809 29.361075 -0.979633 2.970385 0.037864 -0.007972 -480796.000000 0 0 1
-3.925922 4.179884 -29.969199 30.512902 -0.816719 2.952532 0.044547 -0.010706 -201470.000000 0 0 1
-3.518422 4.801084 -31.186469 31.749418 -0.938369 2.953000 0.040042 -0.013383 -119235.000000 0 0 1
-4.585822 4.997884 -32.061439 32.771092 -0.828368 2.933105 0.053662 -0.012739 -697299.000000 0 0 1
-4.175622 5.860784 -33.319159 34.087402 -0.951751 2.928883 0.048777 -0.006472 109354.000000 0 0 1
-3.731722 5.117384 -34.441218 35.018722 -0.940725 2.959731 0.061399 -0.008855 95659.700000 0 0 1
-2.522722 4.410384 -34.293903 34.668248 -1.051223 2.994505 0.042049 -0.003719 -766981.000000 0 0 1
-2.015422 3.670784 33.519247 33.779823 -1.068687 0.124289 0.025582 -0.005914 -1177250.000000 0 0 1
-2.835422 2.706284 33.031773 33.263517 -0.762099 0.118110 0.020790 -0.005789 -690734.000000 0 0 1
-2.437922 2.021584 31.835637 31.992781 -0.692308 0.099155 0.029685 -0.008354 -330691.000000 0 0 1
-2.405522 3.004084 30.611197 30.852170 -0.895598 0.125066 0.033033 -0.012770 -620081.000000 0 0 1
-3.599522 3.686884 30.447987 30.880893 -0.797387 0.167639 0.022397 -0.008497 -581676.000000 0 0 1
-3.474022 4.502084 29.268767 29.816074 -0.913584 0.191899 0.029331 -0.016371 55698.300000 0 0 1
-4.686622 5.403184 28.954437 29.824792 -0.856298 0.242179 0.027346 -0.011027 -692.738000 0 0 1
-4.716122 6.054684 27.665837 28.710617 -0.909041 0.270603 0.027178 0.000340 -738529.000000 0 0 1
-5.821522 6.890184 27.592757 29.029726 -0.869270 0.315955 0.015045 0.003534 -747719.000000 0 0 1
-5.998822 7.648984 26.238157 27.980952 -0.905724 0.354803 0.013379 0.001290 405110.000000 0 0 1
-4.832122 8.431084 25.994067 27.751109 -1.050367 0.357754 0.008164 0.001165 550655.000000 0 0 1
-5.178922 9.315284 24.925847 27.108921 -1.063389 0.404065 0.017505 -0.006875 116181.000000 0 0 1
-4.314522 10.596884 24.937747 27.437206 -1.184141 0.430152 0.018137 -0.011573 -575034.000000 0 0 1
-4.624122 11.483684 23.869577 26.888923 -1.187991 0.478448 0.022338 -0.011998 61018.200000 0 0 1
-4.212422 12.796384 24.102117 27.611663 -1.252781 0.509689 0.006408 -0.001932 -786077.000000 0 0 1
-2.707322 13.130984 24.125277 27.600386 -1.367467 0.507233 -0.002337 -0.002552 -3426.960000 0 0 1
-1.866722 12.574384 25.151187 28.181234 -1.423418 0.467983 0.010548 -0.003770 305995.000000 0 0 1
-2.149422 13.064684 26.478137 29.604015 -1.407736 0.463685 0.019790 -0.005282 -488910.000000 0 0 1
-1.242922 12.457084 27.601687 30.308033 -1.471349 0.425808 0.026635 -0.004574 149302.000000 0 0 1
0.090678 12.888984 27.503417 30.373871 1.563761 0.438249 0.022160 0.001016 -510494.000000 0 0 1
0.819878 12.520584 28.641347 31.269217 1.505407 0.412903 0.024932 -0.008331 -621461.000000 0 0 1
2.295078 12.875084 28.568137 31.419319 1.394392 0.429308 0.020657 -0.008073 -563388.000000 0 0 1
2.614078 14.223184 28.745957 32.178601 1.389035 0.466106 0.017073 -0.008864 -598076.000000 0 0 1
3.982378 14.396784 28.558147 32.228783 1.300929 0.481920 0.013046 -0.008617 -712621.000000 0 0 1
4.547878 15.834484 28.773787 33.156370 1.291111 0.519997 0.009427 -0.006586 -361412.000000 0 0 1
4.465178 16.243284 30.109467 34.501624 1.302529 0.510097 0.013885 0.000117 488612.000000 0 0 1
3.283978 16.974484 30.443217 35.010099 1.379692 0.516495 0.001957 0.001153 133712.000000 0 0 1
3.094278 18.379284 29.868917 35.206886 1.404004 0.557873 0.014226 0.005870 -57261.400000 0 0 1
3.858278 19.441184 30.467447 36.347094 1.374883 0.576756 0.018463 0.006167 346266.000000 0 0 1
4.884878 19.919884 29.615447 36.024137 1.330316 0.605706 0.009743 0.010688 65242.700000 0 0 1
5.982278 20.758184 30.287767 37.202670 1.290210 0.619569 0.012200 0.008082 -149243.000000 0 0 1
5.574878 22.049484 30.767307 38.260765 1.323151 0.636556 0.009680 0.001319 -161023.000000 0 0 1
6.616178 22.752384 31.407157 39.342779 1.287810 0.646337 -0.004014 -0.004483 -340124.000000 0 0 1
6.762078 24.204684 30.940247 39.860899 1.298371 0.682172 -0.012715 0.003279 -268872.000000 0 0 1
7.347378 24.275984 29.675837 39.037964 1.276901 0.707208 -0.024243 0.009059 41873.800000 0 0 1
7.624978 25.599984 29.222367 39.590986 1.281312 0.740537 -0.028467 0.012248 -51290.000000 0 0 1
7.992278 25.598284 27.706157 38.558783 1.268167 0.769091 -0.021492 0.011705 -193012.000000 0 0 1
7.064378 25.007684 26.804467 37.333217 1.295482 0.769902 -0.020967 0.009152 96721.500000 0 0 1
7.484078 25.012684 25.446907 36.458069 1.280063 0.798227 -0.011226 0.006886 -462659.000000 0 0 1
28.459063 2.297384 6.985961 29.393875 0.080551 1.330833 0.014743 0.014243 65634.500000 0 0 1
28.844123 3.056784 8.119161 30.120560 0.105582 1.297865 0.006744 0.007454 470286.000000 0 0 1
27.862103 3.052084 9.175261 29.492328 0.109107 1.254439 0.007894 0.011177 92664.700000 0 0 1
28.191093 3.944684 10.418961 30.312588 0.139024 1.219924 0.007115 0.004829 16238.000000 0 0 1
27.891863 5.379384 10.277561 30.207980 0.190526 1.223638 0.006285 0.000364 222952.000000 0 0 1
28.852853 5.984784 9.442461 30.942929 0.204524 1.260693 0.016723 -0.007931 -161933.000000 0 0 1
28.524033 7.434684 9.045661 30.833731 0.254973 1.273047 0.033441 -0.014563 -133721.000000 0 0 1
27.598403 7.597384 7.965461 29.712635 0.268630 1.299393 0.032687 -0.009920 284288.000000 0 0 1
27.868623 8.921884 7.412161 30.186094 0.309831 1.322710 0.049069 -0.017315 -132631.000000 0 0 1
26.924113 9.253984 6.270261 29.152363 0.331057 1.354017 0.052368 -0.014439 -45938.700000 0 0 1
25.621103 9.612684 6.680661 28.168703 0.358934 1.331349 0.050031 -0.007819 296358.000000 0 0 1
24.878563 10.149184 5.567461 27.439852 0.387340 1.366481 0.070728 -0.015061 -731434.000000 0 0 1
23.465563 10.599784 5.762961 26.385598 0.424281 1.350608 0.037940 -0.012867 -954485.000000 0 0 1
23.374463 11.946984 6.323861 27.001614 0.472498 1.334398 0.036305 -0.011289 -363585.000000 0 0 1
22.041863 12.308784 6.489061 26.066411 0.509290 1.319207 0.037056 0.002902 -729796.000000 0 0 1
21.871763 13.785484 6.813461 26.736433 0.562392 1.313116 0.019582 0.019996 -351636.000000 0 0 1
21.814363 14.700784 5.690561 26.913973 0.592996 1.357753 0.021310 0.014903 344109.000000 0 0 1
21.682563 16.008784 6.116261 27.637354 0.635987 1.347645 0.027488 0.006494 -194655.000000 0 0 1
21.576563 17.016384 4.980661 27.926911 0.667783 1.391491 0.040369 -0.003088 -754609.000000 0 0 1
20.351163 16.786884 4.355961 26.738431 0.689717 1.407157 0.052906 -0.006862 -197157.000000 0 0 1
20.196863 17.422584 3.115461 26.854530 0.711786 1.454522 0.057458 -0.009723 -519381.000000 0 0 1
18.683263 17.374484 2.922461 25.680300 0.749117 1.456748 0.052346 -0.014523 -336474.000000 0 0 1
17.930763 18.288184 3.710661 25.879315 0.795266 1.426917 0.052154 -0.018561 -110002.000000 0 0 1
16.548463 18.120784 3.529861 24.792627 0.830719 1.427935 0.044489 -0.030237 -509050.000000 0 1 0
15.812663 19.355784 4.107661 25.329026 0.885807 1.407905 0.052806 -0.029124 -1012070.000000 0 0 1
14.469763 19.024784 4.219061 24.271731 0.920562 1.396083 0.052465 -0.036042 -1115990.000000 0 1 0
13.711263 20.099684 4.633861 24.768300 0.972142 1.382599 0.043986 -0.037080 -524353.000000 0 1 0
12.238363 19.959384 4.252561 23.795773 1.020754 1.391120 0.038578 -0.021330 -634064.000000 0 1 0
11.458563 19.140284 5.038461 22.869963 1.031361 1.348665 0.018493 -0.030042 -72081.200000 0 1 0
10.077863 19.385984 4.792961 22.368553 1.091393 1.354850 0.021900 -0.013008 243001.000000 0 1 0
9.250263 18.939584 5.999661 21.915089 1.116464 1.293487 0.013738 -0.010003 -882086.000000 0 1 0
9.049563 19.821884 7.100161 22.917547 1.142514 1.255800 0.018499 -0.006637 75217.000000 0 1 0
8.512463 19.088184 8.246161 22.468199 1.151312 1.194999 0.021372 -0.003321 293622.000000 0 1 0
7.392863 19.917884 9.007261 23.076119 1.215390 1.169808 0.022094 -0.010354 1725950.000000 0 1 0
6.158563 20.072684 8.232661 22.552544 1.273101 1.197117 0.021930 -0.020475 990569.000000 0 1 0
6.191463 21.087384 7.246561 23.141405 1.285212 1.252296 0.025465 -0.020212 5417.900000 0 1 0
4.805363 21.354684 6.537061 22.843975 1.349457 1.280578 0.015078 -0.004120 322895.000000 0 1 0
3.715463 21.702684 7.327761 23.205758 1.401242 1.249525 0.008858 -0.004450 -493680.000000 0 1 0
3.680363 22.905484 8.094861 24.570979 1.411482 1.235077 0.019882 -0.010403 -545686.000000 0 1 0
3.780063 24.167784 7.339161 25.538871 1.415644 1.279314 0.024759 -0.011319 464241.000000 0 0 1
2.550863 24.429284 6.648961 25.446129 1.466755 1.306432 0.028527 -0.011923 564457.000000 0 0 1
2.728463 25.276984 5.553261 26.023242 1.463270 1.355746 0.029810 -0.010532 -37014.300000 0 0 1
1.452063 25.452784 4.713461 25.926230 1.513809 1.387977 0.031936 -0.010694 -122460.000000 0 0 1
0.373563 26.116384 5.331361 26.657615 1.556494 1.369445 0.034353 -0.010978 -10982.900000 0 0 1
-0.583537 26.435984 4.327761 26.794239 -1.548726 1.408567 0.029873 -0.004565 647347.000000 0 0 1
-1.963137 26.903884 4.909561 27.418546 -1.497957 1.390766 0.031934 -0.010190 101927.000000 0 0 1
-2.876437 27.290284 3.954161 27.724878 -1.465783 1.427687 0.040428 -0.006299 -419935.000000 0 0 1
-3.965737 27.944784 4.577261 28.593519 -1.429824 1.410024 0.029832 -0.011095 190389.000000 0 0 1
-4.952337 28.529584 3.525961 29.170108 -1.398923 1.449624 0.034471 -0.012303 306574.000000 0 0 1
-4.392537 29.721684 2.998561 30.193778 -1.424069 1.471322 0.038435 -0.012906 -139.683000 0 0 1
-5.234437 30.182384 2.016661 30.699227 -1.399077 1.505058 0.041171 -0.011566 -738595.000000 0 0 1
-4.619137 31.229784 1.030461 31.586352 -1.423953 1.538167 0.032287 -0.002805 -79745.500000 0 0 1
-4.266237 32.464384 1.608961 32.783010 -1.440132 1.521698 0.028608 0.006939 -354043.000000 0 0 1
-3.053437 32.429884 2.301061 32.654490 -1.476918 1.500271 0.033700 -0.011657 -1182730.000000 0 0 1
-2.277237 33.755684 2.212261 33.904662 -1.503436 1.505500 0.028146 -0.010123 -1538260.000000 0 0 1
-1.682637 33.976884 0.939761 34.031501 -1.521314 1.543178 0.017001 -0.003817 26848.300000 0 0 1
-0.718237 -34.072330 0.962061 34.093476 1.549720 1.542574 0.015931 -0.005093 1224070.000000 0 0 1
0.599263 -34.332130 1.823261 34.385732 -1.553343 1.517748 0.017850 -0.006953 -119077.000000 0 0 1
0.324163 -34.277530 3.250461 34.432828 -1.561340 1.476256 0.019817 -0.004241 27686.600000 0 0 1
1.462563 34.522284 4.056861 34.790592 1.528456 1.453922 0.017305 -0.009786 277776.000000 0 0 1
1.132263 -34.270930 5.552361 34.736255 -1.537770 1.410264 0.019948 -0.015209 476189.000000 0 0 1
0.213163 33.831584 6.082761 34.374721 1.564496 1.392905 0.025416 -0.019930 77019.000000 0 0 1
-0.051537 34.046784 7.433261 34.848809 -1.569283 1.355845 0.035769 -0.028132 -88032.800000 0 0 1
1.035463 33.719884 8.475661 34.784186 1.540098 1.324654 0.026266 -0.018516 -180137.000000 0 0 1
1.311663 32.359284 8.606361 33.509896 1.530284 1.311055 0.023560 -0.024812 492207.000000 0 0 1
2.439563 32.098984 9.472461 33.556277 1.494941 1.284620 0.025046 -0.014590 688235.000000 0 0 1
2.938263 30.614184 9.327561 32.138217 1.475112 1.276326 0.023071 -0.012279 11673.900000 0 0 1
1.945063 29.651284 9.690661 31.255252 1.505292 1.255552 0.030831 -0.023425 205612.000000 0 0 1
2.410863 28.344984 9.573161 30.014926 1.485946 1.246178 0.024599 -0.018567 -99621.200000 0 0 1
2.407163 27.573484 10.944161 29.763503 1.483717 1.194257 0.019854 -0.027568 -194479.000000 0 0 1
3.030063 28.308684 11.962461 30.881440 1.464166 1.173022 0.011438 -0.016316 -234363.000000 0 0 1
3.044663 27.537184 13.173261 30.677374 1.460678 1.126954 0.009604 -0.017777 -292111.000000 0 0 1
1.718463 27.122984 13.895561 30.523695 1.507523 1.098156 0.019473 -0.014181 483953.000000 0 0 1
1.110563 28.261284 14.517561 31.791399 1.531520 1.096570 0.020655 -0.016955 540498.000000 0 0 1
0.298563 29.082584 13.637361 32.122631 1.560531 1.132342 0.019669 -0.022475 -333829.000000 0 0 1
-0.490837 30.273284 14.185461 33.435609 -1.554584 1.132649 0.008511 -0.017202 -769551.000000 0 0 1
-1.589737 29.893184 14.949561 33.460709 -1.517666 1.107634 0.000267 -0.007827 -563677.000000 0 0 1
-2.276937 31.115384 15.186861 34.698592 -1.497749 1.117780 -0.006532 -0.001673 -686711.000000 0 0 1
-3.568337 30.983584 15.994861 35.050693 -1.456133 1.096924 0.000265 0.016525 310734.000000 0 0 1
-4.572837 30.319484 15.188261 34.217907 -1.421103 1.110885 -0.004342 0.006171 1455700.000000 0 0 1
-5.844937 30.133784 15.849361 34.545773 -1.379209 1.094160 -0.003552 0.021184 755829.000000 0 0 1
-6.781837 29.161184 15.110861 33.536637 -1.342294 1.103384 0.009007 0.008544 770778.000000 0 0 1
-8.041237 28.971784 15.795061 33.963358 -1.300057 1.087092 0.003429 0.015817 803505.000000 0 0 1
-8.863937 28.038984 15.130161 33.070769 -1.264609 1.095605 0.000983 0.014294 312301.000000 0 0 1
-10.026137 27.530084 16.028461 33.396714 -1.221538 1.070209 -0.003107 0.017429 319335.000000 0 0 1
-10.959837 28.481184 16.497961 34.691188 -1.203453 1.075189 -0.007841 0.014146 429933.000000 0 0 1
-10.532337 29.001884 17.757661 35.600195 -1.222446 1.048573 -0.001632 0.014614 -408241.000000 0 0 1
-11.166037 30.329284 18.136161 37.060304 -1.218036 1.059430 -0.004066 0.011628 -278303.000000 0 0 1
-12.488337 30.208384 18.626261 37.622368 -1.178786 1.052864 -0.004263 0.015266 271467.000000 0 0 1
-12.920337 31.496484 19.011961 38.992541 -1.181515 1.061481 0.005121 0.010443 389216.000000 0 0 1
-14.042437 31.417384 20.086061 39.845851 -1.150470 1.042464 0.012811 0.006900 603532.000000 0 0 1
-13.452137 31.138784 21.343361 40.076463 -1.163007 1.009167 0.017860 0.005563 649679.000000 0 0 1
-14.494437 30.782284 22.247061 40.651807 -1.130724 0.991711 0.010193 0.004767 321735.000000 0 0 1
-14.024437 30.772584 23.689661 41.289669 -1.143176 0.959728 0.005433 0.004496 -1123080.000000 0 0 1
-13.081937 29.844384 24.045461 40.497018 -1.157682 0.935074 0.006983 0.000633 -314702.000000 0 0 1
-12.904337 29.663684 25.464361 41.169038 -1.160468 0.903923 0.016321 0.005873 28121.300000 0 0 1
-12.336437 30.901784 26.281461 42.400744 -1.190967 0.902264 0.014076 0.004858 -390776.000000 0 0 1
-13.341637 31.801484 26.649961 43.583874 -1.173569 0.912887 0.015704 0.002564 180650.000000 0 0 1
-12.799437 32.951984 27.264261 44.643014 -1.200306 0.913830 0.011377 0.002679 402492.000000 0 0 1
-13.959037 33.889684 27.789661 45.995985 -1.180077 0.922065 0.021018 0.003615 982908.000000 0 0 1
-14.640937 33.409884 28.966361 46.579259 -1.157780 0.899665 -0.005424 0.003577 276030.000000 0 0 1
-13.890237 33.616984 30.136761 47.236264 -1.178970 0.878897 0.014749 0.012331 -421596.000000 0 0 1
-14.404737 32.832784 31.313961 47.603070 -1.157354 0.852884 0.000789 0.005174 -307529.000000 0 0 1
-15.743137 33.112584 31.624661 48.419095 -1.126987 0.859067 -0.000126 0.008978 -448812.000000 0 0 1
-16.157837 32.587884 32.857661 49.017055 -1.110496 0.836141 -0.004370 0.009179 625409.000000 0 0 1
-17.625237 32.861284 33.324461 50.010325 -1.078491 0.841491 -0.006427 0.008554 625477.000000 0 0 1
-17.858037 34.264484 33.561261 51.179317 -1.090347 0.855610 -0.001389 0.006649 312928.000000 0 0 1
-19.244837 -34.486130 33.653961 51.886858 1.061797 0.865049 -0.009082 0.003693 272165.000000 0 0 1
-19.472737 -33.032530 34.042061 51.275700 1.038132 0.844771 -0.004556 0.005632 -300574.000000 0 0 1
-19.111537 -32.608730 -33.702155 50.640057 1.040670 2.298992 -0.000054 0.004991 205410.000000 0 0 1
-20.137437 -32.765430 -32.724655 50.497454 1.019715 2.275812 -0.001036 0.009160 255036.000000 0 0 1
-19.727437 -31.929530 -31.462855 48.975279 1.017360 2.268452 0.008575 0.004015 67949.200000 0 0 1
-19.727837 -30.564830 -31.755655 48.288902 0.997632 2.288449 0.023003 -0.001880 84959.500000 0 0 1
-19.243937 -29.861730 -30.617555 46.898686 0.998343 2.282130 0.024165 -0.002072 -10122.200000 0 0 1
-19.513637 -28.330230 -30.661655 46.081678 0.967632 2.298794 0.031479 -0.007527 -256287.000000 0 0 1
-20.832537 -27.961630 -30.333155 46.216314 0.930477 2.286740 0.033418 -0.009407 -103829.000000 0 0 1
-20.959737 -26.558930 -30.208855 45.357053 0.902689 2.299661 0.030643 -0.010882 90277.700000 0 0 1
-22.259937 -26.191030 -29.469855 45.276343 0.866356 2.279551 0.039763 -0.013479 3664.640000 0 0 1
-22.145537 -26.426430 -28.098455 44.478132 0.873306 2.254588 0.038575 -0.014366 112950.000000 0 0 1
-21.590937 -25.356030 -27.402355 43.127554 0.865426 2.259296 0.038678 -0.026394 -406344.000000 0 0 1
-21.472037 -25.621130 -25.887055 42.280377 0.873275 2.229726 0.037146 -0.023029 409947.000000 0 0 1
-22.734537 -25.623430 -25.215855 42.535382 0.845067 2.205353 0.030801 -0.020182 473964.000000 0 0 1
-22.631337 -25.904530 -23.794655 41.825921 0.852735 2.175961 0.028687 -0.013742 -556113.000000 0 0 1
-23.999837 -25.826130 -23.077855 42.137496 0.822035 2.150385 0.020869 -0.010725 806140.000000 0 0 1
-25.036837 -26.708030 -23.560955 43.534821 0.817684 2.142657 0.012562 -0.005005 421825.000000 0 0 1
-24.712937 -28.115730 -23.463355 44.178644 0.849721 2.130697 0.021143 -0.006249 -1208740.000000 0 0 1
-25.975637 -29.001630 -23.508255 45.480395 0.840383 2.114008 0.007529 -0.003568 -336973.000000 0 0 1
-26.879637 -28.830230 -22.497455 45.385378 0.820397 2.089435 0.005366 0.002349 -192148.000000 0 0 1
-27.915037 -27.898130 -22.870155 45.613583 0.785095 2.096000 -0.002389 0.002059 -174332.000000 0 0 1
-28.640637 -27.351830 -21.641355 45.130444 0.762385 2.070914 -0.000497 -0.000033 -400830.000000 0 0 1
-29.417037 -28.238230 -20.888255 45.815706 0.764955 2.044201 -0.018655 0.013815 -5587.440000 0 0 1
-29.859837 -27.562230 -19.742755 45.178123 0.745407 2.023055 -0.018185 0.011781 -323933.000000 0 0 1
-30.770537 -28.385230 -18.793755 45.888479 0.745098 1.992760 -0.024730 0.018720 -309936.000000 0 0 1
-32.122337 -28.587330 -19.151855 47.073066 0.727236 1.989804 -0.032426 0.014294 320484.000000 0 0 1
-33.072737 -27.606330 -18.793655 47.001243 0.695554 1.982154 -0.026510 0.021322 -224756.000000 0 0 1
-33.238437 -27.261230 -17.305755 46.340668 0.686920 1.953518 -0.010904 0.018608 -877089.000000 0 0 1
-32.211637 -26.400930 -16.860855 44.932027 0.686583 1.955465 -0.015091 0.020494 119982.000000 0 0 1
-32.489137 -25.839430 -15.612955 44.350699 0.671884 1.930540 -0.010562 0.016593 -108767.000000 0 0 1
-32.203737 -26.533530 -14.295255 44.107405 0.689161 1.900858 -0.006265 0.016486 -157716.000000 0 0 1
-32.958337 -27.728230 -14.133555 45.330609 0.699428 1.887871 0.003394 0.014892 386794.000000 0 0 1
-32.716737 -28.258530 -12.867255 45.105384 0.712413 1.860085 0.009334 0.013958 -350039.000000 0 0 1
-33.603037 -29.484930 -12.547855 46.432466 0.720215 1.844437 0.015312 0.003996 -209050.000000 0 0 1
-33.373837 -30.554130 -13.436655 47.200758 0.741319 1.859459 0.005463 0.007217 524775.000000 0 0 1
-33.901037 -31.856030 -13.002855 48.302807 0.754309 1.843353 0.009401 0.000772 14206.400000 0 0 1
-33.483337 -32.865530 -14.071155 48.982388 0.776087 1.862171 -0.003575 0.006449 1070020.000000 0 0 1
-32.071637 -33.216930 -13.999455 48.248721 0.802938 1.865182 -0.004635 0.004462 1445150.000000 0 0 1
-31.727537 -34.099330 -15.072055 48.954752 0.821413 1.883757 0.002912 -0.000999 -956855.000000 0 0 1
-30.245637 -34.194230 -15.307155 48.149277 0.846597 1.894321 0.002241 0.000400 -903495.000000 0 0 1
-29.944437 33.947384 -16.394055 48.144150 -0.847968 1.918266 0.005400 0.008723 315638.000000 0 0 1
-28.553237 33.618784 -16.298655 47.022932 -0.866695 1.924752 0.007796 0.005756 499654.000000 0 0 1
9.112178 20.169184 -9.221939 23.976487 1.146457 1.965597 0.016124 -0.005956 -385329.000000 0 1 0
7.704878 20.053084 -9.200139 23.369507 1.203963 1.975429 0.021945 -0.009041 71803.000000 0 1 0
7.155878 20.232684 -10.515939 23.898809 1.230848 2.026417 0.029231 -0.006830 204306.000000 0 1 0
7.136378 18.972684 -11.407139 23.259696 1.211027 2.083374 0.027598 -0.004313 -1288440.000000 0 1 0
8.437278 18.675084 -11.745139 23.619795 1.146452 2.091232 0.038711 -0.003096 -1034410.000000 0 1 0
8.500778 17.477784 -12.499739 23.107999 1.118107 2.142335 0.034237 -0.015743 -353338.000000 0 1 0
9.743578 17.251984 -13.352639 23.892702 1.056676 2.163805 0.040983 0.000853 -347028.000000 0 1 0
9.632078 16.027584 -14.055639 23.392763 1.029665 2.215366 0.048861 -0.014390 -814869.000000 0 1 0
10.798378 15.717784 -14.686039 24.069346 0.968837 2.227053 0.057522 -0.016929 -1391780.000000 0 1 0
10.582278 14.573384 -15.620639 23.840564 0.942743 2.285260 0.051692 -0.015366 -267699.000000 0 1 0
10.552078 13.270084 -15.068839 22.682843 0.899003 2.297390 0.054549 -0.012059 489428.000000 0 1 0
11.771278 12.739384 -14.551039 22.640398 0.824875 2.268817 0.058635 -0.011264 111665.000000 0 1 0
12.573178 11.872284 -15.591639 23.283796 0.756734 2.304513 0.053992 -0.009240 -262174.000000 0 1 0
13.114978 12.676284 -16.576339 24.646822 0.768390 2.308452 0.038912 -0.005050 -419344.000000 0 1 0
14.016478 11.935884 -17.321939 25.277986 0.705400 2.325754 0.041058 -0.007659 -276521.000000 0 0 1
14.829878 12.780784 -18.364739 26.842827 0.711320 2.324245 0.028597 -0.007264 264234.000000 0 0 1
15.886778 13.515384 -17.801239 27.421514 0.704919 2.277290 0.001922 0.003586 -311374.000000 0 0 1
16.722278 14.111984 -18.746139 28.813198 0.700944 2.279183 0.003133 0.003036 1218.340000 0 0 1
17.780678 15.095784 -18.157639 29.559010 0.703913 2.232275 -0.009467 0.016805 -223112.000000 0 0 1
17.306878 16.355784 -17.756839 29.704293 0.757152 2.211534 -0.022147 0.007813 70957.900000 0 0 1
16.903678 17.265384 -18.810739 30.621426 0.795984 2.232295 -0.005981 0.013937 -66172.400000 0 0 1
16.585778 18.706184 -18.355839 31.015257 0.845408 2.204127 -0.015342 0.014725 335526.000000 0 0 1
17.690278 19.594684 -18.163939 32.044130 0.836431 2.173463 -0.020808 0.014199 350497.000000 0 0 1
17.214378 20.740384 -17.496339 32.134409 0.878033 2.146558 -0.027537 0.018777 -293125.000000 0 0 1
18.025078 22.028584 -17.724339 33.530794 0.885021 2.127745 -0.014374 0.007236 1186690.000000 0 0 1
19.337278 21.991184 -17.088639 33.905222 0.849525 2.099034 -0.005685 0.001843 911215.000000 0 0 1
19.482778 23.191084 -16.456039 34.470367 0.872079 2.068486 0.000597 -0.002897 -47050.500000 0 0 1
20.817778 23.366284 -15.709439 35.016419 0.843014 2.036029 0.008151 -0.001705 -921572.000000 0 0 1
21.027278 22.596984 -14.562439 34.129675 0.821365 2.011615 0.015306 -0.003019 402804.000000 0 0 1
21.932578 23.348784 -13.691639 34.837690 0.816664 1.974701 0.008612 -0.008223 1197200.000000 0 0 1
23.454078 23.422384 -13.992739 35.979141 0.784722 1.970247 0.013432 -0.003705 -97527.600000 0 0 1
23.760778 24.142184 -15.193939 37.125132 0.793360 1.992442 0.010468 -0.004736 102219.000000 0 0 1
25.048478 24.743784 -15.207639 38.353010 0.779279 1.978517 0.006567 -0.005752 37960.400000 0 0 1
25.401378 25.223284 -16.661439 39.484777 0.781880 2.006415 -0.000038 -0.005506 -392343.000000 0 0 1
25.904178 24.190984 -17.468739 39.514390 0.751213 2.028719 0.005732 -0.008353 -38029.300000 0 0 1
26.213478 24.747184 -18.700739 40.611417 0.756633 2.049332 -0.002732 -0.000977 -1221420.000000 0 0 1
26.708378 23.708984 -19.767239 40.819078 0.725977 2.076319 -0.000014 -0.004236 -773971.000000 0 0 1
28.023378 23.274584 -19.793339 41.458319 0.693088 2.068521 -0.004954 0.001187 -970062.000000 0 0 1
28.213478 22.385984 -20.893339 41.637294 0.670734 2.096468 0.013238 -0.006504 702807.000000 0 0 1
29.722078 22.300484 -21.286239 42.823095 0.643693 2.091020 0.027738 -0.001082 423629.000000 0 0 1
30.147678 23.479484 -21.904039 44.044927 0.661690 2.091293 0.007243 0.012142 -210137.000000 0 0 1
31.541978 23.522184 -22.100039 45.128719 0.640771 2.082555 0.019525 0.000640 -224088.000000 0 0 1
31.997778 24.883284 -22.622439 46.419935 0.660968 2.079841 0.006193 0.005149 -334219.000000 0 0 1
31.942478 25.328584 -23.905939 47.258364 0.670423 2.101171 0.005884 0.005613 201985.000000 0 0 1
30.747178 25.089584 -24.641339 46.712651 0.684419 2.126462 0.010084 -0.005848 -186296.000000 0 0 1
30.877878 25.710584 -26.093349 47.909710 0.694337 2.146751 0.008854 -0.008228 -414535.000000 0 0 1
30.622078 27.134584 -26.134579 48.549084 0.725089 2.139230 -0.000199 -0.004941 -343572.000000 0 0 1
29.281278 27.542784 -26.337229 48.058795 0.754813 2.150793 0.008625 -0.001008 236907.000000 0 0 1
28.671878 27.334284 -27.762799 48.373677 0.761520 2.182086 0.014514 -0.004167 -386996.000000 0 0 1
28.414278 25.990384 -28.146449 47.697944 0.740875 2.201976 0.008747 -0.012452 -131185.000000 0 0 1
28.263678 25.856384 -29.530349 48.367650 0.740947 2.227538 0.006629 -0.015460 -373177.000000 0 0 1
27.686178 24.479684 -29.770709 47.456027 0.724008 2.248919 0.006702 -0.024218 1493080.000000 0 0 1
26.263878 24.301184 -29.456869 46.347017 0.746602 2.259546 0.009448 -0.019558 1401830.000000 0 0 1
25.754578 23.078784 -29.687119 45.576898 0.730659 2.280176 0.015576 -0.024491 -128672.000000 0 0 1
24.237178 23.004184 -29.414519 44.517943 0.759304 2.292593 0.005953 -0.014624 -66021.600000 0 0 1
24.080578 23.077784 -27.984369 43.538296 0.764137 2.268883 0.004149 -0.004320 -563791.000000 0 0 1
22.779078 23.226084 -27.528719 42.616520 0.795114 2.273081 0.004459 -0.007160 -970522.000000 0 0 1
22.722678 23.573584 -26.031419 41.829042 0.803776 2.242511 0.016057 -0.004180 -413612.000000 0 0 1
23.220878 22.607084 -25.161009 41.028841 0.772006 2.230967 0.014240 -0.009835 231079.000000 0 0 1
23.504978 23.075184 -23.840839 40.661206 0.776171 2.197316 0.022063 -0.000467 -186742.000000 0 0 1
23.901578 21.946184 -22.849339 39.686430 0.742774 2.184314 0.022302 -0.004470 90182.500000 0 0 1
25.082078 21.312384 -23.302839 40.328038 0.704323 2.186866 0.023837 -0.008802 139649.000000 0 0 1
25.271978 20.009684 -22.739839 39.448202 0.669705 2.185171 0.044330 -0.016627 82867.100000 0 0 1
26.412478 19.123084 -23.301239 40.078162 0.626664 2.191238 0.052260 -0.019059 182920.000000 0 0 1
27.656478 19.169284 -22.628339 40.551004 0.606094 2.162796 0.064593 -0.022267 281253.000000 0 0 1
28.585178 18.365284 -23.398739 41.254055 0.571068 2.173882 0.057946 -0.018022 667054.000000 0 0 1
29.888178 18.082284 -22.616939 41.614878 0.544086 2.145376 0.065069 -0.020469 459920.000000 0 0 1
30.721578 19.193184 -22.292939 42.534325 0.558417 2.122474 0.050827 -0.018255 543032.000000 0 0 1
31.947578 18.817784 -21.668639 42.945159 0.532307 2.099675 0.048738 -0.014687 743017.000000 0 0 1
32.599378 19.938784 -20.828039 43.521050 0.548928 2.069826 0.029357 -0.020975 180971.000000 0 0 1
31.795378 20.146884 -19.701739 42.485309 0.564790 2.052998 0.036464 -0.019916 -60805.300000 0 0 1
32.487978 20.932584 -18.793039 42.974645 0.572370 2.023396 0.023009 -0.012800 -160825.000000 0 0 1
31.758578 21.193284 -17.429239 41.970715 0.588458 1.999037 0.028058 -0.013135 -63235.300000 0 0 1
31.831178 20.069484 -16.566839 41.115304 0.562543 1.985519 0.032260 -0.029505 313944.000000 0 0 1
31.877878 20.466284 -15.185639 40.812639 0.570746 1.952047 0.038096 -0.025722 -452028.000000 0 0 1
32.273678 19.312084 -14.269539 40.226442 0.539231 1.933422 0.030222 -0.028577 -1163350.000000 0 0 1
33.635578 19.085984 -14.276039 41.224170 0.516130 1.924423 0.034043 -0.032715 -782514.000000 0 0 1
34.080278 17.861084 -13.700339 40.843395 0.482732 1.912864 0.036567 -0.009305 82852.900000 0 0 1
34.055078 17.773584 -12.195139 40.303474 0.481019 1.878198 0.030944 -0.020463 -359247.000000 0 0 1
35.064578 18.579784 -11.611439 41.346808 0.487260 1.855456 0.029197 -0.020379 3520.360000 0 0 1
34.824678 18.961884 -10.235939 40.952237 0.498607 1.823423 0.013459 -0.022162 -606641.000000 0 0 1
33.723078 20.016384 -10.006539 40.472613 0.535664 1.820629 0.020016 -0.027579 -985530.000000 0 0 1
32.493878 19.397084 -10.196139 39.192604 0.538171 1.833979 0.041099 -0.035059 -944844.000000 0 0 1
31.491378 20.415384 -10.098539 38.864833 0.575169 1.833650 0.022529 -0.027891 603549.000000 0 0 1
30.027678 19.934584 -10.321439 37.491081 0.586066 1.849702 0.014004 -0.019793 396704.000000 0 0 1
29.824078 19.621484 -11.660339 37.555849 0.581914 1.886494 0.027659 -0.023764 695500.000000 0 0 1
28.480578 19.165484 -11.905539 36.334570 0.592327 1.904627 0.026465 -0.021564 866811.000000 0 0 1
28.131878 18.647184 -13.299539 36.276683 0.585355 1.946163 0.054709 -0.018179 61997.600000 0 0 1
28.792878 17.382684 -13.452139 36.223577 0.543146 1.951274 0.069843 -0.027167 377217.000000 0 0 1
28.456978 16.777884 -14.690739 36.154043 0.532728 1.989238 0.071563 -0.023529 -260035.000000 0 0 1
29.728278 16.302684 -15.372839 37.227304 0.501606 1.996482 0.062809 -0.029197 -158747.000000 0 0 1
30.537678 15.396384 -14.661839 37.209783 0.466983 1.975811 0.049088 -0.023809 414845.000000 0 0 1
31.615878 14.877984 -15.442539 38.201965 0.439841 1.986938 0.046348 -0.019403 556319.000000 0 0 1
32.549478 13.871284 -14.705239 38.316120 0.402853 1.964690 0.036328 -0.019419 -52516.800000 0 0 1
33.283578 14.479684 -13.663739 38.783445 0.410344 1.930833 0.036274 -0.010907 230538.000000 0 0 1
33.890478 13.538584 -12.755139 38.659427 0.380058 1.907032 0.031872 -0.008711 199861.000000 0 0 1
34.816578 14.185384 -11.711439 39.377367 0.386897 1.872781 0.041361 -0.007795 1102900.000000 0 0 1
-34.385507 14.752884 -12.244739 39.369332 -0.405291 1.887065 0.020060 -0.008551 304580.000000 0 0 1
-33.544807 15.151784 -11.204639 38.475636 -0.424257 1.866292 0.018239 -0.005825 -122425.000000 0 0 1
-32.079007 15.218884 -11.726939 37.392489 -0.442974 1.889797 0.015857 -0.009582 583366.000000 0 0 1
-31.332307 14.039984 -12.196239 36.436011 -0.421272 1.912115 -0.004113 -0.008570 790024.000000 0 0 1
-31.168907 12.977384 -11.260439 35.590880 -0.394527 1.892713 0.007641 -0.006122 -867992.000000 0 0 1
-30.072307 11.960184 -11.617039 34.385248 -0.378534 1.915427 0.020142 -0.010264 -306662.000000 0 0 1
-30.168207 11.146384 -12.796239 34.613673 -0.353918 1.949469 0.005152 -0.002890 331597.000000 0 0 1
-29.312107 10.022984 -12.582539 33.436210 -0.329477 1.956612 0.017349 -0.018267 -362188.000000 0 0 1
-29.136107 9.257784 -13.893139 33.580331 -0.307654 1.997342 0.015842 -0.021117 -202318.000000 0 0 1
-30.340507 8.819184 -14.508639 34.768161 -0.282879 2.001265 0.003088 -0.018876 605722.000000 0 0 1
-30.065007 7.859484 -15.525939 34.738033 -0.255694 2.034142 0.002586 -0.026137 422487.000000 0 0 1
-31.375807 7.472884 -16.303639 36.139922 -0.233817 2.038822 -0.001510 -0.024959 728256.000000 0 0 1
-32.313307 6.825484 -15.467239 36.468789 -0.208168 2.008789 0.020588 -0.031830 -311592.000000 0 0 1
-33.332107 6.209084 -16.164839 37.561738 -0.184169 2.015681 0.012934 -0.027971 -861515.000000 0 0 1
-34.336207 5.475484 -15.308839 37.991007 -0.158135 1.985545 0.011222 -0.018295 -21132.100000 0 0 1
35.055478 4.757384 -16.004439 38.828615 0.134886 1.995644 0.020125 -0.011861 881401.000000 0 0 1
34.053478 4.383684 -15.048339 37.487445 0.128025 1.983867 0.026898 -0.014513 764473.000000 0 0 1
32.964878 3.381484 -15.508639 36.587368 0.102221 2.008521 0.033394 -0.013929 -126593.000000 0 0 1
33.581978 2.168084 -15.848439 37.197081 0.064471 2.010937 0.039724 -0.012111 189102.000000 0 0 1
32.795978 0.982684 -15.701439 36.374126 0.029955 2.017134 0.025898 0.000192 93338.300000 0 0 1
32.216378 0.649484 -14.285639 35.247643 0.020157 1.988096 0.024458 0.002816 79842.100000 0 0 1
33.133978 0.120784 -13.328839 35.714605 0.003645 1.953257 0.037882 -0.001864 372838.000000 0 0 1
32.557278 0.121184 -12.036739 34.711297 0.003722 1.924919 0.046424 0.005509 -82156.600000 0 0 1
32.735878 1.430084 -11.259039 34.647494 0.043658 1.901765 0.046610 -0.010745 -5921.330000 0 0 1
31.849878 2.454484 -11.700839 34.019830 0.076912 1.921908 0.043590 -0.009567 539431.000000 0 0 1
32.226078 3.746484 -11.254639 34.339819 0.115737 1.904710 0.044283 -0.014122 -336152.000000 0 0 1
31.093978 4.713784 -11.580339 33.513572 0.150452 1.923612 0.034645 -0.009074 -287971.000000 0 0 1
31.074278 4.965484 -12.940639 34.025386 0.158454 1.960942 0.040056 -0.011676 -52396.400000 0 0 1
30.039278 5.801784 -13.326939 33.371039 0.190791 1.981611 0.046236 -0.013778 -706186.000000 0 0 1
30.195078 6.535584 -14.692239 34.209918 0.213157 2.014706 0.016186 -0.002477 -306470.000000 0 0 1
30.264278 5.627784 -15.787439 34.595400 0.183855 2.044680 0.005710 0.003897 126690.000000 0 0 1
30.647878 6.267584 -17.027139 35.615987 0.201722 2.069259 0.012807 0.001305 -500541.000000 0 0 1
29.730378 7.336584 -17.670239 35.354748 0.241937 2.094162 0.020197 0.000003 594424.000000 0 0 1
28.478978 7.090684 -18.301339 34.587122 0.244018 2.128380 0.004687 0.010294 107438.000000 0 0 1
27.469578 6.635484 -17.474239 33.225839 0.237017 2.124597 -0.011184 0.010712 -1215280.000000 0 0 1
26.254778 6.223484 -18.336439 32.623153 0.232746 2.167681 -0.021119 0.012571 -512768.000000 0 0 1
26.416378 5.236984 -19.287039 33.124627 0.195710 2.192298 -0.014941 0.016882 452654.000000 0 0 1
25.279578 5.166584 -20.154039 32.740433 0.201601 2.233906 -0.021776 0.025377 326490.000000 0 0 1
25.034578 3.825584 -20.860739 32.810602 0.151639 2.259831 -0.013695 0.019400 -390010.000000 0 0 1
24.407178 2.891684 -20.048639 31.717820 0.117927 2.255049 -0.005977 0.013686 52089.000000 0 0 1
24.092278 1.723084 -20.738139 31.835158 0.071399 2.280254 -0.003789 0.007890 -389401.000000 0 0 1
22.995278 0.922684 -19.979239 30.476288 0.040103 2.285729 -0.001054 0.000337 -471563.000000 0 0 1
21.778878 1.586684 -19.928439 29.563149 0.072726 2.310538 -0.007122 0.003826 -651882.000000 0 0 1
20.875678 0.859084 -19.120039 28.321509 0.041129 2.311906 -0.005776 0.007481 54998.000000 0 0 1
19.509678 1.573984 -18.964239 27.253391 0.080503 2.340397 -0.008564 0.002339 -1782390.000000 0 0 1
18.637778 1.266384 -20.002139 27.368889 0.067843 2.390341 0.002899 -0.000776 -213996.000000 0 0 1
17.407078 1.941584 -19.850539 26.473006 0.111081 2.418618 -0.004004 -0.002904 406332.000000 0 0 1
16.437478 1.595684 -18.705139 24.952337 0.096773 2.418306 -0.006654 -0.006280 -1386290.000000 0 1 0
16.993378 1.991384 -17.462839 24.447725 0.116654 2.366410 0.002028 -0.006407 -160396.000000 0 1 0
16.063578 2.074584 -16.411439 23.058139 0.128437 2.362771 -0.000915 -0.001832 -31375.500000 0 1 0
15.367878 3.458884 -16.206039 22.600249 0.221383 2.370391 0.020425 -0.005451 469468.000000 0 1 0
14.640878 3.941784 -17.344239 23.037266 0.262995 2.423220 0.016260 0.005649 212691.000000 0 1 0
13.736178 4.973984 -17.121739 22.507267 0.347421 2.435219 0.039814 -0.002783 -274091.000000 0 1 0
-19.804322 -21.771316 -17.963939 34.480495 0.832674 2.118805 -0.002600 -0.000962 22543.300000 0 0 1
-19.380122 -22.439716 -19.105939 35.272750 0.858429 2.143210 0.010384 -0.005022 -9953.300000 0 0 1
-20.434822 -22.373916 -20.019139 36.317214 0.830664 2.154634 0.012060 -0.006095 -144297.000000 0 0 1
-20.150022 -23.140616 -21.329039 37.368963 0.854370 2.178238 0.015884 -0.010373 -71620.200000 0 0 1
-20.150122 -24.508016 -21.179639 38.147705 0.882674 2.159401 0.013842 -0.011502 339224.000000 0 0 1
-19.269222 -25.133876 -22.110239 38.624828 0.916716 2.180270 0.016880 -0.016374 -466987.000000 0 0 1
-19.118022 -26.597826 -21.779839 39.335792 0.947576 2.157585 0.015985 -0.005749 259650.000000 0 0 1
-20.306822 -27.412606 -21.791539 40.480726 0.933220 2.139237 0.022296 0.003156 486726.000000 0 0 1
-20.019422 -28.774636 -21.660739 41.206123 0.962941 2.124296 0.030534 -0.013939 218673.000000 0 0 1
-21.278322 -29.691456 -21.869439 42.574898 0.948984 2.110253 0.030927 -0.010535 484166.000000 0 0 1
-21.841522 -29.573356 -23.181139 43.462636 0.934661 2.133362 0.026996 -0.006298 -112951.000000 0 0 1
-21.171122 -30.272436 -24.164939 44.142736 0.960505 2.150083 0.024150 -0.011602 -976673.000000 0 0 1
-21.671622 -29.818696 -25.553049 44.852783 0.942323 2.176948 0.016670 -0.004506 -394205.000000 0 0 1
-22.951322 -30.304846 -25.871319 45.983389 0.922609 2.168352 0.022325 -0.005184 26144.500000 0 0 1
-23.683522 -29.397256 -26.658359 46.214457 0.892628 2.185652 0.016094 -0.001972 -250870.000000 0 0 1
-23.384122 -29.422656 -28.191269 46.981459 0.899255 2.214361 0.016738 -0.003989 -533686.000000 0 0 1
-23.684222 -30.610256 -28.873519 48.286751 0.912277 2.211749 0.011495 -0.001084 313435.000000 0 0 1
-23.179922 -30.589816 -30.235849 48.859515 0.922343 2.238052 0.025812 -0.004666 43405.200000 0 0 1
-23.582722 -31.827246 -31.087589 50.354311 0.933106 2.236200 0.018069 0.003483 103694.000000 0 0 1
-22.943022 -33.081476 -30.808939 50.694744 0.964425 2.224001 0.010469 0.005213 199497.000000 0 0 1
-23.835822 -34.148360 -31.159889 52.011495 0.961409 2.213168 0.025084 0.000733 -54289.600000 0 0 1
-23.375622 33.452021 -31.091139 51.304155 -0.960889 2.221839 0.033011 -0.001266 74849.200000 0 0 1
-22.276722 33.254034 -31.962129 51.221683 -0.980562 2.244642 0.015459 -0.005805 140204.000000 0 0 1
-21.812222 31.894248 -31.954069 50.140588 -0.970963 2.261772 0.026019 -0.006177 27453.300000 0 0 1
-20.569322 31.618318 -32.825239 50.003113 -0.994034 2.286918 0.024922 -0.002096 -93872.200000 0 0 1
-20.830022 31.544938 -34.180973 50.963829 -0.987195 2.305936 0.010753 0.000299 270540.000000 0 0 1
-20.649422 30.182888 34.510665 50.283112 -0.970792 0.814369 0.002657 0.007968 -100928.000000 0 0 1
-20.705122 29.936238 32.989867 49.124451 -0.965703 0.834488 -0.002470 0.006419 -214628.000000 0 0 1
-19.770222 30.748078 32.332987 48.802950 -0.999376 0.846617 -0.002279 0.005601 224343.000000 0 0 1
-19.872222 30.554838 30.911377 47.791385 -0.994155 0.867418 0.005362 0.003093 164337.000000 0 0 1
-19.220722 31.788498 30.200777 47.875167 -1.026969 0.888182 -0.001356 -0.000936 130969.000000 0 0 1
-20.130022 32.831258 30.379567 49.051272 -1.020774 0.902891 0.004058 0.000367 140970.000000 0 0 1
-19.516422 34.016374 29.930817 49.334149 -1.049912 0.918899 -0.006998 0.001069 415186.000000 0 0 1
-20.527322 -33.870516 29.818327 49.575351 1.025938 0.925450 0.002498 -0.006363 318508.000000 0 0 1
-20.765422 -33.163466 31.025657 49.936055 1.011368 0.900386 -0.003643 -0.003494 29704.900000 0 0 1
-21.850122 -32.245276 31.008057 49.786396 0.975247 0.898452 0.012181 -0.005494 43083.600000 0 0 1
-21.519722 -30.796926 30.656927 48.491198 0.960902 0.886386 0.016353 -0.001167 -399948.000000 0 0 1
-21.277622 -30.613686 29.289667 47.411175 0.963410 0.904880 0.007933 0.004426 -48579.600000 0 0 1
-21.179522 -29.250746 28.883057 46.242938 0.944099 0.896185 0.022312 -0.006818 685184.000000 0 0 1
-22.497722 -28.624646 28.281567 46.101680 0.904677 0.910361 0.024558 -0.001675 831596.000000 0 0 1
-23.656122 -28.386386 29.078807 47.021017 0.876041 0.904064 0.025734 -0.003110 923178.000000 0 0 1
-24.642822 -29.395536 29.241097 48.232852 0.873123 0.919461 0.015783 0.000844 43936.700000 0 0 1
-25.658382 -29.470226 28.102487 48.131035 0.854433 0.947303 0.011088 0.002314 -807936.000000 0 0 1
-25.150722 -30.036056 26.938567 47.543768 0.873692 0.968416 0.013192 0.009142 417405.000000 0 0 1
-26.148142 -30.050806 25.909947 47.519487 0.854731 0.994110 0.010521 0.011763 291779.000000 0 0 1
-25.534122 -30.265866 24.476127 46.552066 0.869994 1.017165 0.009380 0.005848 116807.000000 0 0 1
-24.704022 -29.160976 24.071787 45.167490 0.867953 1.008719 -0.003164 0.005820 595007.000000 0 0 1
-24.223322 -29.209226 22.747977 44.242725 0.878441 1.030765 0.012998 0.003626 552324.000000 0 0 1
-23.052722 -30.181746 22.335677 44.059599 0.918524 1.039162 0.013749 0.002427 -98364.900000 0 0 1
-23.503822 -31.540086 22.262877 45.197814 0.930371 1.055761 0.018604 -0.007718 844941.000000 0 0 1
-22.495222 -32.429696 21.765277 45.071582 0.964337 1.066828 0.021555 0.003134 465921.000000 0 0 1
-21.467822 -33.053496 22.735077 45.500381 0.994782 1.047581 0.021379 0.000250 17970.400000 0 0 1
-20.599422 -32.143326 23.364877 44.759882 1.000872 1.021597 0.024322 -0.004043 287311.000000 0 0 1
-19.895222 -32.755156 24.459287 45.464017 1.024959 1.002743 0.015324 -0.005102 155822.000000 0 0 1
-19.368222 -31.739226 25.501187 45.086772 1.022889 0.969633 0.014857 -0.006261 -650864.000000 0 0 1
-18.125622 -31.145006 25.197007 43.970885 1.043736 0.960588 0.021633 -0.009845 207090.000000 0 0 1
-17.725422 -30.406356 26.408687 44.001771 1.043007 0.927079 0.023424 -0.003671 -202293.000000 0 0 1
-16.848822 -31.248366 27.370607 44.827372 1.076290 0.914006 0.005816 -0.007710 -557085.000000 0 0 1
-17.494422 -32.278976 28.122447 46.247801 1.074135 0.917154 0.000194 -0.004800 656666.000000 0 0 1
-16.642822 -32.626726 29.232207 46.861591 1.099103 0.897203 -0.000517 -0.004306 129165.000000 0 0 1
-17.089022 -31.966496 30.561267 47.411840 1.079860 0.870308 0.003288 -0.002773 48585.200000 0 0 1
-16.665822 -30.623256 30.520487 46.336093 1.072401 0.851738 0.008321 -0.001253 296423.000000 0 0 1
-16.997722 -29.928026 31.738007 46.817843 1.054274 0.825888 0.011980 0.004960 -179712.000000 0 0 1
-16.742422 -28.390316 31.735477 45.754336 1.037968 0.804314 0.013504 -0.000093 -281456.000000 0 0 1
-17.469222 -27.455016 30.932467 44.897318 1.004123 0.810743 0.021076 -0.000920 -317557.000000 0 0 1
-17.428222 -27.587236 29.529147 44.008738 1.007358 0.835262 0.024656 0.003137 33015.400000 0 0 1
-16.092822 -27.375726 28.745907 42.833824 1.039359 0.835101 0.019701 0.007374 472656.000000 0 0 1
-15.481722 -26.058766 28.848797 41.844905 1.034720 0.810106 0.023280 0.004066 316722.000000 0 0 1
-14.416722 -25.902606 27.936837 40.733938 1.062920 0.815043 0.020339 0.006338 -247806.000000 0 0 1
-14.482122 -24.656916 27.086947 39.387791 1.039734 0.812481 0.026975 0.013651 -540501.000000 0 0 1
-15.599522 -24.574316 26.220027 39.175655 1.005188 0.837538 0.035549 -0.004452 155247.000000 0 0 1
-15.654722 -23.401216 25.459467 37.958816 0.981200 0.835627 0.026327 -0.006578 -14147.300000 0 0 1
-16.229222 -22.141016 26.177837 37.932722 0.938268 0.809152 0.024330 -0.000943 -425820.000000 0 0 1
-16.237222 -21.094116 25.269747 36.703804 0.914774 0.811408 0.020252 -0.001193 303107.000000 0 0 1
-16.689522 -19.890716 25.910377 36.681444 0.872687 0.786451 0.017049 0.002036 -129188.000000 0 0 1
-16.374422 -18.634516 25.058257 35.260220 0.849866 0.780351 0.014502 -0.000111 274798.000000 0 0 1
-14.986222 -18.329816 25.035917 34.458180 0.885423 0.757495 0.019942 -0.007896 133276.000000 0 0 1
-14.831922 -17.340116 24.123137 33.205290 0.863203 0.757604 0.019343 -0.002563 -403230.000000 0 0 1
-13.403922 -16.791716 24.182247 32.348229 0.897126 0.726415 0.027143 0.000304 -216414.000000 0 0 1
-12.445822 -17.784516 23.718377 32.151966 0.960196 0.741145 0.004278 -0.004404 545801.000000 0 0 1
-11.114422 -17.304616 23.800277 31.455259 0.999867 0.712639 0.004800 0.003226 -53473.600000 0 0 1
-10.639022 -16.413216 22.593777 29.884130 0.995689 0.713546 0.001009 0.017100 -491901.000000 0 0 1
-10.236722 -17.187616 21.476477 29.350361 1.033628 0.749943 0.011644 0.013630 -587176.000000 0 0 1
-8.868122 -17.461716 21.509177 29.089514 1.100880 0.738598 0.011562 0.005407 -998383.000000 0 0 1
-8.427022 -18.480216 20.474277 28.839714 1.142962 0.781393 0.016634 -0.000716 -8314.110000 0 0 1
-8.242222 -18.127616 19.134677 27.616672 1.144059 0.805339 0.016262 -0.001379 -34824.000000 0 0 1
-7.604422 -19.208816 18.469677 27.711637 1.193845 0.841299 0.020839 -0.002389 212665.000000 0 0 1
-7.408922 -19.099116 16.916277 26.567438 1.200747 0.880547 0.001260 -0.002402 171460.000000 0 0 1
-6.473622 -18.081716 16.607877 25.390506 1.226994 0.857807 -0.005606 -0.002326 4945.460000 0 0 1
-6.655122 -17.773816 15.251477 24.347623 1.212522 0.893863 0.014249 -0.010132 468404.000000 0 1 0
-5.743022 -16.555616 14.874377 22.985165 1.236892 0.866983 0.000503 -0.011752 346218.000000 0 1 0
-6.072422 -15.532016 15.724177 22.920898 1.198106 0.814793 -0.007432 -0.008404 -82963.700000 0 1 0
-5.182522 -14.474216 15.524377 21.848747 1.226966 0.780533 -0.010151 -0.010634 -808979.000000 0 1 0
-5.477022 -13.353016 16.573577 21.976903 1.181553 0.716459 -0.020863 -0.000843 35266.500000 0 1 0
-5.084622 -13.676416 17.932377 23.118561 1.214851 0.683020 -0.021453 0.003565 -173483.000000 0 1 0
-5.851022 -14.666716 18.556677 24.365904 1.191211 0.705043 -0.003228 0.005645 -776144.000000 0 1 0
-7.016022 -14.067916 19.336277 24.920322 1.108169 0.682618 0.008454 0.006912 -769448.000000 0 1 0
-6.665222 -13.122816 20.340777 25.107383 1.100840 0.626386 -0.001482 0.004683 216212.000000 0 0 1
-7.734422 -12.718916 21.221277 25.921703 1.024439 0.611708 0.006964 0.014197 646779.000000 0 0 1
-7.279622 -11.677016 22.289277 26.194607 1.013338 0.553079 -0.002118 0.013647 -696780.000000 0 0 1
-6.945822 -10.430216 21.739077 25.092256 0.983302 0.522917 -0.006995 0.013404 139525.000000 0 0 1
-6.655522 -9.447916 22.737177 25.505652 0.957094 0.470247 -0.000251 0.006406 450458.000000 0 0 1
-5.250122 -9.673916 23.393777 25.853766 1.073568 0.439769 0.003682 0.005991 -33641.900000 0 0 1
-5.233222 -10.727416 24.305937 27.078453 1.116927 0.456475 0.014468 0.009106 -1075140.000000 0 0 1
-3.955422 -11.148916 24.607837 27.303650 1.229869 0.448115 0.019453 0.001642 -1006740.000000 0 0 1
-3.969922 -12.357216 25.529957 28.639828 1.259948 0.470340 0.020712 -0.000266 398711.000000 0 0 1
-2.677722 -12.926316 25.789047 28.971275 1.366533 0.473102 0.026029 -0.007700 736391.000000 0 0 1
-2.759122 -14.137116 26.536537 30.193685 1.378051 0.497293 0.028288 -0.012121 -76264.200000 0 0 1
-2.719522 -15.452516 25.701427 30.112114 1.396588 0.548084 0.032106 -0.024296 102310.000000 0 0 1
-1.411622 -15.659316 25.192947 29.696657 1.480893 0.557949 0.031544 -0.017601 172254.000000 0 0 1
-1.264022 -16.831216 24.371667 29.645670 1.495837 0.605709 0.019722 -0.005483 -572768.000000 0 0 1
0.160278 -17.417216 24.412337 29.989120 -1.561594 0.619722 0.026605 -0.010499 -129896.000000 0 0 1
0.506478 -18.005816 25.670597 31.359934 -1.542675 0.611863 0.035467 -0.020066 -22928.400000 0 0 1
0.896178 -17.030716 26.589757 31.588979 -1.518224 0.570295 0.046092 -0.020217 -948639.000000 0 0 1
1.389778 -17.630216 27.928307 33.056714 -1.492130 0.564492 0.043609 -0.017165 297578.000000 0 0 1
2.625978 -18.344016 27.920877 33.510805 -1.428611 0.585944 0.036886 -0.016071 484020.000000 0 0 1
3.120378 -18.733116 29.211487 34.842178 -1.405742 0.576466 0.031481 -0.014838 200606.000000 0 0 1
4.121478 -17.796216 29.886787 35.027302 -1.343216 0.548625 0.048376 -0.019522 -314447.000000 0 0 1
3.480478 -16.594116 30.276977 34.701207 -1.364052 0.510490 0.041854 -0.026383 -115494.000000 0 0 1
4.337378 -15.692916 30.896547 34.923875 -1.301138 0.484983 0.042924 -0.027501 -742666.000000 0 0 1
3.610378 -14.589816 31.650007 35.037416 -1.328211 0.443349 0.050974 -0.031549 -97485.400000 0 0 1
2.888678 -15.153216 32.745907 36.197497 -1.382425 0.440249 0.042836 -0.039703 -299424.000000 0 0 1
1.982478 -14.251716 33.264554 36.243236 -1.432579 0.408257 0.037176 -0.032518 -511028.000000 0 0 1
1.007478 -14.898216 34.257838 37.370728 -1.503275 0.411048 0.027838 -0.030349 -268639.000000 0 0 1
1.637378 -15.020416 -33.560979 36.805343 -1.462215 2.718566 0.053273 -0.026612 -198096.000000 0 0 1
0.825978 -15.477516 -32.462819 35.973190 -1.517481 2.696143 0.038138 -0.025831 8152.240000 0 0 1
1.494478 -15.515516 -31.076999 34.767004 -1.474771 2.676689 0.042013 -0.015905 -148177.000000 0 0 1
0.708978 -16.176416 -30.121079 34.197347 -1.526996 2.648349 0.044318 -0.018379 -683506.000000 0 0 1
1.247878 -16.145916 -28.842569 33.077812 -1.493662 2.629990 0.030601 -0.004839 32898.400000 0 0 1
0.915678 -17.357116 -27.979829 32.939016 -1.518090 2.585726 0.043233 -0.008959 -71300.600000 0 0 1
1.669278 -18.441116 -28.504019 33.990298 -1.480523 2.565491 0.057925 -0.014890 34686.400000 0 0 1
1.372578 -19.665916 -27.936789 34.192052 -1.501115 2.527081 0.043140 -0.002255 -697502.000000 0 0 1
2.398178 -20.777916 -28.351329 35.231675 -1.455885 2.505985 0.044829 -0.005494 1298350.000000 0 0 1
3.729778 -20.642516 -27.789619 34.817922 -1.392041 2.495000 0.039867 -0.008388 867183.000000 0 0 1
3.804578 -20.762416 -26.374809 33.781405 -1.389563 2.466660 0.039691 -0.006583 -1341140.000000 0 0 1
5.172878 -21.173416 -25.800059 33.774477 -1.331180 2.440119 0.041610 -0.009281 -54710.000000 0 0 1
5.579478 -22.531516 -26.034909 34.880027 -1.328050 2.413452 0.045563 -0.009195 211757.000000 0 0 1
5.778678 -22.943416 -27.400459 36.201915 -1.324062 2.429320 0.034201 -0.006116 -789076.000000 0 0 1
4.907178 -24.155316 -27.754949 37.120034 -1.370373 2.415400 0.008057 0.000280 -131779.000000 0 0 1
5.206878 -25.263716 -26.965709 37.316436 -1.367541 2.378386 0.019066 0.011460 -216567.000000 0 0 1
4.432278 -26.350196 -27.334129 38.224764 -1.404150 2.367549 0.022810 0.008118 -469859.000000 0 0 1
4.639478 -27.571946 -26.366419 38.430783 -1.404090 2.326877 0.032350 -0.002474 -732743.000000 0 0 1
5.950678 -28.040796 -26.303779 38.904828 -1.361684 2.313261 0.045031 -0.001364 -443159.000000 0 0 1
5.915478 -29.393106 -25.897969 39.618839 -1.372195 2.283231 0.029663 -0.003942 74896.300000 0 0 1
7.332178 -29.998916 -25.770619 40.222141 -1.331081 2.266215 0.002878 -0.009064 421547.000000 0 0 1
7.976678 -30.217246 -27.050869 41.333508 -1.312706 2.284256 0.014844 -0.008601 1038730.000000 0 0 1
9.347078 -30.646246 -27.082739 41.952772 -1.274760 2.272544 0.076486 -0.013987 952874.000000 0 0 1
10.007978 -30.446906 -28.473439 42.870858 -1.253219 2.297176 0.080697 -0.028174 73659.100000 0 0 1
9.666278 -31.370196 -29.477799 44.118781 -1.271892 2.302511 0.082501 -0.031672 -53477.600000 0 0 1
10.398378 -31.137186 -30.636409 44.902564 -1.248488 2.321682 0.070620 -0.021593 -124126.000000 0 0 1
-33.728562 -4.862116 -5.609239 34.535773 0.143168 1.733937 0.076587 -0.028571 -167686.000000 0 0 1
-33.477542 -4.000016 -4.472539 34.011021 0.118920 1.702681 0.065451 -0.040458 530845.000000 0 0 1
-32.764242 -2.795316 -4.752939 33.224987 0.085110 1.714342 0.056188 -0.031087 35870.100000 0 0 1
-33.639072 -1.684616 -5.452239 34.119672 0.050037 1.731282 0.060185 -0.021136 -195799.000000 0 0 1
-34.460317 -1.121016 -4.480339 34.768428 0.032519 1.700018 0.034266 -0.016428 29044.300000 0 0 1
-35.147889 -0.009016 -5.041939 35.507680 0.000257 1.713274 0.042329 -0.013662 -2509.810000 0 0 1
34.637216 0.940484 -4.021939 34.882621 0.027146 1.686353 0.041102 -0.005641 374863.000000 0 0 1
-34.876712 1.910384 -3.489539 35.102870 -0.054721 1.670370 0.018683 0.001260 615685.000000 0 0 1
34.860003 2.773284 -2.608939 35.067328 0.079388 1.645263 0.025515 -0.010474 -33682.600000 0 0 1
-34.848950 4.095284 -2.266439 35.161874 -0.116979 1.635298 0.006015 -0.013726 -371404.000000 0 0 1
-35.081739 5.091284 -3.258539 35.598703 -0.144120 1.662460 0.007758 -0.008024 815486.000000 0 0 1
-33.852392 5.557684 -3.833339 34.519079 -0.162722 1.682076 -0.000902 0.007095 436266.000000 0 0 1
-33.102112 6.622484 -3.042239 33.894872 -0.197455 1.660672 -0.014306 0.008666 -453629.000000 0 0 1
-32.653752 6.224784 -1.763839 33.288535 -0.188370 1.623808 -0.010668 -0.001202 242059.000000 0 0 1
-32.381412 7.377484 -0.956739 33.224967 -0.224007 1.599596 -0.006035 -0.013681 -153481.000000 0 0 1
-31.598022 7.022984 0.312561 32.370588 -0.218705 1.561140 -0.007622 -0.013236 152548.000000 0 0 1
-30.206392 6.719884 0.168761 30.945298 -0.218901 1.565343 -0.002389 -0.011847 491153.000000 0 0 1
-29.363882 7.202584 1.141961 30.255890 -0.240538 1.533044 -0.005145 -0.010205 -391382.000000 0 0 1
-29.035982 8.716484 1.171561 30.338719 -0.291637 1.532171 -0.011159 -0.008261 -538892.000000 0 0 1
-30.197902 9.514484 1.321961 31.688898 -0.305225 1.529067 -0.008414 -0.014100 426652.000000 0 0 1
-29.779712 10.776484 1.686961 31.714503 -0.347213 1.517579 -0.007626 -0.002755 -125644.000000 0 0 1
-30.944342 11.768584 1.646861 33.147610 -0.363422 1.521093 -0.008251 -0.002692 -841248.000000 0 0 1
-31.283322 12.125484 0.348061 33.552865 -0.369773 1.560423 -0.000094 -0.008853 792908.000000 0 0 1
-32.468892 12.894184 0.112461 34.935678 -0.378025 1.567577 -0.001786 -0.006820 913950.000000 0 0 1
-33.846272 12.249184 0.461861 35.997583 -0.347242 1.557966 0.007620 -0.013569 -147955.000000 0 0 1
-34.261662 11.204384 -0.382439 36.049216 -0.316061 1.581405 0.006179 -0.011533 -1112610.000000 0 0 1
34.948489 10.738984 0.023661 36.561226 0.298123 1.570149 0.012129 -0.017799 -728414.000000 0 0 1
34.372959 9.535084 -0.810739 35.680183 0.270597 1.593521 0.008413 -0.021417 217913.000000 0 0 1
34.015313 9.944184 -2.126439 35.502818 0.284419 1.630727 0.014391 -0.010383 316961.000000 0 0 1
33.472993 8.826084 -2.849239 34.734122 0.257810 1.652919 -0.001321 -0.014095 -39354.300000 0 0 1
32.888433 9.105984 -4.244139 34.388671 0.270109 1.694529 0.005786 -0.003190 -1000420.000000 0 0 1
31.614923 9.607984 -4.382939 33.332070 0.295037 1.702671 0.020904 -0.015534 -734498.000000 0 0 1
31.283543 9.949184 -5.709039 33.320256 0.307917 1.742984 0.015733 -0.007326 -376209.000000 0 0 1
29.913373 10.561784 -6.038639 32.292822 0.339415 1.758900 0.029400 -0.006447 -90892.900000 0 0 1
28.792683 9.714384 -5.921939 30.958960 0.325398 1.763266 0.029002 -0.004458 193753.000000 0 0 1
27.611083 10.341684 -6.371439 30.164840 0.358375 1.783620 0.018392 -0.005129 -485372.000000 0 0 1
26.480163 9.291084 -6.357239 28.773908 0.337449 1.793572 0.021820 0.000471 -508559.000000 0 0 1
26.538583 8.258384 -7.296239 28.735560 0.301686 1.827517 0.016128 0.000077 -269201.000000 0 0 1
25.376733 7.504184 -7.272339 27.444094 0.287517 1.838987 0.015202 -0.005011 -573253.000000 0 0 1
25.337263 6.495684 -8.394139 27.470573 0.250964 1.881332 -0.000376 -0.007949 -327406.000000 0 0 1
26.140483 5.361784 -8.212439 27.919845 0.202308 1.869356 0.017030 -0.010516 319098.000000 0 0 1
25.952093 4.460184 -9.260339 27.913407 0.170199 1.908957 -0.001104 -0.006812 18662.100000 0 0 1
27.014873 3.309984 -9.199039 28.729457 0.121917 1.896732 0.014072 0.000416 -1326310.000000 0 0 1
28.314753 3.646984 -9.514139 30.092268 0.128096 1.892481 0.055361 -0.000527 -453408.000000 0 0 1
29.285373 3.100084 -8.631139 30.687785 0.105465 1.855900 0.034956 -0.011135 99073.100000 0 0 1
29.382773 1.572684 -8.388339 30.597139 0.053473 1.848507 0.039380 -0.008704 -1368970.000000 0 0 1
28.347173 1.132784 -7.545839 29.356177 0.039940 1.830759 0.044758 -0.006646 140940.000000 0 0 1
28.459613 -0.197116 -7.048039 29.320015 -0.006926 1.813557 0.040753 -0.006219 -376392.000000 0 0 1
28.395593 -1.416916 -8.086939 29.558687 -0.049858 1.847919 0.028646 0.000482 -1505270.000000 0 0 1
29.511353 -1.686616 -8.812839 30.845272 -0.057089 1.860545 0.047408 -0.000481 -962018.000000 0 0 1
29.349403 -2.878916 -9.559439 31.000944 -0.097778 1.884264 0.021303 0.006326 160592.000000 0 0 1
30.357833 -3.088916 -10.713939 32.340809 -0.101401 1.908459 0.023782 0.012068 419219.000000 0 0 1
31.741563 -3.266116 -10.445939 33.575467 -0.102536 1.887166 0.046257 0.001906 349428.000000 0 0 1
32.373803 -3.858516 -11.573539 34.596215 -0.118627 1.911905 0.019133 0.007104 334130.000000 0 0 1
33.841443 -4.183416 -11.162939 35.879736 -0.122994 1.887169 0.038206 0.000395 128930.000000 0 0 1
33.919983 -5.174816 -10.165339 35.786563 -0.151392 1.858817 0.030087 -0.006972 540916.000000 0 0 1
-35.167889 -5.283716 -9.694139 36.860201 0.149127 1.836924 0.036744 -0.015677 354486.000000 0 0 1
-34.926311 -6.630816 -8.953639 36.660368 0.187619 1.817524 0.035997 -0.017497 -325716.000000 0 0 1
35.000383 -6.717016 -7.653139 36.451552 -0.189607 1.782324 0.036944 -0.017672 312080.000000 0 0 1
34.782601 -8.044016 -7.316539 36.442658 -0.227270 1.772939 0.036217 -0.015582 -387390.000000 0 0 1
34.559401 -8.234716 -5.795039 35.996462 -0.233915 1.732489 0.047416 -0.016632 -855103.000000 0 0 1
-34.679872 -8.255616 -5.076639 36.008624 0.233702 1.712252 0.043629 -0.017486 -104500.000000 0 0 1
-34.758408 -8.929316 -3.799939 36.087659 0.251459 1.676289 0.066200 -0.027006 -403375.000000 0 0 1
-34.252611 -10.398516 -3.875139 36.005378 0.294741 1.678632 0.068826 -0.034297 -43255.300000 0 0 1
-35.027741 -11.247516 -4.707439 37.089207 0.310703 1.698062 0.058210 -0.029687 243886.000000 0 0 1
-34.144693 -11.864116 -5.619439 36.581353 0.334415 1.725022 0.039526 -0.021290 -201055.000000 0 0 1
-34.737073 -12.511316 -6.888139 37.558538 0.345708 1.755238 0.036252 -0.020115 -232047.000000 0 0 1
-34.919220 -11.556016 -7.925339 37.625848 0.319591 1.783021 0.025833 -0.013736 409351.000000 0 0 1
34.811171 -12.143216 -9.025539 37.957024 -0.335633 1.810879 0.028906 -0.010265 118992.000000 0 0 1
34.904868 -11.301716 -10.333539 38.116409 -0.313134 1.845337 0.014900 -0.017464 -185881.000000 0 0 1
33.880683 -10.355316 -10.503139 36.951985 -0.296624 1.859007 0.013532 -0.010563 167339.000000 0 0 1
34.138623 -9.703016 -11.721339 37.376248 -0.276921 1.889782 0.013476 -0.014071 -714191.000000 0 0 1
33.118773 -8.658116 -12.169339 36.330551 -0.255704 1.912361 0.013496 -0.005634 -649721.000000 0 0 1
33.484183 -8.075916 -13.390139 36.955470 -0.236666 1.941565 0.016700 -0.001863 595066.000000 0 0 1
32.409573 -7.367816 -14.008939 36.068207 -0.223535 1.969692 0.007827 0.002935 56209.400000 0 0 1
32.766593 -6.602716 -15.308339 36.763987 -0.198845 2.000273 0.001158 -0.000441 -49714.000000 0 0 1
33.695973 -5.548316 -15.224839 37.389814 -0.163194 1.990174 -0.000028 0.000860 864553.000000 0 0 1
33.035773 -4.332916 -15.691439 36.828763 -0.130414 2.010935 0.005988 0.001860 1074970.000000 0 0 1
34.111473 -3.180616 -15.864239 37.754245 -0.092973 2.004459 0.014014 -0.002733 957577.000000 0 0 1
34.953584 -3.386816 -17.069739 39.046121 -0.096593 2.023244 0.016122 -0.005153 1062940.000000 0 0 1
-34.188654 -2.791616 -16.980739 38.275354 0.081473 2.030460 0.024184 -0.004378 203238.000000 0 0 1
-34.048962 -1.308816 -16.712639 37.952037 0.038420 2.026798 0.023184 0.000673 -1026970.000000 0 0 1
-34.377895 -0.382416 -17.684639 38.661769 0.011123 2.045887 0.012861 0.001214 97487.400000 0 0 1
-33.885622 0.912584 -17.361739 38.085406 -0.026925 2.044138 0.024596 -0.002274 -114597.000000 0 0 1
-34.198042 2.154284 -18.277039 38.835515 -0.062911 2.060798 0.022827 -0.007490 -155591.000000 0 0 1
-33.368952 2.186684 -19.422239 38.671591 -0.065437 2.096978 0.011602 -0.003936 296932.000000 0 0 1
-33.638522 3.284784 -20.250039 39.400559 -0.097341 2.110583 0.008382 -0.002529 -253610.000000 0 0 1
-32.599882 3.444384 -21.370839 39.132197 -0.105266 2.148521 -0.003513 0.006276 549382.000000 0 0 1
-31.262342 3.797784 -20.969739 37.834999 -0.120889 2.158248 0.001642 0.009861 903767.000000 0 0 1
-30.542072 4.269284 -22.093239 37.936212 -0.138884 2.192448 -0.007277 0.011691 -542415.000000 0 0 1
-29.174012 4.802884 -21.682539 36.665013 -0.163165 2.203551 0.009926 0.006480 351236.000000 0 0 1
-28.176352 3.767984 -21.410039 35.587839 -0.132940 2.216313 0.012071 0.011022 1461020.000000 0 0 1
-26.914882 4.347984 -21.056339 34.448298 -0.160162 2.228429 0.004947 0.018925 324935.000000 0 0 1
-25.954742 3.359984 -20.374439 33.167091 -0.128739 2.232291 0.020303 0.013915 -519390.000000 0 0 1
-26.489862 2.704184 -19.207239 32.832049 -0.101731 2.195695 0.022972 0.002589 385821.000000 0 0 1
-25.669862 1.780584 -18.463539 31.670405 -0.069254 2.193201 0.031583 -0.000723 24078.600000 0 0 1
-24.769622 2.401984 -17.337539 30.329754 -0.096671 2.179293 0.049187 -0.013116 258780.000000 0 0 1
-23.726922 3.250384 -17.776139 29.824871 -0.136144 2.209328 0.049043 -0.007573 270098.000000 0 0 1
-22.884122 3.472484 -16.638539 28.505827 -0.150593 2.194061 0.060763 -0.015972 133703.000000 0 0 1
-21.768622 4.527584 -16.856839 27.902060 -0.205063 2.219487 0.051949 -0.016924 755836.000000 0 0 1
-20.680322 3.955484 -17.637539 27.466423 -0.188985 2.268095 0.053710 -0.018498 558229.000000 0 0 1
-19.535022 4.773184 -17.589039 26.716562 -0.239644 2.289430 0.043587 -0.018635 -95098.900000 0 0 1
-18.265022 4.030184 -18.057339 25.998479 -0.217171 2.338596 0.040298 -0.023751 -143482.000000 0 0 1
-17.676522 3.255184 -17.029139 24.759791 -0.182113 2.329214 0.033583 -0.023035 -398857.000000 0 1 0
-16.640122 2.476084 -17.528639 24.295634 -0.147718 2.376723 0.025248 -0.019824 -1022520.000000 0 1 0
-16.805822 0.971784 -17.182839 24.054729 -0.057760 2.366452 0.021169 -0.020621 -607248.000000 0 1 0
-17.794122 0.192384 -17.749439 25.133849 -0.010811 2.354908 0.013312 -0.018748 -592432.000000 0 0 1
-19.088222 0.484484 -17.268539 25.744852 -0.025376 2.306025 0.028213 -0.023019 -368938.000000 0 0 1
-20.197922 -0.474216 -17.716539 26.871113 0.023474 2.290704 0.026214 -0.020819 -159029.000000 0 0 1
-20.017622 -1.695816 -17.000639 26.317346 0.084514 2.273111 0.011704 -0.020558 323554.000000 0 0 1
-20.908722 -2.684716 -17.483339 27.387032 0.127703 2.263188 0.030108 -0.010528 -65825.400000 0 0 1
-21.016422 -3.918916 -16.514539 27.014402 0.184352 2.228528 0.038781 -0.014467 -258452.000000 0 0 1
-21.593722 -3.465516 -15.342439 26.714960 0.159130 2.182547 0.031311 -0.016307 122037.000000 0 0 1
-22.032322 -4.560416 -14.609939 26.826683 0.204105 2.146714 0.028050 -0.018834 -273658.000000 0 0 1
-22.293922 -4.073816 -13.170239 26.212023 0.180738 2.097227 0.025597 -0.019954 -310891.000000 0 0 1
-23.266422 -3.078616 -13.046839 26.851895 0.131556 2.078168 0.023891 -0.023949 136866.000000 0 0 1
-23.543922 -2.746216 -11.727239 26.445909 0.116118 2.030232 0.031313 -0.027805 -138286.000000 0 0 1
-24.371322 -1.431616 -11.606039 27.031667 0.058674 2.014569 0.060754 -0.038228 -178846.000000 0 0 1
-24.644822 -1.074216 -10.232039 26.706101 0.043560 1.963984 0.055731 -0.034649 599481.000000 0 0 1
-25.364072 0.144784 -10.159639 27.323532 -0.005708 1.951773 0.070284 -0.037533 -216712.000000 0 0 1
-25.834242 0.522884 -8.743039 27.278603 -0.020237 1.897063 0.086179 -0.030245 -931375.000000 0 0 1
-24.800722 0.779784 -7.869139 26.030890 -0.031432 1.877901 0.063575 -0.024365 -173856.000000 0 0 1
-25.253272 0.974684 -6.547639 26.106500 -0.038577 1.824308 0.056609 -0.027235 -543186.000000 0 0 1
-24.162022 1.453184 -5.603939 24.845909 -0.060071 1.798302 0.030142 -0.016788 -479890.000000 0 1 0
-23.914922 2.834184 -5.769739 24.763804 -0.117961 1.805948 0.052677 -0.019162 -148124.000000 0 1 0
-22.580822 3.095084 -5.457839 23.436320 -0.136218 1.805834 0.042797 -0.009754 -534380.000000 0 1 0
-22.182022 4.640184 -5.547139 23.331184 -0.206213 1.810852 0.056139 -0.022051 -228324.000000 0 1 0
-22.553522 5.422484 -4.444639 23.618203 -0.235949 1.760112 0.053226 -0.023172 534568.000000 0 1 0
-22.193522 6.778684 -4.691939 23.675246 -0.296436 1.770296 0.048982 -0.019051 -359134.000000 0 1 0
-22.830622 7.684884 -3.632039 24.361577 -0.324691 1.720443 0.054987 -0.013021 -79238.000000 0 1 0
-22.220622 7.623584 -2.329139 23.607202 -0.330502 1.669619 0.042183 -0.017734 1158800.000000 0 1 0
-20.881722 8.113984 -2.162939 22.506918 -0.370613 1.667046 0.053051 -0.018478 369910.000000 0 1 0
-20.553022 9.628584 -2.301039 22.812960 -0.438111 1.671834 0.049779 -0.014621 -441649.000000 0 1 0
-20.346022 10.034384 -3.634239 22.975142 -0.458182 1.729645 0.034508 -0.011117 785018.000000 0 1 0
-19.541622 11.231484 -3.685339 22.838628 -0.521644 1.732869 0.017122 -0.008808 32883.500000 0 1 0
-19.428622 11.820084 -5.111039 23.308978 -0.546562 1.791866 0.021881 -0.005390 22665.000000 0 1 0
-18.543122 11.022284 -5.885339 22.360128 -0.536302 1.837141 0.029743 -0.004683 -46241.500000 0 1 0
-18.448122 11.521784 -7.183839 22.906162 -0.558276 1.889800 0.029433 -0.001455 569594.000000 0 1 0
-17.077522 11.283884 -7.945639 21.956798 -0.583892 1.941076 0.018582 0.000694 497002.000000 0 1 0
-16.881522 9.941384 -8.397539 21.315149 -0.532211 1.975744 0.014945 0.003046 498155.000000 0 1 0
-17.919922 9.391684 -9.214939 22.231564 -0.482735 1.998187 0.029131 0.000380 1305.840000 0 1 0
-18.071222 9.966984 -10.635639 23.216948 -0.504024 2.046651 0.039580 0.002072 177173.000000 0 1 0
-16.909922 9.633384 -11.375639 22.542243 -0.517833 2.099757 0.029663 -0.004321 287328.000000 0 1 0
-16.916622 10.302184 -12.641939 23.497356 -0.547009 2.138877 0.023895 -0.005386 33906.500000 0 1 0
-15.674322 10.009484 -13.519339 22.992318 -0.568313 2.199373 0.011749 -0.001303 -184735.000000 0 1 0
-15.616622 8.796684 -14.305839 22.932893 -0.512989 2.244408 0.006485 -0.006055 51882.100000 0 1 0
-15.598622 7.536984 -13.600439 22.024874 -0.450103 2.236361 0.009196 -0.005769 -312910.000000 0 1 0
-15.500022 6.361384 -14.535639 22.181134 -0.389449 2.285396 0.012782 -0.006162 -132282.000000 0 1 0
-14.368122 6.219184 -15.365939 21.937030 -0.408497 2.346834 0.011216 -0.010347 451876.000000 0 1 0
-14.527222 4.945884 -15.899339 22.097306 -0.328147 2.373900 0.012440 -0.016157 -142835.000000 0 1 0
31.421523 -16.105816 28.608607 45.444051 -0.473655 0.889842 -0.006165 0.010677 -47783.500000 0 0 1
30.573643 -14.977316 28.781287 44.580603 -0.455516 0.868986 -0.002808 0.012652 71159.900000 0 0 1
29.600873 -15.077516 29.810937 44.634461 -0.471108 0.839425 0.014746 0.001399 379233.000000 0 0 1
30.125683 -15.101416 31.304677 45.995569 -0.464671 0.822212 0.016246 -0.011897 124818.000000 0 0 1
30.738663 -13.922516 31.817007 46.379131 -0.425289 0.814792 0.025359 -0.013649 103270.000000 0 0 1
30.651433 -13.905116 33.205296 47.280591 -0.425888 0.792169 0.025553 -0.024636 -286240.000000 0 0 1
30.970383 -12.526216 33.889800 47.587701 -0.384343 0.778234 0.034774 -0.028078 10074.000000 0 0 1
30.553243 -12.378216 -33.853569 47.252355 -0.384926 2.369485 0.034826 -0.031185 58100.400000 0 0 1
30.964993 -11.049616 -33.449739 46.902131 -0.342757 2.364823 0.029547 -0.023963 74976.800000 0 0 1
30.588013 -10.616716 -32.038099 45.549764 -0.334078 2.350916 0.026326 -0.022806 -64440.600000 0 0 1
29.254533 -10.167216 -31.936099 44.487239 -0.334485 2.371536 0.053181 -0.029759 71611.200000 0 0 1
28.872693 -10.083816 -30.569859 43.241555 -0.336007 2.355981 0.026719 -0.017445 -311200.000000 0 0 1
27.435753 -9.516816 -30.428899 42.061957 -0.333889 2.379555 0.007985 0.000509 309303.000000 0 0 1
26.924883 -9.395016 -29.113099 40.752770 -0.335725 2.366539 -0.007969 -0.009286 75084.300000 0 0 1
26.327613 -10.578716 -28.680499 40.343816 -0.382066 2.361576 0.015562 -0.008653 -1140380.000000 0 0 1
26.006803 -10.597716 -27.172579 39.077033 -0.386953 2.339716 0.018893 -0.005705 -751185.000000 0 0 1
25.198263 -9.560616 -26.653999 37.905060 -0.362636 2.350654 0.006364 -0.011212 1603810.000000 0 0 1
23.822563 -9.411716 -27.112699 37.298705 -0.376254 2.384604 0.015223 -0.017203 1423070.000000 0 0 1
22.807263 -10.555516 -27.014769 36.896991 -0.433459 2.392295 0.023439 -0.011684 -1061410.000000 0 0 1
23.220763 -11.639916 -27.801249 38.047352 -0.464665 2.390145 0.025335 -0.012440 -608456.000000 0 0 1
22.500163 -12.826516 -27.704669 37.925263 -0.518116 2.389860 0.026475 -0.019584 -579344.000000 0 0 1
23.196963 -13.969716 -28.403489 39.242965 -0.542052 2.380069 0.015452 0.005324 -5849.510000 0 0 1
23.253263 -13.851016 -29.790029 40.249357 -0.537221 2.404070 0.020914 -0.008148 -459712.000000 0 0 1
24.139963 -14.792516 -30.227589 41.415740 -0.549764 2.388910 0.010231 -0.004204 -807227.000000 0 0 1
24.171863 -14.964016 -31.748679 42.616656 -0.554322 2.411306 0.026692 -0.015643 -204396.000000 0 0 1
22.894663 -15.265316 -32.276089 42.413930 -0.588069 2.435616 0.027448 -0.004871 173389.000000 0 0 1
22.946763 -15.628816 -33.640519 43.617638 -0.597922 2.451614 0.028249 -0.004290 85803.400000 0 0 1
23.263063 -14.634716 34.211005 43.883230 -0.561540 0.676783 0.024089 -0.007021 -10819.100000 0 0 1
22.220963 -13.698316 34.086919 42.934056 -0.552434 0.653540 0.026252 -0.007985 45715.900000 0 0 1
22.353763 -12.894216 32.906027 41.818156 -0.523205 0.665054 0.019852 -0.010381 -1039090.000000 0 0 1
21.402663 -11.705716 33.066083 41.090919 -0.500482 0.635617 0.027180 -0.014187 452436.000000 0 0 1
20.007363 -11.923716 32.915067 40.322093 -0.537448 0.615814 0.023746 -0.005737 440894.000000 0 0 1
19.610263 -12.428316 31.634807 39.240113 -0.564878 0.633120 0.017272 0.002570 -2198890.000000 0 0 1
18.119163 -12.646216 31.633007 38.585982 -0.609347 0.609725 0.013077 0.007665 -1149470.000000 0 0 1
17.441263 -11.423216 31.658657 37.907230 -0.579850 0.582370 0.024289 -0.001320 -384823.000000 0 0 1
16.329763 -11.568916 32.532467 38.195057 -0.616379 0.551489 0.006046 0.004941 96112.800000 0 0 1
15.670463 -10.197616 32.868057 37.813542 -0.576905 0.517186 0.007769 -0.001574 -739557.000000 0 0 1
14.853663 -9.801416 31.790487 36.432597 -0.583279 0.510330 0.007484 -0.006493 -57921.800000 0 0 1
14.144163 -8.583816 32.008947 36.032096 -0.545463 0.477067 0.012211 -0.002614 1993.030000 0 0 1
13.009563 -8.548316 33.015997 36.501760 -0.581336 0.440581 0.012095 -0.003105 -1605680.000000 0 0 1
12.027463 -9.510416 32.781487 36.190244 -0.669060 0.437509 0.002631 -0.000863 -321760.000000 0 0 1
10.902763 -9.423116 33.603464 36.563071 -0.712730 0.405121 -0.007559 0.008473 -656850.000000 0 0 1
9.735163 -8.604916 33.145817 35.601449 -0.723849 0.373587 -0.029806 0.013295 -1012730.000000 0 0 1
10.051663 -7.220816 33.330543 35.554201 -0.622949 0.355544 0.006354 0.004454 291553.000000 0 0 1
9.008163 -6.441116 32.801927 34.620823 -0.620743 0.325589 -0.010775 0.009254 -145524.000000 0 0 1
9.371263 -4.923516 32.804707 34.470427 -0.483748 0.312146 0.005565 0.005123 -105346.000000 0 0 1
9.427363 -4.300716 34.091280 35.631261 -0.427994 0.295076 -0.000440 -0.007872 -23561.900000 0 0 1
10.059063 -3.085316 33.899413 35.494705 -0.297611 0.300949 -0.002461 -0.006483 -427321.000000 0 0 1
10.130863 -2.174716 -33.878199 35.427337 -0.211454 2.844778 -0.001073 -0.007076 252265.000000 0 0 1
8.787563 -1.754516 -33.693469 34.864731 -0.197068 2.881653 0.007265 0.002429 318963.000000 0 0 1
8.728363 -0.918016 -32.573939 33.735569 -0.104791 2.878409 0.009932 -0.001812 168101.000000 0 0 1
7.239563 -0.625116 -32.272609 33.080559 -0.086134 2.920126 0.028992 -0.001990 -203396.000000 0 0 1
6.671963 0.228084 -33.207429 33.871824 0.034172 2.943202 0.029504 -0.004209 -1532630.000000 0 0 1
5.435563 0.531284 -32.704719 33.157598 0.097433 2.976126 0.038858 -0.002452 -1230230.000000 0 0 1
4.599663 1.497584 -33.524499 33.871695 0.314761 2.998290 0.031970 0.001973 -339486.000000 0 0 1
5.167263 2.780984 -33.551419 34.060714 0.493733 2.968446 0.037415 -0.000373 -307665.000000 0 0 1
4.489763 3.691584 -34.351748 34.840040 0.688145 2.973973 0.023633 -0.000267 110877.000000 0 0 1
5.421463 4.889184 34.380694 35.147240 0.733820 0.209233 0.030388 -0.003337 354412.000000 0 0 1
4.808863 5.784984 33.494759 34.329143 0.877279 0.220928 0.020897 -0.020543 28449.900000 0 0 1
5.797363 6.675484 33.049065 34.211287 0.855685 0.261404 0.025360 -0.015965 -90483.200000 0 0 1
5.218863 7.658784 31.999977 33.315042 0.972648 0.281908 0.033147 -0.012973 -212006.000000 0 0 1
4.170063 8.502384 32.447247 33.800943 1.114811 0.283969 0.037064 -0.008623 74717.000000 0 0 1
3.870063 9.621984 31.577977 33.237457 1.188386 0.317330 0.037774 -0.021555 -137800.000000 0 0 1
3.413163 9.368984 30.166597 31.771860 1.221435 0.319237 0.034368 -0.025964 -450629.000000 0 0 1
2.092363 8.946984 29.922937 31.301895 1.341063 0.297929 0.043008 -0.025417 -188490.000000 0 0 1
1.959563 8.652584 28.525907 29.873641 1.348082 0.301522 0.023156 -0.011910 1234910.000000 0 0 1
0.537963 8.068484 28.104577 29.244778 1.504220 0.280158 0.030830 -0.008933 1281590.000000 0 0 1
-0.550037 8.955384 28.330647 29.717452 -1.509454 0.306705 0.044308 -0.009716 -852475.000000 0 0 1
-1.657137 8.422084 27.700227 28.999658 -1.376517 0.300490 0.046928 -0.007120 -40216.400000 0 0 1
-2.987437 8.691084 28.482727 29.928672 -1.239713 0.312113 0.032899 -0.006137 -158939.000000 0 0 1
-3.287337 10.070684 28.584827 30.484710 -1.255275 0.354911 0.042260 -0.007474 -386223.000000 0 0 1
-4.443637 10.224384 29.354817 31.400465 -1.160813 0.362952 0.021296 0.000113 -784466.000000 0 0 1
-4.637037 11.645084 29.947847 32.465114 -1.191845 0.396386 0.007098 0.002013 -115643.000000 0 0 1
-4.913237 12.735584 29.132507 32.172005 -1.202601 0.438184 0.013015 -0.007805 785185.000000 0 0 1
-6.103137 12.594884 28.326517 31.595426 -1.119567 0.458904 0.009274 -0.009247 321024.000000 0 0 1
-6.365537 13.882684 27.478767 31.437741 -1.140877 0.507279 -0.000134 -0.005395 -329374.000000 0 0 1
-5.387837 14.290184 26.561477 30.639030 -1.210247 0.521814 0.004546 -0.003891 -266679.000000 0 0 1
-5.414937 15.695684 26.459527 31.237519 -1.238587 0.560399 -0.023145 0.006680 -584155.000000 0 0 1
-4.157437 16.252284 25.819457 30.790670 -1.320360 0.576184 0.004006 0.001563 -493203.000000 0 0 1
-4.151637 16.010384 24.429617 29.502112 -1.317076 0.595152 -0.003893 0.004632 213360.000000 0 0 1
-3.133637 16.858484 23.897677 29.413043 -1.387015 0.622393 0.004118 0.010239 47647.200000 0 0 1
-2.909237 16.730684 22.405277 28.113624 -1.398631 0.648560 0.000630 0.004282 8637.170000 0 0 1
-2.294537 15.501784 22.016377 27.023897 -1.423846 0.618584 -0.011385 0.003682 125072.000000 0 0 1
-2.379637 15.332284 20.648677 25.828462 -1.416821 0.644410 -0.015411 0.003149 179234.000000 0 0 1
-1.366637 14.298184 20.020877 24.640236 -1.475505 0.622321 -0.011366 -0.001332 80259.300000 0 1 0
-1.622137 12.953584 20.299977 24.135362 -1.446218 0.571504 -0.002034 0.001999 -336517.000000 0 1 0
-0.939637 12.215484 19.386177 22.933050 -1.494026 0.563599 0.003259 -0.000609 -689663.000000 0 1 0
-1.737437 10.948484 18.899777 21.910946 -1.413417 0.530464 -0.003889 -0.012000 -112965.000000 0 1 0
-1.972137 9.937084 19.885377 22.317329 -1.374880 0.471190 0.005207 -0.021678 -30519.500000 0 1 0
-2.712637 10.279984 21.022077 23.557677 -1.312802 0.468235 0.006759 -0.013100 -205153.000000 0 1 0
-4.230037 9.982984 20.866377 23.515077 -1.170006 0.479205 0.008718 -0.010037 26679.500000 0 1 0
-4.784837 8.722084 21.051077 23.283411 -1.069037 0.441473 0.013683 -0.015164 -88001.500000 0 1 0
-6.194037 8.722284 21.018377 23.584242 -0.953298 0.470803 0.020702 -0.012341 148996.000000 0 1 0
-6.840337 7.317584 20.924977 23.198963 -0.819094 0.446465 0.015129 -0.011145 -380034.000000 0 1 0
-6.749237 6.573684 22.143077 24.064109 -0.772222 0.402281 0.019274 -0.007487 -177290.000000 0 1 0
-7.564537 5.453284 22.135677 24.019756 -0.624616 0.398713 0.023559 -0.009431 -178192.000000 0 1 0
-7.762637 4.802384 23.487377 25.198775 -0.554023 0.370672 0.018774 -0.011713 -1914.120000 0 0 1
-8.469737 5.603384 24.432097 26.458679 -0.584471 0.393935 0.011026 -0.005306 230763.000000 0 0 1
-8.769437 4.850884 25.644327 27.532991 -0.505265 0.372546 0.009570 -0.000860 -194700.000000 0 0 1
-9.675837 5.486684 26.723877 28.946349 -0.515839 0.394416 0.002221 0.004880 -195543.000000 0 0 1
-9.165537 6.568284 27.462777 29.687599 -0.621799 0.389606 -0.003186 0.005497 111.116000 0 0 1
-10.195037 7.192484 28.204657 30.841097 -0.614400 0.416488 -0.011448 0.012208 323428.000000 0 0 1
-9.609437 8.391884 28.992087 31.675007 -0.717864 0.414548 0.001332 0.003090 -34381.400000 0 0 1
-8.906837 7.920584 30.103367 32.377153 -0.726855 0.377004 0.009174 0.000045 -98448.900000 0 0 1
-8.542537 9.024884 30.935577 33.338167 -0.812848 0.381968 0.011896 -0.004974 -180220.000000 0 0 1
-7.472037 8.643284 31.954307 33.935459 -0.857950 0.343386 0.021813 -0.006486 -546045.000000 0 0 1
-6.153437 8.468584 31.512037 33.205273 -0.942428 0.320725 0.026027 -0.007033 -778101.000000 0 0 1
-5.449137 7.942184 32.575657 33.969763 -0.969460 0.287484 0.043947 -0.010651 243253.000000 0 0 1
-3.904337 7.779284 32.414527 33.562816 -1.105639 0.262336 0.018587 -0.001654 541370.000000 0 0 1
-3.299637 9.034284 32.408237 33.805320 -1.220614 0.288497 0.005089 -0.002542 -1407020.000000 0 0 1
-1.948737 8.899384 32.154487 33.420168 -1.355225 0.276092 0.021278 -0.005493 -495364.000000 0 0 1
-1.240637 10.175584 31.531587 33.156035 -1.449472 0.314323 0.029130 -0.008168 227585.000000 0 0 1
-1.154237 11.225084 32.514567 34.417028 -1.468330 0.334047 0.031182 -0.012910 18410.200000 0 0 1
-1.413237 12.439884 31.882097 34.252241 -1.457676 0.374192 0.031778 -0.012077 -80983.700000 0 0 1
-1.633037 13.643384 32.852017 35.609882 -1.451669 0.396150 0.021049 -0.019840 -329170.000000 0 0 1
-0.435237 14.274484 33.258303 36.194820 -1.540315 0.405592 0.034894 -0.015371 42238.500000 0 0 1
-0.752137 15.031484 34.386324 37.535722 -1.520801 0.412564 0.032595 -0.017635 146517.000000 0 0 1
0.499963 15.480784 -33.901389 37.272092 1.538512 2.713032 0.018225 -0.018100 -342114.000000 0 0 1
1.369863 16.310284 34.442983 38.134249 1.487005 0.443621 0.025700 -0.017752 -47900.900000 0 0 1
2.470063 16.632584 -33.786379 37.739415 1.423366 2.679798 0.029728 -0.019013 390437.000000 0 0 1
3.617463 17.452484 -34.469782 38.805169 1.366415 2.664379 0.031204 -0.018000 -174926.000000 0 0 1
3.193963 18.757184 34.233661 39.166017 1.402135 0.507288 0.023603 -0.015128 -198168.000000 0 0 1
4.217363 19.499884 33.651434 39.120974 1.357801 0.535156 0.008412 0.001644 -436411.000000 0 0 1
3.886863 20.997384 33.614234 39.823542 1.387756 0.565950 0.015539 -0.008924 -65612.600000 0 0 1
3.901163 21.556084 -34.137250 40.561505 1.391757 2.571067 0.025482 -0.018500 154176.000000 0 0 1
3.418563 22.890684 -34.122898 41.231568 1.422549 2.545600 0.017114 -0.012351 4758.460000 0 0 1
3.408463 23.356684 -32.681159 40.313899 1.425888 2.516087 0.019269 -0.018447 -282186.000000 0 0 1
3.019263 24.678484 -32.617409 41.012668 1.449057 2.490300 0.020698 -0.018431 152643.000000 0 0 1
3.231863 25.010284 -31.263539 40.166754 1.442287 2.462820 0.036117 -0.015175 -97431.400000 0 0 1
2.599563 26.330284 -30.769829 40.581079 1.472386 2.431392 0.023502 -0.013961 -71615.600000 0 0 1
3.431563 27.459484 -30.906809 41.485295 1.446473 2.411341 0.014342 -0.007815 -220591.000000 0 0 1
2.752963 28.586784 -30.422499 41.836724 1.474790 2.384990 0.009259 -0.008456 -542336.000000 0 0 1
3.473563 29.910184 -30.198919 42.645744 1.455181 2.357649 0.012664 -0.005917 -255674.000000 0 0 1
4.458463 29.726184 -29.186799 41.897412 1.421922 2.341479 0.047059 -0.022380 393676.000000 0 0 1
5.223663 30.914784 -28.910659 42.647822 1.403408 2.315689 0.066031 -0.024149 314469.000000 0 0 1
6.541863 30.632284 -28.112739 42.088703 1.360396 2.302234 0.082457 -0.043814 449375.000000 0 0 1
7.666663 30.094584 -28.794649 42.350839 1.321350 2.318433 0.083328 -0.040793 647767.000000 0 0 1
8.684463 31.085184 -29.078899 43.442962 1.298366 2.304141 0.086678 -0.041977 383680.000000 0 0 1
8.358963 32.315284 -30.022729 44.894477 1.317675 2.303309 0.081643 -0.042651 -858775.000000 0 0 1
7.605663 33.327384 -29.326769 45.040204 1.346428 2.279861 0.074132 -0.039972 376851.000000 0 0 1
7.040563 34.359084 -30.067149 46.196857 1.368683 2.279498 0.072282 -0.032937 -825221.000000 0 0 1
5.885563 34.156284 -31.013119 46.509194 1.400159 2.300726 0.027123 -0.009505 -997926.000000 0 0 1
6.242563 33.560184 -32.232069 46.948502 1.386887 2.327517 0.025921 -0.014409 179565.000000 0 0 1
5.175763 33.526484 -33.170459 47.445685 1.417627 2.344969 0.016848 -0.008394 -126529.000000 0 0 1
5.531463 32.927584 34.505134 48.014863 1.404362 0.768960 0.007721 0.000888 -50513.000000 0 0 1
6.129963 33.806884 33.579206 48.042116 1.391422 0.796863 0.017136 -0.015722 -27040.600000 0 0 1
6.202963 33.219384 32.301997 46.748510 1.386195 0.807961 0.006912 -0.016619 -580158.000000 0 0 1
5.304963 33.762184 31.181967 46.263838 1.414943 0.831182 -0.006599 -0.028384 25879.200000 0 0 1
5.646963 -34.050630 30.593037 46.122310 -1.406452 0.845573 -0.006461 -0.024993 -251620.000000 0 0 1
4.681763 -33.784130 29.636197 45.183963 -1.433095 0.855421 -0.012132 -0.022719 -163843.000000 0 0 1
17.766078 -22.727916 29.111337 40.983675 -0.907323 0.780850 0.029317 0.010322 -587804.000000 0 0 1
17.026778 -21.529716 29.378827 40.206409 -0.901660 0.751449 0.004126 0.008685 100113.000000 0 0 1
15.637178 -21.658116 29.461817 39.769259 -0.945457 0.736508 -0.010275 0.013371 -166999.000000 0 0 1
15.032278 -22.058916 30.824957 40.776747 -0.972622 0.713701 -0.018491 0.011653 -256759.000000 0 0 1
15.400978 -23.368916 31.316447 42.000193 -0.988094 0.729322 0.023307 0.004236 330544.000000 0 0 1
14.678978 -23.479316 32.521977 42.713343 -1.012062 0.705325 0.019344 0.004612 -1468.680000 0 0 1
15.203678 -24.500216 33.587006 44.266233 -1.015401 0.709404 0.053240 -0.007340 207121.000000 0 0 1
14.856878 -25.852816 33.219495 44.638882 -1.049209 0.731485 0.047004 -0.011377 290939.000000 0 0 1
15.416178 -26.675986 34.285342 46.095026 -1.046782 0.732063 0.040646 -0.015349 394331.000000 0 0 1
15.255378 -28.193876 34.046869 46.763345 -1.074821 0.755298 0.040029 -0.008118 111554.000000 0 0 1
15.884278 -28.663436 32.860517 46.408150 -1.064761 0.784026 0.039424 -0.013756 185896.000000 0 0 1
15.557378 -29.989996 32.701267 47.019195 -1.092260 0.801698 0.045790 -0.009529 20533.300000 0 0 1
16.290878 -30.625096 31.466277 46.833917 -1.081920 0.834066 0.064344 -0.017323 1059540.000000 0 0 1
17.551378 -31.250306 31.767137 47.893460 -1.059061 0.845593 0.060854 -0.022450 702415.000000 0 0 1
18.287378 -31.583686 30.620217 47.639848 -1.045951 0.872722 0.039589 -0.014427 -376949.000000 0 0 1
19.599878 -32.326216 30.859787 48.800265 -1.025746 0.886189 0.022954 -0.015281 -394563.000000 0 0 1
20.749578 -31.583296 31.140897 48.967387 -0.989530 0.881555 0.017387 -0.015132 -533551.000000 0 0 1
21.893378 -32.380746 31.166627 49.991913 -0.976275 0.897670 0.019273 -0.013681 109334.000000 0 0 1
23.173278 -31.471776 31.298307 50.070525 -0.936108 0.895557 0.019433 -0.015562 334873.000000 0 0 1
23.477578 -30.915076 30.037477 49.083486 -0.921293 0.912251 0.008192 -0.008642 -509522.000000 0 0 1
24.324078 -29.840176 30.158767 48.904479 -0.886888 0.906269 -0.008198 -0.004059 -465307.000000 0 0 1
25.617478 -29.957676 29.334687 49.134930 -0.863336 0.931011 0.005266 0.001072 24338.300000 0 0 1
26.534478 -30.892366 29.906667 50.525494 -0.861139 0.937367 0.003866 -0.000667 -156030.000000 0 0 1
27.753978 -30.783106 29.230427 50.717854 -0.837099 0.956561 -0.002504 -0.010868 -272196.000000 0 0 1
28.956178 -31.610456 29.681567 52.140930 -0.829194 0.965195 -0.002425 -0.009573 43586.200000 0 0 1
28.755978 -32.936666 29.257697 52.609344 -0.853061 0.981073 -0.014178 -0.008182 837449.000000 0 0 1
29.857978 -33.771346 29.681117 53.971950 -0.846823 0.988509 -0.006380 -0.010654 103472.000000 0 0 1
29.303178 33.899808 30.098667 53.979653 0.857998 0.979313 -0.012367 -0.008684 -850746.000000 0 0 1
28.807778 33.762954 31.388947 54.360749 0.864426 0.955232 0.012557 -0.010680 1734180.000000 0 0 1
27.619278 -34.507678 31.793127 54.446371 -0.895823 0.947229 0.017831 -0.008812 2002490.000000 0 0 1
26.360678 34.463731 30.849017 53.238106 0.917839 0.952738 0.008659 -0.009937 -396810.000000 0 0 1
25.710578 33.199584 30.899337 52.134587 0.911846 0.936409 -0.003163 -0.006858 254196.000000 0 0 1
24.330278 33.351133 30.576287 51.372850 0.940533 0.933302 0.006686 -0.010301 910171.000000 0 0 1
23.501278 32.022868 30.687097 50.194342 0.937685 0.913011 0.024425 -0.017334 11197.200000 0 0 1
23.726978 31.189128 29.540557 49.075204 0.920454 0.924862 0.022940 -0.016201 234925.000000 0 0 1
23.008578 29.957488 29.610747 47.996271 0.915849 0.905950 0.048560 -0.029948 -107163.000000 0 0 1
22.583878 29.267768 28.310697 46.563175 0.913595 0.917250 0.049079 -0.028851 -560020.000000 0 0 1
21.469978 29.916148 27.781427 46.127470 0.948308 0.924448 0.065788 -0.031110 -501374.000000 0 0 1
21.098078 29.350158 26.569057 44.860622 0.947537 0.936938 0.062516 -0.029386 -348400.000000 0 0 1
19.676278 29.739818 26.154887 44.223192 0.986300 0.937966 0.080583 -0.027476 -449143.000000 0 0 1
19.605078 31.092718 25.836067 44.929039 1.008226 0.958141 0.079953 -0.021411 570553.000000 0 0 1
18.324178 31.484418 25.316107 44.361575 1.043711 0.963467 0.080140 -0.021480 389120.000000 0 0 1
18.292578 33.006468 24.899107 45.210738 1.064725 0.987553 0.082714 -0.020380 125334.000000 0 0 1
18.909178 33.390195 23.652077 45.076411 1.055518 1.018421 0.080625 -0.017721 214672.000000 0 0 1
20.304178 33.589204 23.615377 45.805898 1.027085 1.029143 0.078807 -0.017226 18906.300000 0 0 1
20.793278 33.738505 22.125477 45.389248 1.018473 1.061617 0.077167 -0.016953 49929.500000 0 0 1
20.364378 -34.111126 21.551577 45.196762 -1.032585 1.073741 0.071457 0.000737 292714.000000 0 0 1
20.925378 -33.954406 20.269777 44.739658 -1.018493 1.100601 0.079017 -0.009537 21986.200000 0 0 1
20.649578 -32.560376 19.638177 43.269402 -1.005613 1.099706 0.058052 -0.005049 17452.200000 0 0 1
21.038778 -31.444666 20.492277 43.027092 -0.981130 1.074395 0.055999 0.001300 115465.000000 0 0 1
20.570678 -30.226606 19.976377 41.663607 -0.973245 1.070748 0.059732 -0.006513 -340621.000000 0 0 1
21.381678 -29.586736 18.855277 41.086160 -0.945012 1.094017 0.043679 -0.006977 -560531.000000 0 0 1
21.240278 -30.207956 17.598277 40.906838 -0.957969 1.126078 0.033304 -0.013871 225661.000000 0 0 1
21.693378 -29.453826 16.487977 40.124605 -0.935977 1.147334 0.023272 -0.011560 -537962.000000 0 0 1
21.370478 -30.068926 15.181077 39.891136 -0.952914 1.180392 0.006957 -0.015805 -80422.700000 0 0 1
22.064878 -31.264206 14.714377 40.997833 -0.956218 1.203701 0.020060 -0.012133 270248.000000 0 0 1
22.039078 -31.471686 13.283977 40.652823 -0.959881 1.237916 0.006726 -0.014720 -255452.000000 0 0 1
20.659178 -31.719246 12.624677 39.903567 -0.993498 1.248886 0.004969 -0.015826 -262218.000000 0 0 1
20.023378 -32.912126 12.935277 40.638222 -1.024231 1.246857 0.008599 -0.010965 -534829.000000 0 0 1
18.877278 -33.081396 12.148677 39.979004 -1.052251 1.262037 0.001214 0.013448 -323676.000000 0 0 1
17.779878 -33.822266 12.968677 40.351658 -1.086812 1.243598 0.012940 0.006358 35847.400000 0 0 1
17.324378 -33.075326 14.116377 39.917206 -1.088302 1.209335 0.017068 0.002447 506656.000000 0 0 1
18.124578 -33.465626 15.237977 40.995663 -1.074434 1.189960 0.027192 -0.008123 -639574.000000 0 0 1
17.940078 -32.607146 16.522477 40.719340 -1.067808 1.152981 0.027693 -0.007711 315175.000000 0 0 1
16.598378 -32.351866 16.922677 40.106438 -1.096757 1.135208 0.021465 -0.009030 564533.000000 0 0 1
15.740978 -33.438546 17.305777 40.809370 -1.130827 1.132868 0.024993 -0.002440 -408181.000000 0 0 1
16.034978 -34.295794 18.574677 42.170376 -1.133445 1.114677 0.034978 -0.010051 -201357.000000 0 0 1
17.162778 33.931634 18.417077 42.250508 1.102516 1.119756 0.032341 -0.004988 -15822.900000 0 0 1
17.365978 33.222753 19.606877 42.305533 1.089144 1.088902 0.044999 -0.011387 126746.000000 0 0 1
18.083278 31.823708 19.440477 41.444969 1.054063 1.082562 0.059326 -0.015320 -69417.900000 0 0 1
17.337778 30.652438 19.090577 40.057716 1.056036 1.074040 0.037513 -0.014244 2978.860000 0 0 1
18.143978 29.515368 18.718777 39.379607 1.019616 1.075444 0.036261 -0.017788 129286.000000 0 0 1
17.405078 28.157148 18.596577 37.968334 1.017145 1.058945 0.043940 -0.013839 -31704.200000 0 0 1
17.078278 27.565348 19.822977 38.006136 1.016121 1.022103 0.053992 -0.025797 -67547.700000 0 0 1
16.597378 26.279328 19.560577 36.724544 1.007483 1.009092 0.045316 -0.018903 -623613.000000 0 0 1
16.346478 25.374918 20.799377 36.656621 0.998510 0.967438 0.052668 -0.019432 1229580.000000 0 0 1
15.088578 25.717888 21.443977 36.727633 1.040217 0.947315 0.058080 -0.020370 1209120.000000 0 0 1
14.066978 24.740778 21.404977 35.611220 1.053804 0.925952 0.050279 -0.008968 -327588.000000 0 0 1
12.811778 25.094298 22.155377 35.843077 1.098748 0.904446 0.036432 -0.018058 -635190.000000 0 0 1
12.079078 26.163198 21.571777 35.996647 1.138270 0.928205 0.044169 -0.020447 -974652.000000 0 0 1
10.897878 26.430838 22.220877 36.209395 1.179717 0.910087 0.016984 -0.013888 -698487.000000 0 0 1
10.149878 27.618778 21.471177 36.425655 1.218618 0.940416 -0.004673 -0.008977 99094.500000 0 0 1
10.748378 28.908258 21.490877 37.590860 1.214825 0.962214 0.002265 -0.005753 -354092.000000 0 0 1
10.133078 29.804438 20.591777 37.616553 1.243071 0.991527 -0.005768 -0.003533 -119824.000000 0 0 1
10.615778 31.285078 20.618077 38.942983 1.243664 1.012853 -0.008765 -0.003295 -401076.000000 0 0 1
10.256978 32.100768 21.729677 40.097927 1.261525 0.998082 -0.002430 -0.003758 -254563.000000 0 0 1
10.769778 31.671218 22.998877 40.595597 1.243014 0.968500 0.016645 0.000341 -33801.800000 0 0 1
10.205278 32.559388 24.115577 41.783040 1.267059 0.955547 -0.000874 -0.000828 251393.000000 0 0 1
8.860678 32.396748 24.514607 41.581568 1.303820 0.940289 -0.019214 0.004015 -161426.000000 0 0 1
8.565778 33.373982 25.549927 42.895151 1.319559 0.932738 -0.013800 0.000679 257958.000000 0 0 1
7.169878 33.090086 26.208367 42.816345 1.357417 0.912069 0.006599 -0.010600 446834.000000 0 0 1
5.985478 33.541040 25.609757 42.622610 1.394203 0.926233 -0.003961 -0.010429 66494.400000 0 0 1
5.629878 32.966898 24.330717 41.358139 1.401654 0.941850 -0.001060 -0.018137 -368771.000000 0 0 1
4.723878 31.706938 24.371307 40.269163 1.422899 0.920766 -0.012174 -0.018812 -140139.000000 0 0 1
5.371578 30.638828 25.051717 39.939706 1.397241 0.892794 -0.015210 -0.010743 -120276.000000 0 0 1
4.828778 29.354778 24.709347 38.672624 1.407759 0.877682 -0.029275 -0.004412 -1101890.000000 0 0 1
5.800278 28.206728 25.040907 38.161626 1.367989 0.855051 -0.029795 0.005989 141709.000000 0 0 1
6.930178 28.130288 24.181627 37.737137 1.329246 0.875268 -0.028736 0.006651 1183460.000000 0 0 1
7.953578 29.147108 24.414867 38.844549 1.304405 0.891138 -0.006964 0.002375 27112.400000 0 0 1
9.219478 28.720828 25.196087 39.303021 1.260184 0.874901 -0.005315 -0.008545 -239468.000000 0 0 1
8.964478 28.546308 26.600227 40.035304 1.266516 0.844080 -0.003789 -0.007052 123977.000000 0 0 1
10.121478 28.541768 27.413697 40.848348 1.230012 0.835093 0.006849 -0.006516 -25380.800000 0 0 1
10.804078 29.920978 27.648137 42.147508 1.224279 0.855309 0.010672 -0.016503 601541.000000 0 0 1
9.920378 30.896638 28.303237 43.059137 1.260111 0.853552 0.008740 -0.012033 1253620.000000 0 0 1
10.640478 32.155788 28.436447 44.224947 1.251234 0.872393 -0.003061 -0.000439 423251.000000 0 0 1
9.893778 33.234186 29.291797 45.391709 1.281452 0.869365 0.008088 0.003698 -203044.000000 0 0 1
10.058178 33.127478 30.700737 46.272367 1.276021 0.845337 0.024985 -0.017538 193487.000000 0 0 1
9.557878 31.942978 31.359617 45.772616 1.280058 0.816031 0.025542 -0.008197 -377043.000000 0 0 1
9.877578 32.013008 32.838157 46.912085 1.271515 0.795408 0.038473 -0.017477 -120806.000000 0 0 1
9.754078 30.738258 33.406369 46.432402 1.263520 0.767768 0.029271 -0.014828 27081.700000 0 0 1
10.320578 30.652618 -34.377239 47.200550 1.246023 2.386668 0.047380 -0.015154 -159419.000000 0 0 1
10.228678 29.185258 -33.903679 45.889700 1.233699 2.402096 0.042051 -0.009750 -288112.000000 0 0 1
11.154478 28.369338 34.471778 46.016792 1.196176 0.724074 0.046155 -0.005336 -35683.500000 0 0 1
11.106178 27.006438 -34.181445 44.956268 1.180636 2.434612 0.037763 -0.010686 -332172.000000 0 0 1
12.439978 26.312538 -34.480899 45.122446 1.129163 2.440539 0.036142 -0.015499 -218754.000000 0 0 1
12.474578 24.912898 -34.251127 44.152093 1.106567 2.458704 0.029831 -0.015300 -208988.000000 0 0 1
12.577378 24.472448 -32.878979 42.873283 1.096059 2.444773 0.030888 -0.010482 -236759.000000 0 0 1
12.671978 22.906198 -32.923919 42.062541 1.065491 2.469848 0.024241 -0.023635 -154120.000000 0 0 1
13.936078 22.457598 -33.358449 42.559888 1.015403 2.471558 0.017822 -0.010579 -52304.600000 0 0 1
13.875178 21.053098 -33.666569 42.061757 0.988081 2.498772 0.020062 -0.013902 -210897.000000 0 0 1
15.234378 20.655898 -34.234623 42.787402 0.935323 2.498275 0.031487 -0.024459 -499621.000000 0 0 1
16.287678 20.824198 -33.358169 42.564106 0.907034 2.471422 0.019914 -0.019418 -462198.000000 0 0 1
17.458978 20.121398 -33.715219 42.969787 0.856126 2.472889 0.031350 -0.021435 42564.200000 0 0 1
18.634478 20.245098 -32.721719 42.752996 0.826800 2.442407 0.024248 -0.019278 -97572.700000 0 0 1
19.231078 21.540098 -32.879489 43.759239 0.841971 2.420936 0.012976 -0.015499 -292804.000000 0 0 1
20.080678 21.880698 -31.817969 43.524496 0.828269 2.390635 0.011509 -0.009957 -204560.000000 0 0 1
19.406678 22.257498 -30.495329 42.449740 0.853715 2.372277 0.000632 -0.005727 -242258.000000 0 0 1
18.701978 23.456598 -30.480359 42.767140 0.897703 2.364143 -0.001537 0.002161 132727.000000 0 0 1
18.193278 23.840698 -29.167949 41.834716 0.918952 2.342307 0.004557 0.014508 431299.000000 0 0 1
19.350578 24.296368 -28.204979 41.955681 0.898230 2.308049 -0.005178 0.015707 267533.000000 0 0 1
20.193578 25.352078 -28.587569 43.217561 0.898178 2.293587 -0.005443 0.021741 -281065.000000 0 0 1
19.609378 26.648418 -28.644959 43.762993 0.936409 2.284380 -0.011019 0.024602 -543380.000000 0 0 1
20.539578 27.652078 -29.342519 45.249255 0.931928 2.276361 -0.016563 0.028236 -623314.000000 0 0 1
20.696278 27.647678 -30.755019 46.245013 0.928210 2.298351 -0.005838 0.020144 305.719000 0 0 1
21.168978 26.419598 -31.394569 46.170767 0.895287 2.318513 -0.001263 0.009763 471738.000000 0 0 1
22.646778 26.030138 -31.026739 46.401543 0.854793 2.303198 0.008908 0.008290 545432.000000 0 0 1
23.493778 27.094798 -31.516229 47.742626 0.856461 2.291785 0.016152 0.005006 -163557.000000 0 0 1
24.839978 26.735258 -31.315199 48.087838 0.822129 2.279972 0.029666 -0.007008 -281862.000000 0 0 1
25.889678 27.783858 -31.698839 49.467510 0.820674 2.266338 0.015419 -0.001324 -200552.000000 0 0 1
25.852678 28.720058 -30.638239 49.314342 0.837892 2.241177 0.008054 0.000923 96321.000000 0 0 1
26.705978 29.789958 -30.987279 50.604963 0.839932 2.229809 0.015701 -0.005742 148981.000000 0 0 1
26.705278 30.884558 -29.905839 50.610147 0.857841 2.202978 0.007048 0.002374 -35451.300000 0 0 1
27.306678 30.539888 -28.681369 50.009602 0.841233 2.181589 0.009533 -0.003604 -53760.400000 0 0 1
26.800778 31.366508 -27.713529 49.700897 0.863731 2.162296 0.003253 0.001489 -201920.000000 0 0 1
27.347278 31.141438 -26.232399 49.048971 0.850177 2.135092 0.007032 -0.001693 -448234.000000 0 0 1
27.216978 29.866498 -25.668729 47.871236 0.831780 2.136729 0.000388 0.011313 -465234.000000 0 0 1
25.928378 29.400328 -25.399729 46.709809 0.848067 2.145728 -0.008181 0.014265 -612831.000000 0 0 1
25.378078 29.822548 -23.990839 45.923758 0.865740 2.120466 -0.011975 0.017070 -271329.000000 0 0 1
25.072978 31.209578 -23.898139 46.624168 0.894001 2.108971 0.004875 0.010278 163922.000000 0 0 1
24.674678 31.622838 -22.626739 46.052285 0.908196 2.084409 -0.009993 0.021089 7260.920000 0 0 1
2.715478 -26.808026 -19.826139 33.453249 -1.469847 2.205144 0.012999 -0.000781 -199884.000000 0 0 1
2.879978 -27.770296 -18.811239 33.665210 -1.467459 2.163703 0.018746 0.000930 218052.000000 0 0 1
2.705678 -27.247656 -17.496039 32.494105 -1.471821 2.139378 0.025433 0.000449 -89006.400000 0 0 1
2.623878 -28.345946 -16.447539 32.877028 -1.478493 2.094712 0.019057 0.000367 -187080.000000 0 0 1
3.872278 -28.957926 -16.282239 33.446485 -1.437864 2.079236 0.020499 0.002260 -113770.000000 0 0 1
3.738578 -29.884006 -15.218539 33.743662 -1.446340 2.038687 0.015203 -0.001253 254505.000000 0 0 1
5.137878 -30.436646 -14.874839 34.264385 -1.403567 2.019857 0.039228 -0.002919 160650.000000 0 0 1
6.097878 -29.520726 -14.376039 33.396525 -1.367099 2.015804 0.020174 0.007061 65800.900000 0 0 1
7.357878 -30.131106 -14.105439 34.073235 -1.331288 1.997612 0.030738 0.005844 392411.000000 0 0 1
7.504778 -30.954016 -12.785839 34.321284 -1.332937 1.952534 0.020327 0.003929 -983986.000000 0 0 1
7.678178 -30.165096 -11.603739 33.219486 -1.321551 1.927626 0.013857 -0.005403 -119599.000000 0 0 1
7.916778 -30.870496 -10.379939 33.517250 -1.319755 1.885663 0.016978 -0.001590 -13323.800000 0 0 1
9.206978 -31.692016 -10.279039 34.566038 -1.288065 1.872737 0.021709 -0.003370 -871409.000000 0 0 1
10.363878 -30.987336 -10.033639 34.180388 -1.248036 1.868734 0.025062 -0.006495 -456333.000000 0 0 1
11.441478 -31.863706 -9.756139 35.233300 -1.226059 1.851364 0.026484 -0.010754 665752.000000 0 0 1
12.634678 -31.477246 -8.818739 35.046002 -1.189092 1.825164 0.030321 -0.010644 418918.000000 0 0 1
13.578578 -30.667516 -9.467339 34.849747 -1.153973 1.845916 0.021679 -0.014999 89350.400000 0 0 1
14.603278 -30.233596 -8.567939 34.651633 -1.120829 1.820647 0.027939 -0.018884 670134.000000 0 0 1
15.869878 -29.661516 -9.305639 34.903488 -1.079517 1.840671 0.035654 -0.024616 468813.000000 0 0 1
15.760178 -28.334856 -9.871539 33.892397 -1.063197 1.866341 0.024825 -0.024771 -590659.000000 0 0 1
14.838378 -28.220876 -10.889939 33.692523 -1.086727 1.899922 0.016362 -0.018204 -779318.000000 0 0 1
14.547378 -26.764836 -11.135539 32.434286 -1.072937 1.921252 0.009277 -0.015603 -864830.000000 0 0 1
13.762178 -26.160446 -10.088339 31.233653 -1.086512 1.899690 0.009835 -0.016963 495567.000000 0 0 1
13.339478 -24.799716 -10.393539 30.016550 -1.077299 1.924378 0.006019 -0.014625 192074.000000 0 0 1
12.614078 -24.489116 -11.720439 29.936608 -1.095150 1.973067 0.007352 -0.012300 125593.000000 0 0 1
13.518678 -24.213516 -12.813339 30.548825 -1.061595 2.003623 0.006581 -0.010201 287623.000000 0 0 1
12.779078 -23.976416 -14.002339 30.565321 -1.081110 2.046666 0.007569 -0.012041 90305.500000 0 0 1
13.483978 -23.161416 -15.136739 30.779697 -1.043587 2.084925 0.006540 -0.008029 318750.000000 0 0 1
14.481378 -23.953916 -15.798939 32.141980 -1.027037 2.084649 0.006845 -0.011619 376380.000000 0 0 1
14.992878 -23.391116 -16.945839 32.543696 -1.000799 2.118479 0.009426 -0.013910 -1045770.000000 0 0 1
15.805878 -24.286616 -17.911739 34.066052 -0.993855 2.124445 0.008364 -0.010728 137969.000000 0 0 1
17.048478 -24.767716 -17.504739 34.792331 -0.967942 2.098002 0.015810 -0.012153 -1193630.000000 0 0 1
18.049378 -23.870716 -17.225839 34.529997 -0.923383 2.093086 0.015822 -0.013702 -1210710.000000 0 0 1
19.285078 -24.675416 -16.730939 35.506545 -0.907407 2.061455 0.007259 -0.012261 81470.300000 0 0 1
19.860278 -25.458106 -17.728939 36.835596 -0.908298 2.072932 0.022310 -0.009798 -427598.000000 0 0 1
20.985078 -26.170846 -17.277339 37.733184 -0.894929 2.046407 0.048152 -0.014146 286043.000000 0 0 1
21.808778 -26.970266 -18.323039 39.226927 -0.890820 2.056809 0.053408 -0.007330 -267564.000000 0 0 1
22.623978 -26.260446 -19.206739 39.627696 -0.859651 2.076793 0.050180 0.000890 17011.900000 0 0 1
23.148278 -27.092096 -20.257839 40.990298 -0.863737 2.087723 0.042248 -0.004071 -61037.300000 0 0 1
24.072578 -26.321266 -21.219139 41.503614 -0.829991 2.107447 0.032472 -0.005514 53740.900000 0 0 1
23.490278 -25.189246 -21.803039 40.763511 -0.820285 2.135146 0.023474 0.004133 -280206.000000 0 0 1
24.360678 -24.135016 -21.521739 40.486132 -0.780745 2.131265 0.016622 0.004109 -290150.000000 0 0 1
23.726478 -22.723516 -21.613939 39.325136 -0.763809 2.152707 0.023633 0.005607 -411774.000000 0 0 1
23.535578 -22.161416 -22.918239 39.626979 -0.755336 2.187500 0.010650 0.019163 754926.000000 0 0 1
22.534678 -22.813916 -23.750739 39.904688 -0.791556 2.208294 -0.011936 0.016992 97272.600000 0 0 1
21.926378 -21.902616 -24.835239 39.714982 -0.784856 2.246359 -0.022619 0.011533 -734300.000000 0 0 1
22.821878 -21.312216 -25.722039 40.455803 -0.751205 2.259849 -0.022855 0.014706 -760515.000000 0 0 1
22.202278 -20.485616 -26.651529 40.285303 -0.745206 2.293706 -0.020932 0.018353 -228652.000000 0 0 1
23.082878 -19.868116 -27.762509 41.210657 -0.710690 2.309964 -0.014468 0.016291 -18548.400000 0 0 1
22.215678 -19.063816 -28.503119 40.858209 -0.709192 2.342853 -0.007315 0.011483 316608.000000 0 0 1
22.760178 -18.687816 -29.770989 41.875673 -0.687460 2.361627 -0.001405 0.007572 -361968.000000 0 0 1
21.917278 -17.593516 -30.394809 41.397383 -0.676399 2.395314 0.022863 0.005675 -1774830.000000 0 0 1
20.644078 -18.056616 -30.594229 41.088030 -0.718639 2.410735 0.017747 -0.005009 -1025950.000000 0 0 1
19.901778 -17.133716 -31.376529 40.916153 -0.710796 2.444714 0.018969 -0.003297 -58004.000000 0 0 1
18.596278 -17.727116 -31.945219 40.994747 -0.761474 2.464267 0.003242 0.005023 -212208.000000 0 0 1
18.700178 -18.532316 -33.053319 42.257133 -0.780890 2.468978 0.009512 0.008714 -209306.000000 0 0 1
17.508478 -19.158516 -33.419929 42.314149 -0.830368 2.481287 -0.006291 0.000686 -806354.000000 0 0 1
17.556378 -19.795616 34.273955 43.298924 -0.845276 0.657429 0.024238 0.005503 -598822.000000 0 0 1
18.514578 -20.818116 34.276650 44.170944 -0.843897 0.682497 0.028648 0.002727 109408.000000 0 0 1
18.565578 -21.460916 33.038123 43.551913 -0.857608 0.709647 0.023478 -0.002710 258200.000000 0 0 1
19.347278 -22.826416 33.202671 44.696530 -0.867707 0.733484 0.018245 0.004332 187942.000000 0 0 1
18.731078 -23.755716 34.056297 45.552373 -0.903115 0.726311 0.024674 0.000789 101978.000000 0 0 1
18.846178 -23.386616 -33.609849 45.074763 -0.892497 2.412301 0.025895 -0.002872 -203710.000000 0 0 1
17.958278 -24.173516 -32.601019 44.381134 -0.931861 2.395828 0.030355 -0.006785 -287146.000000 0 0 1
18.233178 -25.550936 -32.370479 45.090432 -0.951000 2.371579 0.028858 -0.013425 -388250.000000 0 0 1
19.445478 -25.761876 -31.723479 45.256823 -0.924220 2.347547 0.025971 -0.017696 -499136.000000 0 0 1
19.690878 -27.312586 -31.758799 46.285304 -0.946151 2.326984 0.026239 -0.014681 -60671.100000 0 0 1
18.767878 -28.098406 -31.034219 45.878933 -0.981917 2.313711 0.027470 -0.019003 47024.900000 0 0 1
19.129278 -29.481556 -31.026399 46.879941 -0.995226 2.294049 0.021149 -0.013013 -307049.000000 0 0 1
17.985778 -30.391676 -30.481399 46.650379 -1.036428 2.282865 0.028629 -0.011647 769433.000000 0 0 1
16.821878 -30.385476 -31.317939 46.766078 -1.065181 2.304564 0.028324 -0.015090 386134.000000 0 0 1
16.935278 -31.252296 -32.470709 48.144123 -1.074202 2.311013 0.031550 -0.012635 -397150.000000 0 0 1
15.551978 -31.838296 -32.817749 48.296437 -1.116417 2.317886 0.042440 -0.020644 -226952.000000 0 0 1
14.623878 -30.937486 -33.313539 47.757489 -1.129233 2.342778 0.051460 -0.019383 -1464390.000000 0 0 1
13.434478 -31.583826 -33.556389 48.000568 -1.168621 2.344911 0.026943 -0.015413 -781804.000000 0 0 1
12.437678 -30.725076 -34.362683 47.744321 -1.186154 2.374200 0.015339 -0.008962 -93088.700000 0 0 1
11.711978 -29.821306 -33.544179 46.386342 -1.196565 2.379145 0.024274 -0.011726 196171.000000 0 0 1
10.807278 -29.070586 -34.367884 46.293063 -1.214869 2.407439 -0.001946 -0.000173 207993.000000 0 0 1
9.933778 -28.085406 -33.554199 44.870417 -1.230830 2.415542 0.006651 -0.003517 -188800.000000 0 0 1
8.981678 -28.714226 -32.756689 44.476713 -1.267642 2.398664 0.022607 -0.009324 -801108.000000 0 0 1
7.999178 -27.798776 -32.368119 43.410298 -1.290613 2.412280 0.016748 -0.006871 441567.000000 0 0 1
6.971778 -28.544126 -31.398989 43.003132 -1.331241 2.389346 0.008331 -0.003202 1440910.000000 0 0 1
5.948978 -29.388126 -31.997619 43.850883 -1.371067 2.388667 -0.013467 0.007465 1281010.000000 0 0 1
6.512878 -30.704396 -32.286199 45.028615 -1.361779 2.370307 0.001744 0.004016 155745.000000 0 0 1
5.484778 -31.558446 -33.030749 46.011398 -1.398718 2.371551 0.020454 -0.008410 653229.000000 0 0 1
4.240678 -31.728676 -32.349169 45.510010 -1.437929 2.361452 0.013546 -0.009979 350896.000000 0 0 1
3.315878 -32.481526 -33.091389 46.487468 -1.469064 2.362903 0.016435 -0.018095 -82487.000000 0 0 1
2.042778 -32.822056 -32.271449 46.075012 -1.508639 2.346770 -0.002638 0.003282 241887.000000 0 0 1
1.143378 -31.704916 -32.172179 45.183605 -1.534749 2.363184 -0.031791 0.026154 199647.000000 0 0 1
0.483078 -31.769886 -30.927829 44.340610 -1.555592 2.342707 -0.032774 0.025102 -832267.000000 0 0 1
-0.610522 -30.760616 -30.777039 43.517978 1.550951 2.356363 -0.034960 0.028240 -1047730.000000 0 0 1
-1.358522 -30.944086 -29.597769 42.841685 1.526922 2.333479 -0.034547 0.028814 -10243.400000 0 0 1
-2.220422 -29.819446 -29.412139 41.942861 1.496471 2.347936 -0.031641 0.030731 -285644.000000 0 0 1
-2.767922 -29.840056 -27.958569 40.985021 1.478302 2.321517 -0.017896 0.025910 -757958.000000 0 0 1
-1.848322 -29.924616 -26.901859 40.281621 1.509109 2.302105 -0.026894 0.031126 -424325.000000 0 0 1
-2.426922 -30.124436 -25.607309 39.611941 1.490407 2.273724 -0.001547 0.017453 -248640.000000 0 0 1
-1.445922 -30.580066 -24.516539 39.221064 1.523548 2.246038 -0.013303 0.019381 -351436.000000 0 0 1
-1.925522 -30.668996 -23.180439 38.491918 1.508095 2.217070 0.020062 0.003836 -479000.000000 0 0 1
-0.925022 -31.087316 -22.291039 38.264440 1.541049 2.192662 0.023046 0.007043 -87990.600000 0 0 1
-1.427622 -31.293366 -20.821939 37.614705 1.525207 2.157427 -0.008705 0.011794 -2587.430000 0 0 1
-1.711922 -30.031576 -20.118939 36.188368 1.513854 2.160302 -0.010017 0.011127 -175738.000000 0 0 1
-0.580622 -29.320096 -19.686239 35.320719 1.550996 2.161995 0.008673 0.001739 -388229.000000 0 0 1
-0.852022 -27.950216 -19.097339 33.862205 1.540322 2.169984 0.003083 -0.002137 -497453.000000 0 0 1
-1.579622 -28.022646 -17.918539 33.299219 1.514486 2.138986 0.000780 -0.004312 -237327.000000 0 0 1
-1.462322 -26.783956 -17.271339 31.903258 1.516254 2.142857 -0.001102 -0.002980 -170969.000000 0 0 1
-2.326322 -26.553556 -16.016939 31.097355 1.483411 2.111872 -0.004822 -0.003089 -563367.000000 0 0 1
-2.313722 -25.235546 -15.552139 29.733065 1.479367 2.121232 -0.002369 0.000750 333732.000000 0 0 1
-3.229222 -25.092356 -14.474639 29.147374 1.442806 2.090476 -0.007849 0.002124 140227.000000 0 0 1
-2.857122 -23.761616 -13.774439 27.613633 1.451130 2.093042 -0.001756 0.001874 542105.000000 0 0 1
-1.666022 -23.806216 -12.985139 27.168463 1.500928 2.069115 -0.001730 0.003045 163489.000000 0 0 1
-1.514922 -22.676816 -12.260939 25.823703 1.504091 2.065526 0.005522 0.004614 281554.000000 0 0 1
-0.328022 -22.767816 -11.266439 25.404994 1.556390 2.030267 0.001441 0.005380 267269.000000 0 0 1
-0.044422 -21.494816 -10.732539 24.025330 1.568730 2.033890 0.002956 0.009928 549778.000000 0 1 0
1.207278 -21.630616 -10.022039 23.870114 -1.515041 2.004084 -0.002693 0.011959 975599.000000 0 1 0
1.954478 -20.347016 -9.658739 22.607793 -1.475033 2.012224 0.010229 0.017487 -681123.000000 0 1 0
2.571378 -19.681716 -10.781239 22.587985 -1.440884 2.068376 0.011879 0.024936 756539.000000 0 1 0
3.502478 -18.619116 -10.471839 21.647131 -1.384857 2.075733 0.013749 0.024254 910159.000000 0 1 0
4.841378 -19.025616 -9.822339 21.952024 -1.321619 2.034703 0.016756 0.011544 -289544.000000 0 1 0
4.571878 -19.402016 -8.488539 21.665540 -1.339379 1.973383 0.009046 0.006107 -310583.000000 0 1 0
5.606278 -20.256016 -8.145839 22.540879 -1.300784 1.940545 0.012510 0.004423 -579088.000000 0 1 0
5.098878 -21.294316 -7.116039 23.023564 -1.335774 1.885018 0.015687 0.001604 44566.300000 0 1 0
4.293378 -22.297216 -7.707439 23.979232 -1.380572 1.898027 0.010622 0.005095 48020.400000 0 1 0
4.068878 -23.334916 -6.810939 24.646764 -1.398163 1.850782 0.009740 -0.003711 343012.000000 0 1 0
2.969878 -24.337116 -7.285839 25.577311 -1.449366 1.859652 0.003691 -0.000582 332043.000000 0 0 1
3.466078 -25.026166 -8.382239 26.619253 -1.433174 1.891141 0.009244 0.000552 -341854.000000 0 0 1
2.453678 -25.383226 -9.257339 27.129818 -1.474430 1.919015 -0.001200 0.006639 -438926.000000 0 0 1
3.005378 -26.139646 -10.395139 28.290852 -1.456325 1.947049 -0.000466 0.004224 -101886.000000 0 0 1
3.281278 -27.524946 -10.229139 29.546992 -1.452145 1.924313 -0.003593 0.004843 -254579.000000 0 0 1
3.992378 -28.026876 -11.331439 30.493383 -1.429300 1.951532 0.009470 0.006286 243644.000000 0 0 1
4.320978 -29.555936 -11.171239 31.890764 -1.425628 1.928685 0.015363 -0.000222 599044.000000 0 0 1
3.197378 -30.311586 -11.656339 32.632587 -1.465701 1.936064 0.021294 0.004044 567740.000000 0 0 1
3.289978 -31.698126 -11.293239 33.810241 -1.467376 1.911360 0.033102 0.003523 21142.100000 0 0 1
2.090478 -32.577526 -11.702739 34.678804 -1.506715 1.915015 0.029692 -0.005719 16633.700000 0 0 1
1.843778 -32.775336 -13.089039 35.340418 -1.514601 1.950204 0.031740 -0.003060 418918.000000 0 0 1
0.619478 -33.453536 -13.314739 36.011181 -1.552281 1.949524 0.034372 -0.005653 191328.000000 0 0 1
0.065778 -33.499076 -14.774639 36.612599 -1.568833 1.986179 0.054854 -0.006171 -4514.210000 0 0 1
-0.607922 -32.321706 -15.138639 35.696508 1.551990 2.008756 0.033286 -0.008400 -219205.000000 0 0 1
-0.915022 -32.408876 -16.522539 36.389103 1.542570 2.042104 0.012773 -0.007438 154860.000000 0 0 1
-2.055822 -31.414306 -16.871439 35.717370 1.505447 2.062762 0.008773 -0.000827 157537.000000 0 0 1
-3.291122 -31.743556 -16.280539 35.826538 1.467487 2.042525 0.009578 -0.004630 -1397970.000000 0 0 1
-4.326822 -31.328596 -17.062839 35.935259 1.433554 2.065558 0.004433 0.001315 -474870.000000 0 0 1
-5.675422 -31.445646 -16.304839 35.873206 1.392235 2.042622 -0.003460 -0.002361 -165405.000000 0 0 1
-5.667422 -30.505336 -15.234339 34.565594 1.387106 2.027216 -0.019154 -0.005461 523351.000000 0 0 1
-6.978122 -30.297476 -14.686739 34.385049 1.344424 2.012108 -0.000669 -0.007829 812953.000000 0 0 1
-7.612722 -31.374526 -13.767239 35.097739 1.332756 1.973877 -0.008569 -0.006578 -71819.400000 0 0 1
-7.842522 -32.553566 -14.491139 36.486065 1.334390 1.979227 0.003703 -0.004068 -59574.300000 0 0 1
-8.593122 -33.475976 -13.672439 37.167436 1.319526 1.947504 0.004124 0.005440 416280.000000 0 0 1
-8.952522 34.378285 -14.508439 38.373284 -1.316042 1.958525 0.028641 0.003795 76540.300000 0 0 1
-7.899022 33.432142 -14.537139 37.301891 -1.338781 1.971119 0.019045 0.003002 70122.600000 0 0 1
-8.298422 32.267168 -15.212239 36.625758 -1.319073 1.999116 0.035186 0.005210 -326490.000000 0 0 1
-7.509622 -21.669916 -3.196739 23.155968 1.237202 1.709291 0.035315 -0.017369 247686.000000 0 1 0
-7.209022 -20.819216 -4.263739 22.440794 1.237450 1.761958 0.023847 -0.014555 -203659.000000 0 1 0
-6.088322 -21.176816 -5.032739 22.602072 1.290847 1.795346 0.019477 -0.004905 -2008.590000 0 1 0
-5.825722 -20.173216 -6.145539 21.878422 1.289660 1.855523 0.008130 -0.000169 -383706.000000 0 1 0
-6.835322 -20.291916 -7.084639 22.553838 1.245885 1.890327 0.015114 -0.005987 -529600.000000 0 1 0
-6.836222 -19.206916 -8.001139 21.901091 1.228853 1.944784 0.007962 -0.010429 -283752.000000 0 1 0
-7.818522 -19.387116 -9.141339 22.815645 1.187462 1.983035 0.013046 -0.017235 -4016.650000 0 1 0
-7.313922 -20.350816 -10.106239 23.870175 1.225779 2.007973 0.008936 -0.002002 123780.000000 0 1 0
-8.256322 -20.681216 -11.115139 24.888268 1.190964 2.033760 0.027628 0.003669 -110870.000000 0 1 0
-7.638522 -21.557816 -12.182739 25.913425 1.230272 2.060237 0.024388 0.003630 -390579.000000 0 0 1
-6.796322 -20.768816 -13.005139 25.429655 1.254543 2.107628 0.023826 0.003153 -230500.000000 0 0 1
-6.572822 -21.507416 -14.197439 26.595831 1.274203 2.133910 0.012260 0.004786 341947.000000 0 0 1
-5.532522 -20.765816 -15.125339 26.279342 1.310420 2.184085 0.001999 0.006411 -21766.400000 0 0 1
-4.243822 -20.718416 -14.572039 25.682818 1.368758 2.174123 -0.001831 0.002709 36403.700000 0 0 1
-3.188922 -20.203616 -15.381139 25.591694 1.414249 2.215574 0.004852 0.009313 437890.000000 0 0 1
-3.234422 -18.645316 -15.464739 24.439056 1.399035 2.255945 0.016090 0.010460 -620524.000000 0 1 0
-4.218022 -17.993916 -16.278939 24.628776 1.340540 2.292910 0.007743 0.011114 122868.000000 0 1 0
-4.114622 -18.226916 -17.637139 25.694732 1.348774 2.327338 0.012651 0.006015 -741191.000000 0 0 1
-5.475622 -17.913116 -18.271339 26.166850 1.274140 2.343764 0.014048 0.008532 -243557.000000 0 0 1
-6.458422 -18.703216 -17.650939 26.515602 1.238305 2.299203 0.006324 0.007887 -589159.000000 0 0 1
-7.733822 -18.497316 -18.226739 27.095696 1.174780 2.308621 0.006808 0.004186 135112.000000 0 0 1
-8.686722 -19.608016 -17.667639 27.786308 1.153763 2.259892 0.022635 -0.004333 -156635.000000 0 0 1
-8.257422 -20.899816 -17.944039 28.757188 1.194525 2.244628 0.016667 0.001606 595558.000000 0 0 1
-9.204722 -21.925816 -17.546039 29.552188 1.173328 2.206484 0.030758 -0.001878 461405.000000 0 0 1
-8.672722 -23.317316 -17.764239 30.569291 1.214708 2.190893 0.022951 -0.002233 -509407.000000 0 0 1
-8.772522 -23.619016 -19.169939 31.659148 1.215170 2.221203 0.008522 -0.006454 556841.000000 0 0 1
-7.950022 -24.740016 -19.560739 32.525279 1.259876 2.216050 0.010906 -0.007882 1453690.000000 0 0 1
-6.372422 -24.556416 -19.636839 32.081627 1.316895 2.229497 0.012968 -0.003128 703398.000000 0 0 1
-5.978022 -23.522316 -20.555539 31.805130 1.321923 2.273517 0.016507 -0.001749 48474.100000 0 0 1
-5.735022 -22.259716 -19.979739 30.456123 1.318639 2.286326 0.011025 -0.000369 295397.000000 0 0 1
-4.615622 -22.158316 -18.863939 29.464269 1.365431 2.265595 0.008857 0.006526 801999.000000 0 0 1
-3.318222 -22.531016 -19.353239 29.886538 1.424574 2.275171 0.006580 0.001722 318488.000000 0 0 1
-2.396022 -22.514016 -18.283339 29.101587 1.464772 2.250110 -0.002460 0.004338 420284.000000 0 0 1
-1.021422 -23.161316 -18.620639 29.735805 1.526725 2.247469 0.011524 -0.000695 636113.000000 0 0 1
-0.320122 -22.472516 -19.656839 29.858128 1.556552 2.289409 0.015121 0.002218 -101606.000000 0 0 1
1.002978 -22.938616 -19.852839 30.353275 -1.527100 2.283735 0.011569 0.000390 409313.000000 0 0 1
1.743478 -22.122416 -20.937739 30.509506 -1.492148 2.327144 0.023010 0.006186 60958.100000 0 0 1
1.163078 -22.317916 -22.175739 31.483417 -1.518729 2.352321 0.012640 -0.004411 -299542.000000 0 0 1
0.864078 -21.111516 -22.821539 31.100891 -1.529890 2.394681 0.018883 -0.000111 -441961.000000 0 0 1
0.463378 -21.344416 -24.318439 32.360243 -1.549090 2.421116 0.018869 -0.001291 195125.000000 0 0 1
-0.046622 -20.231916 -25.037839 32.190465 1.568492 2.461959 0.021167 0.000127 259687.000000 0 0 1
-1.330822 -19.836316 -24.564239 31.601462 1.503807 2.461180 0.019454 -0.001691 -209711.000000 0 0 1
-1.937022 -18.654416 -25.334799 31.521284 1.467330 2.504345 0.013946 -0.001016 256539.000000 0 0 1
-1.209722 -17.456016 -25.103549 30.600067 1.501606 2.532864 0.024530 0.004351 195603.000000 0 0 1
-1.909122 -16.402916 -25.759859 30.598542 1.454928 2.571527 0.026779 -0.001174 66080.100000 0 0 1
-1.374422 -15.012716 -25.400769 29.537599 1.479500 2.605962 0.032330 0.002715 337472.000000 0 0 1
-0.061022 -14.756816 -25.918179 29.824811 1.566661 2.624002 0.034114 -0.003362 155865.000000 0 0 1
0.475978 -13.583816 -25.396579 28.805084 -1.535771 2.650186 0.025362 -0.002708 195467.000000 0 0 1
0.033878 -12.290416 -26.116399 28.863849 -1.568040 2.701738 0.022528 0.002596 130058.000000 0 0 1
0.834578 -11.184916 -25.666299 28.009959 -1.496318 2.729607 0.012988 0.000391 281957.000000 0 0 1
0.520278 -10.023516 -26.334889 28.182760 -1.518937 2.777459 0.012258 0.003660 -670149.000000 0 0 1
1.409178 -8.828016 -26.031569 27.523849 -1.412506 2.810791 0.021505 -0.005438 690141.000000 0 0 1
2.783278 -8.781716 -26.458409 28.016292 -1.263872 2.806542 0.023447 -0.010190 680314.000000 0 0 1
3.141778 -9.000716 -27.838699 29.425785 -1.234960 2.811662 0.019681 -0.005305 339797.000000 0 0 1
4.611578 -8.585416 -28.182069 29.819542 -1.077879 2.808658 0.003826 -0.006482 -54654.300000 0 0 1
4.667878 -7.184416 -28.435039 29.697750 -0.994616 2.848938 0.004974 -0.006085 629560.000000 0 0 1
5.947378 -6.681116 -28.844299 30.199375 -0.843435 2.840891 0.012781 -0.005745 682705.000000 0 0 1
7.213178 -6.739316 -27.917639 29.611533 -0.751449 2.801717 0.016124 -0.005911 208725.000000 0 0 1
7.620478 -8.060816 -27.526319 29.677377 -0.813471 2.758515 0.006701 -0.007574 -65255.900000 0 0 1
8.351378 -8.695016 -28.529559 30.972320 -0.805554 2.741772 0.004082 -0.007116 -995915.000000 0 0 1
8.606678 -10.134616 -28.248469 31.221169 -0.866746 2.701673 0.016595 -0.001564 452224.000000 0 0 1
7.431278 -10.961416 -28.159929 31.118454 -0.975024 2.702005 0.013448 -0.010561 484521.000000 0 0 1
7.618478 -12.192816 -27.434779 30.973748 -1.012317 2.658888 0.024741 -0.011046 -362902.000000 0 0 1
8.737478 -13.172316 -27.814129 31.991862 -0.985113 2.624809 0.025672 -0.017089 -390589.000000 0 0 1
8.482378 -13.976016 -28.974089 33.268267 -1.025301 2.627873 0.038765 -0.022702 103279.000000 0 0 1
9.393078 -15.090716 -29.057789 34.063393 -1.014039 2.592599 0.019974 -0.025138 281064.000000 0 0 1
8.843578 -16.113816 -30.060139 35.234584 -1.068860 2.592777 0.026548 -0.029349 -42715.300000 0 0 1
8.541978 -15.387016 -31.272039 35.884065 -1.064014 2.628997 0.017909 -0.021881 300803.000000 0 0 1
7.913078 -16.201516 -32.259349 36.956347 -1.116459 2.631920 0.033884 -0.025600 -139724.000000 0 0 1
6.630978 -15.516116 -32.801399 36.887010 -1.166928 2.666477 0.026353 -0.016954 -128299.000000 0 0 1
6.876578 -14.302716 -33.575249 37.136941 -1.122636 2.700049 0.016717 -0.013098 -108194.000000 0 0 1
5.814178 -13.813716 -34.360891 37.487255 -1.172404 2.730293 -0.009965 -0.016548 -120781.000000 0 0 1
6.234078 -12.546416 33.888839 36.670556 -1.109647 0.392010 0.009847 -0.003727 -288174.000000 0 0 1
6.755878 -12.882816 32.659427 35.752580 -1.087812 0.419029 0.005137 0.004089 14133.900000 0 0 1
7.093978 -11.699516 31.921427 34.730112 -1.025722 0.404934 0.001640 -0.002266 -227857.000000 0 0 1
7.747878 -12.011616 30.531697 33.711912 -0.997921 0.437851 -0.012587 0.003061 -146237.000000 0 0 1
6.883378 -12.471616 29.529707 32.786059 -1.066478 0.449467 -0.006989 0.003956 -222570.000000 0 0 1
7.408678 -12.303516 28.251017 31.692033 -1.028791 0.470320 -0.025848 0.006297 -446315.000000 0 0 1
6.590178 -12.846516 27.080167 30.688741 -1.096808 0.489828 -0.007609 -0.005249 -340570.000000 0 0 1
6.621978 -14.230516 26.922147 31.163443 -1.135262 0.527831 0.001574 -0.003029 14378.100000 0 0 1
6.195678 -14.643716 25.609137 30.143867 -1.170541 0.555639 0.004296 -0.002799 -437389.000000 0 0 1
4.722378 -14.955016 25.423747 29.871730 -1.264933 0.552725 0.005809 -0.010690 -849802.000000 0 0 1
3.884278 -13.858716 25.374277 29.171999 -1.297531 0.515967 -0.004982 -0.014959 1357090.000000 0 0 1
2.471978 -14.211416 25.180107 29.019180 -1.398576 0.520228 0.002529 -0.015131 1868520.000000 0 0 1
1.555778 -13.031716 24.875237 28.125139 -1.451975 0.485486 0.010602 -0.013148 -562790.000000 0 0 1
1.933078 -12.426416 23.594777 26.736980 -1.416471 0.489693 0.001218 -0.010001 141526.000000 0 0 1
1.070478 -11.395516 23.099677 25.779813 -1.477133 0.460034 -0.002198 0.001852 885694.000000 0 0 1
-0.408322 -11.837216 22.851277 25.738439 1.536315 0.478195 0.008860 0.005364 -6802.200000 0 0 1
-0.561022 -12.799416 21.815777 25.299563 1.526993 0.531005 0.005100 0.007700 541286.000000 0 0 1
-1.932122 -13.221016 21.718677 25.499594 1.425683 0.551525 0.010933 0.009421 805988.000000 0 0 1
-2.312522 -13.848116 20.358177 24.730011 1.405331 0.603741 0.010926 0.003864 -58936.200000 0 1 0
-1.727322 -15.105216 20.086477 25.191621 1.456938 0.647909 0.012846 -0.005255 -280158.000000 0 0 1
-1.895622 -15.599716 18.787377 24.493061 1.449873 0.696568 0.008871 -0.006292 78685.300000 0 1 0
-2.910922 -16.787416 18.715977 25.309654 1.399104 0.738499 -0.004700 -0.009668 215352.000000 0 0 1
-2.658222 -17.693016 17.668277 25.145118 1.421670 0.791678 -0.007707 -0.011455 -554690.000000 0 0 1
-3.324322 -18.846716 17.998077 26.271288 1.396205 0.816075 -0.014656 0.004661 -415313.000000 0 0 1
-2.980722 -19.992116 17.041577 26.438320 1.422792 0.870324 -0.008845 -0.000844 667226.000000 0 0 1
-1.690322 -20.594616 17.186577 26.877013 1.488904 0.877010 -0.012457 -0.002293 313110.000000 0 0 1
-1.640522 -21.514816 18.246177 28.257771 1.494693 0.868850 -0.019592 0.005239 99084.200000 0 0 1
-0.246122 -22.202716 18.394477 28.833625 1.559712 0.878960 -0.002670 -0.003090 -541.114000 0 0 1
0.032978 -23.065316 17.337177 28.854594 -1.569367 0.926237 -0.001415 0.000326 -338469.000000 0 0 1
1.169678 -23.861316 17.647577 29.701305 -1.521816 0.934565 0.010101 0.003061 -601290.000000 0 0 1
2.359078 -23.349216 16.900577 28.920246 -1.470103 0.946674 0.017705 -0.008494 -1404600.000000 0 0 1
2.808878 -22.076716 17.302277 28.189359 -1.444244 0.909947 0.022301 -0.020881 -251003.000000 0 0 1
3.838878 -21.656816 16.422977 27.449387 -1.395359 0.929418 0.032162 -0.028192 -27007.200000 0 0 1
4.624378 -20.445316 16.919577 26.938224 -1.348356 0.891703 0.039739 -0.025600 -1094180.000000 0 0 1
5.479378 -20.812316 18.011377 28.063959 -1.313362 0.873957 0.039573 -0.018728 160733.000000 0 0 1
6.188478 -19.706216 18.569977 27.775461 -1.266512 0.838506 0.048298 -0.016005 259597.000000 0 0 1
7.216178 -19.032716 17.640377 26.935115 -1.208396 0.856718 0.047161 -0.017910 -1487870.000000 0 0 1
6.688278 -18.214716 16.635677 25.558848 -1.218890 0.862057 0.034566 -0.018555 -884191.000000 0 0 1
7.651678 -17.730816 15.781177 24.939438 -1.163394 0.885658 0.041336 -0.014409 -749553.000000 0 1 0
7.133278 -16.728616 14.746377 23.413370 -1.167731 0.889466 0.029756 -0.009641 -24343.500000 0 1 0
6.095778 -17.290316 13.947077 23.035505 -1.231848 0.920453 0.023494 -0.003908 127825.000000 0 1 0
5.623778 -16.333416 13.038677 21.642885 -1.239198 0.924234 0.017965 -0.009211 -149679.000000 0 1 0
6.103378 -16.562816 11.570477 21.105782 -1.217737 0.990570 0.018372 -0.005195 -75505.800000 0 1 0
7.479678 -16.318616 11.396777 21.263333 -1.141018 1.005125 0.025812 0.002490 -296138.000000 0 1 0
7.883078 -16.622116 10.101777 20.987700 -1.127958 1.068638 0.026047 0.002896 207825.000000 0 1 0
9.401178 -16.300516 10.062677 21.338848 -1.047655 1.079730 0.032719 0.006260 320019.000000 0 1 0
9.995878 -16.878216 8.904877 21.542715 -1.036106 1.144656 0.032587 0.009673 -147941.000000 0 1 0
11.363478 -16.506416 8.887177 21.921960 -0.967879 1.153379 0.030593 0.012367 740297.000000 0 1 0
12.349578 -17.288916 7.952477 22.686132 -0.950533 1.212645 0.036453 0.002354 377567.000000 0 1 0
12.662178 -18.540216 8.465677 23.994542 -0.971600 1.210217 0.042925 -0.003779 -361200.000000 0 1 0
13.614478 -19.251316 7.740977 24.817129 -0.955256 1.253582 0.052592 -0.001880 -188598.000000 0 1 0
14.124478 -20.530816 8.454677 26.315335 -0.968193 1.243712 0.046921 -0.005536 -864511.000000 0 0 1
13.113278 -21.390616 8.745177 26.570560 -1.020845 1.235414 0.043186 -0.005129 -854455.000000 0 0 1
13.622678 -22.624616 9.150677 27.949696 -1.028821 1.237248 0.038621 -0.004202 -259884.000000 0 0 1
12.546378 -23.444416 9.823077 28.346871 -1.079422 1.216926 0.042076 -0.005009 -277796.000000 0 0 1
12.393278 -22.972816 11.136377 28.378910 -1.076069 1.167538 0.048872 -0.016540 -240954.000000 0 0 1
11.218078 -23.423216 11.782177 28.518626 -1.124146 1.144897 0.047766 -0.009968 -44468.700000 0 0 1
11.180678 -24.890016 12.289077 29.925606 -1.148605 1.147625 0.036301 -0.012112 -862554.000000 0 0 1
12.213178 -25.215586 13.133077 30.942935 -1.119747 1.132465 0.031844 -0.016767 -727561.000000 0 0 1
11.900678 -26.373696 13.923177 32.110012 -1.146918 1.122303 0.032017 -0.014501 467147.000000 0 0 1
13.046978 -26.807006 14.905777 33.331988 -1.117845 1.107174 0.023920 -0.011825 276014.000000 0 0 1
13.085978 -26.067906 16.124277 33.328229 -1.105553 1.065802 0.018730 -0.015018 -740229.000000 0 0 1
14.149578 -26.444786 16.889377 34.420754 -1.079495 1.057933 0.020432 -0.012694 -1227660.000000 0 0 1
14.161578 -25.917976 18.372477 34.782750 -1.070721 1.014309 0.027257 -0.013432 -309331.000000 0 0 1
14.703178 -24.671516 18.728677 34.287468 -1.033354 0.992945 0.022013 -0.008754 -1405100.000000 0 0 1
16.049478 -24.752516 18.963077 35.069518 -0.995548 0.999494 0.026450 -0.009502 -1572790.000000 0 0 1
16.508278 -23.348116 19.387277 34.547421 -0.955355 0.974987 0.023213 -0.007219 -330218.000000 0 0 1
16.422278 -22.297716 18.400577 33.248467 -0.935991 0.984324 0.018836 -0.015059 -367368.000000 0 0 1
15.212878 -21.614216 18.471577 32.246010 -0.957500 0.960838 0.027879 -0.016299 -1016890.000000 0 0 1
15.129178 -20.487316 17.397377 30.843004 -0.934718 0.971499 0.035334 -0.016647 818995.000000 0 0 1
16.092578 -19.390016 17.504377 30.681379 -0.878063 0.963656 0.029839 -0.019912 572784.000000 0 0 1
17.427078 -19.699616 17.204377 31.428785 -0.846532 0.991532 0.023946 -0.021688 -381175.000000 0 0 1
18.382978 -18.506716 17.482377 31.401687 -0.788752 0.980348 0.027228 -0.021733 -143803.000000 0 0 1
18.502378 -18.107416 18.835677 32.015609 -0.774610 0.941807 0.019214 -0.016929 201765.000000 0 0 1
19.181778 -16.867816 18.936277 31.796956 -0.721298 0.932862 0.030558 -0.015857 -247552.000000 0 0 1
19.508078 -16.507416 20.404477 32.701721 -0.702274 0.897000 0.030546 -0.008580 82521.700000 0 0 1
20.654778 -17.264616 20.758977 33.994440 -0.696231 0.913905 0.034437 -0.009395 60438.300000 0 0 1
20.860078 -17.067616 22.118577 34.866572 -0.685738 0.883593 0.027936 0.000116 -38264.700000 0 0 1
32.350753 -0.560416 -7.624539 33.241825 -0.017321 1.802222 0.072136 -0.014348 131178.000000 0 0 1
33.609713 -0.176616 -8.196639 34.595215 -0.005255 1.810001 0.044588 -0.015028 501337.000000 0 0 1
34.329953 -1.317116 -8.472939 35.384618 -0.038348 1.812598 0.050431 -0.015657 -252892.000000 0 0 1
-34.665449 -1.154116 -9.009639 35.835722 0.033281 1.824938 0.027214 -0.013019 -97152.100000 0 0 1
-33.965352 -2.346816 -9.196939 35.266647 0.068985 1.834629 0.049213 -0.007309 -38390.900000 0 0 1
-32.574432 -2.097316 -9.153739 33.901081 0.064297 1.844203 0.095866 -0.019513 3220.970000 0 0 1
-31.665392 -3.337316 -9.087339 33.112150 0.105006 1.848805 0.088038 -0.013953 -327438.000000 0 0 1
-31.502622 -3.804516 -7.787839 32.673230 0.120186 1.811468 0.072227 -0.019040 1255010.000000 0 0 1
-30.340322 -4.683016 -7.715639 31.654334 0.153141 1.817024 0.061295 -0.019963 901778.000000 0 0 1
-29.777462 -4.863516 -6.269039 30.816422 0.161899 1.775658 0.040303 -0.030947 -112106.000000 0 0 1
-29.192712 -3.643316 -5.843539 29.993918 0.124160 1.766874 0.036386 -0.023966 413198.000000 0 0 1
-28.800802 -3.736816 -4.475739 29.385068 0.129026 1.723705 0.036228 -0.025601 -236488.000000 0 0 1
-28.858562 -2.345516 -3.826039 29.205421 0.081098 1.702178 0.031799 -0.016689 184667.000000 0 0 1
-27.707662 -1.531916 -4.071839 28.047124 0.055232 1.716490 0.028751 -0.015197 752921.000000 0 0 1
-27.788882 -0.281016 -3.364439 27.993220 0.010112 1.691275 0.045030 -0.025383 -1059070.000000 0 0 1
-26.417432 0.192484 -2.968439 26.584383 -0.007286 1.682691 0.066390 -0.014859 -1278940.000000 0 0 1
-25.880492 -0.406516 -1.850339 25.949738 0.015706 1.642162 0.039137 -0.014049 1128350.000000 0 0 1
-24.501522 0.044484 -1.793539 24.567119 -0.001816 1.643867 0.045376 -0.015616 617365.000000 0 1 0
-23.895022 -0.382816 -0.513839 23.903612 0.016019 1.592294 0.025440 -0.008254 -653520.000000 0 1 0
-23.884022 -1.808216 -0.271539 23.953912 0.075564 1.582132 0.011506 -0.010248 453960.000000 0 1 0
-23.125422 -2.173116 0.880061 23.243969 0.093696 1.532925 -0.001196 -0.010634 -966520.000000 0 1 0
-22.917722 -3.650116 1.105761 23.232909 0.157944 1.523184 -0.016255 0.004291 -192089.000000 0 1 0
-24.054122 -4.467216 1.400461 24.505471 0.183623 1.513616 -0.024305 -0.000866 503525.000000 0 1 0
-23.763322 -5.866416 1.258661 24.509071 0.242029 1.519419 -0.048751 0.012453 -595302.000000 0 1 0
-24.922022 -6.816316 1.698361 25.893122 0.266976 1.505158 -0.031352 0.016333 200008.000000 0 0 1
-25.111472 -6.953216 3.096061 26.239643 0.270126 1.452529 -0.025020 0.019183 640818.000000 0 0 1
-26.331662 -7.655316 3.360161 27.626997 0.282928 1.448868 -0.003652 0.028494 452940.000000 0 0 1
-26.606682 -7.847616 4.880361 28.165911 0.286817 1.396645 -0.001718 0.012122 136639.000000 0 0 1
-25.725602 -8.831116 5.457161 27.741230 0.330677 1.372788 -0.008238 0.029517 417189.000000 0 0 1
-25.932612 -8.921016 6.886361 28.275552 0.331326 1.324777 -0.004755 0.017216 111557.000000 0 0 1
-25.222092 -7.790616 7.697861 27.497358 0.299584 1.287055 0.014860 0.020802 327543.000000 0 0 1
-23.809622 -7.714816 7.544061 26.140569 0.313346 1.278036 0.012053 0.002099 236934.000000 0 0 1
-23.389022 -6.612616 8.223561 25.659306 0.275532 1.244549 0.015377 0.000536 264726.000000 0 0 1
-21.944022 -6.148716 7.821361 24.093993 0.273194 1.240188 0.005386 -0.006534 1060820.000000 0 1 0
-20.898222 -6.792316 8.548761 23.578646 0.314249 1.199779 0.003297 -0.012805 28575.700000 0 1 0
-19.622822 -6.482416 8.052761 22.179356 0.319064 1.199231 -0.002370 -0.010281 -120962.000000 0 1 0
-18.504422 -6.894116 9.022661 21.710617 0.356635 1.142208 -0.003245 -0.011942 -386278.000000 0 1 0
-18.498322 -6.017516 10.130161 21.932136 0.314504 1.090675 -0.006788 -0.007698 -166344.000000 0 1 0
-17.491922 -6.150516 11.083161 21.601681 0.338118 1.032039 -0.010738 -0.006389 -338645.000000 0 1 0
-17.222522 -4.869616 11.895861 21.490461 0.275554 0.984186 -0.024877 -0.004915 -595952.000000 0 1 0
-18.325922 -4.794316 12.720661 22.817539 0.255879 0.979431 -0.015227 -0.005458 -276909.000000 0 1 0
-18.438422 -3.555016 13.412561 23.076185 0.190468 0.950557 -0.012275 0.005301 343241.000000 0 1 0
-19.658822 -3.525416 14.374061 24.607143 0.177444 0.946974 -0.005691 -0.000479 367976.000000 0 1 0
-19.309222 -4.294616 15.535261 25.152219 0.218850 0.905046 0.001216 0.000388 -114260.000000 0 0 1
-20.382422 -4.326516 16.405161 26.519637 0.209162 0.903831 0.007214 0.008472 -577031.000000 0 0 1
-20.062722 -5.116416 17.646661 27.204690 0.249699 0.864971 0.006784 0.017332 -205771.000000 0 0 1
-21.077622 -4.973916 18.627761 28.565704 0.231741 0.860442 0.012591 0.013913 567835.000000 0 0 1
-20.869522 -5.729216 19.812161 29.340801 0.267925 0.829503 0.017338 0.013201 -608027.000000 0 0 1
-21.924422 -5.393216 20.871461 30.747113 0.241202 0.824655 0.023523 0.012512 -697713.000000 0 0 1
-21.861722 -4.090616 21.429561 30.885176 0.184974 0.803980 0.014778 0.010728 107870.000000 0 0 1
-22.731322 -4.008916 22.513761 32.243663 0.174566 0.797863 0.019417 0.004406 -534541.000000 0 0 1
-22.734022 -2.551916 23.093461 32.506245 0.111783 0.780685 0.010098 0.015042 -332151.000000 0 0 1
-23.509922 -1.662316 22.359561 32.487377 0.070590 0.811717 0.017525 0.017381 -104318.000000 0 0 1
-23.143122 -0.313916 22.624961 32.366518 0.013563 0.796765 0.014814 0.008466 342637.000000 0 0 1
-24.291722 0.629184 22.144661 32.876582 -0.025895 0.831769 0.004226 0.014703 1173060.000000 0 0 1
-25.438382 0.659884 23.002461 34.302477 -0.025935 0.835810 0.001635 0.013915 431601.000000 0 0 1
-26.545972 1.428984 22.576561 34.877381 -0.053779 0.866743 -0.006086 0.013948 615118.000000 0 0 1
-27.558772 1.543684 23.774161 36.429104 -0.055956 0.859766 -0.000555 0.009150 -159113.000000 0 0 1
-27.098532 2.267984 24.903261 36.873386 -0.083499 0.829327 0.003957 0.004833 289713.000000 0 0 1
-28.030452 2.271384 26.000761 38.300196 -0.080856 0.824577 0.011998 -0.000504 7909.180000 0 0 1
-27.531772 3.040684 27.235761 38.846247 -0.109997 0.793834 0.028839 -0.006608 455382.000000 0 0 1
-26.497402 2.440284 28.033561 38.651621 -0.091836 0.759344 0.022653 -0.006669 676768.000000 0 0 1
-25.882072 3.415384 28.854361 38.911703 -0.131201 0.735442 0.026059 -0.002275 693449.000000 0 0 1
-24.605522 2.909584 29.640461 38.632296 -0.117703 0.696261 0.024702 -0.000805 642603.000000 0 0 1
-24.946022 1.937784 30.623261 39.545456 -0.077523 0.685060 0.027504 -0.000978 -265288.000000 0 0 1
-23.835922 1.592884 31.359061 39.421811 -0.066728 0.651005 0.010343 -0.007022 -611966.000000 0 0 1
-24.226922 0.598384 32.397961 40.458988 -0.024694 0.642232 0.017034 -0.009089 -224706.000000 0 0 1
-24.442022 -0.687916 31.760061 40.082255 0.028137 0.656109 0.019518 -0.010479 -62792.300000 0 0 1
-24.861022 -1.747916 32.601761 41.036574 0.070192 0.652685 0.008060 -0.007196 -672895.000000 0 0 1
-25.369472 -2.932716 31.701561 40.708720 0.115089 0.678139 0.012534 -0.005882 286945.000000 0 0 1
-26.679112 -2.760416 31.177161 41.126759 0.103100 0.710440 0.013922 -0.005034 401898.000000 0 0 1
-26.714632 -1.792116 30.089961 40.277649 0.066983 0.727163 0.014419 -0.002746 -366035.000000 0 0 1
-28.129002 -1.507816 29.503361 40.791697 0.053552 0.762272 0.037021 -0.011686 1334470.000000 0 0 1
-29.110902 -1.089216 30.504961 42.180370 0.037399 0.762368 0.033386 -0.000968 565772.000000 0 0 1
-30.321852 -0.649716 29.895561 42.586164 0.021424 0.792592 0.023314 -0.004478 577332.000000 0 0 1
-31.361112 -0.316816 31.006861 44.102666 0.010102 0.791104 0.027669 -0.005031 46884.100000 0 0 1
-31.827012 -1.388916 31.803061 45.014692 0.043612 0.786250 0.021266 0.002073 -101731.000000 0 0 1
-32.337542 -0.960316 33.030861 46.235015 0.029688 0.775013 0.036882 0.002524 -70322.700000 0 0 1
-32.537842 -2.119716 34.008361 47.114467 0.065054 0.764362 0.037942 -0.002520 273006.000000 0 0 1
-33.546802 -3.031716 33.587261 47.567671 0.090128 0.786829 0.026200 -0.009335 56902.400000 0 0 1
-33.381752 -4.248016 34.221761 47.994957 0.126575 0.776988 0.023621 -0.007630 150632.000000 0 0 1
-34.574849 -5.239416 34.009361 48.780204 0.150394 0.799318 0.019184 -0.007922 -8565.020000 0 0 1
34.707071 -4.700516 -34.463955 49.136950 -0.134615 2.348136 0.032358 -0.018753 -1134540.000000 0 0 1
33.602173 -5.276716 33.991661 48.087241 -0.155763 0.785726 0.028280 -0.023135 -127183.000000 0 0 1
32.163353 -4.912916 -34.522855 47.438861 -0.151577 2.385808 0.050194 -0.023841 782067.000000 0 0 1
31.794893 -5.649416 -33.349555 46.422236 -0.175848 2.372290 0.052664 -0.025103 33307.300000 0 0 1
31.403233 -6.995016 -33.630455 46.541388 -0.219170 2.378342 0.058834 -0.032120 652979.000000 0 0 1
29.910833 -7.236516 -34.077455 45.916207 -0.237375 2.407093 0.055766 -0.041140 685994.000000 0 0 1
28.916003 -6.986316 -33.138555 44.532097 -0.237064 2.410058 0.061162 -0.040186 -285723.000000 0 0 1
27.612033 -7.155816 -33.660255 44.120776 -0.253577 2.438601 0.054110 -0.034008 -135130.000000 0 0 1
26.585303 -6.572616 -32.668255 42.628541 -0.242367 2.443932 0.042098 -0.035703 144620.000000 0 0 1
25.259263 -6.956916 -33.035855 42.163928 -0.268757 2.471091 0.039790 -0.030583 -127690.000000 0 0 1
24.374363 -6.698916 -32.006355 40.784701 -0.268212 2.473111 0.045747 -0.032431 -212802.000000 0 0 1
22.907563 -7.093816 -32.377555 40.291249 -0.300306 2.504095 0.041057 -0.035662 277547.000000 0 0 1
22.721563 -8.523216 -32.486555 40.549857 -0.358872 2.500012 0.042480 -0.040677 199389.000000 0 0 1
22.717863 -9.230316 -31.246455 39.719529 -0.385927 2.476205 0.040672 -0.039024 -496456.000000 0 0 1
22.456563 -10.717816 -31.302655 39.987811 -0.445298 2.469957 0.039169 -0.027991 297897.000000 0 0 1
21.204563 -11.098116 -31.873555 39.858816 -0.482179 2.497527 0.037356 -0.028988 392028.000000 0 0 1
20.997163 -12.515816 -31.840555 40.141593 -0.537526 2.486852 0.027509 -0.013702 -498860.000000 0 0 1
19.851863 -12.918016 -32.805955 40.462357 -0.576882 2.516275 0.023555 -0.009001 582091.000000 0 0 1
18.578163 -12.438216 -32.381355 39.349835 -0.589967 2.537309 0.017085 -0.004904 66338.400000 0 0 1
18.214863 -11.186416 -32.847755 39.190460 -0.550749 2.564692 0.021535 -0.015245 -1175860.000000 0 0 1
16.836763 -10.686616 -32.416355 38.059170 -0.565558 2.590085 0.013097 -0.012173 -450484.000000 0 0 1
15.840963 -11.438416 -33.114755 38.449454 -0.625390 2.608529 0.004001 0.000413 -1088230.000000 0 0 1
14.656363 -11.186816 -32.438755 37.312554 -0.651942 2.624741 0.010048 -0.006385 -799836.000000 0 0 1
13.442663 -11.641716 -33.271155 37.725383 -0.713726 2.650738 -0.006156 0.002685 -678025.000000 0 0 1
13.249963 -13.111816 -33.308355 38.169723 -0.780158 2.631375 -0.001859 0.003865 947421.000000 0 0 1
11.961063 -13.514316 -33.816555 38.330969 -0.846294 2.651364 -0.016572 0.003592 694872.000000 0 0 1
10.770463 -13.441216 -32.868055 37.107657 -0.895262 2.658901 -0.024124 0.005996 -505760.000000 0 0 1
10.343463 -12.104416 -32.605955 36.285706 -0.863684 2.687341 0.003953 0.004559 -428914.000000 0 0 1
9.280163 -12.131916 -31.682555 35.172278 -0.917803 2.692363 0.003784 -0.004637 177071.000000 0 0 1
8.270463 -11.005216 -32.161955 34.984378 -0.926333 2.737154 -0.000815 0.002536 -69361.000000 0 0 1
8.685363 -9.674216 -32.037855 34.575283 -0.839207 2.756095 -0.002647 0.001694 -468917.000000 0 0 1
7.731263 -8.766316 -32.454055 34.494731 -0.848056 2.795900 -0.008599 0.006591 -627817.000000 0 0 1
8.214163 -7.303016 -32.521755 34.328867 -0.726747 2.815680 0.010065 0.012467 -108086.000000 0 0 1
8.407263 -6.588416 -31.335255 33.105702 -0.664696 2.813074 0.017526 -0.001446 133955.000000 0 0 1
8.732063 -5.281516 -31.730155 33.330858 -0.543972 2.830421 0.014522 -0.003377 -125742.000000 0 0 1
8.992063 -4.320416 -30.616455 32.200785 -0.447902 2.826599 0.015291 -0.000890 -440209.000000 0 0 1
7.873963 -4.041416 -29.816755 31.102592 -0.474202 2.853045 0.042104 -0.002856 -352182.000000 0 0 1
8.078763 -2.916516 -28.977755 30.223878 -0.346450 2.853439 0.034987 -0.012509 355022.000000 0 0 1
6.715363 -2.283316 -28.586155 29.452978 -0.327751 2.898380 0.035719 -0.014001 -52375.700000 0 0 1
5.949663 -1.881716 -29.709355 30.357621 -0.306318 2.934563 0.042374 -0.010790 -163597.000000 0 0 1
4.618063 -1.594516 -29.384955 29.788330 -0.332462 2.976838 0.044995 -0.012908 13865.300000 0 0 1
3.555163 -2.687816 -29.218855 29.556810 -0.647350 2.990226 0.034729 -0.015275 -407688.000000 0 0 1
3.859463 -3.568716 -28.171955 28.658162 -0.746277 2.957126 0.037909 -0.020300 264744.000000 0 0 1
2.812263 -4.534116 -27.998455 28.502290 -1.015624 2.953288 0.042029 -0.018565 424306.000000 0 0 1
3.011763 -5.393516 -26.728355 27.432931 -1.061524 2.914462 0.025747 -0.029203 -419708.000000 0 0 1
2.750163 -4.755716 -25.530955 26.115320 -1.046496 2.929648 0.036910 -0.032067 -166445.000000 0 0 1
2.979563 -5.656216 -24.485855 25.306673 -1.085957 2.886204 0.028771 -0.035215 -258966.000000 0 0 1
2.639663 -5.105616 -23.063355 23.768750 -1.093632 2.897358 0.026629 -0.035857 225266.000000 0 1 0
3.616663 -4.117116 -22.742955 23.393865 -0.850018 2.905144 0.018716 -0.036409 202230.000000 0 1 0
3.445363 -3.544816 -21.515955 22.076517 -0.799625 2.915761 0.016762 -0.032449 -295269.000000 0 1 0
4.405463 -2.348416 -21.285855 21.863458 -0.489752 2.911220 0.024931 -0.031663 741082.000000 0 1 0
5.755063 -2.754216 -21.001255 21.949013 -0.446359 2.846654 0.025703 -0.027723 412821.000000 0 1 0
6.512663 -1.620716 -20.653655 21.716698 -0.243902 2.827411 0.034307 -0.018626 -410203.000000 0 1 0
7.999063 -1.778816 -20.330955 21.920240 -0.218817 2.758457 0.032821 -0.015429 -1221410.000000 0 1 0
8.714063 -2.073816 -21.491055 23.283064 -0.233639 2.746689 0.038267 -0.022018 -12377.700000 0 1 0
9.855063 -2.911816 -21.306655 23.655327 -0.287290 2.692204 0.024683 -0.021912 961651.000000 0 1 0
11.090863 -2.323016 -20.556455 23.472782 -0.206468 2.637798 0.020681 -0.018385 -710106.000000 0 1 0
10.947463 -2.090416 -19.163855 22.169126 -0.188679 2.614830 0.026402 -0.013663 901299.000000 0 1 0
12.161163 -1.671816 -18.492855 22.196274 -0.136615 2.555578 0.023821 -0.015660 856681.000000 0 1 0
12.672463 -0.192516 -18.636255 22.537489 -0.015191 2.544369 0.027689 -0.008368 59313.600000 0 1 0
12.831663 0.248384 -19.946455 23.718650 0.019355 2.569853 0.006723 -0.003204 160538.000000 0 1 0
12.946063 1.656684 -19.869055 23.772348 0.127276 2.560394 0.028427 -0.010439 -223227.000000 0 1 0
13.067363 2.321484 -21.275655 25.075860 0.175821 2.583849 0.009376 -0.003551 260400.000000 0 0 1
14.352763 2.211384 -21.885355 26.265201 0.152872 2.555748 0.001022 0.006206 264459.000000 0 0 1
14.728363 3.418984 -22.515355 27.121124 0.228096 2.550223 0.009706 -0.007035 -941256.000000 0 0 1
16.139363 3.506084 -23.064655 28.368116 0.213914 2.520166 0.005154 -0.005309 -524349.000000 0 0 1
16.429863 2.693084 -24.162155 29.342850 0.162469 2.538248 -0.005031 -0.001715 130173.000000 0 0 1
16.899163 1.404584 -23.696655 29.139081 0.082925 2.520470 -0.009936 0.005507 -551874.000000 0 0 1
8.737878 27.096684 2.898461 28.617859 1.258854 1.469341 -0.004634 0.006078 -27024.600000 0 0 1
8.911478 27.786584 4.128261 29.471193 1.260448 1.430256 -0.003113 0.008275 798452.000000 0 0 1
10.308978 27.777684 4.443261 29.960262 1.215428 1.421942 0.002423 0.000891 501758.000000 0 0 1
10.565078 28.407584 5.818761 30.862107 1.214737 1.381120 -0.006932 0.005649 -78290.300000 0 0 1
10.341678 27.571784 6.954261 30.257483 1.211954 1.338887 -0.009501 0.002328 110660.000000 0 0 1
10.212978 28.353584 8.114561 31.210202 1.225063 1.307777 -0.006865 0.000056 -426923.000000 0 0 1
10.062678 27.438484 9.339361 30.681453 1.219290 1.261490 -0.001067 -0.007991 -444913.000000 0 0 1
11.138878 26.734984 9.923561 30.615535 1.176027 1.240699 0.000435 0.003517 -171984.000000 0 0 1
11.714878 25.720584 9.082461 29.686325 1.143405 1.259863 0.005815 0.001766 -13942.300000 0 0 1
12.978978 25.153384 9.762361 29.940779 1.094436 1.238668 0.003876 -0.004146 -538942.000000 0 0 1
14.105278 25.965984 9.795961 31.131207 1.073172 1.250691 0.005135 0.000148 -241223.000000 0 0 1
15.175178 25.203484 10.378561 31.196412 1.028829 1.231648 0.003380 0.008417 376573.000000 0 0 1
16.393978 26.060884 10.766261 32.616630 1.009280 1.234403 0.000063 0.005582 -919839.000000 0 0 1
17.029478 26.639984 9.667961 33.062990 1.002019 1.274050 -0.004250 0.004740 -1159460.000000 0 0 1
18.400678 26.616084 9.736061 33.790409 0.965908 1.278522 0.017938 -0.011871 -508062.000000 0 0 1
19.183978 27.503384 10.808561 35.231890 0.961741 1.258985 0.016511 -0.010532 -441751.000000 0 0 1
19.115378 28.930284 10.613361 36.262962 0.986908 1.273770 0.005857 -0.016547 370195.000000 0 0 1
17.865878 29.565484 10.887061 36.219270 1.027235 1.265488 -0.000404 -0.000615 262970.000000 0 0 1
18.032478 31.097684 11.202861 37.652892 1.045313 1.268692 0.002737 0.013541 -559514.000000 0 0 1
18.412678 31.937584 10.148961 38.236597 1.047820 1.302151 0.007654 -0.012504 37363.800000 0 0 1
17.445778 32.164584 9.159061 37.720074 1.073814 1.325528 0.003261 -0.014007 184626.000000 0 0 1
16.189178 33.045084 9.412161 37.982309 1.115252 1.320384 0.006903 -0.008742 325102.000000 0 0 1
16.529978 34.358984 9.812161 39.370781 1.122386 1.318917 0.005499 -0.008749 -377372.000000 0 0 1
15.395678 -33.915830 9.807461 38.516188 -1.144673 1.313329 0.021806 -0.004959 -405067.000000 0 0 1
15.769478 -32.453730 10.012461 37.445566 -1.118487 1.300116 0.042316 0.002822 -371063.000000 0 0 1
16.517178 -31.973430 8.969061 37.088562 -1.093964 1.326547 0.028607 -0.000498 -364627.000000 0 0 1
16.499278 -30.619730 8.948161 35.914671 -1.076558 1.318993 0.001915 -0.010693 84721.000000 0 0 1
16.984578 -30.046730 7.611761 35.344318 -1.056304 1.353736 0.016379 -0.008887 718419.000000 0 0 1
16.096078 -30.431530 6.530561 35.040120 -1.084275 1.383326 0.019654 -0.004562 544356.000000 0 0 1
16.457278 -29.669530 5.386261 34.353090 -1.064362 1.413356 0.017618 -0.004086 -263103.000000 0 0 1
15.833778 -30.099330 4.122361 34.258897 -1.086526 1.450174 0.026394 -0.015519 -259232.000000 0 0 1
16.338878 -31.348630 3.616761 35.535567 -1.090334 1.468841 0.023505 -0.019620 -26684.500000 0 0 1
15.856578 -31.625230 2.322861 35.453941 -1.106037 1.505232 0.028776 -0.018586 -99372.800000 0 0 1
16.188278 -33.072330 1.894961 36.870452 -1.115599 1.519379 0.021938 -0.017973 -259993.000000 0 0 1
17.573978 -33.282430 1.782161 37.679450 -1.084980 1.523481 0.008537 -0.005202 -181316.000000 0 0 1
17.885678 34.465084 1.483261 38.857940 1.092103 1.532616 0.034224 -0.008396 743164.000000 0 0 1
19.430978 34.146084 1.568661 39.318935 1.053442 1.530890 0.049687 -0.011023 915276.000000 0 0 1
19.776478 33.980584 2.898561 39.423227 1.043722 1.497206 0.045097 -0.033246 -159254.000000 0 0 1
21.038778 33.348984 3.012461 39.545667 1.007989 1.494546 0.022489 -0.021765 -108632.000000 0 0 1
21.482678 32.974484 4.404961 39.600830 0.993372 1.459332 0.024381 -0.018350 -245298.000000 0 0 1
20.788078 31.823384 4.941061 38.331267 0.992152 1.441532 0.027234 -0.021157 93814.400000 0 0 1
21.323978 31.375984 6.150361 38.431645 0.973875 1.410071 0.003515 -0.020902 498104.000000 0 0 1
20.245178 30.618884 7.024961 37.372896 0.986589 1.381702 -0.002587 -0.022365 253538.000000 0 0 1
19.811278 29.442284 6.418861 36.062953 0.978501 1.391852 0.019148 -0.020891 -125115.000000 0 0 1
18.578078 29.010284 6.958461 35.144868 1.001202 1.371486 0.016485 -0.024999 928324.000000 0 0 1
17.333378 29.209184 6.004761 34.491732 1.035227 1.395812 0.021125 -0.025438 -157092.000000 0 0 1
16.916478 30.543784 5.852061 35.402494 1.065007 1.404733 0.018781 -0.029378 -237701.000000 0 0 1
17.498678 31.208284 4.762861 36.094952 1.059771 1.438457 0.032140 -0.029186 -456262.000000 0 0 1
17.386778 32.719884 4.832061 37.366290 1.082359 1.441117 0.036522 -0.027077 806295.000000 0 0 1
16.013778 33.136484 4.927961 37.131556 1.120624 1.437687 0.032776 -0.017827 572941.000000 0 0 1
15.952178 -34.531930 5.202261 38.392573 -1.138046 1.434876 0.029964 -0.024131 408071.000000 0 0 1
14.483978 -34.010930 5.365761 37.353987 -1.168195 1.426651 0.037797 -0.024368 441236.000000 0 0 1
13.803878 -33.939130 4.161261 36.874486 -1.184506 1.457706 0.037461 -0.021815 -268862.000000 0 0 1
12.582278 -33.223130 4.333561 35.789242 -1.208768 1.449413 0.035093 -0.020995 400794.000000 0 0 1
11.729478 -33.078730 3.045661 35.228669 -1.230036 1.484234 0.037130 -0.015855 -5423.500000 0 0 1
10.696678 -32.127530 3.163061 34.008853 -1.249396 1.477655 0.032889 -0.020900 -266982.000000 0 0 1
10.199378 -31.843430 1.879161 33.489739 -1.260823 1.514655 0.031763 -0.015642 -567489.000000 0 0 1
9.115378 -30.744830 1.952661 32.127054 -1.282568 1.509980 0.033518 -0.013839 -115641.000000 0 0 1
8.712078 -30.205730 0.720761 31.445285 -1.289993 1.547873 0.036849 -0.009920 189914.000000 0 0 1
7.631978 -30.932330 0.135561 31.860234 -1.328896 1.566541 0.033728 -0.012042 -283553.000000 0 0 1
8.063678 -31.496630 -1.260739 32.536903 -1.320163 1.609554 0.042450 -0.018503 -35260.700000 0 0 1
9.168578 -32.368030 -1.280739 33.665895 -1.294767 1.608848 0.032549 -0.015846 -85274.300000 0 0 1
9.130878 -33.212330 -2.398539 34.528029 -1.302500 1.640319 0.030970 -0.009107 -139879.000000 0 0 1
10.395178 -34.100730 -2.369539 35.728619 -1.274907 1.637166 0.025176 -0.002439 10531.800000 0 0 1
10.329178 34.035284 -1.289339 35.591500 1.276146 1.607030 0.025995 -0.003656 671348.000000 0 0 1
11.483378 33.183784 -1.461939 35.144967 1.237641 1.612406 0.034550 -0.008745 430324.000000 0 0 1
11.779378 32.170684 -0.328539 34.260977 1.219805 1.580386 0.033025 -0.013393 -31527.600000 0 0 1
12.188278 32.718084 0.932961 34.927032 1.214198 1.544081 0.030404 -0.012044 1322270.000000 0 0 1
13.471178 33.408784 0.980561 36.035829 1.187515 1.543582 0.039111 -0.015023 1015430.000000 0 0 1
14.759878 32.599084 1.236061 35.806174 1.145641 1.536269 0.041237 -0.017329 -329938.000000 0 0 1
15.145778 31.854684 0.152161 35.272349 1.126969 1.566482 0.046326 -0.015966 -311230.000000 0 0 1
16.094478 30.857884 0.438861 34.805658 1.090044 1.558187 0.050542 -0.015900 154951.000000 0 0 1
16.780478 30.158284 -0.810639 34.521930 1.063042 1.594280 0.046326 -0.007626 441856.000000 0 0 1
17.676378 31.049084 -1.496639 35.759472 1.053253 1.612662 0.037241 -0.002050 -2739.390000 0 0 1
17.139878 32.157784 -2.182939 36.505667 1.081104 1.630629 0.046879 -0.012734 -487785.000000 0 0 1
18.210878 33.071684 -2.788339 37.856930 1.067455 1.644518 0.023674 0.000620 -240298.000000 0 0 1
18.983178 33.748684 -1.866439 38.766200 1.058417 1.618961 0.011875 0.003227 -216798.000000 0 0 1
20.075978 34.398084 -2.488239 39.905694 1.042496 1.633190 0.009048 0.009934 -346700.000000 0 0 1
21.129078 -34.038930 -1.501839 40.091673 -1.015271 1.608265 0.010025 0.008438 -377484.000000 0 0 1
21.970678 34.208084 -0.680639 40.661615 0.999877 1.587536 0.002551 0.005477 747967.000000 0 0 1
22.794478 33.288984 -1.397239 40.369505 0.970382 1.605414 0.002794 0.014405 378681.000000 0 0 1
23.858678 33.828384 -2.433839 41.467091 0.956532 1.629523 -0.004443 0.009725 -440089.000000 0 0 1
23.132178 34.376984 -3.531239 41.585386 0.978493 1.655814 -0.004966 0.009640 347792.000000 0 0 1
23.960378 -34.003930 -4.496339 41.839981 -0.956966 1.678469 0.006188 0.007877 267894.000000 0 0 1
23.162878 -33.471530 -5.725239 41.105238 -0.965448 1.710533 0.007316 -0.003072 235578.000000 0 0 1
22.273778 -32.390330 -5.447039 39.685324 -0.968395 1.708487 0.001105 0.002103 226425.000000 0 0 1
21.803678 -31.891330 -6.661639 39.202484 -0.971103 1.741554 0.006653 -0.008134 -416857.000000 0 0 1
20.740278 -30.808330 -6.524039 37.707763 -0.978282 1.744687 0.007305 -0.008220 642932.000000 0 0 1
19.457178 -31.099430 -5.936639 37.161809 -1.011734 1.731235 0.020307 0.003223 535154.000000 0 0 1
18.810878 -29.892030 -5.651539 35.767618 -1.009115 1.729468 0.027449 -0.008320 156425.000000 0 0 1
17.446178 -30.154830 -4.959439 35.189188 -1.046296 1.712204 0.012350 -0.002988 324140.000000 0 0 1
16.343078 -30.607030 -5.729739 35.166979 -1.080347 1.734455 0.018611 -0.007051 -231220.000000 0 0 1
15.296978 -30.653830 -4.795739 34.592686 -1.107930 1.709879 0.012147 -0.010693 523826.000000 0 0 1
13.965978 -31.414030 -5.151439 34.762439 -1.152461 1.719534 0.026453 -0.010772 796738.000000 0 0 1
14.066678 -32.812830 -5.074539 36.059731 -1.165801 1.711991 0.029325 -0.004220 -593785.000000 0 0 1
12.828878 -33.422930 -5.253139 36.183806 -1.204303 1.716491 0.024097 -0.001921 -603620.000000 0 0 1
12.936278 34.178884 -5.359139 36.935941 1.208972 1.716403 0.026219 -0.006141 -97085.200000 0 0 1
13.412178 33.434284 -4.208639 36.269140 1.189299 1.687097 0.033051 -0.008807 146728.000000 0 0 1
13.822878 32.096784 -4.489739 35.233978 1.164139 1.698570 0.030645 -0.009646 545190.000000 0 0 1
12.674878 31.126584 -4.974539 33.974443 1.184095 1.717745 0.027893 -0.010652 894100.000000 0 0 1
11.674478 30.635684 -4.088339 33.038660 1.206711 1.694858 0.028995 -0.011091 468119.000000 0 0 1
12.225278 29.712584 -3.148139 32.283213 1.180457 1.668468 0.042776 -0.013220 -458437.000000 0 0 1
11.108578 28.895384 -2.537239 31.060929 1.203774 1.652573 0.040051 -0.006409 -173476.000000 0 0 1
10.193278 29.652384 -1.792539 31.406687 1.239692 1.627902 0.010447 -0.006793 -87235.000000 0 0 1
9.271878 28.807384 -1.082539 30.282090 1.259409 1.606552 0.011213 0.000572 438011.000000 0 0 1
8.328978 29.691284 -0.210539 30.838102 1.297306 1.577624 0.004106 0.007716 194384.000000 0 0 1
7.339578 28.929684 0.443861 29.849506 1.322335 1.555926 -0.001049 0.004929 17755.200000 0 0 1
6.213578 29.749584 0.719961 30.400076 1.364894 1.547111 0.004051 0.003948 31997.700000 0 0 1
5.062478 29.066184 1.470361 29.540374 1.398355 1.521001 0.008203 -0.001165 -222955.000000 0 0 1
4.357978 28.119384 0.737061 28.464627 1.417038 1.544900 0.008950 -0.003753 629384.000000 0 0 1
3.384478 27.330384 1.499161 27.579921 1.447588 1.516413 0.014538 -0.008194 1037110.000000 0 0 1
2.655578 26.306584 0.611861 26.447359 1.470190 1.547659 0.014401 -0.005781 -354415.000000 0 0 1
1.541378 25.679284 1.161461 25.751708 1.510844 1.525679 0.021822 -0.003730 -339901.000000 0 0 1
1.111278 24.552684 0.376061 24.580696 1.525566 1.555497 0.014163 -0.006336 921882.000000 0 1 0
-0.265122 23.956984 0.850161 23.973530 -1.559730 1.535326 0.013361 -0.001810 1109380.000000 0 1 0
-1.404422 24.817484 0.774461 24.869252 -1.514267 1.539650 0.019120 -0.003946 365087.000000 0 1 0
-2.506522 24.113384 1.334161 24.279990 -1.467221 1.515820 0.015830 0.002497 -49207.200000 0 1 0
-3.734222 24.981684 1.660261 25.313739 -1.422417 1.505162 0.022417 -0.001236 -524227.000000 0 0 1
-4.793022 24.164484 2.110061 24.725446 -1.374988 1.485353 0.012984 -0.009654 905793.000000 0 1 0
-6.026422 24.811984 2.512261 25.656651 -1.332527 1.472721 0.006133 -0.005539 1192880.000000 0 0 1
-6.950022 25.411284 1.431361 26.383422 -1.303824 1.516517 0.017385 -0.001270 -499000.000000 0 0 1
-6.414822 26.552384 0.777661 27.327345 -1.333747 1.542335 0.018804 -0.000382 -1297.730000 0 0 1
-7.233122 26.929384 -0.315939 27.885652 -1.308394 1.582126 0.018332 0.003327 92915.100000 0 0 1
-6.718522 28.153784 -1.099839 28.965216 -1.336541 1.608776 0.020929 0.004155 226075.000000 0 0 1
-7.408422 29.318184 -0.732339 30.248586 -1.323287 1.595009 0.028504 -0.010394 12151.500000 0 0 1
-7.213122 30.173584 -1.823739 31.077328 -1.336146 1.629514 0.026355 -0.009073 18959.100000 0 0 1
-7.550922 31.615084 -1.490839 32.538478 -1.336349 1.616630 0.025964 -0.012571 -564350.000000 0 0 1
-7.575022 32.621384 -2.528139 33.584626 -1.342630 1.646144 0.013546 -0.009264 -236183.000000 0 0 1
-6.391522 32.830184 -3.256039 33.604677 -1.378517 1.667841 0.001407 -0.002481 -41323.300000 0 0 1
-5.179522 33.473484 -2.534439 33.966527 -1.417279 1.645482 0.003103 -0.009670 -329188.000000 0 0 1
-5.290622 -34.226830 -2.397339 34.716190 1.417435 1.639907 0.001793 -0.005384 89833.800000 0 0 1
-4.142822 -33.731230 -1.743839 34.029397 1.448590 1.622064 0.005059 -0.000871 97188.400000 0 0 1
-4.117022 -32.184330 -1.786639 32.495739 1.443567 1.625805 0.010460 -0.002131 -640952.000000 0 0 1
-5.187522 -31.569530 -1.183939 32.014799 1.407931 1.607786 0.006947 -0.005329 -866025.000000 0 0 1
-5.438622 -30.276630 -1.703639 30.808365 1.393061 1.626122 0.009834 0.000936 585312.000000 0 0 1
-6.877322 -29.770430 -1.347739 30.584187 1.343767 1.614877 0.032323 -0.006436 542940.000000 0 0 1
-7.115422 -29.658830 0.041761 30.500446 1.335337 1.569427 0.020831 -0.007612 -385741.000000 0 0 1
-8.304222 -28.950630 0.266461 30.119264 1.291455 1.561949 0.010130 -0.005070 -291810.000000 0 0 1
-8.347122 -28.230330 1.613761 29.482710 1.283308 1.516033 0.017096 -0.005017 -109327.000000 0 0 1
-7.425022 -27.174430 1.551461 28.213253 1.304071 1.515778 0.028992 -0.008376 -267582.000000 0 0 1
-6.981322 -26.523830 2.711861 27.560962 1.313424 1.472242 0.025763 -0.004925 -482302.000000 0 0 1
-7.970122 -25.546330 3.280561 26.961081 1.268379 1.448816 0.018647 -0.003268 -447221.000000 0 0 1
-8.252222 -24.452530 2.446761 25.923195 1.245319 1.476271 0.017874 -0.012664 -894673.000000 0 0 1
-8.972122 -23.432230 3.055161 25.276519 1.205121 1.449631 0.018617 -0.012408 -894979.000000 0 0 1
-8.288922 -22.098130 3.401761 23.845452 1.211941 1.427649 0.005047 0.014940 348725.000000 0 1 0
-7.437222 -22.321030 4.553561 23.964048 1.249172 1.379618 0.002184 0.012845 -319723.000000 0 1 0
-6.716922 -21.227430 5.065461 22.833741 1.264338 1.347094 -0.000437 0.018130 -421011.000000 0 1 0
-7.404122 -19.958130 5.640161 22.021794 1.215552 1.311793 0.004932 0.005055 157977.000000 0 1 0
-8.086422 -20.189530 6.900661 22.817241 1.189837 1.263553 0.012868 0.004668 367819.000000 0 1 0
-8.698622 -18.992030 7.356761 22.146900 1.141298 1.232182 0.005326 -0.001134 -89412.900000 0 1 0
-26.100502 28.692784 -5.797639 39.218933 -0.832673 1.719168 0.057607 -0.013546 -77274.900000 0 0 1
-25.836512 29.679584 -4.788039 39.639984 -0.854512 1.691880 0.024822 -0.016850 725910.000000 0 0 1
-24.632922 29.190384 -4.144839 38.419254 -0.869871 1.678891 0.008946 -0.011167 591683.000000 0 0 1
-23.892322 30.184184 -3.264839 38.634016 -0.901228 1.655404 -0.000246 -0.011288 -247527.000000 0 0 1
-24.590322 30.426684 -2.049939 39.174855 -0.891086 1.623148 -0.001407 -0.019829 365197.000000 0 0 1
-23.977322 31.469084 -1.280039 39.583503 -0.919702 1.603140 -0.004080 -0.024283 -413975.000000 0 0 1
-22.840422 31.038884 -0.378739 38.538820 -0.936403 1.580624 -0.007718 -0.024776 -722518.000000 0 0 1
-21.723122 30.678884 -1.119139 37.607717 -0.954668 1.600559 -0.004125 -0.023356 30021.800000 0 0 1
-20.466222 30.779984 -0.416639 36.965487 -0.984004 1.582068 -0.001651 -0.024631 1167070.000000 0 0 1
-19.300522 30.313484 -1.357039 35.961910 -1.003829 1.608541 -0.000358 -0.017216 146331.000000 0 0 1
-18.036022 30.501284 -0.757939 35.442924 -1.036784 1.592183 0.002610 -0.019407 -283380.000000 0 0 1
-17.000322 30.028684 -1.590039 34.543610 -1.055649 1.616843 0.006258 -0.017082 -1449530.000000 0 0 1
-15.670422 30.319084 -1.020439 34.144549 -1.093760 1.600687 0.016789 -0.018821 -1586580.000000 0 0 1
-15.380522 29.590684 0.134561 33.349470 -1.091454 1.566761 0.013878 -0.007898 -19457.200000 0 0 1
-14.265322 30.135784 0.817561 33.351661 -1.128680 1.546281 0.017898 -0.007026 227347.000000 0 0 1
-13.751122 29.170684 1.936461 32.307461 -1.130288 1.510822 0.016380 -0.008802 -255341.000000 0 0 1
-14.622122 29.109384 3.047061 32.717690 -1.105297 1.477529 -0.000381 -0.010939 -11379.100000 0 0 1
-14.115922 28.471984 4.252161 32.062345 -1.110528 1.437783 0.004073 -0.014364 652305.000000 0 0 1
-12.915722 29.180284 5.022261 32.303683 -1.154098 1.414693 0.013429 -0.015210 548813.000000 0 0 1
-13.143222 30.421384 5.666961 33.620222 -1.162979 1.401430 0.005981 -0.022389 -316238.000000 0 0 1
-12.952622 31.544084 4.830961 34.440352 -1.181169 1.430062 0.014596 -0.015060 -350855.000000 0 0 1
-12.721822 32.840384 5.625161 35.664800 -1.201213 1.412412 0.012540 -0.013557 -535876.000000 0 0 1
-13.800222 33.383584 6.336761 36.675119 -1.178806 1.397144 0.003161 -0.009750 -221714.000000 0 0 1
-13.493222 34.522684 7.010161 37.723005 -1.198202 1.383877 0.014271 -0.018237 166533.000000 0 0 1
-14.677922 -34.116730 7.926361 37.976570 1.164507 1.360533 0.003968 -0.012906 300407.000000 0 0 1
-14.744422 34.120784 9.049161 38.255891 -1.162907 1.331990 -0.005167 -0.013314 714635.000000 0 0 1
-15.927722 34.422584 9.836261 39.183652 -1.137422 1.317052 0.002764 -0.013799 176779.000000 0 0 1
-16.224522 33.591984 11.106761 38.923214 -1.120851 1.281424 0.000951 -0.007335 155704.000000 0 0 1
-15.495222 33.854684 12.276061 39.203867 -1.141559 1.252305 0.005329 -0.003371 561584.000000 0 0 1
-14.075422 33.660484 12.323061 38.509784 -1.174735 1.245069 0.006390 -0.000104 586914.000000 0 0 1
-13.510622 34.082184 13.729461 39.148822 -1.193386 1.212479 0.013220 0.002661 -227994.000000 0 0 1
-13.770322 33.206684 14.805261 38.878032 -1.177695 1.180121 0.016216 0.004205 287144.000000 0 0 1
-12.918222 32.061284 14.976861 37.671113 -1.187773 1.161931 0.002709 0.012869 -243831.000000 0 0 1
-13.539522 30.789884 14.439461 36.603738 -1.156508 1.165294 -0.002938 0.003229 -169710.000000 0 0 1
-13.648222 30.749784 13.038061 36.080662 -1.153070 1.201072 -0.002282 0.000239 1099140.000000 0 0 1
-14.901022 30.152884 12.616361 35.922269 -1.111814 1.211930 -0.009732 0.003860 857395.000000 0 0 1
-15.103822 30.075884 11.073061 35.430169 -1.105398 1.252939 -0.010806 0.003425 56067.400000 0 0 1
-14.312022 29.027184 10.539361 34.036590 -1.112719 1.255974 -0.010381 0.008151 354176.000000 0 0 1
-14.469122 28.984784 9.099761 33.649351 -1.107791 1.296958 -0.009540 0.002086 -353703.000000 0 0 1
-13.975722 27.633984 8.532661 32.121086 -1.102564 1.301928 -0.011788 0.003184 -156195.000000 0 0 1
-12.579722 27.597484 8.378061 31.465257 -1.143106 1.301281 0.000811 -0.002149 70405.200000 0 0 1
-12.020522 26.294984 8.230861 30.061041 -1.142020 1.293449 -0.006567 -0.004134 -422479.000000 0 0 1
-10.750622 26.303584 7.402261 29.364057 -1.182801 1.315961 0.004517 -0.007939 -569788.000000 0 0 1
-10.988322 26.545084 6.046661 29.358930 -1.178323 1.363355 0.015611 -0.009794 -539911.000000 0 0 1
-9.828822 26.376784 5.329161 28.648567 -1.214104 1.383688 0.030009 -0.010025 -1037690.000000 0 0 1
-9.920822 26.672584 3.826961 28.714022 -1.214704 1.437120 0.020403 -0.007140 -102535.000000 0 0 1
-9.984122 28.089384 3.589661 30.026352 -1.229282 1.450959 0.026534 -0.010590 162092.000000 0 0 1
-9.934522 28.410184 2.245961 30.180749 -1.234405 1.496310 0.029069 -0.009715 -213229.000000 0 0 1
-9.587422 29.879684 2.021961 31.445230 -1.260307 1.506451 0.040298 -0.018280 -371252.000000 0 0 1
-10.566022 30.852384 2.213561 32.686545 -1.240845 1.503024 0.031660 -0.024637 -604561.000000 0 0 1
-10.133622 32.107684 1.871061 33.720832 -1.265077 1.515281 0.034477 -0.020177 -781234.000000 0 0 1
-10.821022 33.267084 2.571561 35.077148 -1.256314 1.497419 0.026870 -0.014447 423451.000000 0 0 1
-12.164122 33.556884 2.148861 35.758187 -1.223036 1.510666 0.019464 -0.015149 584435.000000 0 0 1
-12.198222 34.280284 1.006261 36.399822 -1.228930 1.543148 0.018690 -0.011390 -861240.000000 0 0 1
-13.591922 -34.245330 0.721361 36.851097 1.192966 1.551220 0.027864 -0.012329 -434483.000000 0 0 1
-14.423122 33.942284 0.004261 36.879603 -1.168984 1.570681 0.023044 -0.011214 -142463.000000 0 0 1
-14.505022 34.202184 -1.416139 37.177822 -1.169691 1.608897 0.023374 -0.011194 156360.000000 0 0 1
-13.276022 33.772584 -2.298639 36.361022 -1.196252 1.634056 0.022810 -0.013453 282892.000000 0 0 1
-13.040622 32.363284 -2.389039 34.973525 -1.187754 1.639160 0.020965 -0.014656 -569909.000000 0 0 1
-11.668422 32.114284 -2.292339 34.245206 -1.222287 1.637785 0.021551 -0.007870 -445754.000000 0 0 1
-11.371422 30.552984 -2.371639 32.686675 -1.214494 1.643417 0.023333 -0.013796 42221.200000 0 0 1
-11.488522 29.916984 -3.637539 32.252810 -1.204147 1.683819 0.025054 -0.011774 -1028380.000000 0 0 1
-10.266722 29.937084 -4.310739 31.940836 -1.240422 1.706170 0.015145 -0.006110 -456362.000000 0 0 1
-10.432522 29.488384 -5.796239 31.811927 -1.230754 1.754023 0.018628 -0.006967 -311818.000000 0 0 1
-10.602722 28.081884 -5.884939 30.588273 -1.209779 1.764395 0.030758 -0.000881 8692.580000 0 0 1
-10.375222 27.556384 -7.157339 30.302261 -1.210703 1.809248 0.029188 0.000990 117957.000000 0 0 1
-10.956922 26.121584 -7.329439 29.259391 -1.173629 1.823992 0.047753 -0.001656 60642.400000 0 0 1
-10.346422 25.164784 -6.499539 27.974252 -1.180718 1.805279 0.039159 0.002691 -199818.000000 0 0 1
-10.802322 23.838284 -6.636639 26.999980 -1.145326 1.819143 0.053128 0.000937 -315437.000000 0 0 1
-10.348922 22.807284 -5.617739 25.667711 -1.144824 1.791446 0.044865 0.002695 161964.000000 0 0 1
-8.971322 22.507484 -5.865239 24.929350 -1.191504 1.808297 0.051156 -0.004205 604822.000000 0 1 0
-8.459122 21.334584 -5.206139 23.533489 -1.193312 1.793864 0.044754 -0.004091 -71581.000000 0 1 0
-8.412922 21.357984 -3.634439 23.241125 -1.195559 1.727820 0.036616 -0.002378 370759.000000 0 1 0
-9.631422 21.250084 -2.856139 23.505061 -1.145250 1.692609 0.043895 -0.000581 611919.000000 0 1 0
-10.080122 19.919884 -2.788639 22.498603 -1.102334 1.695063 0.040491 -0.007876 -413810.000000 0 1 0
-11.494922 19.705584 -2.234639 22.922410 -1.042722 1.668439 0.040874 -0.001086 -279768.000000 0 1 0
-11.681822 19.477084 -0.809039 22.726115 -1.030544 1.606403 0.047052 -0.012628 342531.000000 0 1 0
-11.143522 18.216684 -0.351139 21.357644 -1.021803 1.587238 0.035068 -0.013863 -130510.000000 0 1 0
-11.042022 18.175684 1.181061 21.299686 -1.024869 1.515318 0.026975 -0.019408 -313828.000000 0 1 0
-12.274222 18.225884 1.840561 22.050556 -0.978112 1.487229 0.037441 -0.020280 -309818.000000 0 1 0
-12.035522 18.260384 3.257361 22.111214 -0.988047 1.422941 0.031726 -0.023767 74853.300000 0 1 0
-13.264722 18.228584 4.204861 22.932836 -0.941728 1.386398 0.023945 -0.023689 200435.000000 0 1 0
-13.789722 16.946384 4.474461 22.301506 -0.887741 1.368790 0.024264 -0.022283 837768.000000 0 1 0
-15.045122 17.021484 5.168861 23.298149 -0.846953 1.347078 0.033604 -0.023642 656145.000000 0 1 0
-15.523422 15.654484 5.804761 22.797692 -0.789602 1.313341 0.032310 -0.022945 -326743.000000 0 1 0
-14.648022 15.165884 6.818961 22.160027 -0.802766 1.258006 0.026848 -0.017199 209268.000000 0 1 0
-14.967622 15.755384 8.083861 23.186432 -0.811033 1.214670 0.011160 -0.016097 -819599.000000 0 1 0
-13.808722 15.726984 9.100861 22.822018 -0.850254 1.160615 0.000880 -0.007790 843208.000000 0 1 0
-12.690822 16.617884 8.886261 22.719521 -0.918594 1.168938 0.003717 -0.017693 820043.000000 0 1 0
-11.810522 16.146284 7.865561 21.495533 -0.939260 1.196179 0.004308 -0.016611 -236660.000000 0 1 0
-10.594922 17.069184 7.539961 21.458341 -1.015292 1.211755 0.006697 -0.026845 1056500.000000 0 1 0
-9.652122 17.108384 8.673361 21.472947 -1.057135 1.154998 0.018902 -0.023142 784759.000000 0 1 0
-8.834322 18.288584 8.545461 22.035028 -1.120799 1.172539 0.011435 -0.027886 -117535.000000 0 1 0
-7.668322 18.337884 9.534161 22.044985 -1.174726 1.123548 0.016143 -0.024525 -1249590.000000 0 1 0
-6.647222 17.414884 9.191161 20.783194 -1.206167 1.112702 0.004084 -0.018876 233993.000000 0 1 0
-5.429522 17.716584 9.887461 21.002831 -1.273418 1.080635 0.007400 -0.019906 644172.000000 0 1 0
-4.623022 18.878484 9.233161 21.517917 -1.330639 1.127309 0.004047 -0.022441 -1874650.000000 0 1 0
-5.104322 20.190284 9.474661 22.879485 -1.323174 1.143830 0.009363 -0.027413 -254094.000000 0 1 0
-4.640022 21.223584 8.607161 23.367788 -1.355557 1.193579 0.016823 -0.025297 170366.000000 0 1 0
-3.161522 21.700484 8.795261 23.627586 -1.426125 1.189369 0.013059 -0.021882 967442.000000 0 1 0
-2.120522 20.754784 8.526861 22.538079 -1.468979 1.182803 0.007931 -0.010421 -415576.000000 0 1 0
-0.950922 21.398284 8.211161 22.939354 -1.526386 1.204724 0.013486 -0.018754 -690751.000000 0 1 0
0.352178 20.627984 7.969961 22.116917 1.553725 1.202147 0.016379 -0.008835 59186.100000 0 1 0
0.888278 20.161484 9.183161 22.172165 1.526767 1.143760 0.012422 -0.007189 -411653.000000 0 1 0
2.089778 19.430384 8.955961 21.496888 1.463656 1.141076 0.003858 -0.017109 245952.000000 0 1 0
2.931578 19.444184 10.249561 22.174849 1.421154 1.090304 0.001548 -0.019724 -782012.000000 0 1 0
3.375678 18.230084 10.717261 21.414734 1.387699 1.046664 0.002268 -0.012623 213431.000000 0 1 0
4.190978 18.150184 11.870261 22.088380 1.343868 1.003447 -0.005400 -0.005725 348168.000000 0 1 0
5.638978 18.734684 11.810861 22.853509 1.278430 1.027679 0.009372 -0.003299 -42850.800000 0 1 0
6.560878 17.951684 11.088461 22.096652 1.220403 1.045099 0.000854 0.001515 -387757.000000 0 1 0
7.434178 17.326784 11.998361 22.348268 1.165494 1.004061 0.002051 0.007790 -922555.000000 0 1 0
8.655578 16.678884 11.396861 21.977093 1.092101 1.025608 0.000634 0.010784 -649601.000000 0 1 0
9.609578 17.545084 10.876061 22.769775 1.069715 1.072815 0.011076 -0.004676 -514906.000000 0 1 0
10.737278 16.876584 10.379061 22.535153 1.004167 1.092157 0.009422 -0.004392 -306883.000000 0 1 0
11.747278 17.742784 9.654561 23.366974 0.985971 1.144863 0.011126 -0.001530 -185218.000000 0 1 0
12.724578 17.033484 8.899061 23.048812 0.929197 1.174400 0.014580 -0.004386 385358.000000 0 1 0
13.532378 18.001184 8.181461 23.960471 0.926177 1.222330 0.026739 -0.005339 -22621.100000 0 1 0
14.550778 17.419084 7.228761 23.820256 0.874878 1.262463 0.027062 -0.021174 -304270.000000 0 1 0
15.603978 16.724884 7.868861 24.189354 0.820056 1.239465 0.034766 -0.022256 496126.000000 0 1 0
16.732078 16.552284 7.003761 24.555920 0.779996 1.281564 0.050949 -0.014762 33079.700000 0 1 0
18.047978 16.625884 7.781961 25.743124 0.744408 1.263699 0.030253 -0.007594 -582845.000000 0 0 1
18.372078 15.390384 8.350261 25.379598 0.697313 1.235536 0.032678 -0.003599 660450.000000 0 0 1
19.219878 15.561184 9.530961 26.502705 0.680591 1.202933 0.029675 0.001188 274388.000000 0 0 1
19.488978 14.311784 10.460961 26.345381 0.633411 1.162474 0.018987 0.002688 -397780.000000 0 0 1
20.301178 13.307484 9.971361 26.242237 0.580234 1.181028 0.012480 0.011229 -22340.900000 0 0 1
20.344478 12.277684 10.924261 26.152988 0.542982 1.139877 0.019666 0.003875 189451.000000 0 0 1
21.253278 11.088784 10.473661 26.160285 0.480892 1.158881 0.019382 0.007621 148663.000000 0 0 1
22.647378 11.298884 10.478961 27.393012 0.462771 1.178251 0.010748 0.005021 1125060.000000 0 0 1
23.541478 10.550484 9.609861 27.529317 0.421328 1.214210 0.036309 0.005572 694004.000000 0 0 1
23.885078 9.137084 10.014061 27.463879 0.365368 1.197565 0.049740 -0.002976 457999.000000 0 0 1
22.732978 8.285584 9.805961 26.107394 0.349511 1.185751 0.046734 -0.005310 1286250.000000 0 0 1
23.023978 6.986184 10.296961 26.171315 0.294601 1.166421 0.043713 -0.006676 335169.000000 0 0 1
24.122078 6.120484 9.587261 26.669281 0.248486 1.203078 0.060302 -0.011792 682325.000000 0 0 1
23.756978 5.994684 8.188061 25.833594 0.247174 1.248280 0.072666 -0.008447 699133.000000 0 0 1
24.786878 5.344984 7.437261 26.424818 0.212386 1.285492 0.066373 -0.011555 344375.000000 0 0 1
24.333978 5.082984 5.982561 25.568931 0.205923 1.334629 0.066293 -0.013960 -191500.000000 0 0 1
23.510278 3.949184 5.841561 24.544919 0.166423 1.330496 0.075156 -0.018871 424748.000000 0 1 0
23.018178 3.801184 4.507361 23.761351 0.163661 1.379947 0.059245 -0.015194 553612.000000 0 1 0
21.940678 2.663184 4.371661 22.529920 0.120790 1.375520 0.042122 -0.009082 -151318.000000 0 1 0
22.595378 1.457684 4.414961 23.068763 0.064423 1.378226 0.050845 -0.011119 505265.000000 0 1 0
21.777978 0.351584 4.030061 22.150515 0.016143 1.387837 0.027043 -0.012768 -284200.000000 0 1 0
22.418178 -1.013216 4.401361 22.868609 -0.045165 1.377125 0.032667 -0.011082 -342343.000000 0 1 0
22.329178 -1.436416 5.746961 23.101581 -0.064241 1.319387 0.032315 -0.017016 583732.000000 0 1 0
22.592578 -2.808216 5.942961 23.529331 -0.123664 1.315454 0.032361 -0.015873 -557263.000000 0 1 0
22.292778 -3.254716 7.389761 23.710118 -0.144974 1.253845 0.042076 -0.010971 -274818.000000 0 1 0
22.404778 -4.603616 7.711761 24.137908 -0.202654 1.245608 0.038076 -0.011654 543751.000000 0 1 0
21.869778 -4.859216 9.022561 24.151724 -0.218637 1.187933 0.030582 -0.010575 137392.000000 0 1 0
21.779278 -6.321716 9.509461 24.591277 -0.282500 1.173745 0.037374 -0.019283 291624.000000 0 1 0
20.823778 -7.066916 8.757161 23.669789 -0.327172 1.191817 0.062834 -0.020906 471135.000000 0 1 0
20.605778 -8.364716 9.225861 24.076608 -0.385617 1.177551 0.063571 -0.020069 46929.700000 0 1 0
-25.204032 -33.268730 5.631061 42.116036 0.922456 1.436691 0.006058 -0.008445 -681589.000000 0 0 1
-25.814582 -34.400730 6.083461 43.437442 0.927034 1.430283 0.009994 -0.004100 -210021.000000 0 0 1
-26.214552 -34.227430 7.408961 43.744856 0.917201 1.400608 0.011169 -0.007078 -460027.000000 0 0 1
-26.943712 33.598584 7.955761 43.796376 -0.894880 1.388129 0.016167 -0.005346 516803.000000 0 0 1
-28.255362 33.512484 7.376161 44.450644 -0.870305 1.404085 0.013908 -0.010996 549901.000000 0 0 1
-28.867832 32.249884 7.738561 43.969217 -0.840678 1.393875 0.011360 -0.007039 399472.000000 0 0 1
-30.396862 32.291084 7.990261 45.061376 -0.815606 1.392534 -0.002153 -0.002048 427201.000000 0 0 1
-31.109242 32.642084 6.787161 45.599957 -0.809438 1.421400 -0.009248 0.004402 -343685.000000 0 0 1
-32.486032 32.680084 7.046861 46.615324 -0.788376 1.419044 -0.010322 0.006334 -600808.000000 0 0 1
-33.184342 32.820684 5.704461 47.020620 -0.779889 1.449178 0.002517 0.009767 -328535.000000 0 0 1
-32.873372 31.716484 4.816261 45.932454 -0.767489 1.465748 0.003217 0.003658 814274.000000 0 0 1
-33.759442 31.757784 3.676361 46.494864 -0.754856 1.491643 0.022036 -0.002394 305804.000000 0 0 1
-33.441282 30.507984 2.765461 45.350901 -0.739561 1.509779 0.024802 0.001085 186171.000000 0 0 1
-33.836932 29.211284 3.220961 44.817537 -0.712163 1.498866 0.035538 -0.000420 268987.000000 0 0 1
-33.286802 28.188784 2.396961 43.684827 -0.702660 1.515899 0.024634 0.004407 -135917.000000 0 0 1
-33.324262 26.803184 3.049961 42.874460 -0.677366 1.499599 0.029163 -0.000189 1004950.000000 0 0 1
-34.679931 26.275884 3.044961 43.616413 -0.648391 1.500927 0.058178 -0.003665 1052730.000000 0 0 1
-34.900716 25.252384 4.009961 43.264566 -0.626357 1.477978 0.057655 -0.005411 394191.000000 0 0 1
33.988823 25.119284 4.213961 42.473238 0.636453 1.471418 0.042491 -0.011785 76926.000000 0 0 1
33.242883 24.429384 3.275561 41.383733 0.633751 1.491563 0.030665 -0.000985 -434299.000000 0 0 1
33.479723 23.040484 3.052261 40.756252 0.602757 1.495836 0.019968 0.000678 -1060620.000000 0 0 1
32.479853 22.303684 2.169261 39.460117 0.601739 1.515795 0.016026 -0.008653 49803.800000 0 0 1
31.228273 21.921184 2.741961 38.252604 0.612044 1.499054 0.016548 -0.016341 397628.000000 0 0 1
31.141793 20.836184 3.682761 37.649974 0.589668 1.472824 -0.010012 0.008248 -605921.000000 0 0 1
31.823823 19.524584 3.287061 37.480260 0.550302 1.482982 -0.015594 -0.004953 -242514.000000 0 0 1
31.126203 18.851684 2.246161 36.459179 0.544566 1.509150 -0.028926 0.000766 424263.000000 0 0 1
31.636163 17.589484 1.858061 36.244850 0.507433 1.519510 -0.029287 -0.002076 -530886.000000 0 0 1
31.394493 16.414384 2.849761 35.541065 0.481754 1.490528 -0.020715 -0.003159 241017.000000 0 0 1
30.047513 15.950184 2.779161 34.131879 0.488008 1.489282 -0.009044 0.010119 635432.000000 0 0 1
29.713903 14.967484 3.789261 33.485820 0.466619 1.457393 0.027772 -0.003313 234591.000000 0 0 1
28.177763 14.915284 3.987961 32.130295 0.486834 1.446357 0.028591 0.001591 90624.600000 0 0 1
27.442243 14.512784 2.874361 31.176266 0.486459 1.478468 0.030764 -0.013113 531137.000000 0 0 1
26.088093 14.995684 2.904361 30.230687 0.521691 1.474575 0.016874 -0.007306 716032.000000 0 0 1
25.247763 14.456284 1.720961 29.144389 0.520011 1.511712 0.033573 -0.013201 -394010.000000 0 0 1
25.503493 14.942484 0.424861 29.561571 0.529987 1.556424 0.035300 -0.014090 979465.000000 0 0 1
26.767443 14.489284 -0.112839 30.437610 0.496141 1.574504 0.043312 -0.011834 72887.400000 0 0 1
27.157363 15.272384 -1.351939 31.186469 0.512288 1.614160 0.041594 -0.014693 -101020.000000 0 0 1
27.452463 16.685384 -1.142739 32.145694 0.546129 1.606353 0.018931 -0.016825 766110.000000 0 0 1
28.523143 16.948084 -0.205339 33.179051 0.536134 1.576985 -0.003410 -0.008516 -208008.000000 0 0 1
29.065473 18.348784 -0.543439 34.376953 0.563111 1.586605 -0.009418 -0.003655 -316447.000000 0 0 1
29.793773 18.416484 -1.768039 35.070811 0.553645 1.621231 -0.034336 -0.000769 217489.000000 0 0 1
30.614113 19.575884 -1.925339 36.388818 0.568916 1.623731 -0.042874 0.009867 91654.400000 0 0 1
30.018253 20.919584 -2.413939 36.668128 0.608639 1.636676 -0.028759 0.008407 -298866.000000 0 0 1
31.034333 21.721984 -2.982139 37.998257 0.610682 1.649358 -0.066363 0.010027 505528.000000 0 0 1
30.458003 22.751784 -3.759839 38.203011 0.641571 1.669373 -0.032924 0.008590 -320200.000000 0 0 1
31.415523 23.936984 -3.922639 39.690067 0.651104 1.669790 -0.036712 0.018261 -376023.000000 0 0 1
31.394213 24.810184 -2.797639 40.111951 0.668785 1.640599 -0.019634 0.022419 177446.000000 0 0 1
32.122423 24.402084 -1.649339 40.373656 0.649654 1.611660 -0.012741 0.024249 -551462.000000 0 0 1
31.948743 25.208584 -0.352539 40.697901 0.668017 1.579459 0.002431 0.003987 -104076.000000 0 0 1
32.538863 26.495184 -0.335339 41.962898 0.683377 1.578788 0.024734 0.006385 601482.000000 0 0 1
33.852303 26.526484 0.255161 43.008114 0.664657 1.564863 0.038091 0.001260 861697.000000 0 0 1
34.563509 27.860084 -0.119939 44.394085 0.678422 1.573498 0.035829 -0.000821 -527946.000000 0 0 1
35.167801 28.035384 -1.348539 44.995284 0.673025 1.600771 0.025294 -0.007045 -44605.300000 0 0 1
34.305583 28.026884 -2.472939 44.367721 0.685008 1.626563 0.012434 -0.004471 596.929000 0 0 1
35.017318 27.530984 -3.746439 44.701269 0.666276 1.654705 -0.000186 -0.000221 148558.000000 0 0 1
-34.622988 28.396684 -4.525539 45.006705 -0.686918 1.671519 0.008356 -0.000029 93914.300000 0 0 1
-34.203316 27.993184 -5.817239 44.579428 -0.685881 1.701661 0.009839 -0.002645 -567556.000000 0 0 1
35.154387 27.869984 -6.898139 45.388889 0.670328 1.723366 -0.008087 0.003679 -746814.000000 0 0 1
34.276143 26.818484 -6.664739 44.028443 0.663932 1.722754 -0.015264 0.009228 -1145480.000000 0 0 1
33.120793 27.109684 -7.386139 43.433592 0.685926 1.741683 -0.022842 0.003384 -707266.000000 0 0 1
31.980933 26.131584 -7.071539 41.900435 0.685080 1.740378 -0.027600 -0.000896 -530050.000000 0 0 1
32.181063 24.805784 -7.486039 41.315718 0.656693 1.752994 -0.035267 0.009049 513835.000000 0 0 1
33.293503 24.033584 -6.945639 41.645077 0.625254 1.738361 -0.032292 0.008764 560086.000000 0 0 1
33.264193 22.500784 -7.177039 40.795854 0.594729 1.747642 -0.035240 0.009699 215975.000000 0 0 1
32.170543 21.928184 -6.469639 39.467016 0.598286 1.735465 -0.037206 0.006278 475670.000000 0 0 1
32.453693 20.551984 -6.452139 38.951975 0.564525 1.737207 -0.020131 -0.013331 -844415.000000 0 0 1
31.348023 19.703584 -5.912139 37.495109 0.561143 1.729135 -0.010846 -0.009370 -1027820.000000 0 0 1
30.201493 19.714284 -6.720239 36.687120 0.578312 1.755014 -0.015630 -0.013256 -404183.000000 0 0 1
29.163933 19.055784 -6.035739 35.356584 0.578763 1.742347 0.013534 -0.018586 -20055.400000 0 0 1
27.838383 18.882084 -6.815539 34.321425 0.595996 1.770705 0.018719 -0.025716 101326.000000 0 0 1
27.949853 17.887984 -7.839239 34.097330 0.569315 1.802779 0.021008 -0.027446 553918.000000 0 0 1
26.750723 17.771084 -8.625439 33.253734 0.586377 1.833179 0.026956 -0.025410 435843.000000 0 0 1
26.677413 16.608384 -9.661139 32.876441 0.556845 1.869061 0.030096 -0.022931 -512000.000000 0 0 1
25.677923 16.724584 -10.640239 32.438899 0.577304 1.904991 0.026339 -0.015857 -41814.200000 0 0 1
25.765483 15.698984 -11.578439 32.316845 0.547232 1.937220 0.027619 -0.014488 17580.800000 0 0 1
24.853663 16.019684 -12.790039 32.216765 0.572542 1.979042 0.017310 -0.002126 -148163.000000 0 0 1
23.469363 16.196884 -12.541739 31.151971 0.604070 1.985150 0.013503 -0.003672 666850.000000 0 0 1
22.652463 16.126884 -13.743939 31.017839 0.618685 2.029848 0.013722 -0.002723 197399.000000 0 0 1
22.641863 14.738084 -14.514339 30.668080 0.577023 2.063798 0.008809 -0.004620 -521744.000000 0 0 1
23.878863 14.306684 -15.069639 31.653994 0.539784 2.066981 0.016802 -0.010221 323833.000000 0 0 1
24.157863 14.913484 -16.352839 32.763237 0.553068 2.093381 0.036569 -0.011837 -743607.000000 0 0 1
25.488993 14.531784 -16.980339 33.899756 0.518159 2.095433 0.041989 -0.008722 -479692.000000 0 0 1
25.682093 13.159384 -17.262439 33.626345 0.473515 2.109892 0.047357 -0.007885 -207349.000000 0 0 1
26.999133 12.941684 -17.693439 34.777840 0.446981 2.104536 0.044498 0.008609 -87967.900000 0 0 1
27.252933 11.556784 -18.372139 34.839878 0.401071 2.126252 0.025343 0.013203 -229738.000000 0 0 1
26.622323 11.331284 -19.622339 34.959724 0.402405 2.166733 0.016649 0.008623 -211558.000000 0 0 1
26.752433 10.064784 -20.266439 35.038852 0.359839 2.187561 0.003839 0.029519 -1455600.000000 0 0 1
28.037933 9.492684 -20.757839 36.154179 0.326452 2.182359 0.018634 0.012962 -1747310.000000 0 0 1
28.539073 10.225484 -21.852839 37.370922 0.344048 2.195375 0.026087 0.004303 126054.000000 0 0 1
29.143133 9.440784 -22.852339 38.218844 0.313278 2.211717 0.023284 0.001477 -36110.800000 0 0 1
30.563673 8.886684 -22.647139 39.064104 0.282958 2.189210 0.023258 -0.000900 -155515.000000 0 0 1
31.659783 9.759784 -22.768239 40.199353 0.299027 2.172907 0.028514 -0.003033 417030.000000 0 0 1
32.925373 9.105784 -22.702239 41.016913 0.269814 2.157339 0.004382 -0.000920 1044070.000000 0 0 1
34.135143 10.099084 -22.680839 42.209240 0.287651 2.138080 0.019510 -0.008351 193013.000000 0 0 1
34.044483 10.803984 -21.454539 41.665935 0.307296 2.111708 0.014225 -0.010688 202250.000000 0 0 1
34.990414 11.845984 -21.363239 42.673697 0.326438 2.095109 -0.011248 0.002256 -208124.000000 0 0 1
34.956506 12.623084 -20.012239 42.211246 0.346536 2.064735 -0.005910 0.001082 -78655.600000 0 0 1
-35.028008 11.978284 -18.793039 41.516490 -0.329497 2.040548 -0.011597 0.002621 334655.000000 0 0 1
35.030487 12.780784 -17.659339 41.259371 0.349840 2.013084 -0.007772 0.006262 5047.090000 0 0 1
-35.140422 11.962184 -16.352239 40.562777 -0.328107 1.985735 -0.024417 0.000402 -468223.000000 0 0 1
34.509998 10.792984 -16.125339 39.591098 0.303112 1.990289 -0.014574 0.001548 43983.100000 0 0 1
35.042283 9.870784 -15.208439 39.454919 0.274568 1.966507 -0.016671 -0.010137 -119280.000000 0 0 1
34.243803 8.505784 -15.149639 38.399193 0.243462 1.976353 0.027542 -0.004239 133691.000000 0 0 1
33.158833 8.534184 -14.234539 37.080488 0.251906 1.964793 0.044095 -0.008844 487292.000000 0 0 1
33.547783 8.448784 -12.903439 36.923359 0.246713 1.927797 0.035942 -0.011935 -660006.000000 0 0 1
32.425983 8.909984 -11.973739 35.695975 0.268161 1.912865 0.042970 -0.005914 -281148.000000 0 0 1
32.496853 10.348384 -11.894639 36.119482 0.308290 1.906373 0.037482 -0.012235 73702.500000 0 0 1
31.539443 10.925684 -11.032439 35.154257 0.333476 1.890020 0.020980 -0.003545 -449081.000000 0 0 1
31.626873 10.643384 -9.507539 34.697753 0.324625 1.848357 0.018908 -0.000414 450263.000000 0 0 1
32.766713 11.188784 -8.809639 35.727526 0.329054 1.819944 0.016910 0.002153 682786.000000 0 0 1
32.736763 12.632184 -8.719739 36.156626 0.368268 1.814363 0.023371 -0.010101 -357684.000000 0 0 1
32.733583 13.130084 -7.223839 36.000978 0.381471 1.772825 0.018187 -0.012773 147320.000000 0 0 1
33.949173 12.946984 -6.510539 36.912842 0.364338 1.748100 0.029089 -0.013996 271526.000000 0 0 1
33.663813 13.314384 -5.156939 36.566640 0.376630 1.712297 0.020692 -0.010090 602431.000000 0 0 1
34.918164 13.457384 -4.228439 37.659781 0.367855 1.683314 0.020284 -0.013568 16164.800000 0 0 1
-34.607933 14.437184 -4.584239 37.777726 -0.395215 1.692444 0.024659 -0.019097 301957.000000 0 0 1
-33.392012 14.207184 -3.834239 36.490710 -0.402266 1.676065 0.016996 -0.011240 713452.000000 0 0 1
-32.546082 15.421884 -3.506039 36.185277 -0.442508 1.667840 0.029109 -0.017720 -76007.900000 0 0 1
-33.232432 16.297584 -2.634539 37.107231 -0.455948 1.641854 0.022385 -0.012814 -139032.000000 0 0 1
-32.471482 17.404784 -2.310539 36.914255 -0.492033 1.633429 0.041220 -0.011540 -264293.000000 0 0 1
-33.014342 18.132884 -1.062639 37.681261 -0.502262 1.599001 0.027825 -0.005256 -99808.500000 0 0 1
-34.274306 18.731684 -1.239139 39.078632 -0.500170 1.602511 0.011023 -0.001805 -43511.500000 0 0 1
-34.640603 19.475584 -0.116939 39.740199 -0.512176 1.573739 -0.010951 0.003780 278941.000000 0 0 1
34.577354 20.441984 -0.358439 40.169598 0.533921 1.579720 -0.016191 0.001274 349622.000000 0 0 1
34.814910 21.585584 -1.147839 40.979665 0.555003 1.598810 0.007774 0.005624 71289.700000 0 0 1
34.602530 21.334684 -2.545339 40.730610 0.552510 1.633329 -0.010527 0.016044 -89875.800000 0 0 1
34.857352 22.527384 -3.490939 41.649786 0.573751 1.654711 0.019712 -0.013755 -749406.000000 0 0 1
-34.247701 22.898484 -3.677939 41.361490 -0.589349 1.659836 0.025771 -0.003117 -572499.000000 0 0 1
-34.166157 23.934984 -4.616739 41.970514 -0.611093 1.681019 0.032958 -0.006484 1261630.000000 0 0 1
-32.684532 24.354484 -5.025039 41.069095 -0.640382 1.693459 0.020669 -0.011271 1433490.000000 0 0 1
-31.962522 23.408684 -5.771239 40.035940 -0.632128 1.715452 0.001891 -0.003162 -884982.000000 0 0 1
-30.691912 23.858184 -6.078039 39.346524 -0.660773 1.725892 0.016586 0.008046 -303592.000000 0 0 1
-29.901442 23.028084 -7.165039 38.415188 -0.656262 1.758411 0.018074 -0.009129 131449.000000 0 0 1
-30.433892 23.148984 -8.471139 39.164492 -0.650271 1.788816 0.022411 -0.018447 90835.600000 0 0 1
-29.505742 22.690884 -9.451339 38.403032 -0.655571 1.819460 -0.004066 -0.017051 126312.000000 0 0 1
-30.088782 22.470584 -10.849439 39.089286 -0.641456 1.852045 -0.004914 0.006037 -298194.000000 0 0 1
-30.549282 23.662384 -11.397339 40.287298 -0.659038 1.857614 -0.008921 0.006210 -97054.200000 0 0 1
-31.177822 23.423684 -12.647939 40.996292 -0.644328 1.884427 -0.038674 0.013221 -368538.000000 0 0 1
-31.884102 24.689884 -13.207339 42.433715 -0.658912 1.887301 0.016731 0.009587 -101000.000000 0 0 1
-31.179972 25.903384 -13.505439 42.726723 -0.693224 1.892400 0.018745 0.001651 -732332.000000 0 0 1
-30.414432 25.864584 -14.651639 42.528636 -0.704729 1.922516 0.006717 0.001690 157767.000000 0 0 1
-29.062532 26.638584 -14.489039 42.002109 -0.741909 1.922992 0.004235 0.011355 244161.000000 0 0 1
-28.062572 26.136284 -13.643539 40.703310 -0.749872 1.912608 -0.000524 0.003783 -63248.600000 0 0 1
-28.338042 26.126184 -12.228939 40.437224 -0.744809 1.878025 0.012234 0.006216 -790389.000000 0 0 1
-28.365322 27.520184 -11.494939 41.159272 -0.770277 1.853840 0.017082 0.018086 -301807.000000 0 0 1
-27.132832 27.952784 -10.999239 40.478784 -0.800282 1.845985 0.010681 0.016206 -351700.000000 0 0 1
-27.343912 29.138084 -10.201239 41.240547 -0.817153 1.820750 0.017444 0.005827 -65169.900000 0 0 1
-26.083362 29.953284 -9.938739 40.942881 -0.854349 1.815992 0.023253 0.004089 -268885.000000 0 0 1
-26.462172 31.247784 -9.492739 42.033114 -0.868134 1.798601 0.032173 -0.011590 306573.000000 0 0 1
-25.367932 32.055784 -9.069739 41.873206 -0.901341 1.789127 0.022320 -0.000127 -584836.000000 0 0 1
33.390153 -25.177806 34.189040 54.015874 -0.646087 0.885446 0.007890 -0.007931 -112222.000000 0 0 1
33.133853 -23.860816 -34.428156 53.408695 -0.624111 2.271319 0.004293 -0.015410 1228610.000000 0 0 1
31.979113 -23.794916 -33.529909 52.087585 -0.639699 2.270148 0.005986 -0.008500 1171610.000000 0 0 1
31.539823 -22.384216 -33.072939 50.888436 -0.617215 2.278263 0.007259 -0.007897 98294.500000 0 0 1
31.161893 -21.707816 -34.257944 51.145866 -0.608450 2.304747 0.004301 -0.014413 130615.000000 0 0 1
30.539633 -20.468916 -33.917189 50.020211 -0.590473 2.315930 0.007775 -0.016831 123982.000000 0 0 1
30.471703 -19.686216 33.825603 49.600839 -0.573593 0.820362 -0.002732 -0.011637 -222559.000000 0 0 1
31.722843 -19.482116 33.236767 49.905654 -0.550748 0.841973 -0.002643 -0.012041 -209739.000000 0 0 1
31.436403 -18.915216 31.923897 48.632993 -0.541667 0.854727 -0.007195 0.003259 -412504.000000 0 0 1
32.563653 -18.643516 30.933687 48.629880 -0.519973 0.881357 -0.007054 0.005184 -689621.000000 0 0 1
33.478453 -17.670816 31.395627 49.180788 -0.485660 0.878415 -0.007697 -0.005905 320094.000000 0 0 1
34.500650 -17.487916 30.438597 49.220222 -0.469142 0.904070 -0.001672 -0.003600 -20674.400000 0 0 1
-34.837342 -16.426016 30.712087 49.261412 0.440594 0.897647 -0.005201 -0.007834 -1045340.000000 0 0 1
-33.918212 -16.347016 29.686327 47.947347 0.449107 0.903144 0.012065 -0.004896 183638.000000 0 0 1
-32.833282 -15.440016 29.904407 47.017997 0.439570 0.881466 0.008427 -0.012177 685434.000000 0 0 1
-31.715712 -15.983716 30.837327 47.035160 0.466817 0.855789 0.026123 -0.022995 -638574.000000 0 0 1
-30.858822 -15.014616 31.425697 46.532569 0.452837 0.829359 0.018471 -0.023081 455959.000000 0 0 1
-29.719362 -15.633216 32.020927 46.400190 0.484253 0.809164 0.025380 -0.026367 553590.000000 0 0 1
-28.731402 -14.547916 32.561887 45.797509 0.468708 0.779881 0.021881 -0.024898 163632.000000 0 0 1
-29.166422 -13.886616 33.759995 46.725320 0.444359 0.763355 0.016269 -0.022466 511136.000000 0 0 1
-28.111922 -13.028716 34.158404 46.117504 0.433990 0.736711 0.007279 -0.018103 31352.800000 0 0 1
-28.289442 -12.431916 -33.457949 45.544258 0.414050 2.395910 0.010804 -0.022333 -363837.000000 0 0 1
-28.062872 -13.355016 -32.442179 44.926342 0.444179 2.377657 0.003517 -0.017274 132702.000000 0 0 1
-28.228142 -12.746016 -31.208319 43.968718 0.424130 2.359989 0.014848 -0.013414 -471553.000000 0 0 1
-28.553602 -13.757316 -30.063919 43.685366 0.448987 2.329790 0.016250 -0.010771 -680332.000000 0 0 1
-29.742072 -14.452216 -30.239069 44.809137 0.452319 2.311546 0.011404 -0.015115 -572020.000000 0 0 1
-29.973472 -15.135016 -28.996529 44.365262 0.467597 2.283110 0.018910 -0.006817 619299.000000 0 0 1
-31.256162 -16.024116 -28.988049 45.541486 0.473733 2.260774 0.016645 -0.013999 387801.000000 0 0 1
-31.012072 -17.242316 -29.606649 46.212550 0.507428 2.266157 0.012588 -0.011160 218898.000000 0 0 1
-32.195902 -18.008816 -29.728229 47.377856 0.509994 2.249097 0.005338 -0.012764 -199781.000000 0 0 1
-31.928382 -19.417316 -30.296129 48.107268 0.546392 2.252043 -0.005051 -0.005191 342615.000000 0 0 1
-33.107802 -20.181416 -30.582039 49.382965 0.547424 2.238626 -0.009334 -0.005008 364021.000000 0 0 1
-32.811342 -21.432216 -31.240879 50.119024 0.578618 2.243795 -0.013555 -0.000704 372439.000000 0 0 1
-34.041352 -22.383616 -31.461519 51.474917 0.581659 2.228373 -0.005202 0.000243 290694.000000 0 0 1
-34.572194 -22.937216 -30.290769 51.370061 0.585778 2.201432 -0.001009 -0.003583 440418.000000 0 0 1
34.689536 -23.732416 -30.521039 51.943482 -0.600001 2.198863 0.017410 -0.005981 569615.000000 0 0 1
35.031023 -25.196006 -30.906939 53.077775 -0.623528 2.192346 0.008082 -0.006682 197217.000000 0 0 1
-34.816346 -25.440626 -32.196369 53.814586 0.631040 2.212153 0.015421 -0.006138 83978.200000 0 0 1
-33.970902 -26.583466 -32.268029 53.869552 0.664001 2.213052 0.006448 -0.006437 -148819.000000 0 0 1
-34.309728 -27.565316 -33.388199 55.242882 0.676826 2.219795 0.015144 -0.012345 642594.000000 0 0 1
34.783800 -28.089836 -33.346109 55.775574 -0.679331 2.211628 0.016992 -0.007602 384990.000000 0 0 1
34.574467 -29.307696 -34.085073 56.710908 -0.703139 2.215588 0.012265 -0.007996 -123215.000000 0 0 1
35.109742 -30.561246 -33.391349 57.285827 -0.716247 2.193077 0.005749 -0.017946 -513340.000000 0 0 1
34.407509 -30.910936 -32.249259 56.385968 -0.731918 2.179662 0.010618 -0.015889 -38809.900000 0 0 1
-35.147945 -31.301176 -31.183669 56.458506 0.727572 2.155952 -0.000241 -0.022411 37433.700000 0 0 1
34.559214 -31.980176 -30.012899 55.837667 -0.746658 2.138269 -0.007450 -0.015841 -89284.000000 0 0 1
34.013043 -33.243246 -30.355349 56.422050 -0.773953 2.138865 0.007261 -0.011618 373637.000000 0 0 1
33.395563 -33.842156 -29.206309 55.799316 -0.792040 2.121653 0.028224 -0.011491 -111441.000000 0 0 1
32.305253 34.161568 -29.407399 55.456625 0.813319 2.129724 0.024305 -0.018217 186004.000000 0 0 1
31.100243 -34.309380 -29.875949 55.108357 -0.834421 2.143767 0.030308 -0.014195 280132.000000 0 0 1
29.975943 33.970787 -29.548999 54.089878 0.847789 2.148730 0.021203 -0.017271 -381119.000000 0 0 1
28.661133 34.261224 -30.226039 53.934270 0.874164 2.165694 0.006534 -0.005331 -440748.000000 0 0 1
28.670123 33.848739 -31.577599 54.450508 0.868042 2.189442 0.011143 -0.003536 -17258.600000 0 0 1
27.435463 34.181754 -32.169049 54.368600 0.894451 2.203943 0.015538 0.001994 19393.100000 0 0 1
27.415743 33.657472 -33.606289 54.898370 0.887245 2.229579 0.016914 -0.005880 90461.400000 0 0 1
27.306973 32.267798 -33.604139 54.001109 0.868477 2.242456 0.008568 0.001623 7630.090000 0 0 1
27.155433 31.714838 34.190574 53.965209 0.862692 0.884641 0.019254 -0.004926 -51512.800000 0 0 1
27.027413 30.180468 34.142038 52.981321 0.840458 0.870536 0.019552 -0.011683 -119825.000000 0 0 1
28.251603 29.479158 34.285041 53.316394 0.806658 0.872324 0.012061 -0.002842 -222469.000000 0 0 1
28.157313 28.097358 34.522244 52.669546 0.784332 0.856018 0.003605 -0.002373 -198497.000000 0 0 1
29.514483 27.427318 -34.272970 52.896115 0.748760 2.275660 0.016229 -0.012149 -164987.000000 0 0 1
30.081413 27.791578 -33.044049 52.622927 0.745852 2.249700 0.018765 -0.005712 -130453.000000 0 0 1
31.291163 27.102298 -32.757149 52.789225 0.713786 2.240211 0.018613 -0.008680 404655.000000 0 0 1
31.772893 27.489638 -31.332799 52.411270 0.713248 2.211582 0.011314 -0.018387 -457107.000000 0 0 1
32.538283 28.651178 -31.172339 53.397983 0.721958 2.194165 0.004697 -0.017072 -72327.000000 0 0 1
31.870853 29.909248 -31.344549 53.784711 0.753657 2.192939 0.007189 -0.006459 533264.000000 0 0 1
30.851873 30.367528 -30.251439 52.812635 0.777487 2.180722 0.012827 -0.001621 496922.000000 0 0 1
31.512013 30.464288 -29.009819 52.560911 0.768495 2.155470 -0.000329 -0.003516 541509.000000 0 0 1
30.556883 30.557078 -27.923179 51.450579 0.785401 2.144467 0.012855 -0.006057 111876.000000 0 0 1
31.164803 30.956618 -26.555789 51.329982 0.782047 2.114553 0.027697 -0.011504 -354056.000000 0 0 1
31.797883 32.189938 -26.664299 52.519352 0.791525 2.103314 0.021992 -0.016735 44598.300000 0 0 1
32.021843 32.827708 -25.406599 52.426636 0.797824 2.076716 0.015540 -0.018083 -226264.000000 0 0 1
32.463983 34.249702 -25.449749 53.615688 0.812159 2.065385 0.022437 -0.017655 182517.000000 0 0 1
31.437133 -33.899906 -25.834049 52.961260 -0.823074 2.080354 0.037883 -0.004028 451638.000000 0 0 1
31.531953 -32.613136 -25.280139 51.932323 -0.802252 2.079208 0.034160 -0.013663 -1026890.000000 0 0 1
32.076453 -31.565606 -26.233649 52.091177 -0.777371 2.098569 0.030867 -0.018828 143241.000000 0 0 1
33.426453 -31.675526 -26.642019 53.202105 -0.758510 2.095284 0.034139 -0.020089 427290.000000 0 0 1
34.394094 -31.323456 -25.642789 53.119349 -0.738707 2.074576 0.033043 -0.009019 810006.000000 0 0 1
-34.563041 -31.644986 -26.129269 53.653962 0.741353 2.079443 -0.004925 -0.008943 784631.000000 0 0 1
-33.969132 -32.915436 -26.003869 53.977116 0.769646 2.073455 -0.007550 -0.008084 1380.060000 0 0 1
-33.395742 -33.250916 -24.743739 53.227358 0.783225 2.054283 -0.000477 -0.000961 831934.000000 0 0 1
-32.050582 -32.557426 -24.275139 51.734981 0.793243 2.059205 -0.009787 -0.006079 106621.000000 0 0 1
-31.967612 -31.164356 -24.071239 50.720508 0.772675 2.065290 -0.003756 -0.000999 -184862.000000 0 0 1
-32.351012 -30.869476 -22.768739 50.178960 0.761968 2.041766 -0.024549 -0.007339 -577953.000000 0 0 1
-32.361732 -29.367416 -22.324339 49.072426 0.736929 2.043086 -0.033791 0.009412 180854.000000 0 0 1
-33.488572 -28.588106 -22.701139 49.538934 0.706619 2.046820 -0.033204 0.007629 -108960.000000 0 0 1
-33.592022 -28.410266 -24.116339 50.171356 0.702018 2.072226 -0.028489 0.009222 108863.000000 0 0 1
-34.621889 -27.315586 -24.553239 50.474528 0.667978 2.078816 -0.018723 0.000649 357597.000000 0 0 1
-34.385784 -26.077566 -23.854639 49.309892 0.648844 2.075753 -0.020272 -0.000092 -242083.000000 0 0 1
35.138138 -25.107096 -24.370039 49.587840 -0.620408 2.084552 -0.004869 0.001380 66269.500000 0 0 1
-34.880828 -24.481716 -25.720209 49.775052 0.611978 2.113822 -0.000921 0.006004 -491231.000000 0 0 1
-33.904502 -23.499616 -25.697549 48.601556 0.606088 2.127911 -0.011210 0.001655 -529130.000000 0 0 1
-33.664682 -22.980516 -26.993189 48.888109 0.598973 2.155728 -0.006691 -0.003536 604517.000000 0 0 1
-32.518072 -21.889416 -26.909919 47.546980 0.592475 2.172399 -0.004521 -0.008429 244024.000000 0 0 1
-32.803352 -20.772816 -26.074439 46.770142 0.564512 2.162170 -0.003583 -0.002848 -557742.000000 0 0 1
-33.890692 -19.964316 -26.436489 47.392414 0.532351 2.162555 0.004145 -0.001770 -647268.000000 0 0 1
-34.923494 -19.869516 -25.306529 47.485456 0.517271 2.132858 0.018811 -0.003056 -478934.000000 0 0 1
-34.490229 -19.478116 -24.020739 46.324603 0.514092 2.115928 0.024532 -0.006546 -179535.000000 0 0 1
-33.762602 -20.389516 -23.184139 45.750956 0.543288 2.102203 0.004799 -0.004774 -189846.000000 0 0 1
-34.482102 -21.697516 -22.770239 46.672062 0.561642 2.080453 0.016772 -0.005860 635924.000000 0 0 1
34.874367 -21.334116 -21.872339 46.365561 -0.549009 2.062056 0.021166 -0.001908 313560.000000 0 0 1
34.072213 -22.434816 -21.535039 46.130192 -0.582292 2.056501 0.011881 0.001538 -343160.000000 0 0 1
33.066643 -22.054316 -20.454139 44.700868 -0.588210 2.046066 0.024800 -0.004817 372984.000000 0 0 1
31.829353 -21.534316 -20.941439 43.765036 -0.594817 2.069739 0.034352 -0.002213 -7791.360000 0 0 1
30.773863 -21.676016 -20.034739 42.641190 -0.613649 2.059911 0.024971 0.001713 -644918.000000 0 0 1
29.457553 -21.218716 -20.623839 41.753133 -0.624230 2.087420 0.017316 0.005220 -1267410.000000 0 0 1
28.933803 -22.027416 -21.700339 42.347099 -0.650696 2.108820 0.020062 0.008484 1175790.000000 0 0 1
27.699043 -21.494216 -22.246539 41.522847 -0.659929 2.136211 0.013218 0.014841 909470.000000 0 0 1
27.713623 -20.079416 -22.898739 41.177423 -0.627002 2.160481 0.022670 0.005874 -877850.000000 0 0 1
28.199073 -19.023016 -22.077439 40.552142 -0.593473 2.146495 0.007091 0.011655 97940.100000 0 0 1
28.323243 -17.810116 -22.851439 40.516597 -0.561339 2.170020 -0.002622 0.013564 -290922.000000 0 0 1
29.128883 -16.787916 -21.981239 40.168406 -0.522835 2.149844 -0.008828 0.012596 -357837.000000 0 0 1
28.450943 -16.273516 -20.858839 38.850672 -0.519566 2.137552 -0.017225 0.014204 -109435.000000 0 0 1
29.310563 -15.623516 -19.941639 38.741094 -0.489724 2.111502 -0.020813 0.003530 -450775.000000 0 0 1
30.267003 -16.550116 -19.174539 39.467212 -0.500386 2.078114 0.007417 -0.007603 -112394.000000 0 0 1
31.359363 -16.923416 -20.022739 40.874464 -0.494871 2.082725 0.003441 -0.004740 -616937.000000 0 0 1
32.135233 -17.784916 -19.257939 41.471010 -0.505480 2.053721 0.018624 -0.011339 -631489.000000 0 0 1
33.281783 -18.307516 -20.145439 42.996290 -0.502902 2.058433 0.018880 -0.010186 46632.900000 0 0 1
34.232863 -17.299616 -20.436539 43.460531 -0.467919 2.060350 0.015552 -0.007469 -230369.000000 0 0 1
35.212659 -17.713716 -21.334339 44.820321 -0.466084 2.066894 0.017530 -0.004548 521364.000000 0 0 1
-34.179692 -16.573616 -21.773339 43.783723 0.451492 2.091272 0.016555 0.001638 779058.000000 0 0 1
-33.322002 -16.188116 -20.700739 42.437384 0.452230 2.080358 0.019866 -0.004552 261848.000000 0 0 1
-32.318832 -15.298116 -21.197739 41.567817 0.442101 2.105929 0.019435 -0.002339 -37302.200000 0 0 1
-31.269172 -14.973916 -20.084639 40.067094 0.446602 2.095868 0.014367 0.001395 -473459.000000 0 0 1
-30.234612 -15.913216 -20.013039 39.596515 0.484485 2.100670 0.004502 -0.003445 -289819.000000 0 0 1
-30.510532 -17.229616 -19.587039 40.142301 0.514067 2.080525 0.011648 -0.008714 -259130.000000 0 0 1
-29.237162 -18.128516 -19.698839 39.642137 0.555032 2.090838 0.004769 -0.019640 424110.000000 0 0 1
-29.507842 -19.446816 -19.282139 40.257823 0.582703 2.070273 0.005470 -0.015655 -147936.000000 0 0 1
-28.393502 -20.285716 -19.386739 39.919255 0.620358 2.077902 0.001154 -0.013805 -230832.000000 0 0 1
-28.790452 -21.785816 -19.123139 40.855922 0.647777 2.057894 -0.000671 0.003964 -108892.000000 0 0 1
-29.665352 -22.347216 -20.078239 42.220456 0.645616 2.066394 0.006504 -0.001762 141746.000000 0 0 1
-30.163632 -23.627516 -19.700939 43.084002 0.664482 2.045717 -0.003880 0.010718 -49183.700000 0 0 1
-31.217582 -24.164016 -20.695239 44.572750 0.658717 2.053643 -0.008214 0.008040 -208909.000000 0 0 1
-30.797842 -24.441516 -22.022839 45.065511 0.670833 2.081378 -0.010079 -0.001838 -3385.870000 0 0 1
-31.686592 -25.313706 -22.686239 46.470306 0.674056 2.080808 -0.011745 -0.002893 -288209.000000 0 0 1
-31.307032 -25.331256 -24.247439 47.007884 0.680279 2.112757 -0.016063 -0.000665 -473994.000000 0 0 1
-30.066832 -25.899236 -24.554139 46.665733 0.711069 2.124887 -0.010050 -0.004792 -485405.000000 0 0 1
-29.915292 -26.154756 -25.926059 47.446354 0.718430 2.148891 -0.010835 -0.002794 1038590.000000 0 0 1
-28.423472 -26.588756 -26.248679 46.945169 0.752059 2.164138 -0.003455 -0.011024 795036.000000 0 0 1
-27.573512 -25.488826 -26.355879 45.876042 0.746131 2.182792 0.010373 -0.010805 -1290980.000000 0 0 1
-26.259312 -25.888276 -26.528079 45.425690 0.778283 2.194430 0.014432 -0.007515 -485819.000000 0 0 1
-25.378082 -24.619216 -26.770329 44.348657 0.770221 2.218847 0.025584 -0.005928 -198515.000000 0 0 1
-25.477372 -24.109616 -28.137759 44.967806 0.757822 2.246865 0.024782 -0.008243 -141866.000000 0 0 1
-24.636622 -23.021516 -28.331769 44.041373 0.751522 2.269596 0.033263 -0.010372 -234324.000000 0 0 1
-24.615022 -22.429016 -29.777849 44.673039 0.738964 2.300399 0.016164 -0.004126 14601.900000 0 0 1
-24.239422 -23.406016 -30.752429 45.619109 0.767908 2.310559 0.027786 -0.009731 -44600.700000 0 0 1
-23.523822 -22.893216 -31.818369 45.715186 0.771813 2.340626 0.030635 -0.000112 -490825.000000 0 0 1
-23.007222 -23.908316 -32.827599 46.675380 0.804603 2.350850 0.030860 -0.003262 -99971.500000 0 0 1
-23.994122 -24.577916 -33.611979 48.057851 0.797417 2.345363 0.016342 -0.003816 -177782.000000 0 0 1
-23.641622 -25.796746 -34.124962 48.876492 0.828963 2.343659 0.022775 -0.003946 -29385.800000 0 0 1
-19.420522 -14.124516 -12.294139 26.977852 0.628813 2.043969 -0.022642 0.026676 -118363.000000 0 0 1
-19.759522 -13.718616 -10.948139 26.429168 0.606876 1.997909 -0.024713 0.027726 495668.000000 0 0 1
-18.962622 -14.457316 -9.980339 25.849607 0.651397 1.967188 -0.027965 0.011558 320965.000000 0 0 1
-19.191922 -14.115216 -8.516939 25.300345 0.634141 1.914136 -0.017548 -0.003222 -708262.000000 0 0 1
-20.419222 -14.554716 -8.033939 26.331133 0.619262 1.880852 0.000257 -0.006987 -314087.000000 0 0 1
-20.599422 -13.961916 -6.787339 25.794171 0.595658 1.837066 -0.005022 -0.009976 -296864.000000 0 0 1
-21.735622 -14.725416 -6.086039 26.950232 0.595450 1.798586 0.001597 -0.016931 -707868.000000 0 0 1
-21.606622 -16.072516 -5.674839 27.520460 0.639566 1.778491 -0.016799 -0.008428 179379.000000 0 0 1
-20.835522 -16.133216 -4.486339 26.730636 0.658881 1.739430 -0.010287 -0.004892 -217303.000000 0 0 1
-20.606922 -17.471316 -3.748139 27.275276 0.703237 1.708651 -0.023133 -0.002665 -243570.000000 0 0 1
-21.787722 -18.054116 -3.251239 28.482038 0.691960 1.685196 -0.008683 -0.006112 -22706.000000 0 0 1
-21.593022 -19.035016 -2.219239 28.870668 0.722520 1.647741 -0.013532 -0.004099 413022.000000 0 0 1
-22.857422 -19.931216 -1.976939 30.391173 0.717117 1.635892 -0.016441 -0.008686 238779.000000 0 0 1
-22.979122 -20.866416 -3.060939 31.190010 0.737250 1.669093 -0.023663 -0.006140 -415074.000000 0 0 1
-24.088522 -21.696016 -2.945039 32.552224 0.733190 1.661391 -0.010587 -0.006920 -736570.000000 0 0 1
-24.167122 -22.716916 -4.101939 33.420562 0.754476 1.693844 -0.006796 -0.001248 -318167.000000 0 0 1
-23.143522 -23.708416 -3.972939 33.369085 0.797455 1.690140 -0.011857 -0.002777 -267818.000000 0 0 1
-23.032822 -24.656616 -4.995139 34.108812 0.819434 1.717772 -0.013659 -0.005550 917126.000000 0 0 1
-21.528922 -24.740316 -5.499639 33.253929 0.854694 1.736943 -0.012676 -0.001349 1481590.000000 0 0 1
-21.047222 -23.498816 -6.134139 32.137324 0.840378 1.762847 -0.021411 0.004076 269570.000000 0 0 1
-20.876322 -22.392216 -5.269739 31.064487 0.820418 1.741259 -0.024605 0.007032 -1462360.000000 0 0 1
-21.061222 -21.040116 -6.008439 30.370428 0.784897 1.769949 -0.019397 0.013822 -212526.000000 0 0 1
-20.007722 -20.669816 -6.874039 29.577063 0.801673 1.805352 -0.031402 0.017538 58208.700000 0 0 1
-20.237022 -19.478816 -7.581639 29.093687 0.766310 1.834434 -0.034723 0.017085 521183.000000 0 0 1
-19.040122 -19.168816 -8.553939 28.339719 0.788766 1.877414 -0.024546 0.017219 409220.000000 0 0 1
-18.853322 -20.005916 -9.670439 29.141068 0.815050 1.909059 -0.036969 0.016990 379549.000000 0 0 1
-17.678622 -19.744516 -10.463539 28.493249 0.840546 1.946824 0.011569 0.014056 484723.000000 0 0 1
-17.529722 -18.352516 -11.173039 27.729818 0.808325 1.985507 0.014505 0.011988 -251681.000000 0 0 1
-17.161422 -17.249116 -10.314839 26.428060 0.787947 1.971752 0.002511 0.011332 1708320.000000 0 0 1
-15.772122 -17.299316 -9.846739 25.396544 0.831544 1.968953 0.034207 0.011558 1243350.000000 0 0 1
-15.432822 -16.214416 -8.779139 24.044804 0.810090 1.944554 0.008725 0.008184 -57513.600000 0 1 0
-16.052922 -16.507116 -7.557039 24.234068 0.799347 1.887920 -0.010656 0.009834 149337.000000 0 1 0
-16.092922 -15.331416 -6.744039 23.227495 0.761170 1.865386 -0.009384 0.006530 -105262.000000 0 1 0
-16.664822 -15.694016 -5.331439 23.504099 0.755406 1.799618 -0.014345 0.004574 -28162.400000 0 1 0
-17.230522 -14.534016 -4.756939 23.038164 0.700711 1.778773 -0.009503 0.010149 264711.000000 0 1 0
-17.391722 -14.650616 -3.356139 22.986436 0.700060 1.717325 -0.018868 0.003353 -413740.000000 0 1 0
-18.163822 -13.510416 -2.691139 22.796886 0.639527 1.689121 -0.022187 0.005723 -1006960.000000 0 1 0
-19.478822 -13.512216 -3.129139 23.912257 0.606477 1.702032 -0.016523 0.000318 -687092.000000 0 1 0
-20.247422 -12.700016 -2.263539 24.007751 0.560209 1.665220 -0.018733 0.008731 215313.000000 0 1 0
-21.729922 -12.623416 -2.735439 25.278900 0.526274 1.679219 -0.022291 0.005688 274720.000000 0 0 1
-22.093922 -11.868716 -3.919839 25.384502 0.492958 1.725835 -0.005925 -0.009233 702527.000000 0 0 1
-23.471022 -12.083916 -4.214439 26.733339 0.475452 1.729104 -0.007055 -0.007771 190197.000000 0 0 1
-24.010222 -11.259416 -5.415939 27.066541 0.438494 1.772253 0.003980 -0.015092 -268156.000000 0 0 1
-23.453522 -11.665316 -6.627539 27.019837 0.461550 1.818609 0.010474 -0.023198 196162.000000 0 0 1
-24.144322 -11.075416 -7.693239 27.655001 0.430079 1.852702 0.015275 -0.022719 -159228.000000 0 0 1
-23.482822 -11.457016 -9.062439 27.655632 0.453912 1.904653 0.032777 -0.024790 570154.000000 0 0 1
-22.275422 -10.729916 -9.259539 26.401981 0.448895 1.929130 0.027766 -0.017289 567301.000000 0 0 1
-21.452522 -11.144916 -10.357839 26.300279 0.479138 1.975591 0.012848 -0.011527 -780629.000000 0 0 1
-20.143022 -10.419816 -10.322139 24.917072 0.477385 1.997926 0.012261 -0.011390 -1204230.000000 0 1 0
-20.306522 -9.060216 -10.557039 24.614903 0.419667 2.014058 0.017381 -0.017729 355778.000000 0 1 0
-19.122922 -8.377516 -10.223039 23.246063 0.412904 2.026145 0.008364 -0.011315 -130393.000000 0 1 0
-19.001922 -7.027616 -10.941439 23.025541 0.354237 2.065973 -0.015037 -0.008520 -140220.000000 0 1 0
-18.743722 -7.242516 -12.312139 23.566288 0.368725 2.120515 0.011145 -0.007725 283658.000000 0 1 0
-18.397522 -6.027816 -12.947539 23.290388 0.316620 2.160263 0.005100 -0.009948 25662.400000 0 1 0
-17.821922 -6.188216 -14.418439 23.744606 0.334200 2.223366 0.009728 -0.001822 102573.000000 0 1 0
-18.743722 -6.815216 -15.269539 25.118382 0.348739 2.224213 0.020517 -0.009851 498623.000000 0 0 1
-18.175222 -6.793216 -16.586539 25.526452 0.357685 2.278089 0.024126 -0.010102 479742.000000 0 0 1
-19.106422 -7.523116 -17.593039 27.040112 0.375105 2.279207 0.021067 -0.010194 775771.000000 0 0 1
-20.360122 -6.950116 -18.021139 28.064215 0.328956 2.268082 0.038840 -0.023983 1217100.000000 0 0 1
-20.784722 -7.671016 -19.201039 29.317726 0.353562 2.284885 0.050536 -0.022965 -1336140.000000 0 0 1
-22.147622 -7.373716 -19.724339 30.560406 0.321392 2.272371 0.053176 -0.025598 -1809680.000000 0 0 1
-22.330722 -6.063316 -20.275439 30.765539 0.265131 2.290326 0.051200 -0.028004 495441.000000 0 0 1
-23.454322 -6.067516 -21.153639 32.162034 0.253145 2.288585 0.047674 -0.027357 15330.200000 0 0 1
-24.812822 -5.795216 -20.513939 32.712114 0.229444 2.248628 0.056437 -0.027736 -1034470.000000 0 0 1
-24.895522 -4.543116 -19.908439 32.198958 0.180501 2.237367 0.051174 -0.025230 749056.000000 0 0 1
-25.999552 -4.541616 -18.973439 32.505298 0.172936 2.194078 0.067977 -0.017164 500271.000000 0 0 1
-26.139812 -3.227016 -18.126039 31.972750 0.122831 2.173560 0.054025 -0.009052 -9882.950000 0 0 1
-26.349292 -2.007616 -18.841439 32.454823 0.076045 2.190192 0.054780 -0.007076 648546.000000 0 0 1
-27.591082 -1.793916 -19.532239 33.852538 0.064927 2.185823 0.043833 -0.006265 271295.000000 0 0 1
-27.614892 -0.504216 -20.441839 34.361392 0.018257 2.207947 0.039757 0.000969 -440227.000000 0 0 1
-26.837942 -0.498816 -21.638739 34.478384 0.018584 2.249267 0.035839 -0.000496 302363.000000 0 0 1
-27.407442 -1.270516 -22.642839 35.573589 0.046323 2.260757 0.032382 0.006471 -496853.000000 0 0 1
-26.721202 -1.121916 -24.041639 35.962227 0.041961 2.303020 0.036367 0.004319 -558578.000000 0 0 1
-26.843712 0.010484 -24.884839 36.603828 -0.000391 2.318344 0.012939 0.013370 141827.000000 0 0 1
-26.335952 1.253284 -24.447839 35.956223 -0.047552 2.318468 0.018719 0.012776 -976931.000000 0 0 1
-24.888322 1.405084 -24.043139 34.633443 -0.056396 2.338128 0.027774 -0.000563 -513710.000000 0 0 1
-23.944122 1.214484 -25.124309 34.727898 -0.050678 2.379600 0.022523 0.005535 1050110.000000 0 0 1
-22.642522 0.897784 -24.598339 33.445001 -0.039630 2.397180 0.027088 0.006105 893830.000000 0 0 1
-21.709622 0.270784 -25.679749 33.627824 -0.012472 2.439738 0.023143 0.006985 20469.800000 0 0 1
-21.617422 1.153684 -26.801419 34.452286 -0.053318 2.462159 0.008270 0.005729 99555.300000 0 0 1
-20.786822 0.682584 -27.834109 34.746159 -0.032826 2.499877 0.005772 0.000406 -77252.100000 0 0 1
-20.952522 1.562384 -29.080449 35.876479 -0.074430 2.515924 0.012524 -0.000329 -229451.000000 0 0 1
-20.207822 2.761284 -29.117799 35.550345 -0.135803 2.530564 0.014620 0.004509 81241.000000 0 0 1
-20.113022 3.391084 -30.339839 36.558706 -0.167031 2.549713 0.002800 -0.004227 -343445.000000 0 0 1
-19.410022 2.710584 -31.539029 37.132285 -0.138751 2.585586 0.004118 0.003589 -107666.000000 0 0 1
-18.001322 2.599684 -31.473699 36.351062 -0.143425 2.617595 -0.012007 0.009478 323511.000000 0 0 1
-17.389222 1.867284 -32.529259 36.932702 -0.106972 2.648285 -0.014365 0.013490 1385740.000000 0 0 1
-15.810722 1.872384 -32.554189 36.238929 -0.117876 2.686729 -0.019360 0.001133 1033040.000000 0 0 1
-15.224622 3.062584 -33.026599 36.495545 -0.198511 2.702056 -0.018549 0.012230 520345.000000 0 0 1
-13.820522 2.844284 -33.213909 36.086847 -0.202968 2.739869 -0.008601 0.004887 574556.000000 0 0 1
-13.067222 4.091384 -33.672849 36.350413 -0.303434 2.755374 -0.003632 0.008683 -296464.000000 0 0 1
-13.004722 5.113684 -32.620639 35.487726 -0.374646 2.736863 0.013199 -0.003072 -94752.100000 0 0 1
-12.408722 6.204484 -33.209279 35.990669 -0.463656 2.745872 0.013406 -0.000204 -271793.000000 0 0 1
-12.150022 7.357784 -32.179269 35.174783 -0.544511 2.725906 0.008684 0.001244 126509.000000 0 0 1
-11.127522 7.145284 -31.173439 33.862371 -0.570821 2.740391 0.035361 -0.013680 583308.000000 0 0 1
-11.348922 6.159584 -30.175169 32.821934 -0.497257 2.737247 0.035688 -0.019048 -1041170.000000 0 0 1
-10.070222 5.474184 -29.718799 31.852521 -0.497917 2.773492 0.051641 -0.018287 -689859.000000 0 0 1
-9.252722 4.758984 -30.595069 32.315926 -0.475048 2.813780 0.043658 -0.016294 278912.000000 0 0 1
-9.803222 3.485884 -31.017389 32.715944 -0.341642 2.817945 0.040470 -0.015537 -72714.800000 0 0 1
-9.173922 2.805884 -32.234909 33.632175 -0.296819 2.852330 0.038427 -0.009107 -231176.000000 0 0 1
-9.961322 1.683084 -32.512619 34.046015 -0.167381 2.840325 0.031627 -0.003435 288972.000000 0 0 1
-9.591722 0.951884 -33.662769 35.015557 -0.098916 2.862719 0.024590 -0.001059 -457134.000000 0 0 1
-10.149322 1.511284 34.078472 35.589816 -0.147819 0.292471 0.027869 -0.004126 145652.000000 0 0 1
-11.551422 1.404784 33.895659 35.837473 -0.121017 0.330697 0.005304 -0.000551 -28408.400000 0 0 1
-11.742122 1.447984 32.515107 34.600668 -0.122696 0.348972 -0.009124 0.008153 634103.000000 0 0 1
-13.175922 1.078484 31.969607 34.595141 -0.081671 0.392105 -0.004419 0.008806 358556.000000 0 0 1
-14.023322 2.141684 32.247707 35.230029 -0.151552 0.414427 -0.017723 0.021097 -692029.000000 0 0 1
-15.306122 1.804484 31.753467 35.296121 -0.117351 0.451874 -0.023804 0.020812 -108237.000000 0 0 1
-16.164422 3.065784 31.548557 35.580880 -0.187436 0.480700 -0.026911 0.024889 -476431.000000 0 0 1
-16.574422 3.606984 32.734257 36.868053 -0.214282 0.478089 -0.030691 0.015771 32596.300000 0 0 1
-16.112322 4.914584 32.852817 36.919746 -0.296056 0.473793 -0.016669 0.014758 -507678.000000 0 0 1
-16.445722 5.524784 34.194003 38.343380 -0.324095 0.469524 -0.021625 0.015237 -147646.000000 0 0 1
-17.767222 6.005284 34.248523 39.047393 -0.325943 0.501003 -0.026043 0.013136 -282398.000000 0 0 1
-18.513222 5.487684 -33.724899 38.861586 -0.288169 2.621596 -0.027079 0.020403 -103092.000000 0 0 1
-19.986822 5.928084 -33.642479 39.578171 -0.288334 2.586831 -0.022832 0.009855 -161457.000000 0 0 1
-20.214622 7.325784 -33.432649 39.749718 -0.347679 2.570071 -0.013708 -0.009069 -8298.560000 0 0 1
-19.901622 8.177284 34.499789 40.659291 -0.389855 0.557634 -0.013239 -0.009578 -460395.000000 0 0 1
-19.768822 9.681384 -34.258549 40.720802 -0.455398 2.570486 -0.004478 -0.003554 -12230.200000 0 0 1
-18.627822 10.026384 -33.466779 39.592290 -0.493776 2.577895 -0.005926 -0.001431 435368.000000 0 0 1
-18.625222 11.422084 -33.057929 39.625618 -0.550112 2.557579 -0.010169 -0.000858 -77179.100000 0 0 1
-17.874222 12.430784 -33.931819 40.316009 -0.607672 2.571121 -0.030688 -0.008861 -600221.000000 0 0 1
-18.580222 12.545684 33.956565 40.689890 -0.593899 0.583534 -0.018727 -0.010760 -168057.000000 0 0 1
-17.838822 13.075484 32.897857 39.641655 -0.632518 0.591902 -0.021294 -0.009939 -193268.000000 0 0 1
-18.551622 12.763384 31.541117 38.754467 -0.602622 0.620014 -0.011472 -0.018783 -615302.000000 0 0 1
-18.662922 11.350984 31.165947 38.058714 -0.546435 0.611320 -0.014066 -0.003805 617550.000000 0 0 1
-17.458322 10.600784 30.957437 37.088172 -0.545701 0.583211 -0.031345 0.000577 530684.000000 0 0 1
-17.756322 9.115384 31.234317 37.066963 -0.474278 0.568618 -0.024115 0.015747 -85858.000000 0 0 1
-18.439222 8.417984 30.247487 36.411232 -0.428268 0.590399 -0.014543 0.000180 21294.200000 0 0 1
-18.418322 7.024884 30.458707 36.281075 -0.364376 0.574396 -0.017901 0.004613 -326325.000000 0 0 1
-18.833222 6.190984 29.261717 35.344966 -0.317599 0.595462 -0.015983 0.011003 94358.200000 0 0 1
-20.235922 6.330584 29.101487 36.006463 -0.303194 0.629657 0.005472 0.001179 149590.000000 0 0 1
-20.699122 5.294484 28.271127 35.436448 -0.250414 0.647162 0.007092 0.000307 -199369.000000 0 0 1
-22.218422 5.304884 28.037997 36.165306 -0.234373 0.683649 0.017367 0.006254 -101608.000000 0 0 1
-22.661622 6.224184 26.986327 35.784793 -0.268048 0.716470 0.014526 0.004101 417255.000000 0 0 1
-24.029322 6.554984 27.132997 36.831721 -0.266311 0.742657 0.020154 0.005425 -378546.000000 0 0 1
-24.502722 7.362284 25.908957 36.412369 -0.291886 0.779105 0.018208 0.000980 -231250.000000 0 0 1
-24.585322 6.640384 24.677407 35.461347 -0.263801 0.801130 0.016073 -0.000831 1205770.000000 0 0 1
-25.746932 5.764584 24.627947 36.092530 -0.220261 0.819816 0.007385 0.002917 561572.000000 0 0 1
-25.956972 4.887784 23.398177 35.286393 -0.186124 0.845852 -0.003767 0.007180 -105933.000000 0 0 1
-26.417292 5.603384 22.280077 35.009614 -0.209013 0.880976 0.001972 -0.001695 -135490.000000 0 0 1
-26.415292 4.839684 21.079977 34.140234 -0.181206 0.905296 0.004215 0.014252 -145517.000000 0 0 1
-27.205862 5.425784 19.898977 34.140406 -0.196852 0.948556 0.022039 0.004709 1087480.000000 0 0 1
-28.631802 5.208984 20.036777 35.332507 -0.179962 0.967826 0.018896 -0.003364 966674.000000 0 0 1
-29.306732 5.788284 18.922677 35.361794 -0.194997 1.006151 0.020688 -0.003844 -215952.000000 0 0 1
-30.818702 5.876684 19.165277 36.764598 -0.188424 1.022426 0.017367 -0.002149 -263399.000000 0 0 1
-31.127732 6.836384 20.178677 37.720695 -0.216191 1.006348 0.020168 -0.010073 909545.000000 0 0 1
-32.471982 6.738384 20.691777 39.089449 -0.204610 1.012969 0.018661 -0.007214 758413.000000 0 0 1
-32.960232 7.811484 21.715177 40.236117 -0.232704 1.000723 0.022019 -0.011933 10117.600000 0 0 1
-32.416952 7.770184 23.035077 40.519740 -0.235257 0.966127 0.018492 -0.011709 276627.000000 0 0 1
-32.867192 8.891084 23.809777 41.547673 -0.264192 0.960548 0.027667 -0.002993 -1490.000000 0 0 1
-0.214722 33.046384 11.901461 35.124839 -1.564299 1.225120 0.018502 -0.019208 -217724.000000 0 0 1
-0.193822 33.347484 13.299461 35.902199 -1.564984 1.191318 0.004841 -0.016535 274695.000000 0 0 1
-0.791522 -34.455430 13.527261 37.024181 1.547828 1.196774 0.012443 -0.013633 -278241.000000 0 0 1
-0.727922 -34.049930 15.034661 37.228600 1.549422 1.155078 -0.011153 -0.007638 -376301.000000 0 0 1
-1.692522 34.419384 15.854861 37.933300 -1.521662 1.139590 -0.014067 0.003551 -204416.000000 0 0 1
-1.436322 -34.356730 17.207361 38.451803 1.529015 1.106823 -0.018022 -0.001349 -71786.200000 0 0 1
-2.704322 -34.323030 18.080961 38.888365 1.492168 1.087224 -0.021767 0.005480 -493773.000000 0 0 1
-3.325922 33.504784 18.307161 38.324723 -1.471853 1.072778 -0.014731 0.004948 -480217.000000 0 0 1
-4.203322 33.694184 19.387461 39.100378 -1.446688 1.051997 -0.013515 0.005964 -1012290.000000 0 0 1
-5.307222 32.688484 19.297861 38.328984 -1.409843 1.043175 -0.023507 0.017463 -723465.000000 0 0 1
-6.364922 33.078784 18.441561 38.403246 -1.380703 1.069904 -0.017525 0.016726 -130940.000000 0 0 1
-7.423722 32.152384 18.494661 37.827766 -1.343881 1.059948 -0.011049 0.013482 -183568.000000 0 0 1
-8.460922 32.513884 17.403761 37.836896 -1.316218 1.092837 -0.014209 0.006833 -266356.000000 0 0 1
-9.127622 33.758384 17.571461 39.136916 -1.306730 1.105179 -0.005992 0.010004 17957.300000 0 0 1
-9.964722 34.072084 16.496161 39.144934 -1.286271 1.135794 -0.007759 0.004484 -237059.000000 0 0 1
-11.065822 -33.957530 16.708661 39.430263 1.255776 1.133212 0.005599 0.007737 -52271.900000 0 0 1
-12.133122 -34.436130 17.512761 40.493907 1.232041 1.123556 0.008521 0.002947 -346771.000000 0 0 1
-13.212022 -33.562030 17.397561 40.045506 1.195768 1.121375 0.001567 -0.003542 -627519.000000 0 0 1
-14.312422 -33.748330 18.425261 41.027862 1.169694 1.105048 0.020992 -0.000391 -526267.000000 0 0 1
-14.039922 -33.387130 19.731861 41.245196 1.172727 1.071960 0.010519 -0.003551 -144638.000000 0 0 1
-14.947122 -33.881630 20.703761 42.426725 1.155320 1.061012 0.015159 -0.006353 -65363.700000 0 0 1
-14.563422 -33.388130 22.137561 42.625486 1.159490 1.024706 0.010856 -0.005406 -15545.400000 0 0 1
-14.656222 -32.043230 22.341961 41.722136 1.141815 1.005704 0.021506 -0.001688 -76752.100000 0 0 1
-14.569122 -31.650830 23.706861 42.143204 1.139404 0.973352 0.011473 -0.012029 116534.000000 0 0 1
-14.317922 -30.159830 23.857361 41.034034 1.127564 0.950343 0.024257 -0.018453 -74202.900000 0 0 1
-14.525022 -29.639230 25.154861 41.499726 1.115132 0.919591 0.019629 -0.025883 -22841.200000 0 0 1
-14.331022 -28.217430 25.151261 40.425085 1.100866 0.899285 0.026592 -0.014293 24853.500000 0 0 1
-15.597422 -27.432030 24.794561 40.131859 1.053797 0.904820 0.028804 -0.008051 -243395.000000 0 0 1
-16.708122 -27.408230 25.670761 41.101829 1.023346 0.896222 0.027420 -0.007471 464878.000000 0 0 1
-17.753022 -26.664830 24.998661 40.633927 0.983405 0.908136 0.029439 -0.002631 116423.000000 0 0 1
-18.884822 -26.443730 26.081061 41.666882 0.950636 0.894457 0.032129 -0.001117 -161448.000000 0 0 1
-19.633822 -27.535630 26.531061 42.983661 0.951377 0.905572 0.035249 -0.000303 355595.000000 0 0 1
-20.434822 -28.201330 25.519361 43.175627 0.943747 0.938425 0.032961 -0.001925 185471.000000 0 0 1
-21.780322 -27.486130 25.110961 43.132704 0.900700 0.949390 0.032183 0.005997 124887.000000 0 0 1
-21.681422 -26.316430 24.419161 41.939647 0.881667 0.949309 0.031406 0.003521 1191120.000000 0 0 1
-22.995022 -26.018930 23.871061 42.137671 0.847015 0.968542 0.020730 0.011138 1023540.000000 0 0 1
-23.180522 -24.560030 23.449361 41.114525 0.814286 0.963874 0.025471 0.021394 -137132.000000 0 0 1
-23.413322 -23.676430 24.570661 41.382054 0.790985 0.935083 0.020306 0.021136 453577.000000 0 0 1
-23.904322 -22.367130 24.220361 40.722610 0.752189 0.933824 0.020276 0.021950 -27603.800000 0 0 1
-24.408122 -21.568830 25.433261 41.325798 0.723722 0.907861 0.022060 0.020167 815861.000000 0 0 1
-25.710662 -22.003730 25.874961 42.599482 0.707864 0.918012 0.020158 0.024793 1011260.000000 0 0 1
-25.976922 -21.479730 27.161761 43.289035 0.690916 0.892521 0.023960 0.010249 -513101.000000 0 0 1
-27.023082 -22.218830 28.048061 44.839905 0.688142 0.895004 0.031707 0.007260 1223170.000000 0 0 1
-28.428092 -22.098730 27.743461 45.455582 0.660780 0.914304 0.036073 0.006771 1406180.000000 0 0 1
-28.851022 -22.714930 26.543661 45.309110 0.666960 0.944886 0.010723 0.017102 672063.000000 0 0 1
-30.442082 -22.870030 26.471761 46.373621 0.644309 0.963272 0.023320 0.014271 1557040.000000 0 0 1
-31.044132 -23.346630 25.309961 46.361594 0.644810 0.993303 0.007142 0.011131 238446.000000 0 0 1
-30.695282 -24.708530 25.019161 46.676227 0.677759 1.005087 0.001465 0.009355 -732909.000000 0 0 1
-31.147362 -25.195830 23.615961 46.504856 0.680158 1.038147 -0.006278 0.015138 -255597.000000 0 0 1
-32.426152 -25.767830 23.533961 47.636999 0.671478 1.054081 0.002590 0.015903 -211554.000000 0 0 1
-32.563502 -26.234230 22.236461 47.361131 0.678166 1.082062 -0.005423 0.020148 402222.000000 0 0 1
-33.809782 -27.139830 21.953161 48.596430 0.676398 1.102077 0.011510 0.011773 153625.000000 0 0 1
-33.912022 -28.241530 22.748361 49.649745 0.694416 1.094853 0.005172 0.012701 171866.000000 0 0 1
-32.976872 -29.267130 22.484861 49.493514 0.725869 1.099211 -0.009369 0.008635 -419059.000000 0 0 1
-33.486552 -30.313230 21.485661 50.018744 0.735700 1.126800 0.002238 0.005101 -190106.000000 0 0 1
-33.725062 -29.777730 20.152961 49.297412 0.723318 1.149654 0.002809 0.007518 419889.000000 0 0 1
-34.077463 -30.875430 19.362061 49.894439 0.736140 1.172270 0.000394 0.009495 -470880.000000 0 0 1
-34.348232 -30.597030 17.864661 49.346990 0.727703 1.200361 0.002349 0.014729 -593282.000000 0 0 1
-33.210162 -30.326830 17.077261 48.106801 0.740049 1.207897 -0.001980 0.011170 224001.000000 0 0 1
-33.538292 -29.603730 15.946861 47.492107 0.723166 1.228364 0.000523 0.006260 -144005.000000 0 0 1
-34.070045 -30.364130 14.725061 47.953892 0.727947 1.258687 -0.006350 0.007914 44691.300000 0 0 1
-33.056242 -31.177330 14.154361 47.592930 0.756155 1.268823 -0.004864 -0.000883 114790.000000 0 0 1
-33.448882 -32.143630 13.205561 48.233054 0.765501 1.293469 0.011678 -0.004124 -195348.000000 0 0 1
-33.618602 -31.571130 11.830861 47.612141 0.754001 1.319681 -0.002503 0.003131 -181088.000000 0 0 1
-34.634186 -30.596030 11.631761 47.654399 0.723571 1.324219 -0.000636 0.003371 325112.000000 0 0 1
-34.584678 -30.064930 10.322761 46.974029 0.715600 1.349233 0.009288 0.000091 111117.000000 0 0 1
34.625308 -29.126430 10.048961 46.349137 -0.699357 1.352251 0.033952 0.002644 210997.000000 0 0 1
34.791394 -28.056730 9.163461 45.624448 -0.678648 1.368575 0.045188 -0.035526 115236.000000 0 0 1
33.604523 -27.278630 9.054461 44.219576 -0.681867 1.364576 0.061392 -0.030644 171313.000000 0 0 1
33.541663 -26.049330 8.135461 43.241144 -0.660325 1.381527 0.057164 -0.028723 152008.000000 0 0 1
34.289633 -24.934530 8.618561 43.264181 -0.628732 1.370247 0.059062 -0.037286 89593.400000 0 0 1
34.327383 -24.084930 7.526661 42.604034 -0.611815 1.393199 0.057677 -0.033690 -139203.000000 0 0 1
34.699596 -22.628930 7.834361 42.160499 -0.577877 1.383888 0.060531 -0.041296 -394676.000000 0 0 1
33.722473 -21.842230 8.471961 41.061689 -0.574760 1.362981 0.046475 -0.040501 -450489.000000 0 0 1
33.995463 -20.457530 8.229861 40.520768 -0.541722 1.366271 0.050639 -0.029883 -240559.000000 0 0 1
33.187543 -19.558730 9.166861 39.597832 -0.532544 1.337178 0.060118 -0.019252 -351485.000000 0 0 1
33.545373 -19.577030 10.524061 40.240627 -0.528272 1.306191 0.046688 -0.033953 -708458.000000 0 0 1
32.850003 -18.594930 11.248461 39.388095 -0.515086 1.281185 0.027503 -0.017576 -472331.000000 0 0 1
33.097253 -18.601830 12.755961 40.052101 -0.512037 1.246666 0.013231 -0.027840 310343.000000 0 0 1
34.386609 -18.049930 13.040461 40.966968 -0.483378 1.246843 -0.011961 -0.013083 568243.000000 0 0 1
34.894961 -18.491030 14.240261 41.980490 -0.487285 1.224718 -0.002559 -0.007841 -523060.000000 0 0 1
-34.300238 -17.750130 14.758461 41.344717 0.477544 1.205784 0.005584 -0.010215 140207.000000 0 0 1
-33.136622 -17.993430 13.973761 40.212750 0.497459 1.215897 0.006498 -0.014581 -128540.000000 0 0 1
-31.968552 -17.596730 14.624761 39.313062 0.503180 1.189625 -0.004512 -0.011942 -671978.000000 0 0 1
-30.723392 -17.757130 13.775461 38.065809 0.524062 1.200507 0.022391 -0.015105 -670063.000000 0 0 1
-30.138912 -18.997530 13.618661 38.140898 0.562425 1.205676 0.009208 -0.012548 -192449.000000 0 0 1
-28.936192 -18.905830 12.895261 36.892023 0.578736 1.213716 -0.027494 0.002017 -136938.000000 0 0 1
-28.164492 -20.225230 12.726761 36.936012 0.622778 1.219024 -0.049742 -0.003321 -55029.900000 0 0 1
-28.820772 -21.159630 11.900361 37.682694 0.633299 1.249492 -0.034720 0.000309 225164.000000 0 0 1
-27.809262 -21.864230 11.204961 37.107287 0.666283 1.264047 -0.044096 0.006756 97113.300000 0 0 1
-28.483382 -22.678430 10.086761 37.780378 0.672419 1.300534 -0.020903 0.004868 906621.000000 0 0 1
-29.255252 -23.888830 10.223661 39.128880 0.684761 1.306447 -0.022647 0.000911 202226.000000 0 0 1
-30.374452 -23.789930 11.076661 40.140510 0.664426 1.291221 -0.011684 -0.005066 -499969.000000 0 0 1
-30.974642 -25.204730 11.295961 41.500670 0.683052 1.295131 -0.012583 -0.010834 -132880.000000 0 0 1
-31.508992 -25.643030 10.060661 41.852102 0.683118 1.328033 -0.005345 -0.006758 31930.700000 0 0 1
-32.073252 -26.953230 10.035561 43.079956 0.698874 1.335684 0.004978 -0.002026 207203.000000 0 0 1
-32.383912 -27.391030 8.586761 43.274921 0.702064 1.371047 0.002951 -0.007870 176682.000000 0 0 1
-31.209962 -27.819230 7.936361 42.555342 0.728020 1.383203 -0.006675 -0.004089 -76311.600000 0 0 1
-31.533322 -28.375330 6.703561 42.947031 0.732733 1.414066 -0.000245 0.003575 632557.000000 0 0 1
-30.271172 -28.868330 5.894861 42.243032 0.761682 1.430793 0.004230 0.006740 398682.000000 0 0 1
-29.632932 -27.785730 5.338261 40.971386 0.753238 1.440132 0.008251 0.012186 -427677.000000 0 0 1
-28.580062 -28.236730 4.502361 40.427764 0.779355 1.459197 0.007748 0.006639 85664.500000 0 0 1
-27.781842 -27.107130 3.811361 39.001971 0.773106 1.472918 -0.002641 0.009167 178152.000000 0 0 1
-28.449762 -26.425330 2.722461 38.924270 0.748523 1.500797 0.008347 0.008062 192795.000000 0 0 1
-27.741002 -25.274630 2.264361 37.596509 0.738910 1.510532 0.002712 0.002067 -382381.000000 0 0 1
-28.213772 -24.820530 0.902961 37.588442 0.721503 1.546772 0.014071 0.001368 -234254.000000 0 0 1
-27.650582 -25.519830 -0.223239 37.627998 0.745346 1.576729 0.017324 -0.003495 -96312.400000 0 0 1
-27.837672 -24.990430 -1.522039 37.440275 0.731554 1.611460 0.022514 -0.008613 540493.000000 0 0 1
-29.305482 -24.970830 -2.076339 38.557293 0.705705 1.624673 0.043036 -0.006964 564983.000000 0 0 1
-30.101642 -23.911230 -1.614439 38.476775 0.671286 1.612767 0.033666 -0.004229 -657234.000000 0 0 1
-31.302432 -23.901430 -2.319339 39.452503 0.652126 1.629618 0.051306 -0.012777 -232067.000000 0 0 1
-32.239862 -22.676430 -2.087139 39.471323 0.612982 1.623698 0.052564 -0.012689 173316.000000 0 0 1
-32.472132 -22.503230 -0.709639 39.513774 0.606013 1.588757 0.055928 -0.022863 267873.000000 0 0 1
-33.088232 -21.244430 -0.515439 39.324580 0.570769 1.583904 0.055669 -0.015546 -260421.000000 0 0 1
-33.006572 -20.806230 0.944261 39.028511 0.562449 1.546600 0.042058 -0.017904 -787155.000000 0 0 1
-33.604502 -21.663130 1.857561 40.025046 0.572605 1.524370 0.053511 -0.016961 85010.200000 0 0 1
-33.632782 -21.099330 3.147961 39.827822 0.560283 1.491675 0.048876 -0.020856 -918055.000000 0 0 1
-34.606106 -21.920930 4.034961 41.162977 0.564646 1.472615 0.055973 -0.010868 1892800.000000 0 0 1
34.411136 -21.873330 3.684261 40.940721 -0.566219 1.480684 0.056270 -0.013554 1575900.000000 0 0 1
33.727193 -20.643230 3.751361 39.720766 -0.549244 1.476212 0.056226 -0.024273 511250.000000 0 0 1
32.462093 -20.441930 2.812561 38.465186 -0.561984 1.497611 0.048020 -0.015234 1461760.000000 0 0 1
31.230983 -20.996730 3.232561 37.771503 -0.591896 1.485110 0.050569 -0.006156 194713.000000 0 0 1
30.084843 -20.484130 2.567061 36.486808 -0.597777 1.500382 0.035632 -0.015331 287584.000000 0 0 1
28.823303 -21.269730 2.938161 35.941856 -0.635735 1.488957 0.017080 0.000528 -448357.000000 0 0 1
28.715673 -22.582630 2.362761 36.608028 -0.666407 1.506209 0.014026 0.003718 85975.900000 0 0 1
27.438383 -23.169930 2.517961 36.000704 -0.701254 1.500797 0.001158 0.012791 130641.000000 0 0 1
27.154923 -24.384530 1.511961 36.527814 -0.731697 1.529392 0.003248 0.009060 28020.100000 0 0 1
26.730213 -24.084530 0.180361 35.980570 -0.733380 1.565784 0.000104 0.005912 244488.000000 0 0 1
26.084013 -25.282230 -0.301939 36.327098 -0.769790 1.579108 -0.000654 0.007812 268926.000000 0 0 1
25.338963 -25.195630 -1.690139 35.773446 -0.782562 1.618060 -0.008856 0.002451 68047.700000 0 0 1
26.118643 -24.739630 -2.785939 36.083158 -0.758290 1.648082 -0.001840 -0.013072 56927.100000 0 0 1
26.443663 -25.807830 -3.665539 37.131491 -0.773230 1.669675 0.006856 -0.012495 156302.000000 0 0 1
25.297163 -26.240230 -4.675039 36.747138 -0.803695 1.698364 0.004581 -0.019340 626596.000000 0 0 1
24.924163 -25.303330 -5.669439 35.966859 -0.792947 1.729086 0.006581 -0.028400 131114.000000 0 0 1
23.941463 -24.406530 -5.218339 34.584728 -0.795017 1.722260 0.003362 -0.022739 -782089.000000 0 0 1
23.550663 -23.444530 -6.305439 33.823635 -0.783140 1.758314 0.012285 -0.030344 15757.200000 0 0 1
22.657463 -23.826530 -7.351239 33.691318 -0.810543 1.790760 0.019188 -0.030006 647077.000000 0 0 1
21.615263 -22.931830 -7.698039 32.439918 -0.814944 1.810383 0.013974 -0.021069 370116.000000 0 0 1
22.154963 -21.757630 -8.587239 32.217659 -0.776350 1.840596 0.014450 -0.018913 -472437.000000 0 0 1
22.472463 -21.960830 -9.978339 32.967513 -0.773884 1.878291 0.021528 -0.028640 204031.000000 0 0 1
22.415763 -20.725930 -10.606639 32.319211 -0.746249 1.905176 0.011778 -0.019816 -370945.000000 0 0 1
23.120063 -20.641530 -11.995539 33.234065 -0.728821 1.940073 0.021692 -0.018724 859235.000000 0 0 1
24.543163 -20.555630 -11.795139 34.117827 -0.697210 1.923800 0.041541 -0.024767 703608.000000 0 0 1
25.118763 -20.043130 -12.976939 34.656605 -0.673480 1.954593 0.043869 -0.028159 -564664.000000 0 0 1
26.636313 -20.082530 -13.128039 35.848942 -0.646026 1.945723 0.041816 -0.025765 -310471.000000 0 0 1
27.255013 -21.350930 -13.321939 37.096793 -0.664522 1.938114 0.035179 -0.022474 393651.000000 0 0 1
27.685623 -21.984130 -12.121339 37.372752 -0.671110 1.901106 0.042744 -0.027937 -236709.000000 0 0 1
28.046603 -23.454830 -12.365939 38.596081 -0.696475 1.896941 0.036983 -0.015027 -71418.200000 0 0 1
29.242023 -23.698430 -13.082839 39.848114 -0.681065 1.905318 0.019769 -0.015729 283594.000000 0 0 1
29.443043 -25.082730 -13.344339 40.915859 -0.705600 1.903015 0.043684 -0.006694 -120987.000000 0 0 1
-4.228222 -8.552516 -27.899019 29.485228 1.111652 2.812090 0.044362 -0.001857 -25708.500000 0 0 1
-3.959622 -7.331416 -27.288319 28.532098 1.075594 2.845239 0.022343 -0.000891 -167126.000000 0 0 1
-4.777122 -6.319716 -27.763869 28.871996 0.923525 2.863640 0.012344 -0.002874 -362039.000000 0 0 1
-4.714522 -4.995216 -26.909129 27.771931 0.814299 2.891674 -0.000488 -0.008871 229385.000000 0 0 1
-5.571122 -5.033016 -25.768019 26.839513 0.734697 2.858076 0.001764 0.000829 485461.000000 0 0 1
-5.341222 -3.891116 -24.964839 25.824652 0.629603 2.882824 0.006045 -0.012081 113411.000000 0 0 1
-5.799322 -4.130316 -23.502639 24.557396 0.618872 2.847444 0.006931 -0.008348 -544434.000000 0 1 0
-5.042422 -5.149716 -22.823239 23.934198 0.795925 2.835714 0.007250 -0.013014 546704.000000 0 1 0
-5.266322 -5.201716 -21.435139 22.677240 0.779227 2.809086 0.006616 -0.008746 -399867.000000 0 1 0
-4.594722 -6.361816 -20.725039 22.161034 0.945303 2.779625 0.012472 -0.008104 -908217.000000 0 1 0
-5.318122 -7.542616 -20.845039 22.796692 0.956671 2.724792 0.012786 -0.004256 599746.000000 0 1 0
-4.575322 -8.601716 -20.198339 22.425343 1.081949 2.692157 0.020302 -0.008308 -551303.000000 0 1 0
-5.317522 -9.972816 -20.353839 23.281149 1.080942 2.634711 0.026057 -0.000132 802813.000000 0 1 0
-6.480722 -10.225516 -19.560439 23.003733 1.005909 2.587382 0.031257 -0.001183 607094.000000 0 1 0
-7.573522 -9.359516 -19.808839 23.180787 0.890484 2.595455 0.019979 -0.006374 -1015140.000000 0 1 0
-8.607322 -9.361016 -18.667039 22.587009 0.827319 2.543570 0.014284 0.000295 -224143.000000 0 1 0
-9.294322 -10.607616 -18.644639 23.377949 0.851291 2.493988 0.037469 -0.002674 -104632.000000 0 1 0
-9.959622 -10.819616 -17.435839 22.809355 0.826762 2.440932 0.027206 -0.004345 -157767.000000 0 1 0
-10.802622 -12.139516 -17.470139 23.859385 0.843605 2.392361 0.022554 -0.004508 15877.400000 0 1 0
-11.996522 -12.025216 -18.237639 24.922557 0.786593 2.391715 0.026816 -0.008960 287646.000000 0 1 0
-11.831122 -12.107916 -19.655039 25.940271 0.796960 2.430584 0.024591 -0.014148 -1068210.000000 0 0 1
-13.175422 -11.951116 -20.412939 27.075986 0.736711 2.424794 0.009884 -0.008590 424476.000000 0 0 1
-14.037022 -13.071416 -20.545739 28.107425 0.749793 2.390542 0.004297 -0.004847 -51584.600000 0 0 1
-14.480622 -13.631516 -19.340839 27.741210 0.755203 2.342264 0.007793 0.004095 -1287360.000000 0 0 1
-15.515322 -14.699816 -19.691139 29.061156 0.758415 2.315258 -0.008015 0.004793 -422171.000000 0 0 1
-14.980622 -15.835316 -20.311139 29.794608 0.813127 2.320887 0.012272 0.007378 -881185.000000 0 0 1
-15.828322 -16.358116 -21.215539 31.116280 0.801857 2.321037 0.012338 -0.003313 -625942.000000 0 0 1
-15.432122 -17.790716 -21.583839 31.945612 0.856272 2.312633 0.012579 -0.009521 146751.000000 0 0 1
-15.772822 -18.779416 -20.572539 32.010588 0.872195 2.268787 0.023625 -0.003575 13928.300000 0 0 1
-15.251822 -19.981516 -21.014039 32.763836 0.918840 2.267091 0.024251 -0.001457 -179654.000000 0 0 1
-15.891322 -21.218916 -20.330339 33.408071 0.927985 2.225023 0.025580 -0.004774 -9604.320000 0 0 1
-15.515422 -22.469716 -20.888739 34.379586 0.966472 2.223821 0.021795 -0.004678 233091.000000 0 0 1
-16.296922 -23.529716 -20.332539 35.109107 0.965047 2.188451 0.029900 -0.002786 288299.000000 0 0 1
-15.767022 -24.902016 -20.834239 36.093974 1.006349 2.186119 0.024137 -0.003753 -176023.000000 0 0 1
-16.035322 -25.218736 -22.155339 37.201818 1.004433 2.208740 0.017599 -0.009377 60011.500000 0 0 1
-15.246222 -26.312306 -22.622439 37.901972 1.045637 2.210387 0.024281 -0.007893 -3445.950000 0 0 1
-15.668122 -26.714196 -24.071939 39.224949 1.040356 2.231521 0.031654 -0.012386 -1153980.000000 0 0 1
-16.868422 -27.379326 -24.204639 40.249668 1.018622 2.216002 0.033931 -0.014078 -927450.000000 0 0 1
-16.747822 -28.760126 -24.281339 41.197304 1.043472 2.201102 0.042934 -0.006485 -374472.000000 0 0 1
-17.849022 -29.412336 -25.150209 42.616970 1.025352 2.202035 0.037341 -0.010893 -426183.000000 0 0 1
-17.694522 -29.306366 -26.580819 43.341656 1.027604 2.231010 0.036299 -0.011569 165509.000000 0 0 1
-17.916322 -28.029666 -27.178199 42.957087 1.002057 2.255809 0.038168 -0.019137 195393.000000 0 0 1
-16.636022 -27.645976 -27.967809 42.699597 1.029090 2.284966 0.045315 -0.019589 -67305.100000 0 0 1
-16.641322 -28.013976 -29.296359 43.817726 1.034773 2.303116 0.045127 -0.012218 -481051.000000 0 0 1
-15.545122 -27.718946 -30.112049 43.780433 1.059690 2.329246 0.033292 -0.005018 -465803.000000 0 0 1
-15.693022 -28.167786 -31.629249 45.167516 1.062498 2.346566 0.030356 0.001731 -119609.000000 0 0 1
-15.768422 -29.568636 -31.837429 46.223039 1.080879 2.330599 0.017061 0.008263 160034.000000 0 0 1
-16.103222 -29.825466 -33.189449 47.438505 1.075729 2.345677 0.016978 0.012184 -325857.000000 0 0 1
-16.174522 -31.362886 -33.406769 48.592778 1.094651 2.328815 0.009009 0.008428 286462.000000 0 0 1
-14.910922 -31.885916 -33.753129 48.768033 1.133376 2.335213 0.019345 0.011922 239002.000000 0 0 1
-15.271922 -33.072406 -34.390907 50.097407 1.138196 2.327435 0.013063 0.009263 466320.000000 0 0 1
-14.098722 -33.571676 33.790295 49.675099 1.173203 0.822725 0.007341 0.002915 534900.000000 0 0 1
-13.122822 -34.342853 34.509137 50.423413 1.205805 0.817033 0.022214 0.003878 -144159.000000 0 0 1
-12.080122 34.444203 33.617265 49.623109 -1.233484 0.826504 0.017761 0.007694 -414174.000000 0 0 1
-10.994422 33.565759 34.290741 49.227963 -1.254261 0.800190 0.023236 0.004417 54900.400000 0 0 1
-10.317922 34.318489 -33.758619 49.232739 -1.278741 2.326354 0.025873 0.007484 -335877.000000 0 0 1
-9.499322 33.510960 -32.972089 47.962279 -1.294574 2.328780 0.020625 0.001776 -596441.000000 0 0 1
-8.578422 34.315692 -32.126129 47.783305 -1.325831 2.308148 0.012354 0.003882 -497156.000000 0 0 1
-9.358522 -34.076617 -31.151059 47.108240 1.302772 2.293301 0.026630 0.005097 197053.000000 0 0 1
-8.679322 -33.023866 -30.513419 45.792741 1.313789 2.300082 0.013550 0.003370 -733762.000000 0 0 1
-9.630122 -32.230376 -29.630339 44.827374 1.280450 2.292930 0.027078 0.004000 -69257.100000 0 0 1
-9.858522 -32.579786 -28.277509 44.252124 1.276959 2.264006 0.028595 0.007491 -208679.000000 0 0 1
-10.421922 -33.855376 -28.086679 45.206908 1.272166 2.241186 0.031967 0.001525 -291958.000000 0 0 1
-10.840122 -34.197023 -26.651109 44.690338 1.263826 2.209743 0.034891 0.001819 -500236.000000 0 0 1
-9.763122 -34.295192 -25.792959 44.008585 1.293454 2.197020 0.019979 0.004963 -941521.000000 0 0 1
-10.116522 -34.337630 -24.458039 43.354499 1.284283 2.170189 0.024062 -0.010239 -793614.000000 0 0 1
-8.980722 -34.350944 -23.474539 42.564008 1.315080 2.154971 0.021804 -0.009788 -936250.000000 0 0 1
-8.224522 33.552584 -23.494439 41.778072 -1.330413 2.168037 0.008528 -0.009435 -221999.000000 0 0 1
-7.501522 33.457199 -22.262439 40.881208 -1.350232 2.146666 0.024711 -0.004365 -14990.000000 0 0 1
-6.615222 32.191278 -22.076839 39.590736 -1.368120 2.162320 0.027885 -0.007085 -22825.200000 0 0 1
-5.503422 32.153458 -22.949639 39.885065 -1.401278 2.183882 0.008591 -0.010966 -487789.000000 0 0 1
-4.850822 30.947878 -22.767839 38.725652 -1.415320 2.199290 0.002298 -0.007858 80155.600000 0 0 1
-3.338722 31.041108 -23.142339 38.862132 -1.463650 2.208682 0.007584 -0.011590 304580.000000 0 0 1
-2.930522 31.138608 -24.491939 39.724752 -1.476961 2.235138 0.002322 -0.009393 -311089.000000 0 0 1
-3.342522 32.270528 -25.256459 41.115060 -1.467586 2.232279 0.011221 -0.006833 -833656.000000 0 0 1
-2.685222 32.492448 -26.593709 42.073685 -1.488342 2.255024 -0.010353 0.014434 163462.000000 0 0 1
-1.561322 33.387489 -26.600219 42.716903 -1.524067 2.242997 -0.002987 0.006314 461629.000000 0 0 1
-1.888322 -34.290384 -26.558399 43.413648 1.515783 2.229070 -0.003450 0.008217 211877.000000 0 0 1
-0.716022 -33.318506 -26.970719 42.872547 1.549309 2.251179 -0.029911 0.022771 -289508.000000 0 0 1
0.152578 -33.116526 -25.951189 42.073648 -1.566189 2.235472 -0.019157 0.016760 -983900.000000 0 0 1
1.188678 -32.286276 -26.383639 41.712265 -1.533996 2.255592 -0.037851 0.021555 -506667.000000 0 0 1
2.317378 -31.832966 -25.445169 40.818680 -1.498126 2.243842 -0.031583 0.020917 -560796.000000 0 0 1
1.996478 -31.104556 -24.289839 39.515511 -1.506698 2.232791 -0.020595 0.017522 582984.000000 0 0 1
3.122678 -30.440986 -23.683839 38.695336 -1.468573 2.229458 -0.027807 0.020879 289146.000000 0 0 1
2.845778 -30.001826 -22.235239 37.451487 -1.476226 2.206455 -0.014454 0.014223 -226106.000000 0 0 1
3.204778 -31.041266 -21.389439 37.833040 -1.467918 2.171671 -0.011843 0.012200 388076.000000 0 0 1
3.093078 -30.567486 -20.057339 36.691078 -1.469951 2.149160 0.004555 0.003767 -412649.000000 0 0 1
3.053478 -31.583926 -18.873639 36.919946 -1.474418 2.107382 0.014775 0.010124 270677.000000 0 0 1
1.803378 -32.296306 -18.816039 37.421209 -1.515016 2.097652 0.031216 0.006479 858678.000000 0 0 1
1.658678 -33.390796 -19.660539 38.784447 -1.521162 2.102402 0.035930 0.011608 -391751.000000 0 0 1
2.276278 34.392997 -19.013639 39.364681 1.504708 2.074888 0.041380 -0.001054 1320470.000000 0 0 1
3.716478 34.371398 -19.124439 39.508852 1.463088 2.076079 0.026794 0.001066 702031.000000 0 0 1
4.345978 33.436325 -18.314039 38.370293 1.441543 2.068373 0.039532 -0.020705 565988.000000 0 0 1
5.623478 32.838218 -18.994639 38.350598 1.401194 2.088964 0.036396 -0.008785 -96601.400000 0 0 1
6.598578 33.773924 -19.212239 39.412299 1.377852 2.079984 0.066215 -0.005328 -1101170.000000 0 0 1
7.684178 33.248948 -19.916839 39.512271 1.343674 2.099098 0.035671 0.000142 275421.000000 0 0 1
8.993478 34.090454 -19.997139 40.533040 1.312861 2.086738 0.007528 -0.007859 653495.000000 0 0 1
9.809178 33.990950 -18.829339 40.076785 1.289847 2.059896 -0.008230 0.000757 -383209.000000 0 0 1
10.969778 -34.334279 -18.826439 40.664648 -1.261548 2.052137 -0.007602 0.006809 -402233.000000 0 0 1
11.641578 -34.188795 -17.441039 40.107230 -1.242602 2.020679 -0.033293 0.011876 -239564.000000 0 0 1
12.050678 33.623093 -16.925839 39.524868 1.226654 2.013332 -0.030620 0.009707 -254590.000000 0 0 1
12.937878 33.730961 -15.858839 39.454647 1.204541 1.984443 -0.035187 0.004475 -126363.000000 0 0 1
14.014478 32.640558 -15.747539 38.856101 1.165240 1.988080 -0.027455 0.007660 159837.000000 0 0 1
13.540278 31.345558 -15.343739 37.434121 1.163039 1.993126 -0.020062 0.000042 466143.000000 0 0 1
14.679578 30.463818 -15.262939 37.101098 1.121758 1.994772 -0.006135 -0.002351 528536.000000 0 0 1
14.580978 29.231258 -14.345039 35.677044 1.108097 1.984584 0.006127 -0.005640 -501548.000000 0 0 1
14.423978 29.639328 -13.021139 35.441373 1.117886 1.947008 0.004798 -0.009161 410160.000000 0 0 1
13.122978 29.545058 -12.434539 34.637274 1.152803 1.937985 0.017587 -0.011849 295609.000000 0 0 1
12.640978 28.173518 -11.982839 33.122951 1.149038 1.940960 0.007246 -0.005137 -752234.000000 0 0 1
12.310178 27.273198 -13.044839 32.642543 1.146808 1.981906 -0.003786 -0.006446 40783.900000 0 0 1
11.904678 25.928168 -12.713439 31.234961 1.140367 1.989992 0.025358 -0.004113 393692.000000 0 0 1
10.989178 25.729978 -11.470239 30.238389 1.167151 1.959865 0.034590 -0.007824 -259154.000000 0 0 1
9.730778 26.353938 -11.576039 30.384581 1.217090 1.961657 0.028049 -0.001406 -18979.300000 0 0 1
9.134678 26.529328 -10.290639 29.885529 1.239187 1.922327 0.018126 0.009492 132998.000000 0 0 1
8.001178 27.570768 -10.324339 30.508328 1.288350 1.916024 0.015426 0.000939 -40496.800000 0 0 1
8.500278 28.853018 -10.507639 31.861604 1.284295 1.906877 0.011894 -0.006369 194428.000000 0 0 1
7.492078 29.869778 -10.367539 32.493395 1.325042 1.895540 0.011156 -0.007535 359441.000000 0 0 1
7.820578 31.286678 -10.942639 34.055234 1.325850 1.897920 0.031899 -0.015844 85839.800000 0 0 1
8.611578 32.070738 -10.019539 34.685482 1.308466 1.863841 0.017528 -0.010242 -61756.700000 0 0 1
8.877378 33.363568 -10.512539 36.089458 1.310742 1.866373 0.029162 -0.013188 132437.000000 0 0 1
9.956078 33.499797 -11.612439 36.826738 1.281912 1.891597 0.008845 -0.005691 939152.000000 0 0 1
11.315178 33.218781 -11.203239 36.837932 1.242497 1.879813 0.002950 -0.001015 1026130.000000 0 0 1
12.281478 33.705946 -12.142439 37.873002 1.221376 1.897169 0.000498 0.000395 -260581.000000 0 0 1
13.657178 33.369959 -11.600039 37.876557 1.182328 1.882057 0.005680 -0.009876 -793238.000000 0 0 1
14.074278 34.241564 -10.505239 38.482854 1.180818 1.847291 0.013393 -0.007325 -278401.000000 0 0 1
15.468778 34.041793 -10.504339 38.839000 1.144285 1.844666 0.019525 -0.009278 -110324.000000 0 0 1
16.176478 -34.067296 -9.488339 38.888143 -1.127479 1.817275 0.035564 -0.017134 -6353.500000 0 0 1
15.961278 -34.463945 -8.191839 38.853985 -1.137078 1.783227 0.028690 -0.020250 -3832.230000 0 0 1
16.424378 -33.458716 -7.311939 37.983027 -1.114467 1.764511 0.021033 -0.012364 -1051550.000000 0 0 1
16.948578 -34.046810 -5.971139 38.497975 -1.108908 1.726528 0.021840 -0.001784 468248.000000 0 0 1
18.067078 34.174141 -6.081639 39.131541 1.084471 1.726844 0.008186 -0.008146 -517650.000000 0 0 1
19.285178 -34.432984 -6.583739 40.011175 -1.060248 1.736096 0.008712 -0.001021 -1201080.000000 0 0 1
19.870278 33.452560 -7.392839 39.604997 1.034812 1.758562 0.005704 0.000300 34191.700000 0 0 1
20.102078 32.223428 -6.734439 38.571952 1.013036 1.746290 0.009157 0.013890 -128053.000000 0 0 1
21.044578 32.217498 -5.677139 38.898217 0.992172 1.717268 -0.002059 0.011222 -261495.000000 0 0 1
21.295078 30.825248 -5.008339 37.798938 0.966250 1.703687 -0.012014 0.011812 -411735.000000 0 0 1
21.988478 30.013948 -5.866639 37.666267 0.938519 1.727186 -0.005603 0.013573 -205491.000000 0 0 1
22.325278 28.679798 -5.497439 36.758273 0.909346 1.720916 -0.006311 0.019201 -62472.000000 0 0 1
23.176878 27.963608 -6.603739 36.915314 0.878726 1.750653 -0.004488 0.025078 -453465.000000 0 0 1
24.450378 28.544438 -6.734539 38.183241 0.862499 1.748098 0.011231 0.014172 -135608.000000 0 0 1
25.381478 27.668598 -7.347639 38.259097 0.828484 1.764046 -0.005453 0.014246 391805.000000 0 0 1
26.129878 26.701948 -6.366239 37.898463 0.796226 1.739578 -0.001094 0.012134 -525976.000000 0 0 1
27.156778 27.278238 -5.620339 38.899628 0.787629 1.715787 0.004437 0.002102 -33432.200000 0 0 1
27.908778 26.392838 -4.797139 38.710390 0.757488 1.695040 0.003413 0.015404 114997.000000 0 0 1
29.044978 27.084918 -4.034639 39.918440 0.750492 1.672041 0.007921 0.012827 -179548.000000 0 0 1
28.663778 27.927078 -2.923839 40.125835 0.772381 1.643728 0.015497 0.007541 -809036.000000 0 0 1
29.701478 28.100748 -2.042539 40.939001 0.757712 1.620709 0.010339 0.003924 -621360.000000 0 0 1
29.696178 29.581138 -1.497439 41.942210 0.783457 1.606506 0.033662 -0.003626 13162.800000 0 0 1
30.111978 30.492208 -2.451839 42.924555 0.791672 1.627947 0.035508 -0.011603 -209900.000000 0 0 1
29.744178 31.795028 -2.085339 43.588858 0.818712 1.618656 0.044048 -0.011430 -219886.000000 0 0 1
32.383353 23.318384 19.571977 44.446494 0.624071 1.114809 0.014878 0.002399 19431.700000 0 0 1
32.771923 23.065684 20.899677 45.197580 0.613288 1.090088 0.008786 -0.010692 -267203.000000 0 0 1
33.705923 23.970084 21.384677 46.561342 0.618172 1.093612 0.012700 -0.012969 -387593.000000 0 0 1
33.601473 23.959784 22.924477 47.208705 0.619436 1.063749 0.015228 -0.010837 409069.000000 0 0 1
32.366593 24.487284 23.398677 46.847855 0.647687 1.047820 -0.003830 -0.003224 369632.000000 0 0 1
32.153473 24.335684 24.776347 47.327991 0.647877 1.019839 -0.007664 -0.006178 -649252.000000 0 0 1
30.837843 24.911584 25.251897 47.002318 0.679494 1.003626 0.000055 -0.008205 -518375.000000 0 0 1
30.813173 26.342384 25.217867 47.742158 0.707336 1.014306 -0.005217 -0.007781 974059.000000 0 0 1
29.559743 26.775784 25.795447 47.498696 0.736021 0.996699 -0.004157 -0.013824 826670.000000 0 0 1
29.459823 28.316284 26.114577 48.493961 0.765608 1.002126 -0.015397 -0.002883 -324095.000000 0 0 1
29.318293 29.129284 24.956167 48.279268 0.782164 1.027556 -0.011893 -0.007857 118827.000000 0 0 1
29.093853 30.441884 25.345487 49.148289 0.808037 1.028979 -0.014904 -0.007341 -393396.000000 0 0 1
29.091603 31.416284 24.136427 49.151514 0.823799 1.057488 -0.011391 -0.005769 249983.000000 0 0 1
30.398023 31.516384 23.581877 49.733562 0.803459 1.076782 -0.023462 -0.000550 255402.000000 0 0 1
30.433413 32.559684 22.655777 49.996098 0.819139 1.100500 -0.021479 -0.002832 -14482.200000 0 0 1
31.859583 32.814184 22.124177 50.806327 0.800157 1.120246 -0.019440 -0.009921 -36614.600000 0 0 1
32.496503 33.704584 23.008077 52.166975 0.803645 1.114032 -0.014363 0.001342 -533570.000000 0 0 1
33.836903 33.886984 22.642277 52.971090 0.786138 1.129131 -0.009238 0.007232 -412618.000000 0 0 1
34.321863 -33.897430 23.339477 53.588779 -0.779177 1.120170 -0.003261 0.011135 -208502.000000 0 0 1
33.570333 -32.726030 22.963077 52.204054 -0.772664 1.115341 -0.012949 0.008609 329698.000000 0 0 1
34.047003 -31.549030 23.600377 52.072234 -0.747335 1.100418 -0.007813 0.009603 -1036710.000000 0 0 1
33.242993 -30.251830 23.398877 50.673240 -0.738324 1.090818 -0.008198 0.011935 212769.000000 0 0 1
31.882003 -30.349430 23.785177 50.032836 -0.760776 1.075388 -0.006672 0.009455 422533.000000 0 0 1
30.968873 -30.872630 22.838677 49.333514 -0.783842 1.089482 -0.004894 0.015048 -410869.000000 0 0 1
30.326673 -32.243230 23.145777 49.950575 -0.816019 1.088998 -0.009518 0.012255 -443749.000000 0 0 1
29.454083 -32.243430 24.230457 49.942936 -0.830577 1.064247 -0.004787 0.004090 -93324.600000 0 0 1
28.967493 -33.554330 24.467047 50.632451 -0.858631 1.066458 -0.004169 -0.001887 -132279.000000 0 0 1
28.446083 -33.737830 25.951177 51.194574 -0.870292 1.039197 -0.008706 -0.008069 -281463.000000 0 0 1
27.886043 34.018584 25.972557 51.082963 0.884140 1.037426 -0.004524 -0.013215 323753.000000 0 0 1
27.042043 33.815184 27.097427 51.078462 0.896238 1.011599 0.006124 -0.007615 -83996.000000 0 0 1
26.517733 32.330084 27.265887 49.918464 0.883848 0.992965 0.003567 -0.014152 542904.000000 0 0 1
25.685853 31.784484 26.238237 48.563994 0.891120 1.000025 -0.002677 -0.010603 56528.900000 0 0 1
24.317163 32.106184 26.406427 48.160470 0.922577 0.990465 0.001568 -0.012036 -394813.000000 0 0 1
23.627363 31.845184 25.076377 46.916870 0.932471 1.006898 0.030474 -0.019828 -325104.000000 0 0 1
23.985963 32.683084 23.988877 47.106014 0.937682 1.036480 0.033909 -0.025850 584647.000000 0 0 1
25.249863 32.473484 23.347977 47.299162 0.909893 1.054545 0.009452 -0.018738 426525.000000 0 0 1
25.402043 33.389484 22.143577 47.439007 0.920432 1.085150 0.018856 0.001038 798476.000000 0 0 1
26.702953 33.400184 21.521177 47.872550 0.896369 1.104533 0.011006 0.007216 1004970.000000 0 0 1
26.630713 34.041784 20.296077 47.749017 0.906945 1.131771 0.012191 0.005774 12931.400000 0 0 1
28.007163 -34.417030 19.938977 48.646644 -0.887722 1.148481 0.021239 0.001122 242300.000000 0 0 1
28.970023 33.679184 19.616377 48.562865 0.860424 1.154979 0.020715 -0.005941 332148.000000 0 0 1
29.992283 34.150684 18.734877 49.160979 0.850138 1.179819 0.017571 0.000217 295276.000000 0 0 1
30.885543 33.120184 18.013177 48.737438 0.820297 1.192222 0.003884 0.012697 -211434.000000 0 0 1
31.709253 32.370784 18.824377 49.068335 0.795721 1.177066 0.001502 0.003997 -349249.000000 0 0 1
32.681673 31.609484 18.161777 48.960202 0.768723 1.190765 0.010654 -0.000193 -28155.700000 0 0 1
33.522963 30.815684 19.210077 49.420871 0.743344 1.171572 0.015518 -0.019629 -217111.000000 0 0 1
34.476054 31.645484 19.807477 50.817035 0.742616 1.170403 0.017184 -0.017240 -12893.700000 0 0 1
-35.096238 30.923984 20.685677 51.146221 -0.722285 1.154428 0.022454 -0.016432 676040.000000 0 0 1
-33.861652 31.731384 21.220477 51.027452 -0.752933 1.141904 0.034410 -0.017521 199047.000000 0 0 1
-33.018772 32.198584 20.172477 50.338027 -0.772823 1.158472 0.038220 -0.022599 -271495.000000 0 0 1
-31.835882 32.772284 20.637277 50.134251 -0.799891 1.146543 0.029641 -0.015979 -285256.000000 0 0 1
-31.955562 34.179284 21.307777 51.414032 -0.819010 1.143474 0.021482 -0.008672 -623884.000000 0 0 1
-32.159752 34.129384 22.687677 52.094099 -0.815102 1.120188 0.021728 -0.007178 184500.000000 0 0 1
-32.234282 -33.748030 23.414077 52.213001 0.808336 1.105784 0.008057 0.002526 -189103.000000 0 0 1
-32.308832 -34.047030 24.932837 53.147975 0.811587 1.082501 0.007300 -0.004069 224591.000000 0 0 1
-33.624432 -34.267630 25.423467 54.325184 0.794872 1.083785 0.006891 0.003848 85305.100000 0 0 1
-33.552862 34.414184 26.752527 55.007529 -0.798070 1.062897 0.012426 0.009624 447133.000000 0 0 1
-34.913521 34.185384 27.468137 56.054375 -0.774861 1.058676 0.002004 0.003470 234804.000000 0 0 1
-34.723359 33.390484 28.635257 56.041181 -0.765832 1.034486 0.017084 -0.004162 -631960.000000 0 0 1
34.536634 33.407684 29.375357 56.318416 0.768784 1.022078 0.008949 -0.005322 -657294.000000 0 0 1
34.524675 32.333384 30.534057 56.300351 0.752635 0.997574 0.009132 -0.001169 -84182.900000 0 0 1
34.272843 30.988184 30.144757 55.168847 0.735109 0.992726 -0.004071 -0.001610 -288451.000000 0 0 1
-35.088038 30.386484 29.494797 54.995016 -0.713714 1.004728 0.007310 0.000891 -808919.000000 0 0 1
35.089124 28.918584 29.045367 53.955208 0.689292 1.002350 0.008038 0.004725 -645874.000000 0 0 1
34.218173 28.790884 27.958337 52.739615 0.699475 1.012054 0.002365 0.006753 45314.200000 0 0 1
34.145063 27.487684 27.422277 51.705313 0.677798 1.011775 0.008665 0.000670 -3733.400000 0 0 1
33.582913 26.307284 28.284097 51.184718 0.664508 0.985329 0.006522 -0.004052 -426404.000000 0 0 1
34.435391 25.887384 29.342267 52.124096 0.644631 0.972869 0.004252 -0.001999 -23154.200000 0 0 1
34.302393 24.527784 29.798607 51.635485 0.620753 0.955629 0.007474 -0.003013 -244412.000000 0 0 1
34.915611 23.533684 28.792687 51.009342 0.593073 0.971019 0.004730 -0.016108 -622860.000000 0 0 1
34.114443 23.244884 27.700957 49.713810 0.598119 0.979776 -0.000055 -0.010477 -426762.000000 0 0 1
34.688608 22.360084 26.777717 49.196738 0.572566 0.995244 -0.001989 -0.017131 -814709.000000 0 0 1
34.387757 20.849884 27.044607 48.462834 0.545051 0.978764 -0.001246 -0.015154 -356116.000000 0 0 1
33.040493 20.460584 26.869737 47.247142 0.554459 0.965864 0.013410 -0.006126 222742.000000 0 0 1
32.797223 19.310884 27.638917 47.036983 0.532141 0.942707 0.016274 -0.008208 -406801.000000 0 0 1
32.497483 19.392084 29.211867 47.806615 0.538008 0.913420 0.008561 -0.027442 23904.500000 0 0 1
31.427103 20.196984 29.699417 47.724588 0.571199 0.899108 0.014166 -0.026684 454380.000000 0 0 1
31.529563 21.597984 29.443267 48.244090 0.600593 0.914360 0.010322 -0.025677 -667266.000000 0 0 1
30.412483 22.381984 30.182507 48.341039 0.634447 0.896477 0.023143 -0.025823 -65207.300000 0 0 1
29.074163 22.100984 29.846397 47.165325 0.649971 0.885627 0.031051 -0.030347 33238.200000 0 0 1
28.639533 22.754284 28.631637 46.451597 0.671382 0.906665 0.032500 -0.025875 -233619.000000 0 0 1
28.397693 24.293884 28.705687 47.123648 0.707671 0.915800 0.029345 -0.019299 67994.600000 0 0 1
29.633983 25.023784 28.612187 48.197717 0.701251 0.935219 0.011404 -0.012172 525466.000000 0 0 1
29.824903 26.150884 29.466197 49.413058 0.719856 0.931882 0.002298 -0.007809 -26672.700000 0 0 1
29.974583 25.932584 30.988037 50.311360 0.713225 0.907236 0.002138 -0.011819 -612353.000000 0 0 1
31.228923 25.355384 31.167047 50.887385 0.681967 0.911614 0.000508 -0.007077 -560254.000000 0 0 1
31.638743 25.282884 32.510437 51.934216 0.674199 0.894393 0.012779 -0.009650 -193606.000000 0 0 1
31.080273 24.096284 33.308748 51.537238 0.659492 0.868065 0.017149 -0.008154 -324893.000000 0 0 1
31.381583 24.185984 -34.404951 52.473481 0.656622 2.285857 0.003809 -0.015989 249974.000000 0 0 1
30.942553 22.961184 -33.812929 51.263747 0.638399 2.291066 -0.000993 -0.025408 -236259.000000 0 0 1
31.496773 22.801184 -32.369329 50.593618 0.626601 2.265022 -0.008870 -0.029233 -518267.000000 0 0 1
30.897033 23.716584 -31.475129 50.077807 0.654671 2.250451 -0.020817 -0.025250 168307.000000 0 0 1
31.134733 23.531284 -30.128059 49.303072 0.647196 2.228219 0.018003 -0.035102 -874530.000000 0 0 1
32.586423 23.895084 -29.792259 50.203872 0.632716 2.206104 0.006861 -0.007782 -373674.000000 0 0 1
33.020993 23.407484 -28.540259 49.526182 0.616652 2.184949 0.011454 -0.015165 31312.300000 0 0 1
34.103363 24.161484 -27.983889 50.298258 0.616393 2.160794 0.016996 -0.006568 357104.000000 0 0 1
34.819920 23.379084 -26.838639 49.792780 0.591292 2.140054 0.021660 -0.002578 -467192.000000 0 0 1
-34.839659 22.352084 -27.389079 49.634455 -0.570426 2.155336 0.029688 -0.009580 -208408.000000 0 0 1
-34.946988 21.233684 -26.619619 48.793088 -0.545987 2.147855 0.019168 -0.008183 -412165.000000 0 0 1
-33.817582 20.241784 -26.916389 47.726834 -0.539359 2.169979 0.036878 -0.008815 -751327.000000 0 0 1
-32.563092 20.706884 -26.517289 46.821967 -0.566399 2.172858 0.037772 -0.015768 -12031.700000 0 0 1
-31.553122 19.706284 -26.867619 45.889063 -0.558271 2.196282 0.025538 -0.017615 1142010.000000 0 0 1
-30.188562 20.002184 -26.176449 44.683813 -0.585164 2.196682 0.017996 -0.016085 51684.100000 0 0 1
-30.231292 20.168584 -24.776739 43.983970 -0.588332 2.169186 0.009722 -0.004073 -1365980.000000 0 0 1
-29.009322 20.281084 -24.193939 42.874349 -0.610137 2.170380 0.008649 -0.004259 -1215580.000000 0 0 1
-29.134022 20.591284 -22.694139 42.282575 -0.615260 2.137348 -0.000029 -0.009034 174739.000000 0 0 1
-29.834202 19.643984 -21.895439 41.897207 -0.582284 2.120693 -0.014470 0.011102 255798.000000 0 0 1
-30.218452 20.121084 -20.632439 41.757759 -0.587440 2.087594 -0.004742 0.014730 -696274.000000 0 0 1
-31.088392 19.102084 -19.817639 41.522482 -0.550973 2.068347 -0.016654 0.018094 807220.000000 0 0 1
-32.086262 19.589284 -18.919439 42.085787 -0.548118 2.037052 -0.013552 0.010613 605447.000000 0 0 1
-33.038522 20.539584 -19.379439 43.462410 -0.556213 2.032964 -0.020404 0.010668 -90581.700000 0 0 1
-34.234366 20.599284 -18.358439 43.969928 -0.541679 2.001514 -0.003483 0.000116 81778.400000 0 0 1
-33.858852 21.251284 -17.171739 43.507557 -0.560498 1.976520 -0.006588 -0.008775 715385.000000 0 0 1
-34.898867 21.121184 -16.178339 43.883641 -0.544242 1.948368 0.004130 -0.001124 -132700.000000 0 0 1
-34.763257 22.080184 -14.933839 43.806827 -0.565871 1.918673 0.007185 -0.001000 -236832.000000 0 0 1
-35.159899 23.437584 -15.011739 44.842961 -0.587956 1.912149 0.014030 -0.003961 432984.000000 0 0 1
33.856763 23.581984 -15.056439 43.921370 0.608388 1.920697 0.025790 -0.002890 199171.000000 0 0 1
33.520333 25.065484 -15.161939 44.517138 0.642072 1.918337 0.014769 0.000559 -279451.000000 0 0 1
33.824433 25.674284 -13.916939 44.687161 0.649265 1.887494 0.010865 -0.002915 -5450.830000 0 0 1
34.051443 27.057684 -14.091639 45.718632 0.671447 1.884123 0.006801 0.005540 -266910.000000 0 0 1
-35.056364 27.618984 -14.670339 46.978461 -0.667285 1.888386 0.019994 0.016836 -29201.900000 0 0 1
-34.834242 27.312984 -16.072939 47.093130 -0.664961 1.919097 0.019415 0.015814 -301704.000000 0 0 1
-33.871722 28.125784 -16.656639 47.072252 -0.692982 1.932483 0.033322 0.008777 -827342.000000 0 0 1
-33.779722 28.097484 -18.158139 47.542152 -0.693824 1.962688 0.031054 0.009679 -108689.000000 0 0 1
-33.426512 26.842984 -18.770439 46.799646 -0.676595 1.983493 0.027513 0.003359 -146201.000000 0 0 1
-32.082352 26.491884 -18.601539 45.575371 -0.690244 1.991222 0.025831 0.014390 -540144.000000 0 0 1
-31.621082 25.166384 -19.212639 44.747796 -0.672220 2.014574 0.016477 0.014918 -215897.000000 0 0 1
-31.541132 25.319184 -20.611539 45.395370 -0.676407 2.042096 0.013082 0.012191 220378.000000 0 0 1
-31.026482 24.122484 -21.187339 44.647958 -0.660858 2.065240 0.014054 0.012908 1989.650000 0 0 1
-30.688932 24.186384 -22.673939 45.176313 -0.667451 2.096589 0.017192 0.005111 -844837.000000 0 0 1
-31.821092 24.395484 -23.411339 46.430726 -0.654069 2.099276 0.022440 0.002423 -758480.000000 0 0 1
-31.566062 24.266984 -24.792739 46.903973 -0.655405 2.127729 0.021467 -0.001042 -792549.000000 0 0 1
-32.575162 24.843784 -25.730749 48.377952 -0.651555 2.131603 0.013300 0.004290 -948165.000000 0 0 1
-32.471522 26.210384 -25.636149 48.975464 -0.679104 2.121690 0.015364 0.008465 29559.800000 0 0 1
-33.252332 26.784484 -26.663909 50.339748 -0.678081 2.129018 0.009796 -0.000703 -542773.000000 0 0 1
-32.768072 28.152084 -27.077199 50.984910 -0.709772 2.130674 0.009449 0.006335 -912051.000000 0 0 1
-31.502502 28.024384 -27.627409 50.408803 -0.727035 2.150848 0.012252 0.005078 -1032680.000000 0 0 1
-30.882662 29.297584 -27.740599 50.809724 -0.759065 2.148343 0.012425 -0.002701 -184178.000000 0 0 1
-29.494162 29.259284 -28.343799 50.292964 -0.781400 2.169502 0.021741 -0.002761 -1013580.000000 0 0 1
-28.473682 28.685984 -27.594329 48.939588 -0.789112 2.169830 0.006076 0.004053 -777360.000000 0 0 1
-27.217792 28.631484 -28.194569 48.533533 -0.810705 2.190667 0.028827 0.003202 383992.000000 0 0 1
-26.318352 29.949884 -28.089149 48.771421 -0.849848 2.184543 0.031019 -0.004786 -103263.000000 0 0 1
-25.771592 30.274184 -26.820419 47.958691 -0.865564 2.164265 0.024610 -0.002963 663139.000000 0 0 1
-26.732312 30.413884 -25.723989 47.972330 -0.849733 2.136755 0.015242 0.001814 437709.000000 0 0 1
-26.065942 30.758484 -24.387039 47.119479 -0.867791 2.114790 -0.002809 -0.002579 37959.100000 0 0 1
-25.625772 32.149484 -24.298839 47.756707 -0.897837 2.104592 0.011263 0.001835 70804.400000 0 0 1
-24.952822 32.398984 -23.075439 46.955440 -0.914509 2.084530 0.026741 0.009414 328954.000000 0 0 1
-24.177022 33.766284 -23.015639 47.480627 -0.949406 2.076859 0.016094 0.012026 -32952.300000 0 0 1
-25.008922 -34.166930 -22.877939 48.127180 0.938939 2.066174 -0.001797 0.002060 -172272.000000 0 0 1
-24.437622 -32.897230 -23.149739 47.067351 0.931889 2.085001 0.009399 0.001300 -172229.000000 0 0 1
16.417778 9.003484 -25.406699 31.561155 0.501613 2.506470 0.018285 -0.011594 -883306.000000 0 0 1
15.172978 8.396584 -25.456559 30.801920 0.505443 2.543587 0.023105 -0.016453 -667745.000000 0 0 1
15.183778 6.994684 -25.693759 30.653580 0.431690 2.564766 0.021030 -0.022435 269873.000000 0 0 1
13.747378 6.427284 -25.554119 29.720589 0.437334 2.605698 0.023324 -0.023737 436722.000000 0 0 1
13.173278 6.471684 -24.225839 28.325064 0.456642 2.596886 0.036142 -0.028939 -676709.000000 0 0 1
11.957078 5.833284 -24.217639 27.631376 0.453882 2.639244 0.032820 -0.027478 -1259770.000000 0 0 1
11.130978 5.990684 -22.983339 26.230151 0.493738 2.638754 0.042560 -0.030086 -363052.000000 0 0 1
11.589878 5.045784 -22.031739 25.400448 0.410614 2.620701 0.042768 -0.016387 402624.000000 0 0 1
11.032678 5.251784 -20.719239 24.053858 0.444281 2.608754 0.050361 -0.013617 -166732.000000 0 1 0
11.827278 6.301684 -19.893339 23.986260 0.489549 2.548765 0.058987 -0.022614 -186677.000000 0 1 0
11.345878 6.516684 -18.625039 22.761551 0.521357 2.529187 0.051188 -0.007759 -387687.000000 0 1 0
11.421678 7.920084 -18.319239 22.995151 0.606300 2.492540 0.046697 -0.004950 53279.400000 0 1 0
12.794278 8.503984 -17.891239 23.581937 0.586620 2.432087 0.033504 -0.002847 307896.000000 0 1 0
13.243978 8.012184 -16.598539 22.696025 0.544064 2.391083 0.040761 -0.005979 1150270.000000 0 1 0
14.533178 8.486884 -16.163439 23.334464 0.528546 2.336002 0.031561 -0.001727 572024.000000 0 1 0
15.034878 7.878384 -14.865939 22.563524 0.482668 2.290083 0.029385 -0.006470 178068.000000 0 1 0
16.465778 7.839684 -14.783839 23.476465 0.444362 2.252002 0.030654 -0.010560 933588.000000 0 1 0
16.850378 7.977184 -13.444339 22.985233 0.442152 2.195568 0.024850 -0.016838 -89056.600000 0 1 0
17.211178 9.431684 -13.133239 23.614895 0.501305 2.160533 0.024211 -0.019841 -402396.000000 0 1 0
16.046978 10.213284 -12.909439 22.988482 0.566799 2.167068 0.032549 -0.020013 388695.000000 0 1 0
16.289478 11.578584 -13.125839 23.910214 0.617938 2.151920 0.022952 -0.012869 658275.000000 0 1 0
15.002878 12.452384 -12.834539 23.342528 0.692768 2.152963 0.023973 -0.008733 689258.000000 0 1 0
14.675278 12.549784 -11.430639 22.439260 0.707485 2.105288 0.048785 -0.007470 56370.700000 0 1 0
15.341978 13.608384 -10.737239 23.148492 0.725588 2.053123 0.049349 0.002871 23734.700000 0 1 0
14.875878 15.067684 -10.991139 23.856487 0.791804 2.049602 0.044013 -0.000578 477307.000000 0 1 0
13.555778 15.433984 -10.592739 23.112185 0.850096 2.046899 0.052604 -0.005424 326757.000000 0 1 0
13.429578 16.830584 -10.505039 23.957837 0.897321 2.024703 0.044898 -0.007409 419773.000000 0 1 0
12.208278 17.227384 -9.615339 23.200852 0.954285 1.998123 0.043275 -0.004287 331470.000000 0 1 0
12.457578 17.188484 -8.222139 22.764859 0.943643 1.940326 0.051068 -0.001620 376112.000000 0 1 0
11.403678 17.687984 -7.379039 22.301544 0.998147 1.908028 0.046327 0.006982 358947.000000 0 1 0
11.556978 17.334284 -5.892239 21.650857 0.982762 1.846421 0.033208 0.003614 533002.000000 0 1 0
12.509778 18.190684 -5.206539 22.682671 0.968372 1.802400 0.033152 -0.004175 610835.000000 0 1 0
13.312078 17.337684 -4.390739 22.295410 0.915993 1.769027 0.048782 -0.014501 500515.000000 0 1 0
14.447778 18.097284 -3.572839 23.431072 0.897069 1.723876 0.050606 -0.022044 430649.000000 0 1 0
15.512578 18.454484 -4.417939 24.509717 0.871793 1.752040 0.052893 -0.023654 -217775.000000 0 1 0
16.139878 19.651884 -4.029139 25.747352 0.883208 1.727930 0.048294 -0.021364 228490.000000 0 0 1
17.552378 19.882984 -4.638339 26.924584 0.847575 1.743932 0.042431 -0.022470 550788.000000 0 0 1
18.655578 19.079284 -4.260339 27.022216 0.796626 1.729118 0.049835 -0.037344 298662.000000 0 0 1
18.746378 17.779084 -4.799739 26.278508 0.758922 1.754476 0.044156 -0.030321 -556962.000000 0 0 1
19.961778 17.025384 -4.202339 26.570584 0.706175 1.729621 0.060679 -0.030555 613367.000000 0 0 1
21.188478 17.498184 -4.808439 27.897296 0.690297 1.744024 0.048302 -0.036991 514887.000000 0 0 1
22.199278 16.629084 -4.305639 28.069074 0.642913 1.724799 0.055290 -0.032346 561843.000000 0 0 1
23.683578 16.961884 -4.693539 29.506722 0.621508 1.730542 0.046583 -0.034224 710040.000000 0 0 1
24.262178 17.878884 -3.800239 30.376793 0.635067 1.696228 0.048327 -0.030727 878845.000000 0 0 1
25.694178 17.919384 -3.913939 31.569194 0.608986 1.695096 0.037769 -0.024795 722109.000000 0 0 1
26.367778 19.180784 -3.371039 32.779965 0.628901 1.673817 0.030124 -0.018492 -327539.000000 0 0 1
26.122178 20.344384 -4.134339 33.366973 0.661690 1.695021 0.027930 -0.015311 197967.000000 0 0 1
26.378078 21.477084 -3.363039 34.181547 0.683341 1.669343 0.030081 0.007165 -297268.000000 0 0 1
26.267778 22.777284 -4.197139 35.020234 0.714349 1.690934 0.015337 0.002663 -396633.000000 0 0 1
27.238578 23.125784 -5.143239 36.099791 0.703918 1.713756 0.009761 0.012279 -200727.000000 0 0 1
27.339078 22.312184 -6.282639 35.843134 0.684498 1.746988 0.021657 0.001482 -167010.000000 0 0 1
28.371978 22.870884 -7.278539 37.162126 0.678454 1.767930 0.008220 0.005893 -278404.000000 0 0 1
27.929378 24.042384 -7.959739 37.702040 0.710747 1.783519 0.010629 0.002282 -159255.000000 0 0 1
28.904378 24.798884 -8.611839 39.046273 0.709099 1.793179 -0.004861 0.001753 -347363.000000 0 0 1
29.894478 24.209484 -9.656739 39.661461 0.680707 1.816748 -0.000207 -0.006868 63921.600000 0 0 1
29.304978 23.922584 -10.924439 39.375311 0.684620 1.851929 0.004762 -0.007757 -290098.000000 0 0 1
30.204778 23.361984 -11.810139 39.969867 0.658343 1.870750 0.000913 -0.015088 -279386.000000 0 0 1
29.465678 22.730984 -13.018339 39.425892 0.657082 1.907309 -0.002098 -0.013694 175749.000000 0 0 1
29.235978 23.676784 -14.049839 40.158816 0.680719 1.928215 -0.002546 0.000971 -42849.900000 0 0 1
28.810778 22.987284 -15.203839 39.870200 0.673441 1.962035 0.001119 -0.000938 -183394.000000 0 0 1
29.003678 23.854284 -16.382039 40.970860 0.688285 1.982145 -0.011531 -0.000022 700825.000000 0 0 1
30.316178 24.350484 -16.737339 42.333854 0.676700 1.977262 -0.018317 0.003740 799587.000000 0 0 1
30.271478 24.877284 -18.041739 43.136365 0.687897 2.002313 -0.019774 0.004001 -369968.000000 0 0 1
31.569878 25.546484 -18.507539 44.629688 0.680328 1.998400 -0.015968 0.000166 -930372.000000 0 0 1
32.524178 24.595684 -18.692539 44.857339 0.647475 2.000620 -0.005844 0.006305 -697842.000000 0 0 1
33.783278 25.163484 -19.082339 46.245502 0.640197 1.996137 0.021837 0.001134 1402990.000000 0 0 1
34.963378 24.092384 -19.092339 46.555324 0.603356 1.993360 0.020445 -0.010406 540349.000000 0 0 1
34.863978 23.136984 -20.146039 46.440068 0.585901 2.019510 0.013835 0.003202 41426.800000 0 0 1
-34.819807 23.497184 -21.279939 47.088984 -0.593628 2.039701 0.010997 0.001161 -333627.000000 0 0 1
-34.890207 22.486284 -22.435139 47.183631 -0.572490 2.066312 0.013157 -0.001191 -88469.300000 0 0 1
-34.386307 21.252084 -22.063139 46.052702 -0.553578 2.070408 0.000102 -0.006447 214636.000000 0 0 1
-33.924907 20.499584 -23.206739 45.931308 -0.543549 2.100467 0.009523 -0.004611 404976.000000 0 0 1
-33.539607 19.005684 -22.962039 44.870664 -0.515547 2.108003 0.000316 -0.000394 840429.000000 0 0 1
-34.743407 18.284084 -22.651039 45.326390 -0.484435 2.094085 0.004883 -0.007914 1018830.000000 0 0 1
-34.386807 16.961984 -22.269339 44.340556 -0.458249 2.096977 0.001191 -0.003723 -179693.000000 0 0 1
34.836878 16.027184 -22.210739 44.314734 0.431191 2.095786 0.013946 -0.005860 -443002.000000 0 0 1
34.318578 15.817784 -23.477739 44.487878 0.431890 2.126726 0.055687 -0.014443 -132044.000000 0 0 1
33.131278 15.067084 -23.401239 43.270274 0.426813 2.142203 0.069628 -0.014036 -239347.000000 0 0 1
33.277778 13.650284 -24.034239 43.259512 0.389262 2.159860 0.037660 -0.015661 -227284.000000 0 0 1
33.147678 13.615484 -25.477899 43.969004 0.389741 2.188852 0.044178 -0.002366 146521.000000 0 0 1
33.473678 12.330484 -25.952039 44.113901 0.352940 2.199747 0.025969 0.001459 -264682.000000 0 0 1
33.423178 12.269784 -27.523489 45.002210 0.351830 2.228882 0.039771 -0.000642 957460.000000 0 0 1
32.097578 12.249084 -28.117679 44.394802 0.364562 2.256678 0.041938 -0.003689 1024030.000000 0 0 1
31.583678 13.522684 -28.360359 44.549991 0.404539 2.260873 0.043484 -0.000685 -145794.000000 0 0 1
31.842678 13.937284 -29.863519 45.826126 0.412572 2.280581 0.044641 -0.005828 389103.000000 0 0 1
33.152078 14.491784 -30.033229 47.021983 0.412100 2.263612 0.040639 0.002746 629506.000000 0 0 1
33.473278 14.366184 -31.432319 48.112766 0.405409 2.282738 0.036447 -0.000636 -864574.000000 0 0 1
34.958478 14.456184 -31.789139 49.412810 0.392111 2.269647 0.050036 -0.005876 -355553.000000 0 0 1
-34.655907 13.387884 -31.394299 48.640203 -0.368648 2.272395 0.030593 -0.002790 -14048.700000 0 0 1
-34.221407 13.363984 -30.070889 47.475880 -0.372303 2.256726 0.016800 -0.005151 -979212.000000 0 0 1
-33.091707 12.422484 -29.711789 46.175422 -0.359118 2.269799 0.011899 -0.002448 -608806.000000 0 0 1
-33.461307 11.058784 -29.810919 46.158929 -0.319194 2.272909 0.013044 -0.013236 190292.000000 0 0 1
-32.420207 10.090484 -29.725589 45.127579 -0.301737 2.289888 0.015167 -0.018089 -53698.300000 0 0 1
-32.818807 8.689284 -30.224889 45.454612 -0.258826 2.298219 0.017016 -0.013117 -889813.000000 0 0 1
-32.678507 8.508984 -31.598159 46.246420 -0.254728 2.323009 0.010822 -0.010958 216872.000000 0 0 1
-33.130407 7.246384 -32.182249 46.752873 -0.215332 2.330006 0.008667 -0.007801 -372096.000000 0 0 1
-34.535807 6.746984 -31.780399 47.415584 -0.192932 2.305345 0.007485 0.000586 -712743.000000 0 0 1
-34.575407 6.109384 -30.536459 46.532341 -0.174892 2.286623 0.014867 -0.004684 47675.900000 0 0 1
34.603378 5.730784 -30.003339 46.156646 0.164124 2.278424 0.024064 -0.001723 -417938.000000 0 0 1
34.648578 4.968084 -28.696329 45.262403 0.142414 2.257510 0.022814 -0.004325 -127555.000000 0 0 1
-35.153707 3.722384 -28.903239 45.662200 -0.105496 2.256192 0.024639 0.000566 305785.000000 0 0 1
35.147378 2.888284 -27.813599 44.914103 0.081992 2.238599 0.032491 0.006926 -357020.000000 0 0 1
-34.397007 1.657184 -27.977619 44.369444 -0.048141 2.253072 0.045175 0.006454 515611.000000 0 0 1
-33.088507 1.831084 -27.419519 43.012001 -0.055283 2.262026 0.037588 0.007809 489901.000000 0 0 1
-32.331107 0.643384 -27.490269 42.443249 -0.019897 2.275351 0.046365 0.007329 -103450.000000 0 0 1
-31.158207 0.558484 -26.513439 40.915868 -0.017922 2.275751 0.027167 0.003981 -295823.000000 0 0 1
-31.531307 0.312584 -25.174619 40.349505 -0.009913 2.244537 0.034143 0.008440 770593.000000 0 0 1
-30.466607 0.626484 -24.233939 38.934438 -0.020560 2.242639 0.042367 0.009630 584411.000000 0 0 1
-30.753607 0.388284 -22.705339 38.229146 -0.012625 2.206728 0.022786 0.011698 -676115.000000 0 0 1
-30.736507 -1.029116 -22.334739 38.008322 0.033469 2.198920 0.023314 0.003072 82151.000000 0 0 1
-31.025407 -1.363216 -20.975839 37.475593 0.043910 2.164844 0.031999 0.003465 -713485.000000 0 0 1
-32.479707 -1.052616 -20.580239 38.465382 0.032397 2.135343 0.023981 0.007132 216737.000000 0 0 1
-33.485907 -1.989216 -21.047939 39.601499 0.059335 2.131159 0.017387 0.003825 543491.000000 0 0 1
-34.750707 -1.639816 -20.531139 40.395895 0.047153 2.103946 0.015749 0.005870 419020.000000 0 0 1
34.785578 -2.952516 -20.403239 40.435702 -0.084675 2.099697 0.012538 0.003380 110196.000000 0 0 1
34.197678 -3.591616 -21.502639 40.555448 -0.104642 2.129637 0.004260 0.001413 -239208.000000 0 0 1
35.094278 -4.357016 -22.236839 41.774023 -0.123520 2.132126 -0.010875 0.013415 -814147.000000 0 0 1
34.425878 -5.427516 -23.113039 41.818795 -0.156371 2.156391 -0.005935 0.014599 -602823.000000 0 0 1
33.835478 -6.470916 -22.318339 41.046566 -0.188965 2.145674 -0.007021 0.022896 488555.000000 0 0 1
33.209278 -7.480316 -23.123239 41.152102 -0.221550 2.167474 -0.002465 0.025691 -42719.800000 0 0 1
31.852778 -7.240316 -23.784539 40.407004 -0.223508 2.200152 -0.017032 0.016778 -803414.000000 0 0 1
31.890778 -6.240816 -24.765039 40.856783 -0.193251 2.221998 -0.009313 0.012950 -215401.000000 0 0 1
30.595978 -5.721216 -24.965639 39.901495 -0.184858 2.246802 -0.030534 0.000772 -144645.000000 0 0 1
30.551078 -4.635016 -26.058439 40.421455 -0.150565 2.271386 0.000195 -0.022623 -241015.000000 0 0 1
30.731678 -5.088016 -27.359159 41.458986 -0.164074 2.291494 0.017544 -0.020668 225270.000000 0 0 1
30.511678 -4.030216 -28.312409 41.818628 -0.131327 2.314514 0.027296 -0.029001 -152521.000000 0 0 1
30.537478 -4.425116 -29.789409 42.889720 -0.143906 2.338602 0.043149 -0.029532 -265151.000000 0 0 1
30.104678 -3.432416 -30.593689 43.058645 -0.113526 2.361022 0.041082 -0.032941 -42057.300000 0 0 1
29.462078 -3.943816 -31.762119 43.501723 -0.133070 2.389315 0.042220 -0.040182 -537628.000000 0 0 1
28.981178 -2.709316 -32.581739 43.690031 -0.093214 2.412453 0.047089 -0.033897 -398533.000000 0 0 1
27.979078 -1.847216 -32.034619 42.572971 -0.065926 2.422591 0.037326 -0.034209 1002130.000000 0 0 1
26.674278 -2.434816 -31.892719 41.648421 -0.091027 2.443019 0.043055 -0.034257 375034.000000 0 0 1
25.827978 -2.556416 -33.193099 42.135514 -0.098657 2.477977 0.053402 -0.036687 -807021.000000 0 0 1
26.270778 -3.664516 -33.989369 43.114495 -0.138596 2.478921 0.057869 -0.044137 202573.000000 0 0 1
25.544778 -3.736316 33.848359 42.570026 -0.145236 0.651588 0.056281 -0.036160 -267249.000000 0 0 1
25.967778 -4.872116 32.922837 42.213460 -0.185465 0.676269 0.043804 -0.039343 30248.200000 0 0 1
27.324578 -4.878616 32.512847 42.749487 -0.176681 0.706646 0.047416 -0.031694 133286.000000 0 0 1
27.624078 -4.148016 31.318717 41.966150 -0.149046 0.728333 0.056356 -0.034948 -631289.000000 0 0 1
28.245178 -2.784416 31.430787 42.348995 -0.098263 0.734472 0.043547 -0.034708 -96766.500000 0 0 1
29.561378 -2.915116 31.968227 43.638750 -0.098295 0.748714 0.037635 -0.032401 23874.200000 0 0 1
29.993178 -1.717016 32.474657 44.239600 -0.057184 0.746510 0.032353 -0.025711 -1006990.000000 0 0 1
31.398878 -1.765016 33.019749 45.599437 -0.056154 0.761030 0.017068 -0.023129 -685645.000000 0 0 1
32.342478 -1.899416 31.972447 45.517920 -0.058661 0.792012 0.020517 -0.019795 -67662.100000 0 0 1
33.681878 -1.764516 32.409187 46.775397 -0.052340 0.805337 0.025130 -0.012787 538292.000000 0 0 1
34.685978 -2.360216 31.353497 46.815910 -0.067941 0.836966 0.014745 -0.003795 159865.000000 0 0 1
34.816978 -1.577216 30.177387 46.101890 -0.045269 0.857169 0.003150 0.000960 121282.000000 0 0 1
-34.553107 -2.211116 29.482667 45.475641 0.063905 0.865423 0.013174 0.005528 -31873.900000 0 0 1
-34.276607 -1.537216 28.130457 44.368586 0.044817 0.884059 0.010775 0.013750 -197666.000000 0 0 1
-35.174907 -1.625216 27.076317 44.418941 0.046171 0.915282 0.012508 -0.001361 -586673.000000 0 0 1
-34.515307 -1.106416 25.976387 43.212305 0.032045 0.925877 0.007484 0.001352 -536258.000000 0 0 1
-26.251582 15.371184 12.954661 33.064212 -0.529715 1.168206 0.048594 -0.005713 -766555.000000 0 0 1
-27.454332 14.733284 13.185661 33.832996 -0.492534 1.170460 0.009311 -0.002981 -652029.000000 0 0 1
-28.337622 15.522484 13.923261 35.182745 -0.501129 1.163922 0.011084 0.000865 -699553.000000 0 0 1
-29.646282 14.791284 14.216461 36.052626 -0.462788 1.165463 0.009854 0.002590 -430518.000000 0 0 1
-30.493832 15.659084 14.919561 37.385478 -0.474402 1.160290 -0.002974 -0.002524 262517.000000 0 0 1
-31.709102 15.062384 15.401461 38.334678 -0.443463 1.157355 -0.010133 0.010270 581154.000000 0 0 1
-32.479602 15.954184 16.403861 39.730935 -0.456588 1.145189 0.004855 0.006562 -171414.000000 0 0 1
-31.750532 16.353784 17.550561 39.794029 -0.475632 1.114045 -0.000317 0.012473 -98440.400000 0 0 1
-32.568432 16.899084 18.554761 41.116432 -0.478637 1.102604 -0.001460 0.009830 342855.000000 0 0 1
-31.743152 17.118784 19.881961 41.182191 -0.494584 1.066969 0.011505 0.007927 355643.000000 0 0 1
-31.183472 15.917584 20.416161 40.528978 -0.471972 1.042871 0.014809 0.006814 377681.000000 0 0 1
-30.031212 16.114484 21.233661 40.154933 -0.492490 1.013618 0.016542 0.000126 454835.000000 0 0 1
-30.284102 16.832184 22.570661 41.350743 -0.507292 0.993412 0.032654 -0.011380 -246705.000000 0 0 1
-30.992702 18.098584 22.525261 42.373266 -0.528544 1.010318 0.025249 -0.010809 413690.000000 0 0 1
-31.382372 18.666284 23.737661 43.551808 -0.536588 0.994354 0.029306 -0.018927 -190635.000000 0 0 1
-32.321132 17.852884 24.707261 44.427804 -0.504653 0.981084 0.011697 -0.015159 106579.000000 0 0 1
-33.645982 17.620684 24.286461 45.081845 -0.482434 1.001880 0.019432 -0.010029 -300522.000000 0 0 1
-34.577375 18.619684 24.448761 46.260452 -0.493966 1.013961 0.021760 -0.010529 -579949.000000 0 0 1
34.386704 18.147084 24.326661 45.864458 0.485589 1.011720 0.008849 -0.019473 -80159.600000 0 0 1
33.953663 17.356284 25.360861 45.795907 0.472548 0.983899 0.011778 -0.003705 1909.460000 0 0 1
32.845863 16.589984 24.897161 44.429122 0.467708 0.975953 0.019814 -0.000332 285923.000000 0 0 1
32.404903 15.537684 25.939461 44.321022 0.447102 0.945592 0.010288 0.005724 -220722.000000 0 0 1
31.941403 16.182184 27.137361 44.928306 0.468930 0.922267 0.020102 -0.002221 149468.000000 0 0 1
31.792873 15.356184 28.227461 45.203857 0.449961 0.896372 0.015997 0.000635 578417.000000 0 0 1
30.683543 14.226884 28.263661 44.076281 0.434159 0.874678 0.019154 0.012534 514552.000000 0 0 1
31.178913 13.158184 27.411061 43.550301 0.399345 0.890001 0.013600 0.012426 345546.000000 0 0 1
30.458533 11.965484 27.708561 42.879592 0.374323 0.868209 0.015780 0.017858 -148210.000000 0 0 1
31.045903 10.590084 27.405161 42.743898 0.328734 0.874803 0.019173 0.014138 -560122.000000 0 0 1
32.023083 10.079184 28.237961 43.868556 0.304931 0.871480 0.020200 0.013807 -247564.000000 0 0 1
32.663503 8.908484 27.692761 43.739622 0.266259 0.885209 0.014510 0.019044 375669.000000 0 0 1
33.584903 8.247584 28.777561 44.990181 0.240809 0.876765 0.021548 0.016856 147023.000000 0 0 1
34.835962 8.882984 28.891961 46.121547 0.249674 0.893830 0.024752 0.015470 -510758.000000 0 0 1
-34.641691 8.113084 29.562561 46.258122 -0.230054 0.877497 0.023089 0.016805 -683132.000000 0 0 1
-33.325652 8.877884 29.525761 45.400291 -0.260351 0.862760 0.019041 0.015026 -625477.000000 0 0 1
-32.798912 9.035784 28.209261 44.194755 -0.268822 0.878516 0.015345 0.012732 547088.000000 0 0 1
-31.533352 9.689984 28.317961 43.475913 -0.298134 0.861436 0.026949 0.011734 350683.000000 0 0 1
-30.916282 10.354184 27.091461 42.390717 -0.323169 0.877482 0.020026 0.002476 20680.300000 0 0 1
-30.319942 9.375484 26.226361 41.170628 -0.299892 0.880175 0.021499 -0.005198 36802.900000 0 0 1
-29.451762 10.008684 25.344061 40.123577 -0.327589 0.887117 0.015181 -0.000433 -250150.000000 0 0 1
-28.709422 9.024384 24.403661 38.745439 -0.304556 0.889441 0.014816 0.001686 656824.000000 0 0 1
-27.664182 9.674184 23.647561 37.657721 -0.336408 0.891867 0.006006 -0.007641 344222.000000 0 0 1
-27.065832 8.753184 22.794761 36.452416 -0.312787 0.895243 -0.000657 -0.003638 36385.000000 0 0 1
-26.058662 9.461584 21.838461 35.291554 -0.348286 0.903580 0.000482 0.003270 499520.000000 0 0 1
-24.793322 9.798584 22.478461 34.871224 -0.376371 0.870279 0.006244 -0.000987 1796150.000000 0 0 1
-23.839322 10.594584 21.734961 33.955368 -0.418201 0.876163 0.008846 -0.000545 1029640.000000 0 0 1
-23.198722 9.835784 20.508561 32.488835 -0.401006 0.887633 0.013789 -0.005934 -423927.000000 0 0 1
-24.210822 9.647884 19.503361 32.551907 -0.379208 0.928362 0.010608 -0.007369 608978.000000 0 0 1
-23.967622 8.648584 18.509261 31.493454 -0.346303 0.942561 0.009823 -0.003967 -496487.000000 0 0 1
-23.813222 7.186184 18.978361 31.287201 -0.293082 0.919038 -0.000100 0.006390 177775.000000 0 0 1
-22.630622 6.886284 19.745161 30.812941 -0.295388 0.875247 -0.010109 0.012314 1059910.000000 0 0 1
-22.609922 5.557284 20.189161 30.817109 -0.241012 0.856444 -0.002261 0.014091 -376601.000000 0 0 1
-22.650622 4.334184 19.176161 29.992682 -0.189064 0.877129 -0.006461 0.018619 -532935.000000 0 0 1
-23.952722 4.147084 18.661461 30.646065 -0.171437 0.916079 -0.000108 0.019531 370092.000000 0 0 1
-24.019322 3.223784 17.571361 29.934484 -0.133419 0.943456 0.007879 0.021580 -206973.000000 0 0 1
-24.033322 1.741284 17.962061 30.054422 -0.072327 0.930228 0.010642 0.025331 -15434.400000 0 0 1
-22.776722 1.235784 18.384161 29.296477 -0.054203 0.892431 -0.000438 0.024048 442901.000000 0 0 1
-22.981822 0.007184 18.991161 29.813225 -0.000313 0.880190 0.014843 0.016795 726195.000000 0 0 1
-21.726522 -0.950016 19.212661 29.018453 0.043698 0.847200 0.001957 0.027138 984604.000000 0 0 1
-20.705722 -0.559916 20.132361 28.885158 0.027035 0.799620 0.003790 0.028188 -303967.000000 0 0 1
-19.874222 -1.641616 20.322561 28.472550 0.082413 0.775945 0.009838 0.021246 -419735.000000 0 0 1
-18.718522 -1.154916 21.237061 28.332484 0.061621 0.723390 0.003943 0.020059 76562.100000 0 0 1
-19.093822 -1.050016 22.604261 29.607924 0.054937 0.702154 0.010704 0.015391 422734.000000 0 0 1
-17.954322 -1.107816 23.489961 29.586537 0.061624 0.653533 0.017239 0.005688 -143307.000000 0 0 1
-18.266322 -1.115416 24.969261 30.957498 0.060988 0.632477 0.024567 0.002992 -50731.800000 0 0 1
-18.849122 0.045584 25.604861 31.794659 -0.002418 0.634582 0.005045 0.000457 261388.000000 0 0 1
-20.231022 0.031084 25.251661 32.356477 -0.001536 0.675458 0.028098 0.004139 -314636.000000 0 0 1
-20.982022 1.178784 25.976561 33.412819 -0.056122 0.680206 0.010510 0.001569 -309066.000000 0 0 1
-20.736722 2.429684 25.285061 32.790994 -0.116636 0.690233 0.007100 0.004263 -484070.000000 0 0 1
-21.911822 3.079084 24.992461 33.380111 -0.139607 0.724663 0.003694 0.007315 -938230.000000 0 0 1
-21.569922 4.230084 24.030061 32.566838 -0.193653 0.740889 0.001314 0.011933 150359.000000 0 0 1
-21.220522 3.895984 22.690361 31.310409 -0.181573 0.760211 0.000866 0.013708 86176.100000 0 0 1
-19.957122 3.332384 22.459161 30.229214 -0.165451 0.733311 0.001685 0.012966 -621395.000000 0 0 1
-19.876922 2.573584 21.095861 29.098981 -0.128760 0.759807 0.016198 0.013403 -40285.100000 0 0 1
-19.261722 3.378384 20.090061 28.036368 -0.173628 0.771922 0.002831 0.016332 401644.000000 0 0 1
-19.021422 2.668584 18.902361 26.948749 -0.139384 0.793410 0.010614 0.010234 -81613.700000 0 0 1
-18.568922 3.496784 17.717861 25.902798 -0.186134 0.817546 -0.001684 0.013494 -153062.000000 0 0 1
-17.207022 3.861984 17.755761 25.025259 -0.220784 0.781989 0.004717 0.003537 -50215.600000 0 0 1
-16.931522 4.717584 16.644961 24.207163 -0.271735 0.812611 0.007343 0.002400 168325.000000 0 1 0
-15.477422 5.222884 16.392361 23.141707 -0.325453 0.783643 0.022202 -0.004272 178100.000000 0 1 0
-15.036022 6.160684 17.375461 23.789548 -0.388865 0.751915 0.022773 -0.008089 -54669.100000 0 1 0
-15.516222 7.474284 17.405961 24.486436 -0.448907 0.780103 0.008639 -0.013886 -664181.000000 0 1 0
-15.055722 8.416384 16.209161 23.669541 -0.509739 0.816452 0.013980 -0.013283 -90547.100000 0 1 0
-15.531722 8.084684 14.960061 23.030413 -0.479934 0.863766 0.008853 -0.007154 331785.000000 0 1 0
-16.925322 8.335084 14.777461 23.964839 -0.457599 0.906340 0.003815 -0.007446 310404.000000 0 1 0
-17.432022 7.619884 13.476161 23.314050 -0.412091 0.954487 0.006748 -0.004581 -291898.000000 0 1 0
-17.388822 6.274784 13.610861 22.956471 -0.346309 0.936143 0.015687 -0.002117 223906.000000 0 1 0
-17.974422 5.505184 12.578861 22.618900 -0.297207 0.981084 0.020947 0.001604 184758.000000 0 1 0
-17.449922 3.984484 12.593061 21.885179 -0.224490 0.957685 -0.000930 0.006964 361875.000000 0 1 0
-18.035722 3.368584 13.764061 22.936521 -0.184645 0.927178 -0.008031 0.012176 624449.000000 0 1 0
-17.724722 1.987084 13.677661 22.476492 -0.111642 0.916587 -0.001892 0.004486 -720153.000000 0 1 0
-18.457222 1.187084 14.732961 23.646106 -0.064227 0.898147 -0.006703 0.005951 -2246.890000 0 1 0
-19.798122 1.083184 14.273961 24.431228 -0.054657 0.946840 -0.002468 0.012005 114995.000000 0 1 0
-20.650722 0.611884 15.295161 25.705421 -0.029621 0.933510 -0.009145 0.016973 182038.000000 0 0 1
-21.999822 0.118684 14.694961 26.456533 -0.005395 0.981907 -0.000100 0.014166 -18485.200000 0 0 1
-21.948822 -1.140516 13.986161 26.051185 0.051916 1.004071 0.008010 0.002739 1036790.000000 0 0 1
-23.243622 -1.556016 13.524161 26.936779 0.066844 1.044805 0.034690 -0.000237 503922.000000 0 0 1
-23.086922 -2.652716 12.441761 26.359823 0.114400 1.079242 0.036512 -0.010044 -110295.000000 0 0 1
-22.684122 -3.916916 13.035461 26.454392 0.170986 1.055547 0.027095 -0.012233 298256.000000 0 0 1
-22.403222 -4.912816 12.046161 25.906565 0.215874 1.087179 0.028000 -0.017280 -108448.000000 0 0 1
-22.468022 -6.376116 12.606461 26.540341 0.276516 1.075841 0.035768 -0.014767 626317.000000 0 0 1
-23.643422 -6.532216 13.422961 27.961708 0.269556 1.070087 0.040056 -0.016459 818358.000000 0 0 1
-23.761622 -7.844616 13.798461 28.575343 0.318872 1.066856 0.052310 -0.021084 -550102.000000 0 0 1
-24.683722 -8.111616 14.956161 29.979513 0.317504 1.048491 0.059819 -0.011670 -49604.600000 0 0 1
-26.033962 -7.741716 14.678761 30.873409 0.289042 1.075321 0.056395 -0.014690 402999.000000 0 0 1
-26.800212 -7.869916 15.843661 32.112436 0.285622 1.054824 0.055079 -0.010560 -684804.000000 0 0 1
-28.273312 -7.435516 15.770461 33.217082 0.257164 1.076094 0.042007 -0.015931 565707.000000 0 0 1
-29.181862 -8.283516 14.970361 33.827643 0.276583 1.112358 0.034998 -0.010659 1046550.000000 0 0 1
-29.370212 -9.713016 15.209361 34.471390 0.319387 1.113842 0.030492 -0.010993 -606151.000000 0 0 1
-29.698372 -10.221716 16.623961 35.536360 0.331485 1.083995 0.021137 -0.009886 4918.280000 0 0 1
-28.596672 -10.179016 17.531261 35.053204 0.341967 1.047044 0.031158 0.004809 564429.000000 0 0 1
-28.929012 -10.842316 18.734561 36.130698 0.358587 1.025675 0.029728 0.009808 313785.000000 0 0 1
-27.662152 -11.040616 19.596861 35.652865 0.379751 0.988842 0.038818 0.009460 279119.000000 0 0 1
-26.642572 -11.819916 19.061861 34.826593 0.417559 0.991618 0.048375 0.010008 558134.000000 0 0 1
-25.444672 -11.956416 19.852961 34.416962 0.439278 0.955946 0.057193 0.001673 1432490.000000 0 0 1
-24.353322 -12.924316 19.262861 33.633020 0.487905 0.960956 0.056027 -0.000461 292975.000000 0 0 1
-23.862322 -12.513216 18.010461 32.409377 0.482970 0.981570 0.052950 0.000874 17501.900000 0 0 1
-22.936122 -13.438316 17.505561 31.829211 0.529989 0.988451 0.043433 -0.005723 -320481.000000 0 0 1
-22.684522 -13.429116 15.989661 30.831769 0.534512 1.025572 0.038354 -0.007334 -345170.000000 0 0 1
-22.013522 -12.224416 15.620461 29.631576 0.506914 1.015546 0.037021 -0.013200 95476.000000 0 0 1
-21.361722 -12.291616 14.356961 28.522435 0.522138 1.043317 0.066271 -0.010608 375664.000000 0 0 1
-20.125322 -11.356716 14.373361 27.213914 0.513756 1.014362 0.033588 -0.009553 -147028.000000 0 0 1
-20.516622 -9.985116 14.308061 26.932414 0.452938 1.010712 0.018270 -0.009427 128439.000000 0 0 1
-19.662822 -9.150116 13.547561 25.571226 0.435546 1.012435 0.006861 -0.012546 -302496.000000 0 0 1
-19.350722 -9.404016 12.057961 24.663341 0.452367 1.059966 0.018162 -0.000743 -837039.000000 0 1 0
-18.584022 -10.515116 11.860461 24.425480 0.514904 1.063773 0.009850 -0.005128 -275236.000000 0 1 0
-18.493222 -10.666116 10.440561 23.764903 0.523155 1.115947 0.020716 -0.000256 -861802.000000 0 1 0
-17.697422 -11.859016 9.915261 23.497817 0.590375 1.135184 0.009924 -0.002172 1959490.000000 0 1 0
-16.236022 -11.888816 9.966661 22.456329 0.632044 1.110935 0.006579 -0.009097 2221600.000000 0 1 0
-15.552022 -11.626916 11.228061 22.430335 0.641973 1.046534 0.011241 -0.009849 838528.000000 0 1 0
-14.015122 -11.971616 11.070961 21.501382 0.706923 1.029911 0.011063 -0.012938 1035020.000000 0 1 0
-13.793022 -13.317316 10.900561 22.054945 0.767853 1.053829 0.006507 -0.014313 816804.000000 0 1 0
-12.405322 -13.696316 10.827861 21.417835 0.834818 1.040773 0.013805 -0.014890 974093.000000 0 1 0
-12.232822 -15.266816 10.831361 22.361485 0.895282 1.065147 0.026246 -0.008725 -155961.000000 0 1 0
-12.460622 -15.811416 9.569261 22.289880 0.903368 1.127068 0.014478 -0.011201 29939.400000 0 1 0
-12.460222 -17.179416 9.689761 23.329829 0.943292 1.142482 0.010006 -0.006301 122844.000000 0 1 0
-12.916022 -17.888016 8.323461 23.581449 0.945425 1.210057 0.002594 0.000098 -676068.000000 0 1 0
-12.025822 -17.775616 7.284861 22.664115 0.975993 1.243560 0.010645 -0.009287 -539994.000000 0 1 0
-12.490322 -18.388616 6.124861 23.057825 0.974138 1.301939 0.008900 -0.006757 -202675.000000 0 1 0
-11.486922 -18.204216 4.974161 22.092649 1.007892 1.343699 0.010712 -0.007400 -94868.900000 0 1 0
-11.893722 -18.798816 3.751861 22.559534 1.006690 1.403711 0.021711 -0.015028 -27520.000000 0 1 0
-10.913122 -18.713616 2.758661 21.838175 1.042848 1.444135 0.017294 -0.023380 -256638.000000 0 1 0
-11.210622 -19.669716 1.609061 22.697244 1.052771 1.499844 0.024987 -0.015564 691.381000 0 1 0
-11.011122 -21.021916 1.844961 23.802724 1.088296 1.493208 0.017969 -0.020378 -142004.000000 0 1 0
-11.513722 -21.852216 0.801961 24.712918 1.085869 1.538340 0.027150 -0.019795 -392793.000000 0 1 0
-10.619322 -22.056716 -0.416939 24.483516 1.122094 1.587827 0.037276 -0.015363 -202973.000000 0 1 0
-10.552822 -20.991216 -1.314039 23.531254 1.104971 1.626668 0.033679 -0.029609 -577795.000000 0 1 0
-11.530922 -21.039916 -2.295339 24.102050 1.069452 1.666175 0.038540 -0.021368 214225.000000 0 1 0
-12.511822 -19.784416 -2.253439 23.516947 1.006888 1.666766 0.033534 -0.025281 933611.000000 0 1 0
-13.402522 -19.823416 -1.108139 23.954611 0.976294 1.617073 0.032149 -0.021313 85811.700000 0 1 0
-14.286022 -18.755216 -1.200939 23.607008 0.919843 1.621690 0.030292 -0.020179 -264973.000000 0 1 0
25.202578 -19.948116 -4.310639 32.429599 -0.669543 1.704114 0.017213 -0.013597 365667.000000 0 0 1
24.022778 -20.261516 -3.561739 31.627660 -0.700667 1.683650 0.004629 -0.004488 550749.000000 0 0 1
24.254378 -21.444416 -2.825139 32.497988 -0.723987 1.657839 0.002614 -0.002298 -117696.000000 0 0 1
22.997778 -21.994916 -2.154839 31.895414 -0.763112 1.638407 0.003826 0.010730 580036.000000 0 0 1
21.987078 -22.705016 -2.923039 31.741038 -0.801461 1.663017 0.009547 0.002783 575274.000000 0 0 1
20.942978 -23.073216 -2.048139 31.227816 -0.833757 1.636430 0.016971 0.003896 282534.000000 0 0 1
19.713778 -23.703216 -2.779239 30.954801 -0.877027 1.660701 0.011540 -0.005597 168430.000000 0 0 1
18.982278 -22.721816 -3.466339 29.809786 -0.874827 1.687342 0.012681 -0.009554 -18548.900000 0 0 1
17.936478 -23.354216 -4.223239 29.748486 -0.915863 1.713242 0.008849 -0.005737 703684.000000 0 0 1
17.136178 -22.327216 -5.130539 28.609013 -0.916188 1.751105 0.004836 0.002395 717192.000000 0 0 1
16.198878 -21.458216 -4.414539 27.246043 -0.924164 1.733539 0.001955 0.006655 1385490.000000 0 0 1
16.808778 -20.481116 -3.519839 26.728270 -0.883562 1.702870 0.004377 0.004383 555280.000000 0 0 1
15.653278 -19.939416 -2.606939 25.483359 -0.905243 1.673275 -0.000262 0.003080 785787.000000 0 0 1
15.080278 -21.011316 -1.795339 25.925151 -0.948275 1.640103 0.000606 0.006475 317331.000000 0 0 1
14.225978 -20.528816 -0.771039 24.988102 -0.964800 1.601657 -0.008589 0.011853 -153390.000000 0 1 0
14.027578 -21.474716 0.411961 25.653579 -0.992165 1.554737 0.005335 0.010621 -323710.000000 0 0 1
13.195178 -22.592816 0.285561 26.165428 -1.042192 1.559882 -0.002154 0.004354 -297877.000000 0 0 1
12.622078 -22.864016 1.562861 26.163383 -1.066381 1.511026 0.010412 0.008875 -146985.000000 0 0 1
11.715478 -24.093316 1.549861 26.835469 -1.118206 1.513010 0.008848 0.005160 -17890.500000 0 0 1
12.379078 -25.364856 1.498661 28.264173 -1.116762 1.517748 0.013092 0.001337 262572.000000 0 0 1
11.518478 -26.373476 1.004161 28.796596 -1.159020 1.535918 0.018690 -0.006892 230893.000000 0 0 1
12.000878 -27.759486 1.526161 30.281006 -1.162745 1.520375 0.021608 -0.004845 168790.000000 0 0 1
11.678278 -27.844556 2.894061 30.332772 -1.173670 1.475241 0.029310 -0.014592 39374.400000 0 0 1
12.242878 -28.945656 3.542761 31.627365 -1.170654 1.458545 0.038220 -0.019993 -96254.800000 0 0 1
11.573178 -29.260746 4.902661 31.845970 -1.194159 1.416232 0.036862 -0.008866 -209376.000000 0 0 1
12.361778 -30.147776 5.633161 33.067121 -1.181665 1.399606 0.034700 -0.017038 -523845.000000 0 0 1
11.837178 -30.501656 6.865061 33.430508 -1.200605 1.363972 0.025420 -0.012939 -522579.000000 0 0 1
12.800478 -31.354676 7.697561 34.730684 -1.183200 1.347305 0.031124 -0.003714 -209444.000000 0 0 1
12.388478 -31.735546 8.990961 35.234311 -1.198623 1.312766 0.022247 -0.006009 -320051.000000 0 0 1
11.547978 -32.868256 9.028761 35.988840 -1.232927 1.317211 0.013819 -0.007424 388651.000000 0 0 1
11.005078 -33.217866 10.477261 36.528227 -1.250877 1.279884 0.017067 -0.002760 -168258.000000 0 0 1
12.051078 -33.706916 11.272761 37.529453 -1.227433 1.265715 0.009561 -0.002518 -63242.200000 0 0 1
11.767578 -33.900186 12.660961 38.052575 -1.236686 1.231607 0.013922 0.002158 124212.000000 0 0 1
10.590778 34.215160 12.977061 38.095220 1.270615 1.223190 0.018170 -0.002556 114530.000000 0 0 1
10.999178 32.913908 12.693961 36.951913 1.248284 1.220127 0.006261 0.000399 568106.000000 0 0 1
9.958078 31.984068 13.019161 35.939427 1.268964 1.200113 0.013033 0.006148 244999.000000 0 0 1
10.043978 30.798588 12.061161 34.567414 1.255553 1.214381 0.006911 0.008540 -222838.000000 0 0 1
9.702978 31.013988 10.742261 34.225887 1.267585 1.251537 0.006122 0.004867 175718.000000 0 0 1
10.691178 31.701098 9.987061 34.914213 1.245525 1.280699 -0.000369 0.001290 174128.000000 0 0 1
10.175278 32.029878 8.539361 34.675208 1.263199 1.321970 0.000560 0.000462 231212.000000 0 0 1
9.033578 32.861908 8.469861 35.117646 1.302528 1.327209 0.011897 -0.001893 -106711.000000 0 0 1
8.519478 33.085311 7.163861 34.907595 1.318771 1.364104 0.005523 -0.007845 -126731.000000 0 0 1
9.066078 34.309817 6.389361 36.058026 1.312459 1.392659 0.015065 -0.005777 -18641.500000 0 0 1
8.529278 -33.521556 6.862161 35.263757 -1.321642 1.374952 0.013071 -0.004132 407160.000000 0 0 1
8.925878 -32.419036 5.996061 34.155789 -1.302125 1.394332 0.032626 -0.014854 51130.200000 0 0 1
8.012078 -31.171436 6.284061 32.792396 -1.319210 1.377972 0.014413 -0.007671 124370.000000 0 0 1
8.070178 -30.688506 7.627261 32.635675 -1.313648 1.334905 0.028948 -0.004900 2663.340000 0 0 1
7.447178 -29.430206 7.812361 31.346937 -1.322953 1.318919 0.020324 -0.001359 -51657.200000 0 0 1
8.390578 -28.253086 7.504061 30.412984 -1.282113 1.321483 0.030010 -0.006580 -201936.000000 0 0 1
9.084378 -27.771846 8.620861 30.465072 -1.254659 1.283902 0.032792 -0.002020 186781.000000 0 0 1
9.874678 -26.562456 8.344361 29.541525 -1.214875 1.284437 0.024674 -0.004652 437164.000000 0 0 1
9.332978 -25.339186 7.522661 28.031576 -1.217893 1.299102 0.028339 -0.006795 -363283.000000 0 0 1
9.060578 -25.736546 6.172161 27.974264 -1.232295 1.348329 0.037663 -0.010092 -219334.000000 0 0 1
8.404078 -24.677016 5.494561 26.641581 -1.242553 1.363066 0.032641 -0.006191 -41731.300000 0 0 1
8.210578 -25.080336 4.014661 26.693714 -1.254421 1.419826 0.028414 -0.006422 574015.000000 0 0 1
7.205978 -26.096986 3.836161 27.344011 -1.301386 1.430039 0.022546 -0.009280 -65342.600000 0 0 1
7.698278 -27.411636 3.861061 28.732718 -1.297009 1.436010 0.025802 -0.007786 -385789.000000 0 0 1
6.746278 -28.529856 3.454261 29.519432 -1.338598 1.453511 0.026628 -0.010818 167476.000000 0 0 1
5.723178 -28.788496 4.437161 29.685361 -1.374554 1.420761 0.020948 -0.006264 464278.000000 0 0 1
4.583978 -29.478996 3.964061 30.095479 -1.416532 1.438696 0.019818 -0.001224 117144.000000 0 0 1
4.727578 -31.005926 4.126461 31.634556 -1.419488 1.439982 0.017124 -0.003987 -638336.000000 0 0 1
5.750778 -31.617416 3.404061 32.315942 -1.390877 1.465264 0.019053 -0.004809 -278920.000000 0 0 1
5.735278 -33.062816 3.653161 33.754834 -1.399039 1.462358 0.006864 -0.002120 -454194.000000 0 0 1
6.903578 -33.801116 3.029161 34.631643 -1.369326 1.483216 0.009716 -0.010139 -573890.000000 0 0 1
6.706278 -34.135290 1.655261 34.827175 -1.376805 1.523251 0.014930 -0.006413 128123.000000 0 0 1
7.667778 34.002413 1.168461 34.875840 1.348999 1.537287 0.008240 -0.005643 -339479.000000 0 0 1
7.304378 33.546083 -0.241939 34.332960 1.356401 1.577843 0.016976 -0.002840 692715.000000 0 0 1
6.122378 32.746738 -0.223639 33.314897 1.385969 1.577509 0.007471 -0.002546 273597.000000 0 0 1
4.872978 33.403716 -0.281239 33.758454 1.425937 1.579127 0.008149 -0.003249 -97000.400000 0 0 1
3.662978 32.445828 -0.181839 32.652446 1.458377 1.576365 0.010425 -0.002937 31544.100000 0 0 1
3.525878 31.469668 -1.188539 31.688869 1.459221 1.608312 0.012328 -0.000833 116928.000000 0 0 1
2.517078 30.571998 -0.724939 30.684006 1.488649 1.594424 0.011565 -0.007337 238715.000000 0 0 1
2.212078 29.411328 -1.742239 29.545810 1.495726 1.629798 0.001340 -0.002683 -9840.910000 0 0 1
1.663278 29.914488 -2.938939 30.104492 1.515252 1.668577 0.005146 -0.006046 -64983.400000 0 0 1
1.662578 28.944718 -3.964839 29.262276 1.513420 1.706708 0.012717 -0.010561 -171426.000000 0 0 1
1.358978 29.420518 -5.384339 29.940020 1.524638 1.751618 0.007190 -0.016211 -117117.000000 0 0 1
0.028578 29.855498 -5.525639 30.362547 1.569839 1.753805 0.004652 -0.009599 -319490.000000 0 0 1
-0.183322 30.722198 -6.615239 31.426874 -1.564829 1.782879 0.001450 -0.008649 -292731.000000 0 0 1
-0.239222 30.218658 -8.125339 31.292901 -1.562880 1.833461 0.004780 -0.011614 -277922.000000 0 0 1
-1.322722 29.449828 -8.626839 30.715864 -1.525912 1.855486 0.006334 -0.009796 -243654.000000 0 0 1
-1.312622 29.062688 -10.008439 30.765754 -1.525662 1.902137 0.013452 -0.010207 -110664.000000 0 0 1
-1.611022 30.187538 -10.985239 32.164550 -1.517480 1.919343 0.011911 -0.011682 177479.000000 0 0 1
-0.478422 31.041918 -11.172939 32.994910 -1.555385 1.916253 0.014708 -0.010065 96204.900000 0 0 1
-0.728122 32.374458 -11.613839 34.402281 -1.548309 1.915151 0.013816 -0.009732 104073.000000 0 0 1
-1.055322 33.391004 -10.446539 35.002900 -1.539202 1.873862 0.002049 -0.009113 862404.000000 0 0 1
0.124278 33.642854 -9.663639 35.003471 1.567102 1.850506 0.009756 -0.018142 559732.000000 0 0 1
-0.228222 34.487644 -8.587039 35.541341 -1.564179 1.814818 0.007697 -0.009164 -378236.000000 0 0 1
0.902378 -34.223105 -7.615239 35.071742 -1.544435 1.789673 0.024864 -0.012746 25189.800000 0 0 1
1.891078 -33.344316 -8.108239 34.368054 -1.514143 1.808965 0.024456 -0.007598 95989.100000 0 0 1
2.780478 -32.914236 -7.063239 33.778208 -1.486520 1.781457 0.024693 -0.012028 299777.000000 0 0 1
4.056278 -32.209456 -7.671839 33.358051 -1.445521 1.802858 0.010171 -0.008298 1160770.000000 0 0 1
4.975278 -33.040516 -8.422739 34.458259 -1.421338 1.817731 0.022679 -0.007779 866468.000000 0 0 1
5.729278 -33.914956 -7.553439 35.215101 -1.403446 1.786970 0.035832 -0.002515 -1046850.000000 0 0 1
6.055178 33.780019 -8.221239 35.289426 1.393427 1.805923 0.033023 -0.005924 -159835.000000 0 0 1
5.071778 32.778708 -8.388939 34.213169 1.417286 1.818518 0.029570 -0.008432 -343070.000000 0 0 1
4.095778 33.067788 -9.379639 34.615482 1.447564 1.845193 0.038179 -0.017317 241158.000000 0 0 1
3.124278 31.939418 -9.734739 33.535841 1.473288 1.865314 0.044056 -0.022593 163800.000000 0 0 1
3.825478 30.764738 -10.124539 32.613029 1.447085 1.886457 0.040184 -0.023191 29238.000000 0 0 1
2.924178 29.684698 -10.293039 31.554378 1.472605 1.903077 0.023451 -0.016126 -52806.700000 0 0 1
3.480278 28.461288 -11.070839 30.736309 1.449119 1.939265 0.020790 -0.016873 -151566.000000 0 0 1
3.544578 28.914098 -12.395339 31.658072 1.448815 1.973099 0.031308 -0.014064 13387.800000 0 0 1
4.877578 28.911598 -12.874039 32.022057 1.403663 1.984536 0.035331 -0.006346 -12177.600000 0 0 1
4.976978 29.376428 -14.362039 33.075867 1.402969 2.019963 0.042714 -0.008343 -260818.000000 0 0 1
4.287778 28.647398 -15.327439 32.771769 1.422225 2.057486 0.048391 -0.010514 -233043.000000 0 0 1
4.457978 29.250218 -16.594939 33.924045 1.419552 2.081945 0.050725 -0.006015 -103887.000000 0 0 1
3.469978 28.688128 -17.624139 33.847595 1.450426 2.118456 0.036001 -0.004223 33606.000000 0 0 1
3.718078 27.352058 -18.049239 32.980816 1.435690 2.149889 0.043653 -0.002526 -47576.200000 0 0 1
2.876678 27.052378 -19.149039 33.268485 1.464857 2.184123 0.043253 -0.009235 308642.000000 0 0 1
3.331578 25.759168 -19.903439 32.722791 1.442175 2.224643 0.046127 -0.006139 296270.000000 0 0 1
3.190178 24.566428 -19.166139 31.321358 1.441660 2.229281 0.044413 -0.016579 -65706.800000 0 0 1
4.024278 23.534598 -19.662239 30.930175 1.401440 2.259708 0.043643 -0.009725 49013.800000 0 0 1
4.500178 22.505398 -18.647839 29.571717 1.373439 2.253119 0.038086 -0.001140 504682.000000 0 0 1
3.505678 21.569898 -18.185139 28.429730 1.409679 2.264842 0.046666 -0.005411 18999.200000 0 0 1
4.156178 20.314998 -17.991339 27.452891 1.368994 2.285446 0.037745 0.000494 539633.000000 0 0 1
3.223378 19.091198 -17.653139 26.201094 1.403533 2.310076 0.031430 -0.009460 129356.000000 0 0 1
2.481378 19.280398 -16.490639 25.491806 1.442800 2.274308 0.024493 -0.013280 -388308.000000 0 0 1
1.635978 18.189098 -16.164939 24.389034 1.481095 2.295342 0.007565 -0.003590 226809.000000 0 1 0
2.355878 17.001198 -15.477139 23.111312 1.433102 2.304572 0.000591 0.001942 -277985.000000 0 1 0
3.234078 16.184498 -16.185239 23.116211 1.373568 2.346430 0.018145 -0.008407 -565243.000000 0 1 0
2.706378 15.275398 -17.145039 23.121735 1.395444 2.406117 0.021584 -0.006521 -155431.000000 0 1 0
2.565278 15.755398 -18.597639 24.508884 1.409394 2.432284 0.009830 -0.002872 -198713.000000 0 1 0
3.790478 15.827698 -19.290339 25.238877 1.335739 2.440768 0.026269 0.000863 -182909.000000 0 0 1
3.548578 16.181598 -20.693939 26.508030 1.354917 2.466528 0.007665 0.000829 -133382.000000 0 0 1
3.985078 15.032398 -21.655539 26.661137 1.311658 2.518797 0.016132 -0.010977 147831.000000 0 0 1
3.080878 13.986798 -21.885039 26.154871 1.353988 2.562114 0.025985 -0.007394 -642565.000000 0 0 1
1.888478 14.323098 -22.533539 26.767104 1.439704 2.571474 0.032244 -0.009635 -534538.000000 0 0 1
1.075978 13.099798 -22.923539 26.424441 1.488843 2.620976 0.035967 -0.014472 -288563.000000 0 0 1
0.577678 12.386698 -21.824439 25.101198 1.524193 2.624901 0.033356 -0.010708 225157.000000 0 0 1
-0.251822 11.320198 -22.330639 25.037327 -1.548555 2.672312 0.032881 -0.011769 113378.000000 0 0 1
-0.806422 10.377298 -21.245939 23.658583 -1.493242 2.686050 0.028543 -0.015512 -866760.000000 0 1 0
-1.733022 11.075398 -20.416339 23.291516 -1.415580 2.639458 0.024987 -0.011988 176023.000000 0 1 0
-2.448322 10.299998 -19.454939 22.149016 -1.337426 2.643229 0.018898 -0.007788 288585.000000 0 1 0
-3.490922 9.386898 -20.102039 22.458681 -1.214752 2.679379 0.032992 -0.008731 -1108500.000000 0 1 0
-2.836022 8.247598 -20.586039 22.357346 -1.239602 2.740854 0.027998 -0.020561 -721613.000000 0 1 0
-3.665122 7.416798 -21.277139 22.828900 -1.111828 2.770762 0.024588 -0.006067 -71222.400000 0 1 0
-2.794922 6.328698 -22.034239 23.094842 -1.154927 2.837357 0.021755 -0.010594 414143.000000 0 1 0
-2.229622 5.397398 -21.147139 21.938656 -1.179055 2.872157 0.029652 -0.010773 -2698.480000 0 1 0
-1.856022 4.253598 -21.967639 22.452507 -1.159358 2.933393 0.031027 -0.012729 -478626.000000 0 1 0
-1.249222 3.045398 -21.174639 21.428961 -1.181528 2.987374 0.024793 -0.009069 -608456.000000 0 1 0
0.106378 3.256198 -20.970139 21.221708 1.538139 2.987464 0.019348 -0.010580 -613519.000000 0 1 0
0.755778 2.328598 -20.041239 20.190216 1.256959 3.020038 0.018149 -0.011313 602496.000000 0 1 0
2.298278 2.330298 -20.105039 20.369707 0.792316 2.980215 0.010105 -0.012303 109282.000000 0 1 0
2.808478 1.815698 -21.339939 21.600401 0.573915 2.986142 0.019841 -0.012120 -530066.000000 0 1 0
4.213278 1.916498 -21.340639 21.836840 0.426897 2.928006 0.035779 -0.005335 76327.300000 0 1 0
4.810478 1.016398 -22.487639 23.018855 0.208226 2.926341 0.034348 -0.010548 -545480.000000 0 1 0
6.200778 1.034198 -22.512539 23.373781 0.165264 2.869288 0.032244 -0.009074 -668807.000000 0 1 0
6.731078 0.436698 -23.689639 24.631223 0.064787 2.864200 0.026807 -0.011202 -466371.000000 0 1 0
8.228378 0.701398 -23.821539 25.212376 0.085036 2.807887 0.024055 -0.012807 -386884.000000 0 0 1
8.501278 2.043898 -24.114839 25.651018 0.235944 2.793756 0.023520 -0.014578 393843.000000 0 0 1
9.913378 2.207398 -24.249039 26.289990 0.219094 2.744962 0.012089 -0.010858 122516.000000 0 0 1
13.586278 -21.067516 22.001577 33.354109 -0.998020 0.850462 0.009714 0.018424 465144.000000 0 0 1
12.510978 -21.943616 22.415477 33.771296 -1.052621 0.844984 0.009574 0.021034 423620.000000 0 0 1
11.182678 -21.681416 22.064277 32.893288 -1.094610 0.835532 0.010983 0.013649 123068.000000 0 0 1
10.789278 -21.617516 20.578677 31.736532 -1.107870 0.865286 0.022353 -0.007322 -550129.000000 0 0 1
11.266778 -20.453616 19.954877 30.716247 -1.067304 0.863669 0.013554 -0.007645 -140347.000000 0 0 1
10.716778 -20.328516 18.681777 29.615987 -1.085642 0.888212 0.046894 -0.024239 69255.900000 0 0 1
11.046878 -18.984916 18.091077 28.456065 -1.043809 0.881810 0.050578 -0.022205 20180.400000 0 0 1
10.261178 -18.009016 18.742277 27.944398 -1.052894 0.835646 0.056774 -0.022728 -303203.000000 0 0 1
10.640378 -16.717616 18.436077 27.066312 -1.003986 0.821471 0.055882 -0.018834 -781250.000000 0 0 1
9.746278 -15.653116 18.991877 26.470764 -1.013895 0.770638 0.047088 -0.010186 -111553.000000 0 0 1
8.428478 -15.690216 18.476877 25.663536 -1.077849 0.767043 0.043040 -0.013704 -235712.000000 0 0 1
7.638378 -14.636516 18.978577 25.154697 -1.089805 0.715943 0.024339 -0.008887 -375687.000000 0 0 1
6.164278 -14.747416 18.598577 24.523288 -1.174878 0.709934 0.001671 -0.004470 -507415.000000 0 1 0
5.954578 -14.655116 17.186377 23.358103 -1.184859 0.743982 0.009466 -0.013278 235009.000000 0 1 0
4.575678 -14.859016 16.881077 22.949901 -1.272072 0.744300 -0.006811 -0.009891 323021.000000 0 1 0
4.026278 -16.276116 16.777277 23.719188 -1.328291 0.785083 -0.011689 -0.011196 -773097.000000 0 1 0
2.699478 -16.308516 16.340977 23.243976 -1.406758 0.791161 -0.003507 -0.008994 -726788.000000 0 1 0
2.037278 -17.536316 16.499177 24.163934 -1.455140 0.819206 -0.007472 -0.010902 1120560.000000 0 1 0
0.495478 -17.306016 16.266077 23.755609 -1.542174 0.816569 -0.007522 -0.003883 1039820.000000 0 1 0
0.143478 -17.269616 14.856977 22.781352 -1.562488 0.860372 -0.003317 -0.009106 163422.000000 0 1 0
-1.217522 -17.614016 14.629277 22.929275 1.501784 0.878876 -0.001136 -0.000360 279725.000000 0 1 0
-1.669722 -17.798816 13.178677 22.209533 1.477259 0.935546 -0.005526 -0.014153 -43711.500000 0 1 0
-3.019922 -18.070416 12.887577 22.399766 1.405207 0.957771 -0.004604 -0.010696 -181998.000000 0 1 0
-3.183922 -19.382016 12.400477 23.228683 1.407979 1.007657 0.004451 -0.010067 -464333.000000 0 1 0
-4.647822 -19.783616 12.221677 23.714196 1.340048 1.029352 0.004307 -0.007530 -349675.000000 0 1 0
-5.168022 -20.105416 13.509777 24.767928 1.319197 0.993865 -0.002711 -0.009300 -123045.000000 0 1 0
-5.799022 -21.378916 13.323877 25.849805 1.305920 1.029282 -0.015127 -0.001431 227418.000000 0 0 1
-6.391622 -22.124116 14.575977 27.254146 1.289555 1.006505 -0.016177 0.007383 797132.000000 0 0 1
-7.686022 -21.748516 15.069977 27.553168 1.231092 0.992090 -0.008106 0.006819 268788.000000 0 0 1
-8.185422 -22.734316 15.924777 28.938707 1.225199 0.988081 -0.010361 0.000367 -113954.000000 0 0 1
-9.686022 -22.396416 16.102877 29.235614 1.162606 0.987478 0.010400 0.000639 -35981.900000 0 0 1
-9.920522 -21.221216 16.869577 28.867618 1.133500 0.946684 0.000409 -0.005000 -172922.000000 0 0 1
-11.121122 -20.628416 16.405677 28.606942 1.076347 0.960042 0.028207 -0.006888 66948.500000 0 0 1
-11.452322 -19.412816 17.292777 28.408682 1.037810 0.916357 0.020692 -0.000992 -316583.000000 0 0 1
-12.005522 -19.836616 18.520277 29.675319 1.026547 0.896821 0.024659 -0.005423 -24720.000000 0 0 1
-12.302922 -18.800416 19.466477 29.728122 0.991337 0.856856 0.018631 -0.003222 -256398.000000 0 0 1
-12.837522 -19.297216 20.783977 31.131306 0.983773 0.839785 0.023574 -0.010025 -573316.000000 0 0 1
-14.136522 -19.810616 20.729277 31.968808 0.951012 0.865287 0.017283 -0.009198 -315540.000000 0 0 1
-14.364722 -20.444816 21.981077 33.279175 0.958321 0.849305 0.031095 -0.003624 -479523.000000 0 0 1
-15.706522 -21.151516 21.894777 34.255842 0.932066 0.877398 0.031512 -0.005585 -1419970.000000 0 0 1
-15.626922 -22.357716 21.082877 34.475438 0.960776 0.912799 0.038387 -0.011956 696236.000000 0 0 1
-16.862122 -22.756016 20.485877 34.954808 0.933083 0.944599 0.028648 -0.000848 142254.000000 0 0 1
-17.921422 -23.329916 21.400077 36.378918 0.915765 0.941897 0.024281 -0.001757 -1002020.000000 0 0 1
-18.304522 -22.406716 22.406477 36.594626 0.885822 0.911844 0.026416 0.002769 -80978.100000 0 0 1
-19.333422 -22.934716 23.257277 37.956335 0.870394 0.911276 0.023396 0.006288 281648.000000 0 0 1
-19.828322 -21.792916 24.145457 38.093262 0.832565 0.884274 0.022437 0.012272 -428334.000000 0 0 1
-20.681222 -20.868116 23.565377 37.663221 0.789896 0.894785 0.020380 0.017581 -126776.000000 0 0 1
-20.672022 -19.788816 24.462527 37.647642 0.763573 0.863507 0.024989 0.010818 176336.000000 0 0 1
-21.705122 -18.706816 24.067417 37.420554 0.711340 0.872178 0.032393 0.009169 -103007.000000 0 0 1
-21.388322 -18.119916 22.832077 36.153775 0.702859 0.887276 0.031096 0.014039 -146390.000000 0 0 1
-22.384822 -17.339116 22.216577 35.990297 0.659055 0.905498 0.041215 0.003273 -434936.000000 0 0 1
-21.891922 -16.772116 20.856077 34.576525 0.653746 0.923307 0.042195 0.009278 317878.000000 0 0 1
-20.827922 -15.831216 20.933477 33.505823 0.649931 0.895958 0.040295 0.012061 -64674.800000 0 0 1
-20.531622 -15.393716 19.594677 32.287232 0.643345 0.918659 0.036849 0.002038 489251.000000 0 0 1
-19.338422 -14.399316 19.380277 30.933962 0.640034 0.893736 0.033516 -0.006104 417843.000000 0 0 1
-18.862422 -14.448416 18.058977 29.844168 0.653656 0.920893 0.038946 -0.006930 -13503.800000 0 0 1
-18.278522 -13.203516 17.670777 28.647750 0.625570 0.906088 0.031807 -0.013825 -262882.000000 0 0 1
-17.654522 -13.403216 16.246577 27.482351 0.649360 0.938295 0.013345 -0.020273 158041.000000 0 0 1
-17.193722 -12.256216 15.530777 26.211523 0.619285 0.936616 0.004678 -0.014215 666128.000000 0 0 1
-16.087422 -11.523516 16.082577 25.499919 0.621586 0.888353 -0.009455 -0.012482 205240.000000 0 0 1
-15.812522 -10.198216 15.293877 24.247518 0.572814 0.888290 -0.000343 -0.016641 -72089.200000 0 1 0
-16.682122 -9.117116 15.582677 24.581188 0.500168 0.884176 -0.002387 -0.006517 245256.000000 0 1 0
-16.407222 -7.943616 14.810477 23.487192 0.450890 0.888500 -0.006508 -0.003708 -915315.000000 0 1 0
-16.776422 -6.638816 15.563877 23.827641 0.376814 0.859012 -0.003233 0.005794 855012.000000 0 1 0
-15.893922 -6.394816 16.702377 23.926551 0.382525 0.798100 0.000698 0.012551 910555.000000 0 1 0
-14.512122 -6.216816 16.399477 22.763860 0.404737 0.766393 0.002442 0.004588 -378109.000000 0 1 0
-13.769022 -6.284816 17.750877 23.327634 0.428202 0.706039 0.003748 0.008919 -261661.000000 0 1 0
-13.841422 -7.520216 18.466677 24.272552 0.497694 0.706244 0.004846 0.002877 78700.000000 0 1 0
-13.228122 -8.586816 17.760177 23.751642 0.575766 0.726137 0.009745 0.007873 -339873.000000 0 1 0
-13.008222 -9.861516 18.731977 24.846535 0.648664 0.716807 0.003910 0.006060 533476.000000 0 1 0
-14.168622 -10.644716 19.033377 26.006331 0.644325 0.749727 0.012151 0.004948 218901.000000 0 0 1
-14.850022 -10.183516 20.176577 27.042955 0.601103 0.728620 0.010996 0.002386 -646919.000000 0 0 1
-16.252322 -10.857116 20.391077 28.245547 0.588949 0.764221 0.010080 0.005050 1163670.000000 0 0 1
-17.290322 -10.530816 19.450477 28.074443 0.547053 0.805407 0.016733 -0.006475 655468.000000 0 0 1
-17.518322 -9.162616 19.174277 27.540843 0.481902 0.800689 0.016427 -0.002360 -1025150.000000 0 0 1
-18.715822 -8.959416 18.226177 27.617868 0.446469 0.850055 0.019818 -0.013021 955692.000000 0 0 1
-20.038622 -9.205816 18.725277 28.929732 0.430646 0.866802 0.024916 -0.011004 1676260.000000 0 0 1
-21.047022 -9.066516 17.658877 28.931208 0.406751 0.914263 0.042768 -0.019218 1978910.000000 0 0 1
-22.538622 -9.349616 18.095977 30.378762 0.393222 0.932686 0.045751 -0.010429 804574.000000 0 0 1
-22.973022 -8.239116 18.844677 30.834471 0.344354 0.913276 0.048033 -0.003836 1639050.000000 0 0 1
-24.396322 -8.347116 19.130177 32.106363 0.329661 0.932488 0.049351 -0.000574 1205560.000000 0 0 1
-25.081132 -7.367016 20.032677 32.933938 0.285692 0.916919 0.048426 -0.001953 -244465.000000 0 0 1
-24.802322 -7.621816 21.416677 33.644038 0.298143 0.880758 0.054705 -0.006423 446687.000000 0 0 1
-25.627502 -6.789216 22.210977 34.585977 0.258970 0.873437 0.046020 -0.012440 -663282.000000 0 0 1
-25.534682 -7.160916 23.704277 35.569530 0.273416 0.841398 0.045307 -0.004423 761181.000000 0 0 1
-24.400222 -6.766116 24.511987 35.241859 0.270501 0.801631 0.031960 -0.004127 759629.000000 0 0 1
-23.124722 -7.188616 24.063337 34.139027 0.301393 0.788566 0.033614 -0.005199 -1001520.000000 0 0 1
-22.123922 -6.879816 25.139727 34.187800 0.301488 0.744625 0.029173 -0.001316 -836935.000000 0 0 1
-21.579322 -5.572816 25.107127 33.572179 0.252726 0.725971 0.019930 -0.000697 -39884.600000 0 0 1
-20.845722 -5.367316 26.263307 33.957525 0.252004 0.686583 0.021707 -0.004170 47179.100000 0 0 1
-20.121122 -3.945116 26.249777 33.308772 0.193612 0.663122 0.022284 -0.005113 262613.000000 0 0 1
-19.211622 -3.683316 27.319237 33.600505 0.189425 0.621407 0.021503 -0.004595 -397505.000000 0 0 1
-19.682422 -3.446016 28.629317 34.912899 0.173324 0.609348 0.010535 -0.001212 -444029.000000 0 0 1
-20.378622 -2.119416 28.914047 35.437300 0.103629 0.616475 0.011385 -0.010004 705566.000000 0 0 1
-21.664822 -2.021116 28.292867 35.692236 0.093021 0.655588 0.016052 -0.006976 145837.000000 0 0 1
-22.380222 -0.901916 28.799397 36.484148 0.040278 0.661018 0.014600 -0.013748 1079120.000000 0 0 1
-23.788122 -0.760716 28.104307 36.828053 0.031968 0.702666 0.015710 -0.004874 265771.000000 0 0 1
-23.669122 -0.285716 26.778747 35.740876 0.012071 0.723872 0.012208 -0.003264 415928.000000 0 0 1
-24.907022 0.006284 26.120697 36.092251 -0.000252 0.761618 0.007665 -0.001558 503962.000000 0 0 1
-25.709112 -1.257916 25.587987 36.294433 0.048890 0.788357 0.007027 0.001179 -18678.600000 0 0 1
-26.395482 -1.935816 26.619007 37.537187 0.073208 0.782523 0.007585 -0.002159 -195189.000000 0 0 1
-26.973462 -3.141816 26.302967 37.805882 0.115956 0.801350 0.007767 0.001728 -197858.000000 0 0 1
-26.044532 -4.365816 26.444497 37.372308 0.166085 0.784706 0.012382 -0.007542 39220.800000 0 0 1
-25.639622 -4.669616 27.757697 38.074733 0.180150 0.753890 0.010639 -0.004448 -675860.000000 0 0 1
-24.745322 -5.698016 27.820877 37.666955 0.226321 0.739803 0.011211 -0.004750 -822820.000000 0 0 1
-24.285022 -6.047016 29.233167 38.482551 0.244039 0.708026 0.007088 -0.003187 -761250.000000 0 0 1
-25.256362 -6.666116 29.984887 39.767001 0.258053 0.716644 0.017199 -0.001958 -325048.000000 0 0 1
-24.728222 -7.298616 31.096767 40.395095 0.287004 0.692244 0.019742 -0.000683 390882.000000 0 0 1
-25.945372 -7.854916 31.924897 41.881512 0.293976 0.703988 0.004892 -0.000999 873548.000000 0 0 1
-26.664782 -8.876816 31.255717 42.032467 0.321364 0.732344 0.009930 -0.009705 326180.000000 0 0 1
-27.933652 -9.128516 31.830277 43.321879 0.315853 0.745514 0.007112 -0.004858 219456.000000 0 0 1
-28.906012 -9.922716 30.925827 43.479013 0.330671 0.779476 0.007383 -0.014850 -137771.000000 0 0 1
-28.675492 -11.297916 30.737177 43.528161 0.375316 0.786758 0.016324 -0.020075 435394.000000 0 0 1
-29.632822 -11.736016 29.768697 43.612080 0.377095 0.819510 0.007338 -0.016973 62916.400000 0 0 1
-29.273662 -13.087416 29.097847 43.300259 0.420416 0.833888 0.021754 -0.018675 -90256.900000 0 0 1
-28.187922 -12.807916 28.237447 41.904117 0.426487 0.831378 0.024258 -0.017656 -470626.000000 0 0 1
-27.504782 -13.951916 27.894767 41.584697 0.469434 0.835517 0.043068 -0.022091 -121905.000000 0 0 1
-26.081582 -13.626916 27.340647 40.167807 0.481464 0.822132 0.045187 -0.016518 705366.000000 0 0 1
-25.093972 -12.917016 28.137037 39.852849 0.475375 0.786929 0.040293 -0.022737 281518.000000 0 0 1
-25.403042 -11.651516 28.731237 40.081870 0.430037 0.771574 0.035273 -0.027215 -1112580.000000 0 0 1
-25.520522 -10.384816 27.822257 39.156346 0.386458 0.780527 0.034384 -0.020793 1656350.000000 0 0 1
-24.254622 -9.910116 27.215247 37.777861 0.387887 0.766415 0.025369 -0.008825 1584430.000000 0 0 1
-23.703522 -10.732016 26.221917 36.940791 0.425147 0.781530 0.027268 -0.017747 -259879.000000 0 0 1
-24.357022 -10.594016 24.794377 36.335366 0.410266 0.819788 0.037699 -0.010655 72660.300000 0 0 1
-25.642942 -11.183916 24.768797 37.364873 0.411268 0.846124 0.039355 -0.013278 77841.200000 0 0 1
-26.283142 -10.984116 23.499877 36.928290 0.395854 0.881019 0.049561 -0.005046 760242.000000 0 0 1
-27.642962 -11.792616 23.467177 38.130139 0.403229 0.907840 0.060840 -0.014303 878866.000000 0 0 1
-28.821952 -11.288116 24.035477 39.189675 0.373287 0.910550 0.051657 -0.013510 -61867.900000 0 0 1
-28.829622 -11.372516 25.429137 40.088929 0.375733 0.883670 0.055042 -0.016770 105232.000000 0 0 1
-30.268692 -11.027216 25.933507 41.356257 0.349367 0.893003 0.012693 -0.008144 -10647.700000 0 0 1
-30.624882 -9.675816 25.636307 41.094100 0.306021 0.897145 0.014498 -0.010512 916289.000000 0 0 1
-31.972232 -9.284216 26.004337 42.245069 0.282611 0.907701 0.002369 -0.003226 846755.000000 0 0 1
-32.399072 -9.364516 27.471457 43.497988 0.281368 0.887237 -0.008387 -0.000942 -660722.000000 0 0 1
-32.543422 -10.661816 28.027257 44.252410 0.316598 0.884922 -0.010243 -0.009322 302833.000000 0 0 1
-33.221242 -10.564516 29.284297 45.528342 0.307892 0.872113 -0.010217 -0.005812 -897411.000000 0 0 1
-33.715132 -11.888116 29.900237 46.605382 0.338993 0.874264 -0.002901 -0.009589 1010560.000000 0 0 1
-34.917805 -12.418116 29.281227 47.231906 0.341689 0.902123 -0.021161 0.007816 2204290.000000 0 0 1
34.282153 -11.692816 29.562167 46.753713 -0.328703 0.886284 -0.015177 0.006873 355372.000000 0 0 1
33.071033 -12.147816 28.742617 45.468678 -0.352025 0.886483 -0.007052 0.003974 -299678.000000 0 0 1
33.123133 -12.004016 27.331467 44.589768 -0.347684 0.911003 -0.013270 0.012420 -268545.000000 0 0 1
31.874433 -12.270616 26.731437 43.371848 -0.367480 0.906721 -0.007825 0.017114 63226.100000 0 0 1
31.839623 -11.864816 25.249277 42.332747 -0.356703 0.931728 -0.003643 0.011095 -188967.000000 0 0 1
31.693073 -10.503116 25.135767 41.792022 -0.320010 0.925483 0.004376 0.001230 -65870.900000 0 0 1
31.653103 -9.972516 23.836277 40.859982 -0.305212 0.947931 0.000619 0.005624 -341891.000000 0 0 1
31.259933 -8.483916 23.901177 40.254522 -0.265015 0.935083 0.015973 0.006973 -822912.000000 0 0 1
29.968403 -8.274116 24.337727 39.482795 -0.269384 0.906617 0.026676 0.005567 -1083900.000000 0 0 1
29.383043 -7.175016 23.642677 38.390367 -0.239502 0.907333 0.032322 0.004860 872048.000000 0 0 1
27.827523 -7.337516 23.514977 37.164019 -0.257810 0.885716 0.037782 0.020737 536524.000000 0 0 1
27.561083 -8.394116 22.586177 36.608877 -0.295639 0.905924 0.030403 0.026367 -367429.000000 0 0 1
26.188193 -8.634716 22.517177 35.600604 -0.318493 0.886027 0.031752 0.003825 -617184.000000 0 0 1
14.389178 -17.577516 25.766427 34.350055 -0.884809 0.722563 -0.019894 0.035050 391504.000000 0 0 1
13.352478 -18.563216 25.845707 34.509161 -0.947236 0.724317 -0.041845 0.036109 730676.000000 0 0 1
13.940278 -19.856216 25.682237 35.329562 -0.958688 0.756951 -0.013220 0.023781 56525.000000 0 0 1
12.878878 -21.010716 25.693747 35.601746 -1.020897 0.764543 -0.053076 0.015511 369892.000000 0 0 1
12.363878 -21.386016 26.930637 36.544307 -1.046614 0.742277 -0.038322 0.014971 986215.000000 0 0 1
11.475178 -20.420116 27.614587 36.210858 -1.058821 0.703465 -0.034337 0.016646 296178.000000 0 0 1
11.254178 -20.696016 29.170297 37.495171 -1.072737 0.679360 -0.038145 0.008250 -772658.000000 0 0 1
12.181578 -20.342716 30.106947 38.322907 -1.031247 0.667111 -0.035902 0.023064 -539322.000000 0 0 1
11.683478 -19.271116 30.938047 38.275871 -1.025780 0.629552 -0.028777 0.030901 11220.000000 0 0 1
11.586578 -17.838116 30.245967 36.976556 -0.994744 0.612911 -0.024723 0.024239 748833.000000 0 0 1
12.890578 -17.338216 29.896537 36.886090 -0.931483 0.625774 -0.030887 0.034370 821243.000000 0 0 1
12.725478 -16.077816 29.257657 35.727363 -0.901264 0.611279 -0.038413 0.030031 -23815.200000 0 0 1
12.643378 -14.889516 30.193987 35.961501 -0.866798 0.574214 -0.034541 0.022440 31055.100000 0 0 1
12.330878 -13.637916 29.616557 34.859486 -0.835687 0.555573 -0.023875 0.014543 82983.400000 0 0 1
12.796578 -12.647016 30.473127 35.388005 -0.779520 0.533338 -0.015928 0.018606 -17950.100000 0 0 1
12.214778 -11.241116 30.073167 34.350529 -0.743912 0.504370 -0.012484 0.017058 -36952.900000 0 0 1
12.419578 -10.644516 28.808547 33.128296 -0.708587 0.516394 -0.007469 0.014264 1068290.000000 0 0 1
13.773778 -10.645916 28.269567 33.199712 -0.658004 0.551956 0.009955 0.005396 745617.000000 0 0 1
14.008678 -9.701116 27.060997 31.978935 -0.605680 0.561958 0.013861 0.003065 -32287.300000 0 0 1
14.243178 -8.330916 27.420677 32.002590 -0.529247 0.541713 0.018506 -0.005243 583303.000000 0 0 1
15.498578 -8.108616 28.086897 33.088205 -0.482023 0.556992 0.022505 -0.008340 107946.000000 0 0 1
15.881678 -6.594516 28.035767 32.889505 -0.393565 0.550194 0.028315 -0.013985 930325.000000 0 0 1
17.266778 -6.354416 28.361727 33.806919 -0.352632 0.575477 0.027742 -0.019023 995393.000000 0 0 1
17.705978 -5.024916 28.076857 33.571734 -0.276527 0.580252 0.030914 -0.017267 -131651.000000 0 0 1
19.194278 -4.829716 27.743357 34.079911 -0.246505 0.619674 0.031272 -0.017072 -1414740.000000 0 0 1
19.579078 -5.645216 26.661067 33.556240 -0.280715 0.652581 0.027417 -0.008388 1880330.000000 0 0 1
21.016978 -5.743616 26.397437 34.227579 -0.266771 0.690021 0.038719 -0.005148 1697420.000000 0 0 1
22.012678 -5.987216 27.521327 35.746722 -0.265565 0.692115 0.044169 -0.012010 -1331210.000000 0 0 1
22.320878 -4.807916 28.303727 36.365349 -0.212158 0.678817 0.049866 -0.019204 285797.000000 0 0 1
23.312678 -5.079416 29.296277 37.782976 -0.214529 0.683475 0.061250 -0.031068 52233.000000 0 0 1
24.006178 -3.802016 29.757677 38.422275 -0.157072 0.684887 0.068777 -0.033455 -439297.000000 0 0 1
24.876378 -3.220716 28.822607 38.209290 -0.128753 0.716156 0.062013 -0.024238 24840.600000 0 0 1
25.296678 -1.960516 29.207247 38.688872 -0.077346 0.715255 0.052691 -0.028398 -557837.000000 0 0 1
26.242178 -1.177516 28.272627 38.592485 -0.044841 0.748671 0.055301 -0.026982 -399963.000000 0 0 1
27.554078 -1.633416 28.429307 39.624749 -0.059211 0.770642 0.057977 -0.025354 -842291.000000 0 0 1
28.381278 -1.031316 27.463087 39.506729 -0.036322 0.802168 0.041487 -0.011076 456365.000000 0 0 1
29.859478 -0.876116 27.947797 40.907644 -0.029333 0.818671 0.019389 -0.005918 468588.000000 0 0 1
30.088778 0.282184 28.769617 41.630578 0.009378 0.807829 0.006890 0.004746 -282205.000000 0 0 1
31.331078 0.158184 29.408057 42.970865 0.005049 0.817054 0.007973 -0.002393 -171051.000000 0 0 1
31.606378 1.260884 30.417747 43.883850 0.039872 0.804957 0.009528 -0.005235 -217589.000000 0 0 1
32.097778 2.456984 29.823877 43.883570 0.076398 0.823560 0.006831 0.012095 114397.000000 0 0 1
32.052478 3.525184 30.745197 44.553960 0.109541 0.809215 0.008217 0.009596 -32229.900000 0 0 1
32.648878 4.871284 30.257497 44.779401 0.148110 0.828881 0.006269 0.018004 -45206.000000 0 0 1
32.608278 5.915284 31.242127 45.545152 0.179453 0.814875 0.008658 0.021076 833470.000000 0 0 1
31.328478 6.512784 31.533937 44.925261 0.204968 0.792707 0.007110 0.015631 603043.000000 0 0 1
31.378378 7.366984 32.843657 46.017180 0.230603 0.775993 0.026265 0.004881 -138506.000000 0 0 1
31.295878 6.616084 34.072567 46.734830 0.208337 0.753847 0.023172 0.009155 136503.000000 0 0 1
31.693778 7.398284 -33.868749 46.971506 0.229324 2.376111 0.012949 -0.002827 -109260.000000 0 0 1
32.135278 6.537684 -32.666349 46.287231 0.200704 2.354251 0.020311 0.001806 430677.000000 0 0 1
31.098578 5.639584 -32.160939 45.091601 0.179396 2.364900 0.017565 0.002006 984387.000000 0 0 1
31.042478 4.406084 -32.860129 45.418467 0.140995 2.379651 0.025768 -0.002749 -183309.000000 0 0 1
31.407578 3.242984 -31.930859 44.905820 0.102890 2.361805 0.015349 -0.007987 -158722.000000 0 0 1
31.673578 2.035484 -32.585609 45.488248 0.064176 2.369357 0.015568 -0.008212 60078.600000 0 0 1
31.829578 0.944684 -31.648999 44.896254 0.029671 2.353130 0.021765 -0.013355 -251386.000000 0 0 1
31.846978 -0.445916 -32.351519 45.398785 -0.014001 2.364004 0.029736 -0.033799 -597849.000000 0 0 1
32.880878 -0.747516 -33.291399 46.797737 -0.022730 2.362269 0.025692 -0.021561 843375.000000 0 0 1
33.860178 -1.732016 -32.928739 47.263235 -0.051107 2.341596 0.041309 -0.014868 991021.000000 0 0 1
34.686778 -1.601716 -31.585789 46.940389 -0.046144 2.308907 0.047502 -0.009382 -614709.000000 0 0 1
33.836478 -1.724316 -30.505739 45.590357 -0.050916 2.303830 0.046152 -0.012867 -505357.000000 0 0 1
34.523678 -1.693316 -29.275709 45.297007 -0.049009 2.273529 0.042537 -0.007103 30586.200000 0 0 1
33.591378 -1.728416 -28.027479 43.782504 -0.051409 2.265493 0.051088 -0.008446 90400.800000 0 0 1
33.052778 -0.435716 -27.815819 43.201803 -0.013182 2.270326 0.030176 -0.003111 67842.200000 0 0 1
32.048378 -0.412716 -26.839099 41.804379 -0.012877 2.267922 0.030785 0.001327 -573598.000000 0 0 1
31.591778 1.012884 -26.530729 41.266766 0.032051 2.269085 0.017035 0.006629 68741.100000 0 0 1
30.661678 1.410584 -27.538269 41.236931 0.045972 2.302054 0.010576 -0.010085 384839.000000 0 0 1
30.199878 2.748884 -27.444949 40.900052 0.090773 2.306386 0.001403 0.003469 481542.000000 0 0 1
29.321078 3.171184 -28.679059 41.137215 0.107735 2.342219 0.010534 0.001214 100802.000000 0 0 1
28.424478 4.238384 -28.433279 40.427295 0.148020 2.350852 0.002424 0.003383 -83556.400000 0 0 1
27.691378 4.405684 -29.620919 40.787514 0.157777 2.383611 0.004056 -0.000916 -611665.000000 0 0 1
26.552478 5.391684 -29.350389 39.944332 0.200334 2.396142 0.008638 -0.008442 -553714.000000 0 0 1
25.413578 4.790284 -28.770869 38.685394 0.186307 2.409405 0.011042 -0.002778 -187324.000000 0 0 1
24.597678 5.816584 -28.321769 37.960519 0.232203 2.412959 0.001996 -0.006953 -263115.000000 0 0 1
23.111478 5.512484 -27.998979 36.721530 0.234142 2.437915 0.007780 0.001699 39846.200000 0 0 1
22.393678 5.165184 -29.150149 37.119902 0.226689 2.473972 0.017064 -0.003969 -479510.000000 0 0 1
21.099278 4.777484 -28.807039 36.025677 0.222674 2.497467 0.023099 -0.006399 -773347.000000 0 0 1
20.162678 4.428184 -29.977269 36.397515 0.216190 2.538539 0.021725 -0.005603 -371207.000000 0 0 1
20.298678 3.148384 -30.532669 36.799355 0.153877 2.549378 0.037306 -0.008989 345290.000000 0 0 1
19.623278 2.984484 -31.808639 37.493596 0.150932 2.583705 0.019272 -0.010934 -80307.700000 0 0 1
20.305878 3.693684 -32.987069 38.911678 0.179935 2.582510 0.012173 -0.005727 -122260.000000 0 0 1
21.503378 3.167684 -33.495409 39.929587 0.146259 2.565985 0.034782 -0.008414 -338409.000000 0 0 1
21.749778 3.725184 34.380579 40.852834 0.169629 0.570610 0.035170 -0.017408 294671.000000 0 0 1
23.156378 3.319784 33.827010 41.127915 0.142393 0.605034 0.046043 -0.009285 527595.000000 0 0 1
23.298278 1.927284 33.501776 40.852089 0.082534 0.609254 0.059633 -0.018194 -417926.000000 0 0 1
24.643678 1.597384 33.311448 41.467036 0.064729 0.637941 0.054389 -0.020337 -654225.000000 0 0 1
24.840178 0.114784 32.958777 41.271401 0.004621 0.645854 0.045526 -0.022729 -642646.000000 0 0 1
24.315078 -0.263816 31.707017 39.957822 -0.010849 0.654238 0.050485 -0.028321 470621.000000 0 0 1
22.907978 -0.318116 31.562497 39.000870 -0.013886 0.627876 0.060890 -0.032283 -19109.000000 0 0 1
22.036478 -1.255416 32.443277 39.239631 -0.056908 0.597404 0.059024 -0.034749 -701091.000000 0 0 1
22.127178 -2.629116 32.072937 39.053777 -0.118264 0.607197 0.070823 -0.045924 373110.000000 0 0 1
21.567278 -3.496516 33.079403 39.643663 -0.160723 0.583720 0.060751 -0.034055 -201456.000000 0 0 1
21.532478 -4.977016 32.735177 39.496963 -0.227151 0.593832 0.060688 -0.030677 -1069070.000000 0 0 1
22.722178 -5.655716 32.734597 40.247215 -0.243950 0.620929 0.058093 -0.028108 -961521.000000 0 0 1
22.515678 -7.052516 32.928517 40.509023 -0.303547 0.621736 0.054818 -0.020280 -863382.000000 0 0 1
23.742578 -7.865016 32.629977 41.113062 -0.319885 0.653987 0.053054 -0.025063 -774744.000000 0 0 1
24.184278 -7.780116 31.319497 40.327663 -0.311246 0.681505 0.058221 -0.025615 -595636.000000 0 0 1
25.450978 -8.326416 31.092537 41.034465 -0.316180 0.710988 0.050146 -0.023696 -154593.000000 0 0 1
25.922178 -7.922116 29.696687 40.207119 -0.296597 0.739816 0.049591 -0.019150 109010.000000 0 0 1
25.102578 -8.563716 28.724557 39.097018 -0.328768 0.745573 0.036256 -0.012941 82191.400000 0 0 1
25.519478 -8.123116 27.469827 38.364308 -0.308170 0.772704 0.042800 -0.002477 5196.090000 0 0 1
24.805678 -8.864216 26.368947 37.272206 -0.343204 0.784885 0.020816 0.003402 -337637.000000 0 0 1
23.463978 -8.575416 26.087177 36.119756 -0.350391 0.763759 0.031139 -0.002004 -401133.000000 0 0 1
23.164778 -9.387916 25.002647 35.353532 -0.385038 0.785241 0.030963 -0.003260 307707.000000 0 0 1
21.819278 -8.910616 24.343627 33.883508 -0.387712 0.769224 0.021233 0.004450 -31765.500000 0 0 1
20.759178 -9.280716 25.159887 33.913051 -0.420411 0.734906 0.027287 0.010426 -538605.000000 0 0 1
19.526278 -8.822716 24.615227 32.634724 -0.424381 0.716263 0.022667 0.012004 725421.000000 0 0 1
18.466578 -8.645316 25.763837 32.856221 -0.437853 0.669489 0.021726 0.006242 66319.400000 0 0 1
17.884878 -9.738916 26.481007 33.405973 -0.498637 0.655566 0.019505 0.004267 478242.000000 0 0 1
18.724978 -10.438216 27.411597 34.799092 -0.508544 0.663713 0.016955 0.006706 -117921.000000 0 0 1
17.952578 -11.566116 28.138717 35.325026 -0.572329 0.649203 0.007686 0.007223 399923.000000 0 0 1
17.347978 -12.497016 27.227927 34.619182 -0.624269 0.665678 0.007324 0.010273 -51366.500000 0 0 1
16.404278 -13.381416 27.731217 34.888150 -0.684257 0.652018 -0.006994 0.010831 -326609.000000 0 0 1
16.916478 -14.479516 28.757147 36.370278 -0.707933 0.658882 -0.000813 0.021884 -266728.000000 0 0 1
15.961978 -15.500116 28.987987 36.542328 -0.770719 0.654633 -0.016184 0.020912 65336.200000 0 0 1
16.417178 -16.482616 29.892977 37.878628 -0.787387 0.661327 -0.005008 0.018579 -446708.000000 0 0 1
16.743278 -17.804816 29.202287 38.080472 -0.816115 0.696866 -0.006510 0.024820 469967.000000 0 0 1
17.919578 -17.668916 28.397707 37.943796 -0.778355 0.725127 0.001060 0.017592 609150.000000 0 0 1
18.102278 -18.816816 27.549657 37.957195 -0.804750 0.758587 -0.000156 0.017559 -440182.000000 0 0 1
19.057178 -18.627216 26.397227 37.509503 -0.773989 0.790137 0.029727 0.006293 71748.700000 0 0 1
20.421878 -18.468516 26.756927 38.393649 -0.735213 0.799716 0.043389 -0.004724 344538.000000 0 0 1
21.238878 -17.978216 25.707477 37.883777 -0.702445 0.824958 0.022218 -0.000618 1848590.000000 0 0 1
22.744678 -17.692416 26.191757 38.940340 -0.661101 0.833063 0.010749 -0.004627 1509760.000000 0 0 1
23.453178 -18.894516 26.457657 40.088176 -0.678163 0.849995 0.001371 -0.009156 364641.000000 0 0 1
24.816278 -18.554616 26.681717 40.890530 -0.642014 0.859897 0.004137 -0.008435 666648.000000 0 0 1
25.794978 -19.715116 27.083017 42.279504 -0.652591 0.875555 -0.002145 -0.000083 234735.000000 0 0 1
25.620778 -20.135816 28.401007 43.226063 -0.666095 0.853918 -0.006671 -0.002115 230192.000000 0 0 1
26.243778 -21.392416 28.655027 44.356306 -0.683906 0.868439 -0.000631 0.009158 -395225.000000 0 0 1
25.416878 -22.192016 29.637997 44.910067 -0.717765 0.850056 0.008323 0.013762 -344865.000000 0 0 1
25.507478 -21.842116 31.009427 45.708796 -0.708142 0.825196 0.005307 -0.000200 -372305.000000 0 0 1
24.595078 -22.659916 31.674577 46.061573 -0.744470 0.812539 0.004437 0.005447 -409867.000000 0 0 1
24.410378 -22.696516 33.204474 47.048225 -0.749032 0.787309 0.013980 0.001268 -187072.000000 0 0 1
24.189078 -24.045216 33.588933 47.869618 -0.782416 0.793050 0.009600 0.006629 178839.000000 0 0 1
23.919878 -24.111016 -34.098064 48.126704 -0.789378 2.358175 0.023606 0.005464 -700813.000000 0 0 1
23.757878 -25.530456 -33.453089 48.325461 -0.821346 2.335393 0.020380 0.007198 549282.000000 0 0 1
22.586378 -26.299886 -33.795319 48.414379 -0.861215 2.343457 0.039758 0.000734 543677.000000 0 0 1
22.426278 -26.614226 33.919962 48.598547 -0.870589 0.798248 0.023092 -0.004757 -480534.000000 0 0 1
21.117978 -27.373586 33.692860 48.275159 -0.913694 0.798288 0.041219 -0.010509 -96954.100000 0 0 1
21.216678 -28.702346 34.040182 49.322471 -0.934245 0.809092 0.045802 -0.010101 34700.400000 0 0 1
19.924378 -29.237866 34.233681 49.231886 -0.972623 0.801881 0.059067 -0.011700 96164.300000 0 0 1
19.888478 -30.769666 34.172671 50.100852 -0.996980 0.820196 0.039736 -0.013582 -97882.900000 0 0 1
20.387878 -31.381246 -33.686089 50.350778 -0.994644 2.303697 0.023518 -0.012677 -186831.000000 0 0 1
21.415778 -32.263966 -33.971359 51.513613 -0.984803 2.290901 0.005984 -0.003844 -774271.000000 0 0 1
22.037278 -32.823076 -32.671649 51.287743 -0.979527 2.261431 -0.007052 -0.000522 -642448.000000 0 0 1
22.917878 -33.961446 -32.824249 52.498003 -0.977170 2.246245 -0.011341 0.004769 555687.000000 0 0 1
23.431978 -34.387610 -31.610779 52.257121 -0.972658 2.220447 -0.017475 0.017087 115810.000000 0 0 1
24.311378 -33.438176 -30.732359 51.513422 -0.942143 2.210041 -0.011898 0.005911 -642459.000000 0 0 1
24.551578 -33.960206 -29.441509 51.214042 -0.944832 2.183244 -0.004166 0.007514 -6422.790000 0 0 1
25.077178 -33.024666 -28.484079 50.307417 -0.921340 2.172685 0.011365 -0.000589 -239394.000000 0 0 1
25.285478 -33.545416 -27.042049 49.959211 -0.924888 2.142758 0.009558 0.000835 984881.000000 0 0 1
26.367778 -34.528265 -26.993779 51.148069 -0.918611 2.126755 0.007140 0.018182 1272810.000000 0 0 1
27.614578 -34.056377 -26.503589 51.233212 -0.889475 2.114504 0.013531 0.001771 480201.000000 0 0 1
-26.424492 -30.621430 8.863661 41.406403 0.858837 1.355062 0.011324 -0.013753 27123.500000 0 0 1
-26.468482 -31.680230 9.782461 42.425394 0.874787 1.338122 0.018042 -0.016878 41624.000000 0 0 1
-25.202972 -31.906630 10.372861 41.962115 0.902246 1.321011 0.014614 -0.017608 -32746.600000 0 0 1
-25.059122 -33.201630 11.262661 43.094726 0.924258 1.306379 0.006131 -0.018332 -31865.800000 0 0 1
-24.975122 -34.490330 10.665761 43.898725 0.944065 1.325377 0.007595 -0.016000 101639.000000 0 0 1
-24.761522 33.590684 11.661261 43.329574 -0.935567 1.298307 0.008483 -0.011153 -342945.000000 0 0 1
-24.945022 32.187584 11.102161 42.208443 -0.911493 1.304633 0.010252 -0.011246 -116843.000000 0 0 1
-26.192632 31.849584 10.528561 42.559377 -0.882554 1.320816 0.020835 -0.015587 -41833.800000 0 0 1
-26.353582 30.510584 10.155061 41.575621 -0.858372 1.324045 0.024500 -0.013160 -129765.000000 0 0 1
-25.737712 30.142784 8.792961 40.599672 -0.864066 1.352489 0.021064 -0.012747 -923366.000000 0 0 1
-24.345922 30.130884 8.764561 39.716641 -0.891193 1.348288 0.015914 -0.005480 -664946.000000 0 0 1
-24.025822 29.904884 7.380461 39.064221 -0.893981 1.380722 0.027192 -0.005400 -542052.000000 0 0 1
-22.602422 29.469784 7.058561 37.804245 -0.916523 1.382981 0.005358 -0.003415 -463083.000000 0 0 1
-22.371422 28.123684 7.316361 36.673577 -0.898826 1.369949 0.037250 -0.001811 208204.000000 0 0 1
-22.648022 27.307084 6.186861 36.012317 -0.878394 1.398141 0.026016 -0.004510 -507993.000000 0 0 1
-22.866522 25.831584 6.354161 35.078824 -0.846210 1.388651 0.034721 -0.007078 81125.900000 0 0 1
-23.989622 25.593584 7.220961 35.814463 -0.817736 1.367783 0.026451 -0.007935 586081.000000 0 0 1
-24.137622 24.245884 7.685561 35.065018 -0.787636 1.349822 0.028614 -0.019167 8073.480000 0 0 1
-24.787822 23.263384 6.625361 34.634037 -0.753684 1.378314 0.009731 -0.013525 1410060.000000 0 0 1
-26.188162 23.554184 6.283361 35.778485 -0.732495 1.394262 0.005333 -0.008154 1739250.000000 0 0 1
-26.544332 23.027484 4.989761 35.493158 -0.714572 1.429745 0.003029 -0.008037 44658.100000 0 0 1
-26.139062 23.754484 3.653861 35.508827 -0.737641 1.467714 -0.015202 -0.004769 -810333.000000 0 0 1
-24.796322 23.895384 3.318461 34.595652 -0.766897 1.474727 -0.000287 -0.007485 -399551.000000 0 0 1
-24.586322 24.427484 2.031861 34.717685 -0.782157 1.512238 -0.007450 -0.008515 23445.300000 0 0 1
-23.420922 25.426584 2.009561 34.627866 -0.826435 1.512731 0.025327 -0.009178 17090.300000 0 0 1
-22.952022 25.933484 0.774061 34.640151 -0.846311 1.548449 0.006922 -0.009741 -1536150.000000 0 0 1
-21.823122 26.642484 1.025461 34.454639 -0.884511 1.541029 0.023199 -0.013984 -1579350.000000 0 0 1
-21.284022 27.204984 -0.297439 34.542860 -0.906906 1.579407 0.017498 -0.013265 64329.000000 0 0 1
-20.757122 26.291284 -1.275439 33.521880 -0.902487 1.608853 0.006740 -0.012410 781450.000000 0 0 1
-19.487822 25.704884 -0.928739 32.270401 -0.922108 1.599580 0.015985 -0.011148 594781.000000 0 0 1
-18.893622 24.722684 -2.004339 31.180081 -0.918255 1.635123 0.008391 -0.005233 -504923.000000 0 0 1
-19.796222 23.733084 -2.324539 30.992792 -0.875594 1.645869 -0.002732 -0.001774 -312149.000000 0 0 1
-19.262422 22.699884 -3.111639 29.933391 -0.867134 1.674937 -0.000999 0.005304 -471140.000000 0 0 1
-20.409522 22.006384 -3.844739 30.259074 -0.823028 1.698201 -0.012409 0.010011 -253523.000000 0 0 1
-20.942622 22.858684 -4.801439 31.371431 -0.829115 1.724452 -0.011877 0.010151 -3695.910000 0 0 1
-22.113222 22.290584 -5.372339 31.854776 -0.789392 1.740257 0.005092 0.006762 382285.000000 0 0 1
-22.577722 23.030684 -6.652639 32.930587 -0.795329 1.774216 0.001179 0.015347 300846.000000 0 0 1
-21.813922 22.668084 -7.805039 32.413082 -0.804598 1.813985 -0.006151 0.014491 133214.000000 0 0 1
-22.357822 23.321484 -8.929539 33.518659 -0.806491 1.840458 -0.005985 0.013953 -99939.500000 0 0 1
-21.624222 22.944684 -10.242939 33.150917 -0.815017 1.884916 -0.014554 0.011770 -177222.000000 0 0 1
-21.815422 21.686584 -10.865739 32.623379 -0.782437 1.910350 -0.005816 0.006926 -71370.000000 0 0 1
-21.304722 21.590584 -12.204439 32.695456 -0.792062 1.953334 -0.015941 0.004817 231200.000000 0 0 1
-22.315122 22.264484 -13.189939 34.170841 -0.784262 1.967088 -0.018578 0.006864 796172.000000 0 0 1
-23.446722 21.471784 -13.603039 34.580760 -0.741459 1.975091 -0.023839 0.003612 454230.000000 0 0 1
-23.068922 20.379184 -14.453639 34.005793 -0.723570 2.009796 0.004073 0.006968 -268450.000000 0 0 1
-24.184922 19.293384 -14.483039 34.159970 -0.673364 2.008628 0.002592 0.003235 -6737.630000 0 0 1
-23.955622 18.202484 -15.285739 33.746942 -0.649770 2.040870 -0.001509 0.004005 -723258.000000 0 0 1
-24.998722 17.300984 -15.421939 34.089534 -0.605387 2.040246 0.006771 0.007046 -733857.000000 0 0 1
-24.833522 16.254784 -16.551939 33.983651 -0.579567 2.079512 0.017483 0.008563 -180650.000000 0 0 1
-23.831022 15.294584 -16.355939 32.701050 -0.570584 2.094586 0.035604 0.008673 -193329.000000 0 0 1
-23.549922 14.682284 -17.598939 32.861694 -0.557487 2.135950 0.034176 -0.004950 -84396.200000 0 0 1
-22.745922 13.384784 -17.503839 31.668814 -0.531882 2.156415 0.037236 -0.009156 -251751.000000 0 0 1
-21.584622 13.531384 -16.734939 30.480362 -0.559964 2.152012 0.038711 -0.012373 81385.900000 0 0 1
-20.711822 12.377784 -16.783639 29.391830 -0.538667 2.178557 0.048427 -0.016240 19540.700000 0 0 1
-19.403222 12.598084 -16.040139 28.151071 -0.575867 2.177044 0.050018 -0.016537 -624073.000000 0 0 1
-18.476822 13.470084 -16.653139 28.287155 -0.629942 2.200267 0.035642 -0.005479 269243.000000 0 0 1
-17.329722 13.532984 -15.810339 27.081871 -0.662993 2.194195 0.033079 -0.001713 132997.000000 0 0 1
-16.530422 14.855384 -15.959439 27.361304 -0.732079 2.193563 0.009454 0.010226 -146831.000000 0 0 1
-15.864622 14.840984 -17.189039 27.702060 -0.752073 2.240172 0.014222 0.011777 131242.000000 0 0 1
-15.041922 15.993184 -17.394839 28.011101 -0.816040 2.240812 0.003107 0.007519 51322.900000 0 0 1
-14.077722 15.900484 -18.572639 28.212596 -0.846126 2.289368 0.004140 0.009591 -287712.000000 0 0 1
-13.323322 14.736384 -18.545439 27.177293 -0.835715 2.321820 0.003089 0.011132 -22882.000000 0 0 1
-12.314822 14.754584 -19.569339 27.428300 -0.875285 2.365238 0.006025 0.009555 1096540.000000 0 0 1
-11.349122 13.496984 -19.554939 26.331859 -0.871630 2.407792 0.004360 0.006589 688506.000000 0 0 1
-11.934422 12.304784 -20.045239 26.375173 -0.800676 2.434116 0.016973 0.005758 438462.000000 0 0 1
-10.951022 11.264384 -19.946639 25.390542 -0.799503 2.474451 -0.000805 0.014800 438554.000000 0 0 1
-11.367722 9.980184 -20.719739 25.654176 -0.720493 2.510962 0.007726 0.000257 -44729.400000 0 0 1
-11.113822 10.026584 -22.105639 26.696605 -0.734014 2.546385 0.009293 0.000861 -40030.100000 0 0 1
-11.565922 8.845784 -22.754339 27.014411 -0.652915 2.572339 0.005300 0.001647 3281.270000 0 0 1
-11.309722 8.908184 -24.299939 28.244515 -0.667169 2.606736 0.000815 -0.002135 305693.000000 0 0 1
-9.925722 8.720984 -24.611939 27.934263 -0.720879 2.648908 -0.003871 0.005811 286437.000000 0 0 1
-9.864422 8.101484 -25.906019 28.880144 -0.687584 2.683773 -0.014732 -0.004586 -446458.000000 0 0 1
-9.796122 9.093584 -27.139569 30.252496 -0.748224 2.683962 0.006635 -0.002824 -835746.000000 0 0 1
-8.624422 9.730384 -27.485029 30.405392 -0.845580 2.699720 0.001805 -0.010134 -752000.000000 0 0 1
-8.206422 10.768784 -26.614899 29.860759 -0.919624 2.671001 -0.000675 -0.002888 42060.800000 0 0 1
-6.711122 11.143384 -26.789329 29.780570 -1.028723 2.689551 0.016132 -0.010007 107799.000000 0 0 1
-6.478022 12.018284 -27.869149 31.033746 -1.076427 2.686061 0.013453 -0.011356 -479335.000000 0 0 1
-5.162622 12.467184 -27.786809 30.889968 -1.178197 2.689515 0.032720 -0.017964 -249302.000000 0 0 1
-4.493222 12.822784 -29.197159 32.203834 -1.233757 2.706038 0.030220 -0.009903 526172.000000 0 0 1
-3.082522 13.008984 -29.093199 32.017961 -1.338134 2.710842 0.033227 -0.014262 388561.000000 0 0 1
-2.524722 12.952784 -30.383639 33.125736 -1.378293 2.731845 0.025214 -0.011147 1174970.000000 0 0 1
-0.948622 12.868684 -30.488369 33.106549 -1.497214 2.741222 0.037860 -0.019926 1060700.000000 0 0 1
-0.438722 11.661684 -29.956959 32.149755 -1.533193 2.770121 0.019582 -0.005890 379859.000000 0 0 1
0.950978 11.440484 -30.202289 32.310483 1.487863 2.778357 0.039373 -0.007911 724014.000000 0 0 1
1.411178 10.885184 -31.576279 33.429629 1.441873 2.807047 0.038272 -0.006156 -342091.000000 0 0 1
1.580178 11.824884 -32.621989 34.734983 1.437952 2.790997 0.044379 -0.017811 281235.000000 0 0 1
1.637578 11.117884 -33.831359 35.648981 1.424556 2.820887 0.043229 -0.017173 -66267.700000 0 0 1
1.851078 12.029084 34.015879 36.127626 1.418110 0.343601 0.047007 -0.020487 -148668.000000 0 0 1
3.125078 12.637884 33.937126 36.348463 1.328381 0.366295 0.038231 -0.021589 -87118.400000 0 0 1
3.215578 13.449084 32.824707 35.618523 1.336109 0.398709 0.035162 -0.016025 -596958.000000 0 0 1
4.666478 13.587884 32.414597 35.455785 1.239987 0.417203 0.032651 -0.017926 -816827.000000 0 0 1
5.222178 12.426884 31.833217 34.569528 1.172971 0.400551 0.035013 -0.021717 -48126.600000 0 0 1
6.594178 12.651284 31.558367 34.633346 1.090312 0.424576 0.031052 -0.016903 -15740.300000 0 0 1
7.311978 11.348384 31.175067 33.972571 0.998425 0.408660 0.021957 -0.013821 -242124.000000 0 0 1
6.819578 10.826584 29.956847 32.575055 1.008687 0.403671 0.017789 -0.012813 -316992.000000 0 0 1
7.590578 9.765184 29.497947 31.986005 0.910044 0.397028 0.018978 -0.007418 -305993.000000 0 0 1
6.970178 8.895884 28.353257 30.522570 0.906180 0.379291 -0.000286 -0.006825 -122470.000000 0 0 1
6.104378 7.915984 28.854827 30.537309 0.913899 0.333495 -0.005061 -0.010414 -365230.000000 0 0 1
5.587278 7.077684 27.847807 29.271345 0.902539 0.313151 0.011523 -0.008982 -633701.000000 0 0 1
4.900278 5.851484 28.439087 29.445445 0.873638 0.262197 0.020536 -0.017457 7867.280000 0 0 1
5.787878 4.930884 29.118847 30.095189 0.705615 0.255416 0.008442 -0.017265 390185.000000 0 0 1
5.126278 4.312284 30.189987 30.924259 0.699370 0.218352 0.006211 -0.019420 -621226.000000 0 0 1
5.904878 3.191784 30.865967 31.587386 0.495546 0.214132 0.020184 -0.017104 -157387.000000 0 0 1
5.906578 1.938184 30.168407 30.802224 0.317069 0.203214 0.016066 -0.007303 103995.000000 0 0 1
7.055978 1.876684 29.341047 30.235836 0.259953 0.243889 0.015578 -0.005852 -130995.000000 0 0 1
7.011478 0.518884 28.493787 29.348355 0.073870 0.241911 0.009496 -0.008824 85314.600000 0 0 1
7.344478 -0.589916 29.328787 30.240157 -0.080149 0.246131 -0.004129 -0.000439 -59263.400000 0 0 1
7.389978 -1.759816 28.520037 29.514424 -0.233781 0.260317 0.005454 0.004884 -242340.000000 0 0 1
7.811278 -3.038016 29.309277 30.484083 -0.370924 0.278526 -0.005082 0.005448 -265478.000000 0 0 1
9.128878 -3.046916 29.799047 31.314586 -0.322141 0.312387 -0.006475 -0.003542 -364471.000000 0 0 1
9.874378 -4.070716 29.178287 31.071635 -0.391022 0.350896 -0.005290 -0.001810 -497172.000000 0 0 1
11.387278 -3.875416 29.321947 31.693304 -0.328033 0.389292 -0.004922 -0.003478 249618.000000 0 0 1
12.306478 -4.861116 28.828747 31.720285 -0.376193 0.430295 0.005826 -0.004975 565734.000000 0 0 1
12.512078 -5.988616 29.694977 32.775101 -0.446403 0.437007 0.010402 -0.001643 -473864.000000 0 0 1
11.697078 -7.260116 29.329187 32.399570 -0.555485 0.438867 0.009595 0.002257 -1570400.000000 0 0 1
10.339678 -7.177316 29.327637 31.914465 -0.606791 0.405399 -0.005935 0.009441 -1846470.000000 0 0 1
9.847778 -8.389516 28.865137 31.631611 -0.705608 0.421342 -0.012672 0.009766 -778797.000000 0 0 1
8.330378 -8.335516 28.772397 31.092231 -0.785706 0.388737 -0.015248 0.013744 -709152.000000 0 0 1
7.783378 -8.160116 30.062677 32.108145 -0.809023 0.358870 -0.011722 0.013139 -594681.000000 0 0 1
6.387578 -8.101016 29.952937 31.679742 -0.903113 0.331695 -0.015931 0.020818 -236564.000000 0 0 1
5.796278 -7.048716 30.970307 32.286857 -0.882595 0.286555 -0.021043 0.012635 -47471.700000 0 0 1
5.534178 -7.525316 32.238777 33.564806 -0.936700 0.282026 -0.027549 0.015808 -357579.000000 0 0 1
4.657978 -6.757316 32.976507 33.982467 -0.967272 0.243924 -0.019904 0.007529 -309922.000000 0 0 1
5.288778 -5.595216 33.819446 34.684759 -0.813546 0.223841 0.001746 0.006625 -76997.700000 0 0 1
5.550178 -4.412516 33.018560 33.771290 -0.671699 0.211530 0.001894 0.006941 -2990.190000 0 0 1
6.251478 -3.412816 33.751686 34.494993 -0.499707 0.207972 0.005422 0.006387 -447303.000000 0 0 1
6.215478 -2.004816 33.059107 33.698012 -0.312016 0.195038 0.009330 0.004684 -440154.000000 0 0 1
4.910578 -1.579616 32.806027 33.209100 -0.311223 0.155962 0.009603 0.001554 -828563.000000 0 0 1
4.901478 -0.324816 32.128847 32.502196 -0.066172 0.151717 0.010201 -0.000714 551881.000000 0 0 1
3.455478 0.159884 31.763647 31.951450 0.046237 0.108476 0.003851 -0.008689 554154.000000 0 0 1
2.686678 0.346584 32.927377 33.038621 0.128292 0.082085 0.012972 -0.009973 -325794.000000 0 0 1
1.465378 1.007884 32.609787 32.658251 0.602490 0.054486 0.015998 -0.005096 241844.000000 0 0 1
0.668778 1.245884 33.926487 33.955942 1.078152 0.041655 0.021874 -0.008636 -616792.000000 0 0 1
1.243678 2.115284 -34.201358 34.289271 1.039285 3.069970 0.020026 -0.004468 -163457.000000 0 0 1
0.418678 2.299984 -33.067579 33.150113 1.390733 3.071013 0.006430 0.008123 -210584.000000 0 0 1
0.942178 3.277384 -31.977719 32.159034 1.290866 3.035354 0.008652 0.018908 569059.000000 0 0 1
2.153078 2.794284 -31.368529 31.566254 0.914285 3.029607 0.002096 0.013824 530081.000000 0 0 1
2.807478 3.901684 -30.756309 31.129658 0.947066 2.986561 -0.000638 0.026844 -29293.100000 0 0 1
3.951678 3.430984 -29.843869 30.299240 0.714985 2.968002 0.018688 0.023783 -100690.000000 0 0 1
3.454078 2.767684 -28.663589 29.003312 0.675521 2.988386 0.018726 -0.001755 126285.000000 0 0 1
4.475178 2.180084 -27.910199 28.350647 0.453315 2.965093 0.034937 -0.007875 -280807.000000 0 0 1
3.961478 1.488984 -26.601759 26.936295 0.359529 2.983825 0.027266 -0.015219 -32342.800000 0 0 1
3.301978 0.300584 -26.924879 27.128261 0.090781 3.019066 0.033421 -0.011959 -120383.000000 0 0 1
2.953678 -0.445416 -25.776919 25.949416 -0.149673 3.026226 0.027096 -0.012999 206266.000000 0 0 1
3.818478 -1.746916 -25.592759 25.934954 -0.429065 2.978968 0.040789 -0.026789 933138.000000 0 0 1
5.164678 -1.673016 -25.127939 25.707707 -0.313268 2.928813 0.034616 -0.030906 329817.000000 0 0 1
5.777578 -2.948516 -25.172749 25.995028 -0.471884 2.889401 0.031949 -0.034027 -863879.000000 0 0 1
7.177578 -3.108716 -24.634539 25.846514 -0.408724 2.834144 0.033656 -0.034238 -371145.000000 0 0 1
8.136278 -2.505716 -25.514999 26.897822 -0.298751 2.819547 0.018530 -0.025717 -425844.000000 0 0 1
9.395378 -2.971916 -25.094269 26.959743 -0.306358 2.767406 0.022154 -0.018058 -332945.000000 0 0 1
-28.713022 -4.072216 17.681377 33.965448 0.140885 1.023278 0.040416 -0.007054 -328861.000000 0 0 1
-30.013062 -3.878516 18.159177 35.292811 0.128515 1.030338 0.025955 0.003353 -518153.000000 0 0 1
-30.323332 -4.903616 19.091977 36.167022 0.160323 1.014690 0.019937 -0.002584 590242.000000 0 0 1
-31.809292 -4.686816 19.539777 37.624463 0.146289 1.024721 0.015520 -0.000829 1015000.000000 0 0 1
-32.719142 -4.828016 18.418977 37.856449 0.146502 1.062662 0.009920 -0.004325 278303.000000 0 0 1
-34.050492 -4.837016 18.862677 39.225417 0.141110 1.069139 0.008250 -0.003915 -262627.000000 0 0 1
-35.120143 -4.980716 17.778177 39.677393 0.140880 1.106193 -0.000681 -0.006717 1227890.000000 0 0 1
33.942063 -5.163816 18.217577 38.866551 -0.150978 1.082954 -0.001695 -0.003152 1499390.000000 0 0 1
32.977683 -4.940016 17.171077 37.507029 -0.148693 1.095266 0.000123 -0.000322 71522.300000 0 0 1
31.561943 -5.279616 17.610777 36.526293 -0.165743 1.067701 0.009593 0.003036 -732631.000000 0 0 1
30.992993 -4.365916 18.513777 36.364636 -0.139947 1.036640 0.018238 -0.005960 1193420.000000 0 0 1
29.799433 -4.964016 19.104077 35.743719 -0.165065 1.006911 0.021858 -0.009588 1088120.000000 0 0 1
29.206073 -4.235616 20.340977 35.842579 -0.144021 0.967319 0.026606 -0.008471 -23562.100000 0 0 1
28.455403 -3.051216 20.288477 35.080510 -0.106820 0.954103 0.024345 -0.005038 190853.000000 0 0 1
29.193403 -1.895316 19.958677 35.414627 -0.064832 0.972093 0.019176 -0.002690 -138633.000000 0 0 1
28.307743 -0.639716 20.107977 34.728494 -0.022595 0.953288 0.021795 0.001193 61751.300000 0 0 1
28.982073 0.590584 19.989677 35.212165 0.020375 0.967096 0.014644 0.000062 -145364.000000 0 0 1
28.025803 1.589384 20.147977 34.553043 0.056651 0.948254 0.019110 -0.000981 -204469.000000 0 0 1
28.433103 2.844284 19.455077 34.569225 0.099703 0.973044 0.002756 0.002078 -307724.000000 0 0 1
28.373443 2.725884 18.042877 33.734672 0.095778 1.006470 0.003023 -0.005071 67160.400000 0 0 1
28.176113 3.920184 17.400577 33.347283 0.138244 1.021838 0.000591 -0.001893 -26395.300000 0 0 1
27.944303 3.794784 15.859777 32.354551 0.134972 1.058492 0.000343 -0.001880 -206388.000000 0 0 1
27.549083 5.050684 15.298477 31.914022 0.181320 1.070865 -0.005383 -0.002789 362673.000000 0 0 1
27.064633 4.841284 13.973277 30.841285 0.177007 1.100590 -0.007168 0.000977 -138538.000000 0 0 1
26.600753 6.172184 13.337177 30.390397 0.227996 1.116465 0.002108 0.005400 -328145.000000 0 0 1
25.502203 6.690384 14.026477 29.864120 0.256564 1.081872 -0.001433 0.001024 -480367.000000 0 0 1
25.157363 7.952384 13.513777 29.643810 0.306166 1.097445 0.013272 -0.006440 -1012330.000000 0 0 1
23.936363 8.635984 14.126677 29.104857 0.346254 1.064008 0.011838 0.001722 -392669.000000 0 0 1
22.683363 8.019384 13.992077 27.832062 0.339821 1.044040 0.016367 0.002282 282219.000000 0 0 1
22.487563 6.731684 14.648577 27.669240 0.290862 1.012883 0.025962 -0.003587 -814685.000000 0 0 1
21.119363 6.025784 14.428977 26.277993 0.277935 0.989522 0.044792 0.000811 2825.460000 0 0 1
20.922863 5.908284 13.008477 25.335637 0.275218 1.031601 0.055232 -0.001678 -153694.000000 0 0 1
19.952063 4.992184 12.701377 24.172954 0.245175 1.017567 0.064749 -0.001254 -787966.000000 0 1 0
19.603863 4.896284 11.219977 23.112181 0.244754 1.063910 0.065080 -0.003342 -22158.700000 0 1 0
20.544563 4.091184 10.544677 23.452230 0.196566 1.104452 0.061066 -0.005895 623895.000000 0 1 0
20.170063 4.100184 9.168977 22.532490 0.200548 1.151714 0.066772 -0.011678 553318.000000 0 1 0
21.219763 3.396684 8.227577 23.011059 0.158725 1.205154 0.061662 -0.011194 -397343.000000 0 1 0
21.364563 1.987584 8.452077 23.061497 0.092765 1.195550 0.052806 -0.010783 555279.000000 0 1 0
22.306563 1.378484 7.584677 23.601066 0.061719 1.243620 0.050963 -0.014969 -132257.000000 0 1 0
23.816963 1.654984 7.747377 25.099971 0.069376 1.257012 0.052409 -0.014695 -364716.000000 0 0 1
24.475263 1.113784 8.905777 26.068983 0.045475 1.222153 0.026274 0.003211 659465.000000 0 0 1
24.276563 1.900584 10.129077 26.373508 0.078129 1.176604 0.027828 0.002409 -487911.000000 0 0 1
24.882563 1.310584 11.413077 27.406530 0.052622 1.141274 0.006352 0.008433 645548.000000 0 0 1
26.312353 1.382184 11.515577 28.755154 0.052482 1.158767 -0.002128 0.007213 944163.000000 0 0 1
26.820453 0.708584 12.657577 29.665688 0.026413 1.129984 0.002929 -0.001171 477575.000000 0 0 1
28.380553 0.710384 12.733677 31.114417 0.025025 1.149161 0.008955 -0.003304 424296.000000 0 0 1
28.824543 1.963184 13.153577 31.744684 0.068003 1.143562 0.002470 -0.003097 -140702.000000 0 0 1
30.227753 1.828784 13.285177 33.068980 0.060426 1.157379 0.002973 -0.001239 18052.100000 0 0 1
30.869423 3.178884 13.682677 33.915221 0.102617 1.155526 0.002246 -0.007472 -587676.000000 0 0 1
30.888433 4.165684 12.627577 33.628915 0.134053 1.185863 -0.000286 -0.001108 90490.200000 0 0 1
31.669103 5.296884 12.960377 34.626008 0.165723 1.187159 -0.006264 -0.008442 -339686.000000 0 0 1
33.072393 5.204784 12.359977 35.688121 0.156095 1.217137 -0.006539 -0.004291 -630904.000000 0 0 1
33.874393 4.248884 13.060777 36.552858 0.124779 1.205408 -0.004446 -0.002109 104754.000000 0 0 1
35.195944 4.372484 12.555677 37.623372 0.123599 1.230549 0.005506 0.002488 -137849.000000 0 0 1
-34.350116 3.253184 13.158477 36.927756 -0.094425 1.206459 0.019543 0.007432 -971830.000000 0 0 1
-34.532284 1.867184 12.765677 36.863634 -0.054018 1.217178 0.015142 0.011428 155492.000000 0 0 1
34.724143 1.195484 13.190477 37.164284 0.034414 1.207964 0.012291 0.013216 58147.900000 0 0 1
34.530237 0.916884 14.739577 37.555733 0.026547 1.167479 0.010348 0.012646 230978.000000 0 0 1
-35.030412 -0.126516 15.266177 38.212588 0.003612 1.159818 0.017121 0.008800 585210.000000 0 0 1
-35.118040 -0.177616 16.679977 38.878399 0.005058 1.127378 0.022972 0.002090 128144.000000 0 0 1
-34.089657 -1.084116 17.451277 38.312232 0.031791 1.097861 0.018401 0.000752 -14705.000000 0 0 1
-32.746572 -0.660516 17.386777 37.081994 0.020168 1.082781 0.019587 0.000046 -47386.900000 0 0 1
-31.870882 -1.297116 18.318177 36.783029 0.040677 1.049498 0.027167 -0.002426 185257.000000 0 0 1
-32.003202 -1.016616 19.836977 37.666220 0.031755 1.016139 0.010175 -0.006032 -975418.000000 0 0 1
-33.181842 -1.569916 20.306377 38.933895 0.047277 1.022118 0.007843 -0.010000 -530421.000000 0 0 1
-33.227012 -1.483016 21.698077 39.711965 0.044603 0.992753 0.003962 -0.010290 420533.000000 0 0 1
-34.014662 -2.634516 22.422377 40.825248 0.077298 0.989356 0.004048 -0.005690 637290.000000 0 0 1
-33.222942 -3.880616 22.428477 40.272318 0.116278 0.980123 0.006172 -0.002320 946482.000000 0 0 1
-33.756442 -4.873716 23.310777 41.311533 0.143388 0.971250 0.004516 -0.004471 -100452.000000 0 0 1
-33.588892 -4.576816 24.771017 41.985285 0.135426 0.939746 0.006378 -0.008299 -584602.000000 0 0 1
-32.269682 -4.657816 25.205567 41.211021 0.143350 0.912687 0.007255 -0.013970 -1041910.000000 0 0 1
-32.110822 -4.633316 26.625427 41.970059 0.143302 0.883576 0.005847 -0.012038 156571.000000 0 0 1
-30.951622 -3.753216 27.165527 41.352816 0.120672 0.854069 0.018258 -0.008276 31320.900000 0 0 1
-30.996112 -2.364416 26.889487 41.102237 0.076134 0.857659 0.014316 -0.003845 -94253.400000 0 0 1
-30.838862 -1.936616 25.500137 40.062986 0.062716 0.880843 0.016612 0.001468 -470285.000000 0 0 1
-30.716212 -0.414216 25.296517 39.794108 0.013484 0.881901 0.015297 0.002825 -960401.000000 0 0 1
-31.857262 0.295084 25.553097 40.840335 -0.009262 0.894790 0.020779 -0.000888 -1081410.000000 0 0 1
-31.620882 1.651284 25.278977 40.517078 -0.052174 0.897061 0.003894 -0.002329 -121465.000000 0 0 1
-32.904252 2.418084 24.882067 41.323772 -0.073357 0.924637 0.017801 0.002630 -19663.000000 0 0 1
-33.493342 1.837984 23.711277 41.078057 -0.054821 0.955470 0.015297 0.005860 194617.000000 0 0 1
-34.687525 2.446184 23.227777 41.817913 -0.070404 0.981892 0.003570 0.015677 500580.000000 0 0 1
-34.552373 3.864784 22.621077 41.479105 -0.111390 0.993977 0.005177 0.018252 -68224.500000 0 0 1
-33.847422 3.925084 21.380777 40.226756 -0.115448 1.010418 0.007178 0.004085 42838.000000 0 0 1
-34.764186 3.692784 20.307577 40.429976 -0.105827 1.044551 0.005751 -0.003958 202879.000000 0 0 1
-34.210791 2.858484 19.148177 39.309055 -0.083361 1.062009 0.012349 -0.004974 830345.000000 0 0 1
-33.040922 3.404184 18.476277 38.008733 -0.102667 1.063168 0.014126 -0.003162 996254.000000 0 0 1
-32.752412 2.575284 17.385777 37.170120 -0.078467 1.084070 0.022489 0.000716 -89801.900000 0 0 1
-31.797392 3.363384 16.468077 35.966429 -0.105384 1.095195 0.016453 0.001727 -153672.000000 0 0 1
-32.491642 4.372084 15.791177 36.389328 -0.133757 1.121923 0.012559 -0.003152 320793.000000 0 0 1
-31.655272 5.150084 14.926777 35.374967 -0.161280 1.135192 0.022163 -0.000115 -299829.000000 0 0 1
-32.269192 6.508784 14.617377 36.018505 -0.199032 1.152910 0.010294 -0.010193 5623.670000 0 0 1
-31.496882 7.196784 13.658077 35.076920 -0.224636 1.170843 0.022694 -0.006336 232573.000000 0 0 1
-31.817032 8.587184 13.746577 35.707585 -0.263612 1.175614 0.001333 -0.012077 -164818.000000 0 0 1
-31.043402 9.280984 12.644577 34.780954 -0.290510 1.198722 0.009095 -0.007807 -439854.000000 0 0 1
-31.624642 10.543984 12.294677 35.531010 -0.321820 1.217464 -0.004008 -0.003629 364458.000000 0 0 1
-30.866432 11.151684 11.272277 34.701022 -0.346696 1.239954 -0.010787 0.000186 -413372.000000 0 0 1
-31.085152 12.675884 11.249877 35.405147 -0.387195 1.247444 -0.019865 0.003145 105610.000000 0 0 1
-30.293362 13.319984 10.247077 34.642637 -0.414255 1.270510 -0.018805 0.006795 322992.000000 0 0 1
-30.480642 14.735484 10.281677 35.382438 -0.450310 1.275956 -0.022202 0.008959 -161034.000000 0 0 1
-29.602082 15.453284 9.241977 34.648252 -0.481119 1.300790 -0.006310 0.002472 -561393.000000 0 0 1
-28.277912 15.522684 9.676377 33.678276 -0.502024 1.279371 -0.002657 0.007429 -1223.410000 0 0 1
-27.442782 16.326384 8.807477 33.124443 -0.536679 1.301669 0.000469 -0.004588 497424.000000 0 0 1
-25.989252 16.516684 9.309177 32.169906 -0.566128 1.277222 0.024399 -0.009050 -52816.000000 0 0 1
-25.770552 17.306084 10.475577 32.762167 -0.591372 1.245335 0.027454 -0.010387 222577.000000 0 0 1
-26.230022 18.658584 10.438977 33.839755 -0.618299 1.257199 0.031406 -0.016395 -48269.200000 0 0 1
-26.388232 19.324184 11.810277 34.774207 -0.632079 1.224276 0.040059 -0.002462 -53188.900000 0 0 1
-25.080092 19.402384 12.345977 34.027734 -0.658445 1.199503 0.050299 -0.000186 287916.000000 0 0 1
-24.914422 19.732584 13.731177 34.621503 -0.669853 1.162977 0.048061 -0.006429 -16502.000000 0 0 1
-25.405422 18.682084 14.748377 34.813364 -0.634064 1.133335 0.044373 -0.005894 -20753.200000 0 0 1
-24.509822 17.572184 14.906377 33.640944 -0.622008 1.111740 0.057113 -0.009531 552642.000000 0 0 1
-24.886922 16.730584 15.975477 33.977745 -0.591868 1.081308 0.049588 -0.006398 25498.800000 0 0 1
-23.747422 15.672884 16.228577 32.755855 -0.583361 1.052454 0.060715 -0.007953 1342820.000000 0 0 1
-22.586522 16.194384 16.957277 32.557000 -0.622040 1.022951 0.054702 -0.009091 882708.000000 0 0 1
-21.659822 15.139784 17.129277 31.492429 -0.610041 0.995698 0.038980 -0.013317 -261513.000000 0 0 1
-21.950722 14.099384 18.257577 31.842832 -0.570957 0.960189 0.033251 -0.009110 -640532.000000 0 0 1
-21.672022 14.735084 19.517577 32.676215 -0.597117 0.930663 0.028174 -0.004237 315764.000000 0 0 1
-22.232622 13.962484 20.564077 33.348488 -0.560767 0.906326 0.011870 0.001876 -391853.000000 0 0 1
-22.148322 14.521284 21.969977 34.410692 -0.580329 0.878296 0.015871 0.000101 -209489.000000 0 0 1
-20.811122 14.542684 22.390077 33.851263 -0.609916 0.848079 0.017343 -0.006840 123767.000000 0 0 1
-20.063522 15.759484 22.142577 33.781651 -0.665824 0.856003 0.024600 0.009552 603105.000000 0 0 1
-18.551022 15.553384 22.571977 33.098977 -0.697728 0.820366 0.046329 -0.009132 883392.000000 0 0 1
-17.747622 14.831984 21.691077 31.709125 -0.696143 0.817476 0.028444 -0.005894 -214231.000000 0 0 1
-17.198422 15.732884 20.725677 31.190752 -0.740925 0.843997 0.027071 -0.009439 -2538840.000000 0 0 1
-16.106822 15.155184 19.872877 29.732819 -0.754967 0.838765 0.030904 -0.004180 377189.000000 0 0 1
-14.885122 14.731584 20.516177 29.317229 -0.780214 0.795680 0.033270 -0.003332 945861.000000 0 0 1
-14.209922 15.804984 21.187077 30.010192 -0.838491 0.786968 0.027309 -0.014399 -1651120.000000 0 0 1
-13.077622 15.349184 22.102077 29.918613 -0.865138 0.739597 -0.000018 -0.011547 -904540.000000 0 0 1
-11.937022 14.976884 21.418877 28.732696 -0.897869 0.729582 0.006939 -0.007502 -899461.000000 0 0 1
-11.062422 14.317384 22.322477 28.734259 -0.912952 0.681134 -0.003576 -0.009338 717164.000000 0 0 1
-9.908922 13.566284 21.536177 27.313691 -0.939952 0.662470 0.003351 -0.004992 -264335.000000 0 0 1
-9.372222 12.428384 22.233977 27.141352 -0.924678 0.610796 0.002515 -0.005947 -262206.000000 0 0 1
-8.251622 11.777384 21.788177 26.105951 -0.959646 0.583380 0.009802 -0.005554 157834.000000 0 0 1
-6.850122 12.493284 21.855777 26.089869 -1.069256 0.577718 0.004268 -0.005065 -89197.100000 0 0 1
-6.708422 13.548084 20.917977 25.809209 -1.111031 0.625817 -0.004617 -0.005805 -185765.000000 0 0 1
-6.085522 14.672284 21.587777 26.801895 -1.177628 0.634350 -0.017190 0.007076 115416.000000 0 0 1
-7.023522 15.574084 22.486277 28.240301 -1.147132 0.649729 -0.023547 -0.007986 423627.000000 0 0 1
-7.898922 16.442084 21.765877 28.398741 -1.122944 0.697519 -0.045151 -0.007380 -160460.000000 0 0 1
-7.273022 17.573884 21.237577 28.509172 -1.178404 0.730354 -0.037805 0.011736 -1157980.000000 0 0 1
-7.934622 18.021284 19.938777 28.022843 -1.156045 0.779139 -0.027594 0.011253 1559590.000000 0 0 1
-9.226122 18.703184 20.049777 28.929638 -1.112530 0.805081 -0.015918 0.003182 796127.000000 0 0 1
-10.270322 17.841184 20.387877 28.973313 -1.048472 0.790236 -0.008661 -0.005709 -609297.000000 0 0 1
-11.567622 18.679484 20.710877 30.193930 -1.016329 0.814917 -0.010597 -0.005120 601302.000000 0 0 1
-12.407622 18.955984 19.608977 29.963150 -0.991230 0.857359 -0.009883 -0.003578 -563216.000000 0 0 1
-13.631022 19.434484 20.043977 31.068713 -0.959143 0.869577 -0.011967 -0.007219 -380500.000000 0 0 1
-14.706422 19.778584 18.968077 31.100790 -0.931434 0.914874 0.006147 -0.006855 9673.420000 0 0 1
-15.219022 18.577584 18.438477 30.277428 -0.884449 0.916017 0.022716 -0.004923 -51193.300000 0 0 1
-15.953522 18.888584 17.280377 30.164630 -0.869439 0.960795 0.029486 -0.008811 -874976.000000 0 0 1
-16.555322 17.592384 16.632077 29.329109 -0.815759 0.967835 0.036042 -0.010697 1139980.000000 0 0 1
-17.574322 16.908984 17.411077 29.965248 -0.766106 0.950788 0.037459 -0.014734 617006.000000 0 0 1
-18.782722 17.544584 17.736477 31.227963 -0.751328 0.966762 0.040059 -0.011736 -395888.000000 0 0 1
33.439333 -9.447316 12.032261 36.772491 -0.275345 1.237449 -0.020399 0.006763 48741.100000 0 0 1
32.177733 -10.026116 11.706161 35.678617 -0.302052 1.236505 -0.029748 0.011258 362773.000000 0 0 1
31.964983 -11.207116 12.386561 36.066418 -0.337215 1.220222 -0.022145 0.012499 -1080860.000000 0 0 1
30.536673 -11.710016 12.345361 34.957414 -0.366179 1.209856 -0.017060 0.021495 -1750930.000000 0 0 1
29.738433 -10.745516 12.881461 34.143412 -0.346736 1.183944 -0.012688 0.016738 -1003870.000000 0 0 1
28.371253 -11.040716 12.916761 33.070654 -0.371119 1.169534 0.000366 0.010548 -151931.000000 0 0 1
27.915133 -11.923816 14.098061 33.469200 -0.403686 1.136001 -0.005683 0.007167 -1011110.000000 0 0 1
27.974123 -11.286316 15.381561 33.860374 -0.383482 1.099250 0.002115 0.006279 272358.000000 0 0 1
27.086503 -11.819816 16.349761 33.774271 -0.411464 1.065474 0.006586 -0.001335 1665320.000000 0 0 1
25.561803 -11.344716 16.322861 32.381232 -0.417699 1.042475 0.026713 -0.017893 1341200.000000 0 0 1
25.481373 -9.999816 16.753061 32.093017 -0.373969 1.021584 0.021625 -0.000439 -250598.000000 0 0 1
24.705063 -9.279916 15.843161 30.780883 -0.359321 1.030130 0.038852 -0.013025 -98965.900000 0 0 1
24.443663 -7.836816 16.249161 30.379987 -0.310254 1.006450 0.039997 -0.028175 -1051550.000000 0 0 1
25.640363 -7.178216 16.428461 31.286568 -0.272969 1.017968 0.030960 -0.025220 -745073.000000 0 0 1
25.474263 -5.790816 16.802961 31.061409 -0.223522 0.999219 0.018750 -0.011627 118378.000000 0 0 1
26.761933 -5.009816 16.457061 31.814056 -0.185057 1.027116 0.024248 -0.010669 48336.900000 0 0 1
26.951213 -4.732616 15.110561 31.258512 -0.173827 1.066255 0.027987 -0.009379 472890.000000 0 0 1
28.142313 -3.960516 14.971361 32.121910 -0.139814 1.085942 0.026994 -0.006250 140393.000000 0 0 1
28.408223 -3.266116 13.604761 31.666768 -0.114468 1.126721 0.016510 -0.004305 -235522.000000 0 0 1
28.772753 -4.195316 12.609861 31.693542 -0.144788 1.161604 0.003584 -0.000886 262493.000000 0 0 1
29.052423 -3.474716 11.438461 31.415845 -0.119036 1.198132 -0.001935 -0.002034 -244968.000000 0 0 1
29.400233 -4.243516 10.149161 31.390868 -0.143346 1.241565 0.011822 0.003201 935473.000000 0 0 1
30.781603 -4.687416 10.142361 32.746701 -0.151119 1.255896 -0.002294 0.006169 1167290.000000 0 0 1
31.025293 -5.457216 8.968761 32.753453 -0.174115 1.293427 0.005676 0.004926 -857686.000000 0 0 1
32.354713 -6.147916 8.956861 34.129895 -0.187777 1.305252 0.002023 0.002238 -893512.000000 0 0 1
33.473453 -5.327116 8.808261 35.020504 -0.157821 1.316549 0.006003 0.007103 774243.000000 0 0 1
34.725929 -5.991916 8.482861 36.245719 -0.170866 1.334568 0.013435 0.000048 491847.000000 0 0 1
-34.659862 -5.030916 8.076661 35.942296 0.144144 1.344149 0.019897 -0.001359 -904418.000000 0 0 1
-34.835400 -4.631816 6.716461 35.778061 0.132188 1.381950 0.028959 -0.001591 6449.390000 0 0 1
-33.828592 -3.723516 6.383561 34.626407 0.109629 1.385380 0.032920 0.009143 -508984.000000 0 0 1
-33.928432 -3.385016 4.912261 34.448906 0.099440 1.427713 0.040806 0.002226 40247.400000 0 0 1
-33.170182 -4.149016 3.956061 33.661933 0.124436 1.453001 0.050820 0.001610 471349.000000 0 0 1
-33.264212 -3.407816 2.721861 33.548913 0.102091 1.489576 0.043278 0.008892 138756.000000 0 0 1
-32.448372 -3.950416 1.478361 32.721372 0.121148 1.525601 0.060895 -0.000570 60941.800000 0 0 1
-32.894772 -5.064516 0.765161 33.291152 0.152762 1.547810 0.067784 -0.000343 660723.000000 0 0 1
-34.145316 -5.057916 0.046161 34.517927 0.147060 1.569459 0.059549 -0.006981 425051.000000 0 0 1
-33.993432 -5.268616 -1.481639 34.431192 0.153766 1.613842 0.066365 -0.013918 -1117400.000000 0 0 1
-33.429242 -6.555516 -1.708539 34.108769 0.193644 1.620908 0.064979 -0.030386 258221.000000 0 0 1
-32.325732 -6.526616 -2.583639 33.079070 0.199223 1.648981 0.053546 -0.024237 -805827.000000 0 0 1
-31.020492 -6.051416 -1.950239 31.665344 0.192658 1.632424 0.051776 -0.026945 -1626750.000000 0 0 1
-30.371092 -7.096616 -1.291839 31.215926 0.229545 1.612192 0.066152 -0.027781 -1315620.000000 0 0 1
-29.251932 -6.552416 -0.730539 29.985720 0.220362 1.595162 0.039288 -0.024875 -1712920.000000 0 0 1
-28.592752 -7.558116 0.180461 29.575381 0.258426 1.564695 0.014195 -0.016110 -547239.000000 0 0 1
-28.167192 -8.728216 -0.506239 29.492859 0.300489 1.587962 0.006201 -0.015061 290724.000000 0 0 1
-27.582572 -9.621816 0.392861 29.215269 0.335638 1.557349 0.026384 -0.005277 -238346.000000 0 0 1
-27.274442 -10.992716 -0.237839 29.407339 0.383125 1.578884 0.003351 -0.006936 -146195.000000 0 0 1
-26.195432 -10.996816 -1.154439 28.433490 0.397457 1.611409 -0.006837 -0.010457 250152.000000 0 0 1
-25.690762 -12.298116 -1.368439 28.515462 0.446461 1.618804 -0.014629 0.001174 -321277.000000 0 0 1
-26.490952 -13.244116 -2.271739 29.704174 0.463607 1.647350 0.003582 -0.002769 -699957.000000 0 0 1
-27.712072 -13.751816 -1.826039 30.990415 0.460634 1.629753 0.015318 -0.006700 35757.400000 0 0 1
-28.140192 -14.876716 -2.624839 31.938642 0.486315 1.653073 0.021832 -0.019987 -118372.000000 0 0 1
-28.994872 -15.873916 -1.785939 33.103979 0.500901 1.624772 0.037665 -0.015256 526090.000000 0 0 1
-28.197872 -16.540716 -0.774039 32.700373 0.530504 1.594469 0.018301 -0.003282 749051.000000 0 0 1
-29.013792 -17.126116 0.248461 33.692221 0.533238 1.563422 0.014747 0.003352 139426.000000 0 0 1
-29.437642 -18.599716 0.059761 34.821370 0.563499 1.569080 0.022162 -0.003798 -159994.000000 0 0 1
-28.355142 -19.498916 0.133661 34.412784 0.602401 1.566912 0.025000 -0.007046 275760.000000 0 0 1
-28.733732 -20.914916 -0.003639 35.539571 0.629198 1.570899 0.028699 -0.004835 17251.300000 0 0 1
-29.617452 -21.520116 1.127461 36.627586 0.628358 1.540010 0.023814 -0.001576 -497375.000000 0 0 1
-29.000832 -21.679116 2.411561 36.288400 0.641921 1.504292 0.012333 -0.003122 587297.000000 0 0 1
-29.955622 -21.959816 3.468661 37.304215 0.632583 1.477679 0.008963 0.002318 758334.000000 0 0 1
-29.219102 -21.991616 4.877961 36.894195 0.645192 1.438193 -0.007016 0.008213 178924.000000 0 0 1
-28.669072 -20.757316 5.352761 35.797122 0.626673 1.420703 -0.016138 0.008835 53184.000000 0 0 1
-28.049882 -20.964216 6.584361 35.632121 0.641829 1.384941 -0.031365 0.006921 -2140.520000 0 0 1
-27.621812 -19.621916 7.264561 34.651954 0.617657 1.359586 -0.025886 0.016320 120145.000000 0 0 1
-26.697852 -19.849516 8.295661 34.286974 0.639320 1.326423 -0.021677 0.006517 -470568.000000 0 0 1
-26.301532 -18.660616 8.912661 33.457805 0.617065 1.301156 -0.005269 -0.000397 579217.000000 0 0 1
-24.990522 -18.893516 9.706861 32.798084 0.647347 1.270338 0.004647 0.005971 386272.000000 0 0 1
-25.427542 -19.643116 10.882861 33.924159 0.657755 1.244223 0.000068 0.004463 139072.000000 0 0 1
-24.417022 -19.979616 11.811561 33.688114 0.685780 1.212569 0.007266 0.012588 -171495.000000 0 0 1
-23.858522 -18.897716 12.765261 33.004615 0.669889 1.173668 0.010059 0.000269 -435827.000000 0 0 1
-22.914522 -17.993716 12.250861 31.605897 0.665684 1.172755 0.007683 -0.005294 -207778.000000 0 0 1
-22.742022 -16.877516 13.085561 31.197468 0.638445 1.137965 0.015793 -0.005280 64966.000000 0 0 1
-22.163822 -17.104116 14.531061 31.542630 0.657253 1.092035 0.032381 -0.009110 -128604.000000 0 0 1
-23.045122 -17.732916 15.470561 32.937399 0.655856 1.081850 0.024027 -0.007560 171889.000000 0 0 1
-22.325022 -18.095816 16.629361 33.202422 0.681148 1.046218 0.036170 -0.001534 682603.000000 0 0 1
-23.288422 -18.739716 17.713661 34.746242 0.677588 1.035843 0.027323 0.008902 959840.000000 0 0 1
-24.247722 -17.834216 18.267661 35.209640 0.634157 1.025320 0.037583 0.005068 453351.000000 0 0 1
-25.037122 -18.436916 19.321061 36.607113 0.634729 1.014794 0.024988 0.012020 -136077.000000 0 0 1
-25.939102 -17.404316 19.965961 37.072724 0.590975 1.002067 0.033198 0.008752 -725679.000000 0 0 1
-25.327462 -16.702416 21.008761 36.902833 0.582996 0.965143 0.049455 0.000451 241735.000000 0 0 1
-26.153322 -15.751416 21.683761 37.447147 0.542088 0.953234 0.054462 -0.002914 -197263.000000 0 0 1
-25.268512 -15.119116 22.703161 37.182239 0.539197 0.913989 0.054156 -0.005247 203230.000000 0 0 1
-24.211922 -14.311316 22.145661 35.797503 0.533839 0.903790 0.052702 -0.003415 216574.000000 0 0 1
-23.425222 -13.738516 23.141561 35.679401 0.530422 0.865056 0.052983 -0.011561 -710970.000000 0 0 1
-22.176622 -13.141616 22.515661 34.226592 0.534952 0.852848 0.047613 -0.005289 -663594.000000 0 0 1
-22.506122 -12.016516 21.708561 33.499012 0.490416 0.865794 0.062523 -0.005218 1228310.000000 0 0 1
-21.319122 -11.389616 21.160261 32.124523 0.490666 0.851713 0.046799 -0.003672 250753.000000 0 0 1
-21.153122 -9.917016 21.716361 31.896741 0.438394 0.821897 0.052772 -0.004921 -78569.800000 0 0 1
-20.789822 -9.869616 23.057861 32.577461 0.443231 0.784438 0.049978 -0.006590 187023.000000 0 0 1
-19.416722 -10.140116 23.239661 31.936075 0.481278 0.755844 0.030285 -0.005320 -350848.000000 0 0 1
-18.908022 -10.070916 24.700461 32.696321 0.489407 0.714455 0.028885 0.000273 226879.000000 0 0 1
-19.234022 -11.211216 25.480161 33.836039 0.527740 0.718114 0.031365 0.001283 187774.000000 0 0 1
-18.630522 -11.007616 26.762261 34.416313 0.533655 0.679950 0.030354 0.000769 -322096.000000 0 0 1
-18.721222 -12.213716 27.659361 35.562610 0.578060 0.679694 0.026076 -0.009807 457690.000000 0 0 1
-20.024822 -12.416816 28.176561 36.729952 0.555047 0.696445 0.024112 -0.005722 -73259.100000 0 0 1
-20.937222 -13.120516 27.367261 36.871156 0.559792 0.734389 0.027397 -0.008271 -714678.000000 0 0 1
-22.166422 -13.575016 28.119261 38.292612 0.549497 0.746123 0.026358 -0.013010 -1155840.000000 0 0 1
-21.982022 -14.670416 29.010561 39.243382 0.588498 0.738844 0.022804 -0.013880 -31070.600000 0 0 1
-21.207422 -14.376416 30.164861 39.577202 0.595736 0.704126 0.017937 -0.011640 36390.400000 0 0 1
-21.453222 -15.460916 31.209761 40.906354 0.624471 0.702922 0.011586 -0.017692 -605635.000000 0 0 1
-21.178222 -16.804016 30.909561 41.064498 0.670739 0.718631 0.017453 -0.013017 -31697.200000 0 0 1
-21.173022 -17.730916 32.020661 42.284808 0.697151 0.711686 0.015895 -0.011086 -114759.000000 0 0 1
-22.626222 -18.084716 32.462361 43.506410 0.674303 0.728534 0.032053 -0.015473 547664.000000 0 0 1
-23.391722 -17.070016 33.080061 43.964173 0.630412 0.719049 0.028482 -0.018673 -263665.000000 0 0 1
-24.621422 -17.513116 33.595461 45.183832 0.618267 0.732465 0.025763 -0.011301 -337521.000000 0 0 1
-25.302752 -16.404516 34.387261 45.736431 0.575200 0.719922 0.018588 -0.016013 -116090.000000 0 0 1
-24.769922 -16.201016 -33.362555 44.599126 0.579224 2.415921 0.014585 -0.011080 -93780.700000 0 0 1
-25.636982 -15.358016 -32.657155 44.267520 0.539726 2.400487 0.007740 -0.005030 -412770.000000 0 0 1
-25.033722 -14.888316 -31.327255 42.775532 0.536536 2.392583 -0.001967 0.005298 -336509.000000 0 0 1
-25.211662 -15.845716 -30.283555 42.471265 0.561118 2.364616 0.006854 0.009967 100378.000000 0 0 1
-24.757922 -15.369316 -29.014055 41.121600 0.555562 2.354020 0.021170 0.009870 -516113.000000 0 0 1
-25.362932 -16.018216 -27.793155 40.894022 0.563303 2.318066 0.011524 0.008303 -287716.000000 0 0 1
-26.638432 -15.542816 -27.405155 41.258063 0.528179 2.297270 0.016932 -0.000998 232516.000000 0 0 1
-26.842552 -14.276616 -26.759655 40.502142 0.488814 2.292544 0.012492 0.001496 -445569.000000 0 0 1
-26.030462 -14.115716 -25.431255 39.033154 0.496894 2.280395 0.023107 -0.003766 146959.000000 0 0 1
-24.654922 -13.808016 -25.639855 38.156633 0.510527 2.307653 0.010354 -0.005145 1018000.000000 0 0 1
-23.838322 -14.147416 -24.484655 36.985312 0.535607 2.294294 0.013832 -0.009168 284802.000000 0 0 1
-23.295522 -15.596816 -24.466955 37.209863 0.589975 2.288345 0.017330 -0.008987 -384868.000000 0 0 1
-22.314622 -15.982516 -25.436155 37.421667 0.621539 2.318173 0.012608 -0.000189 465843.000000 0 0 1
-22.071522 -17.378116 -25.430355 37.892664 0.666983 2.306509 0.020322 -0.005230 -609838.000000 0 0 1
-21.121422 -17.887316 -26.478255 38.303636 0.702680 2.334045 0.016201 -0.002796 -542561.000000 0 0 1
-21.562322 -17.859216 -27.815155 39.466039 0.691737 2.352919 0.017477 -0.004810 247756.000000 0 0 1
-22.617622 -18.756716 -28.125855 40.674746 0.692351 2.334335 0.025882 -0.014838 -30062.700000 0 0 1
-23.244422 -18.561816 -29.530655 41.915436 0.673856 2.352556 0.012172 -0.006778 -257175.000000 0 0 1
-22.450622 -18.975216 -30.614655 42.442271 0.701700 2.376509 0.022859 -0.003858 106182.000000 0 0 1
-23.122222 -18.719916 -31.811355 43.554962 0.680572 2.389664 0.007604 -0.000858 -437003.000000 0 0 1
-22.263522 -19.110516 -33.032455 44.181663 0.709338 2.415314 0.021718 -0.009922 -1198850.000000 0 0 1
-21.190022 -18.234416 -33.274655 43.459333 0.710569 2.442848 0.014930 -0.002699 -122591.000000 0 0 1
-19.925122 -18.684916 -32.834855 42.711407 0.753288 2.447698 0.017501 -0.009583 -124381.000000 0 0 1
-19.404222 -19.882816 -33.671855 43.653683 0.797580 2.451741 0.023406 -0.008377 -1874550.000000 0 0 1
-18.867022 -19.542416 34.168261 43.650207 0.802980 0.671685 0.016477 -0.012748 -191192.000000 0 0 1
-18.732822 -20.515816 33.126861 43.234318 0.830795 0.697864 0.019836 -0.015500 234485.000000 0 0 1
-20.037422 -21.219016 32.625861 43.774327 0.814031 0.729782 0.028918 -0.013476 387863.000000 0 0 1
-20.617222 -22.115516 33.574461 45.181969 0.820446 0.733114 0.026301 -0.010096 158496.000000 0 0 1
-21.759122 -22.816916 33.070061 45.691356 0.809124 0.761545 0.020447 -0.000855 175195.000000 0 0 1
-21.601722 -23.914916 31.963561 45.389722 0.836175 0.789497 0.032828 0.005071 -545835.000000 0 0 1
-20.947422 -25.065376 32.435861 46.034255 0.874656 0.788933 0.027659 0.013342 -41104.500000 0 0 1
-20.940522 -25.968666 31.386361 45.803720 0.892179 0.815869 0.036949 0.014526 97085.800000 0 0 1
-20.295922 -27.242286 31.971961 46.650540 0.930493 0.815712 0.014853 0.003605 -775075.000000 0 0 1
-21.061122 -27.714966 33.042561 47.994802 0.920977 0.811431 0.026717 0.002909 165024.000000 0 0 1
-20.474422 -28.816856 33.701661 48.840711 0.953057 0.809263 0.027617 -0.003287 -383621.000000 0 0 1
-21.529422 -29.482566 -34.432455 50.182982 0.940060 2.326963 0.025325 -0.004964 92944.200000 0 0 1
-22.561922 -30.197866 33.988661 50.756088 0.929131 0.837063 0.028319 -0.009654 467496.000000 0 0 1
-23.717522 -29.489526 33.567861 50.586108 0.893458 0.845204 0.028893 -0.009065 257497.000000 0 0 1
-24.860322 -29.390746 -34.426355 51.643252 0.868713 2.300460 0.031787 -0.011865 652050.000000 0 0 1
-26.022752 -28.638206 34.217561 51.654351 0.833210 0.846734 0.032533 -0.003665 712617.000000 0 0 1
-27.009502 -28.761326 -33.849155 51.985502 0.816799 2.279865 0.023845 0.004582 -818369.000000 0 0 1
-28.154452 -27.796306 -33.941855 52.128278 0.778997 2.279858 0.016948 -0.003616 -1051340.000000 0 0 1
-29.008812 -28.031586 34.042761 52.784378 0.768268 0.869851 0.017137 -0.008944 177725.000000 0 0 1
-30.054262 -27.033586 33.962661 52.797119 0.732535 0.872038 0.010182 -0.009920 635491.000000 0 0 1
