# x y z rho theta phi s1 s2 stress_xx np intf bulk
-0.810689 -10.807621 -14.366099 17.995741 1.495926 2.495273 0.007125 -0.000884 -1119220.000000 1 0 0
2.013811 -13.546521 -12.918899 18.827151 -1.423218 2.327027 0.009152 0.007042 588000.000000 1 0 0
2.004811 -11.306121 -14.668799 18.628508 -1.395300 2.477438 0.007976 0.004030 -372217.000000 1 0 0
-5.567189 -6.149321 -16.555499 18.517351 0.835042 2.677110 0.000246 -0.002359 -462458.000000 1 0 0
4.455511 -14.026921 -11.444199 18.643385 -1.263236 2.231722 0.004036 0.004888 998306.000000 1 0 0
14.156411 -10.634221 -7.887699 19.383148 -0.644265 1.989893 0.034396 -0.011608 -311902.000000 1 0 0
7.175211 10.808179 -10.770199 16.861126 0.984733 2.263681 0.010001 -0.006870 810031.000000 1 0 0
5.751511 -4.204521 -12.603699 14.477953 -0.631249 2.627104 0.000112 -0.005851 2972570.000000 1 0 0
13.682911 0.524879 -10.094999 17.011954 0.038341 2.206080 0.008703 0.002522 951510.000000 1 0 0
14.183311 5.084679 -10.402399 18.309292 0.344225 2.175051 0.006129 0.005085 -304561.000000 1 0 0
4.124811 4.406679 -13.409299 14.705176 0.818425 2.718628 -0.000051 0.002593 2743470.000000 1 0 0
10.393011 -5.040921 -13.680299 17.904640 -0.451600 2.440386 0.019766 -0.011745 703.010000 1 0 0
2.499811 -7.577421 -12.039499 14.443542 -1.252137 2.556310 0.001186 -0.001151 2137450.000000 1 0 0
-5.519689 -1.947721 -15.144799 16.236549 0.339227 2.772790 -0.002939 -0.003440 816700.000000 1 0 0
10.680111 0.006279 -9.667399 14.405673 0.000588 2.306465 0.010615 -0.002162 1950540.000000 1 0 0
-1.707089 -9.550421 -16.908399 19.494067 1.393919 2.620672 0.022213 -0.011566 1864950.000000 1 0 0
8.660411 1.647979 -17.805599 19.868516 0.188041 2.681861 -0.002705 -0.005462 -994557.000000 1 0 0
16.505311 -5.953121 -8.695599 19.582604 -0.346157 2.030907 0.021443 -0.010282 -840356.000000 1 0 0
10.160911 7.608379 -9.881399 16.086441 0.642726 2.232255 0.006256 -0.000660 524738.000000 1 0 0
13.869811 -2.350721 -10.603199 17.616055 -0.167889 2.216681 0.020268 -0.002478 -857195.000000 1 0 0
7.255211 -1.854521 -13.653299 15.572088 -0.250254 2.639922 0.004793 -0.007893 840857.000000 1 0 0
-2.729389 6.739779 -13.743699 15.548744 -1.186015 2.654956 0.002841 -0.003705 -201616.000000 1 0 0
11.267411 1.678279 -13.830299 17.917822 0.147863 2.452580 0.000633 -0.002119 240048.000000 1 0 0
-2.233089 10.806879 -12.937799 17.004763 -1.367028 2.435393 0.003938 -0.000650 -670245.000000 1 0 0
2.926411 -1.095421 -15.281899 15.598086 -0.358176 2.939901 0.004273 -0.005797 1425010.000000 1 0 0
-9.017789 0.583079 -15.220599 17.701049 -0.064569 2.605811 0.005737 0.000362 -780971.000000 1 0 0
2.528111 -1.705321 -18.066099 18.321665 -0.593436 2.974372 0.011875 -0.008472 1379560.000000 1 0 0
1.050611 7.875379 -13.152399 15.365903 1.438175 2.598176 0.006845 -0.003279 172771.000000 1 0 0
9.385211 -9.119221 -9.804399 16.351410 -0.771025 2.213805 0.019791 -0.005533 107786.000000 1 0 0
3.993711 7.358179 -13.414699 15.812864 1.073530 2.583640 -0.000508 0.000808 2296210.000000 1 0 0
-2.687589 9.147279 -15.523099 18.217092 -1.285025 2.590814 0.004227 -0.002369 231152.000000 1 0 0
5.474711 -7.767621 -15.173299 17.903559 -0.956848 2.582057 0.008241 -0.005184 -721754.000000 1 0 0
4.341011 7.339579 -16.267999 18.367406 1.036686 2.658795 0.002655 -0.001093 796529.000000 1 0 0
-0.218389 5.102679 -13.409699 14.349392 -1.528024 2.777686 0.008185 -0.004681 1374780.000000 1 0 0
8.768911 4.308179 -16.594499 19.256989 0.456665 2.609484 -0.007235 0.001125 -383893.000000 1 0 0
5.381411 0.334679 -14.367199 15.345619 0.062112 2.782571 -0.001735 -0.001879 722524.000000 1 0 0
6.242011 8.003479 -11.468799 15.315082 0.908425 2.417131 0.003818 -0.000684 319456.000000 1 0 0
2.725511 -8.466321 -14.964399 17.408051 -1.259349 2.605332 0.004459 -0.003264 650637.000000 1 0 0
4.150311 11.510779 -13.785999 18.433038 1.224746 2.415683 0.000681 -0.005004 -1045290.000000 1 0 0
0.594511 -4.575721 -13.703599 14.459575 -1.441593 2.816803 0.004784 -0.003343 1368210.000000 1 0 0
8.484011 -0.089521 -11.614199 14.383187 -0.010551 2.510671 0.001000 -0.002890 1372970.000000 1 0 0
-0.993189 -4.949121 -16.281399 17.045943 1.372747 2.840956 0.001868 -0.009193 -266967.000000 1 0 0
4.483411 0.908679 -11.694899 12.557760 0.199967 2.768731 -0.000034 -0.000834 -193277.000000 1 0 0
-2.926789 -7.145921 -15.671799 17.470992 1.182063 2.683773 0.000714 -0.004888 1995600.000000 1 0 0
11.422611 -3.826721 -11.426299 16.603619 -0.323261 2.329776 0.022094 -0.009955 2255540.000000 1 0 0
6.455711 -7.008621 -12.475299 15.698091 -0.826440 2.489312 0.007768 -0.005677 -1323690.000000 1 0 0
3.425211 -4.026221 -14.696399 15.618152 -0.865881 2.796316 0.007523 -0.004807 3428800.000000 1 0 0
-0.494389 -1.390421 -18.317699 18.377045 1.229170 3.061205 0.013645 -0.013372 722545.000000 1 0 0
14.961511 2.892379 -8.542799 17.469748 0.190966 2.081745 0.005869 0.004826 -1654350.000000 1 0 0
6.935911 4.257579 -14.275599 16.432485 0.550538 2.623454 -0.005102 0.005780 2413460.000000 1 0 0
9.969711 -9.598221 -14.024599 19.703055 -0.766416 2.362851 0.022849 -0.012614 -732832.000000 1 0 0
9.072211 -3.333021 -15.548499 18.307645 -0.352080 2.585435 0.011051 -0.016852 -1236020.000000 1 0 0
-5.140289 -1.906121 -18.066899 18.880379 0.355101 2.846978 -0.012910 0.001480 -734068.000000 1 0 0
4.998411 -9.036421 -11.084199 15.149274 -1.065545 2.391558 0.000905 -0.001613 2736290.000000 1 0 0
-2.409089 4.055679 -17.265099 17.897930 -1.034797 2.874879 0.003972 0.003684 782962.000000 1 0 0
9.365411 9.234779 -14.531499 19.599912 0.778375 2.405960 0.010288 0.000635 -993110.000000 1 0 0
9.797311 9.951879 -11.664199 18.195624 0.793225 2.266654 0.003856 -0.001588 526692.000000 1 0 0
12.118211 -5.976021 -9.663399 16.611597 -0.458148 2.191646 0.031607 -0.011622 -651075.000000 1 0 0
8.072511 6.894679 -13.606999 17.258403 0.706866 2.479045 0.000599 0.005368 500935.000000 1 0 0
4.052511 -4.149821 -17.511799 18.447411 -0.797261 2.821741 0.018180 -0.014755 528011.000000 1 0 0
9.333611 -7.539821 -12.313399 17.192586 -0.679487 2.369144 0.019510 -0.011696 625556.000000 1 0 0
12.098011 -8.744021 -8.834599 17.345602 -0.625842 2.105200 0.026363 -0.008832 971813.000000 1 0 0
-2.905589 -2.488621 -13.835099 14.354290 0.708252 2.871815 0.004421 -0.004413 -2430990.000000 1 0 0
-0.359489 6.205979 -17.665199 18.727057 -1.512935 2.803226 0.012198 0.001089 2553870.000000 1 0 0
1.130311 -8.502821 -17.408599 19.407084 -1.438638 2.683783 0.013802 -0.012921 2389330.000000 1 0 0
0.084811 8.510479 -15.952199 18.080600 1.560831 2.651486 0.009416 -0.003334 -959690.000000 1 0 0
1.784711 3.453379 -14.891899 15.390896 1.093798 2.886256 0.009159 -0.002024 1968160.000000 1 0 0
-1.875689 -0.480121 -15.740699 15.859330 0.250590 3.019204 0.009841 -0.007047 2326210.000000 1 0 0
14.186311 -4.383421 -8.456199 17.087221 -0.299683 2.088498 0.024413 -0.007035 -247203.000000 1 0 0
0.624011 0.692579 -14.528299 14.558178 0.837431 3.077514 0.005245 -0.004544 1994120.000000 1 0 0
8.845211 2.674879 -12.536899 15.574549 0.293666 2.506405 -0.002791 0.003024 1970720.000000 1 0 0
5.917811 0.901179 -17.108499 18.125489 0.151121 2.805019 0.006089 -0.000145 -45592.900000 1 0 0
15.323311 1.517379 -12.392199 19.765447 0.098702 2.248445 0.011943 0.003386 -654693.000000 1 0 0
8.697211 -11.225221 -11.910199 18.533751 -0.911616 2.268712 0.026679 -0.004671 385898.000000 1 0 0
-4.529889 0.791479 -15.008799 15.697464 -0.172978 2.844286 0.005682 -0.004616 556405.000000 1 0 0
2.459311 5.194379 -17.209999 18.144251 1.128608 2.819294 0.011976 -0.001274 1213370.000000 1 0 0
5.855211 -11.643321 -12.350499 17.955090 -1.104846 2.329326 0.009187 0.000427 1190190.000000 1 0 0
12.822111 7.218779 -8.698499 17.093308 0.512765 2.104683 0.003836 0.003389 441625.000000 1 0 0
-4.989289 3.673479 -15.810299 16.980960 -0.634658 2.768105 0.002059 -0.000188 1320740.000000 1 0 0
-0.528189 -4.310021 -19.038899 19.527799 1.448855 2.917355 0.013002 -0.015827 -2283990.000000 1 0 0
9.761311 4.456579 -10.241599 14.833565 0.428292 2.332885 0.002177 0.002720 293487.000000 1 0 0
13.324711 3.643579 -12.885999 18.891071 0.266920 2.321456 0.007239 -0.000103 617710.000000 1 0 0
-6.061789 5.872579 -17.299799 19.248780 -0.769545 2.687702 -0.006352 0.007600 -95471.800000 1 0 0
-10.046989 3.297379 -15.390499 18.673033 -0.317120 2.539602 0.002991 0.002355 -1649190.000000 1 0 0
10.761111 13.495279 -8.350499 19.174329 0.897644 2.021395 0.027041 -0.006113 724830.000000 1 0 0
7.479111 13.363979 -12.306999 19.646762 1.060577 2.247740 0.009377 -0.006356 1258790.000000 1 0 0
5.352211 15.170679 -11.231199 19.619773 1.231630 2.180278 0.003681 -0.011535 547170.000000 1 0 0
14.343311 9.495979 -9.868699 19.831677 0.584799 2.091653 0.030266 -0.004744 -433599.000000 1 0 0
8.019711 -17.470821 -2.123699 19.340513 -1.140455 1.680824 0.007884 0.007760 -724506.000000 1 0 0
0.640711 -16.032421 -0.020399 16.045232 -1.530854 1.572068 0.005087 -0.005106 2649590.000000 1 0 0
-9.120189 -11.761321 7.442601 16.640277 0.911212 1.107092 -0.003084 -0.009014 566898.000000 1 0 0
1.973611 -15.949621 -2.674999 16.292366 -1.447682 1.735730 0.003807 -0.003943 2102430.000000 1 0 0
-1.449289 -10.963821 -9.458399 14.552221 1.439370 2.278332 0.005215 0.001569 902587.000000 1 0 0
-4.977389 -12.580121 -13.054999 18.800714 1.194041 2.338366 0.012224 -0.002283 -194463.000000 1 0 0
-8.304989 -17.932421 -1.961199 19.859277 1.137080 1.669712 0.001538 -0.006212 -148332.000000 1 0 0
-11.372689 -7.043321 -8.886899 16.059994 0.554504 2.157185 0.008455 -0.006498 3234610.000000 1 0 0
-13.543389 -11.492021 -4.773699 18.392339 0.703642 1.833351 -0.005813 0.002330 -1375000.000000 1 0 0
-5.827489 -13.465121 9.710701 17.594511 1.162351 0.986136 0.003841 -0.018138 744337.000000 1 0 0
0.143911 -14.029121 -3.631999 14.492356 -1.560539 1.824112 0.005770 -0.002791 545189.000000 1 0 0
-14.819889 -11.718921 1.933901 18.992161 0.669079 1.468793 0.005071 0.002476 670119.000000 1 0 0
-3.980089 -16.434321 -7.616499 18.545595 1.333190 1.994008 -0.001670 -0.003397 131689.000000 1 0 0
0.457011 -15.289921 -9.315099 17.909819 -1.540916 2.117778 0.006306 0.006652 1314640.000000 1 0 0
4.468711 -14.230921 -2.565999 15.135153 -1.266533 1.741158 -0.003445 0.001707 275803.000000 1 0 0
-3.599189 -17.948621 -2.429099 18.466393 1.372894 1.702720 -0.007261 -0.013244 1672140.000000 1 0 0
-0.972589 -13.520021 0.679701 13.571989 1.498983 1.520694 0.008204 -0.004558 2482280.000000 1 0 0
-8.595689 -11.296721 -10.559099 17.691703 0.920355 2.210352 0.007998 -0.006085 1378890.000000 1 0 0
-3.718389 -14.082521 -0.423199 14.571305 1.312645 1.599844 -0.001995 -0.000931 4547110.000000 1 0 0
-1.573289 -14.944521 -7.243499 16.681793 1.465907 2.019964 -0.004317 0.003096 491239.000000 1 0 0
-14.137289 -7.916921 -1.901999 16.314355 0.510490 1.687646 -0.005363 0.005531 1437020.000000 1 0 0
-10.639989 -7.172021 -11.726899 17.382963 0.593106 2.311246 0.007132 -0.006118 -390042.000000 1 0 0
-9.439989 -14.754221 6.637301 18.731102 1.001614 1.208581 -0.015259 -0.009572 145451.000000 1 0 0
-2.665489 -14.265421 -12.357999 19.061144 1.386077 2.276191 0.017863 -0.000166 77998.500000 1 0 0
2.234811 -17.852021 -4.824599 18.627018 -1.446259 1.832794 0.008117 -0.004987 -724411.000000 1 0 0
-6.738889 -9.609421 -9.271199 14.956896 0.959212 2.239362 0.008296 -0.004022 1650210.000000 1 0 0
-11.054389 -15.412521 0.441601 18.972094 0.948597 1.547518 0.008209 -0.003458 1298780.000000 1 0 0
-12.618689 -11.207721 3.944301 17.332104 0.726249 1.341213 0.006673 -0.006085 1133020.000000 1 0 0
-16.968389 -8.840821 -1.629699 19.202663 0.480320 1.655767 -0.001266 0.005463 414937.000000 1 0 0
-1.558089 -19.283421 -3.997799 19.755009 1.490172 1.774573 -0.000112 -0.007390 75598.300000 1 0 0
3.182611 -14.205121 -8.764899 16.992291 -1.350389 2.112756 -0.003548 0.004706 977937.000000 1 0 0
-4.315389 -8.045121 -13.159499 16.016210 1.078456 2.535072 -0.000432 -0.000045 1707840.000000 1 0 0
5.497511 -16.617721 1.279601 17.550176 -1.251307 1.497821 0.011050 0.003941 3821300.000000 1 0 0
-2.833789 -13.729321 -3.263399 14.393554 1.367251 1.799512 0.000239 -0.000715 -271698.000000 1 0 0
-0.436589 -13.965921 3.631801 14.437020 1.539545 1.316503 0.007255 -0.002287 -1785350.000000 1 0 0
1.190711 -16.256121 7.071701 17.767617 -1.497680 1.161449 0.019226 -0.011239 2725590.000000 1 0 0
-5.655289 -10.236621 -14.728999 18.807289 1.066069 2.470518 0.001585 -0.001077 -842521.000000 1 0 0
-0.430389 -17.297321 -5.860499 18.268224 1.545920 1.897373 0.004351 -0.005217 427135.000000 1 0 0
-6.558889 -13.441521 -1.312499 15.013866 1.116829 1.658327 0.001796 -0.002447 3790640.000000 1 0 0
-1.825589 -17.755621 -0.158399 17.849928 1.468339 1.579670 -0.002357 -0.004635 2327570.000000 1 0 0
-9.535489 -9.812121 -4.944099 14.548106 0.799695 1.917548 0.008755 -0.003086 2222800.000000 1 0 0
-0.882989 -16.649421 4.883401 17.373270 1.517812 1.285870 0.017226 -0.007143 2483700.000000 1 0 0
-6.857989 -9.928921 -6.428199 13.672499 0.966334 2.060263 0.011577 -0.004762 2868480.000000 1 0 0
-6.113789 -14.552921 -8.722399 18.034583 1.173077 2.075615 0.009459 -0.006391 423828.000000 1 0 0
-5.828789 -12.107721 -10.357299 16.966005 1.122130 2.227455 0.009648 -0.005661 976453.000000 1 0 0
-10.920089 -12.265121 -8.893099 18.675351 0.843346 2.067118 0.012495 -0.012256 136470.000000 1 0 0
4.013311 -17.337721 6.595601 18.979072 -1.343324 1.215872 0.030609 -0.004483 1633580.000000 1 0 0
-6.798989 -14.381321 -4.231799 16.460765 1.129173 1.830800 0.006940 -0.007905 -809537.000000 1 0 0
-2.962389 -12.176221 -7.184099 14.444632 1.332140 2.091343 0.009112 -0.002135 2554130.000000 1 0 0
-7.007289 -12.905121 4.291101 15.298948 1.073355 1.286499 -0.004231 -0.005479 835738.000000 1 0 0
2.530711 -16.393621 2.402301 16.760858 -1.417634 1.426973 0.009726 -0.003255 3771530.000000 1 0 0
-6.291089 -12.026721 7.101401 15.318280 1.088846 1.088754 0.001032 -0.009293 -507019.000000 1 0 0
-11.311389 -12.901421 -1.061799 17.190742 0.850973 1.632601 0.003714 0.003195 92321.500000 1 0 0
-14.186189 -8.807821 4.481201 17.288922 0.555626 1.308608 0.004180 -0.004442 460774.000000 1 0 0
-8.010389 -15.554521 4.210501 17.995493 1.095230 1.334632 -0.011927 -0.001390 -721748.000000 1 0 0
-16.532089 -9.227721 1.179601 18.969772 0.509094 1.508573 0.003930 0.005781 -95101.900000 1 0 0
-6.754389 -17.141021 2.177301 18.552008 1.195431 1.453163 -0.012414 -0.000282 2174910.000000 1 0 0
-11.646489 -14.954821 -4.898099 19.577506 0.909130 1.823673 0.021972 -0.005749 270857.000000 1 0 0
-10.243989 -9.843821 -12.607699 18.994583 0.765480 2.296621 0.008859 -0.003328 -1421820.000000 1 0 0
-4.420489 -15.964321 -4.610399 17.194652 1.300666 1.842248 -0.004234 -0.005689 -722729.000000 1 0 0
-11.743789 -8.258821 -0.026099 14.357067 0.612904 1.572614 -0.006965 0.003670 1905430.000000 1 0 0
-9.597389 -11.242921 3.384901 15.164785 0.864194 1.345692 -0.002529 -0.000742 3397850.000000 1 0 0
-14.267489 -13.014321 -0.709999 19.324541 0.739496 1.607545 0.009401 0.011116 1736620.000000 1 0 0
5.461511 -14.978521 -7.063899 17.437972 -1.221154 1.987871 -0.004025 -0.001274 1569790.000000 1 0 0
-7.535489 -10.560721 -1.325899 13.041105 0.951041 1.672643 -0.000366 0.000936 1551720.000000 1 0 0
-11.609289 -8.169321 -6.099699 15.450557 0.613197 1.976634 0.001565 -0.003825 -14503.000000 1 0 0
-14.372989 -6.563421 -9.253099 18.310684 0.428370 2.100571 0.007195 -0.009990 1064070.000000 1 0 0
-3.954789 -16.469821 1.422801 16.997639 1.335135 1.486992 -0.004805 -0.004462 1092710.000000 1 0 0
-8.041289 -15.656121 -0.026299 17.600487 1.096313 1.572291 0.001612 -0.003969 1132620.000000 1 0 0
0.906311 -18.585621 3.644901 18.961329 -1.522071 1.377364 0.013099 -0.008529 523012.000000 1 0 0
-14.104389 -8.672921 -4.674999 17.204911 0.551310 1.845981 -0.005142 0.000101 1020920.000000 1 0 0
-3.272689 -14.610121 10.955901 18.552571 1.350432 0.939077 0.005045 -0.016699 2339510.000000 1 0 0
-10.878589 -12.188121 -3.933299 16.803715 0.842109 1.807061 0.003861 -0.003279 386611.000000 1 0 0
-10.005589 -10.771221 0.508901 14.710200 0.822232 1.536194 -0.000152 0.004219 2686120.000000 1 0 0
-0.303589 -13.147021 -11.135999 17.232145 1.547709 2.273436 0.001710 0.001955 2872800.000000 1 0 0
-6.004989 -12.664921 -6.486799 15.444698 1.128047 2.004244 0.005586 -0.006268 1590560.000000 1 0 0
1.759811 -15.821921 9.899601 18.746526 -1.460025 1.014462 0.018953 -0.014254 -388921.000000 1 0 0
-9.005389 -15.752721 -5.605899 18.991350 1.051467 1.870442 0.022020 -0.011931 -320215.000000 1 0 0
-3.409489 -15.422421 5.811201 16.829906 1.353222 1.218248 0.004416 -0.007555 -535824.000000 1 0 0
-17.406889 -5.376221 -6.545199 19.358284 0.299562 1.915703 0.000715 -0.002536 -197266.000000 1 0 0
18.891011 5.513479 -2.795399 19.876695 0.283970 1.711901 0.002667 0.011390 -940170.000000 1 0 0
12.850711 -12.488721 -5.843199 18.848127 -0.771113 1.886005 0.034541 -0.006024 493922.000000 1 0 0
10.991511 -13.488721 -1.698799 17.482701 -0.887056 1.668120 0.023742 -0.005958 1620860.000000 1 0 0
18.643611 -2.937421 4.435101 19.387697 -0.156272 1.339994 0.029782 -0.012734 -463284.000000 1 0 0
8.669811 -16.866421 5.086501 19.634517 -1.095989 1.308748 0.014719 -0.009133 688221.000000 1 0 0
18.154711 -1.081221 6.592901 19.344997 -0.059486 1.223022 0.046800 -0.011210 -129278.000000 1 0 0
18.082311 -4.258221 -4.972499 19.230917 -0.231277 1.832336 0.027159 -0.013543 735959.000000 1 0 0
5.524011 -11.678321 14.817201 19.658263 -1.128970 0.717063 0.006509 0.004552 194304.000000 1 0 0
15.996311 -8.932621 -0.821699 18.339817 -0.509283 1.615615 0.028743 -0.010124 1073940.000000 1 0 0
13.854011 -12.575321 -1.477699 18.768482 -0.737054 1.649611 0.029289 -0.004164 899448.000000 1 0 0
11.195111 -1.819721 13.867201 17.914831 -0.161137 0.685563 0.009456 -0.002689 -511564.000000 1 0 0
17.021111 -6.150221 -1.377699 18.150523 -0.346732 1.646774 0.020519 -0.012883 -1820470.000000 1 0 0
17.727011 3.519879 -0.956799 18.098396 0.196011 1.623688 0.004688 0.006028 -60451.700000 1 0 0
9.718811 -10.992221 9.580701 17.523528 -0.846805 0.992338 0.002489 -0.000774 -402549.000000 1 0 0
8.962311 -11.074421 4.203601 14.853824 -0.890422 1.283878 -0.002816 -0.001156 -208265.000000 1 0 0
13.920211 -10.188121 6.833101 18.554281 -0.631812 1.193642 0.011687 -0.005366 549277.000000 1 0 0
16.280511 -0.539221 -4.773899 16.974567 -0.033109 1.855881 0.012653 0.000115 588332.000000 1 0 0
15.833111 -0.564821 -1.756599 15.940266 -0.035658 1.681219 0.014254 -0.002231 696954.000000 1 0 0
12.895011 -5.227721 -0.386799 13.919770 -0.385158 1.598588 0.017895 -0.008410 1758130.000000 1 0 0
14.238811 -7.619521 1.037301 16.182609 -0.491350 1.506653 0.020515 -0.005090 937910.000000 1 0 0
15.463111 2.417579 3.650101 16.070959 0.155089 1.341673 0.015446 -0.003841 1468720.000000 1 0 0
15.805411 -7.195221 4.961001 18.060835 -0.427201 1.292537 0.022901 -0.010307 -619466.000000 1 0 0
13.509611 -12.182121 3.263401 18.481435 -0.733774 1.393288 0.006809 -0.003473 -630546.000000 1 0 0
14.001611 -0.956321 9.165201 16.761878 -0.068195 0.992273 0.024888 -0.006691 -24824.100000 1 0 0
14.181011 -2.865421 -1.693699 14.566411 -0.199376 1.687334 0.012322 -0.004982 100542.000000 1 0 0
15.073111 1.817279 9.143601 17.723053 0.119985 1.028720 0.035966 -0.006338 -1947850.000000 1 0 0
14.357811 -10.142721 -3.021599 17.836804 -0.615025 1.741020 0.026527 -0.009438 221408.000000 1 0 0
7.319311 -12.617721 6.145101 15.828502 -1.045151 1.172086 -0.006249 0.001935 211003.000000 1 0 0
12.376511 -4.704521 6.877801 14.920278 -0.363249 1.091708 0.014846 -0.001876 3054800.000000 1 0 0
14.980611 -8.939821 -5.635399 18.332944 -0.538033 1.883247 0.035324 -0.011700 -722836.000000 1 0 0
14.239011 -4.560521 4.549901 15.628480 -0.309960 1.275390 0.017707 -0.009634 1528460.000000 1 0 0
17.054111 -4.265521 1.026101 17.609380 -0.245089 1.512493 0.011533 -0.016958 -1353700.000000 1 0 0
10.121911 -14.516721 0.970101 17.723695 -0.961912 1.516034 0.015412 -0.002943 75078.000000 1 0 0
16.332111 -2.551821 8.437501 18.559123 -0.154992 1.098842 0.032051 -0.012273 646048.000000 1 0 0
16.089511 -2.593221 3.191301 16.606672 -0.159800 1.377424 0.020226 -0.008195 1411260.000000 1 0 0
7.767211 -15.304821 2.700301 17.374083 -1.101166 1.414743 0.002355 0.000358 2395350.000000 1 0 0
16.651411 -6.976321 7.778401 19.658130 -0.396746 1.163984 0.034930 -0.011185 -1137130.000000 1 0 0
10.205511 -8.553521 5.079501 14.251895 -0.697561 1.206375 0.004077 -0.004500 264279.000000 1 0 0
10.799511 -11.879321 2.091301 16.190159 -0.832975 1.441263 0.007782 -0.001934 310831.000000 1 0 0
12.384911 -7.162521 12.058901 18.711088 -0.524331 0.870455 0.008274 -0.006877 1215380.000000 1 0 0
15.067611 -9.941921 4.275901 18.551497 -0.583248 1.338217 0.013678 -0.008866 -139609.000000 1 0 0
7.360511 -10.223121 7.810701 14.822158 -0.946782 1.015775 -0.008520 0.004363 873832.000000 1 0 0
15.234411 -3.432221 -4.482099 16.246742 -0.221594 1.850298 0.017013 -0.005963 1159020.000000 1 0 0
11.892811 -8.950121 9.766201 17.802312 -0.645141 0.990117 0.005468 -0.001475 -592037.000000 1 0 0
16.873411 -6.772621 2.382001 18.337239 -0.381694 1.440529 0.026199 -0.013455 2061060.000000 1 0 0
17.559511 3.881479 2.104601 18.106122 0.217549 1.454296 0.012492 0.001674 317463.000000 1 0 0
14.700211 -4.964621 8.657701 17.767933 -0.325697 1.061841 0.026263 -0.007974 137097.000000 1 0 0
12.587511 -12.722321 6.126101 18.916448 -0.790725 1.241000 -0.001692 -0.000554 877016.000000 1 0 0
18.292311 0.588079 -0.929599 18.325355 0.032138 1.621546 0.017192 -0.004045 -178441.000000 1 0 0
11.721211 -2.080421 10.952401 16.176218 -0.175663 0.827025 0.010226 0.001392 1204130.000000 1 0 0
5.944911 -12.431321 10.523501 17.338506 -1.124724 0.918587 -0.001083 0.002546 -2059270.000000 1 0 0
10.728611 -4.972821 11.039501 16.177225 -0.434032 0.819742 0.009266 -0.004120 2306420.000000 1 0 0
17.765311 1.286179 5.098301 18.527094 0.072272 1.292019 0.028450 -0.005922 192547.000000 1 0 0
12.192811 -7.800921 7.079101 16.113121 -0.569169 1.115935 0.012171 -0.008457 -1939880.000000 1 0 0
10.617211 -7.856921 14.283501 19.454428 -0.637082 0.746304 0.006262 -0.008979 -638044.000000 1 0 0
14.140011 -0.268221 3.742001 14.629232 -0.018967 1.312132 0.012398 -0.001817 1258470.000000 1 0 0
11.611011 -7.700321 2.511001 14.156823 -0.585593 1.392483 0.012877 -0.004046 1965920.000000 1 0 0
9.295511 6.123579 3.572401 11.690457 0.582514 1.260246 -0.000053 0.000713 2336330.000000 1 0 0
-3.928189 14.830479 -9.939099 18.280029 -1.311870 2.145652 -0.002173 -0.001148 488593.000000 1 0 0
8.894211 -6.467421 9.286501 14.393527 -0.628716 0.869530 0.004830 -0.001745 1167570.000000 1 0 0
5.802711 -10.554021 -8.435299 14.704186 -1.068099 2.181772 0.001317 -0.003321 107828.000000 1 0 0
5.332611 1.025279 0.515001 5.454646 0.189948 1.476240 0.002783 0.000922 4401960.000000 1 0 0
-0.520989 9.908479 11.063501 14.861037 -1.518265 0.731065 -0.002539 0.005107 737025.000000 1 0 0
-6.324889 -5.213821 1.007001 8.258462 0.689404 1.448556 0.005035 -0.003189 4861350.000000 1 0 0
-0.996189 4.077079 -10.788899 11.576498 -1.331153 2.770594 0.008385 -0.003232 3280380.000000 1 0 0
10.890811 5.733379 1.225101 12.368600 0.484577 1.471584 0.001480 -0.000077 1552980.000000 1 0 0
-10.193889 -1.734621 -13.693299 17.158984 0.168548 2.494807 0.011196 -0.004046 1405780.000000 1 0 0
7.441911 10.971179 -6.045699 14.570494 0.974773 1.998659 0.002801 -0.002624 372032.000000 1 0 0
-12.419489 -2.833821 -9.553499 15.923052 0.224335 2.214271 0.008041 -0.007877 449491.000000 1 0 0
-3.954889 -8.668221 2.429401 9.832659 1.142756 1.321136 0.007692 -0.001934 -1427300.000000 1 0 0
8.017911 -6.643721 -5.858999 11.947962 -0.691944 2.083318 0.004802 -0.009317 2117510.000000 1 0 0
14.268811 3.058979 -4.230699 15.193918 0.211186 1.852973 0.014976 0.003290 2212020.000000 1 0 0
-2.434889 -5.021321 9.839101 11.311510 1.119293 0.515937 0.000417 -0.000763 3523700.000000 1 0 0
3.471911 -1.955721 -4.522899 6.027904 -0.512996 2.419353 -0.001044 -0.000358 -2173210.000000 1 0 0
-3.957589 8.430479 -3.476399 9.940867 -1.131896 1.928056 -0.004165 -0.000950 913905.000000 1 0 0
5.839311 0.066979 11.762401 13.132255 0.011470 0.460821 0.001604 -0.004980 1940210.000000 1 0 0
7.171311 4.651379 12.444801 15.097553 0.575397 0.601845 -0.003735 0.001717 -172711.000000 1 0 0
1.178711 -14.524021 12.411801 19.141300 -1.489818 0.865275 0.006381 -0.008019 -38224.300000 1 0 0
3.009211 8.816479 -9.052199 12.989533 1.241878 2.341840 0.004749 -0.003900 893054.000000 1 0 0
-4.477389 -8.919521 -4.615899 10.995972 1.105569 2.004000 0.010689 -0.002604 2889680.000000 1 0 0
5.631911 -6.507521 -4.126899 9.544504 -0.857403 2.017932 0.001698 -0.006503 2151830.000000 1 0 0
-3.194389 3.515479 8.684801 9.898913 -0.833215 0.500487 0.000442 -0.001107 1643860.000000 1 0 0
-3.823889 3.361679 -11.072399 12.186921 -0.721162 2.710591 0.005188 -0.004547 -314268.000000 1 0 0
3.038611 -6.167021 8.557201 10.976839 -1.112990 0.676819 -0.005630 0.000151 51459.100000 1 0 0
-5.234389 -8.736421 10.388901 14.548304 1.031005 0.775463 0.009375 -0.006387 822634.000000 1 0 0
-13.221289 -2.464121 6.586801 14.975324 0.184261 1.115372 0.001929 0.001215 1164410.000000 1 0 0
4.011111 -5.938421 -8.351999 11.004987 -0.976737 2.432462 0.001778 -0.003385 3756220.000000 1 0 0
2.932011 -0.552621 12.415601 12.769073 -0.186293 0.235841 0.002572 -0.002898 498379.000000 1 0 0
1.506611 -1.398921 -7.620799 7.893253 -0.748351 2.878087 0.001365 -0.002420 -165309.000000 1 0 0
3.567511 -3.460521 3.409701 6.027305 -0.770176 0.969503 -0.003423 -0.000424 1452130.000000 1 0 0
1.581011 0.476579 -11.856399 11.970836 0.292777 3.003210 0.006101 -0.003478 2058970.000000 1 0 0
4.105011 3.570279 -10.531099 11.853356 0.715841 2.664750 -0.000695 0.000666 1178850.000000 1 0 0
2.851811 3.226979 3.457101 5.522478 0.847037 0.894376 -0.002849 0.002555 -810927.000000 1 0 0
-5.278589 0.815279 2.684301 5.977763 -0.153239 1.105097 -0.000048 -0.003952 940970.000000 1 0 0
-9.498689 -9.348121 5.617001 14.462474 0.777409 1.171919 -0.001649 -0.004646 -1246930.000000 1 0 0
-3.141689 3.910579 -0.548699 5.046177 -0.893997 1.679747 -0.000304 -0.002879 -348454.000000 1 0 0
-15.848089 -6.642121 4.889001 17.865666 0.396873 1.293607 0.012280 -0.004752 471043.000000 1 0 0
1.003011 6.827279 -8.071999 10.619555 1.424928 2.434274 0.006234 -0.003439 814359.000000 1 0 0
-1.700189 6.588579 -9.359899 11.571851 -1.318255 2.512991 0.004429 -0.001919 268916.000000 1 0 0
2.050411 -0.332321 5.365001 5.753074 -0.160678 0.369397 -0.002235 0.000224 2328160.000000 1 0 0
-3.342189 -0.569021 -6.254599 7.114353 0.168637 2.644876 0.008469 -0.006399 1118430.000000 1 0 0
1.807911 -1.171521 -2.472699 3.279519 -0.574966 2.424900 0.004713 0.000529 -132756.000000 1 0 0
2.468111 -8.557021 -7.555999 11.679354 -1.289987 2.274379 -0.000686 -0.001098 2420760.000000 1 0 0
-2.472889 14.065479 -5.530799 15.314784 -1.396762 1.940288 -0.001235 0.000817 2191150.000000 1 0 0
6.964511 -5.147421 -8.236299 11.951443 -0.636484 2.331107 0.004921 -0.008147 3683490.000000 1 0 0
-14.180389 -4.923421 -2.236599 15.176491 0.334178 1.718708 -0.002285 0.000589 141981.000000 1 0 0
-2.705389 6.901879 -6.802399 10.061198 -1.197224 2.313256 0.001817 -0.002656 -1530470.000000 1 0 0
-5.677689 -1.188521 -8.037699 9.912282 0.206352 2.516455 0.015488 -0.007523 1156280.000000 1 0 0
-5.698689 -10.599321 3.388301 12.502050 1.077487 1.296344 0.005350 -0.003671 -3928200.000000 1 0 0
8.028211 -7.551321 6.629601 12.861813 -0.754798 1.029265 -0.002187 -0.003182 1122720.000000 1 0 0
8.725311 -5.974621 13.177101 16.895654 -0.600415 0.676273 0.007941 -0.002966 62488.200000 1 0 0
-4.681689 9.467579 -0.700299 10.585069 -1.111561 1.637004 -0.003428 0.005422 2098870.000000 1 0 0
2.758111 6.504979 12.113801 14.023769 1.169773 0.528023 -0.002008 0.001924 931698.000000 1 0 0
5.969311 -2.850221 10.959301 12.800887 -0.445469 0.543051 0.003369 -0.003148 100087.000000 1 0 0
-9.682689 -6.560621 -1.177499 11.755115 0.595508 1.671134 0.003463 -0.001455 -1316470.000000 1 0 0
0.970711 -13.444321 6.203101 14.838144 -1.498719 1.139498 0.008101 -0.002121 -258651.000000 1 0 0
-0.513289 -3.178621 8.704401 9.280824 1.410697 0.354296 -0.002552 -0.000901 1922550.000000 1 0 0
4.158911 0.718779 3.416701 5.430196 0.171138 0.890268 -0.001675 0.002247 2551720.000000 1 0 0
-10.226389 5.565679 8.332501 14.317345 -0.498415 0.949627 -0.006196 -0.000622 693937.000000 1 0 0
9.319511 7.928679 0.030001 12.235936 0.704936 1.568344 -0.000967 0.000994 709381.000000 1 0 0
4.285611 2.901079 8.251201 9.739868 0.595078 0.560184 -0.001183 -0.000849 4558320.000000 1 0 0
1.399111 2.684979 -9.740299 10.200003 1.090421 2.840224 0.006887 -0.003871 487652.000000 1 0 0
-1.399289 -10.104721 2.984301 10.628709 1.433193 1.286192 0.005500 -0.002114 -1230410.000000 1 0 0
-9.985889 9.584679 9.121301 16.576555 -0.764900 0.988129 -0.005416 -0.000738 2407530.000000 1 0 0
9.850011 -2.029421 -7.762999 12.704543 -0.203189 2.228172 0.015572 -0.004455 1530430.000000 1 0 0
-5.199689 -1.949721 6.705401 8.706353 0.358743 0.691683 -0.000272 -0.001950 1619240.000000 1 0 0
3.131811 -7.849821 -4.877799 9.758118 -1.191182 2.094246 -0.003786 -0.004405 1482150.000000 1 0 0
-5.032289 4.983679 -13.126399 14.915205 -0.780545 2.646802 -0.000290 -0.005789 1787170.000000 1 0 0
-5.683589 9.564079 5.497401 12.409521 -1.034605 1.111856 0.003461 -0.000476 1857470.000000 1 0 0
-0.443489 -1.717621 -9.397399 9.563368 1.318116 2.955018 0.005294 -0.004077 1456870.000000 1 0 0
-16.793889 -0.005621 6.478301 18.000087 0.000335 1.202631 0.020749 -0.005717 -298732.000000 1 0 0
-6.024489 -2.902021 4.058101 7.822044 0.448904 1.025346 -0.002861 -0.001186 2675330.000000 1 0 0
0.975911 -5.720321 -5.133899 7.747993 -1.401819 2.295095 0.000479 -0.003729 2180680.000000 1 0 0
-7.046489 1.445579 -8.378399 11.042657 -0.202341 2.432158 0.007947 -0.004223 928105.000000 1 0 0
7.893211 1.961479 4.768901 9.428287 0.243568 1.040478 -0.000811 0.000270 991694.000000 1 0 0
0.533511 -8.092021 -0.616099 8.132959 -1.504961 1.646622 -0.000042 -0.000577 993627.000000 1 0 0
5.464911 5.533279 -3.375199 8.477877 0.791614 1.980261 0.001384 0.002439 -104955.000000 1 0 0
-0.796289 -0.351221 -1.180199 1.466391 0.415405 2.506190 0.001759 -0.001717 875596.000000 1 0 0
9.118511 6.390579 -6.265999 12.776912 0.611287 2.083363 0.003928 -0.000482 1237060.000000 1 0 0
-14.924189 -7.197021 2.433601 16.746670 0.449338 1.424961 -0.004898 -0.000634 343666.000000 1 0 0
-6.444089 6.823379 8.853001 12.901954 -0.813978 0.814578 0.000321 0.000882 -462094.000000 1 0 0
-9.422989 -3.120821 -9.647999 13.842548 0.319822 2.341976 0.013511 -0.004703 1166420.000000 1 0 0
14.899511 3.417279 -1.282999 15.340121 0.225456 1.654531 0.002316 0.000798 880159.000000 1 0 0
12.010511 1.678879 -5.802899 13.444131 0.138884 2.017096 0.013519 0.001635 -602651.000000 1 0 0
1.767811 -9.473521 12.722801 15.960652 -1.386313 0.648260 -0.001133 -0.001199 -1099510.000000 1 0 0
-3.650989 6.432779 7.900601 10.822655 -1.054571 0.752466 0.001117 0.001355 903889.000000 1 0 0
-4.029689 13.144979 -12.370399 18.494746 -1.273335 2.303471 -0.001328 -0.001662 52185.500000 1 0 0
-10.308789 7.904579 6.486301 14.519835 -0.654154 1.107700 -0.005988 -0.001578 551009.000000 1 0 0
8.073811 -9.310221 -7.083999 14.214418 -0.856402 2.092511 0.008374 -0.005505 118304.000000 1 0 0
5.815011 -3.812121 -0.316999 6.960396 -0.580278 1.616355 0.004297 -0.002345 -1539580.000000 1 0 0
-1.621189 -4.431221 4.209401 6.323214 1.220066 0.842357 -0.000854 0.000617 170728.000000 1 0 0
9.939111 -2.077821 -2.647599 10.493477 -0.206087 1.825862 0.009221 -0.002926 -1061000.000000 1 0 0
13.562211 7.007679 1.428101 15.332339 0.476923 1.477518 0.002533 0.000432 1625170.000000 1 0 0
5.312511 -3.681821 -3.229099 7.225349 -0.606044 2.034107 0.004406 -0.005982 -2844490.000000 1 0 0
-12.293489 -5.940121 1.914701 13.786986 0.450111 1.431469 -0.004244 0.001435 500566.000000 1 0 0
3.668611 -5.765021 -0.294899 6.839674 -1.004072 1.613926 -0.000411 -0.000789 -196308.000000 1 0 0
-5.197589 3.762979 -8.618099 10.744607 -0.626643 2.501576 0.005505 -0.005842 -259911.000000 1 0 0
-1.658889 -9.271721 7.221101 11.868489 1.393750 0.916720 0.006580 -0.003513 3061960.000000 1 0 0
-7.435989 -7.472921 2.568201 10.850536 0.787875 1.331840 0.006505 -0.003228 -4628560.000000 1 0 0
-5.680789 13.101079 -8.500199 16.618153 -1.161654 2.107727 -0.000395 -0.005870 2306470.000000 1 0 0
9.148411 -13.942121 -4.174599 17.190214 -0.990095 1.816096 0.014691 0.000332 561784.000000 1 0 0
-6.500789 -5.214421 -6.718199 10.704422 0.676033 2.249275 0.011659 -0.003572 1678560.000000 1 0 0
3.454911 0.355179 -6.221099 7.124931 0.102444 2.632414 0.000984 -0.001612 1486190.000000 1 0 0
-3.657789 5.719179 5.063801 8.469386 -1.001792 0.929924 0.002048 -0.000434 689638.000000 1 0 0
-2.626189 -10.746721 -2.898799 11.436430 1.331122 1.827063 0.009744 -0.000079 1155850.000000 1 0 0
-12.509089 -0.420521 1.788701 12.643322 0.033605 1.428846 -0.000173 -0.001906 666577.000000 1 0 0
8.357011 -11.944121 -6.023999 15.773086 -0.960288 1.962665 0.009415 -0.005509 -957064.000000 1 0 0
6.131611 3.919079 0.927401 7.335933 0.568717 1.444038 -0.000175 0.003018 -951088.000000 1 0 0
3.376811 -4.816321 -10.948999 12.429014 -0.959320 2.648604 0.001603 -0.003474 301944.000000 1 0 0
-7.689689 4.241479 8.632801 12.314492 -0.504055 0.793959 -0.007195 0.002863 1810520.000000 1 0 0
8.231011 8.749979 4.124601 12.701339 0.815950 1.240062 -0.001176 0.002104 1938360.000000 1 0 0
0.215711 10.595179 -6.378599 12.368948 1.550440 2.112614 0.001775 0.000291 42480.000000 1 0 0
5.445711 8.115579 3.273301 10.306934 0.979786 1.247618 -0.003990 0.002704 2080970.000000 1 0 0
8.117711 6.744879 -3.708799 11.186859 0.693291 1.908723 0.001180 -0.000689 607785.000000 1 0 0
10.506311 2.565379 -8.262099 13.609777 0.239489 2.223166 0.004141 0.002218 492691.000000 1 0 0
3.271511 -12.502021 -0.254599 12.925484 -1.314857 1.590495 -0.004380 -0.000095 -1130100.000000 1 0 0
0.691211 2.183179 5.297401 5.771178 1.264174 0.408025 -0.000640 0.000652 1071570.000000 1 0 0
-4.818689 13.439679 1.387101 14.344643 -1.226532 1.473947 -0.005867 0.010274 1220240.000000 1 0 0
8.227411 4.137479 -7.978499 12.184641 0.465957 2.284714 -0.002334 0.003639 -310173.000000 1 0 0
-13.912689 -0.523121 -3.562799 14.371155 0.037583 1.821322 -0.003474 -0.005299 157704.000000 1 0 0
-8.573389 0.047579 -0.474699 8.586652 -0.005550 1.626108 -0.001089 -0.003590 550791.000000 1 0 0
1.752911 -3.809621 -1.174499 4.354924 -1.139552 1.843872 0.000319 -0.000208 -747029.000000 1 0 0
8.014311 -5.701821 -0.264499 9.839203 -0.618373 1.597682 0.006428 -0.003727 3253650.000000 1 0 0
-2.336189 -1.212421 7.402801 7.856793 0.478711 0.341610 0.000001 -0.001827 617503.000000 1 0 0
-5.777089 8.897179 -11.666799 15.768600 -0.994901 2.403681 -0.002023 -0.003137 -2448990.000000 1 0 0
-6.122489 9.166779 -8.798899 14.104444 -0.981941 2.244441 -0.004646 -0.003706 888388.000000 1 0 0
-1.570589 14.022179 -8.383299 16.412433 -1.459254 2.106899 0.008129 -0.004563 700321.000000 1 0 0
-1.504989 7.315679 9.793901 12.316844 -1.367906 0.651520 0.001225 -0.001141 981064.000000 1 0 0
9.977211 2.288279 -4.036899 11.003523 0.225451 1.946442 0.004603 0.000232 -2286030.000000 1 0 0
-3.043589 -7.521021 -7.021999 10.730222 1.186264 2.284203 0.010798 -0.001126 1000390.000000 1 0 0
-5.612089 -4.954421 -1.675399 7.671297 0.723238 1.790969 0.005977 -0.002809 1514130.000000 1 0 0
5.716911 7.481379 -8.743299 12.849100 0.918299 2.319187 0.000574 -0.001298 558299.000000 1 0 0
-9.613589 5.291579 -7.417199 13.245254 -0.503171 2.165169 -0.000370 -0.000561 -550541.000000 1 0 0
-0.415689 6.152779 -5.336399 8.155160 -1.503338 2.284130 0.003900 -0.001377 -1098930.000000 1 0 0
-8.288489 2.838479 -6.286999 10.783430 -0.329942 2.193242 0.002070 -0.003077 878330.000000 1 0 0
3.563211 1.445479 -2.004299 4.336254 0.385383 2.051292 0.000805 0.000192 4723500.000000 1 0 0
-6.732789 12.448479 -3.548599 14.590669 -1.075003 1.816470 -0.007039 0.002889 1450100.000000 1 0 0
-6.514189 3.158079 -2.259099 7.583643 -0.451414 1.873279 0.001627 -0.002802 -1837660.000000 1 0 0
12.081911 3.956679 -0.809199 12.739022 0.316480 1.634360 0.002625 0.000906 2181850.000000 1 0 0
2.163311 12.489279 -5.525099 13.827101 1.399285 1.981860 0.005932 -0.002702 402435.000000 1 0 0
-9.210889 -1.345821 -4.233099 10.225988 0.145085 1.997591 0.004039 -0.003388 264518.000000 1 0 0
-1.119489 5.760179 3.632601 6.901355 -1.378840 1.016482 0.001242 0.000186 584968.000000 1 0 0
11.544511 2.704179 12.031001 16.891812 0.230091 0.778114 0.010104 0.002930 -1249060.000000 1 0 0
-7.012489 -2.434421 -5.690999 9.353549 0.334138 2.224880 0.012733 -0.004692 193695.000000 1 0 0
7.492611 -7.330921 10.854101 15.089504 -0.774491 0.767981 0.001702 -0.001852 -1642930.000000 1 0 0
-5.460689 -1.799421 -10.938799 12.357765 0.318317 2.657669 0.012235 -0.002663 518360.000000 1 0 0
0.735011 -6.153921 4.471701 7.642453 -1.451922 0.945777 -0.004936 0.001442 543291.000000 1 0 0
-4.817989 -9.411221 7.305401 12.851186 1.097642 0.966162 0.006334 -0.003760 2139940.000000 1 0 0
-8.675689 9.276479 1.652501 12.808255 -0.818852 1.441417 -0.001688 0.002224 1004600.000000 1 0 0
-8.070589 7.168879 -9.047099 14.084645 -0.726298 2.268341 -0.000642 -0.003719 -181255.000000 1 0 0
-1.303689 -10.629621 -0.149999 10.710320 1.448759 1.584802 0.005824 -0.001138 -509625.000000 1 0 0
-3.986989 10.334479 7.771201 13.531042 -1.202595 0.959018 0.008055 0.001542 1812130.000000 1 0 0
-7.339889 12.034679 1.993401 14.236612 -1.023133 1.430315 -0.007248 0.003284 178509.000000 1 0 0
-8.205289 -8.268621 -2.883499 12.000476 0.789243 1.813453 0.007847 -0.002855 293733.000000 1 0 0
5.451411 4.659979 -7.942299 10.701094 0.707286 2.407136 0.000796 0.003524 1341840.000000 1 0 0
-8.983389 -0.081721 -10.203599 13.594903 0.009097 2.419684 0.007145 -0.006808 -2065000.000000 1 0 0
-15.224389 -2.218021 -1.476999 15.455846 0.144671 1.666505 -0.004288 -0.004460 -903922.000000 1 0 0
-7.226489 -5.840621 8.800301 12.797667 0.679735 0.812551 0.002248 -0.000781 356545.000000 1 0 0
8.153311 3.369879 -0.978099 8.876331 0.391931 1.681212 0.002570 0.002777 514049.000000 1 0 0
11.965711 7.279479 -5.905199 15.200014 0.546545 1.969799 0.005205 0.000818 232507.000000 1 0 0
3.813711 13.379079 -9.538699 16.868045 1.293111 2.171823 0.002553 -0.009845 205290.000000 1 0 0
-9.712589 5.444279 -0.458599 11.143826 -0.510898 1.611961 -0.003231 -0.002042 1964190.000000 1 0 0
11.262211 -1.346421 -5.258999 12.502293 -0.118987 2.004950 0.019934 -0.005128 -256381.000000 1 0 0
10.589711 1.624879 -1.309999 10.793438 0.152252 1.692466 0.006121 0.001159 723233.000000 1 0 0
14.573811 5.004479 4.870101 16.160404 0.330773 1.264678 0.008949 -0.004612 1337850.000000 1 0 0
0.890811 -0.872821 10.304001 10.379200 -0.775198 0.120449 -0.000590 -0.002247 1007410.000000 1 0 0
-7.933789 1.397979 -12.500599 14.871595 -0.174415 2.569129 0.004754 -0.004307 -922408.000000 1 0 0
3.121911 -11.488121 -7.819999 14.243442 -1.305453 2.151993 -0.003003 -0.000440 -261150.000000 1 0 0
2.898711 5.085379 -6.728199 8.918087 1.052721 2.425603 0.003791 0.001183 -1174780.000000 1 0 0
6.488611 7.973079 0.576901 10.295867 0.887688 1.514735 0.000302 -0.000200 381441.000000 1 0 0
-9.112089 -5.495821 6.758701 12.606120 0.542722 1.004933 -0.001873 0.002698 -677809.000000 1 0 0
-0.330889 -6.931921 -11.849799 13.732398 1.523098 2.611793 0.008454 -0.001096 1708950.000000 1 0 0
6.353011 -13.458421 -4.593699 15.575363 -1.129760 1.870182 -0.000219 -0.000700 2179130.000000 1 0 0
-3.232189 -0.329921 10.009101 10.523212 0.101721 0.313873 -0.001753 0.001645 65982.800000 1 0 0
8.589211 8.438479 7.019401 13.937520 0.776546 1.042997 -0.005337 0.002712 -1020720.000000 1 0 0
-7.848389 5.647879 -2.674599 10.032409 -0.623775 1.840656 0.001003 -0.005003 342762.000000 1 0 0
-5.364989 5.836179 -6.375699 10.173182 -0.827440 2.248128 0.000899 -0.003299 -700727.000000 1 0 0
3.316411 -13.677321 2.603101 14.312366 -1.332912 1.387901 0.005761 -0.001617 -3044090.000000 1 0 0
-11.311089 -7.127621 6.451301 14.844629 0.562290 1.121215 0.002602 -0.001517 -838296.000000 1 0 0
-12.947289 -3.667921 -6.693599 15.029644 0.276063 2.032372 0.011920 -0.005040 -427470.000000 1 0 0
6.067511 0.295579 -7.309199 9.504023 0.048677 2.448171 -0.001041 0.001627 -314428.000000 1 0 0
-1.571189 2.236079 -2.411199 3.644525 -0.958292 2.293740 0.002075 -0.002079 2422810.000000 1 0 0
7.584011 0.897379 -4.994699 9.125214 0.117777 2.149993 0.002658 0.000897 385518.000000 1 0 0
3.607411 -4.469921 10.915701 12.334753 -0.891777 0.484399 -0.002660 -0.000912 276992.000000 1 0 0
5.962211 -2.566521 2.074201 6.814492 -0.406490 1.261508 0.003656 -0.000243 -696419.000000 1 0 0
-6.274389 7.590779 1.129501 9.912802 -0.880057 1.456605 -0.002100 -0.000582 3751210.000000 1 0 0
5.995711 -3.414421 8.009101 10.571306 -0.517674 0.711128 0.003163 -0.002358 734488.000000 1 0 0
6.808811 -2.331821 -7.904299 10.689960 -0.329952 2.402995 0.002062 -0.004331 1155670.000000 1 0 0
12.169011 -8.153321 -5.853599 15.774223 -0.590311 1.950975 0.026600 -0.010480 -927298.000000 1 0 0
5.584411 -9.586421 9.973801 14.918506 -1.043319 0.838536 -0.007175 0.003264 1824750.000000 1 0 0
-6.614089 7.526979 -4.457099 10.966646 -0.849865 1.989332 -0.002428 -0.003484 1377540.000000 1 0 0
-1.320789 -7.605421 9.712301 12.406277 1.398847 0.671557 0.003868 -0.002586 -532147.000000 1 0 0
9.954211 -9.309021 0.679801 13.645744 -0.751917 1.520958 0.007748 -0.004211 1155910.000000 1 0 0
11.105511 6.063279 9.867301 16.045540 0.499744 0.908466 -0.000374 -0.000739 3440850.000000 1 0 0
-15.308789 -4.148421 -4.976499 16.623296 0.264628 1.874828 -0.000003 -0.002783 963117.000000 1 0 0
-4.675189 -4.778221 7.797801 10.271051 0.796297 0.708710 0.005144 -0.002933 581796.000000 1 0 0
3.027611 10.961079 -11.054799 15.859390 1.301301 2.342072 0.003551 -0.004942 -1238050.000000 1 0 0
9.917011 -1.334821 1.461801 10.112651 -0.133795 1.425736 0.006118 -0.001201 662799.000000 1 0 0
-1.692189 -2.621421 0.689301 3.195385 0.997574 1.353370 0.001778 -0.003328 -1273360.000000 1 0 0
1.531111 3.027079 0.935501 3.518902 1.102516 1.301711 -0.002213 0.001441 -1916360.000000 1 0 0
-8.963489 -2.410021 4.318001 10.237063 0.262659 1.135366 -0.003329 -0.000820 3743450.000000 1 0 0
9.885111 4.824579 -2.691599 11.324164 0.454054 1.810780 0.001147 0.001486 774031.000000 1 0 0
2.553011 8.389779 2.558301 9.135161 1.275399 1.286950 -0.002399 0.000423 1278010.000000 1 0 0
-8.148489 -0.092321 2.488401 8.520477 0.011329 1.274427 -0.002417 -0.003790 1378060.000000 1 0 0
6.937611 1.997079 13.778701 15.555429 0.280285 0.482623 0.001692 -0.001817 225569.000000 1 0 0
6.847711 4.381979 3.758101 8.956350 0.569256 1.137790 -0.002924 0.001269 546004.000000 1 0 0
-0.364389 3.367379 7.780501 8.485765 -1.463004 0.410582 -0.000829 -0.001929 957677.000000 1 0 0
2.739511 -10.276021 9.194701 14.058594 -1.310263 0.857901 -0.001158 -0.004095 1499150.000000 1 0 0
1.394211 -4.584221 6.870301 8.376153 -1.275552 0.608998 -0.005396 -0.000121 -169160.000000 1 0 0
-0.133289 10.814479 -1.924999 10.985278 -1.558472 1.746940 -0.000509 0.000357 2965370.000000 1 0 0
8.761411 5.531979 8.060901 13.127956 0.563190 0.909646 -0.006139 -0.000064 -557370.000000 1 0 0
2.607311 11.373879 -2.906799 12.025501 1.345453 1.814934 0.002582 -0.004171 -98565.200000 1 0 0
1.548211 2.432179 -6.629999 7.229754 1.003932 2.731399 0.004012 -0.000155 2576990.000000 1 0 0
-13.643289 -2.183721 3.591101 14.275993 0.158712 1.316517 -0.000671 0.000180 1162850.000000 1 0 0
-1.049689 -10.679521 -5.347599 11.989614 1.472821 2.033109 0.005214 -0.001036 -112669.000000 1 0 0
-5.703389 2.811579 0.502601 6.378576 -0.458005 1.491919 0.003358 -0.002705 -352690.000000 1 0 0
3.781111 7.419579 -5.040199 9.733990 1.099488 2.115066 0.001592 -0.001280 -1448410.000000 1 0 0
2.958111 9.914479 -6.462499 12.198820 1.280842 2.129119 0.004900 -0.002206 1507130.000000 1 0 0
-12.212989 1.682379 -2.453799 12.570148 -0.136892 1.767266 -0.001843 -0.001979 -463690.000000 1 0 0
-2.456389 9.636279 -5.757399 11.490838 -1.321201 2.095599 -0.000969 -0.001503 699958.000000 1 0 0
-1.349589 3.325379 1.797401 4.013749 -1.185261 1.106481 -0.001897 -0.001704 163164.000000 1 0 0
12.885511 3.741579 9.621101 16.510645 0.282600 0.948723 0.014078 -0.001916 1251370.000000 1 0 0
-2.629389 -9.642821 11.508001 15.242433 1.304590 0.715146 0.008299 -0.010513 1385580.000000 1 0 0
-0.471189 -8.896921 -7.558299 11.683540 1.517885 2.274333 0.007916 -0.001743 3624950.000000 1 0 0
2.410811 7.653779 -0.460599 8.037692 1.265651 1.628133 -0.002332 0.001521 1470360.000000 1 0 0
-11.879689 -1.222221 -5.515999 13.154736 0.102523 2.003489 0.003037 -0.002277 -937509.000000 1 0 0
-6.219389 -7.135521 -11.065599 14.561729 0.853890 2.433971 0.002358 -0.000400 642778.000000 1 0 0
-4.755189 -2.225821 -1.398699 5.433458 0.437789 1.831151 0.002480 -0.003564 -108755.000000 1 0 0
-10.504289 3.728879 4.510901 12.024677 -0.341110 1.186252 0.000528 -0.000741 3381260.000000 1 0 0
6.763211 9.443179 -3.632799 12.170122 0.949280 1.873918 0.001555 -0.000317 -86203.000000 1 0 0
1.314811 -2.614721 -11.528299 11.893998 -1.104872 2.892975 0.004476 -0.003228 -536851.000000 1 0 0
1.294511 8.837279 7.624501 11.743350 1.425348 0.864184 -0.002598 0.005299 1209950.000000 1 0 0
10.401111 0.417979 10.406001 14.718786 0.040164 0.785567 0.001788 0.000181 2226750.000000 1 0 0
-5.238889 -0.892521 -3.930199 6.609767 0.168744 2.207570 0.007175 -0.005421 504103.000000 1 0 0
11.697811 5.557579 5.477801 14.061713 0.443526 1.170649 0.000064 -0.000622 2007300.000000 1 0 0
9.927111 -3.429521 3.578801 11.095808 -0.332634 1.242389 0.011775 -0.003976 -1457850.000000 1 0 0
7.316911 -1.750221 -3.484099 8.290923 -0.234790 2.004496 0.005056 -0.000483 -3794850.000000 1 0 0
2.382211 9.202079 10.539801 14.192977 1.317480 0.733842 -0.002158 0.007303 3426140.000000 1 0 0
2.430411 -10.935721 6.295501 12.850301 -1.352106 1.058809 -0.002587 -0.001509 -116458.000000 1 0 0
5.854911 -7.593521 -1.287699 9.674695 -0.913965 1.704292 0.000077 -0.005286 1396270.000000 1 0 0
-0.293089 -5.583121 -2.389299 6.079958 1.518349 1.974666 0.000827 -0.001188 1761070.000000 1 0 0
7.618511 -5.095921 2.686701 9.551360 -0.589538 1.285658 0.002312 -0.002634 1999140.000000 1 0 0
-2.697689 -12.437121 4.631401 13.542872 1.357199 1.221772 0.004856 -0.005680 -112819.000000 1 0 0
4.822811 -10.400821 -1.201699 11.527388 -1.136612 1.675233 -0.004184 -0.006674 205196.000000 1 0 0
0.921411 0.216379 1.114001 1.461785 0.230655 0.704273 -0.002544 0.000033 -1574230.000000 1 0 0
-1.574389 8.560279 2.552501 9.070410 -1.388911 1.285534 -0.000224 0.001426 -1093540.000000 1 0 0
-7.550389 0.619479 -3.083099 8.179097 -0.081863 1.957296 0.001689 -0.002596 -245071.000000 1 0 0
4.403911 -6.333721 12.908801 15.038205 -0.963224 0.538653 0.008325 -0.005918 130164.000000 1 0 0
-5.219689 12.998779 8.567601 16.420024 -1.188953 1.021863 0.009630 -0.000377 2469420.000000 1 0 0
0.623211 6.107979 8.234201 10.271215 1.469116 0.640700 -0.000365 0.001746 711285.000000 1 0 0
7.892811 -0.523621 -0.827699 7.953347 -0.066244 1.675054 0.005460 -0.000957 3085630.000000 1 0 0
2.469211 -9.252121 -2.417699 9.876438 -1.309994 1.818104 -0.004373 -0.001870 875965.000000 1 0 0
-7.109189 12.091779 4.955901 14.876580 -1.039295 1.231170 0.000372 0.003620 -461552.000000 1 0 0
-14.911289 0.291079 0.218601 14.915732 -0.019518 1.556140 0.001048 -0.003907 358606.000000 1 0 0
6.800111 -0.547721 3.880601 7.848603 -0.080372 1.053615 0.002046 0.001925 2016440.000000 1 0 0
-4.172989 -5.049321 5.070101 8.283441 0.880137 0.912112 0.005169 -0.002418 798362.000000 1 0 0
2.982111 5.165479 6.944401 9.154226 1.047224 0.709634 -0.003217 0.001256 420515.000000 1 0 0
2.032611 -7.121921 1.759901 7.612524 -1.292785 1.337501 -0.005923 0.001023 1318480.000000 1 0 0
-2.445289 6.503879 -1.725799 7.159487 -1.211172 1.814245 -0.002089 0.000240 1772280.000000 1 0 0
2.716211 -3.827421 -6.557399 8.063897 -0.953609 2.520391 -0.001476 -0.003985 -771028.000000 1 0 0
-5.064289 1.039079 -12.126499 13.182515 -0.202369 2.738603 0.007870 -0.003446 1480000.000000 1 0 0
-7.470989 6.419879 -11.893899 15.443295 -0.709873 2.449898 -0.001283 -0.004177 3329000.000000 1 0 0
-1.037089 11.234679 -9.020499 14.445171 -1.478746 2.245242 0.003234 -0.001279 1097750.000000 1 0 0
4.638111 5.890679 -0.593499 7.520932 0.903808 1.649791 -0.001188 0.001918 119552.000000 1 0 0
-2.602689 13.474879 3.520401 14.168259 -1.379995 1.319695 -0.002001 0.009639 1643000.000000 1 0 0
1.478211 -7.927621 10.239301 13.033632 -1.386450 0.667121 -0.003992 -0.002568 -76983.700000 1 0 0
13.033811 -0.276321 -1.064799 13.080152 -0.021197 1.652292 0.013615 -0.003911 -170865.000000 1 0 0
-1.018289 3.160979 -5.336099 6.285114 -1.259150 2.584898 0.005009 -0.003957 782080.000000 1 0 0
6.605711 1.079979 7.311201 9.912388 0.162058 0.741314 0.000910 0.000211 2139500.000000 1 0 0
5.445811 -6.117321 6.896701 10.707145 -0.843406 0.870922 -0.005215 -0.001056 483622.000000 1 0 0
12.137211 -4.918821 2.482001 13.329179 -0.385039 1.383495 0.013325 -0.006558 -931295.000000 1 0 0
4.436711 -9.168021 13.895201 17.228280 -1.120084 0.632530 0.001919 -0.000056 1765310.000000 1 0 0
-2.766989 -4.298621 -1.483099 5.322965 0.998868 1.853156 0.005996 -0.004043 2152370.000000 1 0 0
-9.294389 -5.144221 -7.591499 13.056781 0.505508 2.191272 0.013447 -0.003756 956284.000000 1 0 0
-10.598389 -3.214521 7.816201 13.555515 0.294484 0.956227 -0.002611 0.002881 -1645830.000000 1 0 0
12.049611 -0.565321 1.639301 12.173743 -0.046882 1.435727 0.007753 -0.002915 659131.000000 1 0 0
-7.602689 4.650279 4.499801 9.983696 -0.548951 1.103230 0.001216 -0.003207 2598660.000000 1 0 0
-1.126489 10.543379 6.954601 12.680626 -1.464357 0.990295 0.001191 0.005305 2500730.000000 1 0 0
7.273011 -10.056621 1.812901 12.542684 -0.944665 1.425750 -0.004247 -0.002526 3024760.000000 1 0 0
-4.371989 -1.736221 1.673301 4.992864 0.378024 1.229044 -0.002718 -0.000924 1355510.000000 1 0 0
6.583011 -15.099021 -1.008699 16.502544 -1.159655 1.631958 0.002333 0.003720 -1000550.000000 1 0 0
-10.390189 1.669779 2.409301 10.795782 -0.159345 1.345730 -0.002796 -0.000597 421134.000000 1 0 0
-2.993489 8.374379 -11.362399 14.428975 -1.227493 2.477491 0.001268 -0.001194 -776627.000000 1 0 0
-1.279589 -5.154121 -6.926599 8.728121 1.327451 2.487492 0.000857 -0.002752 843114.000000 1 0 0
12.843911 -0.432921 6.431501 14.370723 -0.033694 1.106782 0.013726 -0.005076 1175700.000000 1 0 0
5.920511 -13.332021 3.743701 15.060230 -1.152875 1.319580 -0.002385 0.002221 615636.000000 1 0 0
-5.573389 3.461079 -4.931299 8.207280 -0.555718 2.215354 0.004156 -0.004285 3004950.000000 1 0 0
-4.385089 8.053579 3.379401 9.772896 -1.072194 1.217712 0.001971 0.000084 857928.000000 1 0 0
14.042611 6.105679 -4.047199 15.838373 0.410139 1.829193 0.012248 0.002736 -1019580.000000 1 0 0
-6.703589 -8.518121 5.204801 12.024410 0.904045 1.123141 0.006728 -0.004247 752422.000000 1 0 0
1.682911 11.276879 2.722401 11.722272 1.422654 1.336415 -0.001676 0.001101 2928050.000000 1 0 0
-7.490789 7.290179 6.008601 12.056613 -0.771827 1.049084 0.001245 -0.003224 -694704.000000 1 0 0
-17.267289 -4.078621 5.226801 18.496320 0.231954 1.284307 0.004553 -0.008955 -1266980.000000 1 0 0
7.426811 -13.088721 -8.556099 17.311238 -1.054677 2.087770 0.010992 -0.000476 -249900.000000 1 0 0
-2.309189 12.787679 -2.788899 13.290412 -1.392142 1.782211 -0.006339 0.004104 2047330.000000 1 0 0
-5.491589 13.927779 -5.738999 16.033611 -1.195222 1.936852 0.000768 0.001518 3848610.000000 1 0 0
-5.657789 2.436479 7.445801 9.663693 -0.406639 0.691183 -0.000356 -0.000995 607397.000000 1 0 0
-7.443389 4.997679 1.499301 9.090035 -0.591290 1.405100 -0.000694 -0.001279 1068560.000000 1 0 0
10.756711 -5.726321 -5.031699 13.183914 -0.489190 1.962382 0.019252 -0.010091 3455550.000000 1 0 0
-9.441989 -0.806521 6.815101 11.672499 0.085212 0.947322 -0.003078 0.000329 825058.000000 1 0 0
-11.242489 -4.554221 -2.585799 12.402453 0.384887 1.780828 -0.001485 -0.001731 1058620.000000 1 0 0
6.430911 -4.307021 13.591201 15.640581 -0.590125 0.517679 0.008820 -0.009022 -369012.000000 1 0 0
0.268211 10.226979 -11.602599 15.468786 1.544576 2.418957 0.003081 -0.003144 18399.600000 1 0 0
-11.831689 -3.233221 1.414601 12.346808 0.266755 1.455972 -0.002694 -0.001902 1921160.000000 1 0 0
5.277011 5.974979 5.378401 9.616362 0.847349 0.977259 -0.004966 0.002356 -3902310.000000 1 0 0
-7.037089 -0.036121 8.138501 10.759048 0.005133 0.712954 -0.003442 0.000996 210405.000000 1 0 0
1.643811 2.037779 9.664501 10.012853 0.892003 0.264553 0.000831 -0.002934 3541430.000000 1 0 0
10.469911 -4.998021 -2.106499 11.791378 -0.445380 1.750408 0.010019 -0.005930 1423580.000000 1 0 0
-9.750589 -2.373921 -1.624299 10.166014 0.238818 1.731261 0.000877 -0.003343 -11199.500000 1 0 0
-1.977289 -5.185321 -9.956999 11.399082 1.206493 2.633125 0.009057 -0.002482 1376840.000000 1 0 0
7.626011 -1.653421 6.490801 10.149894 -0.213509 0.876956 0.002216 -0.000269 1464190.000000 1 0 0
1.466911 -11.809621 -2.607599 12.182715 -1.447216 1.786506 -0.001826 -0.000467 -3800440.000000 1 0 0
-0.806089 -1.477321 4.840601 5.124810 1.071305 0.334597 -0.001188 -0.000955 3079660.000000 1 0 0
7.637611 1.473679 9.911301 12.599155 0.190608 0.665410 0.003005 -0.002685 903947.000000 1 0 0
-3.800389 10.755079 -7.914299 13.883472 -1.231133 2.177365 -0.001006 -0.000239 2585130.000000 1 0 0
-9.646189 12.641379 6.432101 17.152998 -0.918986 1.186417 -0.006729 0.003320 3270270.000000 1 0 0
-2.516289 -2.358321 -11.041399 11.567449 0.753003 2.838853 0.010291 -0.003858 -1090550.000000 1 0 0
1.232511 -11.950121 11.059401 16.328957 -1.468022 0.826727 0.005968 -0.003464 2049130.000000 1 0 0
1.292211 3.460479 -1.877199 4.143501 1.213412 2.040976 0.001699 0.001965 2292390.000000 1 0 0
-1.924289 -9.429821 -12.131999 15.485794 1.369496 2.470958 0.005303 0.001091 1191620.000000 1 0 0
1.237911 -2.665921 1.555201 3.325389 -1.136076 1.084138 0.001466 -0.000517 3312180.000000 1 0 0
-0.958889 -2.231321 -6.622599 7.053870 1.164917 2.790102 0.001615 -0.005804 -236981.000000 1 0 0
1.833311 5.865579 4.099701 7.387394 1.267862 0.982483 -0.005009 0.002253 -115702.000000 1 0 0
-10.992589 8.570779 3.591701 14.394290 -0.662232 1.318609 -0.012399 -0.000244 1481190.000000 1 0 0
-16.353189 -1.572521 3.953901 16.897720 0.095865 1.334617 0.007737 -0.004265 -712760.000000 1 0 0
-12.068689 0.273679 6.834201 13.872075 -0.022673 1.055654 -0.005122 0.004047 598226.000000 1 0 0
-5.099189 2.987779 4.707001 7.555422 -0.530011 0.898229 -0.001392 -0.001157 650489.000000 1 0 0
5.081511 -6.001121 3.955301 8.802251 -0.868186 1.104758 -0.004214 -0.000027 1532480.000000 1 0 0
9.863411 3.368879 6.356201 12.208092 0.329130 1.023179 -0.003146 0.003550 1626310.000000 1 0 0
-12.215589 5.876679 3.262301 13.942689 -0.448398 1.334628 -0.002289 -0.000470 1136870.000000 1 0 0
-4.896489 12.204179 -1.348899 13.218817 -1.189244 1.673018 -0.007429 0.007018 1189930.000000 1 0 0
-1.693089 -12.250721 10.298801 16.093850 1.433463 0.876400 0.014925 -0.014874 1704950.000000 1 0 0
5.206411 6.276479 13.917101 16.130301 0.878318 0.530029 -0.004669 -0.000429 1330500.000000 1 0 0
12.936311 -3.706021 -5.998299 14.733035 -0.279009 1.990109 0.017350 -0.008138 797320.000000 1 0 0
3.550611 -2.487021 6.448601 7.770236 -0.611027 0.591849 -0.004897 0.000842 1406250.000000 1 0 0
7.227311 -11.953021 -0.684199 13.984880 -1.026970 1.619740 0.000693 0.001958 105898.000000 1 0 0
-6.090589 -6.574521 -4.077499 9.846096 0.823589 1.997776 0.011243 -0.003385 1366110.000000 1 0 0
0.354511 -8.929821 5.013901 10.247272 -1.531117 1.059519 0.002894 -0.002224 1664200.000000 1 0 0
-10.273789 2.522379 -0.349999 10.584689 -0.240754 1.603869 -0.004066 0.000308 -528734.000000 1 0 0
-1.796389 8.980179 -0.270999 9.162099 -1.373363 1.600379 -0.000313 0.003181 443499.000000 1 0 0
-3.506389 2.327779 -6.575299 7.806912 -0.586062 2.572223 0.008786 -0.006440 350722.000000 1 0 0
-12.698789 3.059879 6.483301 14.582705 -0.236451 1.110082 -0.001682 0.001969 255024.000000 1 0 0
11.414211 1.602179 7.924101 13.987229 0.139456 0.968515 0.003949 -0.004533 -2295210.000000 1 0 0
6.028711 2.630579 -3.257599 7.340113 0.411438 2.030640 -0.000797 0.002498 1889330.000000 1 0 0
10.491711 -2.419021 6.328601 12.489149 -0.226605 1.039411 0.011310 -0.003688 3873370.000000 1 0 0
-0.942289 11.086679 4.094101 11.855970 -1.486007 1.218217 0.003907 0.003861 990812.000000 1 0 0
-1.494489 -12.235821 7.395901 14.375262 1.449258 1.030386 0.007322 -0.004618 60378.600000 1 0 0
8.170811 8.736579 -7.728799 14.241640 0.818848 2.144433 0.004779 -0.003176 2209750.000000 1 0 0
-4.651289 -5.940521 -8.755499 11.557813 0.906522 2.430332 0.010818 -0.003164 1561820.000000 1 0 0
-8.432889 -5.178221 -11.750999 15.362733 0.550687 2.441687 0.009531 -0.002804 812239.000000 1 0 0
5.980111 -0.706521 -9.958299 11.637380 -0.117600 2.597730 0.000676 -0.000572 758262.000000 1 0 0
-11.247789 -5.432121 -5.363099 13.593511 0.449915 1.976357 0.000452 -0.003752 -424880.000000 1 0 0
3.909011 8.947779 -2.701699 10.131253 1.158915 1.840732 0.001893 -0.001411 1261990.000000 1 0 0
11.618811 -10.406621 -4.086799 16.124406 -0.730418 1.827046 0.024903 -0.009156 726126.000000 1 0 0
3.988311 -11.294421 3.923701 12.604206 -1.231343 1.254235 -0.005565 0.001034 -1392840.000000 1 0 0
-0.976389 0.901979 3.250201 3.511511 -0.745805 0.388219 -0.000990 -0.002275 -1966290.000000 1 0 0
-10.634689 -5.123521 4.463501 12.620219 0.448961 1.209295 0.000774 -0.001004 3233980.000000 1 0 0
4.533611 -8.612021 2.751401 10.113889 -1.086230 1.295282 -0.007854 0.000575 4944300.000000 1 0 0
-3.705889 -5.647221 2.515401 7.207771 0.990052 1.214309 0.003140 -0.001512 3079510.000000 1 0 0
10.017811 5.072679 12.336201 16.681441 0.468727 0.738445 -0.003103 0.003580 984874.000000 1 0 0
1.591911 -12.346521 -5.281899 13.522915 -1.442568 1.972067 0.000608 -0.003327 3245150.000000 1 0 0
9.799011 -10.699121 -1.821099 14.622182 -0.829282 1.695664 0.011010 -0.006880 1722050.000000 1 0 0
9.709011 -4.556321 -9.239099 14.155773 -0.438777 2.281904 0.016500 -0.009271 1581470.000000 1 0 0
-7.447789 -2.878821 -13.183599 15.413126 0.368844 2.597020 0.005803 -0.000732 2002810.000000 1 0 0
0.454511 6.271879 -2.520299 6.774581 1.498455 1.951984 0.000065 0.000238 2940140.000000 1 0 0
-6.048589 -9.479321 0.943501 11.284199 1.002845 1.487086 0.004615 -0.001747 1267000.000000 1 0 0
-9.040989 -4.188821 0.569101 9.980460 0.433871 1.513744 -0.002406 -0.002809 3685370.000000 1 0 0
1.844211 3.759579 12.113901 12.817259 1.114748 0.332822 0.001361 -0.004740 1514390.000000 1 0 0
6.675811 4.254979 9.683401 12.507580 0.567447 0.685342 -0.003697 0.001843 1455720.000000 1 0 0
-8.218389 9.878679 -3.639999 13.355890 -0.876886 1.846827 -0.006017 -0.000070 2301910.000000 1 0 0
16.389711 2.073879 -6.061099 17.597174 0.125866 1.922434 0.009774 0.004263 -1560310.000000 1 0 0
-10.975689 2.652679 -5.002999 12.350403 -0.237139 1.987871 -0.001906 0.000378 633751.000000 1 0 0
-13.785489 4.048179 1.555101 14.451498 -0.285626 1.462979 0.000388 0.001999 797271.000000 1 0 0
-17.351389 10.440779 3.354801 20.526452 -0.541688 1.406622 0.021887 -0.003771 -355157.000000 1 0 0
-14.368589 2.853279 -1.083099 14.689134 -0.196027 1.644598 -0.001006 -0.002023 989603.000000 1 0 0
-14.456389 5.076279 5.212901 16.184255 -0.337694 1.242853 0.003667 -0.000475 2796320.000000 1 0 0
-17.337489 7.477479 3.119801 19.137251 -0.407186 1.407043 0.009734 0.003716 -1596270.000000 1 0 0
-14.737689 12.887579 -3.373699 19.866329 -0.718526 1.741443 0.029844 -0.002666 -6021.280000 1 0 0
-8.440989 12.431479 -9.583599 17.822383 -0.974303 2.138537 0.002670 -0.013843 1782750.000000 1 0 0
-12.316689 8.894779 -9.792899 18.075364 -0.625453 2.143352 0.001791 0.000932 -834690.000000 1 0 0
-14.021189 -3.269521 -12.113999 18.815751 0.229091 2.270279 0.022677 -0.007416 -845595.000000 1 0 0
-14.799789 5.854079 -7.555099 17.617705 -0.376666 2.014000 0.012519 0.003513 388501.000000 1 0 0
-10.721889 13.601879 -8.349199 19.227042 -0.903252 2.019994 0.011828 -0.010500 -548186.000000 1 0 0
-10.812589 13.522779 3.905101 17.749012 -0.896309 1.348963 -0.008112 0.000921 -715810.000000 1 0 0
-15.206589 3.267879 3.069101 15.853667 -0.211680 1.375977 0.004211 0.002693 846551.000000 1 0 0
-11.059389 9.571079 -12.405899 19.178685 -0.713382 2.274254 -0.000564 -0.007947 -1842170.000000 1 0 0
-12.953689 11.686079 -9.146899 19.698433 -0.733998 2.053693 0.018701 -0.008861 -602313.000000 1 0 0
-8.762889 14.711779 -3.584699 17.494991 -1.033591 1.777156 -0.006637 -0.001641 976061.000000 1 0 0
-16.719989 8.297979 -4.071599 19.104774 -0.460676 1.785563 0.025584 0.003485 -1499960.000000 1 0 0
-16.757589 6.863279 0.316901 18.111372 -0.388723 1.553298 0.010390 0.003205 -361740.000000 1 0 0
-10.507389 2.868379 -12.509299 16.586603 -0.266494 2.425202 0.008144 -0.004844 1320490.000000 1 0 0
-16.842489 0.860779 2.416201 17.036678 -0.051063 1.428493 0.005388 -0.003815 289227.000000 1 0 0
-12.653889 1.352979 -7.013299 14.530582 -0.106517 2.074483 0.003334 -0.001724 791150.000000 1 0 0
-12.225789 9.095779 -5.379999 16.160059 -0.639639 1.910194 0.010047 -0.000653 -494231.000000 1 0 0
-9.488489 13.897779 1.229701 16.872814 -0.971752 1.497851 0.001591 -0.000979 625799.000000 1 0 0
-12.111989 11.099179 2.733001 16.654169 -0.741791 1.405948 -0.006900 0.001411 -191146.000000 1 0 0
-12.481089 6.883779 -3.568499 14.693474 -0.504022 1.816112 -0.002260 0.003211 -665752.000000 1 0 0
-15.873089 3.814079 -9.377799 18.826717 -0.235815 2.092216 0.018323 -0.002726 -1317200.000000 1 0 0
-15.087089 5.918979 -4.614099 16.850652 -0.373869 1.848162 0.006904 0.005786 1373640.000000 1 0 0
-17.897089 5.091279 7.445801 20.041628 -0.277154 1.190154 0.023828 -0.008463 -1260600.000000 1 0 0
-15.636889 10.250279 -2.274999 18.834971 -0.580245 1.691878 0.017352 0.000707 -822235.000000 1 0 0
-8.757589 9.891279 -8.332699 15.619431 -0.846115 2.133509 -0.002071 -0.008477 661880.000000 1 0 0
-16.963489 4.290179 -1.178899 17.537257 -0.247712 1.638070 0.006308 -0.000577 -1034460.000000 1 0 0
-10.196789 5.396279 -4.518299 12.389889 -0.486744 1.944081 -0.000198 -0.002060 437157.000000 1 0 0
-18.322789 2.555079 6.117801 19.485392 -0.138555 1.251426 0.032305 -0.012204 -7260.540000 1 0 0
-10.337889 10.182479 -5.756099 15.610493 -0.777825 1.948442 -0.001429 -0.002766 778136.000000 1 0 0
-15.333189 0.565379 -5.904999 16.440661 -0.036856 1.938175 -0.003470 -0.003981 -849295.000000 1 0 0
-16.366689 -4.054121 -8.850599 19.043044 0.242818 2.054169 0.006635 -0.010813 -920497.000000 1 0 0
-9.843089 9.657679 -1.083099 13.832218 -0.775891 1.649179 -0.008701 0.001774 1442050.000000 1 0 0
-17.345289 -3.007121 -3.201499 17.892776 0.171662 1.750692 0.000077 -0.004965 -1976870.000000 1 0 0
-11.905289 5.220579 -11.443899 17.319156 -0.413257 2.292634 0.003852 -0.004551 352701.000000 1 0 0
-16.388689 7.104079 5.950001 18.827097 -0.409027 1.249250 0.008272 0.002838 -231807.000000 1 0 0
-12.125389 6.068179 -8.704799 16.112771 -0.464009 2.141521 0.001831 0.000004 450850.000000 1 0 0
-14.414589 8.546679 -0.213399 16.759225 -0.535196 1.583530 0.011433 0.001983 -237079.000000 1 0 0
-14.802689 11.841079 3.835701 19.340200 -0.674697 1.371145 -0.004060 -0.009443 1887050.000000 1 0 0
-17.293489 4.101579 -3.944599 18.205702 -0.232872 1.789197 0.011273 -0.004883 271438.000000 1 0 0
-13.655489 13.555179 -0.744799 19.255388 -0.781712 1.609486 0.019402 -0.008844 -702707.000000 1 0 0
-10.070689 6.969779 -13.019499 17.874673 -0.605395 2.386746 -0.004611 -0.008188 859191.000000 1 0 0
-15.832789 -1.028421 -8.340699 17.924902 0.064864 2.054785 0.002319 -0.008528 -214499.000000 1 0 0
-11.322089 11.944779 -0.117299 16.458469 -0.812155 1.577923 0.000031 -0.002730 107410.000000 1 0 0
-11.889289 7.487179 -0.855799 14.076414 -0.562002 1.631631 -0.004103 0.006859 1204550.000000 1 0 0
-11.460089 0.182779 -11.695099 16.375054 -0.015948 2.366280 0.006455 -0.007755 -97410.500000 1 0 0
-19.069189 -1.110921 -4.595399 19.646521 0.058192 1.806887 0.003099 -0.012023 -715911.000000 1 0 0
-17.834989 1.539179 -5.085499 18.609627 -0.086088 1.847590 -0.003178 -0.007143 -1948770.000000 1 0 0
-13.356589 0.000279 -9.474599 16.375790 -0.000021 2.187775 0.007463 -0.006658 -18855.300000 1 0 0
-6.043489 11.292379 -13.242899 18.423245 -1.079400 2.372892 -0.008837 -0.003820 -1210330.000000 1 0 0
16.373211 5.874579 7.093701 18.785987 0.344486 1.183587 0.020886 -0.008131 637212.000000 1 0 0
14.853811 10.135879 -5.293299 18.745420 0.598799 1.857069 0.024863 -0.004198 227064.000000 1 0 0
2.437311 16.873779 4.314801 17.586427 1.427345 1.322917 0.010392 -0.006867 1824630.000000 1 0 0
-3.722789 18.388679 -5.965899 19.687423 -1.371046 1.878668 -0.008947 -0.003081 2286200.000000 1 0 0
5.470511 14.517779 5.627101 16.503232 1.210436 1.222848 0.001176 -0.002381 -738359.000000 1 0 0
9.824711 6.078279 15.072101 18.990488 0.554036 0.653985 -0.001688 -0.002137 -2091760.000000 1 0 0
4.645411 12.725679 -1.148599 13.595662 1.220784 1.655380 -0.000205 -0.003851 -41515.000000 1 0 0
3.475311 13.620979 13.057201 19.185915 1.320982 0.822267 -0.003431 0.006430 -1242970.000000 1 0 0
-0.842789 12.377879 9.185401 15.436767 -1.502813 0.933488 0.000372 0.002634 1661710.000000 1 0 0
-7.873689 13.971479 8.397301 18.102814 -1.057606 1.088441 0.009747 -0.000590 1588620.000000 1 0 0
11.381611 12.866879 -4.240499 17.694052 0.846574 1.812809 0.021724 -0.003435 332093.000000 1 0 0
-5.714489 16.186379 0.672101 17.178648 -1.231413 1.531662 -0.005160 0.004865 1298620.000000 1 0 0
3.235311 10.579279 6.788101 12.979472 1.274012 1.020444 -0.006195 0.008471 2794990.000000 1 0 0
-1.131289 15.621579 2.420401 15.848403 -1.498504 1.417474 -0.001257 0.004798 -1662150.000000 1 0 0
9.914811 8.821379 9.548801 16.349306 0.727105 0.947088 0.000500 0.000408 3164940.000000 1 0 0
7.297311 12.237179 6.203601 15.539754 1.033085 1.160143 -0.000491 0.003115 1095940.000000 1 0 0
11.870611 13.995479 -1.595399 18.420916 0.867363 1.657513 0.021756 -0.005685 -650225.000000 1 0 0
9.730411 15.962579 -1.156199 18.730233 1.023365 1.632565 0.013432 -0.003803 1211530.000000 1 0 0
10.115211 13.680879 2.971901 17.271831 0.934134 1.397869 0.012547 -0.004193 4019630.000000 1 0 0
-6.071489 14.583979 6.289001 17.003145 -1.176307 1.191924 0.000989 0.004048 2226440.000000 1 0 0
-0.803289 18.332879 -6.120199 19.344161 -1.527007 1.892712 0.013916 -0.001061 1365310.000000 1 0 0
-3.517789 15.728479 5.467201 17.019112 -1.350760 1.243759 -0.000576 0.007705 3008020.000000 1 0 0
7.044211 12.208279 10.721901 17.709380 1.047458 0.920482 -0.003202 0.007804 3175030.000000 1 0 0
1.539111 14.650179 6.191201 15.978973 1.466123 1.172922 -0.001030 0.002521 430160.000000 1 0 0
17.564911 7.668079 -1.398099 19.216665 0.411618 1.643615 0.014883 0.008326 -1005970.000000 1 0 0
2.186911 16.291079 -3.423699 16.789984 1.437354 1.776150 0.001210 -0.001680 -113985.000000 1 0 0
6.661211 11.144679 0.590401 12.997083 1.032067 1.525355 0.002262 -0.002905 376893.000000 1 0 0
12.671811 9.228279 3.162801 15.991849 0.629437 1.371708 0.007230 0.000171 -2472690.000000 1 0 0
6.015011 14.295879 -3.408699 15.879916 1.172530 1.787135 -0.001192 -0.003291 -681432.000000 1 0 0
3.102511 16.592579 1.486501 16.945469 1.385949 1.482961 0.001949 -0.008386 -2845140.000000 1 0 0
2.736811 19.048479 -2.667499 19.428078 1.428097 1.708533 0.003015 -0.008982 351173.000000 1 0 0
3.944711 11.891279 10.740501 16.502170 1.250488 0.862088 -0.004204 0.007429 3001420.000000 1 0 0
7.975011 11.551179 3.377201 14.437313 0.966538 1.334687 -0.002325 0.003925 394116.000000 1 0 0
0.902911 12.614679 0.266801 12.649765 1.499342 1.549703 -0.001558 -0.001289 -1243010.000000 1 0 0
11.931111 9.903479 -4.557599 16.161745 0.692800 1.856674 0.013695 -0.001660 748204.000000 1 0 0
-1.287789 16.464879 9.949101 19.280437 -1.492741 1.028598 0.006206 0.000938 1248450.000000 1 0 0
8.230511 14.817579 -8.026699 18.754462 1.063774 2.013063 0.006784 -0.004416 998345.000000 1 0 0
14.672911 7.549679 -1.337999 16.555429 0.475205 1.651704 0.012143 0.004135 1943200.000000 1 0 0
12.338111 8.267579 5.984001 16.012186 0.590365 1.187785 0.000812 -0.001051 -222461.000000 1 0 0
-3.064889 14.153079 10.319601 17.781939 -1.357536 0.951648 0.013134 -0.003533 2918150.000000 1 0 0
-4.452389 17.271179 -3.287999 18.136381 -1.318497 1.753097 -0.000974 -0.001024 453589.000000 1 0 0
-6.943389 16.543779 -1.965199 18.049080 -1.173425 1.679893 -0.008617 0.004793 115654.000000 1 0 0
8.331311 11.289979 -1.812199 14.147736 0.935059 1.699240 0.003715 -0.002319 -679379.000000 1 0 0
8.548611 12.947879 -4.112399 16.051110 0.987261 1.829892 0.014388 -0.004252 1450270.000000 1 0 0
2.587411 14.865079 -7.319699 16.770309 1.398463 2.022465 0.001355 -0.007344 -1570900.000000 1 0 0
11.340311 11.381179 9.687101 18.760965 0.787197 1.028221 0.012474 -0.001634 325868.000000 1 0 0
8.531311 15.640879 1.417301 17.872580 1.071453 1.491413 0.006138 -0.004810 742612.000000 1 0 0
6.023811 9.914879 7.811101 13.985865 1.024842 0.978220 -0.004125 0.008729 1438810.000000 1 0 0
14.418611 11.296979 2.483801 18.484787 0.664599 1.436019 0.022475 -0.002743 260488.000000 1 0 0
12.122711 12.557879 1.068501 17.487199 0.803028 1.509656 0.020968 -0.001933 1719320.000000 1 0 0
5.154111 15.996979 8.190401 18.696279 1.259106 1.117339 0.009433 0.001545 152108.000000 1 0 0
11.372211 15.143479 5.090701 19.610389 0.926678 1.308197 0.022591 -0.001119 330303.000000 1 0 0
5.954511 16.828379 1.663001 17.928082 1.230707 1.477903 0.000169 -0.014988 -219151.000000 1 0 0
-0.570689 16.177879 -4.200899 16.724144 -1.535535 1.824703 0.000930 -0.003415 2355340.000000 1 0 0
16.031011 6.357479 2.631901 17.445279 0.377549 1.419352 0.001107 -0.000635 -1036770.000000 1 0 0
7.688911 16.684979 -3.230999 18.653344 1.138974 1.744887 0.003512 -0.007519 -350483.000000 1 0 0
14.736211 8.219479 7.377801 18.415963 0.508792 1.158603 0.010526 -0.004827 259966.000000 1 0 0
2.088711 12.965779 8.567501 15.680440 1.411074 0.992759 -0.000958 0.006545 2419090.000000 1 0 0
15.986311 7.434679 -5.859899 18.578886 0.435311 1.891681 0.010738 0.005844 -1651840.000000 1 0 0
-2.938489 17.123879 0.639601 17.385944 -1.400850 1.534000 -0.004871 0.003866 705282.000000 1 0 0
-2.888589 18.560379 4.540101 19.324702 -1.416403 1.333642 0.003534 0.001342 929735.000000 1 0 0
-0.767189 19.118479 0.787601 19.150069 -1.530690 1.529657 0.000896 -0.006855 1449090.000000 1 0 0
7.043411 16.825079 -6.170099 19.255208 1.174337 1.896988 0.006939 -0.003600 -316686.000000 1 0 0
11.044711 9.965779 0.750101 14.895135 0.734091 1.520416 0.003785 0.000643 -2145600.000000 1 0 0
9.009011 8.783979 14.279801 19.032427 0.772752 0.722299 -0.000399 0.002906 496699.000000 1 0 0
6.444311 12.507679 -8.399799 16.386818 1.095040 2.109001 0.004498 -0.006431 1324020.000000 1 0 0
6.208711 8.982079 13.334901 17.235005 0.965978 0.686120 -0.004366 0.003505 883257.000000 1 0 0
16.612811 9.338779 2.959401 19.286170 0.512118 1.416741 0.017074 -0.004733 -368427.000000 1 0 0
2.661011 14.788679 -0.812699 15.048139 1.392766 1.624829 -0.000821 -0.002385 595308.000000 1 0 0
9.060511 12.929979 8.358901 17.864726 0.959576 1.083883 0.004395 0.003054 1774810.000000 1 0 0
7.144611 9.314679 10.569301 15.796165 0.916487 0.837792 -0.006219 0.003909 1208610.000000 1 0 0
4.419111 15.868179 -5.380899 17.328639 1.299189 1.886537 0.007742 -0.005096 1982410.000000 1 0 0
0.223211 16.391779 -8.150399 18.307628 1.557180 2.032184 0.008283 -0.004643 1629920.000000 1 0 0
-2.428389 15.703379 -2.006999 16.016280 -1.417370 1.696437 -0.007195 0.003985 -1281770.000000 1 0 0
13.194311 10.521179 7.559301 18.491297 0.673155 1.149654 0.009969 -0.006389 740326.000000 1 0 0
-0.968589 15.857679 7.078101 17.392632 -1.509792 1.151673 0.006342 0.003546 1899560.000000 1 0 0
13.232911 13.443279 6.647701 20.000590 0.793284 1.231975 0.020947 -0.003328 -181650.000000 1 0 0
5.381111 17.295879 4.432701 18.648126 1.269168 1.330797 0.003343 -0.012904 -74635.200000 1 0 0
10.730211 9.472179 -1.835899 14.430181 0.723207 1.698368 0.005412 0.001383 487884.000000 1 0 0
3.263511 12.707079 4.661201 13.922900 1.319403 1.229418 -0.006115 0.005029 1764430.000000 1 0 0
-0.128789 18.082179 3.531501 18.424258 -1.563674 1.377926 0.002441 -0.003653 3537240.000000 1 0 0
-7.605689 15.945779 -5.946899 18.640815 -1.125740 1.895498 0.011608 -0.009627 -680618.000000 1 0 0
-12.485089 -9.189521 8.163201 17.520348 0.634506 1.086114 0.002368 -0.006618 123585.000000 1 0 0
-13.114989 -11.816621 6.692501 18.879222 0.733368 1.208427 0.003149 -0.010383 -3153080.000000 1 0 0
-6.589489 -12.202221 12.255701 18.507236 1.075645 0.847030 0.006381 -0.016204 -337336.000000 1 0 0
-1.832589 -10.703621 14.287701 17.946150 1.401228 0.649902 0.013776 -0.012294 1953750.000000 1 0 0
-8.813289 2.910379 11.064001 14.441485 -0.318952 0.698004 -0.005114 0.004697 1635800.000000 1 0 0
0.647011 9.860479 15.312101 18.223833 1.505274 0.573100 -0.003796 -0.000880 908181.000000 1 0 0
1.001311 -6.824321 16.621301 17.995600 -1.425109 0.393347 0.011528 -0.008096 451567.000000 1 0 0
6.084111 2.335779 17.713201 18.874050 0.366563 0.352551 0.008104 -0.013995 241051.000000 1 0 0
-5.110689 -3.176421 17.621301 18.620393 0.556097 0.329067 0.006047 -0.006025 1095450.000000 1 0 0
-4.421189 8.125779 13.065601 16.008907 -1.072499 0.616087 0.002995 -0.000253 -46628.200000 1 0 0
0.135611 -4.958921 18.639001 19.287863 -1.543456 0.260120 0.011860 -0.005383 -354291.000000 1 0 0
-11.563489 2.100279 11.326201 16.322018 -0.179672 0.803875 -0.001350 0.001108 193543.000000 1 0 0
-3.390589 -6.222621 14.336401 15.992170 1.071892 0.459073 0.010816 -0.008397 1260240.000000 1 0 0
-7.465489 -2.313421 14.690201 16.639935 0.300498 0.488947 0.007960 -0.001246 674459.000000 1 0 0
-6.074089 -1.188321 10.603901 12.278004 0.193198 0.528330 -0.000587 0.000365 528826.000000 1 0 0
-3.978689 2.309679 11.134501 12.047477 -0.525967 0.391812 -0.002877 0.003834 803303.000000 1 0 0
-6.469289 6.197679 13.709201 16.376969 -0.763959 0.578831 -0.005836 0.000646 1136090.000000 1 0 0
-9.020289 5.455179 12.596701 16.425634 -0.543918 0.696811 -0.012294 -0.001572 -1153670.000000 1 0 0
-12.190989 -2.261121 15.910701 20.171348 0.183391 0.661979 0.005596 0.000637 2744650.000000 1 0 0
-3.477289 -7.763721 17.000101 19.009743 1.149699 0.463969 0.012877 -0.010589 -85109.300000 1 0 0
-0.505389 -5.411321 14.446201 15.434718 1.477672 0.359835 0.003625 -0.001541 1688230.000000 1 0 0
-14.199589 -2.257721 13.734801 19.883923 0.157679 0.808272 0.005828 0.002040 -559192.000000 1 0 0
-6.536889 1.333779 12.202401 13.907137 -0.201276 0.500339 -0.007314 0.003056 1944030.000000 1 0 0
2.071411 -2.236821 14.630901 14.945145 -0.823773 0.205429 0.000196 -0.001627 653226.000000 1 0 0
-12.621389 4.029279 9.258901 16.163595 -0.309015 0.960849 -0.006840 0.002226 -1191010.000000 1 0 0
-9.078789 -3.040621 12.620801 15.841540 0.323173 0.648997 -0.002632 0.007401 358000.000000 1 0 0
-7.086489 -7.215321 15.158601 18.222578 0.794406 0.588349 0.007913 -0.013078 -1541520.000000 1 0 0
-3.104889 5.910279 19.378001 20.495820 -1.087085 0.331789 0.007066 -0.018090 -10454.900000 1 0 0
0.699511 5.285879 16.214901 17.069061 1.439225 0.317693 0.007613 -0.009662 1781740.000000 1 0 0
3.402911 1.621279 16.795801 17.213578 0.444622 0.220767 0.004850 -0.007936 716477.000000 1 0 0
-11.868589 11.412779 7.901901 18.263487 -0.765822 1.123354 -0.001229 -0.003990 461049.000000 1 0 0
0.572011 -9.517221 15.423101 18.132202 -1.510766 0.553687 0.003212 -0.001472 1155050.000000 1 0 0
-2.455989 -3.698221 18.846301 19.362122 0.984573 0.231343 0.012391 -0.012278 1746590.000000 1 0 0
-12.709089 2.335879 13.994701 19.048069 -0.181767 0.745565 -0.011785 -0.003273 -796998.000000 1 0 0
-5.319289 -0.697621 15.928201 16.807412 0.130405 0.324880 0.003331 -0.001200 285951.000000 1 0 0
-4.460489 -6.088521 11.641501 13.874098 0.938520 0.575203 0.006687 -0.002272 1169570.000000 1 0 0
2.438211 1.793479 13.975401 14.299415 0.634203 0.213285 0.002934 -0.005116 -388855.000000 1 0 0
0.070211 3.218979 14.341401 14.698385 1.548988 0.220845 0.006804 -0.004907 189513.000000 1 0 0
-12.858889 7.114979 12.317301 19.175240 -0.505383 0.873230 -0.004336 -0.004018 14400.900000 1 0 0
0.860511 1.565979 18.287301 18.374388 1.068334 0.097400 0.008522 -0.007081 1706740.000000 1 0 0
-2.021089 6.375679 12.497101 14.174329 -1.263817 0.491404 -0.000287 -0.000217 1335930.000000 1 0 0
-13.443189 -2.695321 10.936101 17.538027 0.197874 0.897502 0.004242 0.002332 -401068.000000 1 0 0
-2.559089 3.550379 13.400001 14.096601 -0.946251 0.315685 -0.000289 -0.000455 175627.000000 1 0 0
3.604311 5.972279 16.387501 17.810372 1.027802 0.402435 -0.000534 -0.008423 1251490.000000 1 0 0
-3.660189 12.280379 12.479101 17.886661 -1.281128 0.798647 0.011159 -0.004385 956595.000000 1 0 0
3.593711 -1.350321 17.096501 17.522228 -0.359424 0.220887 0.018438 -0.012701 406445.000000 1 0 0
-15.737689 0.525879 9.146401 18.210108 -0.033403 1.044574 0.006265 -0.001867 -29932.600000 1 0 0
-4.560489 4.556279 15.213201 16.522688 -0.784936 0.400808 0.002247 -0.003523 1312610.000000 1 0 0
-8.046889 -8.264021 10.414401 15.540470 0.798709 0.836389 0.003507 -0.006859 3607220.000000 1 0 0
-2.672689 -0.499721 14.692201 14.941678 0.184839 0.182994 0.001199 -0.000195 1434380.000000 1 0 0
-1.864989 0.903179 17.219501 17.343734 -0.450994 0.119763 -0.002737 -0.005984 1984330.000000 1 0 0
-0.798689 -2.604421 14.397901 14.653343 1.273235 0.186993 0.002586 -0.001780 -107566.000000 1 0 0
5.113911 -8.197721 16.512001 19.131150 -1.013045 0.529430 0.008651 -0.001738 624315.000000 1 0 0
-4.489089 9.979679 10.680301 15.291002 -1.148090 0.797539 0.007239 -0.001286 -373431.000000 1 0 0
-6.138389 1.996579 15.188201 16.502957 -0.314468 0.401868 -0.003208 -0.002958 -1486890.000000 1 0 0
-4.822089 6.790379 17.309601 19.208958 -0.953300 0.448448 -0.000085 -0.000975 476098.000000 1 0 0
-4.097689 9.139179 15.757401 18.671136 -1.149303 0.566202 0.011339 -0.001000 -757521.000000 1 0 0
-4.656089 -9.925621 18.506101 21.509832 1.132175 0.534830 0.022024 -0.008481 -840768.000000 1 0 0
-6.816389 -4.132621 11.153101 13.708879 0.545022 0.620535 0.003125 0.003609 1004480.000000 1 0 0
-2.339189 -0.889621 19.501901 19.661825 0.363419 0.127631 0.003732 -0.008670 -1209100.000000 1 0 0
-5.669889 -4.618821 15.143101 16.816499 0.683594 0.449900 0.008344 -0.009091 914281.000000 1 0 0
-12.803189 0.055479 9.796801 16.121477 -0.004333 0.917652 -0.004270 0.003709 1954470.000000 1 0 0
-14.321789 8.761679 10.518201 19.811946 -0.549031 1.011132 -0.004833 -0.004159 -1896450.000000 1 0 0
-8.401489 10.510279 12.875701 18.623497 -0.896446 0.807415 -0.003052 -0.010635 -488897.000000 1 0 0
-10.418489 7.179779 10.743701 16.598833 -0.603399 0.866817 -0.006742 -0.002315 -1224130.000000 1 0 0
-9.881489 -6.638821 14.750701 18.955235 0.591578 0.679024 0.010744 -0.005691 751201.000000 1 0 0
-0.725889 -13.490721 14.375901 19.727975 1.517042 0.754365 0.009420 -0.014328 -145112.000000 1 0 0
3.759211 -5.640421 16.954201 18.258996 -0.982925 0.380337 0.017839 -0.010071 1142990.000000 1 0 0
-7.318389 9.370779 10.400401 15.796792 -0.907761 0.852123 -0.002796 -0.004620 1314430.000000 1 0 0
-10.343989 -6.735521 11.765801 17.052842 0.577185 0.809361 0.003826 -0.004731 2254370.000000 1 0 0
-10.882889 -3.944521 10.721301 15.777922 0.347724 0.823698 -0.000764 0.008967 -1224720.000000 1 0 0
-10.166689 -10.309621 9.713701 17.435763 0.792378 0.979890 -0.000612 -0.008250 1082130.000000 1 0 0
-9.784989 -3.742721 15.328501 18.566553 0.365326 0.599536 0.009145 -0.002509 1336190.000000 1 0 0
5.532311 -3.286321 16.069001 17.309511 -0.536013 0.380891 0.016530 -0.011701 174804.000000 1 0 0
-11.254289 0.428179 15.404201 19.082237 -0.038027 0.631313 -0.001250 -0.002613 -398490.000000 1 0 0
-3.277189 3.051679 18.790701 19.316914 -0.749781 0.233947 0.007127 -0.010436 -793653.000000 1 0 0
0.500611 7.224579 13.952501 15.719969 1.501614 0.478763 -0.002697 -0.004359 329075.000000 1 0 0
-13.136789 -7.560021 12.145901 19.422977 0.522198 0.895233 -0.001685 0.000750 590934.000000 1 0 0
-1.484689 -1.184421 12.097201 12.245384 0.673372 0.155728 -0.001510 -0.000293 -634071.000000 1 0 0
2.007111 -4.894321 13.120301 14.146560 -1.181622 0.383247 0.002104 -0.003354 -380268.000000 1 0 0
-14.522989 -4.080721 8.606101 17.367627 0.273921 1.052357 -0.000601 -0.004523 -1084330.000000 1 0 0
8.058211 0.976979 16.200101 18.119948 0.120651 0.464495 0.015373 -0.011225 375251.000000 1 0 0
-1.184389 11.287779 13.489601 17.629125 -1.466252 0.699463 0.000562 0.000989 1187110.000000 1 0 0
2.713611 -12.375421 -13.747399 18.695072 -1.354938 2.396978 0.008112 0.006934 -529864.000000 1 0 0
0.728411 -10.749021 -13.969699 17.641557 -1.503134 2.484650 0.005887 0.001911 -2897470.000000 1 0 0
3.066511 -14.432121 -12.140299 19.106975 -1.361432 2.259304 0.004650 0.004930 -773083.000000 1 0 0
-5.160389 -10.135821 -16.224199 19.813862 1.099876 2.530167 0.001228 -0.010909 -679237.000000 1 0 0
-1.163189 -12.227821 -15.083199 19.451877 1.475955 2.458162 0.009893 -0.001227 -141642.000000 1 0 0
5.561211 -14.982421 -12.088299 20.038138 -1.215377 2.218384 0.000994 0.007039 4116.640000 1 0 0
1.762311 -11.894821 -16.150599 20.135401 -1.423708 2.501599 0.005857 0.002735 -848312.000000 1 0 0
1.211011 -14.465721 -13.970099 20.146645 -1.487275 2.337022 0.014931 0.011983 -421821.000000 1 0 0
-1.199989 -10.652021 -15.921999 19.194155 1.458616 2.549050 0.015512 -0.009321 -475626.000000 1 0 0
-5.951689 -5.462221 -15.182499 17.197870 0.742541 2.652613 0.002137 -0.000387 43080.800000 1 0 0
-6.416089 -7.477321 -16.627499 19.327448 0.861634 2.606664 -0.005501 0.001023 9709.460000 1 0 0
4.824411 -12.503821 -11.443999 17.623439 -1.202561 2.277542 -0.000403 0.006340 -38503.800000 1 0 0
-1.940189 -15.441621 -13.170699 20.388117 1.445805 2.273127 0.008021 0.002356 66425.600000 1 0 0
15.852311 -7.457421 -8.632399 19.530162 -0.439714 2.028627 0.013938 -0.006480 710660.000000 1 0 0
19.173211 -3.568721 -4.003399 19.909169 -0.184025 1.773260 0.006459 -0.016691 531529.000000 1 0 0
15.042911 -11.648121 -8.813399 20.967687 -0.658889 2.004608 0.039611 -0.009444 653313.000000 1 0 0
18.139011 -3.487321 -6.358899 19.535115 -0.189938 1.902349 0.050660 -0.007703 716018.000000 1 0 0
9.295011 -9.086121 -15.404099 20.155424 -0.774034 2.440698 0.021413 -0.017301 210668.000000 1 0 0
1.372711 1.941379 -15.184299 15.369328 0.955334 2.986267 0.009751 -0.005405 11034.000000 1 0 0
4.857311 -4.326721 -13.957299 15.398707 -0.727689 2.705465 -0.000490 -0.003828 1384840.000000 1 0 0
13.334311 -5.659721 -8.678399 16.886412 -0.401403 2.110554 0.030991 -0.007010 -1852840.000000 1 0 0
3.047111 1.055879 -12.284199 12.700445 0.333569 2.884864 0.002650 -0.002785 -2034830.000000 1 0 0
0.678911 6.327779 -12.897399 14.382093 1.463915 2.683207 0.009617 -0.003384 66288.800000 1 0 0
3.296911 -1.113521 -16.833899 17.189814 -0.325717 2.937745 0.007465 -0.004973 -854809.000000 1 0 0
13.272011 4.485479 -11.547599 18.155243 0.325913 2.260162 0.007685 0.004180 558518.000000 1 0 0
-3.874589 9.553379 -16.569099 19.514470 -1.185495 2.585014 0.002680 0.002282 527493.000000 1 0 0
-0.242889 -4.997821 -17.655999 18.351336 1.522236 2.865433 0.007581 -0.012026 392940.000000 1 0 0
-0.460189 -8.763521 -17.580499 19.649046 1.518333 2.678612 0.017724 -0.009078 761251.000000 1 0 0
5.601711 -10.075121 -12.143799 16.743927 -1.063363 2.382217 0.011930 -0.002540 111137.000000 1 0 0
1.982211 -9.695621 -17.996699 20.538145 -1.369131 2.638835 0.023403 -0.012435 -849804.000000 1 0 0
10.831911 8.614779 -14.554199 20.084059 0.671878 2.381343 0.011531 -0.001965 -837390.000000 1 0 0
11.058111 -3.785421 -12.958499 17.450901 -0.329817 2.407694 0.018710 -0.013427 245612.000000 1 0 0
4.868511 7.361479 -12.041799 14.929792 0.986484 2.509109 -0.002993 -0.001215 524784.000000 1 0 0
9.663611 -6.020421 -12.635299 17.008281 -0.557159 2.408175 0.018485 -0.010786 -514100.000000 1 0 0
-3.247289 0.353079 -15.871099 16.203745 -0.108305 2.938617 0.008449 -0.004301 -1118140.000000 1 0 0
-0.649789 10.826479 -12.785599 16.766228 -1.510850 2.438089 0.000478 -0.000818 -898426.000000 1 0 0
6.739611 -5.427321 -12.411499 15.130218 -0.677956 2.532753 0.003657 -0.006646 -35165.300000 1 0 0
18.000611 -6.099021 -8.090899 20.656299 -0.326683 1.973266 0.017789 -0.012997 837824.000000 1 0 0
13.170411 4.657679 -14.111699 19.856831 0.339920 2.361250 0.005161 -0.001931 229400.000000 1 0 0
14.162911 0.839979 -11.563199 18.303038 0.059239 2.254623 0.009787 0.002054 -254048.000000 1 0 0
15.180111 6.120079 -11.082899 19.766684 0.383231 2.166010 0.012295 -0.001536 -392010.000000 1 0 0
8.335611 1.471879 -11.619799 14.375972 0.174776 2.512020 -0.003156 0.002852 613274.000000 1 0 0
9.945911 1.206079 -8.940599 13.427959 0.120675 2.299388 0.001693 0.000740 340126.000000 1 0 0
-0.096189 -5.814821 -12.960699 14.205672 1.554256 2.719811 0.004915 -0.003510 -83204.100000 1 0 0
10.771911 -5.698421 -8.950299 15.119984 -0.486583 2.204274 0.023468 -0.012293 -2370180.000000 1 0 0
10.178811 8.447479 -11.234499 17.354598 0.692713 2.274899 0.006450 -0.000553 837573.000000 1 0 0
8.224011 8.122679 -14.608899 18.628800 0.779199 2.472219 0.006359 0.002214 343678.000000 1 0 0
8.769211 10.612179 -10.671299 17.418210 0.880203 2.230208 0.007627 -0.003218 -683894.000000 1 0 0
7.088611 1.654979 -17.917799 19.339982 0.229362 2.755703 0.002751 0.002855 -1071900.000000 1 0 0
12.120711 2.585179 -12.848399 17.851503 0.210137 2.374221 0.000240 -0.001136 -1072490.000000 1 0 0
2.669311 -0.778721 -19.347499 19.546287 -0.283854 2.998852 0.014807 -0.010380 -532983.000000 1 0 0
10.319011 -2.361221 -15.574499 18.831420 -0.224950 2.544633 0.012074 -0.008854 -777748.000000 1 0 0
8.372611 -0.879621 -13.021799 15.506180 -0.104675 2.567677 0.004376 -0.005019 663968.000000 1 0 0
0.490111 4.374079 -14.593499 15.242801 1.459213 2.848665 0.009336 -0.002096 170530.000000 1 0 0
3.988311 -7.798321 -15.667899 17.950028 -1.098045 2.631834 0.014395 -0.007392 -2227060.000000 1 0 0
11.537511 -5.821221 -14.475599 19.404735 -0.467279 2.412806 0.017036 -0.011720 -882886.000000 1 0 0
-5.822289 4.317679 -16.998599 18.479550 -0.638089 2.738520 0.003290 0.000940 99080.600000 1 0 0
11.484411 7.945479 -9.084499 16.659846 0.605235 2.147535 0.010851 -0.000283 -2151910.000000 1 0 0
9.525311 6.192379 -13.402199 17.569748 0.576444 2.438428 0.000860 0.003998 303166.000000 1 0 0
12.092611 0.563879 -10.190299 15.823761 0.046596 2.270495 0.011187 0.000402 -768011.000000 1 0 0
5.475511 -7.219421 -13.689299 16.416400 -0.921914 2.556896 0.008657 -0.005751 -797777.000000 1 0 0
8.627211 -10.188121 -10.677699 17.095024 -0.868168 2.245427 0.021870 -0.003233 -135640.000000 1 0 0
10.157911 4.630979 -15.846299 19.383868 0.427748 2.527852 0.008834 -0.000794 31841.900000 1 0 0
9.883911 -0.548721 -10.901499 14.725335 -0.055460 2.404347 0.006077 -0.003246 326516.000000 1 0 0
-1.654289 5.588079 -13.939499 15.108704 -1.282977 2.745599 0.006200 -0.005458 -111561.000000 1 0 0
1.396411 -0.686521 -14.915599 14.996545 -0.456931 3.037645 0.004677 -0.005086 651701.000000 1 0 0
11.287511 -10.432821 -14.393099 21.057373 -0.746069 2.323368 0.019936 -0.009964 -183741.000000 1 0 0
9.442411 -7.842121 -10.740099 16.309743 -0.693076 2.289631 0.019317 -0.010442 62650.700000 1 0 0
14.190711 -0.956621 -9.933299 17.348252 -0.067310 2.180448 0.019705 0.000888 821870.000000 1 0 0
4.073711 11.144179 -12.243999 17.050025 1.220340 2.371896 0.006180 -0.007850 -823582.000000 1 0 0
-1.309589 2.996679 -16.842299 17.156869 -1.158794 2.949805 0.006721 -0.004352 -594737.000000 1 0 0
6.016311 -0.616321 -17.626199 18.634880 -0.102086 2.811065 0.002584 -0.001672 -197700.000000 1 0 0
6.350311 -6.661221 -15.936799 18.403257 -0.809289 2.617897 0.010389 -0.008693 297123.000000 1 0 0
-1.661189 -5.193521 -19.730399 20.469999 1.261222 2.871961 0.012508 -0.019191 -1057750.000000 1 0 0
-0.009989 -4.279521 -15.176999 15.768821 1.568462 2.866754 0.001924 -0.007146 267338.000000 1 0 0
0.474911 0.716979 -12.971499 12.999977 0.985769 3.075390 0.006645 -0.005223 615726.000000 1 0 0
15.726511 0.661879 -13.690599 20.861298 0.042062 2.286658 0.009138 0.001510 548932.000000 1 0 0
-0.102489 7.025679 -16.368099 17.812505 -1.556210 2.736106 0.013606 0.000103 42253.300000 1 0 0
-4.752189 -0.378021 -18.178099 18.792804 0.079380 2.885119 -0.006791 -0.006707 -405175.000000 1 0 0
10.388211 -8.423321 -13.097099 18.719008 -0.681324 2.345730 0.021032 -0.016767 441472.000000 1 0 0
4.359411 8.695579 -17.142599 19.710055 1.106080 2.625469 0.002632 -0.004454 -177931.000000 1 0 0
9.308611 0.774579 -16.650999 19.092040 0.083020 2.630363 0.003466 -0.011448 -416284.000000 1 0 0
3.409711 4.851579 -18.484299 19.412194 0.958191 2.831157 0.014147 0.000617 -302995.000000 1 0 0
1.454311 -8.187021 -15.887699 17.932131 -1.394994 2.659422 0.006508 -0.009923 187256.000000 1 0 0
4.734311 7.777679 -14.790399 17.368417 1.024001 2.589767 -0.001691 0.000410 431564.000000 1 0 0
-5.589689 -0.346421 -15.139599 16.142246 0.061896 2.787285 -0.002119 -0.003395 -1285860.000000 1 0 0
2.872111 3.468879 -13.763499 14.481576 0.879234 2.825362 0.004271 -0.001744 -511755.000000 1 0 0
-2.430689 -10.355621 -18.089899 20.985509 1.340248 2.610035 0.018824 -0.008632 -372435.000000 1 0 0
6.173511 -9.144421 -15.258399 18.829536 -0.976970 2.515535 0.010600 -0.010700 -760421.000000 1 0 0
-1.777089 5.512579 -17.467299 18.402530 -1.258945 2.821414 0.007187 0.001584 238339.000000 1 0 0
9.920911 -12.292321 -11.670599 19.639973 -0.891752 2.207100 0.028739 -0.002049 511613.000000 1 0 0
10.880411 3.652279 -9.385899 14.826247 0.323856 2.256296 0.005280 0.000119 -558198.000000 1 0 0
4.721811 -0.465321 -10.908299 11.895504 -0.098230 2.731315 0.003271 -0.003113 105932.000000 1 0 0
6.311711 9.590379 -11.331999 16.131561 0.988727 2.349664 0.007970 -0.004990 -111453.000000 1 0 0
10.856711 -9.593321 -9.411299 17.276358 -0.723697 2.146888 0.027817 -0.008325 -348594.000000 1 0 0
3.223311 -2.428621 -14.518099 15.068614 -0.645709 2.870452 0.005960 -0.005976 65662.400000 1 0 0
9.224611 -4.657521 -14.694899 17.964577 -0.467561 2.528710 0.016325 -0.015382 348024.000000 1 0 0
-4.019789 -6.524021 -16.665999 18.343312 1.018585 2.710620 -0.001611 -0.006736 -762164.000000 1 0 0
5.811411 -7.625921 -11.181099 14.729024 -0.919621 2.432757 0.003759 -0.005992 252236.000000 1 0 0
5.501311 6.396779 -16.850799 18.844963 0.860518 2.677394 -0.000710 -0.003528 -1430960.000000 1 0 0
9.391111 1.173779 -19.154799 21.365324 0.124343 2.682685 0.027571 -0.013796 456783.000000 1 0 0
13.161511 5.803079 -9.391699 17.178624 0.415271 2.149224 0.001128 0.004409 750837.000000 1 0 0
-1.413889 -0.731821 -17.221299 17.294733 0.477624 3.049408 0.010851 -0.009005 -47632.300000 1 0 0
-0.511889 -0.454921 -19.599399 19.611360 0.726543 3.106666 0.014328 -0.010775 -116260.000000 1 0 0
2.940411 6.563679 -16.478499 17.979678 1.149622 2.730055 0.007420 0.003209 -198864.000000 1 0 0
7.638511 3.788479 -15.622199 17.797543 0.460419 2.641990 -0.006500 0.003469 -525444.000000 1 0 0
2.982411 -10.003621 -14.770199 18.086625 -1.281053 2.526355 0.013492 -0.002584 427491.000000 1 0 0
8.882311 -10.561421 -13.353099 19.202717 -0.871542 2.339739 0.024707 -0.007078 87344.100000 1 0 0
3.866911 0.063479 -14.766099 15.264164 0.016414 2.885434 0.001883 -0.004561 -2017430.000000 1 0 0
-1.004989 -2.786521 -18.904499 19.135172 1.224656 2.986163 0.012815 -0.009269 33350.000000 1 0 0
9.284911 10.096379 -13.206599 19.041027 0.827242 2.337252 0.010187 0.000796 408232.000000 1 0 0
4.689811 2.083479 -10.633499 11.807054 0.418067 2.691957 -0.002180 0.002521 109985.000000 1 0 0
-0.396589 7.112479 -19.019799 20.310032 -1.515094 2.783232 0.014150 0.000398 192790.000000 1 0 0
0.969711 -1.626021 -17.715199 17.816076 -1.033050 3.035127 0.018420 -0.007886 -1231750.000000 1 0 0
-4.443189 -2.354421 -14.059799 14.931952 0.487276 2.798122 0.006041 -0.004132 -3697220.000000 1 0 0
10.117511 6.044279 -10.305399 15.655625 0.538511 2.289295 0.005246 0.003449 -7691.540000 1 0 0
8.264711 5.612579 -17.400099 20.064146 0.596562 2.620395 0.002459 -0.004499 -445608.000000 1 0 0
11.397811 0.121779 -13.552699 17.708771 0.010684 2.442319 0.002283 -0.000245 351602.000000 1 0 0
6.910111 11.973279 -11.840899 18.202086 1.047364 2.279071 0.012275 -0.004743 -468584.000000 1 0 0
-0.850189 0.625079 -15.123199 15.159970 -0.633977 3.071929 0.006934 -0.005888 1669.700000 1 0 0
-4.039789 -2.754621 -18.894799 19.517204 0.598456 2.888369 -0.012037 -0.004084 -63123.000000 1 0 0
5.600911 -11.928521 -13.883499 19.141875 -1.131813 2.382259 0.004557 -0.002545 -275957.000000 1 0 0
2.168011 -4.747821 -14.034399 14.973525 -1.142440 2.785542 0.003978 -0.004870 -118489.000000 1 0 0
11.783011 1.829779 -15.350499 19.437728 0.154059 2.481160 0.007754 -0.003770 143510.000000 1 0 0
9.727911 2.108979 -13.779999 16.999071 0.213493 2.516028 -0.000799 0.001977 -167350.000000 1 0 0
-2.251489 -4.018921 -16.421499 17.055397 1.060139 2.868098 -0.001603 -0.009619 -1826920.000000 1 0 0
-2.715689 10.211379 -14.306399 17.785395 -1.310866 2.505445 0.005335 -0.004475 75639.600000 1 0 0
3.578211 5.872579 -13.643799 15.278875 1.023561 2.674729 0.001288 0.002384 -507786.000000 1 0 0
-5.025689 -2.460321 -16.581899 17.500575 0.455252 2.816140 -0.002196 -0.002792 501819.000000 1 0 0
-4.219289 6.291879 -13.454299 15.440476 -0.980081 2.628775 -0.003024 -0.002888 -645884.000000 1 0 0
5.978511 -1.103121 -14.174099 15.422858 -0.182462 2.736414 0.002273 -0.000829 -1598440.000000 1 0 0
6.697511 -2.863221 -12.588399 14.543813 -0.403991 2.617044 -0.000702 -0.008904 1272420.000000 1 0 0
3.056311 -3.177821 -18.320099 18.843185 -0.804887 2.905418 0.016647 -0.014597 65217.800000 1 0 0
7.358211 -12.003221 -11.951799 18.467975 -1.020858 2.274654 0.015035 -0.001707 -2437650.000000 1 0 0
-6.136489 -5.280921 -17.723499 19.485047 0.710603 2.713104 0.016001 -0.001726 279166.000000 1 0 0
0.542011 8.708379 -11.870999 14.732626 1.508636 2.507758 0.004909 -0.002698 196214.000000 1 0 0
0.267511 8.501979 -14.387099 16.713582 1.539342 2.607641 0.002303 -0.003484 -375491.000000 1 0 0
7.824411 -2.572621 -14.978999 17.094157 -0.317660 2.638850 0.007737 -0.015967 -618758.000000 1 0 0
14.335811 1.471479 -8.998799 16.989971 0.102285 2.128988 0.005591 0.005261 436542.000000 1 0 0
2.978111 10.856579 -14.673799 18.494724 1.303068 2.487178 0.008580 0.002508 -168590.000000 1 0 0
6.171911 1.080779 -15.554799 16.769387 0.173355 2.758655 0.000855 -0.000666 325819.000000 1 0 0
16.624411 -5.603321 -10.255499 20.321012 -0.325095 2.099801 0.032120 -0.015181 352341.000000 1 0 0
4.860511 -4.299821 -11.274199 13.008482 -0.724266 2.619306 0.001971 -0.002244 -927894.000000 1 0 0
8.739711 -3.634421 -17.096099 19.541448 -0.394096 2.635950 0.000653 -0.013375 368581.000000 1 0 0
13.368311 -9.680621 -8.864699 18.735236 -0.626749 2.063667 0.030922 -0.007429 -473370.000000 1 0 0
2.302611 -7.742621 -13.576399 15.797747 -1.281732 2.604869 0.001321 -0.001513 208636.000000 1 0 0
-6.587189 -2.293021 -18.611799 19.875816 0.334984 2.783036 -0.014837 0.004110 -1061670.000000 1 0 0
-1.557689 -6.339321 -15.800399 17.095789 1.329851 2.749804 0.007251 -0.006585 -207513.000000 1 0 0
1.627311 -7.245721 -18.312399 19.760885 -1.349873 2.756329 0.018359 -0.015324 115549.000000 1 0 0
5.491211 10.948079 -14.459799 18.949924 1.105895 2.438820 0.000953 -0.008990 -856303.000000 1 0 0
5.499711 -3.470421 -17.293799 18.476096 -0.562916 2.781912 0.014013 -0.014459 -381408.000000 1 0 0
4.063511 13.116779 -13.917799 19.551653 1.270378 2.362922 0.002179 -0.009082 -473129.000000 1 0 0
9.228911 10.317379 -15.739599 20.960823 0.841027 2.420229 0.012932 -0.003722 213586.000000 1 0 0
2.561011 3.956979 -16.207899 16.879350 0.996382 2.858587 0.006909 -0.002437 627627.000000 1 0 0
16.644711 1.559379 -11.482799 20.281340 0.093413 2.172655 0.012052 0.006719 31974.900000 1 0 0
10.016311 -3.749421 -10.589599 15.050723 -0.358184 2.351239 0.018188 -0.007618 1134390.000000 1 0 0
14.693211 -2.399221 -11.989499 19.115303 -0.161859 2.248775 0.020024 -0.000329 280834.000000 1 0 0
-2.730589 -8.663121 -16.053499 18.445070 1.265456 2.626690 0.007535 -0.004552 -460839.000000 1 0 0
14.038211 8.256979 -8.944799 18.581133 0.531682 2.073038 0.018874 0.000026 761597.000000 1 0 0
-8.178689 0.070879 -16.499399 18.415378 -0.008666 2.681379 -0.000704 -0.004088 -83196.200000 1 0 0
-3.431789 4.009779 -16.019099 16.866151 -0.862913 2.823322 0.001700 0.000479 -510559.000000 1 0 0
15.086611 3.888079 -9.769499 18.389293 0.252229 2.130884 0.006991 0.009649 660340.000000 1 0 0
5.487811 1.082479 -12.946599 14.103271 0.194751 2.733767 -0.002363 0.001156 143378.000000 1 0 0
7.809011 -7.756021 -12.727299 16.826190 -0.781994 2.428585 0.014181 -0.011432 -2612650.000000 1 0 0
3.200911 -6.104821 -11.880699 13.735563 -1.087879 2.615865 0.001099 -0.002967 -681415.000000 1 0 0
-3.146489 3.531279 -18.603299 19.195131 -0.842957 2.892626 0.004722 0.001346 -177661.000000 1 0 0
0.986511 5.277279 -17.777199 18.570183 1.385994 2.848303 0.010467 -0.004810 256743.000000 1 0 0
6.402211 7.225579 -10.141899 14.001979 0.845743 2.380842 0.000005 0.000101 265089.000000 1 0 0
9.694911 3.780379 -11.682399 15.644840 0.371799 2.413921 0.002226 0.004012 381956.000000 1 0 0
4.470811 1.473379 -17.423899 18.048581 0.318346 2.877727 0.004935 -0.003440 -679812.000000 1 0 0
2.624911 8.179479 -13.240199 15.782804 1.260264 2.566056 0.004376 -0.001865 9511.800000 1 0 0
14.464811 -3.548621 -9.785499 17.820759 -0.240577 2.152091 0.022543 -0.003495 201178.000000 1 0 0
-1.289189 9.273879 -16.230599 18.737641 -1.432669 2.618349 0.010453 -0.003204 -1916700.000000 1 0 0
-5.133389 2.076379 -15.695699 16.643858 -0.384367 2.802427 0.004339 -0.004088 296682.000000 1 0 0
4.543611 4.295279 -11.881699 13.426414 0.757310 2.657182 -0.001221 0.000118 438153.000000 1 0 0
9.105311 3.172779 -17.651699 20.113570 0.335297 2.641632 -0.006282 0.001456 989584.000000 1 0 0
-4.186989 14.271879 -13.455199 20.056415 -1.285430 2.306174 0.002294 -0.002909 -336685.000000 1 0 0
15.581511 -4.930721 -7.929199 18.165013 -0.306477 2.022512 0.024896 -0.009307 -843611.000000 1 0 0
1.213411 9.166179 -16.811699 19.186569 1.439182 2.638763 0.008571 -0.002883 -1151480.000000 1 0 0
0.489011 -3.235121 -12.795399 13.207096 -1.420775 2.891250 0.000719 -0.003040 583561.000000 1 0 0
7.510211 3.400479 -13.037999 15.425821 0.425164 2.577747 -0.004629 0.006686 52017.400000 1 0 0
-2.965689 7.689879 -14.997899 17.113344 -1.202712 2.639103 0.005490 -0.002111 324561.000000 1 0 0
12.224211 -5.160321 -11.033899 17.257091 -0.399445 2.264493 0.028782 -0.012312 -851233.000000 1 0 0
0.839411 -4.441721 -19.822099 20.330989 -1.384016 2.917381 0.024608 -0.018190 -1142630.000000 1 0 0
3.384211 -4.560721 -16.151699 17.121053 -0.932413 2.803480 0.009075 -0.011694 359831.000000 1 0 0
-5.573889 4.264879 -14.417999 16.035465 -0.653129 2.688579 -0.000785 -0.000452 756452.000000 1 0 0
12.412011 -7.549721 -9.797299 17.522653 -0.546470 2.164123 0.032860 -0.008939 582652.000000 1 0 0
-1.940289 -1.781921 -14.857299 15.089046 0.742877 2.966104 0.006855 -0.005079 293230.000000 1 0 0
7.041911 5.816879 -14.138099 16.831828 0.690417 2.568010 -0.003743 0.002974 -496769.000000 1 0 0
4.313511 -5.471121 -18.401399 19.676154 -0.903160 2.779657 0.025307 -0.016682 142210.000000 1 0 0
7.496711 7.431479 -12.241699 16.164367 0.781028 2.430005 -0.001010 0.001423 -659926.000000 1 0 0
12.332111 -2.590321 -10.959799 16.700537 -0.207037 2.286640 0.023902 -0.008407 -630293.000000 1 0 0
7.411511 -0.721421 -10.660399 13.003655 -0.097032 2.531858 0.000791 -0.002045 -1226740.000000 1 0 0
5.360011 4.034679 -14.412099 15.897074 0.645251 2.705924 -0.002750 0.003572 43597.900000 1 0 0
14.732811 2.890379 -12.868299 19.773799 0.193726 2.279401 0.005371 -0.004728 109862.000000 1 0 0
-6.062989 6.854979 -16.017299 18.447342 -0.846631 2.622503 -0.011181 0.010663 491133.000000 1 0 0
-11.031589 3.993379 -16.438699 20.195887 -0.347320 2.521738 0.014154 -0.009099 64145.000000 1 0 0
-4.927289 6.357079 -18.342599 20.028519 -0.911432 2.728351 -0.001840 0.022225 343057.000000 1 0 0
-9.956189 1.739879 -15.691899 18.665170 -0.173006 2.569380 0.012864 -0.004639 -417169.000000 1 0 0
-7.600889 5.825179 -17.785999 20.200198 -0.653903 2.647684 -0.004643 -0.005545 462739.000000 1 0 0
-8.614589 3.924379 -15.448099 18.117827 -0.427460 2.591826 -0.003827 0.002053 -1897630.000000 1 0 0
9.094711 13.428779 -12.091999 20.230233 0.975499 2.211450 0.021441 -0.006800 438608.000000 1 0 0
13.955011 9.085179 -11.414499 20.188452 0.577101 2.171711 0.015943 -0.004343 295926.000000 1 0 0
8.518711 15.958779 -9.064899 20.234215 1.080480 2.035322 0.022442 -0.010600 -86101.300000 1 0 0
7.217311 13.639279 -13.868399 20.747337 1.084097 2.302909 0.008488 -0.001557 -204583.000000 1 0 0
4.963011 16.070879 -12.516299 20.965743 1.271267 2.210538 0.011184 -0.012242 58466.400000 1 0 0
11.177911 10.802979 -11.463999 19.315106 0.768343 2.206228 0.018787 -0.007572 896506.000000 1 0 0
15.896411 9.840779 -9.708299 21.066274 0.554314 2.049744 0.035958 0.001676 -20497.600000 1 0 0
13.417311 10.743279 -9.300399 19.543278 0.675169 2.066769 0.046579 -0.002585 892430.000000 1 0 0
10.389111 11.954679 -8.198299 17.834239 0.855351 2.048447 0.017713 0.000303 326948.000000 1 0 0
5.487411 16.192279 -10.003599 19.808422 1.244053 2.100199 0.005444 -0.015413 -181795.000000 1 0 0
6.816211 14.563979 -11.516699 19.778892 1.133060 2.192317 0.005690 -0.004401 -115316.000000 1 0 0
10.807711 13.827679 -9.908899 20.154345 0.907376 2.084781 0.030189 -0.004562 -281700.000000 1 0 0
8.007211 -18.846521 -1.289399 20.517537 -1.169041 1.633682 0.021143 0.008639 -457844.000000 1 0 0
7.135611 -17.454921 -3.460799 19.172072 -1.182725 1.752304 0.008034 0.003662 -511624.000000 1 0 0
4.367311 -18.490621 5.589901 19.804632 -1.338856 1.284655 0.027740 0.006428 -164420.000000 1 0 0
9.526011 -17.222621 -2.616199 19.854674 -1.065568 1.702948 0.016407 0.001440 -879330.000000 1 0 0
-9.844189 -12.108121 -10.061499 18.567402 0.888164 2.143481 0.012329 -0.010684 -744316.000000 1 0 0
-5.034589 -7.044721 -12.133799 14.906517 0.950298 2.521790 -0.000116 -0.002136 202410.000000 1 0 0
-10.942589 -9.533021 -5.663799 15.578747 0.716665 1.942882 0.002419 -0.001222 -420342.000000 1 0 0
-4.786489 -11.407021 -14.123299 18.774935 1.173501 2.422255 0.011097 -0.004044 235839.000000 1 0 0
-3.157689 -15.350621 7.382501 17.323795 1.367922 1.130566 0.011079 -0.008425 96408.400000 1 0 0
-4.993089 -11.910221 -11.661599 17.400494 1.173825 2.305258 0.012252 -0.003738 -60189.000000 1 0 0
-14.423489 -12.721421 -4.260799 19.698376 0.722777 1.788822 0.005430 -0.001127 -176697.000000 1 0 0
-3.282389 -12.183121 -3.272299 13.034971 1.307624 1.824551 0.006646 -0.001851 1076950.000000 1 0 0
-2.469389 -17.226521 -1.526799 17.469460 1.428418 1.658306 -0.010726 -0.007093 -408063.000000 1 0 0
-5.794789 -12.164021 3.676201 13.966297 1.126216 1.304439 -0.001019 -0.004570 -1090060.000000 1 0 0
-9.032189 -10.579021 -11.935599 18.329066 0.864110 2.279940 0.007195 -0.002732 -154653.000000 1 0 0
-10.168789 -12.090321 -7.480799 17.479774 0.871510 2.013041 0.011317 -0.008432 70352.200000 1 0 0
-10.855989 -15.093421 5.940901 19.518149 0.947265 1.261511 0.000226 -0.011413 -1118190.000000 1 0 0
-9.495989 -15.847121 0.564001 18.483050 1.030947 1.540277 0.004588 -0.000151 -776478.000000 1 0 0
-14.782789 -7.617221 -8.149699 18.519463 0.475794 2.026463 -0.007535 -0.007578 -262888.000000 1 0 0
-2.461289 -16.514621 5.109301 17.461260 1.422848 1.273843 0.006651 -0.004433 -715841.000000 1 0 0
4.395911 -15.991621 5.883601 17.597521 -1.302534 1.229889 0.018571 0.001220 -364948.000000 1 0 0
4.175811 -14.536721 -9.965199 18.112395 -1.291069 2.153384 -0.001764 0.003338 -346993.000000 1 0 0
-7.628489 -14.167921 -0.376399 16.095512 1.076876 1.594184 0.001366 0.001646 753498.000000 1 0 0
2.974611 -14.836121 9.627401 17.934482 -1.372922 1.004145 0.017270 -0.010414 -633770.000000 1 0 0
2.339211 -17.250621 10.299601 20.227150 -1.436017 1.036545 0.030186 -0.015708 -609028.000000 1 0 0
-8.219289 -17.104421 -6.079199 19.926731 1.122841 1.880816 0.017997 -0.011982 252685.000000 1 0 0
-6.518289 -9.109221 -7.761999 13.627716 0.949697 2.176784 0.010876 -0.004614 415814.000000 1 0 0
-6.221389 -13.109021 -4.973699 15.339159 1.127684 1.901014 0.005623 -0.005178 351551.000000 1 0 0
2.093511 -19.448121 -4.782699 20.136693 -1.463563 1.810600 0.001205 -0.009943 112045.000000 1 0 0
-5.611089 -12.888121 8.230501 16.288927 1.160176 1.041088 0.005399 -0.010480 931557.000000 1 0 0
2.021611 -17.476421 3.458901 17.929757 -1.455632 1.376665 0.012789 -0.006686 -491212.000000 1 0 0
-17.507789 -9.968321 -2.579899 20.311228 0.517589 1.698159 0.004798 0.002980 397461.000000 1 0 0
-3.571489 -15.455221 2.594301 16.073263 1.343697 1.408682 -0.001110 -0.004117 79985.200000 1 0 0
-10.284689 -10.258221 -14.157199 20.283792 0.784110 2.343336 0.005798 -0.004780 -411211.000000 1 0 0
5.887311 -14.689021 -5.538399 16.766086 -1.189603 1.907453 -0.007475 -0.001549 629163.000000 1 0 0
-7.378389 -12.287921 -10.759999 17.922366 1.030040 2.214756 0.004893 -0.006729 -1104380.000000 1 0 0
-7.011789 -14.383121 3.710301 16.425763 1.117198 1.342947 -0.012223 -0.000535 1310740.000000 1 0 0
3.218311 -15.021621 -3.174099 15.686986 -1.359742 1.774543 0.000744 -0.003652 248789.000000 1 0 0
-7.565289 -11.481121 7.772401 15.794301 0.988167 1.056294 -0.004375 -0.009732 -2664530.000000 1 0 0
-12.790489 -12.390121 -1.062099 17.839276 0.769500 1.630369 0.002561 0.010366 -718702.000000 1 0 0
-1.945589 -13.602621 3.945601 14.296307 1.428729 1.291179 0.002792 -0.000585 -2129380.000000 1 0 0
-3.258389 -13.894721 5.168101 15.178591 1.340453 1.223362 0.000621 -0.005431 236775.000000 1 0 0
-14.438389 -10.226321 -4.541599 18.266659 0.616257 1.822060 -0.008514 0.000505 672849.000000 1 0 0
-6.473089 -8.598421 -10.522499 15.051801 0.925491 2.344914 0.005899 -0.001783 443452.000000 1 0 0
0.702311 -19.391821 2.267901 19.536615 -1.534595 1.454449 0.011521 -0.009914 -6517.270000 1 0 0
6.320311 -14.143721 -8.091399 17.477469 -1.150554 2.052130 0.000698 0.001108 -1682470.000000 1 0 0
-4.034989 -16.671521 -5.986399 18.167491 1.333334 1.906583 -0.005167 -0.007307 -475812.000000 1 0 0
-3.829489 -13.643121 -13.233699 19.388928 1.297148 2.322027 0.019532 -0.002875 -1521400.000000 1 0 0
-8.299589 -14.869921 -4.467199 17.605499 1.061720 1.827340 0.011135 -0.003705 -687316.000000 1 0 0
-4.511389 -14.376221 9.967801 18.066140 1.266719 0.986348 0.005113 -0.016685 252097.000000 1 0 0
-0.431989 -12.091721 -9.965499 15.675060 1.535086 2.259783 0.005985 0.002187 578462.000000 1 0 0
2.420111 -17.294021 6.879001 18.768611 -1.431760 1.195534 0.019095 -0.008982 430171.000000 1 0 0
-3.012189 -19.111021 -3.387099 19.641203 1.414467 1.744111 -0.009604 -0.014006 -765529.000000 1 0 0
0.566311 -15.436721 -3.152399 15.765490 -1.534127 1.772109 0.002624 -0.004078 -920940.000000 1 0 0
5.833511 -18.010321 0.481301 18.937613 -1.257561 1.545379 0.012243 -0.000875 -855065.000000 1 0 0
-7.177989 -16.792021 3.709401 18.634783 1.166840 1.370400 -0.013220 -0.000189 347150.000000 1 0 0
-5.402589 -13.478721 -9.661399 17.441517 1.189580 2.157875 0.012623 -0.005406 -282025.000000 1 0 0
5.558011 -15.314721 -2.179099 16.437173 -1.222659 1.703759 0.000797 0.002746 -1539410.000000 1 0 0
-8.970389 -10.301521 -0.641499 13.674821 0.854360 1.617725 -0.001980 0.002273 -7909.940000 1 0 0
-7.484789 -18.176821 -3.289699 19.930906 1.180179 1.736610 0.002121 -0.016973 -166393.000000 1 0 0
7.720011 -16.239121 -1.143699 18.017094 -1.127025 1.634318 0.006450 0.006762 -189821.000000 1 0 0
-8.240589 -10.207021 -9.400099 16.138539 0.891593 2.192552 0.006678 -0.005864 245831.000000 1 0 0
-9.197089 -14.895821 -6.964699 18.840885 1.017661 1.949438 0.019155 -0.017993 -627160.000000 1 0 0
-11.606089 -10.281221 -11.877399 19.531447 0.724941 2.224482 0.013752 -0.002832 -175554.000000 1 0 0
6.564511 -16.330921 2.475201 17.774094 -1.188594 1.431083 0.012222 0.002614 -123899.000000 1 0 0
-2.354989 -11.157821 -6.132699 12.948087 1.362787 2.064213 0.006770 -0.001979 -305365.000000 1 0 0
-12.419189 -15.465921 -3.576399 20.154940 0.894227 1.749186 0.008719 -0.001456 123700.000000 1 0 0
-0.495989 -19.818521 -2.894399 20.034903 1.545775 1.715771 0.008404 -0.009278 290541.000000 1 0 0
-5.933989 -15.564621 -4.739099 17.318450 1.206559 1.847976 -0.001274 -0.008967 -3212780.000000 1 0 0
1.849311 -16.060221 -1.103199 16.203941 -1.456153 1.638931 0.005620 -0.003021 1022500.000000 1 0 0
-13.159989 -12.072721 5.149101 18.586262 0.742335 1.290086 0.010418 -0.008911 293166.000000 1 0 0
2.041211 -15.219521 -9.157399 17.878991 -1.437474 2.108526 0.005204 0.006256 -1751750.000000 1 0 0
-11.930289 -16.696921 0.163301 20.521833 0.950392 1.562839 0.027393 -0.006787 70961.600000 1 0 0
-7.631789 -16.674621 -1.198299 18.377244 1.141567 1.636048 0.001870 -0.002879 549103.000000 1 0 0
-2.998689 -14.392121 -1.832599 14.814982 1.365379 1.694813 -0.001114 -0.003121 342806.000000 1 0 0
-1.846389 -10.536121 -13.265999 17.041295 1.397314 2.463008 0.007561 0.000942 -934961.000000 1 0 0
1.402911 -19.579521 4.806901 20.209703 -1.499267 1.330643 0.025914 -0.008887 -199132.000000 1 0 0
-17.443589 -9.331521 2.512701 19.941659 0.491218 1.444458 0.013736 -0.000263 -153921.000000 1 0 0
-2.635989 -15.715721 -8.099799 17.875656 1.404614 2.041057 -0.004698 0.002967 -1147800.000000 1 0 0
-10.525889 -12.199621 0.108501 16.113251 0.858915 1.564063 0.000787 0.005090 -56863.300000 1 0 0
-6.987689 -11.464521 -6.765799 15.034596 1.023417 2.037579 0.009001 -0.005556 62962.000000 1 0 0
-2.325189 -13.637521 -6.822299 15.425053 1.401921 2.028943 -0.001479 0.000349 670560.000000 1 0 0
-14.452789 -14.599521 -1.117199 20.573703 0.790449 1.625125 0.023566 0.011109 423132.000000 1 0 0
-9.674789 -11.319421 -4.537199 15.566535 0.863576 1.866561 0.009976 -0.003028 946211.000000 1 0 0
9.414211 -15.136921 -5.235099 18.578483 -1.014403 1.856448 0.008826 -0.002218 365330.000000 1 0 0
-5.691389 -10.837521 -9.450699 15.464782 1.087227 2.228260 0.008599 -0.003028 -196317.000000 1 0 0
-10.500589 -16.050521 -5.203799 19.873629 0.991459 1.835729 0.025849 -0.009518 -1256380.000000 1 0 0
2.121011 -17.378021 -3.311499 17.817417 -1.449346 1.757741 0.006934 -0.004480 515487.000000 1 0 0
-0.278789 -14.550021 -8.102699 16.656367 1.551638 2.078833 0.005960 0.003228 287408.000000 1 0 0
-0.668189 -18.319821 -7.073699 19.649416 1.534339 1.939059 0.002608 -0.004320 61976.200000 1 0 0
-1.731589 -9.905721 -10.604299 14.614133 1.397738 2.382731 0.007443 -0.000172 157950.000000 1 0 0
-5.166489 -17.372621 1.984801 18.232937 1.281733 1.461722 -0.012276 -0.002449 213163.000000 1 0 0
0.215011 -12.770321 -2.628399 13.039778 -1.553961 1.773755 0.004672 -0.001435 -1783100.000000 1 0 0
2.616411 -14.991221 3.107701 15.531907 -1.398007 1.369352 0.010070 0.000629 -983665.000000 1 0 0
-9.388289 -13.138921 6.644001 17.461786 0.950378 1.180472 -0.012666 -0.010406 -919859.000000 1 0 0
-1.056689 -17.859721 -4.506099 18.449693 1.511699 1.817529 -0.001284 -0.007205 -285564.000000 1 0 0
-9.853889 -17.634921 -2.317599 20.333736 1.061244 1.685023 0.023548 -0.010264 138534.000000 1 0 0
1.301311 -16.145021 1.375401 16.255671 -1.490369 1.486085 0.004661 -0.008264 325431.000000 1 0 0
-0.485289 -18.023821 4.217801 18.517113 1.543878 1.341001 0.017219 -0.010582 -35983.900000 1 0 0
-17.418089 -9.267621 -0.128399 19.730563 0.488972 1.577304 0.003340 0.004980 672396.000000 1 0 0
-14.747189 -7.289321 -10.672099 19.608862 0.459066 2.146290 0.010446 -0.009159 538331.000000 1 0 0
2.702111 -12.662121 -8.884799 15.702559 -1.360549 2.172222 -0.005039 0.003233 765665.000000 1 0 0
-11.613689 -14.722121 1.750701 18.833045 0.902885 1.477703 0.007081 0.001178 -21947.100000 1 0 0
-2.219989 -15.695221 10.287001 18.896844 1.430285 0.995150 0.013045 -0.013491 779814.000000 1 0 0
-7.094689 -15.960821 1.194001 17.507372 1.152520 1.502543 -0.004588 -0.000743 -1462660.000000 1 0 0
-12.737089 -15.113221 -6.074599 20.677128 0.870510 1.868979 0.021118 -0.010614 584219.000000 1 0 0
0.921011 -13.784521 -5.033699 14.703721 -1.504081 1.920205 0.005743 -0.004031 839642.000000 1 0 0
5.801311 -16.546121 -7.343199 19.009259 -1.233574 1.967409 -0.001127 -0.002203 84961.300000 1 0 0
-6.562189 -12.981921 5.877301 15.688699 1.102769 1.186809 -0.000850 -0.006966 -423800.000000 1 0 0
-2.600489 -13.606021 0.656201 13.867839 1.381946 1.523460 0.005304 -0.005455 1517790.000000 1 0 0
-4.253089 -15.489421 0.147701 16.063398 1.302820 1.561601 -0.005216 -0.003320 -86558.200000 1 0 0
-17.516289 -7.401621 -2.020799 19.122971 0.399799 1.676668 -0.012934 0.007189 119821.000000 1 0 0
1.109111 -12.751521 -11.873999 17.459189 -1.484036 2.318696 0.007165 0.006369 1070100.000000 1 0 0
1.165911 -17.147221 -5.772299 18.130250 -1.502907 1.894816 0.005300 -0.002189 -592875.000000 1 0 0
-12.804789 -6.309721 -9.125699 16.942656 0.457841 2.139598 0.007354 -0.004432 338273.000000 1 0 0
-11.626789 -13.728421 -9.001099 20.116450 0.868097 2.034708 0.015684 -0.013762 224060.000000 1 0 0
-4.303189 -9.834221 3.508701 11.293375 1.158325 1.254881 0.008071 -0.003619 -4033960.000000 1 0 0
-7.167189 -14.309321 9.659401 18.693028 1.106449 1.027760 -0.001266 -0.018155 -1335080.000000 1 0 0
-5.249989 -15.865321 -8.366499 18.688743 1.251229 2.034961 0.004089 -0.003477 -1091750.000000 1 0 0
-0.246589 -13.495521 2.092201 13.658960 1.552526 1.417017 0.004993 -0.003626 411288.000000 1 0 0
-11.069889 -13.462521 -4.783999 18.073975 0.882620 1.838679 0.014474 -0.005439 -761728.000000 1 0 0
-9.751289 -10.566921 6.562901 15.805667 0.825520 1.142607 -0.002605 -0.006280 -289177.000000 1 0 0
-15.562489 -8.011121 -4.902899 18.177116 0.475395 1.843908 0.002900 0.001977 582198.000000 1 0 0
-14.528789 -7.457721 5.358701 17.187757 0.474236 1.253736 0.006747 -0.003326 -290630.000000 1 0 0
-1.714389 -19.367821 -0.059499 19.443641 1.482509 1.573856 0.002148 -0.002878 -525870.000000 1 0 0
-15.379389 -12.203821 -1.524899 19.692236 0.670776 1.648310 0.008125 0.014769 131194.000000 1 0 0
-4.539589 -12.222721 -6.975899 14.787358 1.215180 2.062068 0.008330 -0.004353 -1032140.000000 1 0 0
-7.522189 -18.509221 1.839101 20.063820 1.184783 1.479005 -0.008482 0.002364 -378693.000000 1 0 0
-2.664889 -11.701921 -8.692399 14.818718 1.346884 2.197629 0.006397 0.000217 227623.000000 1 0 0
-1.726089 -20.347221 -5.238899 21.081624 1.486167 1.821933 0.002434 -0.009163 -32085.800000 1 0 0
-5.493489 -8.844621 -13.919099 17.382378 1.014999 2.499358 0.002618 -0.003072 725249.000000 1 0 0
-8.163989 -19.182921 -1.019499 20.872819 1.168429 1.619659 -0.005476 0.003764 72291.700000 1 0 0
-17.131389 -7.446821 5.461301 19.461897 0.410048 1.286362 0.019571 -0.008720 -4101.470000 1 0 0
-3.692489 -14.591621 -4.310299 15.656582 1.322944 1.849701 -0.002242 -0.002916 -2325110.000000 1 0 0
-3.112089 -14.835121 -10.934799 18.690526 1.364016 2.195732 0.010089 -0.001353 -824108.000000 1 0 0
-0.138789 -16.735221 6.322301 17.890175 1.562503 1.209598 0.023516 -0.011491 -53162.900000 1 0 0
-11.120489 -11.687021 3.668801 16.544239 0.810233 1.347180 -0.001339 -0.003265 -201338.000000 1 0 0
-0.271589 -14.706221 -0.112899 14.709162 1.552331 1.578472 0.003025 -0.001644 694187.000000 1 0 0
-7.290989 -9.504221 -2.498799 12.236533 0.916421 1.776451 0.007478 -0.000939 -197067.000000 1 0 0
-11.178389 -14.415021 -0.798399 18.258879 0.911194 1.614537 0.010466 -0.007285 187905.000000 1 0 0
-0.032189 -14.595521 -10.652399 18.069418 1.568591 2.201269 -0.000292 0.004649 -666857.000000 1 0 0
-1.421089 -14.012021 -3.881399 14.608952 1.469723 1.839712 -0.000665 -0.001130 -2585190.000000 1 0 0
-11.253789 -8.061421 -7.635799 15.809481 0.621602 2.074861 0.002465 -0.007335 509007.000000 1 0 0
-0.297389 -17.277121 -0.268999 17.281774 1.553585 1.586362 0.005603 -0.005678 -251393.000000 1 0 0
-12.797689 -9.649421 4.429501 16.628669 0.646054 1.301164 0.004126 -0.004685 217661.000000 1 0 0
3.927411 -16.746521 1.622601 17.277250 -1.340438 1.476742 0.007395 -0.005448 1533220.000000 1 0 0
-3.839089 -17.924221 -8.217699 20.088476 1.359800 1.992237 0.002475 -0.006159 -2139.560000 1 0 0
-13.370889 -11.405721 2.567701 17.761313 0.706248 1.425721 0.001162 -0.000273 159551.000000 1 0 0
-8.470989 -12.295321 3.914701 15.435591 0.967518 1.314380 -0.001564 -0.004832 1027040.000000 1 0 0
-8.325789 -9.448221 -5.930099 13.919545 0.848465 2.010893 0.009044 -0.004266 646747.000000 1 0 0
3.695211 -17.569621 -5.378599 18.742345 -1.363499 1.861865 -0.002457 0.006222 -1006780.000000 1 0 0
-2.508489 -13.206921 11.325301 17.577762 1.383095 0.870693 0.007960 -0.014034 1030910.000000 1 0 0
0.064211 -16.812521 -9.347499 19.236443 -1.566977 2.078219 0.008338 0.001881 -496765.000000 1 0 0
-7.174489 -10.709921 -14.854999 19.668419 0.980564 2.426865 0.005170 0.008727 -974780.000000 1 0 0
-4.695489 -18.658621 -1.476599 19.296945 1.324263 1.647391 -0.000778 -0.016476 -219671.000000 1 0 0
-2.594689 -17.236621 1.143001 17.468256 1.421385 1.505317 0.003602 -0.007774 -337417.000000 1 0 0
3.906011 -14.653521 -7.385099 16.867789 -1.310296 2.023972 -0.003141 0.002628 921011.000000 1 0 0
-1.104889 -15.885921 -6.054699 17.036509 1.501357 1.934134 -0.003589 -0.000871 -388754.000000 1 0 0
-9.376989 -15.315421 8.134401 19.714424 1.021412 1.145477 -0.017926 -0.011080 -532730.000000 1 0 0
-7.334489 -12.099921 -1.795199 14.262733 1.025860 1.696997 0.000359 -0.001890 1047840.000000 1 0 0
-7.430989 -15.078721 -9.483399 19.300836 1.112915 2.084431 0.013351 -0.010979 363618.000000 1 0 0
-5.065789 -13.185221 -0.638499 14.139305 1.203983 1.615969 -0.000540 -0.001669 3364740.000000 1 0 0
-6.559689 -13.847321 -7.376099 17.005430 1.128397 2.019446 0.009657 -0.006214 82674.900000 1 0 0
5.675211 -15.382921 0.293501 16.399037 -1.217358 1.552898 0.001682 0.004222 13897.400000 1 0 0
-14.535989 -12.870521 0.845001 19.433459 0.724704 1.527301 0.008380 0.001631 961918.000000 1 0 0
0.819111 -15.332221 11.094001 18.942671 -1.517423 0.945100 0.015699 -0.013464 364497.000000 1 0 0
-9.204289 -10.863321 1.888101 14.362994 0.867883 1.438959 0.000240 0.002177 -29539.300000 1 0 0
-9.489389 -8.860821 -3.669199 13.491689 0.751158 1.846225 0.007395 -0.001103 55106.200000 1 0 0
-12.129089 -6.863121 -12.255099 18.558143 0.514923 2.292098 0.006107 -0.008134 -245079.000000 1 0 0
-13.198989 -8.430321 -0.702399 15.677276 0.568397 1.615615 -0.006487 0.005928 116952.000000 1 0 0
-11.221089 -9.678621 0.555601 14.828932 0.711728 1.533320 -0.007361 0.004954 1022030.000000 1 0 0
-15.806289 -12.378021 2.972401 20.295057 0.664355 1.423808 0.016328 0.006391 -241355.000000 1 0 0
-10.561389 -12.548321 -2.450799 16.583417 0.871165 1.719126 0.011730 -0.002982 701221.000000 1 0 0
-3.459989 -9.011221 -12.237899 15.586526 1.204190 2.473749 0.002600 0.003390 -782900.000000 1 0 0
-0.306189 -15.524521 3.914101 16.013266 1.551076 1.323866 0.012567 -0.006155 -874088.000000 1 0 0
-15.735189 -7.816521 1.190901 17.610009 0.461048 1.503118 -0.002864 0.001540 702781.000000 1 0 0
-6.349889 -13.303021 -13.454699 19.957966 1.125451 2.310612 0.016646 -0.004563 -370563.000000 1 0 0
-15.442889 -10.450121 1.198501 18.684867 0.594913 1.506609 0.007554 0.004184 709828.000000 1 0 0
-9.926389 -8.295121 -12.565299 18.034106 0.696112 2.341656 0.005194 -0.001906 432850.000000 1 0 0
-13.274789 -11.687421 -6.351899 18.792617 0.721893 1.915587 0.000572 -0.002608 -429946.000000 1 0 0
-12.256489 -11.423021 -3.844399 17.189716 0.750215 1.796349 -0.005599 0.004142 -2122760.000000 1 0 0
-11.976489 -11.067921 -9.062299 18.656378 0.745992 2.078015 0.007234 -0.012409 255683.000000 1 0 0
-13.163889 -8.373121 -5.939099 16.693413 0.566518 1.934540 -0.002758 -0.003737 -1604140.000000 1 0 0
-13.416189 -8.117421 -3.331099 16.030685 0.544122 1.780117 -0.004186 0.001840 607954.000000 1 0 0
-4.385189 -16.874921 -3.305899 17.746037 1.316555 1.758180 -0.004515 -0.011727 289033.000000 1 0 0
-15.366389 -8.919521 -1.779099 17.856342 0.525925 1.670596 0.001141 0.006557 -1136980.000000 1 0 0
-9.375589 -15.463121 3.472001 18.413706 1.025743 1.381106 -0.005309 -0.008750 -2982020.000000 1 0 0
4.807111 -17.566421 7.976501 19.882455 -1.303682 1.157988 0.036492 -0.011335 113464.000000 1 0 0
-8.264589 -15.460821 5.790201 18.462580 1.079892 1.251795 -0.014833 -0.004494 -199333.000000 1 0 0
0.845511 -16.052221 8.607001 18.233737 -1.518172 1.079196 0.016206 -0.013508 459154.000000 1 0 0
-10.821289 -7.678821 -10.212199 16.743763 0.617142 2.226744 0.007531 -0.004877 866667.000000 1 0 0
-4.849089 -16.087521 5.567601 17.700852 1.278038 1.250826 -0.003880 -0.004580 -946060.000000 1 0 0
-1.601589 -13.123221 -12.055999 17.892209 1.449355 2.310153 0.007825 -0.000605 -609106.000000 1 0 0
-6.411789 -14.286021 -2.676499 15.886003 1.148928 1.740085 0.003179 -0.004116 307306.000000 1 0 0
-17.507489 -6.840521 -7.259199 20.149463 0.372481 1.939351 -0.003374 -0.002779 -93217.200000 1 0 0
-17.442689 -4.086921 -10.057099 20.544964 0.230154 2.082332 0.022370 -0.010545 1075090.000000 1 0 0
-15.254389 -5.232321 -9.029499 18.482571 0.330429 2.081214 0.004253 -0.014142 436689.000000 1 0 0
-16.109289 -5.326721 -5.617699 17.872932 0.319344 1.890529 0.001405 -0.000808 -560098.000000 1 0 0
-15.301889 -4.233321 -12.323699 20.098318 0.269903 2.230864 0.029264 -0.008751 254023.000000 1 0 0
-18.629989 -5.140321 -5.517399 20.098286 0.269218 1.848888 0.004064 -0.003631 -267594.000000 1 0 0
-17.311589 -4.211421 -7.613699 19.375128 0.238636 1.974647 -0.001549 -0.010804 349537.000000 1 0 0
12.108111 -7.816121 8.651801 16.809276 -0.573225 1.030134 0.012107 -0.005049 205562.000000 1 0 0
15.989311 -3.314221 1.771701 16.425013 -0.204383 1.462720 0.018130 -0.010584 360964.000000 1 0 0
11.974511 -2.110021 12.525001 17.456138 -0.174419 0.770572 0.009645 0.001046 220054.000000 1 0 0
9.733111 -10.059221 5.149901 14.914518 -0.801873 1.218244 0.000296 -0.000780 428534.000000 1 0 0
16.973311 -2.011921 7.126401 18.518280 -0.117984 1.175772 0.036608 -0.012275 103695.000000 1 0 0
5.243311 -12.791421 9.104001 16.552812 -1.181778 0.988435 0.001023 0.002917 -182590.000000 1 0 0
15.025811 -9.046721 -2.094699 17.663690 -0.541947 1.689664 0.019071 -0.010218 530127.000000 1 0 0
11.049211 -8.613821 6.433501 15.416644 -0.662169 1.140314 0.010431 -0.006285 -3029360.000000 1 0 0
19.947711 -3.198721 3.492401 20.502192 -0.159002 1.399619 0.034750 -0.017273 1183130.000000 1 0 0
13.505911 -8.660321 6.829901 17.437269 -0.570181 1.168335 0.013510 -0.007913 -1425300.000000 1 0 0
8.368311 -10.962021 8.762201 16.339238 -0.918780 1.004788 -0.001670 0.002687 -2025830.000000 1 0 0
16.977911 -0.245421 -0.702599 16.994215 -0.014454 1.612152 0.011593 -0.002819 -1598940.000000 1 0 0
12.302611 -12.362721 2.274701 17.588786 -0.787835 1.441106 0.006969 -0.004535 -1846280.000000 1 0 0
10.211911 -11.674921 3.506501 15.902278 -0.852143 1.348466 -0.000201 -0.000903 -1024480.000000 1 0 0
16.292311 2.932379 2.376501 16.723815 0.178079 1.428211 0.008499 -0.001820 -324806.000000 1 0 0
18.318111 -3.367221 0.597701 18.634608 -0.181790 1.538716 0.014268 -0.014089 231583.000000 1 0 0
13.380011 -11.662521 -0.240499 17.750970 -0.716922 1.584345 0.025337 -0.004956 -345425.000000 1 0 0
16.956311 -7.670421 -0.860599 18.630418 -0.424818 1.617006 0.029133 -0.012558 165019.000000 1 0 0
10.245211 -5.690321 9.694801 15.209644 -0.506989 0.879662 0.009796 -0.005305 251730.000000 1 0 0
11.047211 -13.298821 6.112001 18.337286 -0.877619 1.230984 -0.001755 0.000949 755992.000000 1 0 0
13.148711 -1.828221 10.237501 16.764171 -0.138156 0.913881 0.020780 -0.002085 943836.000000 1 0 0
15.556211 -2.129921 -1.533599 15.776064 -0.136072 1.668161 0.010067 -0.007279 -1086940.000000 1 0 0
10.528611 -12.302521 9.291801 18.669259 -0.862939 1.049845 0.006224 -0.003236 -237199.000000 1 0 0
14.461011 1.232779 3.297901 14.883438 0.085043 1.347360 0.013372 -0.003615 573705.000000 1 0 0
14.898211 -5.880721 5.145801 16.823164 -0.375952 1.259938 0.021591 -0.010281 -162416.000000 1 0 0
14.363411 -3.423221 -3.145799 15.097088 -0.233965 1.780706 0.017297 -0.006441 997953.000000 1 0 0
14.141011 0.625879 9.537501 17.068211 0.044231 0.977873 0.027382 -0.005154 -318334.000000 1 0 0
15.378111 -3.455521 4.342501 16.348830 -0.221033 1.301954 0.020887 -0.008409 -408587.000000 1 0 0
18.715011 4.863279 -4.251399 19.798422 0.254237 1.787216 0.005161 0.006237 647126.000000 1 0 0
18.514011 -5.807521 -5.137899 20.072218 -0.303962 1.829648 0.054841 -0.010822 839843.000000 1 0 0
17.336611 0.016879 5.899901 18.313034 0.000974 1.242776 0.036903 -0.007849 475454.000000 1 0 0
16.977011 -6.855821 3.936901 18.727530 -0.383803 1.358996 0.032289 -0.012972 471351.000000 1 0 0
9.642111 -6.630821 14.245101 18.435319 -0.602419 0.687702 0.007968 -0.005450 -1509420.000000 1 0 0
8.531611 -12.201421 5.187101 15.766074 -0.960587 1.235548 -0.004446 0.000024 -1706100.000000 1 0 0
16.905211 -10.282821 -0.699699 19.799297 -0.546473 1.606143 0.037553 -0.005223 257183.000000 1 0 0
14.974611 -8.876621 0.431801 17.413209 -0.535092 1.545996 0.036199 -0.012001 632281.000000 1 0 0
9.902111 -13.000921 1.403501 16.402609 -0.919883 1.485126 0.007678 -0.003039 186793.000000 1 0 0
16.890711 -8.147721 8.847501 20.735471 -0.449452 1.129973 0.028370 -0.006246 555168.000000 1 0 0
19.221111 -0.163821 -2.012299 19.326854 -0.008523 1.675105 0.022684 -0.003995 -296037.000000 1 0 0
13.370511 -1.195321 7.750301 15.500533 -0.089163 1.047195 0.016485 -0.004069 -552854.000000 1 0 0
12.807611 -9.810421 -3.172599 16.442161 -0.653652 1.764969 0.023301 -0.008414 -970892.000000 1 0 0
8.782211 -15.320221 1.399801 17.714284 -1.050283 1.491693 0.011878 0.003579 851952.000000 1 0 0
11.565211 -8.204121 11.164601 18.047438 -0.616993 0.903805 0.012792 -0.005067 375373.000000 1 0 0
13.958911 -4.021121 -0.606499 14.539204 -0.280475 1.612523 0.018652 -0.011335 190170.000000 1 0 0
7.278511 -13.318221 10.621801 18.524967 -1.070638 0.960174 0.010303 0.008704 -404468.000000 1 0 0
15.324911 -6.823521 1.835101 16.875454 -0.418902 1.461837 0.018779 -0.012533 300678.000000 1 0 0
15.913711 -6.111421 -2.544999 17.235797 -0.366668 1.718996 0.023372 -0.011077 385029.000000 1 0 0
11.148111 -8.507321 3.766201 14.520302 -0.651844 1.308422 0.014224 -0.007193 587853.000000 1 0 0
10.601111 -14.553021 -0.526099 18.012517 -0.941232 1.600008 0.026351 -0.003809 700788.000000 1 0 0
13.208811 -12.900421 4.659101 19.042079 -0.773587 1.323613 0.000154 -0.002095 281175.000000 1 0 0
12.676411 -11.200521 6.567901 18.146085 -0.723664 1.200442 0.000955 -0.003393 681806.000000 1 0 0
10.775811 -10.516121 1.266701 15.109978 -0.773202 1.486866 0.006166 -0.002451 223530.000000 1 0 0
14.001111 -7.426321 11.921701 19.832002 -0.487678 0.925876 0.010376 -0.008963 1479220.000000 1 0 0
15.402411 -1.913821 -4.989199 16.303039 -0.123621 1.881815 0.018491 -0.002535 89630.700000 1 0 0
13.026611 -11.384021 -7.034399 18.675420 -0.718210 1.956991 0.032302 -0.009451 216899.000000 1 0 0
17.587711 -5.399921 1.991301 18.505459 -0.297892 1.462981 0.030196 -0.014612 835599.000000 1 0 0
10.618011 -9.740421 9.201501 17.096362 -0.742318 1.002480 -0.000435 -0.000162 -639327.000000 1 0 0
16.491111 1.784279 9.890401 19.312183 0.107777 1.033130 0.043126 -0.008344 330668.000000 1 0 0
18.052711 3.615479 0.577501 18.420249 0.197658 1.539440 -0.000281 0.001478 492671.000000 1 0 0
13.189911 -4.075521 5.647201 14.915579 -0.299682 1.182501 0.017118 -0.008622 -1368980.000000 1 0 0
12.057011 -6.279821 6.550501 15.090286 -0.480183 1.121771 0.016362 -0.009225 -252099.000000 1 0 0
16.453811 -10.263521 3.537801 19.712529 -0.557720 1.390349 0.015017 -0.010546 -224418.000000 1 0 0
16.258611 -8.046221 -5.384699 18.922978 -0.459551 1.859342 0.026061 -0.012079 -399347.000000 1 0 0
13.945311 -0.450321 5.298101 14.924623 -0.032281 1.207892 0.015515 -0.004307 -120146.000000 1 0 0
18.127411 -4.325021 5.099701 19.321382 -0.234211 1.303691 0.032851 -0.013658 -120151.000000 1 0 0
13.426911 -13.574421 7.197801 20.404783 -0.790861 1.210287 0.009419 0.002042 3146.340000 1 0 0
14.929211 -13.601921 -0.837399 20.213729 -0.738911 1.612235 0.026895 -0.002343 676756.000000 1 0 0
17.858111 -5.922421 7.892701 20.402988 -0.320224 1.173594 0.044595 -0.011459 -78201.800000 1 0 0
14.384011 3.249279 9.319301 17.444396 0.222166 1.007201 0.021508 -0.006859 79297.500000 1 0 0
18.755811 3.636479 3.139601 19.361341 0.191509 1.407919 0.021929 -0.001330 -195758.000000 1 0 0
14.724911 -10.696621 8.132301 19.934268 -0.628245 1.150582 0.011071 -0.006084 -149106.000000 1 0 0
14.832011 -4.878021 10.252501 18.678796 -0.317741 0.989767 0.026962 -0.010721 133384.000000 1 0 0
17.857511 -7.910621 1.867001 19.620253 -0.417006 1.475495 0.050147 -0.016203 -45377.300000 1 0 0
18.503911 -5.843121 -1.852999 19.492829 -0.305868 1.666001 0.024158 -0.013511 -626562.000000 1 0 0
14.267411 -13.038621 -5.226299 20.021960 -0.740428 1.834884 0.032941 -0.010699 371883.000000 1 0 0
15.481811 -1.476721 9.227201 18.083374 -0.095097 1.035311 0.037051 -0.010364 -1576100.000000 1 0 0
13.183411 -9.842221 10.127201 19.319209 -0.641297 1.019017 0.009040 -0.014277 -802825.000000 1 0 0
16.386311 2.066779 4.883701 17.223046 0.125466 1.283296 0.020421 -0.004884 -832607.000000 1 0 0
14.936611 2.411679 -0.011899 15.130059 0.160079 1.571583 0.006182 0.002145 -1323530.000000 1 0 0
15.119911 -9.810221 -6.966999 19.323334 -0.575551 1.939652 0.037100 -0.012213 377915.000000 1 0 0
16.138711 -0.101421 -3.245999 16.462223 -0.006284 1.769276 0.010050 0.000698 23000.300000 1 0 0
11.987711 2.656679 13.525201 18.267299 0.218092 0.737124 0.017627 -0.005639 -443183.000000 1 0 0
17.455111 -3.034921 9.535401 20.120028 -0.172149 1.077053 0.023268 -0.012383 549837.000000 1 0 0
7.755611 -18.113321 4.588501 20.231071 -1.166242 1.342001 0.025812 -0.010122 -88491.000000 1 0 0
6.798211 -11.202421 6.685701 14.710830 -1.025354 1.099014 -0.006991 0.001807 90444.300000 1 0 0
17.913511 2.004079 -1.558499 18.092516 0.111412 1.657044 0.002149 0.003092 104752.000000 1 0 0
17.591711 -2.218821 3.511001 18.075359 -0.125466 1.375311 0.022821 -0.008988 -1988360.000000 1 0 0
12.565611 -13.426021 -1.954999 18.492557 -0.818489 1.676712 0.029795 -0.003130 55030.000000 1 0 0
14.910811 -8.345521 4.277401 17.614658 -0.510257 1.325512 0.018901 -0.011411 -85922.800000 1 0 0
11.865711 -2.732321 14.940401 19.273719 -0.226325 0.683813 0.009219 -0.012084 -362705.000000 1 0 0
12.079211 -13.762221 -6.425899 19.406140 -0.850435 1.908294 0.026965 -0.007757 -295861.000000 1 0 0
10.647511 -11.991121 -1.316399 16.090040 -0.844679 1.652702 0.019645 -0.008252 -702689.000000 1 0 0
13.116411 -8.048121 2.073901 15.527832 -0.550354 1.436836 0.015466 -0.006204 -648301.000000 1 0 0
8.730511 -7.879221 10.039101 15.462454 -0.734190 0.864190 0.001319 -0.000821 -1959760.000000 1 0 0
15.507711 -3.789521 7.948801 17.833480 -0.239667 1.108814 0.030331 -0.013561 -941306.000000 1 0 0
10.163411 -17.382321 5.445501 20.858895 -1.041704 1.306672 0.017414 -0.006059 62095.900000 1 0 0
15.264911 -6.393421 8.235601 18.485629 -0.396634 1.109048 0.029843 -0.004401 -922405.000000 1 0 0
16.632011 -5.048521 -0.313899 17.384185 -0.294704 1.588854 0.016275 -0.013100 -501909.000000 1 0 0
13.858011 -10.621721 3.461201 17.800150 -0.653958 1.375102 0.015358 -0.008689 482291.000000 1 0 0
14.965011 -10.035421 -4.480199 18.566998 -0.590715 1.814501 0.034931 -0.014435 168961.000000 1 0 0
13.650211 -6.635921 -0.056699 15.177843 -0.452499 1.574532 0.018781 -0.010366 293170.000000 1 0 0
17.851811 -0.876021 -4.967599 18.550785 -0.049033 1.841888 0.015063 -0.003712 385211.000000 1 0 0
14.500211 0.172079 -1.397899 14.568454 0.011867 1.666898 0.012423 -0.000541 -2604490.000000 1 0 0
5.051611 -12.765421 11.752501 18.071968 -1.193980 0.862795 0.002812 0.004406 -1095930.000000 1 0 0
11.951411 -7.333421 13.587201 19.525043 -0.550362 0.801144 0.007904 -0.008367 29817.900000 1 0 0
12.058311 -5.733721 11.568301 17.666466 -0.443856 0.856856 0.011370 -0.004884 822306.000000 1 0 0
13.198411 -4.781521 8.243101 16.279119 -0.347573 1.039838 0.021123 -0.006621 -2240200.000000 1 0 0
15.292611 -1.213821 3.125901 15.655944 -0.079207 1.369783 0.018593 -0.004620 417032.000000 1 0 0
15.086411 -10.421521 5.787901 19.227785 -0.604517 1.265037 0.012925 -0.008890 262220.000000 1 0 0
13.709611 -7.959221 -5.672999 16.837029 -0.526001 1.914457 0.028663 -0.011992 -2221030.000000 1 0 0
9.640311 -2.251321 13.717901 16.916999 -0.229420 0.625117 0.014584 -0.001070 301948.000000 1 0 0
9.927411 -9.116521 13.579101 19.132601 -0.742844 0.781673 0.011599 -0.005678 -115642.000000 1 0 0
20.307911 6.211179 -2.773299 21.416843 0.296815 1.700652 0.017942 0.005178 -1094040.000000 1 0 0
11.232711 -3.541621 10.555701 15.815805 -0.305429 0.840065 0.012846 -0.000277 767836.000000 1 0 0
10.157311 -14.000121 -2.958699 17.547885 -0.943150 1.740213 0.017570 -0.003520 201542.000000 1 0 0
14.710011 -12.919021 2.561101 19.744487 -0.720666 1.440718 0.011392 0.002382 -676309.000000 1 0 0
11.286311 -0.271521 14.337601 18.248872 -0.024053 0.667017 0.017432 -0.006665 228203.000000 1 0 0
19.073211 -1.943621 5.591201 19.970643 -0.101553 1.287032 0.044897 -0.014802 947119.000000 1 0 0
19.077711 -0.488721 7.790601 20.612893 -0.025612 1.183217 0.054747 -0.011229 688631.000000 1 0 0
19.001511 0.730979 0.537501 19.023161 0.038451 1.542537 0.014916 -0.007008 193712.000000 1 0 0
18.547511 0.802079 3.738201 18.937467 0.043218 1.372094 0.023816 -0.007264 625444.000000 1 0 0
16.632711 -4.204721 -4.254399 17.675595 -0.247611 1.813877 0.009961 -0.008475 502162.000000 1 0 0
10.973211 -8.169821 15.817001 20.912553 -0.639987 0.713096 0.019768 -0.010578 429265.000000 1 0 0
16.548011 -7.610521 6.328901 19.282419 -0.431061 1.236376 0.025716 -0.007251 903592.000000 1 0 0
18.718511 2.224279 6.011301 19.785495 0.118273 1.262093 0.026130 -0.005185 455690.000000 1 0 0
15.378511 1.707879 7.568201 17.224782 0.110603 1.115890 0.031711 -0.006909 136322.000000 1 0 0
8.694111 -15.811921 3.868701 18.454573 -1.068072 1.359596 0.006347 -0.003677 376592.000000 1 0 0
11.274711 -15.113121 1.902701 18.951143 -0.929846 1.470227 0.015428 -0.000669 -208003.000000 1 0 0
7.990611 -16.120921 6.332201 19.074347 -1.110621 1.232400 0.010213 -0.000432 90932.500000 1 0 0
14.629111 -11.637921 -2.524199 18.863289 -0.672010 1.705014 0.030458 -0.008393 756619.000000 1 0 0
13.598111 -4.892521 3.095901 14.779377 -0.345373 1.359759 0.015400 -0.005441 -1200580.000000 1 0 0
-1.005189 10.190279 -5.551999 11.648042 -1.472472 2.067632 0.000351 0.001462 -3545290.000000 1 0 0
8.318211 -1.834921 -8.114599 11.764620 -0.217114 2.331934 0.002852 -0.004818 -2280600.000000 1 0 0
2.977511 -10.212521 7.617801 13.084038 -1.287105 0.949339 -0.002101 -0.000874 817537.000000 1 0 0
-6.226689 1.293279 8.371401 10.513067 -0.204788 0.649667 -0.003226 0.001171 -430754.000000 1 0 0
7.243211 -6.283021 -7.197399 11.989288 -0.714530 2.214696 0.004906 -0.008589 368740.000000 1 0 0
-11.328889 -4.457421 -4.132599 12.856543 0.374852 1.898045 0.000834 -0.002298 145943.000000 1 0 0
2.076811 -3.197921 2.850001 4.760499 -0.994825 0.928948 -0.001993 0.000113 945349.000000 1 0 0
-3.582689 -4.418721 8.880301 10.546113 0.889506 0.569733 0.000543 -0.000532 -1017790.000000 1 0 0
-4.897089 -1.025421 -2.410899 5.553864 0.206412 2.019829 0.001575 -0.003219 -554869.000000 1 0 0
4.830911 -5.158921 -3.674399 7.965763 -0.818221 2.050227 0.005747 -0.005876 559753.000000 1 0 0
2.702511 14.178479 -8.740199 16.873764 1.382449 2.115279 0.005716 -0.013025 -187796.000000 1 0 0
5.393111 -5.469821 13.768701 15.766474 -0.792460 0.508882 0.009902 -0.008398 -1813700.000000 1 0 0
-4.696789 -0.913321 9.917801 11.011664 0.192060 0.449503 0.000030 0.000785 -3964700.000000 1 0 0
-0.946789 11.998379 -2.622499 12.318076 -1.492050 1.785337 -0.005120 0.001549 -474844.000000 1 0 0
3.168211 9.457079 -10.509599 14.488809 1.247538 2.382353 0.005380 -0.002776 -407627.000000 1 0 0
-10.685089 2.665779 1.220101 11.079989 -0.244495 1.460455 -0.006423 0.000674 253294.000000 1 0 0
5.655811 -9.114321 -0.872999 10.762025 -1.015410 1.652004 -0.002552 -0.003770 264786.000000 1 0 0
-6.963089 5.401979 9.357601 12.854208 -0.659811 0.755426 -0.004947 0.002402 -209330.000000 1 0 0
-5.558989 -1.908321 5.181101 7.835040 0.330681 0.848282 0.000148 -0.002085 438125.000000 1 0 0
6.752111 -3.837321 -7.400199 10.727487 -0.516795 2.332058 0.002986 -0.005273 382618.000000 1 0 0
6.332211 4.731679 11.143101 13.662151 0.641732 0.616999 -0.000989 0.000030 -349269.000000 1 0 0
3.758211 -9.893621 3.220001 11.062382 -1.207770 1.275444 -0.009057 0.000567 854916.000000 1 0 0
-6.650289 6.546879 -5.736199 10.954084 -0.777563 2.121936 -0.001531 -0.004724 -146854.000000 1 0 0
-11.128189 8.463879 5.241501 14.931415 -0.650238 1.212116 -0.010019 -0.002171 133873.000000 1 0 0
-9.211689 -5.556421 5.119701 11.913873 0.542764 1.126607 -0.001811 -0.000298 -925457.000000 1 0 0
3.255311 9.922879 -8.018599 13.166568 1.253798 2.225611 0.006495 -0.004504 788185.000000 1 0 0
-8.114389 -8.644821 5.907901 13.246869 0.817038 1.108522 0.002076 -0.002993 -2035440.000000 1 0 0
-7.819089 -5.727521 -7.456899 12.228982 0.632210 2.226570 0.012372 -0.003023 -402544.000000 1 0 0
9.186611 -1.594621 6.847601 11.568331 -0.171869 0.937349 0.006025 -0.002342 948147.000000 1 0 0
-3.997989 -0.445521 -4.778599 6.246392 0.110978 2.441865 0.007826 -0.007012 -791579.000000 1 0 0
9.071711 1.081679 -4.493099 10.181057 0.118676 2.027865 0.002558 0.001302 -3061530.000000 1 0 0
-1.921289 -10.721321 10.646601 15.231158 1.393476 0.796796 0.008928 -0.011127 -21318.600000 1 0 0
-12.880989 0.274279 -2.622899 13.148183 -0.021290 1.771631 0.000360 -0.004024 -389193.000000 1 0 0
-9.911189 -5.019121 -6.103599 12.675850 0.468762 2.073178 0.005765 -0.004189 -874602.000000 1 0 0
-5.492589 8.210979 -0.187899 9.880486 -0.981227 1.589815 -0.002340 0.003894 833467.000000 1 0 0
6.261511 9.571479 0.445301 11.446310 0.991485 1.531883 0.002014 -0.002132 342484.000000 1 0 0
-0.633589 -12.068721 -0.036599 12.085396 1.518346 1.573825 0.006943 -0.001116 -396859.000000 1 0 0
6.241911 4.726279 2.333601 8.169753 0.648083 1.281123 -0.001102 0.000999 329435.000000 1 0 0
3.549311 -7.494821 -8.160999 11.634941 -1.128517 2.348186 0.001908 -0.003851 724212.000000 1 0 0
-6.556289 -9.920821 4.488001 12.710223 0.986823 1.209912 0.005308 -0.002937 -2804220.000000 1 0 0
-0.143889 6.699379 -9.158799 11.348391 -1.549322 2.509947 0.006696 -0.003278 -1857960.000000 1 0 0
-17.289089 -2.816721 4.284301 18.033351 0.161500 1.330926 0.014674 -0.008186 358314.000000 1 0 0
-8.305289 0.946079 -9.220199 12.445279 -0.113424 2.405145 0.010310 -0.004599 488556.000000 1 0 0
-9.899989 -5.767521 -11.957699 16.560817 0.527511 2.377554 0.006847 0.000204 -636949.000000 1 0 0
2.163511 9.460279 6.440201 11.647053 1.345968 0.984900 -0.004018 0.005861 -400664.000000 1 0 0
-11.368789 1.648979 -1.085099 11.538888 -0.144040 1.664974 -0.003186 -0.001813 -1727340.000000 1 0 0
-6.063089 -5.293421 -3.146299 8.641791 0.717728 1.943441 0.011191 -0.004624 460951.000000 1 0 0
-7.084489 -8.334021 1.254701 11.010003 0.866262 1.456588 0.006698 -0.001776 -392204.000000 1 0 0
0.055711 10.977979 -7.886599 13.517306 1.565722 2.193760 0.004886 -0.000594 428476.000000 1 0 0
-2.916689 9.303879 -4.287599 10.651420 -1.267008 1.985084 -0.001897 -0.001111 -215019.000000 1 0 0
3.373611 -4.890221 9.418301 11.135524 -0.966902 0.562755 -0.001052 -0.000892 -665687.000000 1 0 0
-8.950189 1.592079 -0.380299 9.098639 -0.176041 1.612606 -0.002841 -0.001278 -1092110.000000 1 0 0
2.533311 3.572779 -10.374499 11.261112 0.954016 2.742124 0.002862 -0.001330 -1939960.000000 1 0 0
-13.576489 0.521679 1.053801 13.627314 -0.038406 1.493389 -0.002691 -0.001876 -228557.000000 1 0 0
9.353711 -12.596621 -5.018599 16.472799 -0.932076 1.880378 0.016308 -0.002313 -2268440.000000 1 0 0
-4.669989 9.435879 -8.192399 13.340165 -1.111222 2.232061 -0.002123 -0.003325 -869169.000000 1 0 0
-2.389789 7.277079 8.396001 11.364849 -1.253493 0.739554 0.003116 0.000942 -228931.000000 1 0 0
-10.761789 -1.165021 -4.448699 11.703175 0.107835 1.960731 0.001967 -0.003192 -3289780.000000 1 0 0
2.736611 -7.186321 9.669201 12.354177 -1.206943 0.671858 -0.006065 -0.001627 -1219200.000000 1 0 0
-16.075289 -6.544121 3.299001 17.667027 0.386605 1.382962 0.004573 -0.002833 -280935.000000 1 0 0
-10.699689 -0.136621 6.109601 12.321900 0.012768 1.052003 -0.003253 0.002495 -1036910.000000 1 0 0
-8.444389 10.013579 9.434501 16.142778 -0.870208 0.946605 -0.003110 -0.003100 1555310.000000 1 0 0
0.185211 -6.098021 -3.787799 7.181058 -1.540433 2.126417 -0.000976 -0.001486 209383.000000 1 0 0
4.857011 1.545579 -3.015099 5.922009 0.308084 2.104975 -0.000088 0.002209 2016280.000000 1 0 0
0.345111 5.323779 3.927601 6.624785 1.506062 0.936185 -0.000212 0.000921 -2804190.000000 1 0 0
6.002411 -11.397321 -1.573099 12.976999 -1.086056 1.692317 -0.004911 -0.002687 -1263470.000000 1 0 0
6.223411 -13.484121 5.331701 15.779081 -1.138390 1.226115 -0.003395 0.000094 314365.000000 1 0 0
8.103511 -8.216721 -5.897499 12.960011 -0.792335 2.043229 0.005032 -0.007803 760246.000000 1 0 0
-13.127589 -1.390321 -4.592599 13.977072 0.105515 1.905597 -0.001078 -0.002374 -2754670.000000 1 0 0
-6.766689 -1.653021 -7.040999 9.904354 0.239596 2.361573 0.011615 -0.003270 -1042330.000000 1 0 0
-5.648389 12.891979 -4.568899 14.798049 -1.157856 1.884675 -0.004127 0.002546 -552703.000000 1 0 0
-4.285189 6.929879 -6.690899 10.542969 -1.016983 2.258328 0.001291 -0.002831 -2320990.000000 1 0 0
-9.263089 -3.663321 -8.147499 12.868818 0.376600 2.256373 0.013665 -0.003607 765095.000000 1 0 0
-2.185889 -6.446921 9.139901 11.396433 1.243901 0.640166 0.003191 -0.002364 -990968.000000 1 0 0
7.528011 -5.954221 10.050801 13.897564 -0.669193 0.762363 0.005792 -0.002342 951896.000000 1 0 0
9.558711 -5.051621 12.156501 16.268631 -0.486174 0.726904 0.009511 -0.001861 -2997.630000 1 0 0
-6.449089 2.865679 -8.939199 11.389124 -0.418149 2.473313 0.006626 -0.004687 -945819.000000 1 0 0
7.389111 5.483479 8.913601 12.810924 0.638428 0.801289 -0.005992 0.000652 373013.000000 1 0 0
12.706911 3.354279 11.170201 17.247903 0.258086 0.866331 0.014570 0.001499 -410877.000000 1 0 0
-7.538489 -7.295421 -3.897499 11.191179 0.769014 1.926516 0.010369 -0.005496 44127.400000 1 0 0
2.349111 1.399179 -5.732399 6.351096 0.537193 2.696531 0.001054 0.000799 -92550.300000 1 0 0
12.831511 6.869979 -7.145699 16.214355 0.491564 2.027177 0.004010 0.002042 72436.100000 1 0 0
0.830311 -7.723521 0.919001 7.822196 -1.463703 1.453038 -0.004231 0.000154 655047.000000 1 0 0
-10.243989 -5.938721 -8.591399 14.629418 0.525380 2.198477 0.009440 -0.003602 55239.100000 1 0 0
-6.705189 0.268979 3.179301 7.425622 -0.040094 1.128349 -0.001240 -0.003263 784660.000000 1 0 0
10.651011 -7.979721 1.243401 13.366601 -0.642988 1.477639 0.006760 -0.004282 378825.000000 1 0 0
6.291011 1.018979 10.573801 12.345866 0.160579 0.542414 0.001827 -0.003613 -1160700.000000 1 0 0
-13.105689 5.461779 1.976801 14.335196 -0.394861 1.432457 -0.001274 0.001801 300157.000000 1 0 0
2.085711 7.394279 3.707501 8.530599 1.295868 1.121189 -0.005163 0.002775 -161526.000000 1 0 0
10.120411 -9.463221 -0.896999 13.884520 -0.751853 1.635446 0.006799 -0.006545 737913.000000 1 0 0
6.761611 -11.690421 -9.029099 16.245306 -1.046419 2.160118 0.002838 -0.003516 -452997.000000 1 0 0
10.255711 3.548079 11.875901 16.087433 0.333072 0.740384 -0.000765 -0.000687 -2115830.000000 1 0 0
-11.145189 -3.166121 -1.857699 11.734164 0.276788 1.729781 0.001205 -0.002670 514104.000000 1 0 0
12.398011 1.060479 6.782101 14.171527 0.085329 1.071768 0.009094 -0.002480 -394854.000000 1 0 0
-9.569789 9.138179 3.026001 13.573646 -0.762331 1.345975 -0.004928 -0.000035 1298640.000000 1 0 0
-6.581289 7.626279 -8.710099 13.316881 -0.858818 2.283742 -0.001098 -0.004675 -881076.000000 1 0 0
8.491611 5.450279 12.108301 15.761470 0.570619 0.694738 -0.005464 0.004032 -2493990.000000 1 0 0
1.293711 4.859879 -2.648599 5.683941 1.310627 2.055537 0.000570 0.001644 1058940.000000 1 0 0
1.302511 0.474979 9.491501 9.592222 0.349678 0.145043 0.000439 -0.001763 745573.000000 1 0 0
2.493411 12.596679 -3.965399 13.439412 1.375380 1.870312 0.004089 -0.002942 510629.000000 1 0 0
2.079911 0.601479 13.013401 13.192286 0.281505 0.164867 0.003478 -0.005535 -355265.000000 1 0 0
-12.149889 -1.737721 0.876301 12.304771 0.142060 1.499520 -0.003631 -0.002723 100474.000000 1 0 0
3.348311 8.797479 -1.201199 9.489452 1.207126 1.697719 0.001114 0.000757 419669.000000 1 0 0
3.702811 -2.893921 -5.774999 7.445549 -0.663387 2.458511 -0.000420 -0.001390 -1074550.000000 1 0 0
-7.818689 -7.216521 9.253701 14.101101 0.745369 0.854972 0.000892 -0.003136 -588766.000000 1 0 0
-6.967489 10.869579 -3.631399 13.411961 -1.000768 1.844977 -0.006311 0.002072 20370.000000 1 0 0
0.347711 0.470379 2.545401 2.611747 0.934233 0.225882 -0.001660 -0.000754 -2950330.000000 1 0 0
-6.989689 4.567179 -1.897399 8.562418 -0.578773 1.794247 0.001778 -0.002467 -939652.000000 1 0 0
-6.909989 -3.945921 -5.839999 9.870351 0.518858 2.203926 0.008754 -0.003927 68930.000000 1 0 0
2.903711 -6.147221 13.453001 15.073258 -1.129503 0.467921 0.001568 -0.005944 -1146600.000000 1 0 0
-5.435789 -0.294621 -11.396899 12.630278 0.054147 2.695982 0.010905 -0.002076 -973862.000000 1 0 0
11.824711 2.368379 -0.716999 12.080857 0.197675 1.630181 0.001214 0.001301 -1754150.000000 1 0 0
6.203311 -10.861621 10.680101 16.447505 -1.051881 0.864074 -0.004047 0.002118 -246211.000000 1 0 0
-8.078589 6.335279 -10.398799 14.612816 -0.665036 2.362600 -0.000603 -0.003783 458656.000000 1 0 0
2.917011 7.843779 11.258701 14.028263 1.214756 0.639201 -0.002563 0.005461 940769.000000 1 0 0
-6.323589 -10.185821 -0.391799 11.995509 1.015207 1.603464 0.008771 -0.001175 -172662.000000 1 0 0
11.227711 4.205379 6.105501 13.454510 0.358379 1.099784 -0.001670 -0.000362 466470.000000 1 0 0
-7.709389 10.543079 1.541401 13.151696 -0.939418 1.453325 -0.006777 0.003017 565559.000000 1 0 0
4.218511 -2.619821 -3.375899 6.004664 -0.555739 2.167855 0.000190 -0.003408 -6400260.000000 1 0 0
6.512611 6.386979 6.202301 11.030691 0.775659 0.973660 -0.002073 0.002234 -5349760.000000 1 0 0
-0.385489 10.403679 -10.168599 14.552853 -1.533760 2.344425 0.003195 -0.002716 -218613.000000 1 0 0
14.294811 6.470879 -2.466699 15.883907 0.425075 1.726723 0.013299 0.003729 870830.000000 1 0 0
1.402411 9.551379 -6.200299 11.473417 1.425010 2.141715 0.003902 -0.001752 -320702.000000 1 0 0
0.619211 7.397079 7.283601 10.399569 1.487281 0.794873 -0.001193 0.002972 425416.000000 1 0 0
12.263211 6.161179 1.897001 13.854425 0.465575 1.433441 0.001986 -0.000799 -296634.000000 1 0 0
-6.795789 6.725779 -3.090999 10.048538 -0.780221 1.883473 -0.002075 -0.002850 -36729.400000 1 0 0
1.077111 9.829979 11.299401 15.015496 1.461658 0.718922 -0.003773 0.004595 619339.000000 1 0 0
-3.546489 13.745779 -10.979599 17.946465 -1.318297 2.229127 -0.002633 0.002087 -325857.000000 1 0 0
-9.949889 -5.475721 -2.321699 11.591984 0.503096 1.772445 0.002300 -0.001150 435205.000000 1 0 0
-3.932889 4.001979 -12.532099 13.730876 -0.794105 2.720627 0.004929 -0.006284 -163432.000000 1 0 0
-3.117589 8.405979 2.456301 9.295873 -1.215645 1.303385 -0.001225 0.002485 -2994460.000000 1 0 0
7.028711 8.796479 7.233901 13.383204 0.896643 0.999740 -0.002992 0.006007 469111.000000 1 0 0
-1.318089 -2.244021 -8.171799 8.576205 1.039709 2.833276 0.004634 -0.004898 -1353860.000000 1 0 0
0.810911 -1.295121 4.967101 5.196827 -1.011387 0.298445 -0.002775 -0.000504 879716.000000 1 0 0
2.590711 -8.861421 -5.994199 11.007588 -1.286365 2.146651 -0.002726 -0.003310 149391.000000 1 0 0
5.293011 3.932079 8.971301 11.133798 0.638930 0.633819 -0.000641 0.000447 -158020.000000 1 0 0
6.030611 -7.394721 -2.869999 9.964290 -0.886658 1.862964 0.001233 -0.007045 726780.000000 1 0 0
1.737711 2.286979 -8.224799 8.711902 0.921035 2.805613 0.005079 -0.000699 152494.000000 1 0 0
-5.489889 10.870979 -0.716199 12.199590 -1.103153 1.629537 -0.004482 0.005426 845328.000000 1 0 0
-5.412389 3.218879 -3.403199 7.157995 -0.536531 2.066261 0.002414 -0.002378 -209907.000000 1 0 0
2.019611 13.904779 -6.213799 15.363366 1.426559 1.987180 -0.000995 -0.004571 235907.000000 1 0 0
-5.347889 -2.554421 2.630101 6.484012 0.445609 1.153130 -0.005387 -0.002253 55775.700000 1 0 0
10.422011 -3.427221 -1.952699 11.143482 -0.317705 1.746938 0.005913 -0.002488 184035.000000 1 0 0
2.387611 -3.369121 7.079301 8.195619 -0.954272 0.528051 -0.005236 -0.000893 -1580570.000000 1 0 0
-2.837489 9.914079 -11.746699 15.630907 -1.292040 2.421136 0.000171 0.001821 -2996970.000000 1 0 0
0.545911 -2.061521 9.265401 9.507657 -1.311928 0.226226 -0.001543 -0.001491 706315.000000 1 0 0
9.376911 2.527479 5.069001 10.954879 0.263286 1.089740 -0.001943 -0.000132 436551.000000 1 0 0
13.357211 1.939979 -4.994299 14.391721 0.144230 1.925194 0.014153 0.001950 -1510380.000000 1 0 0
-6.547489 3.748079 7.631601 10.731218 -0.519912 0.779651 -0.002102 -0.000044 114940.000000 1 0 0
10.580611 0.085679 1.724801 10.720616 0.008098 1.409208 0.003688 -0.000681 937826.000000 1 0 0
15.374511 6.483879 -4.733499 17.344229 0.399097 1.847218 0.013503 0.005045 -1454450.000000 1 0 0
8.236011 -5.192221 -9.203899 13.397865 -0.562494 2.328104 0.010873 -0.004259 142457.000000 1 0 0
4.493911 5.637979 -2.142699 7.521516 0.897839 1.859673 0.001178 0.000715 -154726.000000 1 0 0
-1.665589 -10.463021 1.426501 10.690365 1.412933 1.436959 0.005613 -0.000731 -849722.000000 1 0 0
-2.778089 12.312179 -12.845099 18.008445 -1.348875 2.364966 0.001899 -0.002519 -329652.000000 1 0 0
8.346311 4.393979 -9.542799 13.417637 0.484589 2.362019 -0.000596 0.002630 -1732200.000000 1 0 0
4.151911 7.719979 -8.866199 12.467796 1.077357 2.361898 0.004217 -0.002763 -1262180.000000 1 0 0
-1.774789 -4.960421 -2.537599 5.847654 1.227199 2.019671 0.004809 -0.003416 -91531.300000 1 0 0
-3.261989 -9.236921 7.035901 12.060895 1.231321 0.947931 0.008148 -0.003530 -308965.000000 1 0 0
1.173811 7.302879 -1.458099 7.538960 1.411427 1.765431 -0.000424 0.000151 785578.000000 1 0 0
0.300911 -0.818421 -2.232399 2.396657 -1.218465 2.769211 0.003701 0.000648 -2056330.000000 1 0 0
4.185611 -6.734521 7.581701 10.970656 -1.014706 0.807802 -0.007044 -0.000352 -1308350.000000 1 0 0
-13.993389 3.828179 6.059201 15.722080 -0.267037 1.175161 -0.004106 0.005480 -904992.000000 1 0 0
4.220911 6.147079 12.616001 14.654902 0.969084 0.533815 -0.002627 0.004591 -924944.000000 1 0 0
8.318411 10.193879 -7.103099 14.952095 0.886363 2.065825 0.011985 -0.005850 -252957.000000 1 0 0
12.501411 5.325479 9.439301 16.545283 0.402709 0.963666 0.005798 0.000542 1239140.000000 1 0 0
7.534811 4.032579 0.276501 8.550528 0.491404 1.538453 0.003787 0.002757 -2405440.000000 1 0 0
-10.861889 -7.567721 -1.128199 13.286228 0.608523 1.655814 0.001971 0.001147 -2830550.000000 1 0 0
10.447911 6.803279 0.160201 12.468725 0.577191 1.557948 0.001458 -0.000285 -635713.000000 1 0 0
14.525311 3.555179 4.262301 15.549636 0.240038 1.293133 0.012767 -0.004436 616375.000000 1 0 0
2.156911 5.710979 8.235801 10.251632 1.209680 0.637872 -0.003107 0.001666 -343871.000000 1 0 0
4.254411 0.059979 11.823201 12.565496 0.014097 0.345442 0.001317 -0.004126 -2156050.000000 1 0 0
-1.487389 -1.537021 -0.445799 2.184833 0.801807 1.776282 0.002864 -0.004738 -1051480.000000 1 0 0
3.101711 -5.348721 -9.486599 11.323648 -1.045289 2.563980 -0.001476 -0.003298 54836.400000 1 0 0
-4.034989 -5.299821 -1.433699 6.813570 0.920074 1.782799 0.006287 -0.005039 691405.000000 1 0 0
-1.139489 -8.698621 8.589501 12.277784 1.440542 0.795963 0.005981 -0.003018 -516059.000000 1 0 0
3.964011 8.741479 -5.954999 11.295524 1.145059 2.126098 0.004227 -0.000746 246235.000000 1 0 0
-14.430189 -1.726521 -2.713299 14.784222 0.119080 1.755369 -0.002145 -0.005954 -1658530.000000 1 0 0
8.877811 -10.544721 -6.489299 15.235409 -0.871012 2.010792 0.004737 -0.006445 -11735.700000 1 0 0
14.828211 6.041479 1.699601 16.101676 0.386896 1.465045 0.000021 0.000162 -1206990.000000 1 0 0
-5.869389 0.353779 -8.325899 10.192913 -0.060202 2.526694 0.012451 -0.006408 11542.900000 1 0 0
-7.941089 -4.404821 -13.020299 15.874241 0.506435 2.532584 0.005241 -0.002309 713486.000000 1 0 0
0.973211 -10.659521 11.995901 16.077132 -1.479749 0.728541 0.007143 -0.003851 -136265.000000 1 0 0
0.277011 11.782679 3.330501 12.247469 1.547291 1.295394 0.000157 0.003440 -677380.000000 1 0 0
5.157511 -13.211621 -3.590899 14.630154 -1.198613 1.818775 -0.004205 -0.001015 -62812.300000 1 0 0
-7.606189 1.601779 -6.916599 10.404766 -0.207556 2.297959 0.003022 -0.003319 352374.000000 1 0 0
1.481111 2.729079 4.105401 5.147415 1.073564 0.647548 -0.001350 0.000889 -2438520.000000 1 0 0
17.258711 5.430279 2.264901 18.234056 0.304833 1.446262 0.005846 0.000471 -62333.400000 1 0 0
2.565911 -8.094421 -3.438199 9.161046 -1.263819 1.955524 -0.002883 -0.002235 212015.000000 1 0 0
-0.360389 -9.443421 -0.679899 9.474721 1.532652 1.642617 0.006546 0.000524 -925878.000000 1 0 0
0.695611 11.903779 -5.656799 13.197848 1.512427 2.013756 0.001949 -0.000314 -1159900.000000 1 0 0
6.026611 -5.008321 7.870001 11.105865 -0.693380 0.783235 -0.000904 -0.000227 -905105.000000 1 0 0
-5.958289 -1.998021 -9.387599 11.296916 0.323551 2.551677 0.017344 -0.004282 109024.000000 1 0 0
2.147511 -1.261121 11.213701 11.486919 -0.530990 0.218541 -0.001929 -0.001801 -464087.000000 1 0 0
17.930511 2.151979 -5.744399 18.950788 0.119446 1.878763 -0.003774 0.003264 -1773230.000000 1 0 0
-8.967489 4.776679 7.794001 12.805427 -0.489438 0.916441 -0.001601 -0.000304 -702109.000000 1 0 0
11.481211 -7.120321 -4.857099 14.356483 -0.555120 1.915928 0.024747 -0.012560 -118547.000000 1 0 0
10.933711 0.466279 8.890901 14.100056 0.042620 0.888525 0.001531 -0.001221 -249084.000000 1 0 0
-8.416589 -7.422321 -1.550599 11.328468 0.722707 1.708104 0.005782 -0.003228 -1318250.000000 1 0 0
10.188711 -10.416121 -3.370699 14.955502 -0.796434 1.798131 0.018040 -0.005857 441790.000000 1 0 0
7.607611 -13.993921 -3.759999 16.365915 -1.072852 1.802613 0.006516 0.000329 -1689840.000000 1 0 0
1.780511 -1.109621 -11.677299 11.864265 -0.557307 2.963827 0.004335 -0.004788 -136187.000000 1 0 0
-11.870389 -2.560221 -6.331399 13.694798 0.212427 2.051408 0.008777 -0.004812 61417.100000 1 0 0
2.686511 -12.054321 -6.397199 13.908564 -1.351513 2.048732 -0.001195 -0.001935 625001.000000 1 0 0
-5.506889 1.426079 1.227201 5.819411 -0.253396 1.358321 -0.001009 -0.004766 424777.000000 1 0 0
0.099911 6.882179 -3.966699 7.944122 1.556280 2.093616 0.004194 -0.001171 1072480.000000 1 0 0
5.454111 -11.780621 3.690301 13.496247 -1.137206 1.293838 -0.009152 -0.001218 -3605760.000000 1 0 0
-4.450489 -9.218421 1.035501 10.288751 1.121018 1.469982 0.007357 -0.000918 450311.000000 1 0 0
7.057511 -6.112421 -4.718899 10.461270 -0.713760 2.038775 0.005589 -0.008349 59592.200000 1 0 0
-6.945789 -6.035621 2.205001 9.462280 0.715400 1.335603 0.004611 -0.001877 86636.000000 1 0 0
-6.151289 -0.764321 7.062601 9.396961 0.123620 0.720337 -0.001505 -0.000197 -1314900.000000 1 0 0
4.098311 -4.982821 3.196701 7.200247 -0.882493 1.110771 -0.005158 0.000809 -469442.000000 1 0 0
-2.456489 10.541479 -8.767299 13.929201 -1.341851 2.251601 -0.000958 -0.001958 -270628.000000 1 0 0
-2.254389 -4.880421 2.796301 6.059709 1.138070 1.091158 -0.000429 0.000007 1561850.000000 1 0 0
15.175511 5.061779 6.383001 17.223834 0.321945 1.191151 0.017383 -0.007608 788940.000000 1 0 0
6.769411 0.304279 0.038601 6.776356 0.044919 1.565100 0.004133 0.000809 3985420.000000 1 0 0
-9.628289 9.314479 0.452801 13.404048 -0.768833 1.537009 -0.008710 0.001637 -2559370.000000 1 0 0
7.179211 10.520479 -2.620799 13.003466 0.971978 1.773733 0.001546 -0.001455 44605.600000 1 0 0
1.581111 -4.261621 -5.461599 7.105659 -1.215527 2.447488 0.000294 -0.003275 -10543.400000 1 0 0
0.947811 -8.183421 -7.952399 11.450213 -1.455489 2.338549 0.000278 -0.001384 1503910.000000 1 0 0
-10.455189 0.289279 -10.486399 14.810781 -0.027661 2.357494 0.004543 -0.006653 -4723870.000000 1 0 0
5.895411 -2.475021 0.489701 6.412598 -0.397476 1.494356 0.004947 -0.000893 -425539.000000 1 0 0
-3.358789 5.405879 -1.030099 6.447177 -1.014847 1.731259 -0.000234 -0.001470 712422.000000 1 0 0
-0.319989 4.596679 -5.158899 6.917087 -1.501295 2.412561 0.003613 -0.001780 -806987.000000 1 0 0
3.997011 -9.755621 10.016101 14.542026 -1.181944 0.811006 -0.005425 -0.001167 -1935560.000000 1 0 0
7.285011 -13.596821 -0.856899 15.449246 -1.078930 1.626290 0.001867 -0.000931 561635.000000 1 0 0
13.038511 -0.026221 0.531101 13.049350 -0.002011 1.530086 0.006698 -0.004687 324924.000000 1 0 0
9.259211 2.276279 -0.680299 9.559144 0.241059 1.642024 0.005184 0.001989 -297688.000000 1 0 0
-0.782789 -5.703021 4.731001 7.451146 1.434390 0.882871 -0.001728 0.004186 -843568.000000 1 0 0
11.380511 -3.723021 3.072201 12.361850 -0.316166 1.319641 0.013083 -0.003231 -2504760.000000 1 0 0
1.811411 -8.199021 11.765401 14.454405 -1.353359 0.619848 -0.005695 -0.001634 224725.000000 1 0 0
9.478311 -6.001421 -5.983999 12.714703 -0.564456 2.060808 0.008568 -0.011147 -79918.900000 1 0 0
3.195711 6.309079 -0.125799 7.073392 1.101942 1.588582 -0.003224 0.002049 -1415360.000000 1 0 0
6.411411 -1.393121 11.397501 13.151046 -0.213962 0.522326 0.004176 -0.002965 494642.000000 1 0 0
-4.927589 -7.591321 -3.747699 9.795639 0.995048 1.963393 0.011765 -0.004185 -474502.000000 1 0 0
-3.451789 -8.455121 -5.783299 10.809740 1.183200 2.135314 0.012764 -0.000254 -261583.000000 1 0 0
9.780711 5.323979 2.272601 11.365376 0.498483 1.369481 0.001237 -0.000811 -134519.000000 1 0 0
8.790211 -1.395621 0.239001 8.903521 -0.157456 1.543950 0.007142 -0.001502 1866220.000000 1 0 0
-3.824789 9.721879 9.234001 13.943124 -1.195975 0.846963 0.007495 -0.000307 173001.000000 1 0 0
-14.420689 -3.460021 -6.103399 16.036817 0.235483 1.961227 0.000929 -0.005766 -640703.000000 1 0 0
10.678111 6.339179 -5.891799 13.744837 0.535745 2.013800 0.001776 -0.002078 -549619.000000 1 0 0
-1.729389 4.486779 2.829201 5.579099 -1.202903 1.038971 -0.002084 -0.002510 540880.000000 1 0 0
6.931711 -3.705321 2.659101 8.297520 -0.490901 1.244571 0.003982 -0.001212 -1796300.000000 1 0 0
8.292111 -11.185021 -1.639599 14.019704 -0.932849 1.688014 0.005675 -0.005160 -1201650.000000 1 0 0
4.469311 0.446079 1.840201 4.853871 0.099480 1.181951 0.001301 0.001842 484346.000000 1 0 0
-10.819489 2.345079 3.802901 11.705673 -0.213444 1.239915 -0.000761 0.000336 245171.000000 1 0 0
-0.864989 -3.010321 4.368401 5.375236 1.290993 0.622042 -0.002215 -0.000812 389217.000000 1 0 0
8.554911 -8.685021 -8.499199 14.861106 -0.792945 2.179627 0.016384 -0.007738 -260756.000000 1 0 0
12.040911 -4.864621 0.896501 13.017365 -0.383957 1.501872 0.010309 -0.005178 116669.000000 1 0 0
2.929511 4.800579 3.557001 6.654310 1.022881 1.006832 -0.004226 0.001831 -196154.000000 1 0 0
6.075411 7.420679 1.995601 9.795893 0.884748 1.365642 -0.003069 0.000800 -107328.000000 1 0 0
-1.626689 -1.184221 -10.328299 10.522465 0.629268 2.949189 0.008934 -0.003676 1451540.000000 1 0 0
-0.931489 -8.713521 5.911401 10.570609 1.464299 0.977340 0.000964 -0.001626 -675185.000000 1 0 0
-4.249689 -0.318221 2.373901 4.878168 0.074742 1.062559 -0.002389 -0.002958 -41388.800000 1 0 0
-8.444889 6.171479 -7.917099 13.118070 -0.631096 2.218713 -0.001440 -0.002993 -1334380.000000 1 0 0
6.544411 11.231179 -9.375299 16.027006 1.043194 2.195638 0.007148 -0.006596 117894.000000 1 0 0
-11.172789 -5.735221 3.098701 12.935452 0.474247 1.328893 -0.000502 0.000961 877063.000000 1 0 0
1.296111 -6.294921 2.993401 7.089879 -1.367736 1.134917 -0.002243 0.001354 1186070.000000 1 0 0
10.102911 2.165579 7.299701 12.650857 0.211157 0.955730 -0.000833 0.000326 -1814550.000000 1 0 0
-4.039789 -2.472321 -10.666799 11.671027 0.549191 2.723723 0.011030 -0.005034 -2022900.000000 1 0 0
-8.358289 11.799679 5.863201 15.603543 -0.954489 1.185579 -0.003626 0.003535 505050.000000 1 0 0
6.880711 6.103279 -2.936099 9.654785 0.725593 1.879798 0.004667 0.000766 -2387470.000000 1 0 0
3.917411 -9.953921 -2.431099 10.969818 -1.195859 1.794269 -0.006345 -0.004290 -1585780.000000 1 0 0
8.420811 -12.792821 -7.387499 17.004161 -0.988647 2.020227 0.011415 -0.004384 -46389.100000 1 0 0
-1.139189 9.509379 3.771801 10.293324 -1.451568 1.195625 0.001071 0.002370 22286.100000 1 0 0
0.615511 -13.301521 4.677401 14.113377 -1.524556 1.232992 0.005330 -0.001910 -638465.000000 1 0 0
-11.051689 -6.987521 -5.155099 14.054904 0.563802 1.946345 0.002466 -0.003466 222705.000000 1 0 0
3.592111 10.332679 -3.389099 11.452227 1.236220 1.871229 0.002934 -0.002948 -1465350.000000 1 0 0
11.690511 -8.209221 -7.370899 16.074499 -0.612209 2.047155 0.029977 -0.010434 383121.000000 1 0 0
11.693711 -4.711221 -5.903799 13.920967 -0.382991 2.008758 0.021980 -0.010912 269848.000000 1 0 0
1.317611 -10.267221 -2.768199 10.715169 -1.443162 1.832104 -0.004132 0.001893 -1292810.000000 1 0 0
2.373911 -12.072321 -3.894999 12.905325 -1.376633 1.877390 -0.002572 -0.000585 -1333330.000000 1 0 0
-7.667389 -5.767321 7.290401 12.049929 0.644900 0.921010 0.001782 0.001724 -2289390.000000 1 0 0
-7.180489 -0.891221 9.480501 11.926173 0.123486 0.651900 -0.002513 0.001665 403278.000000 1 0 0
16.191111 2.588279 -7.603099 18.073693 0.158517 2.004982 0.004019 0.006739 -1031480.000000 1 0 0
-2.002089 6.312779 -5.482499 8.597519 -1.263682 2.262284 0.001324 -0.001393 -319723.000000 1 0 0
7.726211 1.102479 8.401801 11.467347 0.141737 0.748557 0.002844 -0.002588 -1201610.000000 1 0 0
7.941911 8.343879 -3.694199 12.097164 0.810075 1.881131 0.003472 0.000714 266606.000000 1 0 0
7.958211 0.574679 4.017101 8.933111 0.072087 1.104382 -0.001660 0.000490 938267.000000 1 0 0
-7.021489 5.882579 5.435201 10.651171 -0.697367 1.035273 0.002139 -0.005329 160524.000000 1 0 0
-5.925589 -2.193021 -4.532199 7.775781 0.354462 2.193041 0.010725 -0.004641 23006.900000 1 0 0
-15.148789 -2.167421 3.047201 15.603492 0.142111 1.374244 0.004555 -0.001116 -778952.000000 1 0 0
1.148911 1.315779 -10.580599 10.723822 0.852998 2.977975 0.005956 -0.005517 426309.000000 1 0 0
1.520311 -9.274721 9.412601 13.301461 -1.408321 0.784649 0.000270 -0.003233 -866468.000000 1 0 0
-0.137289 -6.748221 -1.226599 6.860166 1.550455 1.750563 0.000652 -0.000087 454065.000000 1 0 0
-0.508889 -10.238621 -8.398899 13.252541 1.521134 2.257198 0.006219 -0.001194 29013.400000 1 0 0
-4.370889 6.487179 3.854001 8.720177 -0.977890 1.113010 0.001507 -0.000554 24786.100000 1 0 0
10.939511 -1.204021 -8.653599 14.000262 -0.109620 2.237123 0.013826 -0.002384 1218530.000000 1 0 0
3.126511 -0.960621 6.357701 7.149701 -0.298095 0.475146 -0.004299 0.000482 432396.000000 1 0 0
2.073311 -12.430821 6.675501 14.261355 -1.405530 1.083676 0.003590 -0.002055 -414323.000000 1 0 0
2.768411 -5.048421 -1.388099 5.922624 -1.069204 1.807369 0.004330 -0.001151 -1117150.000000 1 0 0
-0.974489 9.531179 -1.548499 9.705197 -1.468908 1.731035 -0.001044 0.001060 -28378.600000 1 0 0
4.482411 -2.501721 2.600101 5.754228 -0.509056 1.101948 0.000740 0.000878 -2406960.000000 1 0 0
17.720311 6.633479 -2.593999 19.098201 0.358195 1.707042 0.004424 0.008551 934055.000000 1 0 0
-7.167989 3.486879 -5.359099 9.605120 -0.452750 2.162700 0.000796 -0.004369 1222050.000000 1 0 0
-13.827389 -6.080921 2.269401 15.274962 0.414317 1.421674 -0.007006 -0.000664 -1138410.000000 1 0 0
6.615211 -6.081621 3.435301 9.620209 -0.743397 1.205643 -0.001506 -0.001410 480362.000000 1 0 0
-4.589889 1.939279 3.629301 6.164390 -0.399761 0.941282 -0.000653 -0.004237 473059.000000 1 0 0
6.882011 -12.105521 -5.384599 14.929823 -1.053859 1.939772 0.004885 -0.002106 104546.000000 1 0 0
2.937611 -12.336221 3.376901 13.123085 -1.337021 1.310543 0.001326 -0.002366 -1186370.000000 1 0 0
3.267811 11.465579 -6.103399 13.393639 1.293147 2.043948 0.004696 -0.000788 -107332.000000 1 0 0
-5.528489 -8.374221 6.302201 11.849452 0.987298 1.010006 0.008964 -0.001106 268830.000000 1 0 0
-4.080689 6.551279 6.392301 10.021616 -1.013720 0.879091 0.001810 -0.000242 222959.000000 1 0 0
4.321811 4.430079 -6.878899 9.253264 0.797768 2.408939 0.001738 0.002863 -2304470.000000 1 0 0
-0.378389 -2.752921 1.576501 3.194856 1.434202 1.054745 -0.000817 -0.001106 -347934.000000 1 0 0
-13.112489 -0.877521 6.717001 14.758913 0.066823 1.098295 0.000102 0.003039 -580499.000000 1 0 0
-0.552489 -9.318421 -5.989599 11.091146 1.511576 2.141274 0.004543 0.000592 279544.000000 1 0 0
2.004811 -1.781921 -3.934899 4.762136 -0.726605 2.543283 0.002540 -0.000765 -1117790.000000 1 0 0
11.366811 -1.946721 1.100901 11.584736 -0.169618 1.475622 0.007599 -0.002624 599170.000000 1 0 0
0.414911 -4.205621 -1.931699 4.646597 -1.472458 1.999534 0.000694 -0.002395 -1776480.000000 1 0 0
1.070111 -7.423421 -11.287399 13.552037 -1.427629 2.555111 0.000069 -0.001347 -160103.000000 1 0 0
-4.572789 4.266979 -9.981999 11.779551 -0.750817 2.581867 0.003526 -0.005212 112563.000000 1 0 0
-1.014889 5.833679 -2.033599 6.260777 -1.398550 1.901613 -0.000084 -0.000539 -261462.000000 1 0 0
-11.360389 1.727579 -3.758799 12.090142 -0.150914 1.886934 -0.002154 -0.000760 -729170.000000 1 0 0
-1.717289 -11.251621 4.097401 12.096973 1.419339 1.225248 0.010590 -0.002844 54858.700000 1 0 0
-3.556889 -5.311021 -9.723499 11.636359 0.980684 2.560045 0.005962 0.001523 -860057.000000 1 0 0
-12.895489 -3.681021 -8.288299 15.765134 0.278056 2.124376 0.009581 -0.003184 200530.000000 1 0 0
11.319611 4.415179 0.478001 12.159601 0.371897 1.531476 0.004069 0.001216 178081.000000 1 0 0
-9.066089 -2.306021 -2.991999 9.821597 0.249075 1.880351 0.000281 -0.004795 -715998.000000 1 0 0
-2.509089 -6.117421 -6.419399 9.215588 1.181567 2.341417 0.005754 -0.002877 771629.000000 1 0 0
-0.209589 2.856679 -1.792599 3.379046 -1.497560 2.129992 -0.000486 -0.000828 280652.000000 1 0 0
8.058911 6.147179 -5.145499 11.367058 0.651630 2.040551 0.003615 -0.000256 -802091.000000 1 0 0
-9.819889 -0.899221 -0.966299 9.908206 0.091317 1.668477 -0.000543 -0.003148 358277.000000 1 0 0
6.143111 0.498879 -8.890599 10.818015 0.081032 2.535417 -0.000052 0.000592 477842.000000 1 0 0
-4.160689 2.549579 7.871401 9.261244 -0.549762 0.554946 -0.001047 -0.000005 -2047740.000000 1 0 0
-10.243189 -3.483421 1.439401 10.914624 0.327803 1.438533 -0.003346 -0.002821 525172.000000 1 0 0
-1.810489 -8.044221 -7.868599 11.397465 1.349418 2.332813 0.008940 -0.002973 -166508.000000 1 0 0
-9.374189 -9.893421 4.148001 14.246442 0.812340 1.275357 -0.002424 -0.004129 -529499.000000 1 0 0
-1.046689 -10.735821 7.420401 13.092584 1.473608 0.968224 0.011035 -0.005460 421646.000000 1 0 0
9.386411 3.739779 -3.830299 10.805640 0.379148 1.933146 0.001073 0.002030 -662243.000000 1 0 0
12.813011 -0.813221 3.061601 13.198787 -0.063383 1.336703 0.008330 -0.003415 -407441.000000 1 0 0
6.499511 12.039979 -6.857599 15.304620 1.075797 2.035406 0.002465 -0.001851 1032240.000000 1 0 0
-11.978289 -0.001021 -6.499399 13.627971 0.000085 2.067939 0.001762 -0.001798 147619.000000 1 0 0
-7.530989 -6.467921 -11.627099 15.288533 0.709604 2.434896 0.007666 -0.001039 -2163530.000000 1 0 0
4.202111 6.062079 6.616201 9.908615 0.964662 0.839652 -0.004859 0.003021 -2032560.000000 1 0 0
-4.219089 -1.404321 -7.317499 8.562629 0.321315 2.595549 0.010785 -0.007463 870009.000000 1 0 0
9.639311 9.217779 0.874701 13.365959 0.763048 1.505307 0.002933 -0.000497 -1408340.000000 1 0 0
-8.958789 3.914979 4.937501 10.952893 -0.411990 1.103141 -0.001719 -0.001348 419061.000000 1 0 0
-6.915489 7.915679 -12.067299 16.003177 -0.852735 2.425013 -0.002942 -0.005968 -1144220.000000 1 0 0
11.108711 -3.662321 7.193001 13.731545 -0.318459 1.019455 0.013579 -0.000984 1641160.000000 1 0 0
11.786611 6.809579 6.452301 15.064088 0.523890 1.128160 -0.001389 -0.001392 -389615.000000 1 0 0
-10.056689 -0.523521 -14.764099 17.871477 0.052010 2.542995 0.009388 -0.001433 -38691.500000 1 0 0
1.828811 -13.125621 12.012701 17.886628 -1.432356 0.834427 0.008185 -0.003181 620698.000000 1 0 0
2.964111 2.958079 13.005801 13.663347 0.784380 0.311499 -0.001251 -0.004391 -32781.900000 1 0 0
-2.403289 -1.409421 10.861501 11.213138 0.530401 0.251096 -0.000787 0.000725 -1237150.000000 1 0 0
2.576311 -9.994621 -8.198399 13.181183 -1.318518 2.242062 -0.004922 0.001240 -659824.000000 1 0 0
13.945711 3.597879 -7.534499 16.254115 0.252486 2.052787 0.012347 0.003691 -3083280.000000 1 0 0
7.310411 -1.653121 4.901901 8.955644 -0.222392 0.991598 0.002258 0.000244 235372.000000 1 0 0
-1.101189 8.803379 10.110901 13.451484 -1.446356 0.720226 0.002137 0.000388 -290948.000000 1 0 0
-12.286789 -4.702121 0.877701 13.185048 0.365502 1.504179 -0.002314 -0.000882 -54045.300000 1 0 0
-4.839489 4.852979 -5.280299 8.651798 -0.786790 2.227251 0.002573 -0.003952 1488.300000 1 0 0
-11.160689 0.306079 2.101101 11.360866 -0.027418 1.384784 -0.005072 0.000339 -3424300.000000 1 0 0
-1.423189 2.292979 -4.044099 4.861888 -1.015315 2.553132 0.003750 -0.003516 852663.000000 1 0 0
3.206911 -9.883921 13.136701 16.749600 -1.257055 0.669230 -0.000756 -0.000826 -2485490.000000 1 0 0
8.912211 4.663079 -1.479099 10.166590 0.482053 1.716801 0.003021 0.000284 -1553320.000000 1 0 0
4.025111 2.264279 3.839301 6.005723 0.512418 0.877243 -0.002642 0.002859 -737693.000000 1 0 0
-5.470189 -3.376621 7.431701 9.826226 0.553026 0.713138 0.001575 -0.002120 298543.000000 1 0 0
1.756711 -5.897521 7.707101 9.862362 -1.281292 0.673784 -0.006201 -0.001025 -1168080.000000 1 0 0
-5.859389 -6.272721 -9.792299 13.021851 0.819454 2.421872 0.009330 -0.003442 569628.000000 1 0 0
-11.710989 -5.878621 5.468401 14.198903 0.465226 1.175449 0.002925 -0.000219 -1372010.000000 1 0 0
10.620211 6.129279 4.467601 13.050533 0.523436 1.221400 -0.001051 0.000617 -848667.000000 1 0 0
1.387511 -3.717221 0.378401 3.985738 -1.213547 1.475714 0.003758 -0.000368 -770590.000000 1 0 0
8.711311 4.301379 7.016401 11.984101 0.458651 0.945330 -0.002783 0.004257 475866.000000 1 0 0
-7.830089 12.018979 3.523501 14.770958 -0.993383 1.329932 -0.004643 0.005696 285836.000000 1 0 0
-6.168689 13.234479 -7.027499 16.204626 -1.134628 2.019361 0.002327 -0.004395 363228.000000 1 0 0
4.414711 -7.016421 -0.925399 8.341235 -1.009185 1.681968 0.000651 -0.003679 -503714.000000 1 0 0
-1.940289 -8.238921 11.063101 13.929707 1.339508 0.653091 0.005550 -0.005359 -89380.500000 1 0 0
11.586911 8.861379 -5.777499 15.689488 0.652890 1.947912 0.010437 -0.001519 764957.000000 1 0 0
-3.353889 -2.891521 -1.941599 4.835212 0.711500 1.984009 0.007414 -0.004465 -623917.000000 1 0 0
-2.064789 5.884279 4.919601 7.942957 -1.233321 0.902861 0.002008 -0.001033 152172.000000 1 0 0
0.218311 -11.554821 -5.679099 12.876868 -1.551905 2.027544 0.000410 -0.003898 1090760.000000 1 0 0
-8.818489 6.192979 -1.540599 10.885411 -0.612249 1.712802 -0.000932 0.000255 -561494.000000 1 0 0
2.832911 -0.035521 4.047001 4.940128 -0.012538 0.610765 -0.001150 0.001431 444515.000000 1 0 0
-10.089089 3.948879 -0.986699 10.879197 -0.373071 1.661617 0.000048 -0.001990 138374.000000 1 0 0
6.522311 5.461779 13.622801 16.060893 0.697133 0.558224 -0.000814 0.001007 -1287810.000000 1 0 0
-8.760489 -1.704321 5.726601 10.604001 0.192146 1.000310 -0.003966 -0.000489 -633913.000000 1 0 0
12.927911 -1.842621 -1.490599 13.143364 -0.141577 1.684452 0.014434 -0.006196 -586192.000000 1 0 0
5.001811 -5.517721 5.486401 9.250079 -0.834402 0.935869 -0.004075 -0.001443 276883.000000 1 0 0
-9.049389 -1.241821 3.211201 9.682219 0.136375 1.232734 -0.003868 -0.000732 346510.000000 1 0 0
2.020211 5.451279 5.662801 8.115726 1.215894 0.798535 -0.002048 0.001639 -779949.000000 1 0 0
9.248311 3.009279 -7.376299 12.206425 0.314582 2.219679 0.001595 0.000978 -358991.000000 1 0 0
2.264211 -2.346621 -1.489199 3.584829 -0.803269 1.999198 0.000806 -0.000213 -475737.000000 1 0 0
-6.291989 0.321779 -4.015399 7.471017 -0.051097 2.138223 0.001753 -0.000966 -1155260.000000 1 0 0
-4.021689 4.142479 5.122201 7.718229 -0.800192 0.845109 0.000780 -0.002260 644167.000000 1 0 0
-6.454689 1.857279 -12.352399 14.060379 -0.280172 2.643563 0.003382 -0.002198 -1568620.000000 1 0 0
-0.036589 3.170479 6.223701 6.984821 -1.559256 0.471182 -0.000155 -0.000972 768361.000000 1 0 0
-8.618489 9.390179 -2.118399 12.920581 -0.828223 1.735495 -0.007286 0.001346 697438.000000 1 0 0
-1.325689 -3.720321 -6.141499 7.301798 1.228487 2.570099 0.000969 -0.003186 326975.000000 1 0 0
-3.237289 7.107779 -2.957999 8.351666 -1.143413 1.932834 -0.000520 0.000114 490716.000000 1 0 0
7.046911 -0.446721 -4.354599 8.295845 -0.063308 2.123410 0.003567 0.000889 -246843.000000 1 0 0
-5.199689 -10.873321 6.834801 13.855698 1.124735 1.054935 0.003902 -0.006561 707303.000000 1 0 0
9.656611 8.387779 -1.460799 12.873962 0.715196 1.684511 0.004831 -0.000122 -671091.000000 1 0 0
13.659211 4.540879 -4.345099 15.035741 0.320947 1.863962 0.005280 0.000389 797634.000000 1 0 0
4.740711 1.046479 -6.824499 8.375157 0.217259 2.523267 -0.002412 0.001965 -1117220.000000 1 0 0
8.995111 -4.735921 3.417701 10.724815 -0.484622 1.246468 0.005418 -0.003002 -296130.000000 1 0 0
-8.792789 -3.258421 -0.696099 9.402925 0.354889 1.644894 -0.000654 -0.003780 409342.000000 1 0 0
-8.506489 -4.160221 -10.504499 14.142570 0.454861 2.407976 0.012034 -0.004387 485083.000000 1 0 0
10.503711 -1.112921 10.705101 15.038807 -0.105561 0.778693 0.008047 0.002454 187100.000000 1 0 0
2.206711 -11.659421 9.825901 15.406492 -1.383745 0.879188 0.002796 -0.004990 205829.000000 1 0 0
-6.373689 -10.580221 1.963101 12.506748 1.028603 1.413181 0.005489 -0.000713 -1315220.000000 1 0 0
-3.681589 -1.419821 6.651801 7.734109 0.368079 0.535408 0.001670 -0.001986 -1962400.000000 1 0 0
4.621211 -7.535321 3.890101 9.657616 -1.020674 1.156221 -0.008447 0.000787 99678.500000 1 0 0
11.580011 -9.555521 -5.393999 15.953052 -0.689903 1.915712 0.023102 -0.007244 391986.000000 1 0 0
11.356011 1.215779 11.408001 16.142478 0.106654 0.785963 0.008280 0.001856 -100833.000000 1 0 0
-10.221589 -3.525021 4.374901 11.663893 0.332089 1.186313 -0.000083 0.000734 1658440.000000 1 0 0
2.119911 8.774279 9.031701 12.769245 1.333734 0.785123 -0.003852 0.006221 -288438.000000 1 0 0
6.603911 8.754879 4.187501 11.738599 0.924541 1.206032 -0.004834 0.003388 716203.000000 1 0 0
-4.374289 3.616279 0.400001 5.689629 -0.690818 1.500435 0.001405 -0.004412 -2192180.000000 1 0 0
4.962611 7.026579 4.242601 9.591662 0.955880 1.112611 -0.004582 0.003372 -1058360.000000 1 0 0
-8.121589 13.068679 1.117901 15.427258 -1.014751 1.498270 -0.008082 0.003057 -467668.000000 1 0 0
8.921811 8.216879 -9.059799 15.139213 0.744290 2.212340 0.004911 -0.003397 -745861.000000 1 0 0
6.919511 1.937179 6.033001 9.382398 0.272971 0.872371 -0.002513 0.000819 -657388.000000 1 0 0
11.450111 -6.238021 3.018501 13.383919 -0.498842 1.343307 0.011283 -0.003353 -118076.000000 1 0 0
11.362411 4.589279 -2.137699 12.439277 0.383864 1.743504 0.003591 0.001533 -69031.900000 1 0 0
-3.953289 14.485479 -5.956199 16.153449 -1.304371 1.948435 -0.004142 0.003708 873996.000000 1 0 0
7.200711 -3.076821 7.020701 10.517001 -0.403812 0.839873 0.003059 -0.001321 -191594.000000 1 0 0
-8.028489 -0.526221 0.936401 8.100024 0.065451 1.454933 -0.000796 -0.003468 281796.000000 1 0 0
-3.167289 1.038579 10.762801 11.267131 -0.316860 0.300330 -0.001605 0.002264 -504274.000000 1 0 0
7.078811 -1.303221 -1.968399 7.462074 -0.182063 1.837743 0.007185 -0.000852 -1535040.000000 1 0 0
-7.791789 5.261979 3.039301 9.881181 -0.593972 1.258143 0.000881 -0.002030 876584.000000 1 0 0
9.445711 -2.098621 2.815301 10.077281 -0.218626 1.287657 0.004250 -0.002004 -1410130.000000 1 0 0
0.207511 3.458279 1.593601 3.813439 1.510864 1.139674 -0.000827 0.000926 -4334020.000000 1 0 0
-7.608389 -3.225521 4.026401 9.192577 0.400975 1.117417 -0.003009 -0.001334 242335.000000 1 0 0
-2.247789 8.422379 -6.791699 11.050620 -1.309992 2.232674 -0.001881 -0.002690 -864434.000000 1 0 0
4.516911 9.751479 7.435401 13.068244 1.137017 0.965547 -0.005830 0.008613 -355052.000000 1 0 0
-11.822889 -3.220321 6.854401 14.040441 0.265929 1.060782 0.001124 -0.000383 -1603970.000000 1 0 0
-4.762289 2.351579 -5.620399 7.732930 -0.458669 2.384468 0.006962 -0.006389 -1120980.000000 1 0 0
-2.867889 2.934279 -1.802399 4.481453 -0.796840 1.984705 -0.000755 -0.002024 166056.000000 1 0 0
2.324111 5.132479 11.430501 12.743633 1.145596 0.457957 0.000277 -0.003677 80015.700000 1 0 0
-0.686189 1.690279 4.614201 4.961728 -1.185161 0.376497 -0.000097 -0.001273 738128.000000 1 0 0
5.111111 1.593079 7.728301 9.401489 0.302146 0.605830 0.000004 0.001056 1434890.000000 1 0 0
3.285511 -8.109221 1.882201 8.949678 -1.185852 1.358905 -0.005425 0.000038 1283640.000000 1 0 0
5.045011 6.494879 -4.641799 9.443616 0.910383 2.084639 0.004319 -0.000592 -1390330.000000 1 0 0
-4.058989 2.851079 -7.984799 9.400056 -0.612342 2.585723 0.009961 -0.007114 -10370.800000 1 0 0
-8.793489 -2.042821 -12.993199 15.821561 0.228262 2.534366 0.011169 -0.003855 -669538.000000 1 0 0
-7.839489 8.011879 1.180401 11.271253 -0.796273 1.465877 -0.001899 -0.000442 149645.000000 1 0 0
7.379111 0.821079 -6.614699 9.943827 0.110815 2.298567 -0.000041 0.001829 -481931.000000 1 0 0
8.954511 8.909479 5.549501 13.797066 0.782877 1.156852 -0.001654 0.003213 275851.000000 1 0 0
9.325311 -1.148521 -1.456699 9.508023 -0.122545 1.724609 0.006491 -0.001437 1402090.000000 1 0 0
5.337911 0.059179 4.284801 6.845167 0.011086 0.894434 -0.002608 0.002649 -247960.000000 1 0 0
-4.220689 -7.270721 -8.074699 11.656688 1.044835 2.336036 0.012162 -0.005113 -612777.000000 1 0 0
-2.058589 7.469379 -0.483899 7.762961 -1.301869 1.633171 0.000016 0.001143 282879.000000 1 0 0
13.375611 -3.402021 -7.464899 15.690935 -0.249064 2.066608 0.018294 -0.007072 816395.000000 1 0 0
-4.736589 -4.974321 1.475701 7.025442 0.809874 1.359169 0.004811 -0.001712 2809380.000000 1 0 0
-8.853089 1.296679 2.571601 9.309763 -0.145432 1.290931 -0.001577 -0.002096 -1555880.000000 1 0 0
-0.921889 11.273579 10.321301 15.312502 -1.489204 0.831126 0.000513 0.003673 654791.000000 1 0 0
-8.436789 0.281279 7.448201 11.257629 -0.033327 0.847828 -0.004697 0.000519 -435542.000000 1 0 0
-6.129189 12.842679 -2.158799 14.393115 -1.125512 1.721353 -0.005953 0.005126 531308.000000 1 0 0
-13.111189 -0.723621 3.287401 13.536392 0.055135 1.325487 -0.001151 -0.001350 550549.000000 1 0 0
-6.818889 12.769279 8.698001 16.888071 -1.080314 1.029744 0.011838 -0.002081 906313.000000 1 0 0
-8.031789 0.940179 -14.014499 16.180227 -0.116527 2.618243 0.002517 -0.003224 141547.000000 1 0 0
7.206011 2.864979 3.693401 8.589290 0.378420 1.126303 -0.002107 0.000813 -438208.000000 1 0 0
-1.713889 0.694179 -2.033999 2.748900 -0.384836 2.403766 0.002977 -0.002815 870592.000000 1 0 0
-6.223089 9.643279 -10.301699 15.422213 -0.997712 2.302285 -0.004936 -0.004234 -188911.000000 1 0 0
-10.105389 13.679979 5.304301 17.815620 -0.934567 1.268479 -0.013865 0.005786 188343.000000 1 0 0
-5.657389 8.243079 2.466301 10.297429 -0.969311 1.328939 -0.001704 0.000851 -1128070.000000 1 0 0
-2.477589 -10.678221 -1.265399 11.034677 1.342808 1.685724 0.007248 0.000541 43337.300000 1 0 0
-2.195889 -12.471721 8.793301 15.417130 1.396513 0.963853 0.008700 -0.010457 356716.000000 1 0 0
-14.662389 -6.399321 -1.822999 16.101562 0.411524 1.684258 -0.001364 0.001893 159589.000000 1 0 0
-2.769389 -9.334221 3.222501 10.255814 1.282377 1.251170 0.005864 -0.001407 -905010.000000 1 0 0
4.647211 -2.665721 7.617001 9.312429 -0.520795 0.612977 -0.001165 0.000094 -1319790.000000 1 0 0
-15.029789 -1.251021 -0.264399 15.084082 0.083045 1.588326 -0.004480 -0.005855 253346.000000 1 0 0
5.507211 8.885879 -2.870999 10.841165 1.015966 1.838818 0.001251 0.001106 -1488260.000000 1 0 0
-5.646589 -5.819021 8.532301 11.770520 0.800436 0.759925 0.006180 -0.001953 -1328250.000000 1 0 0
3.496011 3.650279 7.046001 8.671376 0.806982 0.622268 -0.003151 0.000571 559537.000000 1 0 0
3.237911 2.302079 9.378401 10.185187 0.618055 0.400700 0.001631 -0.003855 2096500.000000 1 0 0
9.897111 -3.215421 5.123801 11.599357 -0.314128 1.113269 0.011559 -0.003370 -643367.000000 1 0 0
6.513811 10.061479 -5.087799 13.021090 0.996250 1.972227 0.003353 -0.002899 371947.000000 1 0 0
-4.396289 12.116379 -8.484899 15.431381 -1.222730 2.152977 -0.004949 -0.003115 -296141.000000 1 0 0
-3.400189 -7.180321 2.092601 8.215672 1.128538 1.313250 0.005240 -0.002689 1164630.000000 1 0 0
-7.482689 -4.094121 1.090201 8.598895 0.500649 1.443670 0.000266 -0.002946 3051390.000000 1 0 0
-1.969689 -3.871921 -10.938099 11.769174 1.100204 2.763541 0.008101 -0.001258 -917039.000000 1 0 0
-5.280589 8.377879 -4.363699 10.821984 -1.008394 1.985835 -0.003481 -0.002751 -1265890.000000 1 0 0
-10.954589 -3.190221 -10.078999 15.223888 0.283385 2.294349 0.011381 -0.005033 -733141.000000 1 0 0
4.675511 -11.417321 -7.740099 14.564503 -1.182118 2.131091 -0.001452 -0.004132 -3548300.000000 1 0 0
-9.401789 -4.025921 7.245401 12.533855 0.404585 0.954439 -0.002220 0.002341 -1274120.000000 1 0 0
-5.786789 -9.692621 -5.265299 12.456212 1.032563 2.007224 0.010801 -0.005725 1398120.000000 1 0 0
4.978211 4.370779 -9.428699 11.523309 0.720516 2.529119 -0.000704 0.004249 646428.000000 1 0 0
-3.445389 -7.122921 -14.151999 16.213753 1.120270 2.631787 0.000839 -0.001710 -30922.500000 1 0 0
0.672311 -0.720621 -8.796499 8.851536 -0.820067 3.030020 0.004640 -0.006041 344845.000000 1 0 0
-7.637789 2.185979 -2.843299 8.437931 -0.278754 1.914489 0.001705 -0.003040 -796156.000000 1 0 0
-2.272089 7.599279 -12.499199 14.803426 -1.280269 2.576138 0.001591 -0.003461 -514361.000000 1 0 0
-9.892089 8.938679 7.650701 15.371618 -0.734811 1.049833 -0.005692 -0.002663 -309821.000000 1 0 0
-10.743989 -3.039421 -14.474499 18.280659 0.275691 2.484535 0.013408 0.002788 -419464.000000 1 0 0
-3.306689 4.917479 7.997201 9.953442 -0.978810 0.637711 0.002105 -0.000531 -197104.000000 1 0 0
8.739511 -2.328121 -3.617799 9.741030 -0.260344 1.951311 0.007457 -0.002614 -5134400.000000 1 0 0
1.976311 -8.548321 -1.116799 8.844594 -1.343595 1.697403 -0.005182 0.000285 -920988.000000 1 0 0
-13.595589 -2.761021 5.077301 14.773025 0.200357 1.219956 0.006491 -0.004571 53619.500000 1 0 0
7.100611 2.741479 -2.022599 7.875614 0.368458 1.830525 0.001379 0.001571 754972.000000 1 0 0
-11.156589 4.484679 9.043301 15.045368 -0.382209 0.925959 -0.005223 0.001249 -3192470.000000 1 0 0
-1.777589 -2.537821 7.967801 8.549047 0.959776 0.370876 -0.002147 -0.001846 -533914.000000 1 0 0
3.196711 12.011379 -9.889799 15.883964 1.310685 2.242893 0.003107 -0.008657 388980.000000 1 0 0
3.640911 -4.991321 -7.131399 9.435379 -0.940579 2.427694 -0.001138 -0.005616 266882.000000 1 0 0
8.249611 -13.740321 -9.794099 18.782356 -1.030087 2.119348 0.014302 0.006019 71114.300000 1 0 0
-6.326889 -5.765921 -0.484499 8.573804 0.739043 1.627336 0.007415 -0.003251 -468241.000000 1 0 0
-1.090789 -4.084021 9.869901 10.737038 1.309802 0.404654 -0.003479 -0.000594 1557520.000000 1 0 0
2.760211 3.297179 1.851101 4.681531 0.873814 1.164288 -0.003917 0.003163 -732981.000000 1 0 0
-9.259889 13.435079 7.789501 18.081018 -0.967334 1.125405 -0.004295 -0.000568 98667.300000 1 0 0
4.010411 -11.059721 0.013901 11.764396 -1.222928 1.569615 -0.006816 -0.001372 -217276.000000 1 0 0
-12.544089 -1.336121 -9.016499 15.506020 0.106114 2.191348 0.007453 -0.006160 521889.000000 1 0 0
-4.172489 0.934479 -13.450599 14.113877 -0.220326 2.833802 0.008189 -0.004917 586420.000000 1 0 0
3.951111 -3.067921 4.972001 7.052958 -0.660228 0.788440 -0.003130 0.002172 14253.600000 1 0 0
1.690511 -1.212621 1.129501 2.367287 -0.622249 1.073412 -0.001462 0.000100 451551.000000 1 0 0
8.137011 -8.957521 7.284401 14.124823 -0.833360 1.028953 -0.001305 0.001640 -1290390.000000 1 0 0
-0.020789 2.303179 -6.213199 6.626380 -1.561770 2.786592 0.004260 -0.002740 485942.000000 1 0 0
-3.768289 -9.713021 -3.376799 10.951966 1.200710 1.884231 0.013442 -0.001187 720564.000000 1 0 0
-9.497989 2.308879 -5.408399 11.171101 -0.238466 2.076179 0.000608 -0.001218 -1868990.000000 1 0 0
8.914711 -7.663821 5.281601 12.888038 -0.710088 1.148555 -0.000656 -0.003944 197930.000000 1 0 0
-5.537889 -4.312621 4.613801 8.399647 0.661648 0.989288 0.001101 -0.001920 -96623.500000 1 0 0
-0.110689 -12.458221 10.314301 16.174187 1.561912 0.879286 0.013739 -0.010216 -753596.000000 1 0 0
-14.128089 -8.437721 2.981201 16.723803 0.538380 1.391578 -0.005320 -0.003517 -1131840.000000 1 0 0
10.975411 -1.375621 -3.675499 11.655955 -0.124686 1.891603 0.017396 -0.004398 63949.500000 1 0 0
-13.626789 3.005879 2.786101 14.229794 -0.217109 1.373730 -0.000450 0.002116 -459913.000000 1 0 0
-6.276789 5.972479 1.086701 8.732096 -0.760560 1.446024 0.000646 -0.000395 39043.800000 1 0 0
7.090711 -6.996221 -0.445199 9.971133 -0.778691 1.615460 0.003195 -0.006149 288170.000000 1 0 0
-6.915289 7.892779 9.963601 14.470332 -0.851313 0.811304 -0.001787 -0.001170 296146.000000 1 0 0
-12.612389 -5.115721 -2.053499 13.764440 0.385334 1.720544 -0.005011 -0.001118 -2252840.000000 1 0 0
-9.379289 -5.718421 0.125401 10.985769 0.547511 1.559381 0.001127 -0.001809 -990415.000000 1 0 0
-1.800989 1.870779 2.295201 3.465735 -0.804403 0.846972 -0.000626 -0.001870 -179204.000000 1 0 0
-7.076689 7.406979 7.550201 12.725895 -0.808199 0.935651 0.000280 -0.002997 -407310.000000 1 0 0
5.657411 7.113379 -0.482699 9.101618 0.898916 1.623856 -0.000437 -0.000028 -1601540.000000 1 0 0
0.007311 -4.100521 7.454401 8.507786 -1.569013 0.502906 -0.003596 0.000150 -939730.000000 1 0 0
6.434211 0.631179 13.176801 14.677382 0.097784 0.456133 0.003695 -0.004798 679012.000000 1 0 0
5.854111 6.194679 -7.832499 11.575522 0.813656 2.313991 -0.000809 0.001230 -256000.000000 1 0 0
9.886311 5.280579 9.131201 14.456918 0.490578 0.887162 -0.004010 -0.000716 -1377310.000000 1 0 0
-1.239989 -4.977821 -8.547599 9.968838 1.326662 2.601054 0.007827 -0.002863 443402.000000 1 0 0
10.008611 -3.577321 -8.069499 13.344899 -0.343274 2.220170 0.017078 -0.010414 426930.000000 1 0 0
8.200711 -5.657421 1.280101 10.044737 -0.603895 1.443009 0.004710 -0.003721 1272840.000000 1 0 0
15.679211 3.026579 -5.053699 16.749260 0.190686 1.877300 0.010222 0.004262 263780.000000 1 0 0
-6.958289 3.518379 1.185701 7.886866 -0.468148 1.419886 0.000822 -0.003731 307563.000000 1 0 0
-1.868689 3.824779 0.389101 4.274615 -1.116331 1.479644 -0.001253 -0.001851 -888172.000000 1 0 0
-2.645789 10.021179 6.971001 12.490760 -1.312667 0.978711 0.004663 0.003010 -102465.000000 1 0 0
5.569911 -5.734621 -8.834099 11.914323 -0.799967 2.406053 0.002855 -0.007582 1698850.000000 1 0 0
-1.319489 -0.891821 6.243401 6.443326 0.594357 0.249760 -0.000262 -0.003579 -319482.000000 1 0 0
-5.653889 5.010879 -7.744499 10.819087 -0.725178 2.368591 0.002074 -0.004453 -25099.900000 1 0 0
6.667611 -1.231521 2.441601 7.206601 -0.182644 1.225154 0.002710 0.000644 -1536820.000000 1 0 0
8.796711 7.579979 3.243201 12.056391 0.711238 1.298439 -0.001495 0.000554 -409812.000000 1 0 0
-5.220089 -4.915221 -7.658799 10.491231 0.755327 2.389146 0.011606 -0.004918 1273670.000000 1 0 0
-2.346889 7.927379 -9.932299 12.922917 -1.282969 2.447415 0.002321 -0.000911 451488.000000 1 0 0
-2.873989 -2.293921 1.662501 4.035566 0.673622 1.146190 -0.001756 -0.000096 -1151080.000000 1 0 0
5.942311 -2.140821 -9.263299 11.211730 -0.345792 2.543152 -0.000141 -0.002703 1339490.000000 1 0 0
1.150511 -7.547221 5.098401 9.180300 -1.419519 0.981997 -0.004708 0.000625 526035.000000 1 0 0
1.878811 11.767779 1.219201 11.979023 1.412475 1.468842 -0.000587 0.000624 340774.000000 1 0 0
-1.026789 7.043879 2.679401 7.605900 -1.426045 1.210791 0.000698 -0.000041 506287.000000 1 0 0
8.770811 7.825979 -6.662199 13.511401 0.728531 2.086423 0.007545 -0.003042 -195290.000000 1 0 0
3.737411 -11.101521 5.485401 12.934513 -1.246057 1.132839 -0.000432 0.001861 -892658.000000 1 0 0
7.813611 -7.058121 12.409901 16.274988 -0.734641 0.703607 0.002612 -0.002711 -63510.200000 1 0 0
-8.815189 0.144379 -3.915999 9.646940 -0.016377 1.988794 0.001393 -0.003007 -927650.000000 1 0 0
-3.249189 -5.088621 11.221801 12.742845 1.002533 0.493595 0.003058 -0.004000 1063540.000000 1 0 0
-8.182289 0.156079 -11.542399 14.149247 -0.019073 2.524839 0.005155 -0.004862 -1853670.000000 1 0 0
1.427011 -4.964321 5.299001 7.400017 -1.290890 0.772627 -0.004167 -0.000198 -881206.000000 1 0 0
6.767511 3.830679 -7.588199 10.865269 0.515074 2.343942 -0.002384 0.002554 -2405120.000000 1 0 0
16.299311 4.156279 -1.287199 16.870065 0.249676 1.647171 0.005523 0.006533 -1599840.000000 1 0 0
7.878111 7.309479 0.184701 10.748359 0.747975 1.553611 0.002919 -0.001096 -2282150.000000 1 0 0
5.599711 -10.314521 14.015701 18.280754 -1.073424 0.697124 0.006042 0.000674 906490.000000 1 0 0
-5.296989 -9.189521 8.821901 13.796062 1.047898 0.877013 0.008181 -0.008298 284234.000000 1 0 0
-12.621489 -3.139121 2.820401 13.308295 0.243766 1.357249 -0.000889 0.000144 62167.200000 1 0 0
-1.983089 -1.302121 -5.903799 6.362626 0.581010 2.759502 0.006989 -0.006538 -1033470.000000 1 0 0
-2.509789 13.007579 -4.358299 13.946000 -1.380190 1.888633 -0.001681 0.003864 389964.000000 1 0 0
3.975111 -0.533821 -5.009299 6.417130 -0.133492 2.466443 0.000920 0.000773 -204703.000000 1 0 0
-8.878289 3.890079 -7.313899 12.142893 -0.412961 2.217200 0.002121 -0.002334 492160.000000 1 0 0
-4.549489 8.008979 -11.331899 14.603203 -1.054202 2.459075 0.000261 -0.002014 -2738060.000000 1 0 0
-10.194289 -6.536721 7.412501 14.198501 0.570174 1.021529 -0.003171 0.002641 -880580.000000 1 0 0
8.140211 5.231879 4.190601 10.544986 0.571241 1.162112 -0.003822 0.001490 -1541320.000000 1 0 0
-6.647489 -7.532421 3.955901 10.797019 0.847725 1.195672 0.008850 -0.001787 -795268.000000 1 0 0
-4.270989 11.874279 7.966601 14.923357 -1.225520 1.007668 0.011981 0.000607 1998.750000 1 0 0
-7.211689 9.919479 -7.842699 14.557213 -0.942163 2.139749 -0.004398 -0.005619 583061.000000 1 0 0
13.074311 5.404679 4.681501 14.901833 0.391989 1.251229 0.003987 -0.002083 -1655730.000000 1 0 0
5.413111 4.002679 -3.702599 7.683258 0.636709 2.073624 0.000453 0.003067 330438.000000 1 0 0
-2.885189 -4.127621 5.091701 7.161493 0.960745 0.779901 0.001817 -0.000412 -2156260.000000 1 0 0
12.513411 -2.305221 -5.441499 13.838693 -0.182178 1.974916 0.019460 -0.011434 -1844410.000000 1 0 0
-5.278189 9.666779 7.026501 13.064364 -1.071019 1.002927 0.004367 0.000146 577949.000000 1 0 0
1.688011 3.840779 -0.415299 4.215855 1.156711 1.669465 -0.000210 0.002184 417350.000000 1 0 0
-0.043989 9.688679 7.786101 12.429634 -1.566256 0.893852 0.000092 0.004597 -253584.000000 1 0 0
-5.472289 2.044979 5.932101 8.325725 -0.357628 0.777738 -0.001079 -0.001864 684942.000000 1 0 0
8.899211 0.952779 10.764701 13.999376 0.106657 0.693613 0.003396 -0.001175 568857.000000 1 0 0
0.482611 -2.813421 -10.170999 10.563971 -1.400911 2.867979 0.003262 -0.002529 -1382670.000000 1 0 0
1.235911 10.604079 -2.756999 11.026106 1.454769 1.823521 0.002054 -0.001869 -1032030.000000 1 0 0
2.211011 -4.334821 11.652301 12.627563 -1.099135 0.395596 -0.001086 -0.001234 -555170.000000 1 0 0
6.557611 -3.073221 9.496001 11.942403 -0.438254 0.651542 0.001831 -0.001970 661342.000000 1 0 0
-10.661889 -8.270321 5.551201 14.590748 0.659741 1.180502 -0.000224 -0.001548 -1185370.000000 1 0 0
-2.984189 0.847679 -6.831999 7.503343 -0.276767 2.715354 0.009568 -0.006187 655673.000000 1 0 0
11.056211 2.668579 -5.064499 12.450312 0.236835 1.989719 0.003554 0.000750 -2964890.000000 1 0 0
-2.034989 -3.963221 -0.084899 4.455952 1.096432 1.589850 0.000784 -0.003075 549265.000000 1 0 0
-1.400889 -6.457521 -10.736799 12.607178 1.357167 2.589906 0.005120 -0.000682 1024770.000000 1 0 0
0.325811 6.876279 -6.598599 9.535768 1.523450 2.335030 0.005444 -0.000823 -3171230.000000 1 0 0
2.096211 3.851479 -6.183299 7.580315 1.072370 2.524743 0.002629 0.000782 -1615440.000000 1 0 0
1.644911 -14.845821 6.539101 16.305336 -1.460447 1.158144 0.012398 -0.006113 179578.000000 1 0 0
-1.637689 5.502579 -10.520899 11.985396 -1.281523 2.642067 0.006025 -0.002141 64582.300000 1 0 0
13.677611 4.328379 -0.869699 14.372484 0.306486 1.631345 0.005768 -0.000752 908588.000000 1 0 0
-2.358889 3.350179 -6.144499 7.385318 -0.957318 2.553478 0.007462 -0.005452 -1016540.000000 1 0 0
5.661911 7.763379 14.171301 17.121713 0.940669 0.595835 -0.005257 -0.001185 507765.000000 1 0 0
15.790411 0.589579 -5.825199 16.840951 0.037320 1.923989 0.002529 0.001995 287970.000000 1 0 0
6.202711 -8.209421 10.523001 14.717397 -0.923746 0.774166 -0.002610 0.002002 -101380.000000 1 0 0
0.006011 -5.983421 -6.427999 8.781830 -1.569792 2.391999 0.001656 -0.003834 139471.000000 1 0 0
8.783611 5.533679 -7.513199 12.814897 0.562187 2.197263 0.001511 0.003121 -306915.000000 1 0 0
-16.010189 -0.871821 5.361301 16.906501 0.054400 1.248111 0.010779 -0.008027 -436141.000000 1 0 0
-0.378089 4.041879 -12.257599 12.912338 -1.477525 2.821777 0.007084 -0.002232 623829.000000 1 0 0
-11.356389 3.727279 5.903901 13.331025 -0.317132 1.112000 0.000007 0.000313 77995.600000 1 0 0
5.285211 -9.561921 -9.607299 14.548677 -1.065856 2.292088 0.001603 -0.001534 88709.000000 1 0 0
1.598911 11.148879 -11.634699 16.193216 1.428353 2.372428 0.005926 -0.005884 -2133940.000000 1 0 0
5.932111 2.360379 1.154901 6.488076 0.378694 1.391839 0.001562 0.002179 -38822.800000 1 0 0
5.708711 4.561879 4.858901 8.775479 0.674197 0.984007 -0.004137 0.001248 -359729.000000 1 0 0
0.507611 -1.638721 -6.368299 6.595325 -1.270409 2.878452 -0.000624 -0.004033 -1109840.000000 1 0 0
12.788611 6.898479 -4.568299 15.231774 0.494687 1.875404 0.005655 0.001098 -454856.000000 1 0 0
7.417511 3.101979 12.794001 15.110533 0.396094 0.561055 -0.000647 -0.001183 -393351.000000 1 0 0
-2.596489 -0.138221 8.540201 8.927255 0.053184 0.295545 -0.000439 -0.000282 897361.000000 1 0 0
2.248711 -15.329621 13.306801 20.423637 -1.425145 0.861185 0.008003 -0.003710 288131.000000 1 0 0
18.809611 4.472379 -1.633799 19.402911 0.233436 1.655100 -0.000169 0.008071 559755.000000 1 0 0
-0.220089 -13.219121 7.197901 15.053351 1.554149 1.072239 0.004283 -0.005489 -1123920.000000 1 0 0
4.279911 1.570479 -0.542899 4.591164 0.351687 1.689322 0.001331 0.001112 461707.000000 1 0 0
2.814011 -0.544621 -7.382599 7.919472 -0.191175 2.771264 -0.000537 -0.000661 -279377.000000 1 0 0
7.081611 -11.392221 0.880601 13.442744 -1.014633 1.505242 -0.006546 0.000900 269269.000000 1 0 0
-11.779589 -7.279321 1.208001 13.899874 0.553521 1.483779 -0.002824 0.002171 25822.200000 1 0 0
0.132911 -7.068621 10.075001 12.308075 -1.551996 0.611882 -0.001512 -0.001817 -1049490.000000 1 0 0
-4.629989 -7.255421 10.558501 13.622036 1.002802 0.683916 0.008557 -0.001926 -1323590.000000 1 0 0
11.942111 0.723379 -1.688199 12.082521 0.060500 1.710977 0.006807 -0.000251 1804110.000000 1 0 0
6.554111 -9.702521 -7.315299 13.806118 -0.976699 2.129231 0.001195 -0.006002 -1179720.000000 1 0 0
-11.074989 4.832179 3.533901 12.589432 -0.411415 1.286269 -0.002642 -0.000673 -408486.000000 1 0 0
5.921511 -9.077521 1.946501 11.011564 -0.992787 1.393094 -0.008021 -0.000301 3909680.000000 1 0 0
11.629611 -1.340321 5.916701 13.116847 -0.114744 1.102825 0.011317 -0.004722 -131043.000000 1 0 0
-6.466589 3.554379 4.242601 8.511759 -0.502577 1.048998 -0.000721 -0.003398 -2073970.000000 1 0 0
9.512811 6.261179 -3.157399 11.817999 0.582107 1.841250 0.004240 -0.000393 -626683.000000 1 0 0
-2.300189 6.687579 10.976901 13.057830 -1.239522 0.572337 0.001655 -0.001700 -373145.000000 1 0 0
1.832111 9.703879 3.005401 10.322516 1.384191 1.275368 -0.003021 0.000711 -473472.000000 1 0 0
2.855111 6.306479 -5.683499 8.956869 1.145677 2.258211 0.002195 0.001294 -2426680.000000 1 0 0
11.622311 0.139879 -5.861699 13.017573 0.012035 2.037888 0.010252 -0.002920 -120489.000000 1 0 0
-2.514789 -12.469721 6.215601 14.158100 1.371794 1.116296 0.007476 -0.004746 -243048.000000 1 0 0
10.838411 1.752879 -2.861599 11.346034 0.160340 1.825761 0.004324 0.000536 250111.000000 1 0 0
-8.865789 5.324179 0.851601 10.376624 -0.540810 1.488635 -0.001087 -0.002249 -462843.000000 1 0 0
1.229411 -10.166221 5.575701 11.659843 -1.450450 1.072196 -0.000829 -0.002486 -342718.000000 1 0 0
9.388311 -5.737921 -1.161699 11.064071 -0.548597 1.675988 0.010009 -0.005882 1504010.000000 1 0 0
-7.836689 8.576279 -4.511199 12.462631 -0.830429 1.941185 -0.005568 -0.001949 71757.600000 1 0 0
-7.505489 -0.059721 -1.645899 7.684069 0.007957 1.786665 -0.000439 -0.003422 -1823390.000000 1 0 0
4.116211 8.828379 2.771901 10.127532 1.134513 1.293559 -0.002270 -0.000331 762416.000000 1 0 0
-1.344389 -10.420721 -3.807399 11.175648 1.442494 1.918444 0.008168 0.001457 -800029.000000 1 0 0
3.192911 7.881679 -3.678399 9.265320 1.185896 1.979050 0.003973 -0.001300 -389527.000000 1 0 0
-4.237189 1.874879 -11.082499 12.012108 -0.416584 2.745591 0.008727 -0.006121 -411362.000000 1 0 0
1.218811 2.740279 11.035601 11.435870 1.152295 0.265357 0.003243 -0.003270 404261.000000 1 0 0
2.084011 5.634879 -8.066499 10.058000 1.216556 2.501429 0.003461 0.000029 1037080.000000 1 0 0
15.521611 6.031779 4.082701 17.145589 0.370645 1.330367 0.006513 -0.003711 268127.000000 1 0 0
-4.441989 9.116679 4.585201 11.129653 -1.117411 1.146170 0.004372 0.001866 211111.000000 1 0 0
-0.998589 -8.198421 -12.520399 14.999056 1.449591 2.558467 0.008829 -0.001194 -317873.000000 1 0 0
14.243311 -4.314821 -5.332599 15.809055 -0.294149 1.914857 0.017647 -0.008365 -164122.000000 1 0 0
-5.924089 -6.207921 -5.612099 10.253232 0.808789 2.149990 0.011407 -0.003040 546881.000000 1 0 0
-8.932689 2.631079 -12.298299 15.426071 -0.286445 2.493508 0.005154 -0.004030 -99343.400000 1 0 0
10.523211 5.410179 13.835601 18.205270 0.474879 0.707517 0.000415 0.001664 618304.000000 1 0 0
-0.516289 11.052979 5.609601 12.405745 -1.524120 1.101591 0.000262 0.005654 496076.000000 1 0 0
0.430711 11.363179 -0.557899 11.385016 1.532910 1.619819 -0.000108 0.000985 -96364.100000 1 0 0
-1.497189 -0.568021 3.665501 4.000015 0.362615 0.411875 -0.001261 -0.001633 425476.000000 1 0 0
-4.864989 6.837779 8.826501 12.179099 -0.952403 0.760161 0.002844 -0.000382 -2023770.000000 1 0 0
3.425511 -8.737221 -11.412099 14.775289 -1.197154 2.453372 -0.004555 0.000826 1266590.000000 1 0 0
6.587711 -3.848121 12.054201 14.265684 -0.528673 0.564271 0.008481 -0.005221 -643360.000000 1 0 0
-2.469689 -1.814321 -12.508399 12.878322 0.633595 2.901330 0.006123 -0.004963 1075010.000000 1 0 0
-15.990889 -5.067621 5.288801 17.588653 0.306895 1.265376 0.002944 -0.005088 740012.000000 1 0 0
-9.036989 7.285679 5.790101 12.972030 -0.678514 1.108111 -0.009907 -0.000538 -3933090.000000 1 0 0
-12.807889 1.534279 6.130501 14.282124 -0.119224 1.127142 -0.003516 0.001799 786315.000000 1 0 0
-3.636089 3.569379 10.225501 11.424643 -0.776140 0.462278 0.000387 0.001267 426112.000000 1 0 0
2.011711 -12.159321 -1.150399 12.378186 -1.406836 1.663868 -0.001911 -0.000430 -2412920.000000 1 0 0
10.175111 -5.274721 -3.632499 12.022921 -0.478255 1.877724 0.017448 -0.006560 494221.000000 1 0 0
2.961411 -13.427221 1.034401 13.788771 -1.353719 1.495708 -0.002322 0.001882 434570.000000 1 0 0
10.040211 -1.801721 -6.202999 11.938561 -0.177561 2.117152 0.015433 -0.003629 126809.000000 1 0 0
11.901711 -5.482021 -1.627299 13.204218 -0.431640 1.694351 0.019041 -0.007537 -702555.000000 1 0 0
1.460311 0.976779 6.019101 6.270262 0.589536 0.283994 -0.001033 -0.000840 78563.000000 1 0 0
-10.904489 11.680679 6.657901 17.311088 -0.819752 1.176018 -0.011507 -0.000783 -37304.300000 1 0 0
4.743411 -14.111521 3.035301 15.193684 -1.246524 1.369669 -0.000126 0.001431 -4563080.000000 1 0 0
5.187111 -3.431821 -1.697999 6.447226 -0.584491 1.837309 0.005827 -0.002872 -1233160.000000 1 0 0
2.152911 -2.892821 -7.725699 8.525835 -0.931001 2.704891 -0.003069 -0.003295 255616.000000 1 0 0
-2.839289 14.939579 -8.786099 17.562691 -1.382985 2.094708 0.002842 -0.003662 -795387.000000 1 0 0
-2.338089 6.021579 -8.047399 10.319240 -1.200430 2.465213 0.005313 -0.003910 -460043.000000 1 0 0
2.612211 -3.479521 -11.295699 12.104691 -0.926823 2.773922 0.000006 -0.002594 -1730150.000000 1 0 0
14.633911 2.726479 -2.701399 15.128866 0.184200 1.750318 0.011990 0.004371 658135.000000 1 0 0
-3.449389 13.321179 2.156601 13.928497 -1.317421 1.415337 -0.005734 0.008182 -1550200.000000 1 0 0
7.824011 -4.984921 13.969501 16.769363 -0.567275 0.586221 0.009327 -0.010006 -1131170.000000 1 0 0
-11.556789 7.296879 2.875201 13.966767 -0.563184 1.363454 -0.010671 0.002596 844117.000000 1 0 0
-2.277989 11.933579 3.934201 12.770179 -1.382176 1.257625 0.001153 0.006002 -175625.000000 1 0 0
1.789511 1.469979 0.782501 2.444483 0.687679 1.244952 -0.003933 0.001755 -1684380.000000 1 0 0
-6.893889 8.544779 5.220201 12.156868 -0.891926 1.126964 -0.000737 -0.000876 -623076.000000 1 0 0
-1.090889 9.209379 1.168801 9.347128 -1.452892 1.445424 -0.000817 0.002772 449146.000000 1 0 0
5.011711 13.135579 -8.557799 16.458937 1.206307 2.117587 0.002749 -0.011446 -2695680.000000 1 0 0
9.036411 6.867479 7.217701 13.450435 0.649857 1.004376 -0.006657 0.001789 -1460830.000000 1 0 0
7.232511 -13.758721 2.940701 15.819587 -1.086826 1.383819 -0.000607 0.002094 -123132.000000 1 0 0
4.054211 -13.524221 -1.161899 14.166552 -1.279547 1.652906 -0.007832 0.006276 -2857430.000000 1 0 0
12.049911 -11.825221 -4.632099 17.506929 -0.775987 1.838572 0.022407 -0.007847 -980474.000000 1 0 0
2.845411 -0.014621 -1.991199 3.472960 -0.005138 2.181377 0.001567 0.000019 1577460.000000 1 0 0
-13.589689 -3.041621 -10.609899 17.507172 0.220189 2.221858 0.009711 -0.012680 191360.000000 1 0 0
-6.590689 13.621679 5.099801 15.968572 -1.120162 1.245737 0.001154 0.003482 411813.000000 1 0 0
7.200311 -4.411121 -0.664799 8.470208 -0.549654 1.649364 0.003541 -0.001581 -2546770.000000 1 0 0
11.729911 2.222379 -7.321199 14.004633 0.187243 2.120893 0.013621 0.001329 -1984420.000000 1 0 0
-7.551289 -4.636921 9.803201 13.214604 0.550691 0.734977 0.002767 0.000536 477036.000000 1 0 0
0.914911 2.828279 8.512601 9.016684 1.257934 0.335960 0.001261 -0.002246 -1545390.000000 1 0 0
1.587611 8.206779 -8.675399 12.047169 1.379706 2.374771 0.006566 -0.004245 -588562.000000 1 0 0
-8.510989 -1.989421 -5.492199 10.322741 0.229625 2.131814 0.011732 -0.003613 -1029900.000000 1 0 0
6.652611 -0.457221 7.023501 9.684826 -0.068620 0.759462 0.002027 0.000692 606817.000000 1 0 0
-10.936089 6.577979 7.215401 14.660486 -0.541516 1.056219 -0.002533 -0.000289 798711.000000 1 0 0
-6.006789 11.005179 4.880301 13.454100 -1.071172 1.199593 -0.000892 0.003040 -1005710.000000 1 0 0
6.111611 -1.292521 -6.973999 9.362642 -0.208415 2.411144 0.000169 -0.000684 -537816.000000 1 0 0
4.464511 -5.782621 11.430601 13.565736 -0.913328 0.568688 0.002477 -0.004394 -1221710.000000 1 0 0
-8.974889 -7.349721 2.750601 11.921948 0.686172 1.337981 0.002606 -0.002604 -3330900.000000 1 0 0
-1.269789 12.793279 -9.361199 15.903220 -1.471866 2.200166 0.011904 -0.001445 443629.000000 1 0 0
-4.505589 9.218179 -2.243299 10.502740 -1.116171 1.786046 -0.004414 0.001019 431947.000000 1 0 0
-3.179489 9.733479 -0.146199 10.240661 -1.255068 1.585073 -0.002720 0.003264 -750762.000000 1 0 0
-3.348289 10.840979 -6.390299 13.022050 -1.271236 2.083723 -0.001375 -0.000610 571615.000000 1 0 0
4.834311 -4.894421 0.308001 6.886275 -0.791577 1.526055 -0.001013 -0.001220 -1369560.000000 1 0 0
-2.305589 3.106179 -10.750099 11.424917 -0.932268 2.796176 0.008737 -0.003757 -596074.000000 1 0 0
-3.619489 11.988179 -2.270699 12.726869 -1.277578 1.750174 -0.006165 0.006139 -227201.000000 1 0 0
-0.174589 0.449479 0.004401 0.482216 -1.200308 1.561670 -0.004593 -0.000381 -1823770.000000 1 0 0
-4.855689 -1.728621 0.133001 5.155922 0.342009 1.544998 -0.002078 -0.002101 93258.100000 1 0 0
2.382711 2.472079 -2.425799 4.203925 0.803804 2.185886 -0.001109 0.001242 907630.000000 1 0 0
6.037911 -9.604321 8.455001 14.148724 -1.009565 0.930316 -0.008013 0.003363 -59817.000000 1 0 0
-4.191389 -5.578021 6.545401 9.566835 0.926393 0.817323 0.005972 -0.003058 -4076.300000 1 0 0
-6.281089 5.317879 -12.187299 14.705855 -0.702546 2.547645 -0.001948 -0.003059 1111500.000000 1 0 0
-12.933589 3.092979 8.027001 15.533093 -0.234735 1.027725 -0.004104 0.001000 553958.000000 1 0 0
4.676311 -7.467721 -4.953699 10.108110 -1.011332 2.082968 -0.000387 -0.006641 -639555.000000 1 0 0
-6.037489 2.394679 -0.975899 6.567963 -0.377602 1.719933 0.002593 -0.003287 -893468.000000 1 0 0
-6.895389 -2.618721 -14.668699 16.418734 0.362954 2.675681 0.000601 0.000881 51229.600000 1 0 0
2.744311 -6.026921 0.940801 6.688806 -1.143509 1.429675 -0.003840 -0.001020 -868896.000000 1 0 0
4.881711 -7.877721 12.994101 15.960459 -1.016028 0.619544 0.004601 -0.004362 -87330.700000 1 0 0
-9.987989 -1.791221 7.982001 12.910489 0.177451 0.904273 0.000287 0.003559 -147313.000000 1 0 0
-4.568389 13.184979 -0.138999 13.954683 -1.237257 1.580757 -0.005904 0.009606 196504.000000 1 0 0
6.777211 2.186679 -4.562499 8.457455 0.312107 2.140598 -0.000034 0.002923 -1318950.000000 1 0 0
5.028111 4.507279 -0.027599 6.752646 0.730831 1.574884 -0.002455 0.001916 -1063460.000000 1 0 0
-5.783789 12.241879 1.906001 13.672917 -1.129423 1.430941 -0.005703 0.007199 -1266970.000000 1 0 0
6.471611 -7.258721 6.534201 11.716081 -0.842662 0.979169 -0.004932 -0.001852 -1529560.000000 1 0 0
-0.340589 4.964579 7.685301 9.155703 -1.502300 0.574617 0.000111 -0.001435 -294897.000000 1 0 0
-5.863589 -3.369821 -1.510299 6.929529 0.521611 1.790511 0.002738 -0.004583 -597844.000000 1 0 0
2.308611 -6.555021 -5.180499 8.668077 -1.232172 2.211366 -0.000193 -0.003151 -1081010.000000 1 0 0
-14.405689 -4.756721 -3.819099 15.644034 0.318926 1.817414 -0.001403 -0.004143 -448306.000000 1 0 0
-12.465789 -5.082121 -6.301999 14.864018 0.387114 2.008628 0.008120 -0.008495 -1547580.000000 1 0 0
-14.748489 -3.743921 -1.236399 15.266419 0.248600 1.651873 -0.005793 -0.003137 495251.000000 1 0 0
11.871011 2.862579 8.756301 15.026246 0.236623 0.948708 0.006320 -0.002517 -1140320.000000 1 0 0
8.790111 -6.623121 7.685701 13.423926 -0.645721 0.961199 0.002998 -0.004436 202625.000000 1 0 0
-8.852289 -1.620421 -9.706799 13.236719 0.181047 2.393994 0.011642 -0.005862 153469.000000 1 0 0
-8.755589 5.160979 -3.860999 10.872137 -0.532626 1.933847 0.001233 -0.003952 -892167.000000 1 0 0
-4.056889 -6.186421 3.993501 8.407033 0.990373 1.075811 0.007054 -0.000060 -1530260.000000 1 0 0
-0.130189 -9.265721 3.510801 9.909403 1.556747 1.208642 0.000808 -0.002757 671692.000000 1 0 0
7.798711 -10.356521 3.299601 13.377772 -0.925363 1.321576 -0.005663 -0.001545 613662.000000 1 0 0
-0.096489 6.524279 9.663501 11.660136 -1.556008 0.593901 -0.000724 -0.001672 1058050.000000 1 0 0
0.062211 3.504779 -9.705199 10.318829 1.553048 2.794992 0.008299 -0.002915 -679422.000000 1 0 0
4.397311 -3.082921 10.987701 12.229894 -0.611459 0.454616 0.002277 -0.002890 -1962390.000000 1 0 0
8.437011 -9.196221 1.187601 12.536508 -0.828427 1.475923 0.000003 -0.002903 -804920.000000 1 0 0
-0.254589 -0.560821 11.338701 11.355416 1.144656 0.054265 0.000233 0.000205 -3078640.000000 1 0 0
10.996411 5.937979 11.431001 16.936600 0.495127 0.829928 -0.002304 0.002162 56721.600000 1 0 0
-6.374489 -2.623421 -11.979099 13.820827 0.390423 2.619430 0.008092 -0.002027 247709.000000 1 0 0
-1.752589 2.908379 8.436601 9.094310 -1.028467 0.382648 0.000768 -0.002984 -777807.000000 1 0 0
-1.782889 13.532079 -6.863199 15.277413 -1.439798 2.036709 0.002777 -0.000379 572047.000000 1 0 0
7.693311 3.024079 9.778301 12.804189 0.374526 0.701802 0.000417 -0.000514 318063.000000 1 0 0
6.573311 8.519279 -7.922799 13.362533 0.913626 2.205466 0.005715 -0.003072 586388.000000 1 0 0
6.532111 -3.035421 -3.946999 8.213468 -0.435005 2.072080 0.006646 -0.002524 -2597340.000000 1 0 0
2.074311 8.088179 1.037801 8.414181 1.319745 1.447142 -0.001830 0.001045 510269.000000 1 0 0
-17.682089 6.263679 6.358101 19.806953 -0.340446 1.244007 0.020758 0.000554 -125692.000000 1 0 0
-14.604189 3.136979 -10.124599 18.045234 -0.211585 2.166471 0.015901 -0.005149 -210767.000000 1 0 0
-18.151989 0.154879 -4.370299 18.671320 -0.008532 1.807053 0.002138 -0.010256 -450561.000000 1 0 0
-12.930789 8.187379 0.111401 15.305257 -0.564452 1.563518 -0.001563 0.006153 -2224230.000000 1 0 0
-12.839689 -3.969821 -12.926999 18.647370 0.299861 2.336764 0.018256 -0.002129 -1066140.000000 1 0 0
-17.369689 -0.572521 -8.598999 19.390118 0.032949 2.030266 0.009503 -0.012989 374422.000000 1 0 0
-16.713389 -2.203921 -1.999999 16.976296 0.131109 1.688882 -0.001616 -0.007212 -1263160.000000 1 0 0
-15.401689 4.100379 1.744501 16.033353 -0.260194 1.461776 0.006718 0.000431 -257865.000000 1 0 0
-13.221989 5.920979 4.515301 15.174549 -0.421034 1.268663 -0.001748 0.000870 1398450.000000 1 0 0
-9.908789 14.228379 2.766101 17.557966 -0.962484 1.412596 0.000119 0.002261 245070.000000 1 0 0
-11.854989 2.540979 -6.353799 13.688247 -0.211144 2.053504 0.000191 -0.000076 -38894.500000 1 0 0
-15.826289 10.584179 3.827301 19.420208 -0.589459 1.372419 0.000662 -0.002532 455599.000000 1 0 0
-12.849689 1.254379 -8.588399 15.506404 -0.097311 2.157791 0.004605 -0.004104 626170.000000 1 0 0
-12.207489 14.316879 3.865501 19.207756 -0.864758 1.368166 0.001573 -0.005088 -179720.000000 1 0 0
-10.284189 11.190079 -1.067499 15.235549 -0.827558 1.640920 -0.005447 -0.000500 251355.000000 1 0 0
-17.037289 5.370179 8.793101 19.910466 -0.305344 1.113379 0.020658 -0.008961 254850.000000 1 0 0
-11.642589 12.569079 -9.141099 19.418839 -0.823646 2.060918 0.013069 -0.011043 -1836050.000000 1 0 0
-17.153589 -0.514821 3.130801 17.444557 0.030003 1.390347 0.007794 -0.005433 350664.000000 1 0 0
-12.851589 14.944579 -0.641199 19.720926 -0.860554 1.603316 0.010651 -0.012842 -198546.000000 1 0 0
-16.603689 4.843979 -10.348399 20.155297 -0.283863 2.109977 0.022071 -0.004751 341774.000000 1 0 0
-11.923989 7.652679 -8.817699 16.688224 -0.570581 2.127486 0.000513 -0.002415 -72710.200000 1 0 0
-14.646989 13.656279 -1.978599 20.123198 -0.750409 1.669280 0.028638 -0.014632 451086.000000 1 0 0
-11.856789 10.662679 -5.425299 16.843694 -0.732422 1.898740 0.012948 -0.004337 1338560.000000 1 0 0
-17.601589 2.968879 -0.584699 17.859789 -0.167098 1.603540 0.004631 -0.005485 -930062.000000 1 0 0
-9.249089 15.290679 0.543701 17.878650 -1.026793 1.540381 -0.000425 -0.003744 107065.000000 1 0 0
-8.143689 13.233779 -3.734999 15.981326 -1.019151 1.806688 -0.008108 0.000655 624947.000000 1 0 0
-17.682789 11.464579 2.143401 21.182818 -0.575212 1.469437 0.035566 0.000261 -48787.400000 1 0 0
-7.924189 15.636379 -7.515499 19.072804 -1.101740 1.975822 0.024411 -0.017755 -65467.800000 1 0 0
-6.293989 15.247679 -5.387599 17.353162 -1.179319 1.886482 -0.002262 -0.003783 -1865160.000000 1 0 0
-17.227789 5.441279 -0.148999 18.067275 -0.305928 1.579043 0.011194 0.004164 728622.000000 1 0 0
-5.426489 12.418579 -12.312799 18.310459 -1.158835 2.308305 -0.008986 -0.001005 -891359.000000 1 0 0
-11.194189 3.772479 -11.375299 16.399356 -0.325050 2.337331 0.007195 -0.005172 590908.000000 1 0 0
-11.759389 11.062579 1.195201 16.189268 -0.754875 1.496902 -0.001036 -0.001500 345995.000000 1 0 0
-12.928089 0.203779 -11.030499 16.995556 -0.015761 2.277095 0.008176 -0.008920 789359.000000 1 0 0
-14.393389 -1.876221 -12.810799 19.359918 0.129622 2.293904 0.032298 -0.011823 217711.000000 1 0 0
-18.708189 -2.327321 -3.630599 19.198802 0.123765 1.761047 0.001015 -0.008616 75309.800000 1 0 0
-18.339189 4.771679 -4.965999 19.589689 -0.254546 1.827094 0.023604 -0.004744 351557.000000 1 0 0
-8.095389 15.584179 -2.442699 17.730446 -1.091701 1.709005 -0.002691 0.000109 -226381.000000 1 0 0
-16.282589 8.903579 -5.479199 19.349885 -0.500395 1.857888 0.035161 -0.001915 234220.000000 1 0 0
-18.189089 1.718479 2.183701 18.400127 -0.094199 1.451837 0.015221 -0.007381 41993.000000 1 0 0
-15.672189 -2.605321 -8.651599 18.090201 0.164732 2.069455 0.001011 -0.008173 -329798.000000 1 0 0
-9.690289 10.531079 -7.156099 16.000471 -0.826954 2.034477 0.000155 -0.005428 322656.000000 1 0 0
-13.871789 12.337379 -7.978199 20.206165 -0.726920 1.976690 0.025661 0.002589 30368.300000 1 0 0
-10.972989 6.523679 -3.791499 13.316919 -0.536382 1.859503 -0.002128 0.000297 -2001380.000000 1 0 0
-13.131389 5.232679 -12.510099 18.876358 -0.379201 2.295267 0.016862 -0.008680 773102.000000 1 0 0
-17.673489 8.980279 2.769501 20.016687 -0.470124 1.431991 0.022021 -0.001806 977470.000000 1 0 0
-13.389489 8.724579 -6.451399 17.234188 -0.577499 1.954478 0.006915 0.000279 932.358000 1 0 0
-15.730089 7.110379 -3.726499 17.660124 -0.424536 1.783407 0.008033 0.006393 -645562.000000 1 0 0
-14.931589 -0.201821 -9.319299 17.602341 0.013516 2.128731 0.009200 -0.008630 -885625.000000 1 0 0
-10.074989 5.828779 -5.999599 13.094856 -0.524490 2.046726 0.000577 -0.000557 360265.000000 1 0 0
-12.661389 12.280979 -0.858199 17.659833 -0.770148 1.619412 0.013063 -0.007220 -741753.000000 1 0 0
-10.667889 3.519279 -13.919099 17.886601 -0.318653 2.462568 0.003740 -0.001604 556634.000000 1 0 0
-10.845489 6.375579 -11.744399 17.210565 -0.531442 2.321830 -0.005882 -0.008241 -863516.000000 1 0 0
-5.587989 11.458979 -14.757199 19.501506 -1.117076 2.429079 -0.007453 -0.014694 -396905.000000 1 0 0
-15.581689 13.185779 3.375101 20.689251 -0.702305 1.406931 0.006256 -0.010852 101596.000000 1 0 0
-14.881289 11.279079 -3.277299 18.958140 -0.648561 1.744539 0.024021 0.000951 930640.000000 1 0 0
-18.203789 7.781079 -4.282399 20.254927 -0.403938 1.783829 0.031318 0.000631 -842625.000000 1 0 0
-4.036689 16.293779 -10.570199 19.837117 -1.327942 2.132761 0.006514 -0.003502 -18806.000000 1 0 0
-15.750989 4.484779 -4.290399 16.929690 -0.277389 1.827015 0.007603 0.001537 1215490.000000 1 0 0
-18.921489 -1.708421 -6.097399 19.952938 0.090046 1.881353 0.023546 -0.011007 726163.000000 1 0 0
-10.744789 8.636079 -5.832099 14.968157 -0.677021 1.971030 -0.000110 -0.001964 298891.000000 1 0 0
-11.160289 13.631779 -6.833399 18.896370 -0.884759 1.940807 0.012123 -0.003921 320128.000000 1 0 0
-9.453789 10.530279 -4.467299 14.839732 -0.839214 1.876576 -0.009583 0.000669 -346319.000000 1 0 0
-11.026789 6.353679 -0.163799 12.727378 -0.522739 1.583667 -0.006937 0.004329 134142.000000 1 0 0
-14.529489 9.408779 -1.521999 17.376641 -0.574661 1.658498 0.015000 0.002421 -95513.500000 1 0 0
-18.763289 3.255479 4.714301 19.618455 -0.171792 1.328122 0.023645 -0.006751 458189.000000 1 0 0
-14.558789 13.401279 0.545101 19.795195 -0.744023 1.543256 0.005641 -0.002381 -181447.000000 1 0 0
-16.934489 2.680979 -9.054499 19.389392 -0.157012 2.056671 0.010933 -0.005925 9904.140000 1 0 0
-9.056689 8.456279 -8.916799 15.265699 -0.751128 2.194576 0.001555 -0.002693 -2131770.000000 1 0 0
-17.660389 4.701479 -2.520599 18.448487 -0.260182 1.707854 0.013807 -0.000141 785137.000000 1 0 0
-13.519789 6.031679 -4.394199 15.442630 -0.419637 1.859333 -0.000785 0.006176 -1312070.000000 1 0 0
-12.136389 9.610079 3.269401 15.821964 -0.669746 1.362660 -0.011110 0.003737 371740.000000 1 0 0
-17.406689 2.517879 -3.940799 18.023940 -0.143654 1.791219 0.004343 -0.004287 841800.000000 1 0 0
-11.336689 1.505879 -12.567699 16.992211 -0.132059 2.403295 0.008974 -0.004337 224094.000000 1 0 0
-11.028289 11.995379 3.510901 16.668494 -0.827378 1.358576 -0.008553 0.000166 129693.000000 1 0 0
-16.024689 13.453779 -4.187999 21.338560 -0.698405 1.768343 0.026554 -0.000693 950519.000000 1 0 0
-11.086889 4.083079 -4.405699 12.609553 -0.352866 1.927720 -0.004243 -0.000418 199115.000000 1 0 0
-10.876489 15.119279 -8.879699 20.633460 -0.947182 2.015682 0.011725 -0.010017 144448.000000 1 0 0
-15.351389 7.256179 -0.339199 16.983296 -0.441548 1.590770 0.008620 0.003884 -191796.000000 1 0 0
-12.632389 8.440179 -3.958099 15.699695 -0.589021 1.825660 0.002754 0.002063 913483.000000 1 0 0
-19.098089 2.061479 -5.881699 20.089328 -0.107525 1.867926 0.010187 -0.010233 -302222.000000 1 0 0
-12.639889 10.143779 -8.824899 18.453777 -0.676276 2.069419 0.011882 -0.006437 757209.000000 1 0 0
-16.349789 11.176079 -1.129299 19.836725 -0.599608 1.627757 0.006266 0.002210 300242.000000 1 0 0
-10.788189 6.571779 -14.407599 19.161216 -0.547131 2.421758 0.006119 -0.012309 -172293.000000 1 0 0
-13.387089 13.222679 -4.195299 19.278328 -0.779220 1.790169 0.019555 -0.002362 511496.000000 1 0 0
-17.898489 7.857879 -0.134399 19.547896 -0.413689 1.577672 0.017468 0.001725 -64112.700000 1 0 0
-12.678889 6.665179 -2.001499 14.463223 -0.483989 1.709627 -0.005201 0.007756 306561.000000 1 0 0
-13.716289 8.544179 -10.543899 19.295424 -0.557104 2.148911 0.008016 -0.001882 204038.000000 1 0 0
-14.999589 1.373179 -0.920799 15.090433 -0.091293 1.631853 0.003219 -0.000167 -745074.000000 1 0 0
-13.347589 2.753779 -2.307199 13.822612 -0.203458 1.738496 -0.007409 0.000853 -686978.000000 1 0 0
-11.202489 9.232979 -10.857799 18.128305 -0.689318 2.212975 0.007753 -0.007444 -775789.000000 1 0 0
-15.457989 4.465979 -7.980999 17.960811 -0.281252 2.031252 0.019049 -0.001828 649784.000000 1 0 0
-18.298089 10.709379 4.626901 21.700670 -0.529520 1.355932 0.034532 -0.005631 407839.000000 1 0 0
-15.360289 6.235879 -6.130499 17.675058 -0.385646 1.925001 0.013311 0.005537 651208.000000 1 0 0
-7.631389 11.305879 -13.049499 18.877246 -0.977051 2.334058 -0.011352 -0.004806 -843729.000000 1 0 0
-16.763889 9.363679 -2.935299 19.424789 -0.509393 1.722488 0.021356 0.003438 561082.000000 1 0 0
-20.601289 -0.611121 -4.400999 21.074994 0.029656 1.781170 0.015192 -0.016915 1013690.000000 1 0 0
-15.542989 4.334379 4.222801 16.679430 -0.271955 1.314836 0.009506 0.000948 1202020.000000 1 0 0
-6.830989 12.470479 -9.430799 17.062099 -1.069665 2.156437 -0.001924 -0.010949 610564.000000 1 0 0
-17.469389 1.258379 5.802201 18.450707 -0.071909 1.250898 0.030759 -0.007875 -60212.600000 1 0 0
-10.320689 14.475979 -3.164799 18.057866 -0.951430 1.746965 0.016999 -0.012684 656575.000000 1 0 0
-9.971089 8.549379 -12.962899 18.454031 -0.708784 2.349620 -0.009213 -0.003792 -63139.000000 1 0 0
-13.556189 11.742479 2.838301 18.157974 -0.713829 1.413841 -0.004872 -0.002113 -776820.000000 1 0 0
-16.516989 6.861479 1.908901 17.987071 -0.393728 1.464470 0.001359 0.000524 680982.000000 1 0 0
-9.202689 13.185079 -8.401499 18.141692 -0.961439 2.052291 0.013749 -0.014890 -1236790.000000 1 0 0
-5.474889 9.929379 -12.801999 17.101408 -1.066892 2.416734 -0.005359 -0.003467 -1260340.000000 1 0 0
-15.892589 1.845979 3.262701 16.328724 -0.115635 1.369629 0.007104 0.000655 -340986.000000 1 0 0
-18.546889 -4.876021 4.713901 19.748001 0.257085 1.329767 0.014831 -0.004738 -289768.000000 1 0 0
-5.288289 14.489779 -9.188299 17.953956 -1.220851 2.108040 0.001524 -0.003033 -457499.000000 1 0 0
-15.433989 -0.730721 -6.820799 16.889798 0.047310 1.986508 0.000956 -0.003902 684680.000000 1 0 0
-8.947489 10.921479 -9.583299 17.063877 -0.884424 2.167131 -0.001059 -0.011602 369282.000000 1 0 0
-16.636389 1.415779 -6.112699 17.780297 -0.084897 1.921747 -0.004417 -0.007336 -1630260.000000 1 0 0
-11.009489 8.656179 -1.426599 14.077410 -0.666299 1.672310 -0.001427 0.001679 -1862330.000000 1 0 0
-10.646389 11.092979 -12.731099 19.961980 -0.805938 2.262392 -0.000461 -0.006594 -414297.000000 1 0 0
-13.640489 11.796479 -10.599699 20.918257 -0.713031 2.102172 0.015901 -0.004668 43220.400000 1 0 0
-13.196189 5.711979 -7.592599 16.260802 -0.408501 2.056608 0.003163 0.005121 -212805.000000 1 0 0
-8.832889 15.421679 -5.074099 18.482278 -1.050649 1.848906 0.009623 -0.011704 316785.000000 1 0 0
-8.652589 6.247779 -12.963299 16.791342 -0.625385 2.452814 -0.002054 -0.004681 -749822.000000 1 0 0
-16.441189 7.542179 4.423501 18.621614 -0.430096 1.330957 0.012572 0.008756 168089.000000 1 0 0
-12.589689 5.472279 -10.054399 17.015788 -0.410027 2.202954 0.003121 -0.002727 134462.000000 1 0 0
-12.392289 9.247279 -13.117899 20.277087 -0.641073 2.274351 0.014776 -0.011412 -2922730.000000 1 0 0
-10.801089 5.240479 -8.427199 14.667782 -0.451722 2.182836 -0.004083 0.000099 -2050990.000000 1 0 0
-17.671789 -4.474021 -2.633799 18.418629 0.247963 1.714285 -0.004394 -0.002295 341265.000000 1 0 0
-8.865989 13.124679 -10.958099 19.259878 -0.976689 2.176037 0.015128 -0.012805 -151515.000000 1 0 0
-15.139089 6.146279 6.213901 17.480884 -0.385657 1.207381 0.003848 -0.000867 -714954.000000 1 0 0
-16.378789 -3.060921 -4.446599 17.245469 0.184752 1.831584 0.003186 -0.005162 -645169.000000 1 0 0
-11.195089 -1.171021 -12.531199 16.844354 0.104222 2.409744 0.010717 -0.003085 472191.000000 1 0 0
-15.301589 6.988879 -8.542299 18.866741 -0.428446 2.040666 0.010988 0.004248 -156799.000000 1 0 0
-14.814989 9.436379 1.066801 17.597364 -0.567145 1.510136 0.004304 0.000878 -94592.300000 1 0 0
-19.407989 5.218679 7.935201 21.607222 -0.262680 1.194748 0.042495 -0.018267 -978000.000000 1 0 0
-16.242089 0.619179 0.987201 16.283839 -0.038103 1.510135 0.000620 -0.004265 -544101.000000 1 0 0
-17.512089 3.622379 7.006101 19.206258 -0.203974 1.197397 0.022084 -0.006333 495575.000000 1 0 0
-15.404389 4.059279 -1.388799 15.990676 -0.257657 1.657756 0.006534 -0.000716 -1212690.000000 1 0 0
-10.657989 13.276879 0.355101 17.029220 -0.894382 1.549942 -0.001260 -0.008298 -1458000.000000 1 0 0
-13.469089 3.351479 0.164001 13.880766 -0.243875 1.558981 -0.002026 0.000227 -193561.000000 1 0 0
-15.043189 0.258979 -4.355899 15.663284 -0.017214 1.852608 -0.002365 -0.004675 -717183.000000 1 0 0
-18.754289 6.731579 3.318601 20.200263 -0.344613 1.405763 0.017534 0.003944 701082.000000 1 0 0
-14.105889 1.447079 -6.357999 15.540087 -0.102229 1.992303 0.002501 -0.002969 -1198840.000000 1 0 0
-14.237189 12.088679 5.287101 19.411006 -0.703967 1.294934 -0.001316 -0.007516 80042.000000 1 0 0
17.792911 5.605379 6.366401 19.711393 0.305192 1.241919 0.027596 -0.008802 549567.000000 1 0 0
18.655811 7.424879 -0.284199 20.081058 0.378775 1.584949 0.020471 0.004915 -350091.000000 1 0 0
16.529911 5.315379 8.593101 19.373502 0.311119 1.111241 0.024118 -0.003327 430141.000000 1 0 0
11.603811 12.338679 10.926001 20.156114 0.816082 0.997899 0.012623 -0.003187 328300.000000 1 0 0
-2.296389 16.318179 -0.597599 16.489800 -1.430989 1.607045 -0.007937 0.003415 57772.900000 1 0 0
15.011511 12.523679 3.295801 19.825496 0.695292 1.403780 0.029907 -0.007431 197726.000000 1 0 0
13.462411 11.860079 6.660001 19.137753 0.722205 1.215356 0.015095 0.000093 914432.000000 1 0 0
-0.590989 15.860279 8.626501 18.064170 -1.533551 1.072935 0.001379 0.002716 355731.000000 1 0 0
0.637711 12.957979 9.244301 15.930254 1.521622 0.951701 -0.001954 0.003860 -532647.000000 1 0 0
0.912311 15.590879 -3.977599 16.116113 1.512347 1.820182 0.000430 -0.001044 -976036.000000 1 0 0
5.243811 10.190779 13.690501 17.854393 1.095565 0.696977 -0.003031 0.004577 -203285.000000 1 0 0
-1.251089 16.410879 -2.760099 16.688329 -1.494708 1.736951 -0.006274 -0.002437 -922390.000000 1 0 0
8.540911 10.065979 3.290201 13.605018 0.867178 1.326537 -0.000870 0.002526 600404.000000 1 0 0
12.446711 13.762079 -5.028599 19.225042 0.835544 1.835440 0.026385 -0.006065 -29310.500000 1 0 0
2.424411 11.608279 7.774101 14.179794 1.364904 0.990524 -0.001785 0.007767 683839.000000 1 0 0
-0.271989 14.945779 -8.542399 17.216935 -1.552600 2.089970 0.009761 -0.006409 -1397030.000000 1 0 0
2.390311 15.998979 0.202201 16.177818 1.422489 1.558297 0.000370 -0.003016 -614167.000000 1 0 0
1.939811 13.395779 5.296301 14.534805 1.426988 1.197821 -0.000848 0.005597 497127.000000 1 0 0
17.584711 9.194179 -1.900899 19.934102 0.481761 1.666301 0.004081 0.005058 352750.000000 1 0 0
-7.334789 15.001279 7.230701 18.196718 -1.116032 1.162155 0.007715 0.001145 427226.000000 1 0 0
8.544911 15.909079 -0.140799 18.059184 1.077904 1.578593 0.004642 -0.005619 -975179.000000 1 0 0
15.600011 10.317279 2.133601 18.824421 0.584322 1.457210 0.017052 -0.002608 -283423.000000 1 0 0
14.069711 7.601079 8.725601 18.217280 0.495322 1.071311 0.006472 -0.004299 -691597.000000 1 0 0
4.153711 18.749879 -1.925999 19.300797 1.352785 1.670751 0.007626 -0.010120 347005.000000 1 0 0
-0.359889 17.673779 -4.729099 18.299081 -1.550436 1.832197 0.007065 -0.002679 134098.000000 1 0 0
1.456711 13.773379 -0.718299 13.868811 1.465425 1.622612 -0.001570 -0.002788 -1126570.000000 1 0 0
10.177211 14.679079 4.190901 18.347061 0.964572 1.340338 0.013350 -0.009450 -720509.000000 1 0 0
-1.563589 15.332679 -5.179499 16.259245 -1.469170 1.895003 -0.000081 -0.001057 719625.000000 1 0 0
15.169311 8.783279 -6.109899 18.562997 0.524847 1.906193 0.019124 0.000957 325308.000000 1 0 0
-2.291789 18.574779 0.726401 18.729719 -1.448035 1.532003 -0.000409 -0.002912 176497.000000 1 0 0
-3.734989 19.273279 3.359501 19.917220 -1.379378 1.401313 0.005808 -0.006295 220863.000000 1 0 0
1.808611 17.758479 -2.736799 18.058923 1.469301 1.722931 -0.001488 -0.003520 -317349.000000 1 0 0
2.982111 12.137779 3.206301 12.903450 1.329880 1.319681 -0.002966 0.003333 1206060.000000 1 0 0
-2.498389 16.229379 1.879201 16.527737 -1.418053 1.456850 -0.004131 0.003748 -1128570.000000 1 0 0
11.775411 12.833779 -2.717299 17.628100 0.828379 1.725559 0.013336 0.001063 302468.000000 1 0 0
7.225711 11.632879 4.733201 14.489236 1.014974 1.238018 -0.004162 0.003446 -661097.000000 1 0 0
7.010411 15.660479 1.837201 17.256065 1.149899 1.464127 0.001943 -0.008558 -1746030.000000 1 0 0
5.474611 12.227379 10.335301 16.920361 1.149829 0.913700 -0.004905 0.012573 316025.000000 1 0 0
-1.252689 14.194479 3.122801 14.587815 -1.482773 1.355058 -0.002298 0.006848 -1002990.000000 1 0 0
4.569611 16.136279 1.478301 16.835861 1.294833 1.482876 -0.002373 -0.012622 -4807690.000000 1 0 0
7.459611 13.123679 11.966901 19.263527 1.053930 0.900497 0.007226 0.006897 357778.000000 1 0 0
0.620911 17.393779 -9.378099 19.770630 1.535114 2.065016 0.010193 -0.004221 543027.000000 1 0 0
9.562911 9.559379 15.568601 20.620677 0.785213 0.715143 -0.003509 0.002594 -422122.000000 1 0 0
13.580711 7.311779 -0.177399 15.424957 0.493889 1.582297 0.001290 0.002027 621915.000000 1 0 0
12.421611 13.413179 -0.234699 18.282912 0.823760 1.583634 0.024735 -0.005935 629778.000000 1 0 0
9.358311 12.323579 3.485001 15.861709 0.921317 1.349278 0.001937 0.002243 647358.000000 1 0 0
-0.540489 12.935179 0.863501 12.975231 -1.529036 1.504197 -0.001560 0.002475 -657637.000000 1 0 0
16.174011 7.410479 -0.725799 17.805634 0.429629 1.611570 0.010365 0.006380 -996377.000000 1 0 0
-4.116589 18.607679 -2.434899 19.212515 -1.353072 1.697873 -0.001471 -0.001673 -112346.000000 1 0 0
11.490711 9.179479 -3.203399 15.051945 0.674046 1.785260 0.011707 -0.000406 327543.000000 1 0 0
14.619311 9.821379 7.622301 19.190706 0.591554 1.162347 0.012403 -0.008779 -479819.000000 1 0 0
4.485111 13.701779 4.706301 15.165890 1.254451 1.255265 0.000394 0.002740 -1207440.000000 1 0 0
2.225011 15.977079 5.595201 17.074074 1.432424 1.236927 0.005908 0.003406 42003.900000 1 0 0
6.202211 18.218679 5.410301 19.991474 1.242671 1.296749 0.009453 -0.025479 -396531.000000 1 0 0
10.742211 17.129579 -0.647299 20.229596 1.010678 1.602799 0.029914 -0.011379 -454807.000000 1 0 0
9.953211 13.626179 -4.382699 17.434082 0.939927 1.824909 0.020169 -0.004518 -246339.000000 1 0 0
16.529311 7.825079 2.376701 18.441765 0.442147 1.441561 0.005209 -0.002227 -143100.000000 1 0 0
4.066911 14.035479 -0.495199 14.621206 1.288761 1.604671 0.000343 -0.003881 913176.000000 1 0 0
5.426911 13.100779 -2.470399 14.393910 1.178072 1.743278 0.001148 -0.004219 -388128.000000 1 0 0
-6.029189 17.103579 -3.147999 18.406342 -1.231887 1.742669 -0.003745 0.001942 -1050420.000000 1 0 0
18.139011 9.868579 2.802201 20.839024 0.498266 1.435919 0.025628 -0.004042 821545.000000 1 0 0
7.832911 12.727479 9.410301 17.660605 1.019106 1.008842 0.002146 0.002974 829258.000000 1 0 0
-2.523589 15.767279 6.768801 17.343363 -1.412090 1.169859 0.001968 0.006700 -123212.000000 1 0 0
10.949811 16.129479 6.296001 20.486534 0.974393 1.258417 0.017851 -0.003134 -155659.000000 1 0 0
13.509511 11.746179 1.259701 17.946210 0.715692 1.500545 0.022896 -0.002062 -60274.000000 1 0 0
17.487111 7.796779 -5.483599 19.916292 0.419405 1.849732 0.003642 0.011307 -895017.000000 1 0 0
9.466411 9.194279 8.028101 15.446621 0.770816 1.024259 -0.000697 0.003628 -819606.000000 1 0 0
-2.169189 14.118679 -1.926699 14.413696 -1.418349 1.704869 -0.006285 0.005378 515731.000000 1 0 0
10.918111 11.587579 0.833901 15.942789 0.815136 1.518467 0.007430 0.002688 -678448.000000 1 0 0
11.755911 9.624779 -0.632699 15.206516 0.686051 1.612415 0.006234 0.002590 -1590330.000000 1 0 0
-0.186689 16.242879 11.131401 19.691979 -1.559303 0.970029 0.007545 0.001580 563538.000000 1 0 0
1.997011 20.151579 -1.722399 20.323406 1.472019 1.655648 0.007594 -0.015456 -383383.000000 1 0 0
9.172111 14.252579 1.821601 17.046462 0.998975 1.463731 0.007493 -0.002640 -227262.000000 1 0 0
8.476511 11.683379 -5.102499 15.309738 0.943148 1.910581 0.010001 -0.003621 -1192740.000000 1 0 0
10.558211 10.077779 10.260401 17.841336 0.762121 0.958080 0.001831 0.000340 348587.000000 1 0 0
-5.087189 15.781379 5.854801 17.584371 -1.258960 1.231361 -0.007000 0.006370 1105600.000000 1 0 0
14.446811 9.046379 -1.865899 17.147271 0.559451 1.679828 0.014375 0.003046 -251565.000000 1 0 0
12.050611 9.604979 6.869401 16.871915 0.672942 1.151465 0.001166 -0.002199 -1058290.000000 1 0 0
3.180111 12.939079 9.735301 16.501786 1.329797 0.939794 -0.002116 0.005565 97051.100000 1 0 0
8.479811 12.654479 -2.571599 15.448500 0.980418 1.738038 0.005265 -0.000798 -610347.000000 1 0 0
9.304811 16.826679 2.198501 19.353295 1.065668 1.456952 0.008716 -0.017426 -112076.000000 1 0 0
9.673111 14.355579 -7.509299 18.869057 0.977856 1.980098 0.024721 -0.009053 295043.000000 1 0 0
6.397811 11.378179 7.281901 14.947275 1.058568 1.061947 -0.002801 0.005805 -385106.000000 1 0 0
5.534811 16.967879 -5.713599 18.740018 1.255485 1.880617 0.007014 -0.004778 -1703540.000000 1 0 0
-3.877489 17.310579 -4.794899 18.376129 -1.350438 1.834783 -0.007425 -0.001836 196050.000000 1 0 0
-0.032089 18.556779 -0.562099 18.565318 -1.569067 1.601078 -0.001507 -0.005103 -543074.000000 1 0 0
6.544411 15.626279 -2.775599 17.167232 1.174182 1.733189 0.001623 -0.003857 755477.000000 1 0 0
-0.730589 20.725279 0.693201 20.749734 -1.535560 1.537382 0.005487 -0.006243 -81522.400000 1 0 0
-1.318189 18.870479 4.340801 19.408121 -1.501055 1.345229 0.004428 -0.002861 896926.000000 1 0 0
7.224511 13.817979 -4.310999 16.177602 1.089049 1.840535 0.003892 -0.001388 -646377.000000 1 0 0
-1.180389 11.939479 7.716401 14.264898 -1.472252 0.999246 0.001694 0.005792 447351.000000 1 0 0
7.627611 10.731279 11.058801 17.194123 0.952870 0.872161 -0.001007 0.003844 455700.000000 1 0 0
1.588011 16.094579 -7.299799 17.743853 1.472447 1.994785 0.006590 -0.007101 547689.000000 1 0 0
8.873011 7.235379 14.657801 18.599252 0.684083 0.663104 -0.004557 -0.002624 -489933.000000 1 0 0
11.390111 11.387079 -4.849699 16.820219 0.785265 1.863274 0.020974 -0.003623 -148845.000000 1 0 0
-3.216389 16.982879 4.544401 17.872183 -1.383623 1.313701 -0.001881 0.004489 -678591.000000 1 0 0
3.993511 15.367679 -6.845799 17.290999 1.316555 1.977862 0.010644 -0.011160 -1322530.000000 1 0 0
-4.550389 13.866379 9.738101 17.544603 -1.253709 0.982375 0.010389 -0.000706 348045.000000 1 0 0
6.206811 17.820179 0.386401 18.874125 1.235635 1.550322 0.001752 -0.017406 -188253.000000 1 0 0
9.815311 10.793579 -1.968899 14.721353 0.832831 1.704943 0.009565 0.001366 -909560.000000 1 0 0
7.300211 18.094879 -2.609899 19.685764 1.187327 1.703766 0.011665 -0.007239 214352.000000 1 0 0
3.570611 10.319979 10.558501 15.189903 1.237698 0.802237 -0.004864 0.009285 855126.000000 1 0 0
0.070511 18.684979 2.082001 18.800748 1.567023 1.459828 0.002652 -0.005270 188557.000000 1 0 0
-0.813489 17.176879 -7.239899 18.658056 -1.523472 1.969290 0.011829 -0.006029 -529061.000000 1 0 0
10.026011 8.991979 13.086201 18.778318 0.731080 0.799761 -0.003026 0.008019 -549294.000000 1 0 0
3.730911 11.483179 5.579401 13.300857 1.256653 1.137927 -0.006215 0.004335 643682.000000 1 0 0
12.983311 13.934279 8.160401 20.720102 0.820712 1.165991 0.016561 -0.008268 70377.500000 1 0 0
-0.515189 17.370379 6.787301 18.656445 -1.541146 1.198447 0.006587 0.001121 -377703.000000 1 0 0
11.997211 13.834879 5.723101 19.185693 0.856417 1.267885 0.015798 -0.000236 -449768.000000 1 0 0
4.951111 14.614679 -4.479199 16.067531 1.244155 1.853313 0.004594 -0.003327 -1327830.000000 1 0 0
3.836211 17.605679 4.602401 18.597272 1.356254 1.320721 0.008168 -0.009175 -1422490.000000 1 0 0
6.970811 11.677379 2.109501 13.762390 1.032623 1.416910 0.000987 0.000552 855138.000000 1 0 0
6.290611 8.683579 11.750701 15.907712 0.943864 0.739687 -0.006978 0.003617 564926.000000 1 0 0
-5.454189 14.911079 1.574401 15.955162 -1.220132 1.471959 -0.003754 0.008025 97740.400000 1 0 0
6.809911 13.710179 5.894801 16.404041 1.109788 1.203224 -0.000916 0.002231 -490145.000000 1 0 0
5.850611 15.768979 4.761001 17.480202 1.215519 1.294946 -0.000395 -0.010443 773416.000000 1 0 0
1.320111 18.025179 4.242301 18.564668 1.497690 1.340245 0.012554 -0.008294 330469.000000 1 0 0
7.454111 18.075379 -7.086299 20.796604 1.179654 1.918504 0.007308 -0.006066 234960.000000 1 0 0
-2.238389 19.039979 -5.963299 20.077154 -1.453771 1.872366 0.004871 0.000337 -39507.600000 1 0 0
13.515011 9.990979 -4.426299 17.380084 0.636586 1.828310 0.012807 -0.001789 -1104150.000000 1 0 0
-1.714989 18.013279 9.807101 20.581512 -1.475876 1.074126 0.018678 -0.004228 -374151.000000 1 0 0
3.403211 11.840979 -1.551699 12.417665 1.290930 1.696083 0.002086 -0.003777 -691677.000000 1 0 0
4.296111 14.034879 -10.911999 18.289509 1.273750 2.210087 0.003941 -0.014360 -299951.000000 1 0 0
11.588911 13.469179 2.279501 17.914178 0.860294 1.443205 0.020609 -0.002486 1538390.000000 1 0 0
16.032711 6.544179 -7.203599 18.755424 0.387535 1.965008 0.008457 0.010308 311320.000000 1 0 0
2.470311 16.104579 2.890601 16.547371 1.418591 1.395209 0.000655 -0.002666 -171433.000000 1 0 0
13.377811 10.618879 3.476301 17.430177 0.670929 1.370008 0.009685 -0.000109 -333385.000000 1 0 0
-4.815589 19.585779 -5.775099 20.979619 -1.329707 1.849669 -0.008209 -0.009446 578288.000000 1 0 0
5.471211 11.962479 0.002101 13.154279 1.141835 1.570637 0.000889 -0.002128 -971479.000000 1 0 0
4.667111 15.558179 9.656201 18.896589 1.279360 1.034446 0.004672 0.007412 52661.700000 1 0 0
7.628311 9.494379 13.896001 18.477911 0.893952 0.719655 -0.002938 0.000690 -814697.000000 1 0 0
-5.051389 13.809979 7.251301 16.395530 -1.220135 1.112665 0.002503 0.009004 -1188370.000000 1 0 0
-4.503289 17.249079 0.670301 17.839833 -1.315422 1.533214 -0.001958 0.005653 -1848740.000000 1 0 0
-0.618089 16.583879 3.490701 16.958540 -1.533543 1.363477 0.002832 0.000923 -2095070.000000 1 0 0
7.875711 16.841479 -4.812099 19.204649 1.133372 1.824065 0.007618 -0.007379 325681.000000 1 0 0
3.154111 16.571179 -4.684099 17.506946 1.382709 1.841653 0.004347 -0.002029 190593.000000 1 0 0
9.390311 14.499479 8.224001 19.132355 0.996088 1.126472 0.006952 0.003471 197416.000000 1 0 0
12.691211 10.857679 9.019101 18.981576 0.707694 1.075662 0.010646 -0.008747 -20779.700000 1 0 0
3.568811 12.244479 12.247001 17.681988 1.287190 0.805673 -0.002537 0.007257 603948.000000 1 0 0
-3.387889 19.217179 5.908401 20.388402 -1.396295 1.276787 0.014940 -0.002103 100242.000000 1 0 0
-2.694689 15.738679 10.230101 18.963711 -1.401226 1.001005 0.013332 -0.002505 580669.000000 1 0 0
2.133911 14.297279 7.629301 16.345397 1.422637 1.085178 0.003402 0.003760 -481943.000000 1 0 0
4.439211 17.364779 7.861101 19.571383 1.320512 1.157464 0.018160 -0.005360 -309504.000000 1 0 0
-2.051489 13.418279 9.354801 16.485482 -1.419083 0.967382 0.011739 -0.000185 -766074.000000 1 0 0
5.812711 17.683079 2.970101 18.849413 1.253207 1.412567 -0.003232 -0.018347 235178.000000 1 0 0
7.313911 15.436179 -6.859099 18.406959 1.128314 1.952645 0.007392 -0.005062 -196530.000000 1 0 0
11.015111 7.631979 9.473401 16.411127 0.605921 0.955434 0.000216 -0.000201 593374.000000 1 0 0
9.075411 16.287479 -2.584899 18.823569 1.062441 1.708554 0.012456 -0.009476 -373920.000000 1 0 0
14.729611 11.399879 -6.297699 19.661630 0.658649 1.896847 0.042453 -0.002753 646686.000000 1 0 0
10.987611 6.520379 16.052101 20.516161 0.535575 0.672266 0.016996 -0.012877 -606940.000000 1 0 0
8.482211 8.474679 10.259401 15.780475 0.784954 0.863037 -0.002847 0.001989 1343800.000000 1 0 0
16.219611 9.387179 4.480901 19.268456 0.524652 1.336096 0.009403 -0.004422 -20991.400000 1 0 0
-3.308489 14.316979 4.724801 15.435211 -1.343694 1.259697 -0.003586 0.010736 -426695.000000 1 0 0
4.623811 14.558279 12.531401 19.757508 1.263266 0.883745 -0.000431 0.001364 -1089550.000000 1 0 0
16.075011 10.484779 -4.333599 19.675280 0.577949 1.792873 0.021809 -0.010525 -52388.000000 1 0 0
14.607511 14.121579 6.151201 21.228180 0.768485 1.276814 0.024470 -0.002272 -98083.800000 1 0 0
6.129611 9.491179 9.344101 14.661747 0.997364 0.879792 -0.006018 0.007181 610144.000000 1 0 0
10.399211 12.122579 8.679301 18.177755 0.861769 1.073025 0.007418 -0.000166 -469492.000000 1 0 0
7.966711 11.433179 -0.278099 13.937841 0.962217 1.590750 0.001500 -0.001981 -285058.000000 1 0 0
7.563411 13.618379 -8.736899 17.860539 1.063830 2.081938 0.008206 -0.004745 -1224970.000000 1 0 0
2.831811 15.378879 -2.293699 15.804750 1.388700 1.716438 -0.001574 -0.002456 301932.000000 1 0 0
12.273211 13.826179 -7.866599 20.091747 0.844830 1.973094 0.029539 -0.010571 982201.000000 1 0 0
-8.180189 14.685979 9.794501 19.455737 -1.062590 1.043238 0.015665 -0.005391 139722.000000 1 0 0
11.496411 9.422579 2.185301 15.024247 0.686585 1.424827 0.009051 0.001626 -2555400.000000 1 0 0
12.010811 8.605979 4.479701 15.439889 0.621727 1.276425 0.003172 0.000030 542450.000000 1 0 0
13.917111 7.886579 6.060201 17.105851 0.515561 1.208656 0.002637 -0.003636 -1368530.000000 1 0 0
16.144811 7.480379 7.128501 19.168373 0.433884 1.189754 0.017123 -0.007977 228265.000000 1 0 0
13.607311 8.256179 2.371301 16.091814 0.545365 1.422897 0.003245 0.000963 -2734810.000000 1 0 0
-4.015689 17.674679 -7.406099 19.579845 -1.347389 1.958703 -0.003301 -0.000629 -94722.700000 1 0 0
3.050711 19.696179 -4.123799 20.353182 1.417129 1.774821 0.011819 -0.008700 470045.000000 1 0 0
-0.038789 14.900879 6.187601 16.134562 -1.568193 1.177213 0.003179 0.007237 -383251.000000 1 0 0
6.749611 16.343479 8.270601 19.520999 1.179146 1.133295 0.012243 0.004472 714400.000000 1 0 0
12.959111 15.131379 -1.961699 20.018628 0.862576 1.668948 0.041669 -0.011386 395967.000000 1 0 0
12.526911 15.916379 4.204301 20.686487 0.904005 1.366132 0.030913 -0.008007 779386.000000 1 0 0
2.987211 18.226279 1.432501 18.524922 1.408345 1.493391 0.010028 -0.009924 -655773.000000 1 0 0
10.423511 14.523379 -1.273899 17.922080 0.948286 1.641936 0.012862 -0.000529 -1463160.000000 1 0 0
-6.102689 15.806079 -0.797999 16.962068 -1.202332 1.617860 -0.010681 0.006339 28823.400000 1 0 0
-3.807689 15.943079 -2.701899 16.612661 -1.336358 1.734163 -0.005588 0.001885 -2120400.000000 1 0 0
-6.918789 16.984579 1.372101 18.390982 -1.183964 1.496120 -0.000195 0.006499 -273790.000000 1 0 0
0.302411 19.397779 -6.558099 20.478622 1.555208 1.896780 0.019388 -0.009786 -9027.910000 1 0 0
4.789011 14.964679 7.018101 17.208428 1.261074 1.150721 0.006583 0.002804 -800222.000000 1 0 0
8.738311 12.407479 6.864001 16.655873 0.957205 1.146031 0.006349 0.002271 -428401.000000 1 0 0
-7.482689 17.523779 -5.682699 19.883826 -1.167231 1.860632 0.018334 -0.015793 360068.000000 1 0 0
-7.745189 17.811579 -1.463299 19.477719 -1.160621 1.645994 0.007752 -0.002174 154961.000000 1 0 0
-13.847389 -9.197821 9.025901 18.916051 0.586312 1.073381 0.009398 -0.011306 197176.000000 1 0 0
-12.417789 -13.093921 7.366101 19.491324 0.811895 1.183251 -0.003549 -0.007546 -537338.000000 1 0 0
-3.861689 -15.181121 12.335601 19.938559 1.321705 0.903734 0.005563 -0.016574 86473.400000 1 0 0
-2.067689 -14.174621 14.867801 20.645743 1.425945 0.766794 0.019819 -0.015990 -1719870.000000 1 0 0
-7.241789 -13.614021 12.699101 19.976292 1.081927 0.881870 0.007042 -0.022371 315036.000000 1 0 0
-9.911189 -11.645421 8.814301 17.650479 0.865675 1.047913 -0.002001 -0.009383 469063.000000 1 0 0
-10.725189 -10.871421 11.126801 18.895057 0.792169 0.941132 0.006182 -0.008449 162911.000000 1 0 0
-6.026189 -12.299221 10.773401 17.425612 1.115209 0.904281 0.004331 -0.013735 638623.000000 1 0 0
-12.519089 -10.410721 7.111201 17.767382 0.693707 1.159019 0.000454 -0.008319 -750039.000000 1 0 0
-7.833489 -11.177021 12.259201 18.346045 0.959496 0.838982 0.009057 -0.020176 4820.560000 1 0 0
-14.614889 -11.712621 7.135401 20.042316 0.675604 1.206794 0.010685 -0.008283 -1664180.000000 1 0 0
-11.205889 -9.265421 9.120801 17.164177 0.690891 1.010561 -0.001974 -0.005361 -619389.000000 1 0 0
-5.429589 -11.700921 13.257901 18.497674 1.136336 0.771690 0.016155 -0.024493 -165415.000000 1 0 0
4.060111 -12.344621 14.777801 19.678861 -1.253044 0.721300 -0.003074 -0.001701 -245980.000000 1 0 0
6.551411 -12.787521 14.237301 20.227269 -1.097335 0.789970 0.008351 0.008271 37283.500000 1 0 0
6.630811 -8.162321 15.958801 19.112155 -0.888559 0.582649 0.008480 -0.008311 -383503.000000 1 0 0
0.566611 -1.777821 14.462901 14.582771 -1.262263 0.128306 -0.000536 -0.002487 -1996820.000000 1 0 0
-0.141089 -6.344721 15.670901 16.907174 1.548563 0.384786 0.008563 -0.004008 -919468.000000 1 0 0
-1.417089 -4.787321 18.368601 19.035022 1.283005 0.265392 0.013379 -0.011422 -2019720.000000 1 0 0
-5.122789 12.736379 12.989801 18.899557 -1.188380 0.813021 0.009927 -0.001332 345701.000000 1 0 0
-4.286189 8.683779 11.585601 15.099854 -1.112293 0.696229 0.003139 0.001649 -295586.000000 1 0 0
-0.659189 -3.988721 15.108701 15.640245 1.407013 0.261457 0.001730 -0.000330 -294052.000000 1 0 0
-4.475889 9.251479 14.205001 17.532983 -1.120190 0.626325 0.007892 -0.003007 248288.000000 1 0 0
-13.410989 -2.521821 16.948301 21.759115 0.185871 0.677877 0.000411 0.006390 127541.000000 1 0 0
-0.269089 0.802679 17.389301 17.409896 -1.247332 0.048646 0.002583 -0.002658 700058.000000 1 0 0
-3.385289 -7.421721 15.424801 17.448971 1.142854 0.486457 0.007198 -0.010535 181777.000000 1 0 0
-7.468789 5.447279 12.726701 15.729735 -0.630146 0.628202 -0.008690 0.000732 -2552060.000000 1 0 0
-9.842589 10.174479 13.459301 19.533288 -0.801977 0.810627 -0.004808 -0.008302 -621324.000000 1 0 0
-5.575989 2.191979 11.210501 12.711088 -0.374553 0.490820 -0.003453 0.003935 -691942.000000 1 0 0
-7.008789 -7.302621 16.782301 19.598393 0.805927 0.542714 0.008809 -0.017735 -328498.000000 1 0 0
-4.866889 2.978179 18.713301 19.563839 -0.549143 0.295952 -0.000419 -0.005256 -1281230.000000 1 0 0
1.043911 -8.418921 16.511601 18.563430 -1.447430 0.474614 0.013112 -0.006315 617237.000000 1 0 0
-15.044689 -3.600021 13.989301 20.856734 0.234872 0.835600 0.012839 -0.002228 418274.000000 1 0 0
-14.156189 2.377879 13.297701 19.567341 -0.166421 0.823598 -0.005278 0.001489 -494064.000000 1 0 0
-5.595989 0.847979 16.187901 17.148828 -0.150389 0.336351 0.005217 -0.005275 819104.000000 1 0 0
4.607911 5.624779 15.213001 16.861387 0.884447 0.445863 -0.003524 -0.002137 -302925.000000 1 0 0
-0.977089 -12.006621 13.866101 18.367972 1.489596 0.715285 0.012090 -0.013976 7349.910000 1 0 0
-5.899189 -4.268821 16.707001 18.224904 0.626409 0.411023 0.011335 -0.009847 371288.000000 1 0 0
-12.856089 -1.543121 9.953701 16.332067 0.119459 0.915420 -0.003953 0.006570 -550486.000000 1 0 0
-14.255489 10.370979 10.391901 20.463816 -0.628950 1.038146 -0.009623 0.009867 517894.000000 1 0 0
-3.570389 -3.588321 17.732801 18.441148 0.787903 0.278064 0.009001 -0.008085 -1309230.000000 1 0 0
-7.965689 9.326979 11.853301 17.057124 -0.863957 0.802491 -0.002871 -0.006292 221055.000000 1 0 0
-4.242389 10.627879 16.313401 19.926784 -1.191001 0.611710 0.014857 -0.006317 168399.000000 1 0 0
-12.639989 12.696279 8.410401 19.791404 -0.787620 1.131887 0.000847 -0.004246 -116683.000000 1 0 0
-12.577689 3.170679 10.593501 16.747350 -0.246942 0.885958 -0.006379 0.003071 1322630.000000 1 0 0
-10.037089 -3.519821 13.788401 17.414141 0.337282 0.657057 0.000899 0.004972 -2478560.000000 1 0 0
-4.210089 -6.611421 17.766101 19.418292 1.003763 0.415497 0.011736 -0.010973 -682252.000000 1 0 0
0.780611 -3.757721 17.816701 18.225385 -1.365974 0.212171 0.010304 -0.012177 -923917.000000 1 0 0
-5.952089 1.533379 13.666601 14.985146 -0.252138 0.422639 -0.005727 0.002792 -535091.000000 1 0 0
-10.521089 8.736479 10.340601 17.144894 -0.692992 0.923377 -0.008156 -0.005312 -291871.000000 1 0 0
4.582311 2.560079 17.285701 18.065078 0.509488 0.294810 0.008980 -0.009945 -1850080.000000 1 0 0
0.559511 -5.468821 13.264601 14.358645 -1.468842 0.392892 0.001028 -0.002295 -2149820.000000 1 0 0
-4.076989 5.657979 20.634001 21.780646 -0.946396 0.325925 0.013730 -0.016274 -286739.000000 1 0 0
-11.021289 10.770179 9.098001 17.895228 -0.773875 1.037466 0.001445 -0.002930 -67434.100000 1 0 0
0.710611 4.127779 13.193001 13.841922 1.400314 0.307414 0.007107 -0.005610 -2105510.000000 1 0 0
-3.180489 7.121079 13.287301 15.407065 -1.150748 0.530773 0.000044 0.000376 -137376.000000 1 0 0
0.680611 8.756479 14.234601 16.726118 1.493226 0.552833 -0.004996 0.002826 88802.800000 1 0 0
-4.097789 -6.770721 13.022601 15.238854 1.026546 0.546082 0.009490 -0.006242 -126778.000000 1 0 0
-5.064389 8.140479 16.529301 19.108459 -1.014268 0.525596 0.009466 0.000156 -59406.300000 1 0 0
1.426311 -10.881921 15.713901 19.167088 -1.440468 0.609669 0.004994 0.000975 171464.000000 1 0 0
-15.064589 -1.049721 14.340801 20.825521 0.069569 0.811217 -0.006863 0.004580 613878.000000 1 0 0
-13.439689 -5.294221 8.446701 16.733224 0.375258 1.041662 -0.000687 -0.001684 -464498.000000 1 0 0
-14.142489 -1.945521 12.135901 18.736999 0.136708 0.866238 0.006186 -0.000811 329175.000000 1 0 0
9.327011 1.348179 17.125101 19.546862 0.143551 0.503074 0.021453 -0.008544 -295340.000000 1 0 0
4.916511 -6.710821 16.981101 18.909389 -0.938509 0.455537 0.013782 -0.004791 -372297.000000 1 0 0
-6.103389 -2.718321 10.969001 12.843660 0.419004 0.547094 -0.000550 0.001857 313729.000000 1 0 0
0.599111 -6.373521 18.092201 19.191364 -1.477072 0.340085 0.018738 -0.010374 -205459.000000 1 0 0
-8.462089 11.924079 12.093701 18.974936 -0.953614 0.879740 -0.001329 -0.007790 181093.000000 1 0 0
-6.602989 -5.795821 14.665401 17.095759 0.720389 0.539747 0.009552 -0.010576 -1142780.000000 1 0 0
-4.338589 -9.058021 17.226201 19.940238 1.124108 0.527851 0.016181 -0.011668 -49782.600000 1 0 0
2.422911 -6.182121 16.281601 17.583505 -1.197273 0.387230 0.008318 -0.006869 -1106040.000000 1 0 0
2.274011 5.133479 16.034301 16.988894 1.153798 0.336819 0.003987 -0.009283 -1256220.000000 1 0 0
0.995611 -8.921021 13.993701 16.625268 -1.459653 0.570349 0.002011 -0.003028 -257351.000000 1 0 0
-9.897889 -2.787021 11.269101 15.255436 0.274471 0.739665 -0.006948 0.006372 -169332.000000 1 0 0
-1.235689 10.030479 12.467401 16.049097 -1.448221 0.681182 -0.001029 0.000998 -617576.000000 1 0 0
-12.320989 -3.779221 11.332901 17.161699 0.297620 0.849498 0.003681 0.005173 -1719450.000000 1 0 0
-1.707589 6.531479 19.856701 20.972950 -1.315080 0.327726 0.008503 -0.022312 -456998.000000 1 0 0
0.261811 -13.552421 15.669301 20.718679 -1.551480 0.713175 0.003507 -0.008476 -518948.000000 1 0 0
4.107211 -8.705621 15.382101 18.145690 -1.129972 0.559162 0.009743 -0.002362 -386644.000000 1 0 0
4.367511 -4.397621 16.157501 17.305463 -0.788833 0.366284 0.015995 -0.007340 -488913.000000 1 0 0
8.150911 1.793279 14.813201 17.002474 0.216559 0.513078 0.004116 -0.001169 821348.000000 1 0 0
-6.490389 -0.227121 11.822401 13.488732 0.034979 0.502326 -0.004464 0.002700 280247.000000 1 0 0
-3.505389 -11.046421 18.590301 21.906859 1.263515 0.557451 0.017659 -0.004418 -126387.000000 1 0 0
3.159411 -1.560821 13.616101 14.064716 -0.458854 0.253249 0.002165 -0.004410 1292640.000000 1 0 0
-2.560389 8.688879 15.864801 18.268665 -1.284233 0.518798 0.007007 -0.000471 -1253270.000000 1 0 0
-3.108989 4.067279 14.799401 15.659848 -0.918149 0.333037 0.001991 -0.002816 -1038910.000000 1 0 0
-4.563189 -9.010921 19.790801 22.219253 1.102037 0.471902 0.026434 -0.012689 -91364.800000 1 0 0
-5.832389 -3.111821 19.040801 20.155701 0.490119 0.334162 0.014012 -0.013639 -736744.000000 1 0 0
-6.650189 -8.719021 11.068501 15.580695 0.919203 0.780732 0.010132 -0.008291 -1700040.000000 1 0 0
-11.592289 2.354079 12.876401 17.484981 -0.200348 0.743024 -0.006721 -0.003462 -621495.000000 1 0 0
-11.693089 -7.559421 11.466201 18.037376 0.573901 0.881893 0.000395 -0.004282 -453927.000000 1 0 0
-10.990389 -7.584921 15.410401 20.391178 0.604079 0.714015 0.015265 -0.012363 -24820.200000 1 0 0
0.371411 5.699479 17.764401 18.660009 1.505723 0.311079 0.007383 -0.011700 -93066.300000 1 0 0
-2.208689 -0.176921 13.148001 13.333399 0.079932 0.166956 -0.001352 0.002075 343518.000000 1 0 0
-6.082689 -10.618821 18.331501 22.040925 1.050601 0.588629 0.022007 -0.007429 -1272540.000000 1 0 0
0.226011 2.740679 19.164001 19.360303 1.488517 0.142524 0.005521 -0.015016 -389822.000000 1 0 0
-0.508489 10.867279 14.905001 18.453058 -1.524040 0.630513 0.005647 0.002961 83924.800000 1 0 0
-12.747989 -2.311921 14.390901 19.363735 0.179406 0.732973 0.008757 0.001805 -463723.000000 1 0 0
-13.720789 8.345179 11.893201 19.983751 -0.546437 0.933352 0.003989 -0.005996 -285352.000000 1 0 0
-18.000989 -0.799521 7.163101 19.390329 0.044386 1.192416 0.031576 -0.012418 -144247.000000 1 0 0
-1.973489 -8.059521 17.567801 19.428797 1.330657 0.441259 0.013295 -0.011553 -289221.000000 1 0 0
5.643211 2.636079 14.468701 15.752398 0.437003 0.406506 -0.000674 -0.003718 -1828310.000000 1 0 0
-14.248189 -7.074321 11.045401 19.366409 0.460849 0.963879 0.016480 -0.001253 1108580.000000 1 0 0
3.311511 7.549079 16.477001 18.424067 1.157409 0.463889 -0.003669 -0.004409 72302.500000 1 0 0
0.978211 1.966779 14.545001 14.709934 1.109257 0.149889 0.007251 -0.005770 -2346510.000000 1 0 0
-14.269189 0.683079 9.720501 17.279019 -0.047834 0.973316 -0.001313 0.000548 -1750500.000000 1 0 0
-9.518189 -5.262321 15.563201 18.986868 0.505044 0.609940 0.007183 0.003762 -370587.000000 1 0 0
-2.653789 -0.185621 18.121101 18.315331 0.069832 0.145764 0.000878 -0.006061 445510.000000 1 0 0
6.769811 3.695679 17.273301 18.917064 0.499694 0.419956 0.009804 -0.017425 -1211110.000000 1 0 0
-4.211189 -0.826721 14.803101 15.412637 0.193850 0.282175 0.004205 0.002807 -2249190.000000 1 0 0
5.015811 -9.034821 17.854501 20.629337 -1.063997 0.524667 0.014045 0.004984 -254905.000000 1 0 0
1.898711 6.762379 13.408401 15.136713 1.297069 0.482538 0.000229 -0.000150 -1963190.000000 1 0 0
-3.731589 -0.964721 20.241901 20.605582 0.252989 0.188158 0.004720 -0.008800 -1808040.000000 1 0 0
-10.580489 1.489879 16.345201 19.527726 -0.139894 0.578972 -0.003257 -0.006193 -590466.000000 1 0 0
-3.695789 7.012979 18.423101 20.056205 -1.085788 0.406340 0.004502 -0.009027 -460541.000000 1 0 0
-12.630289 1.063779 14.889201 19.553622 -0.084026 0.705242 0.003493 -0.002572 257808.000000 1 0 0
-15.875289 -4.900821 8.485601 18.656052 0.299426 1.098599 0.008841 -0.007426 -1874080.000000 1 0 0
-2.273089 0.662279 15.683301 15.861005 -0.283508 0.149832 0.003329 -0.003162 180897.000000 1 0 0
-13.518089 -9.018821 12.779401 20.673436 0.588349 0.904402 -0.009730 -0.003183 451245.000000 1 0 0
6.049111 -3.080321 14.590001 16.091869 -0.470995 0.435477 0.011949 -0.009710 705590.000000 1 0 0
-15.757989 0.557179 7.557201 17.485307 -0.035344 1.123862 0.010393 -0.004755 381731.000000 1 0 0
-13.859089 5.893779 12.621101 19.649508 -0.402095 0.873286 -0.002561 -0.006726 -214218.000000 1 0 0
0.313211 9.254279 16.753601 19.142176 1.536964 0.504907 -0.004996 -0.009786 -295777.000000 1 0 0
-10.344189 -5.468121 10.812801 15.931706 0.486279 0.824809 0.002845 -0.000520 35116.800000 1 0 0
-3.195089 -11.148121 15.084001 19.026725 1.291675 0.655440 0.015235 -0.011685 406144.000000 1 0 0
-3.552689 2.653079 12.604201 13.361374 -0.641437 0.338267 -0.000296 0.003239 -1779990.000000 1 0 0
-12.485989 -7.845421 7.302201 16.455172 0.560996 1.111003 0.004888 -0.006268 283453.000000 1 0 0
-8.249789 -1.883921 13.342001 15.799277 0.224510 0.565223 -0.000919 0.003674 -381619.000000 1 0 0
-9.755289 6.451179 9.523401 15.082392 -0.584278 0.887407 -0.007768 0.000243 -1290860.000000 1 0 0
-17.681589 -3.704421 6.674501 19.259031 0.206520 1.216890 0.006043 -0.010127 115586.000000 1 0 0
-1.415589 -0.048021 20.505901 20.554760 0.033910 0.068963 0.004218 -0.009791 -733037.000000 1 0 0
-2.883389 2.467579 20.214901 20.568060 -0.707847 0.185578 0.010393 -0.010161 -742424.000000 1 0 0
-3.770489 11.174279 11.347601 16.366097 -1.245367 0.804655 0.008515 -0.003367 -953880.000000 1 0 0
-4.131389 -4.861021 14.783401 16.101144 0.866359 0.407389 0.008996 -0.009299 -13147.300000 1 0 0
-0.200289 -14.358621 13.192601 19.500124 1.556848 0.827743 0.009184 -0.018983 -854645.000000 1 0 0
-11.982989 0.409079 8.438601 14.661833 -0.034125 0.957521 -0.005631 0.004198 -372563.000000 1 0 0
-7.679189 2.181279 15.389001 17.336357 -0.276761 0.478531 -0.006295 -0.003259 -2078940.000000 1 0 0
3.343511 -2.036821 18.525701 18.934870 -0.547147 0.208267 0.023757 -0.011119 -169579.000000 1 0 0
-2.145289 4.795679 12.488301 13.548375 -1.150158 0.398211 -0.001320 0.002199 -210028.000000 1 0 0
-10.355389 -6.254421 13.295801 17.975822 0.543339 0.738248 -0.001949 -0.003439 -739441.000000 1 0 0
2.265411 -3.821621 14.315401 14.988915 -1.035697 0.300914 0.001676 -0.003243 -888198.000000 1 0 0
6.687711 1.078079 16.995301 18.295573 0.159828 0.379285 0.007406 -0.012172 -1533020.000000 1 0 0
-1.895889 -5.904321 13.881801 15.203940 1.260094 0.420121 0.002636 -0.002909 -1665720.000000 1 0 0
-12.614189 3.629679 14.902801 19.859149 -0.280177 0.722092 -0.019154 0.002775 -21456.800000 1 0 0
-13.171989 -6.477821 13.336301 19.832306 0.457056 0.833278 -0.005331 -0.007508 -1004360.000000 1 0 0
-9.535489 6.879079 12.049401 16.835538 -0.624957 0.773153 -0.009252 -0.000498 -558087.000000 1 0 0
-1.147889 -2.591021 12.816501 13.126071 1.153757 0.217613 -0.002280 0.001137 518377.000000 1 0 0
0.114311 6.420779 15.281501 16.575999 1.552995 0.397826 0.003784 -0.010468 555193.000000 1 0 0
-16.310389 -0.862221 9.721801 19.007515 0.052814 1.033900 0.011862 -0.001797 -162829.000000 1 0 0
-1.280689 2.665279 13.774901 14.088711 -1.122863 0.211457 0.001972 -0.001215 -1953310.000000 1 0 0
-11.054189 -3.413721 16.256301 19.952842 0.299526 0.618522 0.006964 -0.001774 787866.000000 1 0 0
-5.219989 -1.653521 17.188301 18.039404 0.306768 0.308402 0.012210 -0.001763 153626.000000 1 0 0
-11.860489 6.674379 11.137801 17.586050 -0.512572 0.884946 -0.003395 -0.003402 -2149500.000000 1 0 0
-2.805989 4.562879 18.653101 19.406999 -1.019449 0.279646 0.010344 -0.013213 111519.000000 1 0 0
4.999711 -1.861321 16.551901 17.390430 -0.356389 0.311802 0.018724 -0.009435 -373437.000000 1 0 0
-8.009689 -4.130521 12.199801 15.167447 0.476121 0.636231 0.005135 0.001579 -1757320.000000 1 0 0
-11.601089 -0.836421 16.298501 20.023136 0.071974 0.619819 0.013715 -0.001152 293258.000000 1 0 0
2.020611 2.117379 17.366301 17.611206 0.808779 0.166964 0.005000 -0.011101 -1583740.000000 1 0 0
-9.005189 -7.600221 11.519901 16.479226 0.700990 0.796720 0.002620 -0.006852 670126.000000 1 0 0
-7.235789 6.692679 15.008301 17.955436 -0.746425 0.581092 -0.010143 -0.000243 -1012410.000000 1 0 0
-5.454889 3.343879 15.789601 17.036691 -0.549928 0.384996 -0.003273 -0.002970 555137.000000 1 0 0
-9.294689 4.288679 11.606501 15.475622 -0.432303 0.722755 -0.010008 0.000655 -501464.000000 1 0 0
-10.256989 0.076979 14.185101 17.505109 -0.007505 0.626063 0.003212 -0.001417 -301729.000000 1 0 0
8.242111 -0.560421 15.840901 17.865626 -0.067890 0.480705 0.016441 -0.009567 148525.000000 1 0 0
-8.547189 -7.519821 14.690101 18.584973 0.721542 0.659287 0.010949 -0.007516 -2478000.000000 1 0 0
-0.115489 3.955979 15.734901 16.224987 -1.541611 0.246410 0.007650 -0.009463 562583.000000 1 0 0
-8.095889 3.078379 9.602601 12.931735 -0.363357 0.733911 -0.009852 0.003839 -216892.000000 1 0 0
-2.295089 -9.776821 13.073701 16.485609 1.340223 0.655018 0.008684 -0.008083 767162.000000 1 0 0
-6.038089 10.323779 10.438801 15.874744 -1.041575 0.853204 0.007636 -0.004749 -966082.000000 1 0 0
-8.558089 -2.804421 15.770901 18.161139 0.316665 0.518856 0.008222 -0.006996 153883.000000 1 0 0
4.197111 5.484279 17.837901 19.128088 0.917576 0.369383 0.008851 -0.015597 158783.000000 1 0 0
-6.686489 -1.036421 15.220801 16.657013 0.153779 0.418309 0.000840 -0.000771 -596362.000000 1 0 0
-1.005389 -9.773321 15.285301 18.170554 1.468286 0.571274 0.004228 -0.009645 -491496.000000 1 0 0
-4.291489 5.672279 16.288401 17.773678 -0.923102 0.411720 0.004401 -0.003399 76561.000000 1 0 0
3.672411 0.189879 17.366001 17.751074 0.051658 0.208671 0.009716 -0.011632 -700732.000000 1 0 0
1.565211 0.643379 19.376401 19.450160 0.389995 0.087116 0.010657 -0.004986 -102844.000000 1 0 0
-6.195889 6.238879 17.988901 20.022817 -0.788855 0.454638 -0.011098 0.001229 -183776.000000 1 0 0
-12.119689 0.634079 11.110901 16.454210 -0.052270 0.829477 -0.000508 0.003779 -269827.000000 1 0 0
-5.355989 5.095079 13.954401 15.791509 -0.760438 0.487162 -0.004332 0.001072 -1101290.000000 1 0 0
-8.784189 -9.540121 9.823901 16.269140 0.826628 0.922491 0.006592 -0.007823 -723731.000000 1 0 0
6.780211 -3.742721 16.940301 18.626675 -0.504382 0.428802 0.015979 -0.011836 -1066310.000000 1 0 0
-16.555589 1.691079 9.813801 19.319885 -0.101792 1.037977 0.017182 -0.002850 -351463.000000 1 0 0
-4.212989 -9.705421 11.189601 15.399729 1.161255 0.757421 0.009569 -0.010706 829719.000000 1 0 0
-11.037789 -3.896121 9.151601 14.858141 0.339327 0.907228 -0.001868 0.005877 -561076.000000 1 0 0
3.555511 -5.227021 18.508701 19.558513 -0.973471 0.329128 0.016174 -0.009923 -473596.000000 1 0 0
2.397211 -1.787821 16.109501 16.384717 -0.640803 0.183545 0.005532 -0.006686 205073.000000 1 0 0
-3.144489 -4.153821 20.234301 20.894233 0.922823 0.252000 0.018480 -0.009878 -660651.000000 1 0 0
-6.280489 -3.344721 14.371201 16.036306 0.489353 0.459743 0.007373 -0.000408 379268.000000 1 0 0
-9.761889 5.129979 13.966901 17.795659 -0.483847 0.668344 -0.009440 -0.001952 -66400.500000 1 0 0
-5.803489 -5.211021 11.767701 14.117861 0.731660 0.585325 0.006036 -0.000682 -116687.000000 1 0 0
6.261011 2.228879 19.316501 20.427809 0.342004 0.331368 0.027286 -0.023772 34271.900000 1 0 0
-2.682789 11.814779 13.651101 18.252093 -1.347512 0.725874 0.014153 -0.007978 -810043.000000 1 0 0
3.306611 1.338579 15.236501 15.648528 0.384654 0.229985 0.000908 -0.006410 -796013.000000 1 0 0
-5.819989 7.467279 13.054101 16.125820 -0.908744 0.627470 -0.003502 -0.000358 -1897540.000000 1 0 0
-1.922789 -1.852421 15.180201 15.413211 0.766761 0.174102 -0.000441 -0.001064 -531477.000000 1 0 0
-7.286589 10.461479 14.065301 18.983403 -0.962412 0.736348 0.014406 -0.013689 542479.000000 1 0 0
-10.116689 2.032179 10.748101 14.899625 -0.198236 0.765022 -0.007872 0.004377 -2222500.000000 1 0 0
-13.688889 5.218679 9.336501 17.372120 -0.364225 1.003396 -0.007575 0.004370 -59786.000000 1 0 0
0.460511 -4.779121 20.193801 20.756726 -1.474734 0.233425 0.017434 -0.005813 -258732.000000 1 0 0
-14.455389 -2.958721 7.483701 16.544427 0.201891 1.101409 0.007474 -0.003992 675511.000000 1 0 0
-2.493189 2.309479 17.626101 17.950741 -0.747165 0.190472 0.001504 -0.007425 246072.000000 1 0 0
-6.154089 -8.428221 14.618701 17.961463 0.940103 0.619976 0.007292 -0.009577 -231084.000000 1 0 0
-7.967989 2.042379 12.077501 14.612535 -0.250921 0.597905 -0.010039 0.003148 -590691.000000 1 0 0
-14.450189 -3.500821 10.077001 17.961338 0.237689 0.975157 -0.000926 -0.002759 -716224.000000 1 0 0
-0.581189 6.975179 12.852401 14.634723 -1.487666 0.498684 0.001600 -0.000949 -1217360.000000 1 0 0
-1.709789 -2.308521 19.152201 19.366452 0.933311 0.148885 0.008807 -0.014520 4197.250000 1 0 0
-12.977389 10.326679 7.422601 18.169973 -0.672140 1.149976 0.000297 -0.006004 624036.000000 1 0 0
-19.688289 2.148279 6.890401 20.969536 -0.108685 1.235985 0.049410 -0.019317 1042600.000000 1 0 0
-16.267389 8.460779 6.840401 19.570483 -0.479603 1.213731 0.010944 0.006743 490605.000000 1 0 0
-12.126689 7.470079 13.719001 19.775481 -0.552104 0.804130 -0.008659 -0.004500 -165172.000000 1 0 0
-15.869989 8.364479 10.405601 20.738794 -0.485063 1.045181 0.001739 -0.000889 -226104.000000 1 0 0
2.082311 10.647279 15.268701 18.730558 1.377662 0.617763 0.000756 -0.002819 741278.000000 1 0 0
2.142411 14.418679 12.669301 19.313193 1.423290 0.855300 -0.003122 0.003927 -1168810.000000 1 0 0
-2.972589 13.567679 11.773001 18.207739 -1.355111 0.867686 0.001112 -0.005800 246660.000000 1 0 0
8.932911 4.909379 15.735601 18.748548 0.502523 0.574807 0.002435 -0.002031 -111329.000000 1 0 0
-0.261289 12.502079 12.986601 18.028368 -1.549900 0.766500 -0.000924 0.000379 -71378.100000 1 0 0
3.684811 13.402479 14.628201 20.178913 1.302491 0.759871 -0.006901 0.009886 -140475.000000 1 0 0
-2.796089 -4.102221 -13.715099 14.585962 0.972524 2.794291 0.002208 -0.003631 -429567.000000 1 0 0
5.951111 -11.507821 16.380001 20.884207 -1.093534 0.669189 0.003857 0.009129 121847.000000 1 0 0
7.848711 -13.401221 7.434301 17.218125 -1.040979 1.124340 -0.007784 0.002887 -555933.000000 1 0 0
-0.102489 15.659179 1.231401 15.707856 -1.564251 1.492322 -0.003661 0.001812 -3090060.000000 1 0 0
-13.557889 8.188679 9.254101 18.344187 -0.543340 1.042028 -0.008401 0.004601 -63600.400000 1 0 0
-15.349989 -9.875221 4.796701 18.871950 0.571677 1.313806 0.005881 -0.003900 -1212300.000000 1 0 0
9.468711 -11.001121 11.167201 18.313589 -0.860121 0.915017 0.001704 -0.002535 -4259.070000 1 0 0
-5.654589 -10.606221 -16.885299 20.726303 1.080990 2.522973 0.004879 -0.006471 49006.400000 1 0 0
-2.054389 -12.504621 -14.905799 19.564481 1.407961 2.437008 0.010328 -0.001738 55384.900000 1 0 0
5.151311 -15.825921 -12.239499 20.659166 -1.256114 2.204892 0.002938 0.005386 367493.000000 1 0 0
2.553611 -12.061121 -16.649399 20.716999 -1.362155 2.504215 0.020035 0.000216 282663.000000 1 0 0
0.528411 -14.040321 -14.475599 20.173071 -1.533179 2.371104 0.024520 0.012509 322819.000000 1 0 0
-6.632189 -5.899421 -14.684299 17.158605 0.726991 2.597888 0.004504 -0.001752 -14535.300000 1 0 0
-5.929889 -8.091621 -17.164699 19.881268 0.938366 2.612688 -0.011986 -0.010208 -10317.400000 1 0 0
-2.553489 -16.166521 -13.200899 21.027136 1.414141 2.249524 0.012519 -0.003036 427609.000000 1 0 0
16.528311 -8.124121 -8.664199 20.353249 -0.456847 2.010522 0.028372 -0.013626 -54842.600000 1 0 0
19.184611 -3.803221 -3.082899 19.799446 -0.195706 1.727139 0.022338 -0.021513 46046.400000 1 0 0
15.951911 -11.379321 -8.875299 21.511005 -0.619631 1.996096 0.039656 -0.012175 272332.000000 1 0 0
18.761911 -2.774421 -6.279999 19.978616 -0.146811 1.890553 0.136827 -0.004731 -287220.000000 1 0 0
9.133011 -9.802621 -16.006399 20.873622 -0.820746 2.444675 0.043368 -0.002136 64030.100000 1 0 0
-4.755289 9.611579 -16.217699 19.442453 -1.111361 2.557365 0.004928 -0.002062 552462.000000 1 0 0
2.877411 -9.432221 -18.174799 20.677757 -1.274702 2.644461 0.027448 -0.009863 211727.000000 1 0 0
10.944811 7.956679 -15.229999 20.372788 0.628606 2.415186 0.008061 -0.015233 467193.000000 1 0 0
18.569611 -6.616921 -8.648099 21.526814 -0.342303 1.984208 0.014025 -0.003297 153073.000000 1 0 0
12.492411 5.313379 -13.998399 19.499936 0.402149 2.371533 0.007007 0.002602 100264.000000 1 0 0
16.068411 5.891479 -10.835299 20.256038 0.351430 2.135206 0.012117 -0.002976 63846.900000 1 0 0
3.597811 -0.578121 -19.355999 19.696019 -0.159325 2.955510 0.019727 -0.002976 122285.000000 1 0 0
10.225111 -1.542821 -15.101299 18.302525 -0.149756 2.541164 0.007290 -0.000896 120128.000000 1 0 0
12.285111 -5.962321 -13.906799 19.490313 -0.451842 2.365311 0.018847 -0.010411 9697.750000 1 0 0
10.158711 6.652679 -12.864299 17.690329 0.579794 2.385021 0.005874 0.000313 529882.000000 1 0 0
10.751911 5.068179 -16.444999 20.291082 0.440486 2.515724 0.011749 -0.002943 130276.000000 1 0 0
11.958411 -9.900021 -14.803599 21.451353 -0.691506 2.332425 0.034649 -0.020460 376218.000000 1 0 0
-1.261089 2.186679 -17.336299 17.519109 -1.047675 2.997003 0.005794 -0.007064 317163.000000 1 0 0
6.442411 -1.218321 -17.027399 18.246131 -0.186902 2.774030 0.007555 0.000243 58008.600000 1 0 0
6.172611 -5.787521 -15.608999 17.754926 -0.753211 2.644843 -0.020524 -0.013161 175441.000000 1 0 0
-2.192489 -4.613821 -20.263399 20.897361 1.127185 2.894645 0.018568 -0.025806 50679.500000 1 0 0
15.984911 -0.208821 -13.411799 20.867136 -0.013063 2.268844 0.006765 0.007633 27046.600000 1 0 0
-3.842789 -0.244321 -18.418299 18.816494 0.063494 2.935500 -0.002889 -0.009700 195499.000000 1 0 0
3.620211 8.676279 -17.738899 20.076162 1.175505 2.654250 0.002431 -0.011448 236782.000000 1 0 0
9.319411 -0.138621 -16.912399 19.310616 -0.014873 2.637904 0.006881 -0.020385 26907.000000 1 0 0
4.324611 4.665779 -18.308299 19.382094 0.823328 2.807166 0.009644 -0.001738 512585.000000 1 0 0
-2.933689 -11.097421 -17.774899 21.159072 1.312351 2.568191 0.027864 -0.023238 252467.000000 1 0 0
6.870911 -9.085221 -15.900699 19.559726 -0.923292 2.519963 0.038916 -0.017679 61123.300000 1 0 0
10.057911 -12.540521 -10.763899 19.346518 -0.894817 2.160812 0.010956 0.005483 115853.000000 1 0 0
6.288411 6.871879 -17.090199 19.463857 0.829705 2.642564 0.004157 -0.000452 226647.000000 1 0 0
8.900811 1.415679 -19.931699 21.874671 0.157729 2.716928 0.025694 -0.009714 217483.000000 1 0 0
-1.225289 -0.550321 -20.219399 20.263965 0.422135 3.075259 0.017458 -0.011639 75367.900000 1 0 0
-1.000189 6.718879 -19.638899 20.780521 -1.423019 2.808583 0.008094 -0.004791 142682.000000 1 0 0
8.714011 5.729979 -18.228799 21.001328 0.581671 2.621923 0.004840 -0.007287 122223.000000 1 0 0
11.920711 -0.092721 -12.789199 17.483580 -0.007778 2.391312 -0.014673 -0.006431 -57877.300000 1 0 0
-3.914389 -2.365021 -19.752099 20.274644 0.543492 2.914063 -0.024481 -0.009459 396145.000000 1 0 0
5.046011 -11.294321 -14.321999 18.924682 -1.150628 2.429184 -0.009714 -0.007168 -256632.000000 1 0 0
11.086211 2.072279 -15.948899 19.533709 0.184791 2.526086 0.004164 -0.001608 -565733.000000 1 0 0
-2.789189 -4.182021 -17.187499 17.907512 0.982599 2.857059 -0.005656 -0.004493 167660.000000 1 0 0
-6.783389 -4.634721 -17.465899 19.301623 0.599393 2.701924 0.004821 -0.009660 50522.200000 1 0 0
3.345411 10.143779 -15.183299 18.563960 1.252230 2.528533 0.003188 -0.013482 249513.000000 1 0 0
16.854511 -6.332621 -10.819099 21.005465 -0.359404 2.111875 0.021439 -0.015296 -41647.900000 1 0 0
9.556411 -3.663021 -17.580399 20.342398 -0.366032 2.614403 0.000893 -0.019650 191249.000000 1 0 0
-6.783689 -1.671721 -19.302999 20.528489 0.241618 2.794316 -0.024032 0.016886 471656.000000 1 0 0
1.650411 -7.379721 -19.252599 20.684456 -1.350775 2.767327 0.024770 -0.020740 272451.000000 1 0 0
5.914511 10.325079 -13.880799 18.282923 1.050595 2.432913 0.004924 -0.007283 420327.000000 1 0 0
6.122111 -3.975721 -17.803499 19.241912 -0.575956 2.752479 0.015423 -0.021014 374333.000000 1 0 0
4.759811 13.460279 -14.465099 20.324222 1.230901 2.362736 0.003178 -0.008456 165223.000000 1 0 0
9.121311 11.238379 -15.533099 21.231501 0.889009 2.391471 0.016766 -0.004956 141932.000000 1 0 0
17.042311 0.696579 -11.493299 20.567487 0.040851 2.163745 0.016459 0.009900 196905.000000 1 0 0
15.306711 -3.121521 -12.056399 19.733121 -0.201173 2.228085 0.018545 -0.005101 -148998.000000 1 0 0
-8.686989 0.277479 -17.274899 19.338121 -0.031931 2.675449 0.011969 -0.009593 526143.000000 1 0 0
-3.613489 4.302779 -18.901599 19.719068 -0.872252 2.852645 0.015750 -0.006291 -11390.500000 1 0 0
4.515311 2.349379 -17.059099 17.802261 0.479766 2.851630 0.008474 -0.001514 638043.000000 1 0 0
-5.000689 14.272879 -13.945499 20.571799 -1.233798 2.315690 0.002304 -0.004557 222557.000000 1 0 0
0.913611 9.732879 -17.512799 20.056464 1.477202 2.632475 0.012372 -0.003837 348944.000000 1 0 0
1.180411 -5.327621 -19.786199 20.524877 -1.352754 2.872493 0.021643 -0.005876 477751.000000 1 0 0
3.869611 -6.217821 -18.016899 19.448492 -1.014111 2.755508 0.028675 -0.023734 133378.000000 1 0 0
-6.820489 7.427879 -16.040899 18.947372 -0.828001 2.580366 -0.010852 0.002798 8876.240000 1 0 0
-11.403589 3.356779 -17.037799 20.774898 -0.286276 2.532408 0.008272 -0.008699 148726.000000 1 0 0
-4.147189 6.733779 -17.952599 19.617308 -1.018783 2.726653 0.000194 0.029335 418883.000000 1 0 0
-8.227189 5.417379 -17.199599 19.820718 -0.582308 2.621471 0.004460 -0.017132 485677.000000 1 0 0
-8.502489 4.548379 -14.740599 17.614350 -0.491213 2.562303 -0.010801 -0.020288 462912.000000 1 0 0
9.642611 13.855079 -12.740499 21.148605 0.962785 2.217335 0.021049 -0.008396 441361.000000 1 0 0
14.699011 9.224479 -11.988499 21.092085 0.560437 2.175342 0.058048 -0.008696 -485882.000000 1 0 0
8.753311 15.794879 -9.970799 20.628027 1.064744 2.075287 0.007209 -0.005530 77002.200000 1 0 0
7.569411 14.490379 -14.100899 21.589405 1.089409 2.282520 0.018756 -0.005443 231802.000000 1 0 0
4.137911 15.929879 -12.965599 20.952091 1.316655 2.238038 0.014287 -0.008701 216664.000000 1 0 0
11.133711 11.541479 -10.867999 19.372110 0.803379 2.166405 0.023475 -0.019800 216717.000000 1 0 0
16.069211 10.750379 -9.921199 21.730632 0.589620 2.044914 0.041764 -0.008189 385472.000000 1 0 0
13.227911 11.416479 -9.943499 20.104397 0.712027 2.088163 0.035093 -0.005764 15857.500000 1 0 0
10.745511 11.663479 -7.367199 17.486520 0.826340 2.005683 0.014474 -0.005461 85094.300000 1 0 0
5.832211 17.033179 -10.279999 20.732155 1.240905 2.089607 0.037921 -0.008275 -83065.800000 1 0 0
11.709111 13.755679 -10.200099 20.745216 0.865594 2.084819 0.046370 -0.024118 195950.000000 1 0 0
7.977611 -19.668721 -1.764299 21.298207 -1.185473 1.653729 0.014811 0.001273 160447.000000 1 0 0
7.078011 -16.585721 -3.839899 18.437169 -1.167442 1.780602 0.001433 -0.013063 356203.000000 1 0 0
3.694111 -19.148521 5.461601 20.251948 -1.380219 1.297733 0.035648 -0.004073 -35129.700000 1 0 0
10.108711 -17.874221 -2.244199 20.656966 -1.056095 1.679652 0.015691 -0.006552 528869.000000 1 0 0
-3.549989 -14.568421 7.752301 16.880151 1.331778 1.093640 0.026580 -0.041396 -31438.800000 1 0 0
-15.236389 -12.803221 -4.745499 20.459467 0.698839 1.804874 0.001270 0.008971 113851.000000 1 0 0
-9.406389 -12.644721 -7.362999 17.394910 0.931212 2.007864 0.010205 -0.009271 40831.300000 1 0 0
-11.425689 -15.399821 6.636701 20.291541 0.932476 1.237598 -0.000519 -0.006186 71943.400000 1 0 0
-15.351589 -8.270121 -8.540399 19.416606 0.494137 2.026228 0.050765 -0.006056 -109437.000000 1 0 0
4.677911 -15.309621 6.481801 17.270816 -1.274252 1.186072 0.015947 -0.007272 244902.000000 1 0 0
2.808211 -14.200021 8.941701 17.014131 -1.375555 1.017440 0.011442 -0.005598 426736.000000 1 0 0
3.276911 -17.142221 10.406401 20.319623 -1.381915 1.033127 0.028563 -0.019737 147515.000000 1 0 0
-7.453989 -17.329821 -5.563499 19.668177 1.164593 1.857579 -0.027382 -0.014415 -6492.150000 1 0 0
2.276711 -19.845721 -3.939499 20.360641 -1.456575 1.765510 0.010172 -0.009471 20901.300000 1 0 0
-16.840789 -10.495221 -3.004099 20.069540 0.557306 1.721046 -0.095055 -0.001376 -165229.000000 1 0 0
-4.272189 -14.831621 2.744901 15.676832 1.290342 1.394796 -0.000687 -0.003344 240837.000000 1 0 0
-10.857689 -9.735021 -14.705299 20.710043 0.730934 2.360375 0.005781 0.000102 96313.900000 1 0 0
0.513711 -20.300621 2.470401 20.456833 -1.545497 1.449739 0.014590 -0.007398 327528.000000 1 0 0
6.054511 -18.721821 1.070701 19.705585 -1.258018 1.516435 0.012222 0.011590 379719.000000 1 0 0
-6.683289 -18.676321 -3.186499 20.090423 1.227147 1.730077 -0.050146 -0.024411 29128.900000 1 0 0
-9.754189 -15.303221 -7.617499 19.681440 1.003334 1.968215 0.025819 -0.023634 87696.200000 1 0 0
-11.829889 -11.186521 -12.058399 20.260541 0.757453 2.208269 0.004230 -0.000996 267274.000000 1 0 0
-13.302489 -15.125521 -3.656299 20.472082 0.849439 1.750359 0.009595 -0.004508 111768.000000 1 0 0
-0.454289 -20.754921 -2.740199 20.939958 1.548912 1.702033 0.010408 -0.004037 364631.000000 1 0 0
-12.175389 -16.797021 -0.748999 20.759119 0.943584 1.606885 0.026469 -0.003107 211584.000000 1 0 0
0.689711 -20.134421 5.100201 20.781787 -1.536554 1.322847 0.024839 -0.012151 202523.000000 1 0 0
-18.284589 -9.769521 2.570701 20.889668 0.490712 1.447423 0.025540 0.005394 168061.000000 1 0 0
-14.679089 -15.165421 -0.388499 21.109632 0.801692 1.589201 0.008790 0.007377 14574.100000 1 0 0
9.520911 -16.012821 -4.882999 19.258813 -1.034371 1.827141 0.011910 0.007354 9439.480000 1 0 0
-0.253789 -19.173721 -7.032899 20.424438 1.557561 1.922329 0.005004 -0.003403 153303.000000 1 0 0
-10.090889 -17.998721 -3.162499 20.875378 1.059817 1.722876 0.019788 0.025183 579641.000000 1 0 0
-15.215489 -6.811921 -11.346799 20.165893 0.420937 2.168412 0.036266 -0.010460 139985.000000 1 0 0
-11.514589 -15.147221 2.594501 19.203008 0.920813 1.435273 0.004774 -0.006936 -373303.000000 1 0 0
-2.609289 -16.215421 9.593901 19.020810 1.411250 1.042121 0.012345 -0.026075 245151.000000 1 0 0
-12.573989 -14.386521 -6.664299 20.235861 0.852526 1.906391 0.013766 -0.011072 290051.000000 1 0 0
5.810711 -17.050821 -6.538399 19.163651 -1.242352 1.918976 0.010458 -0.011346 -36100.100000 1 0 0
-17.293689 -7.209821 -2.924199 18.963231 0.394994 1.725618 -0.025963 0.004978 -96021.500000 1 0 0
-12.574689 -13.678621 -9.039699 20.662615 0.827423 2.023602 0.034461 -0.028791 126072.000000 1 0 0
-7.957889 -13.790321 9.571201 18.577105 1.047413 1.029538 0.010519 -0.016679 472883.000000 1 0 0
-15.618389 -7.727721 -5.807899 18.368000 0.459466 1.892514 0.000452 -0.001529 167309.000000 1 0 0
-0.913989 -19.618621 -0.505499 19.646404 1.524242 1.596529 0.005218 -0.005268 212454.000000 1 0 0
-15.009689 -11.456721 -1.980499 18.986037 0.651952 1.675300 0.002491 0.014136 130554.000000 1 0 0
-7.132889 -18.963021 1.100801 20.290048 1.211020 1.516516 -0.010083 -0.004783 186247.000000 1 0 0
-2.613889 -20.670821 -5.141199 21.460363 1.445011 1.812716 0.005255 -0.011465 110151.000000 1 0 0
-8.590789 -19.925521 -1.430199 21.745655 1.163732 1.636613 -0.012014 0.016890 193665.000000 1 0 0
-17.791589 -7.437321 4.778201 19.866695 0.395948 1.327902 0.022664 -0.006701 56382.600000 1 0 0
-2.865089 -15.749721 -10.863499 19.346267 1.390850 2.167029 0.010256 0.003494 131631.000000 1 0 0
-3.298389 -18.541321 -7.738699 20.360438 1.394744 1.960685 -0.001432 0.006809 224635.000000 1 0 0
3.857611 -18.043021 -6.185999 19.460174 -1.360167 1.894289 -0.004843 0.038475 353522.000000 1 0 0
0.708511 -17.440421 -9.042399 19.657957 -1.530194 2.048777 0.012386 0.003542 12793.800000 1 0 0
-7.826389 -10.538421 -14.185699 19.327306 0.932014 2.394948 -0.000748 -0.023034 248848.000000 1 0 0
-4.592989 -19.601621 -1.425099 20.182914 1.340632 1.641464 -0.013978 -0.007433 352077.000000 1 0 0
-10.171389 -15.801121 8.323301 20.552613 0.998853 1.153845 -0.020493 -0.016461 326118.000000 1 0 0
-7.047789 -15.484221 -10.252299 19.863083 1.143660 2.113144 -0.001023 -0.002618 451128.000000 1 0 0
-12.610789 -7.657721 -12.452999 19.306731 0.545723 2.271830 0.006433 -0.008014 300667.000000 1 0 0
-15.539689 -13.275421 3.133901 20.677042 0.706980 1.418646 0.016163 0.005070 126394.000000 1 0 0
-6.294789 -14.237321 -13.291699 20.469366 1.154504 2.277520 0.001255 0.001059 428734.000000 1 0 0
-13.902989 -11.317121 -6.960699 19.230748 0.683223 1.941162 -0.001420 -0.015594 85734.800000 1 0 0
-11.627889 -10.329621 -8.576599 17.761389 0.726341 2.074736 0.005469 -0.008649 318493.000000 1 0 0
-9.550889 -14.609021 3.094701 17.726256 0.991778 1.395314 -0.012297 -0.011714 221813.000000 1 0 0
4.919711 -18.494721 8.144101 20.798669 -1.310811 1.168461 0.041028 -0.014857 315525.000000 1 0 0
-4.891189 -17.016121 5.371501 18.502030 1.290898 1.276236 -0.008835 0.015003 426911.000000 1 0 0
-18.275489 -7.271521 -6.902899 20.845108 0.378681 1.908321 0.000863 -0.004896 154911.000000 1 0 0
-17.169789 -3.632621 -10.845499 20.630619 0.208496 2.124333 0.027928 -0.008915 -174061.000000 1 0 0
-15.638289 -4.252721 -13.211899 20.909232 0.265522 2.254759 0.021022 -0.004185 219798.000000 1 0 0
-19.319389 -4.648921 -5.948299 20.742071 0.236145 1.861655 0.017005 -0.007292 -151059.000000 1 0 0
5.787211 -13.438821 8.671001 17.008233 -1.164163 1.035830 0.021094 0.000743 79620.600000 1 0 0
19.729911 -3.571121 2.646001 20.224332 -0.179062 1.439588 0.021603 -0.013950 -163693.000000 1 0 0
18.020411 -2.598521 0.125501 18.207231 -0.143212 1.563903 0.010798 -0.016884 398116.000000 1 0 0
14.120511 -11.490721 0.329201 18.208072 -0.683076 1.552715 0.028340 -0.002286 152907.000000 1 0 0
10.878611 -13.611121 5.230801 18.192528 -0.896516 1.279155 -0.004659 0.001484 364499.000000 1 0 0
10.514611 -12.566821 8.379401 18.403706 -0.874077 1.098075 0.024376 -0.013277 28008.600000 1 0 0
17.797011 4.850779 -4.495699 18.986178 0.266098 1.809855 -0.008383 0.009382 15715.600000 1 0 0
19.118911 -6.201921 -4.520699 20.601779 -0.313677 1.792029 0.037737 -0.016055 11873.100000 1 0 0
17.669711 -10.120321 -0.159699 20.363327 -0.520141 1.578639 0.042567 -0.005985 101383.000000 1 0 0
17.767611 -8.510121 8.800701 21.576897 -0.446681 1.150670 0.067126 -0.011415 -193741.000000 1 0 0
19.997611 0.368679 -2.138399 20.114998 0.018434 1.677306 0.029781 -0.007485 15117.500000 1 0 0
7.425911 -13.782921 11.437201 19.388724 -1.076611 0.939875 0.004475 0.017183 290987.000000 1 0 0
16.143211 -6.759221 -3.200799 17.791443 -0.396526 1.751688 0.022669 -0.011980 328321.000000 1 0 0
14.168011 -8.349021 12.074301 20.401653 -0.532505 0.937470 0.010578 -0.017805 287971.000000 1 0 0
16.730611 1.037179 10.426201 19.740688 0.061914 1.014367 0.064275 -0.018049 364892.000000 1 0 0
16.316311 -10.269721 2.597901 19.453490 -0.561767 1.436852 0.005901 -0.010225 321964.000000 1 0 0
16.124311 -7.204921 -5.804899 18.590351 -0.420220 1.888360 0.023412 -0.010779 325363.000000 1 0 0
18.754811 -5.035021 5.169101 20.095123 -0.262281 1.310640 0.144976 -0.024249 -360388.000000 1 0 0
13.189811 -13.568921 8.117801 20.590906 -0.799565 1.165553 0.009209 0.002919 36640.600000 1 0 0
15.059211 -14.403621 -1.330199 20.880938 -0.763150 1.634543 0.024526 -0.002968 153201.000000 1 0 0
18.715511 -6.273521 7.682901 21.181463 -0.323434 1.199613 0.051073 -0.019184 318001.000000 1 0 0
19.590611 3.615079 2.686601 20.101708 0.182478 1.436745 0.017679 0.000055 128694.000000 1 0 0
15.641011 -10.445221 8.124201 20.487716 -0.588794 1.163051 0.034054 -0.027020 325610.000000 1 0 0
14.056111 -4.531521 10.677301 18.223987 -0.311868 0.944815 0.024090 -0.008603 -154521.000000 1 0 0
18.751011 -7.755821 2.150301 20.405317 -0.392194 1.465221 0.048389 -0.015190 93238.700000 1 0 0
19.127711 -6.026321 -1.160399 20.088116 -0.305213 1.628594 0.033878 -0.021302 218217.000000 1 0 0
14.706811 -13.671921 -5.781599 20.895899 -0.748947 1.851140 0.036404 -0.013911 334755.000000 1 0 0
14.042511 -9.437521 10.100601 19.704849 -0.591733 1.032592 0.015173 -0.016521 610921.000000 1 0 0
14.170111 2.410679 0.549301 14.384198 0.168511 1.532599 0.000589 -0.002504 -224294.000000 1 0 0
12.936011 2.711579 13.538601 18.920538 0.206623 0.773384 0.017115 -0.010332 -143927.000000 1 0 0
18.051511 -3.708121 9.229401 20.610411 -0.202601 1.106490 0.026417 -0.010324 135940.000000 1 0 0
6.882011 -18.133521 4.961001 20.019945 -1.208070 1.320385 0.010734 -0.018856 480715.000000 1 0 0
12.740411 -2.455421 15.187001 19.974788 -0.190393 0.707008 0.013061 0.002031 315379.000000 1 0 0
11.227811 -13.561321 -6.796399 18.872313 -0.879256 1.939199 0.008451 -0.008335 133405.000000 1 0 0
10.688811 -17.435621 4.655801 20.974462 -1.020840 1.346957 0.017705 -0.010283 516917.000000 1 0 0
18.346111 -1.116621 -4.192799 18.852220 -0.060789 1.795075 0.027054 -0.011345 406168.000000 1 0 0
4.409611 -13.439021 11.561101 18.267759 -1.253745 0.885543 0.005128 -0.002920 196297.000000 1 0 0
9.441511 -2.760221 14.495101 17.517674 -0.284423 0.596235 0.029535 -0.004534 387643.000000 1 0 0
8.992911 -9.077721 13.745701 18.767572 -0.790091 0.748930 0.006936 -0.016411 261601.000000 1 0 0
20.958411 5.519679 -2.807999 21.854215 0.257516 1.699640 0.021489 0.005678 351896.000000 1 0 0
14.459611 -13.572121 1.918301 19.923923 -0.753749 1.474366 0.009706 -0.001663 161600.000000 1 0 0
10.440511 0.160279 14.312901 17.716915 0.015350 0.630273 -0.006534 -0.025457 3902.490000 1 0 0
19.688811 0.227079 7.661701 21.128240 0.011533 1.199710 0.078628 -0.011453 35674.800000 1 0 0
19.802311 1.241679 0.561001 19.849131 0.062622 1.542529 0.019063 -0.007062 201985.000000 1 0 0
18.051311 0.251879 3.143701 18.324741 0.013953 1.398388 0.021148 -0.004562 41382.300000 1 0 0
10.223011 -8.299321 16.385201 21.020549 -0.681911 0.676953 0.019147 -0.000750 74161.700000 1 0 0
19.168311 2.910079 5.532001 20.161740 0.150667 1.292850 0.036645 -0.004185 104330.000000 1 0 0
15.239911 2.559379 7.170401 17.035843 0.166387 1.136358 0.025141 -0.006631 28418.800000 1 0 0
11.215311 -16.042021 2.092701 19.685249 -0.960661 1.464287 -0.001617 0.006640 177986.000000 1 0 0
8.552111 -16.347121 7.064401 19.755322 -1.088795 1.205105 0.007618 0.007823 432763.000000 1 0 0
6.305311 6.600379 7.104501 11.567017 0.808258 0.909420 -0.004391 0.002303 -1253660.000000 1 0 0
18.395411 2.058279 -6.567599 19.640800 0.111427 1.911749 -0.008120 0.006204 158400.000000 1 0 0
14.181411 4.430579 -7.142599 16.485120 0.302813 2.018920 0.014855 0.000035 290535.000000 1 0 0
-10.651489 -3.854021 -13.994699 18.004424 0.347174 2.461147 0.010363 -0.001828 -103136.000000 1 0 0
7.709311 -14.038321 -10.516499 19.159976 -1.068597 2.151818 0.006977 0.007400 120584.000000 1 0 0
1.855111 -16.040221 13.799201 21.240247 -1.455654 0.863643 -0.000547 -0.006364 398222.000000 1 0 0
-9.483189 -7.914321 2.180201 12.542752 0.695464 1.396087 0.000554 0.001555 367545.000000 1 0 0
-13.798589 3.270079 -9.638999 17.146567 -0.232694 2.167783 0.012780 -0.004961 270592.000000 1 0 0
-12.129689 -4.292921 -12.384899 17.859010 0.340161 2.337107 -0.012068 -0.036653 176628.000000 1 0 0
-17.914289 -1.248721 -8.213499 19.746965 0.069593 1.999770 0.036688 -0.029073 239374.000000 1 0 0
-12.229889 15.250079 3.689301 19.893366 -0.894864 1.384263 0.003628 -0.007536 298399.000000 1 0 0
-17.105589 6.255979 9.129501 20.373665 -0.350616 1.106154 0.007236 -0.009242 267288.000000 1 0 0
-12.983289 15.482979 0.130401 20.206569 -0.872986 1.564343 0.013420 -0.028311 207288.000000 1 0 0
-16.119789 5.591579 -10.679199 20.128553 -0.333890 2.130045 0.028876 -0.001695 -30540.700000 1 0 0
-18.290889 3.132679 0.048001 18.557279 -0.169624 1.568210 0.032720 -0.004913 -13818.400000 1 0 0
-9.737289 15.433179 -0.258699 18.250061 -1.007943 1.584972 0.000058 -0.005997 82459.000000 1 0 0
-18.007689 12.290779 2.481601 21.943073 -0.598904 1.457461 0.055030 -0.014272 8983.330000 1 0 0
-8.372289 16.330079 -7.985199 20.013248 -1.097047 1.981218 0.038371 -0.025625 -23866.000000 1 0 0
-15.300989 -1.617221 -12.919399 20.090957 0.105303 2.269265 0.043299 -0.018121 -76356.800000 1 0 0
-19.035689 5.213679 -4.494799 20.242113 -0.267334 1.794715 0.036225 -0.004539 -93942.900000 1 0 0
-17.005489 9.338079 -5.916299 20.282726 -0.502168 1.866791 0.046857 0.005503 -201121.000000 1 0 0
-18.972889 1.220379 2.383901 19.160971 -0.064234 1.446059 0.016740 -0.011826 257474.000000 1 0 0
-13.493989 12.278979 -7.108499 19.580394 -0.738290 1.942327 0.023065 0.005310 7759.740000 1 0 0
-12.861389 5.009979 -13.393299 19.232672 -0.371454 2.341141 0.018108 -0.015378 -10353.100000 1 0 0
-14.054289 9.402579 -6.482399 18.109473 -0.589629 1.936875 0.016154 -0.000581 224383.000000 1 0 0
-6.293089 11.598279 -15.378399 20.263716 -1.073661 2.432439 -0.005031 -0.017063 -66585.000000 1 0 0
-15.012989 13.907179 3.132701 20.702977 -0.747180 1.418896 0.015322 -0.017064 37279.500000 1 0 0
-18.736089 8.251679 -4.913099 21.053973 -0.414856 1.806325 0.040683 0.001328 183844.000000 1 0 0
-3.851689 16.947379 -9.905999 20.004449 -1.347319 2.088850 0.003186 -0.003868 125314.000000 1 0 0
-19.654989 -2.247121 -6.369999 20.783287 0.113834 1.882306 0.034172 -0.012252 -107665.000000 1 0 0
-10.734589 13.023779 -6.240399 17.994243 -0.881455 1.924953 0.015206 -0.030049 5902.490000 1 0 0
-19.526189 2.878279 4.292301 20.198524 -0.146352 1.356658 0.034267 -0.009822 154305.000000 1 0 0
-14.997789 12.561379 0.478401 19.569128 -0.697221 1.546347 0.004044 -0.006367 42117.400000 1 0 0
-16.483389 1.904879 -8.743499 18.755784 -0.115053 2.055760 -0.049384 -0.007726 212324.000000 1 0 0
-16.218989 14.376679 -4.073399 22.053051 -0.725256 1.756572 0.016164 0.047245 164721.000000 1 0 0
-10.400289 15.780079 -8.390699 20.678025 -0.988066 1.988627 0.016092 -0.013836 -77538.400000 1 0 0
-18.881189 2.207579 -6.794999 20.187737 -0.116391 1.914090 0.005952 -0.014053 212275.000000 1 0 0
-16.809589 10.690679 -0.454499 19.926351 -0.566461 1.593607 0.002756 0.005338 -30555.500000 1 0 0
-11.687989 6.875579 -14.430399 19.801997 -0.531743 2.387269 0.015794 -0.014815 385448.000000 1 0 0
-13.453189 13.243679 -5.142799 19.566086 -0.777551 1.836763 0.032555 -0.001278 319396.000000 1 0 0
-18.765089 7.927279 0.248501 20.372336 -0.399707 1.558598 0.020665 -0.001947 173951.000000 1 0 0
-14.495589 9.007379 -10.260099 19.912926 -0.555997 2.112094 0.015730 0.004228 569348.000000 1 0 0
-19.022189 11.322279 4.576301 22.604871 -0.536893 1.366940 0.060741 -0.010038 238616.000000 1 0 0
-8.167789 11.770279 -13.681199 19.809782 -0.964154 2.333154 -0.012247 -0.011032 484345.000000 1 0 0
-20.873589 -0.142821 -5.181499 21.507558 0.006842 1.814105 0.003702 -0.010447 118888.000000 1 0 0
-10.827789 14.312179 -3.951199 18.376383 -0.923120 1.787504 0.009233 0.015420 357479.000000 1 0 0
-18.729489 -4.854521 3.781801 19.714516 0.253610 1.377772 0.022733 -0.006091 29522.800000 1 0 0
-11.355189 11.637379 -13.053099 20.850715 -0.797671 2.247243 0.008960 -0.004099 264052.000000 1 0 0
-14.544789 11.506079 -10.581499 21.352022 -0.669278 2.089291 0.027428 -0.001089 171811.000000 1 0 0
-12.472289 9.719179 -13.938499 21.078477 -0.661967 2.293303 0.017288 -0.010000 388892.000000 1 0 0
-18.481289 -4.838621 -2.971899 19.333972 0.256064 1.725122 0.004222 -0.003170 -438657.000000 1 0 0
-9.699489 12.858879 -11.328299 19.691653 -0.924547 2.183748 0.027013 -0.008194 154152.000000 1 0 0
-15.694089 7.759979 -8.149999 19.311763 -0.459200 2.006471 0.015972 0.006760 -109333.000000 1 0 0
-14.344689 9.231079 1.866201 17.160001 -0.571806 1.461828 0.002318 0.003624 -188171.000000 1 0 0
-19.813389 6.050279 7.719501 22.108074 -0.296370 1.214110 0.046060 -0.015330 170622.000000 1 0 0
-18.765189 5.850579 3.673901 19.996478 -0.302227 1.386019 0.011962 0.003906 106138.000000 1 0 0
-14.742789 12.749279 5.745901 20.320170 -0.713013 1.284117 0.011403 -0.011159 21937.600000 1 0 0
18.109611 6.401679 5.956501 20.110182 0.339786 1.270092 0.020898 -0.006860 126767.000000 1 0 0
18.395511 7.725979 0.578401 19.960464 0.397622 1.541815 0.024905 0.005921 7733.770000 1 0 0
16.626211 4.370279 8.602701 19.223337 0.257040 1.106814 0.023211 -0.006908 -89904.700000 1 0 0
12.195611 13.005579 10.598101 20.741209 0.817527 1.034485 0.029613 -0.009936 123234.000000 1 0 0
15.621911 12.291979 3.985801 20.273713 0.666666 1.372908 0.038488 -0.010624 276373.000000 1 0 0
5.062911 10.315679 14.614701 18.591282 1.114538 0.666314 -0.002632 0.005703 283076.000000 1 0 0
13.050411 13.256379 -5.559799 19.415359 0.793227 1.861223 0.026962 -0.004157 116677.000000 1 0 0
17.585911 9.131279 -2.848799 20.018995 0.478920 1.713586 -0.004749 0.001627 -167737.000000 1 0 0
14.519111 7.752579 9.548701 19.028525 0.490443 1.045106 0.008365 -0.002955 80317.100000 1 0 0
4.709911 19.510279 -1.803999 20.151642 1.333922 1.660438 0.005498 -0.008199 590807.000000 1 0 0
-4.357289 19.908079 3.694501 20.711516 -1.355324 1.391457 -0.009011 0.027121 332326.000000 1 0 0
7.000011 13.954279 12.004701 19.693524 1.105838 0.915271 0.011643 0.030062 -5720.830000 1 0 0
0.025111 17.291279 -10.110899 20.030458 1.569344 2.099919 0.011043 0.004160 41276.400000 1 0 0
10.487411 9.761279 15.485001 21.096294 0.749553 0.746581 0.010986 0.002441 222763.000000 1 0 0
-1.098389 12.171979 0.958001 12.258927 -1.480801 1.492569 -0.003468 0.004538 370693.000000 1 0 0
-4.679789 19.365579 -2.539199 20.084163 -1.333687 1.697564 0.002284 0.006456 109585.000000 1 0 0
5.699511 18.365879 6.202801 20.205560 1.269888 1.258773 0.011208 -0.020926 151342.000000 1 0 0
11.229111 17.532179 -1.356799 20.864111 1.001139 1.635873 0.031215 -0.009892 479740.000000 1 0 0
18.372011 10.594079 3.369501 21.473678 0.523068 1.413232 0.021955 -0.005322 297815.000000 1 0 0
11.434611 16.021979 7.105801 20.927172 0.950946 1.224359 0.026119 -0.002217 -37089.400000 1 0 0
18.092311 7.229179 -5.946299 20.370352 0.380137 1.867019 -0.000902 0.016656 302591.000000 1 0 0
0.478711 15.605379 10.900501 19.041479 1.540130 0.961292 0.000588 0.002956 420359.000000 1 0 0
1.084211 20.185379 -1.983299 20.311536 1.517135 1.668596 0.003921 -0.013262 263044.000000 1 0 0
14.120511 9.632479 -1.193199 17.134678 0.598654 1.640489 0.004320 -0.003388 -221775.000000 1 0 0
9.716111 17.502579 1.672701 20.088330 1.064027 1.487433 0.019957 -0.021456 251468.000000 1 0 0
-0.022689 17.621679 -0.729599 17.636791 -1.569509 1.612176 -0.007748 -0.005566 -4006.380000 1 0 0
0.169011 20.987079 0.850201 21.004973 1.562743 1.530309 0.011536 -0.005077 277380.000000 1 0 0
6.171011 17.342879 -0.434199 18.413184 1.228943 1.594379 0.007613 -0.025936 27613.500000 1 0 0
6.845211 18.727079 -3.153799 20.186799 1.220358 1.727670 -0.001722 -0.013197 97932.900000 1 0 0
9.810511 9.781579 12.603801 18.729154 0.783921 0.832605 -0.007945 0.001348 160976.000000 1 0 0
13.334811 14.792179 8.367901 21.602026 0.837166 1.173023 0.031852 -0.007537 34902.100000 1 0 0
0.422011 17.476079 6.672901 18.711468 1.546653 1.206148 0.006201 -0.007200 162860.000000 1 0 0
6.888511 18.457379 -7.747099 21.169411 1.213594 1.945458 0.000080 -0.000287 -33717.700000 1 0 0
-1.007189 18.636079 9.690201 21.028977 -1.516804 1.091897 0.028484 -0.001083 68706.700000 1 0 0
16.170011 7.014679 -8.017399 19.363720 0.409307 1.997687 0.025639 0.010241 -198390.000000 1 0 0
-5.114789 20.005779 -6.572999 21.670177 -1.320493 1.878971 -0.008407 -0.005912 319164.000000 1 0 0
3.950811 16.109179 9.949101 19.341643 1.330291 1.030503 0.004023 0.010335 174797.000000 1 0 0
8.923811 15.032579 7.591001 19.058755 1.035073 1.161139 0.010128 0.005748 -5587.480000 1 0 0
-2.803589 19.097879 6.647901 20.415280 -1.425036 1.239115 0.019907 -0.006102 207550.000000 1 0 0
4.851711 18.085679 8.322301 20.491256 1.308705 1.152571 0.018213 -0.008204 251551.000000 1 0 0
14.217511 11.272279 -7.087599 19.479116 0.670363 1.943201 -0.023372 -0.026669 -48910.600000 1 0 0
11.644411 6.978679 15.541001 20.635333 0.539916 0.717996 0.020010 -0.010648 161207.000000 1 0 0
16.958411 9.160779 5.033501 19.920936 0.495281 1.315353 0.015141 -0.007000 217532.000000 1 0 0
4.287811 15.341779 12.112201 20.011519 1.298264 0.920702 -0.022416 0.014998 205470.000000 1 0 0
15.819711 10.709179 -3.446499 19.412061 0.595089 1.749287 0.023575 -0.013557 193010.000000 1 0 0
15.381511 13.624179 6.387601 21.517681 0.724886 1.269400 0.035098 -0.005001 357062.000000 1 0 0
12.405711 14.751679 -7.698299 20.755180 0.871568 1.950785 0.031866 -0.011006 317612.000000 1 0 0
-8.852589 15.357179 9.791201 20.250405 -1.047876 1.066140 0.027635 -0.001809 170261.000000 1 0 0
-4.816589 17.181279 -7.273899 19.269289 -1.297473 1.957877 -0.002255 0.011596 86372.400000 1 0 0
2.341411 19.611679 -4.749999 20.314100 1.451970 1.806809 0.006760 -0.014587 40715.400000 1 0 0
6.916111 16.766779 9.104601 20.294118 1.179570 1.105562 0.007373 0.004109 498054.000000 1 0 0
13.641011 15.254979 -1.311899 20.506405 0.841195 1.634815 0.065199 -0.020018 204308.000000 1 0 0
12.543311 16.849279 4.382701 21.457887 0.930862 1.365102 0.041213 -0.021013 363301.000000 1 0 0
2.587111 18.553379 0.635401 18.743659 1.432248 1.536890 0.003553 -0.009915 112291.000000 1 0 0
-6.798689 17.905079 1.170501 19.188124 -1.207905 1.509757 -0.030372 0.024627 264335.000000 1 0 0
0.036711 20.270479 -6.292899 21.224850 1.568985 1.871809 0.018025 0.005078 250826.000000 1 0 0
-7.767089 18.057279 -6.415499 20.677321 -1.164583 1.886271 0.038846 -0.019512 89804.100000 1 0 0
-7.223289 18.546679 -1.163799 19.937643 -1.199404 1.629201 0.005593 -0.001247 49450.700000 1 0 0
-14.599989 -9.460521 8.509001 19.366575 0.574955 1.115904 0.014253 -0.009069 262851.000000 1 0 0
-12.827289 -13.299221 8.198301 20.214370 0.803460 1.153196 -0.004860 -0.012115 157511.000000 1 0 0
-4.249389 -16.043521 12.244201 20.624556 1.311875 0.935183 0.041031 -0.020778 250204.000000 1 0 0
-2.217289 -14.871121 14.239401 20.708142 1.422786 0.812586 0.018582 -0.045676 91920.400000 1 0 0
-7.836589 -13.571421 13.438601 20.644408 1.047135 0.861953 -0.002628 -0.015050 339810.000000 1 0 0
-10.158589 -11.539921 11.493601 19.195561 0.848973 0.928840 0.014884 -0.002635 -29820.000000 1 0 0
-7.680589 -10.466621 12.871001 18.281255 0.937733 0.789705 0.012209 -0.014251 474918.000000 1 0 0
-15.072689 -12.439221 6.729201 20.668873 0.689968 1.239180 0.013217 -0.016801 126703.000000 1 0 0
-4.711189 -12.321521 13.222301 18.677377 1.205594 0.784231 0.017793 -0.026405 258256.000000 1 0 0
4.089511 -12.785421 13.936701 19.350006 -1.261223 0.766644 0.003182 0.010689 449832.000000 1 0 0
6.752611 -13.442421 14.895401 21.170012 -1.105282 0.790333 0.016017 0.011581 264021.000000 1 0 0
7.267611 -8.673121 16.444801 19.961780 -0.873342 0.602689 0.010874 -0.007260 575156.000000 1 0 0
-5.210989 13.636579 13.280001 19.734972 -1.205787 0.832651 0.003788 0.001743 442586.000000 1 0 0
-13.370589 -1.942321 17.700001 22.267359 0.144259 0.651977 0.002220 0.000190 407219.000000 1 0 0
-10.528989 10.017879 12.821601 19.380685 -0.760528 0.847891 0.001192 0.001436 463068.000000 1 0 0
-7.214489 -8.145821 17.168701 20.326523 0.845956 0.564894 0.010967 -0.009317 129236.000000 1 0 0
-5.201089 2.241579 18.215101 19.075269 -0.406927 0.301451 0.009714 -0.008766 612978.000000 1 0 0
-15.803189 -3.527221 14.556601 21.773302 0.219597 0.838535 0.020199 -0.005496 91491.100000 1 0 0
-14.323989 3.214279 12.879801 19.529401 -0.220742 0.850632 -0.004221 0.010275 252790.000000 1 0 0
-13.396789 10.639579 10.697101 20.176783 -0.671187 1.011997 -0.069177 0.047217 25455.100000 1 0 0
-4.075589 11.303979 15.667301 19.744738 -1.224759 0.654270 0.005437 -0.006325 216025.000000 1 0 0
-13.502189 12.655179 8.013701 20.166360 -0.753028 1.162137 0.010917 -0.026694 69126.200000 1 0 0
-3.749589 -6.484021 18.587201 20.039610 1.046499 0.383066 0.014176 -0.009517 384092.000000 1 0 0
0.406811 -2.941921 18.128501 18.370164 -1.433387 0.162383 0.002430 -0.005333 -172763.000000 1 0 0
-4.583489 6.403579 20.934301 22.366474 -0.949565 0.359798 0.008847 -0.012697 386513.000000 1 0 0
2.239111 -10.771121 16.192901 19.576535 -1.365835 0.596764 0.010969 -0.007903 315381.000000 1 0 0
-14.733289 -0.203821 14.062901 20.368518 0.013833 0.808722 -0.025581 0.006368 -54972.700000 1 0 0
-13.757189 -5.845321 7.741001 16.833037 0.401779 1.092948 0.001663 -0.004228 15455.700000 1 0 0
10.092111 0.926279 16.752001 19.579025 0.091526 0.544069 0.023774 0.005821 296683.000000 1 0 0
-7.623989 12.056079 11.666301 18.427610 -1.006910 0.885260 0.008000 -0.014533 133273.000000 1 0 0
-1.796389 7.454679 20.062401 21.477876 -1.334330 0.365077 0.008225 -0.019013 490835.000000 1 0 0
1.157011 -13.454921 15.366401 20.457269 -1.485016 0.721000 -0.002941 -0.014284 451947.000000 1 0 0
-3.496189 -11.608421 17.824401 21.556624 1.278260 0.597287 0.015104 -0.012964 471841.000000 1 0 0
-2.297589 9.120579 16.669201 19.139648 -1.324018 0.513715 0.012356 -0.006557 329995.000000 1 0 0
-5.408389 -9.028921 20.224201 22.798912 1.031107 0.479840 0.066196 -0.028815 178996.000000 1 0 0
-6.733189 -2.811921 19.072701 20.420839 0.395604 0.365396 0.013899 -0.015574 8721.390000 1 0 0
-10.563389 -8.389521 15.680101 20.684168 0.671199 0.710444 0.019520 -0.013933 216789.000000 1 0 0
0.263811 6.641679 17.820801 19.020054 1.531097 0.357004 0.008673 -0.012412 179268.000000 1 0 0
-6.252689 -11.358621 18.902801 22.922266 1.067585 0.601217 0.027899 -0.008495 497390.000000 1 0 0
-0.009789 3.534079 18.697801 19.028861 -1.568026 0.186807 0.006446 -0.015636 141885.000000 1 0 0
-17.766189 -1.380721 7.876901 19.483055 0.077560 1.154588 -0.003000 -0.001658 41084.500000 1 0 0
-1.624889 -8.934521 17.443601 19.665837 1.390896 0.479989 0.012443 -0.009463 354837.000000 1 0 0
5.871311 3.445979 14.909701 16.390431 0.530745 0.428334 -0.001408 -0.007065 331599.000000 1 0 0
-13.903789 -7.075221 10.160001 18.617189 0.470718 0.993534 0.010864 0.001243 182234.000000 1 0 0
3.569411 7.949679 17.298901 19.369823 1.148774 0.466640 0.000789 0.007796 152921.000000 1 0 0
6.337211 4.476379 17.598701 19.233109 0.614984 0.415236 0.011094 -0.027476 1722.220000 1 0 0
5.902211 -9.156121 18.174001 21.188793 -0.998213 0.539983 0.030791 0.008797 297463.000000 1 0 0
-4.487789 -0.785121 19.695601 20.215671 0.173193 0.227320 0.001471 -0.010806 735215.000000 1 0 0
-11.024589 1.679179 17.163401 20.468110 -0.151150 0.576192 0.012637 -0.009922 159121.000000 1 0 0
-16.635889 -4.381321 8.718601 19.286336 0.257518 1.101722 0.012251 -0.011123 308430.000000 1 0 0
-12.773989 -9.607921 12.738001 20.438777 0.644874 0.897934 -0.015850 -0.009851 42968.600000 1 0 0
-14.659789 6.259979 12.978101 20.555482 -0.403578 0.887479 0.005230 -0.013045 130111.000000 1 0 0
1.090511 9.058179 17.263401 19.526004 1.450983 0.486181 -0.005061 -0.012364 367132.000000 1 0 0
-3.925689 -10.541621 15.055101 18.793426 1.214308 0.641693 0.017423 -0.011915 664061.000000 1 0 0
-18.489389 -4.091721 6.990401 20.185772 0.217791 1.217169 0.074637 -0.004320 -234532.000000 1 0 0
-1.202689 -0.464221 21.332901 21.371818 0.368367 0.060358 0.006098 -0.004656 337236.000000 1 0 0
-1.965489 2.287279 20.380901 20.602813 -0.860920 0.146904 0.002297 -0.014065 150648.000000 1 0 0
-7.895989 2.039179 16.302901 18.228809 -0.252733 0.463824 -0.011870 0.006974 542957.000000 1 0 0
2.476011 -1.985621 18.909401 19.173908 -0.675925 0.166295 0.006207 -0.005132 4286.250000 1 0 0
-11.698189 3.851879 15.021201 19.424754 -0.318090 0.686764 -0.041134 0.007246 69443.500000 1 0 0
-13.392189 -5.578421 13.124201 19.563081 0.394686 0.835421 0.009030 -0.005795 53441.700000 1 0 0
-16.935889 -0.668721 10.410001 19.890692 0.039465 1.020007 0.005835 -0.001137 7710.070000 1 0 0
-7.579289 7.573479 14.914801 18.364490 -0.785015 0.622961 -0.005898 -0.004288 160029.000000 1 0 0
-9.610489 0.751579 14.013301 17.008791 -0.078045 0.602563 0.006260 -0.004086 227764.000000 1 0 0
7.704911 -0.829721 15.105101 16.976989 -0.107274 0.474022 0.017047 -0.010202 177244.000000 1 0 0
3.877111 6.018079 18.555701 19.888773 0.998478 0.368209 0.009177 -0.016473 92106.600000 1 0 0
1.537911 0.994479 20.258701 20.341316 0.574011 0.090157 0.011034 -0.000505 177213.000000 1 0 0
-6.977489 6.705179 17.716401 20.187016 -0.765499 0.499935 -0.005494 -0.002344 612215.000000 1 0 0
7.555811 -3.263221 16.673501 18.594207 -0.407686 0.458530 0.012108 -0.005340 402800.000000 1 0 0
-17.221089 2.135279 9.301701 19.688752 -0.123362 1.078742 0.047843 -0.004331 414925.000000 1 0 0
4.332011 -5.261021 19.054801 20.236850 -0.881939 0.343477 0.042479 -0.012808 102870.000000 1 0 0
-3.923289 -3.686121 20.512101 21.206743 0.754241 0.256656 0.017321 -0.011539 353772.000000 1 0 0
-9.416889 5.492379 14.774501 18.361097 -0.528011 0.635688 -0.015900 0.001740 -175850.000000 1 0 0
6.748511 2.918779 19.751101 21.075285 0.408212 0.356372 0.034311 -0.032093 146634.000000 1 0 0
-7.473589 11.008279 14.819301 19.916034 -0.974368 0.731626 0.014595 -0.013015 254749.000000 1 0 0
-14.462689 4.954679 9.820301 18.170210 -0.330052 0.999811 -0.003456 0.004739 275471.000000 1 0 0
0.450111 -5.600021 20.671801 21.421629 -1.490592 0.265366 0.016438 0.003203 187442.000000 1 0 0
-6.117989 -8.591821 13.683601 17.276866 0.952015 0.656688 0.010910 -0.004259 371596.000000 1 0 0
-13.020489 10.076779 6.507101 17.703586 -0.658633 1.194414 -0.010255 -0.011826 120963.000000 1 0 0
-19.475889 1.608379 7.642601 20.983481 -0.082396 1.198001 0.019227 -0.016397 105631.000000 1 0 0
-15.885189 9.199979 6.382401 19.434862 -0.524951 1.236188 -0.004184 0.007247 24833.400000 1 0 0
-12.696089 7.507479 14.478601 20.668401 -0.534014 0.794672 -0.002330 -0.008509 190381.000000 1 0 0
-16.486989 9.063779 10.586501 21.588119 -0.502654 1.058264 0.011274 -0.011000 509436.000000 1 0 0
2.610111 10.430479 14.509201 18.058917 1.325593 0.637751 -0.005523 -0.038691 470172.000000 1 0 0
1.443011 14.355579 13.309101 19.628986 1.470614 0.825713 -0.000935 -0.012879 509121.000000 1 0 0
8.458511 5.128979 16.528801 19.262764 0.545089 0.539297 -0.004511 -0.009415 28692.400000 1 0 0
-0.614889 13.318279 13.320301 18.846354 -1.524660 0.785855 0.000950 0.008915 103910.000000 1 0 0
4.237311 12.643379 14.773201 19.901188 1.247420 0.734259 0.006541 0.007375 165883.000000 1 0 0
-3.610889 -4.567421 -13.566299 14.762938 0.901829 2.736188 -0.001605 -0.007012 133116.000000 1 0 0
5.316511 -11.757221 17.041401 21.375380 -1.146122 0.648080 -0.037314 0.026886 273276.000000 1 0 0
8.770511 -13.624721 7.486801 17.849568 -0.998848 1.137969 -0.003204 0.004802 109367.000000 1 0 0
-0.431889 15.335479 0.401201 15.346804 -1.542641 1.544651 -0.004757 0.003350 -380945.000000 1 0 0
-14.083989 8.166979 8.463401 18.349045 -0.525492 1.091399 -0.004201 0.004650 35858.000000 1 0 0
-16.095789 -9.690421 5.355401 19.536095 0.541923 1.293113 0.019908 -0.004053 253144.000000 1 0 0
8.608411 -10.745921 11.479001 17.926155 -0.895393 0.875843 -0.023351 0.006280 -45288.500000 1 0 0
-25.583869 5.952879 31.390425 40.930794 -0.228613 0.696777 0.010080 -0.010276 375290.000000 0 0 1
-24.349989 5.229679 31.336335 40.027957 -0.211558 0.671545 0.012505 -0.013849 386700.000000 0 0 1
-23.428589 5.771479 32.249405 40.276952 -0.241534 0.642348 0.004161 -0.007295 -1284580.000000 0 0 1
-22.017989 5.384579 31.940815 39.166327 -0.239846 0.617174 0.006392 -0.008080 -1262710.000000 0 0 1
-21.741689 4.048479 32.370955 39.204208 -0.184100 0.599353 0.003699 -0.008481 -262624.000000 0 0 1
-20.509489 3.577879 31.888275 38.082836 -0.172712 0.578397 0.007716 -0.007405 -345983.000000 0 0 1
-20.126489 2.275179 32.547535 38.335284 -0.112566 0.556663 0.001770 -0.004873 360795.000000 0 0 1
-21.004989 1.168779 32.250135 38.505153 -0.055586 0.578006 0.010842 -0.008966 546397.000000 0 0 1
-20.787489 0.195279 33.268080 39.229109 -0.009394 0.558510 0.002582 0.002769 -108569.000000 0 0 1
-21.332289 -1.191521 33.023339 39.332266 0.055797 0.574251 0.008079 -0.004135 -463142.000000 0 0 1
-20.419089 -2.015021 32.341165 38.300789 0.098365 0.565353 0.024896 0.002232 19669.000000 0 0 1
-20.600589 -3.434421 32.540205 38.665804 0.165195 0.570602 0.034478 -0.008065 -1249650.000000 0 0 1
-21.879889 -4.148921 32.123015 39.087481 0.187398 0.606192 0.027651 -0.003278 -1117280.000000 0 0 1
-22.972289 -3.894621 32.925216 40.335641 0.167939 0.615853 0.017257 0.001977 -597361.000000 0 0 1
-23.001489 -4.443121 34.235943 41.483847 0.190817 0.600092 0.014656 0.002733 -68986.900000 0 0 1
-24.237789 -3.952221 -33.758899 41.746302 0.161638 2.512681 0.006434 0.008890 823084.000000 0 0 1
-24.332189 -4.626021 -32.520809 40.878583 0.187877 2.490705 0.009195 0.003086 316676.000000 0 0 1
-25.621619 -4.429521 -31.946309 41.190468 0.171190 2.458422 0.002943 0.006035 61540.500000 0 0 1
-25.832309 -5.027021 -30.490049 40.276820 0.192200 2.429525 -0.010101 0.010151 -1063810.000000 0 0 1
-26.026919 -6.432921 -30.495109 40.604614 0.242308 2.420411 -0.010131 0.012303 529758.000000 0 0 1
-25.907479 -6.993121 -29.182169 39.644674 0.263644 2.398076 -0.029389 0.011331 -172552.000000 0 0 1
-26.184059 -8.515821 -29.026309 40.008134 0.314439 2.382572 -0.024388 0.009249 546703.000000 0 0 1
-27.551759 -8.919421 -28.893559 40.908352 0.313086 2.355054 0.000045 0.008731 446507.000000 0 0 1
-27.596479 -10.359821 -28.833059 41.233928 0.359125 2.345152 0.003094 0.013352 -405411.000000 0 0 1
-28.988729 -10.755021 -28.387709 41.974741 0.355265 2.313531 0.039622 0.005229 -334784.000000 0 0 1
-28.936179 -11.257621 -27.079039 41.198433 0.371031 2.288005 0.058103 0.001318 -759285.000000 0 0 1
-30.223739 -11.406921 -26.595259 41.843758 0.360887 2.259562 0.066399 -0.000929 -732042.000000 0 0 1
-30.316739 -12.134821 -25.235559 41.269747 0.380737 2.228724 0.080344 0.000766 -228453.000000 0 0 1
-29.633429 -11.451721 -24.239399 39.960362 0.368768 2.222556 0.063905 -0.000454 143717.000000 0 0 1
-29.642509 -12.221121 -23.073299 39.502041 0.391051 2.194572 0.062184 -0.008110 -165870.000000 0 0 1
-28.929789 -11.414921 -21.939599 38.060204 0.375819 2.185167 0.051714 -0.008343 60559.000000 0 0 1
-28.928609 -12.079921 -20.677199 37.554433 0.395567 2.153870 0.052788 -0.005482 540415.000000 0 0 1
-27.980559 -13.161821 -20.599699 37.154984 0.439682 2.158470 0.048281 -0.006115 -88400.400000 0 0 1
-27.682629 -13.689421 -19.197999 36.363324 0.459248 2.126981 0.046916 -0.009501 199386.000000 0 0 1
-27.082579 -12.608121 -18.434599 35.103636 0.435705 2.123685 0.043251 -0.007532 431070.000000 0 0 1
-26.980889 -13.053421 -17.071499 34.493423 0.450606 2.088540 0.044383 -0.020111 -86912.000000 0 0 1
-26.777219 -11.841921 -16.127999 33.426979 0.416381 2.074285 0.042694 -0.014627 276593.000000 0 0 1
-25.521489 -11.186821 -16.306399 32.286065 0.413106 2.100248 0.043137 -0.004597 576723.000000 0 0 1
-25.405609 -9.892921 -15.686799 31.454579 0.371334 2.092909 0.046465 -0.013268 69241.800000 0 0 1
-24.029389 -9.246021 -16.013099 30.320287 0.367317 2.127195 0.057261 -0.011499 387920.000000 0 0 1
-23.001489 -9.772221 -15.206199 29.253945 0.401745 2.117413 0.049898 -0.015065 436343.000000 0 0 1
-21.745689 -9.146621 -15.456899 28.203748 0.398153 2.150820 0.055759 -0.027386 1193170.000000 0 0 1
-20.608989 -9.287521 -14.350499 26.775461 0.423398 2.136437 0.026846 -0.003653 898841.000000 0 0 1
-19.976289 -10.600921 -14.438699 26.831095 0.487886 2.139017 0.026897 -0.004465 454035.000000 0 0 1
-18.902389 -10.734121 -13.510599 25.594100 0.516460 2.126898 0.022516 -0.004146 562148.000000 0 0 1
-17.777789 -11.624121 -14.145499 25.519896 0.579081 2.158310 0.023061 -0.002387 285124.000000 0 0 1
-17.037789 -11.093421 -15.218299 25.395804 0.577153 2.213354 0.028027 -0.006594 -131323.000000 0 0 1
-17.707589 -11.324421 -16.418699 26.671612 0.568975 2.233927 0.031767 -0.013149 -135625.000000 0 0 1
-17.005289 -10.724021 -17.701299 26.786573 0.562637 2.292717 0.031624 -0.009013 256019.000000 0 0 1
-17.827289 -10.887021 -18.837599 28.128182 0.548246 2.304609 0.032278 -0.003165 455988.000000 0 0 1
-17.175889 -10.488921 -20.008699 28.379159 0.548233 2.353289 0.036586 -0.010714 338064.000000 0 0 1
-18.105489 -10.986221 -21.158999 29.936750 0.545397 2.355747 0.042479 -0.007443 233075.000000 0 0 1
-19.327589 -10.326421 -21.290899 30.553119 0.490697 2.341791 0.026718 -0.010459 161669.000000 0 0 1
-20.237789 -10.966921 -22.196199 31.976753 0.496606 2.338015 0.023096 0.001578 956207.000000 0 0 1
-21.408689 -10.071721 -22.720799 32.802534 0.439730 2.335958 0.010315 0.003978 271284.000000 0 0 1
-20.961489 -8.986521 -23.476899 32.730817 0.405014 2.370676 0.006372 -0.002744 571314.000000 0 0 1
-22.053489 -8.363521 -24.153799 33.759604 0.362481 2.368085 -0.002283 -0.008683 103220.000000 0 0 1
-21.538689 -7.505021 -25.313169 34.073406 0.335288 2.408190 -0.000035 -0.011753 214172.000000 0 0 1
-20.880589 -8.379521 -26.279139 34.594920 0.381632 2.433531 0.011854 -0.015358 371942.000000 0 0 1
-20.410189 -7.617721 -27.386949 34.995006 0.357219 2.469621 0.005556 -0.022213 -352894.000000 0 0 1
-19.098989 -8.065521 -28.045419 34.876490 0.399582 2.505016 0.047614 -0.021064 -313631.000000 0 0 1
-19.170089 -9.254221 -28.816589 35.826369 0.449747 2.505361 0.042662 -0.010017 581840.000000 0 0 1
-17.902089 -9.634821 -29.352129 35.705210 0.493735 2.535831 0.023056 -0.001038 199798.000000 0 0 1
-17.944389 -10.964121 -30.152939 36.761567 0.548473 2.532609 0.015896 0.000825 -507179.000000 0 0 1
-18.596189 -10.848221 -31.359129 38.038101 0.528092 2.539962 0.020544 0.000988 164525.000000 0 0 1
-18.479589 -12.033621 -32.103169 38.947615 0.577207 2.539700 0.013084 0.009952 -288153.000000 0 0 1
-19.186389 -11.969921 -33.481069 40.402704 0.557790 2.547548 0.009074 0.004126 -390525.000000 0 0 1
-18.622689 -11.256721 34.314528 40.632562 0.543694 0.565150 0.018447 -0.004285 -416031.000000 0 0 1
-19.139889 -11.459421 33.008400 39.839781 0.539477 0.594321 0.014902 -0.005722 -386690.000000 0 0 1
-18.637489 -12.649721 32.085585 39.202757 0.596304 0.612084 0.021858 -0.015441 -393935.000000 0 0 1
-17.332289 -12.400321 31.634685 38.143538 0.621018 0.592837 0.024862 -0.012779 7958.940000 0 0 1
-16.880089 -13.219221 30.510345 37.290298 0.664366 0.612550 0.024428 -0.016072 227280.000000 0 0 1
-16.730189 -14.736921 30.637925 37.891404 0.722138 0.629075 0.024123 -0.012068 -310085.000000 0 0 1
-17.999689 -15.381421 30.550265 38.650946 0.707123 0.659311 0.016890 -0.016828 345764.000000 0 0 1
-18.007289 -16.708921 30.972645 39.531699 0.748016 0.670536 0.022487 -0.024268 -258496.000000 0 0 1
-18.321689 -16.957821 32.427515 40.924268 0.746758 0.656098 -0.003080 -0.020190 -867667.000000 0 0 1
-17.242189 -16.695521 33.232624 40.993180 0.769292 0.625472 0.011905 -0.015663 -457853.000000 0 0 1
-17.751289 -16.279721 -34.366270 41.966393 0.742183 2.530288 0.008996 -0.010805 -35655.700000 0 0 1
-16.566489 -15.866421 -33.517269 40.615258 0.763816 2.541420 0.018447 -0.005172 -446158.000000 0 0 1
-15.965289 -14.712121 -34.058919 40.389936 0.744571 2.574102 0.015264 -0.005868 67323.200000 0 0 1
-14.844289 -14.202521 -33.330119 39.153051 0.763307 2.589212 0.016368 -0.002230 84169.100000 0 0 1
-15.080489 -13.661521 -31.908249 37.844348 0.736069 2.573901 0.029348 -0.000798 -591414.000000 0 0 1
-15.258089 -14.717721 -31.059379 37.604596 0.767373 2.542675 0.023226 -0.001746 -255054.000000 0 0 1
-15.609989 -14.222921 -29.790299 36.516095 0.738937 2.524930 0.026021 -0.001421 -298389.000000 0 0 1
-15.772989 -15.367421 -28.750479 36.215119 0.772375 2.487961 0.026705 0.010978 309534.000000 0 0 1
-14.591789 -15.988521 -28.272269 35.607223 0.831041 2.488163 0.034695 -0.004027 39608.700000 0 0 1
-13.886489 -16.728021 -29.292169 36.478657 0.877950 2.503099 0.027218 -0.008992 -60053.900000 0 0 1
-12.513089 -17.314021 -28.847589 35.896185 0.944988 2.504182 0.031929 -0.002700 151115.000000 0 0 1
-11.582889 -16.280221 -28.671759 34.946798 0.952414 2.532977 0.025086 -0.006812 -52403.900000 0 0 1
-10.407689 -16.759621 -28.005829 34.256844 1.015080 2.527897 0.029103 -0.012444 417538.000000 0 0 1
-9.288789 -15.721621 -27.887009 33.333710 1.037148 2.561845 0.015745 -0.010732 -406475.000000 0 0 1
-9.542589 -14.516321 -27.170289 32.249174 0.989258 2.572724 0.025359 -0.010538 -597681.000000 0 0 1
-8.378989 -13.911221 -26.663319 31.219579 1.028674 2.594533 0.035857 -0.013429 -197395.000000 0 0 1
-8.067689 -12.503021 -27.163269 30.971864 0.997761 2.640442 0.027428 -0.015213 -64149.800000 0 0 1
-7.456589 -12.409821 -28.455839 31.927091 1.029743 2.670947 0.032621 -0.010773 361252.000000 0 0 1
-7.504989 -11.000121 -28.929459 31.847153 0.972073 2.710200 0.028637 -0.012552 62172.000000 0 0 1
-6.690589 -10.723421 -30.247229 32.781864 1.012972 2.745775 0.023153 -0.002721 -578313.000000 0 0 1
-5.322489 -10.949921 -30.086609 32.456644 1.118350 2.757072 0.026731 -0.000313 -273768.000000 0 0 1
-4.554989 -10.570521 -31.212669 33.267320 1.163927 2.788299 0.023316 0.000734 55263.700000 0 0 1
-4.257789 -9.020721 -31.421699 32.967034 1.129798 2.834197 0.009554 -0.003697 -1220020.000000 0 0 1
-3.162389 -8.619821 -32.177319 33.461648 1.219169 2.863635 0.012856 -0.003944 -151723.000000 0 0 1
-3.348789 -7.261721 -32.459529 33.430047 1.138704 2.900044 0.012464 -0.009788 867745.000000 0 0 1
-1.957789 -6.673921 -32.905739 33.632749 1.285452 2.933293 0.019103 -0.013727 879163.000000 0 0 1
-1.522089 -7.074521 -34.193879 34.951209 1.358876 2.933041 0.024033 -0.009220 -95736.800000 0 0 1
-0.236289 -6.600521 34.331316 34.960863 1.535013 0.190061 0.020774 -0.001588 332143.000000 0 0 1
0.317811 -7.329021 33.009302 33.814635 -1.527460 0.218684 0.017797 -0.002572 103526.000000 0 0 1
-0.270389 -6.800921 31.818145 32.537977 1.531060 0.210736 0.023991 -0.001317 548793.000000 0 0 1
0.231311 -7.585121 30.715675 31.639220 -1.540310 0.242211 0.017747 0.004044 94162.200000 0 0 1
-0.207489 -6.985721 29.378035 30.197885 1.541103 0.233551 0.018366 0.008226 6903.770000 0 0 1
0.445911 -5.756621 29.077165 29.644882 -1.493490 0.196021 0.026391 -0.001763 190139.000000 0 0 1
0.333011 -5.377221 27.689205 28.208464 -1.508945 0.192170 0.032972 0.008055 -606398.000000 0 0 1
-0.864189 -4.456521 27.362035 27.736048 1.379258 0.164409 0.035734 0.009264 325816.000000 0 0 1
-2.109289 -5.084921 27.525135 28.070243 1.177586 0.197396 0.037984 0.012772 -523462.000000 0 0 1
-3.225289 -4.264221 27.315315 27.833657 0.923237 0.193292 0.023925 0.004564 678774.000000 0 0 1
-4.618789 -4.919421 27.576145 28.389746 0.816906 0.239984 0.022934 0.004868 510727.000000 0 0 1
-5.079089 -5.806121 26.602225 27.698133 0.852090 0.282240 0.016484 0.013719 -394970.000000 0 0 1
-6.424589 -6.104621 26.897535 28.319942 0.759866 0.318285 0.006239 0.008076 258023.000000 0 0 1
-6.727189 -7.617621 26.632075 28.505274 0.847392 0.364546 0.010490 0.005404 16131.900000 0 0 1
-6.185889 -8.287321 27.713795 29.580388 0.929585 0.357148 0.008710 0.003090 -234260.000000 0 0 1
-6.036689 -9.684021 27.480045 29.755247 1.013373 0.393596 0.008182 0.000861 125311.000000 0 0 1
-5.355289 -10.352421 28.704405 30.980552 1.093406 0.385715 0.015583 -0.003091 130649.000000 0 0 1
-5.461089 -11.774421 28.619795 31.425358 1.136518 0.425765 0.024752 -0.006229 -234497.000000 0 0 1
-4.849389 -12.225221 29.753925 32.531041 1.193163 0.416200 0.031558 -0.008612 -351735.000000 0 0 1
-4.849489 -13.704721 29.979335 33.318125 1.230691 0.451507 0.045765 -0.014383 -463732.000000 0 0 1
-6.102389 -14.261121 30.220605 33.969158 1.166469 0.474222 0.048883 -0.021321 -809313.000000 0 0 1
-6.110589 -15.662921 30.222535 34.584216 1.198827 0.507664 0.047059 -0.022606 71390.900000 0 0 1
-6.349289 -16.196721 31.674695 36.137702 1.197196 0.502253 0.046098 -0.019853 -626506.000000 0 0 1
-7.695189 -16.252821 32.003945 36.709980 1.128599 0.511921 0.053898 -0.016430 -1036940.000000 0 0 1
-7.799789 -16.531421 33.354830 38.035106 1.129949 0.501321 0.050258 -0.011502 418527.000000 0 0 1
-9.245389 -16.902921 33.858372 38.956069 1.070282 0.517331 0.049535 -0.015326 759726.000000 0 0 1
-9.679989 -18.186621 33.312266 39.168385 1.081676 0.553883 0.036627 -0.012304 258800.000000 0 0 1
-10.093789 -18.149021 31.925855 38.085847 1.063235 0.576711 0.031196 -0.018012 -710011.000000 0 0 1
-10.606489 -19.575621 31.548575 38.613665 1.074254 0.614553 0.029480 -0.021111 -154096.000000 0 0 1
-11.739489 -19.939321 32.311405 39.741905 1.038682 0.621457 0.033799 -0.023287 73034.900000 0 0 1
-12.042789 -21.275521 32.377475 40.570647 1.055722 0.646741 0.020697 -0.016164 -597374.000000 0 0 1
-11.346989 -22.056721 33.467088 41.656921 1.095659 0.637816 0.008987 -0.003936 -979289.000000 0 0 1
-10.073989 -22.492521 33.096319 41.264574 1.149705 0.640074 -0.003480 -0.005454 -703372.000000 0 0 1
-9.357189 -23.095221 34.135536 42.263235 1.185852 0.630575 0.006904 -0.011820 -110854.000000 0 0 1
-9.875389 -24.468321 -34.309400 43.282294 1.187191 2.486004 0.015073 -0.000481 -484851.000000 0 0 1
-9.469589 -25.499201 33.664287 43.280094 1.215214 0.679601 0.006262 0.002049 -69957.000000 0 0 1
-9.847989 -26.802501 33.974855 44.380713 1.218681 0.698929 0.028560 -0.005425 -841630.000000 0 0 1
-9.479889 -27.800121 32.831162 44.052244 1.242160 0.729845 0.001879 -0.000696 146879.000000 0 0 1
-8.094489 -27.819861 32.525005 43.558482 1.287653 0.727713 0.022131 -0.007887 830663.000000 0 0 1
-7.207889 -28.530041 33.415440 44.525369 1.323333 0.722007 0.016722 -0.013625 1507940.000000 0 0 1
-5.651189 -28.249651 33.422312 44.125159 1.373358 0.711408 0.027135 -0.011564 1673590.000000 0 0 1
-5.183789 -26.942171 33.875963 43.592811 1.380715 0.680752 0.027347 -0.006420 126334.000000 0 0 1
-4.922189 -26.058901 32.819323 42.194813 1.384109 0.679631 0.045768 0.004835 45269.100000 0 0 1
-4.724689 -24.600921 33.326890 41.691841 1.381053 0.644563 0.037969 -0.006625 -162956.000000 0 0 1
-3.464989 -24.560121 33.932406 42.031106 1.430639 0.631206 0.032172 -0.000783 -377188.000000 0 0 1
-3.275989 -23.366521 -34.157265 41.514397 1.431504 2.537084 0.027877 0.002005 61491.800000 0 0 1
33.985492 -15.049421 2.207501 37.234014 -0.416866 1.511474 0.044096 -0.024939 -86932.700000 0 0 1
34.653402 -15.522221 3.373801 38.120600 -0.421129 1.482177 0.030064 -0.024009 636077.000000 0 0 1
33.991522 -16.610521 4.111001 38.055661 -0.454540 1.462559 0.039303 -0.018332 63776.200000 0 0 1
34.650122 -16.777021 5.468701 38.884522 -0.450915 1.429689 0.037126 -0.006718 -438044.000000 0 0 1
-35.116636 -17.429621 5.297301 39.560476 0.460711 1.436489 0.041292 -0.001352 -488017.000000 0 0 1
-34.480128 -17.572121 6.549301 39.249866 0.471322 1.403150 0.035996 0.005928 215840.000000 0 0 1
-33.217359 -18.474121 6.539001 38.567404 0.507559 1.400426 0.023963 0.003044 -34521.000000 0 0 1
-33.401259 -19.865221 6.317701 39.372382 0.536546 1.409639 0.034945 0.005201 -58557.300000 0 0 1
-32.217089 -20.485621 6.753901 38.771338 0.566372 1.395705 0.020519 0.008040 -13452.600000 0 0 1
-32.339929 -21.964921 7.053701 39.725099 0.596622 1.392287 0.018898 0.001346 -224882.000000 0 0 1
-32.155299 -22.772321 5.925901 39.845428 0.616207 1.421520 0.040730 -0.001621 106182.000000 0 0 1
-32.434349 -24.112121 6.223401 40.891467 0.639272 1.418009 0.059316 -0.007188 -145643.000000 0 0 1
-32.018359 -25.159641 5.189001 41.050074 0.666015 1.444051 0.053300 -0.009331 -130993.000000 0 0 1
-32.778759 -25.174091 4.004501 41.523703 0.654922 1.474207 0.051703 -0.002438 1527.930000 0 0 1
-32.147059 -25.969771 3.020501 41.436528 0.679505 1.497837 0.049169 -0.007911 60236.300000 0 0 1
-32.709289 -25.778821 1.595101 41.677207 0.667454 1.532514 0.050397 -0.008995 -352550.000000 0 0 1
-33.957549 -26.287461 1.183101 42.959812 0.658765 1.543253 0.046132 -0.010548 -24030.000000 0 0 1
-34.325637 -25.613081 -0.029399 42.828497 0.641051 1.571483 0.052035 -0.010278 -139569.000000 0 0 1
-35.341274 -24.485621 0.319601 42.995970 0.605900 1.563363 0.055905 -0.005010 -539149.000000 0 0 1
34.304152 -24.929521 0.229501 42.406468 -0.628435 1.565384 0.030866 -0.013227 -497797.000000 0 0 1
33.548872 -23.916121 0.813801 41.208857 -0.619314 1.551047 0.036382 -0.001152 -388998.000000 0 0 1
32.037122 -24.099321 0.600101 40.093822 -0.644928 1.555828 0.005810 -0.000726 -112300.000000 0 0 1
31.762452 -23.757721 -0.780699 39.672310 -0.642208 1.590476 0.005186 -0.008078 202635.000000 0 0 1
30.362152 -23.817921 -1.028999 38.603270 -0.665194 1.597455 0.005323 -0.003787 407420.000000 0 0 1
30.016022 -23.498421 -2.475499 38.200333 -0.664204 1.635645 -0.002751 0.002110 -220237.000000 0 0 1
30.256632 -22.142321 -2.811199 37.598524 -0.631762 1.645635 0.005733 -0.007909 167702.000000 0 0 1
30.085512 -21.975421 -4.221499 37.495042 -0.630860 1.683624 0.004123 -0.020994 -186573.000000 0 0 1
30.525822 -20.566621 -4.600799 37.094192 -0.592887 1.695147 0.012660 -0.020747 67719.900000 0 0 1
29.615362 -19.674021 -3.978599 35.776613 -0.586375 1.682234 0.013046 -0.017194 321839.000000 0 0 1
29.895252 -18.312721 -4.304799 35.321568 -0.549606 1.692975 0.019569 -0.016927 869769.000000 0 0 1
28.794732 -17.449221 -3.512399 33.851866 -0.544810 1.674741 0.016990 -0.015407 900566.000000 0 0 1
29.020082 -17.287121 -2.064499 33.841866 -0.537248 1.631839 0.019786 -0.009816 20096.500000 0 0 1
29.395872 -18.390521 -1.198099 34.695302 -0.559042 1.605335 0.006526 0.001859 -656551.000000 0 0 1
28.421592 -19.572921 -1.121999 34.527453 -0.603077 1.603298 0.005144 -0.000650 -217288.000000 0 0 1
27.379462 -19.459621 -0.184099 33.590857 -0.617896 1.576277 0.007523 0.010981 48422.500000 0 0 1
26.927152 -20.748921 0.301901 33.995299 -0.656529 1.561916 0.016336 0.007240 449366.000000 0 0 1
25.881462 -20.584421 1.472501 33.101914 -0.671890 1.526298 0.020315 0.013246 -1010110.000000 0 0 1
25.221662 -21.811921 1.802801 33.393745 -0.713029 1.516784 0.023077 0.023293 275280.000000 0 0 1
24.160162 -21.630221 2.714301 32.541471 -0.730204 1.487289 0.025624 0.011881 333925.000000 0 0 1
22.869862 -20.990721 2.137501 31.116071 -0.742581 1.502048 0.025311 0.008849 -826522.000000 0 0 1
23.076462 -19.589221 1.760601 30.320956 -0.703845 1.512698 0.029407 0.001692 -89970.000000 0 0 1
23.074762 -18.753921 2.918901 29.877653 -0.682465 1.472945 0.035676 0.006113 -432138.000000 0 0 1
22.890362 -17.280621 2.645101 28.802519 -0.646649 1.478831 0.041087 0.008654 -191332.000000 0 0 1
21.594262 -16.962021 2.226401 27.549577 -0.665829 1.489894 0.044889 0.004246 -418716.000000 0 0 1
21.645062 -15.572021 1.811701 26.725995 -0.623645 1.502956 0.056621 -0.012712 150030.000000 0 0 1
20.306362 -14.991821 1.339901 25.276439 -0.635959 1.517762 0.053703 -0.012028 -88960.700000 0 0 1
19.205662 -15.005821 2.230801 24.474652 -0.663248 1.479522 0.047552 -0.008906 643792.000000 0 1 0
18.152062 -14.094521 1.929201 23.062409 -0.660227 1.487047 0.045568 -0.011017 3584.790000 0 1 0
18.403462 -12.621421 2.294301 22.433268 -0.601144 1.468345 0.051895 -0.007670 -367206.000000 0 1 0
19.305662 -12.018521 1.359101 22.781584 -0.556827 1.511103 0.045357 -0.009266 608084.000000 0 1 0
19.623562 -10.734221 1.876301 22.446117 -0.500542 1.487107 0.042778 -0.014306 -282777.000000 0 1 0
20.553962 -9.843721 1.025401 22.812620 -0.446643 1.525832 0.041158 -0.013787 -242718.000000 0 1 0
19.976462 -9.458721 -0.202699 22.103564 -0.442218 1.579967 0.051358 -0.013878 -99432.500000 0 1 0
20.938362 -8.969821 -1.054499 22.803172 -0.404740 1.617056 0.047451 -0.011577 -1016280.000000 0 1 0
20.406562 -8.457221 -2.411699 22.220906 -0.392889 1.679543 0.050584 -0.010214 -167139.000000 0 1 0
21.337462 -7.848821 -3.325399 22.977153 -0.352481 1.716033 0.048248 -0.012846 699944.000000 0 1 0
22.316762 -8.705621 -3.892699 24.268886 -0.371937 1.731891 0.039719 -0.008694 -698911.000000 0 1 0
21.873662 -9.796621 -4.883499 24.459751 -0.421084 1.771802 0.026721 -0.008170 -577039.000000 0 1 0
21.257662 -9.338621 -6.047899 23.993231 -0.413925 1.825612 0.020865 -0.018934 -607993.000000 0 1 0
19.887662 -9.208921 -5.930999 22.704627 -0.433651 1.835087 0.017357 -0.012029 -1496230.000000 0 1 0
19.034362 -9.369821 -7.173199 22.395430 -0.457435 1.896840 0.012739 -0.011553 -518654.000000 0 1 0
19.114062 -10.614521 -7.774199 23.204603 -0.506922 1.912432 0.020704 -0.006886 891859.000000 0 1 0
20.222162 -10.868221 -8.650499 24.533349 -0.493150 1.931146 0.019237 -0.005625 129368.000000 0 1 0
20.138462 -12.224621 -9.384699 25.358856 -0.545572 1.949887 0.019827 -0.009386 -466173.000000 0 0 1
19.097162 -12.244421 -10.317899 24.921607 -0.570139 1.997656 0.029655 -0.022640 -14636.700000 0 1 0
18.905862 -13.548921 -10.750799 25.623906 -0.621815 2.003758 0.025482 -0.014908 235365.000000 0 0 1
17.637062 -13.711921 -11.653099 25.196775 -0.660838 2.051591 0.021608 -0.015328 347906.000000 0 0 1
17.258962 -15.030921 -11.831799 25.764158 -0.716506 2.047930 0.023835 -0.020506 508876.000000 0 0 1
16.331962 -15.119521 -12.934099 25.741480 -0.746868 2.097240 0.029280 -0.020561 333.399000 0 0 1
16.167762 -16.562521 -13.382699 26.735936 -0.797459 2.095031 0.022246 -0.018554 -305695.000000 0 0 1
15.619862 -17.362321 -12.331299 26.410059 -0.838179 2.056597 0.023016 -0.017464 275066.000000 0 0 1
15.776562 -18.747821 -12.579999 27.543367 -0.871249 2.045117 0.019672 -0.018885 -712342.000000 0 0 1
14.800562 -19.628821 -11.808399 27.272432 -0.924726 2.018592 0.018207 -0.017920 452579.000000 0 0 1
13.440562 -19.360621 -12.181599 26.530618 -0.963959 2.047837 0.003706 -0.011831 233822.000000 0 0 1
12.604862 -20.413221 -11.776199 26.725662 -1.017619 2.027100 -0.001075 -0.010265 432623.000000 0 0 1
11.095162 -20.152121 -12.054999 25.971785 -1.067515 2.053480 -0.002073 -0.013716 420842.000000 0 0 1
10.276962 -21.141921 -11.487299 26.163998 -1.118335 2.025337 -0.006599 -0.009937 -269568.000000 0 0 1
8.912162 -20.850021 -11.678499 25.505634 -1.166860 2.046404 -0.004139 -0.012121 489868.000000 0 0 1
7.854562 -21.477721 -10.718499 25.256145 -1.220197 2.009086 -0.003967 -0.007492 138055.000000 0 0 1
7.949662 -22.879521 -10.550799 26.419481 -1.236388 1.981611 0.006939 -0.009201 -228748.000000 0 0 1
6.914262 -23.409221 -9.771899 26.292369 -1.283597 1.951596 0.012602 -0.018280 -152783.000000 0 0 1
6.917862 -24.925821 -9.835399 27.674690 -1.300072 1.934131 0.022544 -0.018253 329260.000000 0 0 1
8.074062 -25.479901 -9.232699 28.278235 -1.263926 1.903389 0.024209 -0.010205 -200001.000000 0 0 1
8.391462 -26.753691 -9.680799 29.663016 -1.266858 1.903246 0.022796 -0.007045 612804.000000 0 0 1
9.892262 -27.084871 -9.409499 30.331267 -1.220617 1.886225 0.015405 0.000459 383187.000000 0 0 1
10.242262 -27.326851 -8.118199 30.291350 -1.212196 1.842117 0.016425 -0.001921 1143450.000000 0 0 1
11.680962 -27.563241 -8.073499 31.005782 -1.169953 1.834219 0.017739 0.005342 1405100.000000 0 0 1
12.157462 -27.845591 -6.590899 31.090525 -1.159139 1.784408 0.009821 -0.003338 49181.000000 0 0 1
11.742862 -29.065151 -5.991099 31.915060 -1.186830 1.759637 0.020429 -0.004829 -185610.000000 0 0 1
10.383562 -29.101461 -5.628999 31.406990 -1.228072 1.750998 0.030010 -0.004067 -198297.000000 0 0 1
10.002162 -30.317611 -4.684699 32.266813 -1.252128 1.716498 0.038770 -0.009899 220596.000000 0 0 1
10.206762 -31.628291 -5.235499 33.644275 -1.258637 1.727045 0.041280 -0.003715 -473905.000000 0 0 1
9.192662 -31.976831 -6.119799 33.830086 -1.290866 1.752696 0.057401 -0.000673 -104798.000000 0 0 1
9.275062 -33.506641 -6.358499 35.343349 -1.300746 1.751688 0.061072 -0.001605 -5758.570000 0 0 1
8.992062 -34.264851 -5.186699 35.802780 -1.314155 1.716177 0.046737 -0.002751 -52148.100000 0 0 1
9.214262 33.316933 -5.344299 34.978310 1.300977 1.724186 0.051731 -0.005156 -52176.700000 0 0 1
8.774762 32.463851 -4.169499 33.886322 1.306811 1.694153 0.038009 -0.001136 -112866.000000 0 0 1
7.387962 32.256681 -4.065699 33.340746 1.345643 1.693044 0.040455 -0.002350 -618423.000000 0 0 1
7.139862 31.165721 -3.241899 32.137046 1.345589 1.671846 0.025515 -0.004664 -151281.000000 0 0 1
5.847462 30.396171 -3.517099 31.152689 1.380743 1.683936 0.024048 -0.002826 -89129.900000 0 0 1
5.909762 29.754371 -4.771199 30.708504 1.374730 1.726799 0.018604 -0.003105 90617.200000 0 0 1
5.292362 30.532941 -5.795499 31.525504 1.399169 1.755683 0.024634 -0.003153 -276146.000000 0 0 1
5.367862 29.963111 -7.264799 31.295036 1.393528 1.805073 0.036883 -0.009885 41024.800000 0 0 1
4.620162 28.759191 -7.475599 30.071939 1.411507 1.822021 0.039033 -0.007121 338606.000000 0 0 1
5.177362 27.523791 -6.884399 28.840234 1.384864 1.811832 0.030364 -0.005747 -468913.000000 0 0 1
4.490562 26.264871 -7.416899 27.658977 1.401461 1.842274 0.030981 -0.010373 1194450.000000 0 0 1
3.091262 26.116921 -7.047399 27.227106 1.452982 1.832615 0.027692 -0.011213 776547.000000 0 0 1
2.238962 26.847551 -7.899399 28.074979 1.487593 1.856016 0.034922 -0.014706 -387838.000000 0 0 1
1.577762 25.996751 -9.051299 27.572566 1.510180 1.905270 0.032660 -0.011376 117972.000000 0 0 1
2.537062 25.485331 -9.972899 27.484495 1.471573 1.942127 0.028550 -0.011439 151245.000000 0 0 1
1.949162 24.911601 -11.138799 27.357996 1.492712 1.990128 0.031375 -0.003222 -234287.000000 0 0 1
1.756662 23.415901 -11.109299 25.977044 1.495917 2.012697 0.041720 -0.009072 -522170.000000 0 0 1
0.659662 23.005201 -10.375299 25.245222 1.542130 1.994326 0.040952 -0.011677 -887814.000000 0 0 1
0.658662 21.614901 -10.361299 23.979039 1.540333 2.017614 0.029591 -0.014606 -546271.000000 0 1 0
-0.389538 20.924901 -9.507399 22.986819 -1.552182 1.997203 0.033605 -0.011676 -736789.000000 0 1 0
-1.691538 21.189401 -9.944899 23.468128 -1.491136 2.008391 0.037552 -0.007835 -745903.000000 0 1 0
-2.563138 20.230101 -9.322299 22.421684 -1.444769 1.999587 0.028392 -0.009951 693268.000000 0 1 0
-4.029238 20.719101 -9.565799 23.173701 -1.378724 1.996308 0.038162 -0.006895 381917.000000 0 1 0
-5.067238 19.930201 -9.070699 22.475929 -1.321822 1.986216 0.029595 -0.012961 -375592.000000 0 1 0
-5.884138 19.454801 -10.090199 22.691947 -1.277092 2.031591 0.029827 -0.008002 -1198490.000000 0 1 0
-6.758238 18.281701 -9.632699 21.741280 -1.216705 2.029806 0.033806 -0.011001 -149181.000000 0 1 0
-7.731438 18.645601 -8.675299 21.970307 -1.177723 1.976717 0.044123 -0.012135 -415253.000000 0 1 0
-8.936138 19.059301 -9.269599 23.000804 -1.132370 1.985602 0.052926 -0.014775 -1025720.000000 0 1 0
-9.927838 19.384901 -8.157399 23.256817 -1.097482 1.929171 0.059953 -0.023937 -440525.000000 0 1 0
-10.269238 18.170701 -7.516499 22.183989 -1.056393 1.916465 0.056541 -0.022867 -510344.000000 0 1 0
-11.180538 18.399101 -6.501699 22.490074 -1.024758 1.864074 0.054828 -0.023154 -768407.000000 0 1 0
-11.607138 17.204901 -5.753699 21.536929 -0.977293 1.841236 0.033737 -0.024097 -258156.000000 0 1 0
-12.393438 17.615701 -4.638399 22.032362 -0.957695 1.782910 0.045934 -0.024098 86910.800000 0 1 0
-12.867338 16.532401 -3.904199 21.310360 -0.909421 1.755044 0.038769 -0.019236 -52349.900000 0 1 0
-14.119338 16.884201 -3.061499 22.221717 -0.874342 1.709007 0.028569 -0.018472 -632377.000000 0 1 0
-15.346738 17.008201 -3.700899 23.205558 -0.836704 1.730964 0.056444 -0.024402 -634824.000000 0 1 0
-16.183538 17.537201 -2.687199 24.014191 -0.825520 1.682932 0.047271 -0.018601 -746988.000000 0 1 0
-17.574338 17.779401 -3.264699 25.211559 -0.791198 1.700653 0.052346 -0.023481 -596825.000000 0 0 1
-17.535938 18.911101 -4.080699 26.111127 -0.823111 1.727722 0.038900 -0.025292 595655.000000 0 0 1
-18.855638 19.115501 -4.582099 27.238449 -0.792242 1.739822 0.022867 -0.029232 522305.000000 0 0 1
-18.792838 19.758601 -6.011399 27.923288 -0.810444 1.787778 0.010109 -0.010654 -423427.000000 0 0 1
-18.460138 21.132201 -6.003599 28.694770 -0.852785 1.781576 0.011745 -0.024665 174981.000000 0 0 1
-18.674738 21.638401 -7.291399 29.497979 -0.858782 1.820568 0.004746 -0.009649 -252007.000000 0 0 1
-18.614538 23.164401 -7.496199 30.647732 -0.893874 1.817896 0.003826 -0.006431 177314.000000 0 0 1
-17.366838 23.786501 -7.206899 30.320687 -0.940145 1.810782 0.023424 -0.011734 281753.000000 0 0 1
-17.249338 24.143051 -5.861199 30.245334 -0.950429 1.765819 0.016624 -0.005165 286239.000000 0 0 1
-16.000038 25.048321 -5.597299 30.244824 -1.002358 1.756936 0.025160 -0.017196 166511.000000 0 0 1
-15.886638 25.534341 -4.255899 30.372694 -1.014236 1.711382 0.017002 -0.019100 633864.000000 0 0 1
-14.686038 26.254001 -3.928199 30.337815 -1.060778 1.700643 0.030626 -0.013473 566125.000000 0 0 1
-14.252538 27.556591 -4.660399 31.372279 -1.093476 1.719900 0.037642 -0.006178 29370.300000 0 0 1
-14.969838 28.750861 -4.363499 32.707005 -1.090746 1.704607 0.034130 -0.000221 151663.000000 0 0 1
-14.365538 29.803311 -5.113099 33.477602 -1.121643 1.724128 0.026451 -0.005572 -226665.000000 0 0 1
-14.860638 31.142391 -4.624599 34.814853 -1.125568 1.704024 0.021065 -0.005630 -375207.000000 0 0 1
-16.140338 31.484231 -5.080699 35.743263 -1.097081 1.713424 0.035644 -0.002149 -353061.000000 0 0 1
-16.617938 32.575131 -4.316099 36.822870 -1.099068 1.688279 0.034296 -0.000883 -47623.900000 0 0 1
12.460711 -8.316721 18.977235 24.177936 -0.588535 0.668263 0.021349 -0.009898 -473701.000000 0 1 0
12.960411 -9.586521 19.367135 25.198404 -0.636862 0.694169 0.028638 -0.009078 -77916.900000 0 0 1
13.262911 -10.388821 18.274135 24.855108 -0.664474 0.744796 0.024634 -0.016613 -198211.000000 0 1 0
13.802111 -11.757521 18.775435 26.100853 -0.705575 0.767942 0.044653 -0.019563 458239.000000 0 0 1
15.092211 -11.629321 19.405035 27.195061 -0.656525 0.776244 0.032481 -0.016645 923375.000000 0 0 1
15.477511 -12.771821 20.137335 28.428595 -0.689911 0.783641 0.037343 -0.022741 -38825.000000 0 0 1
16.037911 -13.989321 19.357135 28.768287 -0.717279 0.832723 0.034735 -0.013505 -540610.000000 0 0 1
15.086811 -14.651021 18.576135 28.059527 -0.770745 0.847278 0.048341 -0.017351 701223.000000 0 0 1
15.788511 -15.731221 17.880735 28.573923 -0.783581 0.894677 0.055959 -0.015578 173119.000000 0 0 1
15.300711 -15.918721 16.439935 27.527966 -0.805191 0.930780 0.058311 -0.016286 221211.000000 0 0 1
14.081611 -16.635621 16.281735 27.205340 -0.868353 0.929199 0.102608 -0.024828 378419.000000 0 0 1
13.547111 -16.371721 14.974935 25.996272 -0.879528 0.956918 0.114875 -0.026570 487794.000000 0 0 1
12.569611 -17.485521 14.525435 25.975504 -0.947526 0.977379 0.070495 -0.010626 823070.000000 0 0 1
13.424811 -18.564021 14.103635 26.902806 -0.944693 1.018969 0.068072 -0.015405 1119150.000000 0 0 1
12.613111 -19.617121 13.621635 27.008720 -0.999383 1.042176 0.062717 -0.019972 378659.000000 0 0 1
13.503411 -20.725121 12.919135 27.906573 -0.993334 1.089484 0.056430 -0.017848 789537.000000 0 0 1
14.373411 -21.404521 13.840635 29.262803 -0.979446 1.078130 0.041317 -0.015854 186393.000000 0 0 1
14.675511 -22.682621 13.414135 30.163072 -0.996537 1.109934 0.020597 -0.014366 -178812.000000 0 0 1
15.584911 -23.344321 14.472235 31.579936 -0.982141 1.094745 0.013101 -0.011219 1194310.000000 0 0 1
16.947611 -22.857221 14.556335 31.961867 -0.932786 1.097943 0.001045 -0.008488 817301.000000 0 0 1
17.641211 -23.560321 15.552235 33.289233 -0.928084 1.084692 0.013924 -0.015865 -393277.000000 0 0 1
19.051711 -23.036521 15.819135 33.821502 -0.879794 1.084082 -0.010211 -0.003467 -17668.400000 0 0 1
19.975411 -23.459821 14.812635 34.187635 -0.865448 1.122673 -0.009215 -0.016646 557651.000000 0 0 1
21.274611 -22.899921 15.069935 34.700409 -0.822174 1.121550 -0.009097 -0.010022 1018870.000000 0 0 1
22.487911 -23.711021 14.557835 35.774980 -0.811867 1.151708 -0.013001 -0.020175 50130.800000 0 0 1
22.829311 -24.791921 15.418335 37.061325 -0.826588 1.141730 -0.010230 -0.017178 522073.000000 0 0 1
24.030811 -25.407231 14.942935 38.030232 -0.813232 1.166989 -0.001015 -0.025938 182063.000000 0 0 1
24.425511 -26.538881 15.831135 39.389626 -0.826842 1.157193 -0.003471 -0.022822 -268685.000000 0 0 1
24.844011 -26.145991 17.142835 39.933877 -0.810927 1.127100 0.010213 -0.010899 90804.000000 0 0 1
25.291311 -27.281911 17.879535 41.275063 -0.823243 1.122778 0.025055 -0.005173 -12763.800000 0 0 1
25.550311 -26.913331 19.371735 41.861795 -0.811373 1.089696 0.013852 -0.001800 909127.000000 0 0 1
24.327311 -26.540851 20.072935 41.220839 -0.828886 1.062190 0.008022 0.001010 952306.000000 0 0 1
24.544311 -25.805011 21.264435 41.478886 -0.810432 1.032520 0.009403 0.002180 588680.000000 0 0 1
23.302411 -25.647731 22.243035 41.177191 -0.833274 1.000147 0.010899 0.008320 716601.000000 0 0 1
23.078511 -26.872741 22.928635 42.195784 -0.861211 0.996330 0.006729 0.017213 -477258.000000 0 0 1
21.954011 -26.711301 23.726635 41.933583 -0.882844 0.969375 0.016678 0.019465 -920849.000000 0 0 1
21.216411 -27.990771 23.959795 42.516951 -0.922208 0.972137 0.030173 0.012744 -831686.000000 0 0 1
22.025811 -29.018141 24.486175 43.894893 -0.921537 0.979020 0.015022 0.016896 34630.200000 0 0 1
21.822711 -30.281151 23.899095 44.320938 -0.946332 1.001276 0.026966 0.005498 27523.100000 0 0 1
22.913711 -31.387221 24.148935 45.753326 -0.940197 1.014780 0.004832 0.018375 172753.000000 0 0 1
22.801311 -31.822771 25.515225 46.729169 -0.949076 0.993186 0.001981 0.013529 571785.000000 0 0 1
23.911011 -32.577091 26.012175 48.058678 -0.937626 0.998863 0.009234 0.005165 -238130.000000 0 0 1
23.735311 -32.972211 27.467755 49.040894 -0.946867 0.976291 0.011746 -0.012365 161842.000000 0 0 1
23.082211 -34.185000 27.801725 49.742724 -0.976899 0.977725 0.001594 -0.001163 1159010.000000 0 0 1
21.688311 -34.315014 27.457445 49.008309 -1.007154 0.976095 0.002907 0.009317 518888.000000 0 0 1
21.083911 33.337437 27.865425 48.294906 1.006865 0.955764 0.033508 -0.018806 -239292.000000 0 0 1
20.672311 33.492707 29.227165 49.023801 1.017812 0.932058 0.023417 -0.017803 260156.000000 0 0 1
20.045111 32.274141 29.693185 48.219414 1.015014 0.907404 0.022691 -0.020163 58333.500000 0 0 1
19.636711 32.446881 31.136615 49.070248 1.026565 0.883394 0.012400 -0.024464 -293328.000000 0 0 1
20.800811 32.490931 31.918245 50.071036 1.001339 0.879600 0.008347 -0.017829 -78379.700000 0 0 1
20.595611 33.001731 33.189598 51.135534 1.012861 0.864459 0.005154 -0.013535 -110032.000000 0 0 1
21.876211 32.965241 34.059490 52.204641 0.984910 0.860020 -0.002396 0.000021 40604.900000 0 0 1
22.206011 31.697361 -34.323034 51.729105 0.959692 2.296303 0.007943 -0.005015 -322417.000000 0 0 1
23.324011 31.781601 -33.480369 51.720545 0.937689 2.274875 0.002618 0.001881 -381346.000000 0 0 1
23.850511 30.371041 -33.259209 50.964910 0.905081 2.281794 0.014142 0.003519 -146417.000000 0 0 1
24.180411 29.692681 34.420864 51.489256 0.887363 0.838599 0.029779 -0.008802 253201.000000 0 0 1
23.491811 28.450691 -34.410017 50.451524 0.880578 2.321346 0.035273 -0.020707 -123051.000000 0 0 1
23.576111 27.639241 33.143310 49.175600 0.864567 0.831215 0.070613 -0.027198 408677.000000 0 0 1
24.822411 26.970331 32.925074 49.270796 0.826846 0.838946 0.066345 -0.027668 863052.000000 0 0 1
24.819111 26.302211 31.710075 48.097021 0.814401 0.850917 0.081159 -0.041616 271443.000000 0 0 1
26.101211 25.410001 31.546185 48.188205 0.771980 0.857083 0.075758 -0.030925 443732.000000 0 0 1
26.282311 24.392311 32.548465 48.426721 0.748119 0.833731 0.089680 -0.035934 96809.400000 0 0 1
27.371311 24.770221 33.348569 49.748161 0.735554 0.836119 0.083116 -0.036179 -1022770.000000 0 0 1
27.372811 24.009101 -34.110750 49.892394 0.720027 2.323598 0.061824 -0.037100 420366.000000 0 0 1
26.293411 24.311701 -33.201269 48.833662 0.746258 2.318402 0.055501 -0.024184 2303620.000000 0 0 1
24.905011 24.127021 -33.588169 48.275644 0.769533 2.340271 0.057492 -0.022524 909602.000000 0 0 1
24.359111 22.713101 -33.628809 47.330202 0.750445 2.361026 0.053336 -0.025298 -698442.000000 0 0 1
24.184711 22.094601 -32.366609 46.050722 0.740266 2.350188 0.032552 -0.031391 493855.000000 0 0 1
23.936711 20.683101 -32.604049 45.428855 0.712608 2.371282 0.031126 -0.019524 -265819.000000 0 0 1
23.943511 19.910801 -31.273849 44.133721 0.693699 2.358331 0.026417 -0.019037 1072610.000000 0 0 1
22.762111 20.081301 -30.399149 42.959057 0.722907 2.356936 0.024592 -0.011694 1670650.000000 0 0 1
22.854311 19.217901 -29.294639 41.830887 0.699180 2.346630 0.024063 -0.006056 -57211.500000 0 0 1
21.590411 19.386201 -28.412359 40.610747 0.731658 2.345671 0.036084 -0.019826 147414.000000 0 0 1
21.548911 18.715901 -27.198549 39.425900 0.715154 2.332099 0.034241 -0.016874 -61565.400000 0 0 1
22.111611 19.447601 -26.151809 39.383368 0.721384 2.296995 0.031510 -0.008858 -215162.000000 0 0 1
22.059111 18.761901 -24.751799 38.095470 0.704801 2.278027 0.038264 -0.004822 -351910.000000 0 0 1
23.026811 17.769801 -24.740099 38.184714 0.657245 2.275628 0.039119 -0.014913 -109593.000000 0 0 1
23.025011 17.004801 -23.575699 37.082718 0.636124 2.259789 0.046377 -0.012312 207522.000000 0 0 1
24.025011 15.802201 -23.613099 37.208724 0.581797 2.258303 0.050272 -0.016948 -72057.500000 0 0 1
25.419811 15.983001 -23.621999 38.204999 0.561300 2.237369 0.055580 -0.015328 245104.000000 0 0 1
26.133211 14.739501 -23.663299 38.211900 0.513539 2.238603 0.049315 -0.019591 237707.000000 0 0 1
26.205311 13.934001 -22.340699 37.148103 0.488704 2.216043 0.053239 -0.019229 -906156.000000 0 0 1
24.952911 13.366501 -22.113699 35.921119 0.491774 2.233967 0.051766 -0.017995 -312675.000000 0 0 1
24.719111 12.831301 -20.795199 34.757978 0.478798 2.212156 0.034626 -0.018961 1127700.000000 0 0 1
23.228011 12.301201 -20.608399 33.400092 0.487034 2.235742 0.034674 -0.013612 1112280.000000 0 0 1
22.320611 13.364301 -20.566799 33.163345 0.539494 2.239751 0.055130 -0.014385 -295899.000000 0 0 1
21.098611 12.959901 -21.182699 32.585536 0.550834 2.278466 0.053222 -0.017148 452622.000000 0 0 1
20.071411 14.126301 -21.196999 32.430336 0.613273 2.283149 0.053251 -0.020495 -575977.000000 0 0 1
20.503511 15.149601 -22.092499 33.734002 0.636345 2.284851 0.045732 -0.011752 582505.000000 0 0 1
19.598211 16.257301 -22.170299 33.762581 0.692489 2.287169 0.039671 -0.009800 730130.000000 0 0 1
18.224611 16.013001 -22.885799 33.351349 0.720892 2.327053 0.032476 0.000406 326536.000000 0 0 1
17.327611 15.201801 -22.128099 31.952991 0.720141 2.335773 0.021907 -0.004828 288558.000000 0 0 1
16.170811 15.034401 -22.951999 31.848432 0.748997 2.375555 0.022173 -0.014882 -279770.000000 0 0 1
15.088911 14.156401 -22.338399 30.448038 0.753523 2.394484 0.009016 -0.008616 -529450.000000 0 0 1
13.937411 14.371601 -23.106099 30.572637 0.800734 2.427636 0.021795 -0.009044 -137576.000000 0 0 1
12.821311 13.559601 -22.721099 29.402332 0.813377 2.453983 0.034246 -0.005308 -11983.500000 0 0 1
11.549211 13.919701 -23.468199 29.629356 0.878205 2.484971 0.032109 -0.005589 -686540.000000 0 0 1
11.130811 15.247601 -23.339999 30.018992 0.940216 2.461489 0.025953 -0.004815 5553.330000 0 0 1
10.645111 15.685401 -24.589599 31.048327 0.974534 2.484839 0.030381 -0.014861 -634902.000000 0 0 1
10.567311 17.234301 -24.721699 31.935116 1.020760 2.456124 0.022695 -0.014035 227621.000000 0 0 1
11.790011 17.958301 -24.508199 32.590747 0.989850 2.421885 0.022929 -0.017080 482084.000000 0 0 1
12.813611 17.827201 -25.488359 33.640068 0.947586 2.430545 0.023404 -0.022637 -136625.000000 0 0 1
12.519711 18.115601 -26.962639 34.812384 0.966068 2.456741 0.032638 -0.028902 -918064.000000 0 0 1
13.635611 17.928701 -27.789679 35.771979 0.920580 2.460454 0.028953 -0.026413 -166639.000000 0 0 1
13.291911 17.405801 -29.064479 36.392042 0.918617 2.495844 0.028187 -0.026485 121220.000000 0 0 1
14.283811 17.858901 -30.225099 37.901507 0.896168 2.493877 0.022401 -0.016132 668575.000000 0 0 1
15.585211 17.321801 -29.975209 37.966522 0.838122 2.480818 0.011105 -0.012378 -382413.000000 0 0 1
16.287311 17.756801 -31.072929 39.320572 0.828536 2.482007 0.020544 -0.005993 -825106.000000 0 0 1
17.493411 16.897701 -31.466249 39.770298 0.768078 2.483565 0.031196 -0.008258 -884806.000000 0 0 1
18.503611 16.924401 -30.491559 39.478528 0.740852 2.453342 0.036350 -0.009786 -120565.000000 0 0 1
19.487311 15.959601 -30.836209 39.816277 0.686204 2.456661 0.041048 -0.005508 307002.000000 0 0 1
20.799211 16.601501 -31.350689 41.122776 0.673630 2.437761 0.042092 -0.007941 -276644.000000 0 0 1
20.607711 16.822201 -32.730119 42.177303 0.684605 2.459115 0.045169 -0.008486 254406.000000 0 0 1
21.705211 17.526301 -33.250079 43.403401 0.679279 2.443502 0.046542 -0.008518 -275733.000000 0 0 1
21.705411 17.840601 34.130824 44.207749 0.687978 0.688728 0.030634 0.006968 -108217.000000 0 0 1
22.792111 18.655801 33.765124 44.806282 0.685932 0.717305 0.041523 -0.008497 202124.000000 0 0 1
22.581311 19.132001 32.460105 43.927298 0.702895 0.739285 0.054516 -0.007655 -538956.000000 0 0 1
23.388511 20.377101 32.116085 44.650774 0.716699 0.768041 0.069797 -0.013868 -1101540.000000 0 0 1
24.738311 20.149601 31.933595 45.141388 0.683526 0.784965 0.056599 -0.019769 -1191070.000000 0 0 1
25.355011 21.408901 31.895525 46.027623 0.701214 0.805203 0.063326 -0.030715 224919.000000 0 0 1
26.866911 21.237601 31.536225 46.555344 0.668905 0.826585 0.052452 -0.036195 473489.000000 0 0 1
27.573211 20.412901 32.456315 47.226908 0.637275 0.813111 0.045457 -0.036916 -444992.000000 0 0 1
28.942611 20.495901 32.207235 47.906812 0.616179 0.833499 0.034771 -0.025572 -409249.000000 0 0 1
29.902011 19.792901 33.189484 48.861345 0.584713 0.824045 0.016028 -0.029712 61398.400000 0 0 1
30.108511 20.362201 -34.352747 50.012527 0.594638 2.327988 0.015784 -0.021231 704779.000000 0 0 1
28.915111 20.326401 -33.558819 48.738492 0.612715 2.330282 0.014171 -0.020943 285871.000000 0 0 1
29.153111 20.759701 -32.111799 48.083643 0.618795 2.302089 0.015775 -0.008457 -123802.000000 0 0 1
30.026211 19.869301 -31.436959 47.797959 0.584578 2.288564 0.016890 -0.011366 95021.700000 0 0 1
30.385411 20.565801 -30.217159 47.532116 0.595007 2.259738 0.012258 -0.005237 82002.000000 0 0 1
31.823711 20.188301 -29.803669 48.047630 0.565316 2.239914 0.015458 0.015783 35451.800000 0 0 1
32.912311 20.715701 -30.540869 49.448005 0.561772 2.236530 -0.001849 0.006623 754953.000000 0 0 1
34.113711 20.640001 -29.731079 49.736224 0.544114 2.211519 -0.008319 0.020686 1473730.000000 0 0 1
35.315011 21.281001 -30.553739 51.318242 0.542333 2.208532 -0.025929 0.011199 414868.000000 0 0 1
-35.292940 20.599401 -31.725659 51.734363 -0.528325 2.230954 -0.017754 0.006734 -211870.000000 0 0 1
-34.385340 21.394801 -32.436789 51.886746 -0.556588 2.246115 -0.019364 0.006182 -282825.000000 0 0 1
-33.497640 20.588001 -33.393049 51.585399 -0.551093 2.274879 -0.027209 0.007888 -97408.500000 0 0 1
-32.622540 19.674801 -32.738059 50.230552 -0.542699 2.280694 -0.002873 -0.001382 608569.000000 0 0 1
-31.791340 19.045201 -33.741159 50.118607 -0.539735 2.309360 0.013680 -0.005403 260038.000000 0 0 1
-30.909840 17.897001 -33.174359 48.746886 -0.524840 2.319300 0.005987 0.002544 73655.400000 0 0 1
-31.714540 16.792001 -32.818529 48.629612 -0.486947 2.311581 0.006067 0.004146 354284.000000 0 0 1
-31.187940 15.589601 -33.359399 48.255287 -0.463536 2.334098 0.001949 0.005641 -636240.000000 0 0 1
-32.137340 14.450701 -33.211789 48.421630 -0.422567 2.326619 0.006060 0.003035 -963284.000000 0 0 1
-31.588440 13.180301 -33.536889 47.919441 -0.395289 2.345997 0.023463 -0.004601 790723.000000 0 0 1
-32.598840 12.143801 -33.520809 48.309429 -0.356597 2.337656 0.022018 -0.006807 412394.000000 0 0 1
-31.948740 10.725001 -33.336449 47.403233 -0.323874 2.350759 0.029081 0.000516 102427.000000 0 0 1
-31.325840 10.256801 34.341033 47.600596 -0.316422 0.764915 0.019530 0.002083 182523.000000 0 0 1
-31.864940 9.011001 33.892843 47.384568 -0.275592 0.773783 0.030573 -0.009820 182301.000000 0 0 1
-31.094640 8.486401 32.627405 45.863309 -0.266433 0.779300 0.030280 -0.011178 621293.000000 0 0 1
-29.718240 8.211701 32.819408 45.030205 -0.269592 0.754183 0.016690 0.003313 89780.300000 0 0 1
-29.014740 7.913601 31.658565 43.666290 -0.266268 0.759745 0.014167 -0.009676 -92975.300000 0 0 1
20.332211 -3.942621 -31.587279 37.771673 -0.191533 2.561239 0.019094 -0.030261 -374618.000000 0 0 1
21.413011 -4.122321 -32.515309 39.150427 -0.190188 2.550841 0.016356 -0.029106 1066300.000000 0 0 1
22.573111 -3.322721 -32.233339 39.491442 -0.146149 2.525618 0.012616 -0.024055 504566.000000 0 0 1
22.380611 -1.806321 -32.424739 39.440059 -0.080535 2.535934 0.011240 -0.020089 -1231730.000000 0 0 1
23.338711 -1.007121 -31.838829 39.489502 -0.043126 2.508600 0.016706 -0.016486 -46679.500000 0 0 1
23.028311 0.313279 -32.153999 39.550991 0.013603 2.520041 0.021757 -0.013643 134812.000000 0 0 1
24.059911 1.228179 -31.414519 39.588632 0.051002 2.487374 0.023815 -0.001924 -147790.000000 0 0 1
25.338511 1.221679 -31.947129 40.794016 0.048177 2.470484 0.030335 -0.003863 -607625.000000 0 0 1
26.325011 1.997779 -31.287159 40.937558 0.075744 2.440698 0.026789 -0.008423 -1006600.000000 0 0 1
27.640911 1.862979 -31.966129 42.300403 0.067298 2.427508 0.033182 -0.005241 -1397880.000000 0 0 1
27.670911 2.500479 -33.211409 43.300455 0.090120 2.444947 0.044300 -0.003479 241072.000000 0 0 1
27.799311 1.559379 -34.235216 44.128034 0.056035 2.458803 0.050233 -0.002983 -43433.700000 0 0 1
28.529011 2.124279 33.329338 43.923363 0.074323 0.709317 0.046886 -0.016378 212778.000000 0 0 1
27.771711 3.078479 32.581575 42.922069 0.110399 0.708887 0.053895 -0.014792 423039.000000 0 0 1
28.047111 4.424179 32.912878 43.468049 0.156452 0.711820 0.062303 -0.012556 386257.000000 0 0 1
27.129511 5.385879 32.023195 42.314336 0.195977 0.712403 0.050142 -0.004772 472781.000000 0 0 1
27.276511 6.731279 32.414075 42.895109 0.241945 0.714137 0.051115 -0.007695 -8876.460000 0 0 1
26.727811 7.596379 31.427555 41.949637 0.276911 0.723983 0.040840 -0.008419 -155030.000000 0 0 1
26.945411 9.121479 31.713915 42.603157 0.326409 0.731156 0.023905 -0.002499 894349.000000 0 0 1
28.284011 9.507679 31.337385 43.271387 0.324284 0.760914 0.028911 -0.008241 841827.000000 0 0 1
28.536311 10.854479 31.659015 43.982201 0.363474 0.767262 0.021181 -0.005916 -320311.000000 0 0 1
29.959211 11.281979 31.301445 44.772959 0.360153 0.796637 0.023662 -0.001410 -660635.000000 0 0 1
30.999111 10.834879 32.141245 45.949963 0.336249 0.796122 0.036900 -0.016750 882009.000000 0 0 1
32.347911 11.161179 31.803145 46.716157 0.332245 0.821978 0.033950 -0.020250 547408.000000 0 0 1
32.801411 12.579279 31.562765 47.226888 0.366200 0.838846 0.035065 -0.017073 -1068240.000000 0 0 1
33.104111 13.204279 32.810469 48.443390 0.379533 0.826717 0.041617 -0.009276 42114.500000 0 0 1
33.518711 14.539179 32.849542 49.132312 0.409270 0.838481 0.046313 -0.005562 287681.000000 0 0 1
32.505711 15.725679 32.527325 48.599847 0.450589 0.837545 0.031885 -0.018436 -477138.000000 0 0 1
32.023011 15.846279 31.222185 47.448947 0.459511 0.852615 0.029079 -0.022996 670345.000000 0 0 1
30.888411 16.725879 31.161205 46.956039 0.496289 0.845142 0.025294 -0.029185 -134840.000000 0 0 1
29.563011 16.063879 31.483775 46.078714 0.497745 0.818577 0.029372 -0.021113 -1515110.000000 0 0 1
29.127311 15.482479 30.301575 44.791660 0.488564 0.827796 0.016471 -0.018246 -528264.000000 0 0 1
27.863211 14.910179 30.438995 43.877151 0.491348 0.804138 0.005009 -0.016547 -322960.000000 0 0 1
27.318511 14.197479 29.162585 42.406672 0.479285 0.812496 0.011075 -0.003962 22643.900000 0 0 1
27.692311 12.823179 29.091845 42.161990 0.433661 0.809305 0.012518 -0.002504 218285.000000 0 0 1
26.852711 12.142279 28.165725 40.765317 0.424666 0.808030 0.010862 -0.013709 15031.200000 0 0 1
26.895111 10.592379 28.304555 40.456066 0.375185 0.795907 0.021511 0.001101 171233.000000 0 0 1
27.983011 9.973779 27.644235 40.579907 0.342385 0.821355 0.026094 -0.003601 220847.000000 0 0 1
27.703911 8.565579 27.647925 40.065990 0.299860 0.809225 0.042060 -0.005406 691033.000000 0 0 1
28.931811 7.753179 27.100975 40.393370 0.261829 0.835339 0.035325 -0.016078 215521.000000 0 0 1
29.052111 7.691379 25.699965 39.543276 0.258807 0.863317 0.044493 -0.012509 180495.000000 0 0 1
30.015111 6.712179 25.302965 39.827130 0.220007 0.882374 0.054640 -0.001261 351327.000000 0 0 1
30.385111 6.929779 23.791535 39.208595 0.224230 0.918776 0.049189 0.002499 61518.300000 0 0 1
31.113711 8.118279 23.424335 39.782772 0.255232 0.941216 0.027594 0.003883 73435.100000 0 0 1
30.396711 9.325279 23.280835 39.407082 0.297671 0.938774 0.026776 0.003431 -325052.000000 0 0 1
29.860711 9.529779 21.834735 38.199927 0.308924 0.962353 0.026673 0.009882 296402.000000 0 0 1
30.846611 9.821179 20.821335 38.490219 0.308240 0.999229 0.020731 0.010816 326879.000000 0 0 1
30.417511 9.599379 19.494535 37.381947 0.305695 1.022193 0.029366 -0.004374 -311840.000000 0 0 1
31.254911 10.442579 18.407635 37.745966 0.322449 1.061376 0.040154 -0.024509 1867150.000000 0 0 1
32.627311 10.078579 18.130235 38.662962 0.299602 1.082717 0.041809 -0.017292 558985.000000 0 0 1
33.525211 10.372579 19.140135 39.973428 0.300055 1.071485 0.033132 -0.012537 -635569.000000 0 0 1
34.969911 10.209179 18.572335 40.890752 0.284048 1.099329 0.025767 -0.012154 -96413.800000 0 0 1
35.348511 8.851179 18.580035 40.903280 0.245353 1.099274 0.019839 0.000851 245.688000 0 0 1
-34.827040 8.569779 17.472835 39.895661 -0.241273 1.117464 0.027256 -0.007067 -411333.000000 0 0 1
-34.724640 7.047079 17.107335 39.346192 -0.200223 1.120991 0.025355 -0.002419 -796775.000000 0 0 1
35.123611 6.404679 16.638735 39.389535 0.180365 1.134688 0.021711 -0.008091 -474317.000000 0 0 1
35.345211 5.063779 16.185635 39.203324 0.142298 1.145200 0.023795 0.001939 -1898.890000 0 0 1
34.039111 4.218279 16.165035 37.917849 0.123296 1.130379 0.024891 0.001923 260922.000000 0 0 1
33.936811 3.452679 17.336735 38.264742 0.101390 1.100587 0.032230 0.004896 530992.000000 0 0 1
32.728711 2.678779 17.299635 37.116327 0.081666 1.085927 0.018758 0.007329 615288.000000 0 0 1
32.459011 1.820079 18.594435 37.452011 0.056014 1.051249 0.028794 -0.003744 68472.500000 0 0 1
33.115211 0.565879 18.678935 38.024203 0.017087 1.057286 0.028772 -0.005289 -37886.200000 0 0 1
32.841811 -0.078321 19.900235 38.400651 -0.002385 1.026020 0.027498 -0.002611 247160.000000 0 0 1
33.004811 -1.624221 19.881335 38.564532 -0.049172 1.029165 0.023904 0.002765 174252.000000 0 0 1
32.654311 -2.213221 21.102235 38.942351 -0.067674 0.998119 0.023763 -0.002854 44423.900000 0 0 1
33.008211 -3.591721 21.148335 39.366160 -0.108387 1.003657 0.018929 -0.001752 -350777.000000 0 0 1
32.605211 -4.406021 22.363735 39.782527 -0.134319 0.973814 0.015303 -0.007407 -231393.000000 0 0 1
33.305911 -4.134321 23.557435 41.004013 -0.123500 0.958784 0.019640 -0.013078 483478.000000 0 0 1
32.735511 -4.921321 24.617305 41.253421 -0.149218 0.931372 0.025220 -0.013885 299721.000000 0 0 1
33.318611 -4.461721 25.999215 42.497011 -0.133119 0.912476 0.019498 -0.006507 141794.000000 0 0 1
32.376811 -4.524921 27.048585 42.430635 -0.138859 0.879576 0.018083 -0.008351 -304681.000000 0 0 1
32.907811 -3.998621 28.235745 43.545037 -0.120917 0.865281 0.021600 -0.002546 -66636.200000 0 0 1
32.024711 -4.101321 29.513905 43.743268 -0.127374 0.830228 0.034274 -0.005530 94831.900000 0 0 1
31.993511 -5.397921 30.042485 44.218471 -0.167145 0.823838 0.025356 -0.008754 -3145.570000 0 0 1
31.025511 -5.485721 31.068085 44.248179 -0.175004 0.792408 0.024601 -0.009712 -200903.000000 0 0 1
30.833711 -6.985821 31.407725 44.564163 -0.222803 0.788690 0.037226 -0.004163 357814.000000 0 0 1
31.824411 -7.532121 32.299535 45.965051 -0.232401 0.791614 0.034701 -0.006562 175877.000000 0 0 1
32.532111 -8.558621 31.632045 46.175475 -0.257253 0.816138 0.037495 -0.002365 169372.000000 0 0 1
33.839811 -8.919521 32.391625 47.685512 -0.257719 0.824021 0.022663 0.003434 211568.000000 0 0 1
33.666011 -9.521921 33.655857 48.546720 -0.275636 0.804783 0.025249 -0.007772 314566.000000 0 0 1
34.921111 -9.948221 34.172926 49.862210 -0.277525 0.815716 0.011560 -0.011416 250048.000000 0 0 1
34.897911 -10.274121 -33.145059 49.213989 -0.286316 2.309714 0.024000 -0.009679 -348450.000000 0 0 1
34.562211 -9.182121 -32.271649 48.169670 -0.259671 2.304948 0.016697 -0.004365 22483.500000 0 0 1
35.355411 -8.025721 -32.278279 48.541782 -0.223218 2.298235 0.019807 0.004741 -551172.000000 0 0 1
34.917711 -6.781021 -31.493509 47.508630 -0.191813 2.295483 0.019480 0.006296 -490447.000000 0 0 1
34.994011 -6.873021 -30.150549 46.699838 -0.193937 2.272637 0.023159 0.002199 200207.000000 0 0 1
34.458711 -5.700321 -29.520219 45.731168 -0.163940 2.272496 0.024084 0.000920 -97718.700000 0 0 1
34.744211 -5.382121 -28.050329 44.977199 -0.153685 2.244208 0.030029 -0.011664 -498893.000000 0 0 1
-34.907940 -5.014921 -27.870399 44.949670 0.142685 2.239585 0.032952 -0.008757 -632503.000000 0 0 1
-34.693240 -4.516821 -26.556169 43.923259 0.129465 2.220065 0.035052 -0.006736 202238.000000 0 0 1
-33.222440 -4.442221 -26.088789 42.474566 0.132923 2.232195 0.030967 0.003589 -482495.000000 0 0 1
-33.094640 -3.687421 -24.897299 41.577972 0.110963 2.212811 0.034543 -0.005081 521847.000000 0 0 1
-31.775340 -3.697321 -24.367199 40.213217 0.115837 2.221756 0.038091 0.003189 1051240.000000 0 0 1
-30.621340 -2.891421 -25.088039 39.691768 0.094146 2.255020 0.035109 0.013308 271709.000000 0 0 1
-30.145840 -3.526621 -26.285629 40.151501 0.116456 2.284531 0.036373 0.011186 -11712.900000 0 0 1
-29.331240 -2.633521 -27.026499 39.971098 0.089545 2.313322 0.031208 0.015761 386773.000000 0 0 1
-28.718640 -3.354421 -28.276089 40.441929 0.116276 2.345043 0.023325 0.017729 -58419.900000 0 0 1
-29.771940 -3.790921 -29.076489 41.787339 0.126650 2.340358 0.030734 0.018274 -98394.000000 0 0 1
-29.297840 -4.671721 -30.108799 42.269708 0.158125 2.363569 0.024340 0.008465 -1459320.000000 0 0 1
-30.243640 -4.859321 -31.323049 43.811233 0.159311 2.367356 0.017072 0.013738 -405125.000000 0 0 1
-31.382840 -5.644021 -31.013899 44.481452 0.177942 2.342325 0.019299 0.009547 427595.000000 0 0 1
-32.416740 -4.981421 -30.299629 44.651171 0.152475 2.316631 0.028646 0.004448 -438916.000000 0 0 1
-33.357940 -4.000121 -31.114469 45.791520 0.119345 2.317851 0.044852 0.003068 -334462.000000 0 0 1
-32.821440 -2.768321 -31.656309 45.684050 0.084146 2.336355 0.047947 0.004196 164732.000000 0 0 1
-32.381840 -1.788921 -30.724769 44.674324 0.055188 2.329182 0.040850 0.004648 42070.500000 0 0 1
-31.811640 -0.488621 -31.377909 44.685483 0.015359 2.349272 0.044162 0.005219 -18153.000000 0 0 1
-32.766640 0.266579 -32.070889 45.850471 -0.008135 2.345448 0.039903 0.002887 -60412.300000 0 0 1
-32.159640 1.392879 -32.656609 45.854516 -0.043284 2.363393 0.026910 0.010387 371892.000000 0 0 1
-33.197740 2.520379 -32.950449 46.842015 -0.075775 2.351019 0.033798 0.005830 367601.000000 0 0 1
-34.007740 2.240079 -34.081056 48.198161 -0.065775 2.356189 0.038174 0.000422 470120.000000 0 0 1
-35.241440 2.968479 -33.984419 49.048055 -0.084034 2.336272 0.041762 0.001194 251791.000000 0 0 1
34.749511 2.469179 33.807720 48.544694 0.070937 0.800393 0.049436 0.002552 -525504.000000 0 0 1
35.021211 2.710679 32.424385 47.803491 0.077247 0.825370 0.029873 0.001380 410687.000000 0 0 1
-35.146540 1.657679 31.883505 47.482471 -0.047130 0.834593 0.018115 0.005023 -224048.000000 0 0 1
-35.016440 1.866579 30.292675 46.338767 -0.053255 0.858304 0.011890 -0.001600 -334947.000000 0 0 1
-34.369140 3.076279 29.950745 45.691885 -0.089269 0.855960 0.011498 -0.007079 242559.000000 0 0 1
-34.255140 3.160779 28.541525 44.699259 -0.092011 0.878218 0.008710 -0.009224 -156772.000000 0 0 1
-33.631840 4.512779 28.215905 44.131656 -0.133385 0.877134 0.004595 -0.010306 -638469.000000 0 0 1
-33.309140 4.664479 26.872435 43.050945 -0.139131 0.896688 0.007739 -0.011434 188820.000000 0 0 1
-32.674840 5.891179 26.625165 42.558789 -0.178381 0.894884 0.016241 -0.007560 -874583.000000 0 0 1
-31.939940 5.953379 25.270065 41.160401 -0.184278 0.909752 0.005831 -0.002627 -480047.000000 0 0 1
-30.766940 5.186979 25.410825 40.239525 -0.167019 0.887324 0.000839 -0.006184 444011.000000 0 0 1
-29.747440 5.444579 24.425915 38.873885 -0.181023 0.891382 0.007733 -0.007905 469729.000000 0 0 1
-29.930940 4.952679 22.943935 38.037012 -0.163984 0.923289 0.021188 -0.007893 -275972.000000 0 0 1
-30.021640 3.562479 22.961835 37.963614 -0.118111 0.921234 0.012202 -0.010825 -116946.000000 0 0 1
-30.723040 3.229479 21.807235 37.813889 -0.104731 0.956114 0.024504 -0.005637 -361747.000000 0 0 1
-30.897540 1.723579 21.560835 37.716021 -0.055726 0.962266 0.030458 -0.003070 -299975.000000 0 0 1
-29.854240 1.066379 20.878635 36.446264 -0.035704 0.960804 0.047597 -0.008227 71766.100000 0 0 1
-29.720640 1.404579 19.502735 35.575918 -0.047224 0.990585 0.043065 -0.008464 -2544.680000 0 0 1
-28.507540 0.760579 18.784035 34.148181 -0.026674 0.988343 0.045448 -0.011043 167354.000000 0 0 1
-28.790340 -0.547621 18.394035 34.169051 0.019019 1.002349 0.062126 -0.012957 204909.000000 0 0 1
-27.702840 -1.062321 17.662135 32.871368 0.038328 1.003551 0.070556 -0.012871 -226008.000000 0 0 1
-27.540840 -0.749621 16.147535 31.934349 0.027212 1.040664 0.054003 0.000756 -95391.900000 0 0 1
-27.074940 0.551479 15.829435 31.367618 -0.020366 1.041828 0.059930 -0.001702 342023.000000 0 0 1
-27.245640 0.704679 14.457435 30.851886 -0.025858 1.083082 0.065096 -0.004219 -12040.000000 0 0 1
-26.777240 2.104879 14.025235 30.301127 -0.078446 1.089575 0.066453 -0.010509 -442348.000000 0 0 1
-25.389340 2.235779 13.934535 29.048038 -0.087833 1.070476 0.061695 -0.018308 -361737.000000 0 0 1
-25.107140 3.555579 13.451035 28.704371 -0.140681 1.083084 0.066265 -0.017634 -669101.000000 0 0 1
-23.655240 3.755479 13.059535 27.280495 -0.157445 1.071608 0.060341 -0.015796 -644334.000000 0 0 1
-22.789440 4.026479 14.161935 27.131743 -0.174877 1.021638 0.052981 -0.007464 294051.000000 0 0 1
-21.516140 4.407979 13.666135 25.867698 -0.202072 1.014189 0.051097 -0.011018 -374945.000000 0 0 1
-20.678840 5.054979 14.722235 25.882647 -0.239750 0.965742 0.038972 -0.010795 -609655.000000 0 0 1
-21.070840 6.351579 15.087235 26.682344 -0.292777 0.969831 0.033382 -0.007598 227486.000000 0 0 1
-20.376340 6.722779 16.247135 26.913944 -0.318685 0.922700 0.024728 -0.006574 -317284.000000 0 0 1
-20.540240 8.157379 16.742935 27.726704 -0.378040 0.922467 0.028928 -0.004542 26916.800000 0 0 1
-19.605640 9.055979 16.064335 26.915696 -0.432711 0.931241 0.018845 -0.006457 1003280.000000 0 0 1
-19.811040 10.450079 16.265735 27.681322 -0.485395 0.942698 0.015959 -0.001290 -269138.000000 0 0 1
-19.475440 11.079379 17.642835 28.518678 -0.517230 0.903784 0.028619 -0.000424 8.027150 0 0 1
-20.301840 10.626079 18.715935 29.586559 -0.482196 0.885913 0.038556 -0.008708 416611.000000 0 0 1
-19.901140 11.178679 19.934235 30.304982 -0.511790 0.852919 0.043206 -0.005860 -93654.700000 0 0 1
-12.368589 -33.047943 -21.484999 41.312876 1.212673 2.117713 0.047690 -0.013980 -198025.000000 0 0 1
-12.881389 -33.615943 -20.340599 41.348540 1.204862 2.085102 0.065986 -0.014603 326851.000000 0 0 1
-14.213489 -33.110743 -20.176299 41.296823 1.165313 2.081244 0.062934 -0.029095 702722.000000 0 0 1
-15.063489 -33.898843 -19.095899 41.721621 1.152638 2.046201 0.063528 -0.024944 -373443.000000 0 0 1
-15.557389 33.870579 -19.581099 42.103063 -1.140220 2.054516 0.061449 -0.035543 253880.000000 0 0 1
-16.278789 33.023079 -18.690299 41.289829 -1.112803 2.040544 0.058637 -0.026444 50433.800000 0 0 1
-17.681989 33.418379 -18.205899 41.963026 -1.084133 2.019564 0.064016 -0.032155 -564106.000000 0 0 1
-17.614089 -34.473743 -17.345599 42.421279 1.098433 1.992033 0.069939 -0.022542 1151060.000000 0 0 1
-18.912589 -34.172443 -16.768099 42.504247 1.065312 1.976324 0.052211 -0.013969 1091650.000000 0 0 1
-19.298989 34.162279 -15.405699 42.152673 -1.056570 1.944938 0.055136 -0.021482 -381894.000000 0 0 1
-19.331289 32.732579 -15.471699 41.042587 -1.037330 1.957316 0.055627 -0.024456 34222.000000 0 0 1
-19.937089 32.223779 -14.346599 40.517704 -1.016735 1.932729 0.055473 -0.021513 -367452.000000 0 0 1
-19.772489 30.727779 -14.250999 39.220386 -0.999023 1.942665 0.049954 -0.026454 -434654.000000 0 0 1
-18.569789 30.145179 -13.844299 38.016227 -1.018686 1.943536 0.049524 -0.035734 -366017.000000 0 0 1
-18.699689 28.760979 -13.636699 36.916552 -0.994298 1.949152 0.044950 -0.033470 -765880.000000 0 0 1
-17.407289 28.063579 -13.244399 35.580785 -1.015598 1.952212 0.059102 -0.028152 -1036090.000000 0 0 1
-16.422789 28.256579 -14.202499 35.635000 -1.044313 1.980737 0.078117 -0.032154 192601.000000 0 0 1
-15.166489 27.686879 -13.762499 34.438235 -1.069654 1.981908 0.085557 -0.037865 322148.000000 0 0 1
-13.987489 28.324479 -14.445999 34.736333 -1.112097 1.999702 0.079660 -0.033698 -909499.000000 0 0 1
-14.070689 28.211379 -15.867499 35.293678 -1.108142 2.037097 0.062920 -0.031994 207064.000000 0 0 1
-12.971089 28.861079 -16.509199 35.689840 -1.148415 2.051693 0.071813 -0.029000 272802.000000 0 0 1
-13.007589 28.825879 -18.085699 36.431047 -1.146906 2.090285 0.086125 -0.028366 48595.100000 0 0 1
-12.650789 27.526479 -18.552699 35.523966 -1.139999 2.120294 0.063067 -0.029004 113177.000000 0 0 1
-13.047389 27.299679 -19.901799 36.215859 -1.124958 2.152601 0.048519 -0.025670 -363553.000000 0 0 1
-12.464489 26.100479 -20.630699 35.527795 -1.125263 2.190375 0.022232 -0.015375 -1107330.000000 0 0 1
-11.233689 26.442079 -21.151799 35.676013 -1.169060 2.205434 0.017804 -0.017941 -818986.000000 0 0 1
-10.614689 25.252879 -21.713399 34.954988 -1.172883 2.241046 0.009357 -0.015198 -92828.000000 0 0 1
-9.388489 25.716179 -22.482499 35.424968 -1.220750 2.258353 0.033449 -0.027414 -527341.000000 0 0 1
-9.751889 26.019679 -23.812199 36.594315 -1.212211 2.279312 0.027893 -0.031143 639057.000000 0 0 1
-8.598289 26.264879 -24.620699 37.012880 -1.254424 2.298548 0.021514 -0.030677 -285309.000000 0 0 1
-8.974789 26.894779 -25.999339 38.468709 -1.248716 2.312923 0.019236 -0.022412 112987.000000 0 0 1
-9.850189 26.105879 -26.794509 38.684478 -1.209996 2.335942 0.002687 -0.018648 -94027.600000 0 0 1
-10.350089 26.863079 -27.849429 40.054214 -1.203035 2.339624 0.004860 -0.013211 -449517.000000 0 0 1
-11.608089 26.300679 -28.524889 40.498676 -1.155150 2.352291 0.000518 -0.017513 -299736.000000 0 0 1
-11.970289 27.014879 -29.708549 41.900947 -1.153695 2.358902 0.010290 -0.013517 863671.000000 0 0 1
-13.163289 26.325879 -30.186179 42.160758 -1.107138 2.368820 0.004951 -0.015711 727076.000000 0 0 1
-13.314289 26.630079 -31.689649 43.481781 -1.107171 2.387368 0.007958 -0.012149 263762.000000 0 0 1
-12.260189 26.199579 -32.571259 43.561647 -1.133113 2.415395 0.010483 -0.016387 546877.000000 0 0 1
-12.139789 24.812779 -32.782789 42.869100 -1.115781 2.441401 0.017895 -0.019979 -371394.000000 0 0 1
-11.374789 24.475779 -34.031799 43.435158 -1.135755 2.471088 0.013531 -0.013219 -458640.000000 0 0 1
-12.034989 24.751079 33.622201 43.450078 -1.118216 0.685959 0.020842 -0.013790 -353246.000000 0 0 1
-11.405789 24.049379 32.596715 42.083375 -1.127948 0.684754 0.024144 -0.011902 -1031650.000000 0 0 1
-11.947889 23.984779 31.168385 41.103405 -1.108634 0.710107 0.032289 -0.004265 -135586.000000 0 0 1
-13.189089 23.290179 31.187555 41.098030 -1.055529 0.709239 0.042813 -0.010563 -157888.000000 0 0 1
-13.916289 23.298779 30.012695 40.463045 -1.032367 0.735149 0.043300 -0.002923 -576301.000000 0 0 1
-15.124989 22.381679 30.143605 40.476434 -0.976514 0.730681 0.029175 0.000172 -484633.000000 0 0 1
-14.932189 21.027279 30.309925 39.797089 -0.953301 0.705000 0.032146 -0.009884 414569.000000 0 0 1
-16.185889 20.344879 30.451565 40.039916 -0.898759 0.706667 0.026110 -0.006762 767394.000000 0 0 1
-15.886289 18.841479 30.730275 39.391944 -0.870290 0.675946 0.025772 -0.012577 -123037.000000 0 0 1
-15.466189 18.225679 29.552755 38.009784 -0.867119 0.680109 0.029640 -0.006252 57143.800000 0 0 1
-14.994389 16.922479 29.726645 37.348031 -0.845735 0.650244 0.027744 -0.024131 -32619.400000 0 0 1
-14.756389 16.326979 28.311175 35.858665 -0.835884 0.660768 0.026295 -0.011593 79181.800000 0 0 1
-13.761589 16.945579 27.524225 35.130000 -0.888718 0.670524 0.030276 -0.006141 -238553.000000 0 0 1
-13.417389 16.120979 26.497445 33.793888 -0.876672 0.669568 0.024038 0.000703 466536.000000 0 0 1
-12.242989 16.528579 25.520745 32.777936 -0.933263 0.678372 0.019268 0.003042 360315.000000 0 0 1
-12.411189 17.599979 24.563355 32.667342 -0.956601 0.719821 0.017164 0.003494 -300241.000000 0 0 1
-12.716089 18.908679 25.085055 33.889483 -0.978766 0.737426 0.017875 0.001430 115186.000000 0 0 1
-11.586889 19.691379 25.826125 34.481808 -1.038932 0.724278 0.024022 0.001794 282754.000000 0 0 1
-11.218589 19.427079 27.194035 35.253137 -1.047106 0.689769 0.034272 -0.006674 -190988.000000 0 0 1
-12.124889 20.005479 28.119635 36.577944 -1.025919 0.693897 0.044858 -0.003981 11226.800000 0 0 1
-11.799589 19.730679 29.591415 37.472414 -1.031825 0.660500 0.048382 -0.011694 121.579000 0 0 1
-10.677389 20.422779 30.090205 37.901411 -1.089062 0.653588 0.031043 -0.019970 -87012.500000 0 0 1
-10.687689 20.248379 31.483795 38.928818 -1.085134 0.628768 0.021870 -0.015085 599028.000000 0 0 1
-9.500189 21.058179 32.146475 39.586567 -1.146995 0.623131 0.010361 -0.015960 335605.000000 0 0 1
-8.317589 20.325979 32.214035 38.988097 -1.182376 0.598373 0.011103 -0.017834 -183644.000000 0 0 1
-7.236689 21.095579 32.755675 39.627356 -1.240333 0.597770 0.002177 -0.011482 946494.000000 0 0 1
-5.969689 20.240079 33.090623 39.246494 -1.283985 0.567684 0.003325 -0.006207 85074.700000 0 0 1
-6.141489 19.478879 34.270198 39.894750 -1.265372 0.537453 0.006482 -0.007675 154983.000000 0 0 1
-4.971889 19.066579 -33.894069 39.205383 -1.315712 2.615003 0.009882 -0.008844 498133.000000 0 0 1
-4.106389 17.950579 34.290832 38.922318 -1.345905 0.492810 0.006592 -0.005118 69900.900000 0 0 1
-4.853789 16.752279 34.213181 38.402342 -1.288780 0.471443 0.007662 -0.002959 63290.200000 0 0 1
-4.720089 16.061279 33.026017 37.026500 -1.284964 0.469143 0.003460 0.002061 -229746.000000 0 0 1
-5.459089 14.743579 32.816425 36.388082 -1.216180 0.446774 0.020128 -0.002342 -314667.000000 0 0 1
-4.770289 13.711879 33.504479 36.514673 -1.235998 0.408892 0.021318 0.002354 433795.000000 0 0 1
-5.515689 12.487979 33.488662 36.164387 -1.154883 0.387088 0.033088 -0.000894 346235.000000 0 0 1
-4.607789 11.321379 33.963703 36.096239 -1.184271 0.345457 0.038498 -0.003506 324999.000000 0 0 1
-4.237489 11.259479 -33.500909 35.595549 -1.210844 2.796826 0.046856 -0.014166 -293004.000000 0 0 1
-3.458989 10.122679 -33.284719 34.961490 -1.241529 2.830630 0.054210 -0.017374 -26429.700000 0 0 1
-3.339989 9.647279 -31.780189 33.379723 -1.237501 2.830765 0.054760 -0.016780 -71804.100000 0 0 1
-4.598489 9.265279 -31.289149 32.954550 -1.110102 2.822319 0.049786 -0.016050 -306372.000000 0 0 1
-4.533289 8.819079 -29.980969 31.578242 -1.095986 2.822175 0.051546 -0.010864 -111213.000000 0 0 1
-5.811989 8.152579 -29.444489 31.100188 -0.951464 2.813822 0.042906 -0.012752 -154662.000000 0 0 1
-5.639589 7.274179 -28.355089 29.811570 -0.911306 2.827716 0.040735 -0.013273 -86901.000000 0 0 1
-6.771289 6.459579 -28.209809 29.721538 -0.761843 2.821280 0.045670 -0.024196 -636621.000000 0 0 1
-6.516489 5.515179 -26.958619 28.278065 -0.702367 2.834910 0.032596 -0.023413 -231744.000000 0 0 1
-6.581889 6.249379 -25.739619 27.292929 -0.759490 2.802592 0.020241 -0.013631 292397.000000 0 0 1
-5.418989 6.949379 -25.317829 26.807681 -0.908507 2.806636 0.016648 -0.014123 -249053.000000 0 0 1
-5.766689 8.011279 -24.250399 26.182382 -0.946891 2.755030 -0.000350 -0.003666 -55792.100000 0 0 1
-6.017389 7.412379 -22.975599 24.880323 -0.888900 2.747758 0.001565 -0.005058 925290.000000 0 1 0
-7.366889 7.641979 -22.474799 24.855331 -0.803725 2.700357 -0.002928 -0.001493 1201040.000000 0 1 0
-7.344889 7.837779 -20.929599 23.525014 -0.817851 2.667428 -0.003241 -0.002026 -13842.000000 0 1 0
-6.815289 9.129379 -20.486799 23.441473 -0.929524 2.634078 -0.016623 0.005018 -23065.400000 0 1 0
-6.764389 9.331079 -19.072899 22.284557 -0.943533 2.598046 -0.011265 0.003879 -107990.000000 0 1 0
-8.060489 9.331279 -18.201899 21.985299 -0.858337 2.546171 -0.015727 0.001934 -169927.000000 0 1 0
-7.740489 9.423179 -16.800099 20.759451 -0.883124 2.513713 -0.022344 0.002424 -513565.000000 0 1 0
-8.788789 9.791279 -15.970399 20.692163 -0.839301 2.452478 -0.013732 -0.004957 -131013.000000 0 1 0
-9.404689 11.237979 -16.202199 21.846089 -0.873976 2.406326 -0.008583 -0.003246 -511381.000000 0 1 0
-8.422189 12.183579 -15.950599 21.766820 -0.965951 2.393216 -0.022177 -0.003571 -495669.000000 0 1 0
-8.876989 13.466479 -16.164199 22.834805 -0.987987 2.357282 -0.001987 -0.009662 436269.000000 0 1 0
-7.769989 14.578479 -15.891199 22.922369 -1.081117 2.336801 0.003867 -0.003534 640434.000000 0 1 0
-7.266489 14.488079 -14.566099 21.791685 -1.105910 2.302885 0.004545 -0.007257 -24932.700000 0 1 0
-8.064289 15.205779 -13.640999 21.961906 -1.083169 2.240968 0.000497 -0.017296 -862275.000000 0 1 0
-7.349889 15.831679 -12.427099 21.426519 -1.136154 2.189509 0.008133 -0.017431 102328.000000 0 1 0
-6.748989 17.113679 -12.638099 22.319238 -1.195160 2.172736 0.016722 -0.024604 700097.000000 0 1 0
-5.657089 17.193179 -13.585299 22.631138 -1.252923 2.214663 0.013882 -0.017460 93880.700000 0 1 0
-5.591189 18.572479 -14.253799 24.070088 -1.278379 2.204557 0.032939 -0.005758 108738.000000 0 1 0
-5.056589 19.546479 -13.374899 24.218213 -1.317650 2.155876 0.032367 -0.008284 -129957.000000 0 1 0
-5.207289 20.861379 -13.811599 25.555298 -1.326181 2.141779 0.035054 -0.000912 -36795.300000 0 0 1
-4.582789 21.864479 -12.803799 25.748683 -1.364188 2.091235 0.035397 -0.004286 -280945.000000 0 0 1
-4.736789 23.270379 -13.085499 27.114166 -1.369985 2.074426 0.024700 -0.002465 919405.000000 0 0 1
-6.066689 23.840779 -13.085899 27.864461 -1.321618 2.059664 0.032007 -0.005838 1146530.000000 0 0 1
-6.878289 23.961479 -11.780599 27.572556 -1.291257 2.012254 0.029895 -0.013081 126897.000000 0 0 1
-7.269989 22.651479 -11.239099 26.310826 -1.260232 2.012153 0.034586 -0.012361 390308.000000 0 0 1
-8.094189 22.689579 -10.052299 26.103287 -1.228133 1.966109 0.040938 -0.020152 582106.000000 0 0 1
-7.441289 23.371379 -8.793199 26.055987 -1.262552 1.915028 0.038501 -0.015955 135151.000000 0 0 1
-7.277589 24.786479 -8.811499 27.294237 -1.285211 1.899518 0.031508 -0.017477 71095.900000 0 0 1
-6.611889 25.206179 -7.593999 27.142906 -1.314264 1.854360 0.033286 -0.012681 341197.000000 0 0 1
-6.514389 26.713479 -7.446799 28.486875 -1.331603 1.835281 0.022452 -0.017871 163888.000000 0 0 1
-5.560189 27.428779 -8.231999 29.172237 -1.370793 1.856868 0.021414 -0.016211 -48142.600000 0 0 1
-5.756689 27.514879 -9.646299 29.719676 -1.364550 1.901360 0.024823 -0.012934 -209227.000000 0 0 1
-5.284389 28.809579 -10.294099 31.046499 -1.389388 1.908764 0.021540 -0.008986 52198.700000 0 0 1
-6.170589 29.906279 -10.156399 32.180959 -1.367321 1.891888 0.019061 -0.007431 -91469.400000 0 0 1
-7.054289 30.008479 -11.262099 32.819303 -1.339912 1.921070 0.026519 -0.013378 212339.000000 0 0 1
-8.198089 31.026979 -10.966899 33.913935 -1.312475 1.900090 0.028754 -0.006417 443408.000000 0 0 1
-9.200689 30.573979 -10.052099 33.473356 -1.278485 1.875805 0.033320 -0.004832 71965.800000 0 0 1
-10.270289 31.483879 -10.038099 34.604579 -1.255472 1.865107 0.025931 -0.007236 -692092.000000 0 0 1
-11.451889 31.019079 -9.246599 34.334074 -1.217130 1.843476 0.038204 -0.006149 -354235.000000 0 0 1
-12.151989 29.872179 -9.764999 33.695298 -1.184442 1.864817 0.049630 -0.013762 454554.000000 0 0 1
-13.384889 29.625779 -9.084399 33.754531 -1.146448 1.843287 0.048374 -0.010579 536789.000000 0 0 1
-14.160189 28.495679 -9.787299 33.291228 -1.109612 1.869195 0.055827 -0.004495 -38809.400000 0 0 1
-13.791689 27.181279 -9.446899 31.910445 -1.101249 1.871345 0.051528 -0.015815 247060.000000 0 0 1
-14.724489 26.303479 -10.071799 31.782459 -1.060466 1.893254 0.061249 -0.028893 105379.000000 0 0 1
-14.984789 25.031879 -9.230299 30.599629 -1.031386 1.877216 0.052521 -0.023014 -225467.000000 0 0 1
-13.910289 24.155779 -9.363599 29.405353 -1.048318 1.894871 0.061942 -0.021434 -52562.100000 0 0 1
-14.358289 22.910779 -8.873799 28.457135 -1.010972 1.887915 0.065399 -0.019270 -306109.000000 0 0 1
-13.428289 21.779379 -9.176699 27.182202 -1.018289 1.915162 0.064151 -0.020546 -605833.000000 0 0 1
-13.319189 21.560679 -10.539299 27.447049 -1.017425 1.964906 0.065758 -0.011921 174485.000000 0 0 1
-12.505689 20.428379 -10.764099 26.259793 -1.021475 1.993150 0.066394 -0.011867 -181658.000000 0 0 1
-12.553889 19.936279 -12.195199 26.528819 -1.008824 2.048449 0.061378 -0.007718 3215.410000 0 0 1
-13.797689 19.441779 -12.638999 26.983389 -0.953595 2.058274 0.056677 0.003405 -187918.000000 0 0 1
-13.813789 19.175579 -14.010199 27.473792 -0.946520 2.105920 0.056050 0.004949 416690.000000 0 0 1
-15.274789 19.163779 -14.519599 28.484879 -0.897847 2.105667 0.046036 0.009590 454569.000000 0 0 1
-15.967589 20.377579 -14.729299 29.785263 -0.906144 2.088075 0.025141 0.003246 117269.000000 0 0 1
-17.221189 20.127979 -15.337999 30.609788 -0.863069 2.095644 0.020172 0.009827 176968.000000 0 0 1
-17.981789 21.309679 -15.964899 32.129817 -0.869894 2.090805 0.022093 -0.002368 -34293.500000 0 0 1
-18.421189 22.253479 -15.027199 32.563388 -0.879339 2.050454 0.022402 -0.010587 131793.000000 0 0 1
-18.961089 23.320779 -15.756999 33.936185 -0.888145 2.053655 0.034494 -0.013317 -191766.000000 0 0 1
-19.404389 24.491079 -14.836799 34.590083 -0.900765 2.014107 0.030327 -0.003537 100447.000000 0 0 1
-20.573789 24.249079 -14.071199 34.774952 -0.867211 1.987377 0.033179 -0.005375 403379.000000 0 0 1
-20.967889 25.459779 -13.406199 35.603074 -0.881848 1.956861 0.021011 -0.017083 -122374.000000 0 0 1
-25.545289 -0.886021 3.681501 25.824412 0.034670 1.427750 0.047089 -0.028159 -58502.200000 0 0 1
-26.026619 -0.214321 4.859801 26.477320 0.008235 1.386204 0.055834 -0.028811 -853943.000000 0 0 1
-27.279739 -0.616121 5.236601 27.784632 0.022581 1.381191 0.024405 -0.025522 -1748650.000000 0 0 1
-27.793539 0.240679 6.396501 28.521114 -0.008659 1.344600 0.024151 -0.017106 -828444.000000 0 0 1
-28.105319 1.589179 6.087001 28.800799 -0.056484 1.357842 0.050333 -0.024201 -63369.500000 0 0 1
-28.578209 2.359779 7.170901 29.558491 -0.082386 1.325751 0.059922 -0.017209 -575735.000000 0 0 1
-27.545999 3.101379 8.035301 28.861162 -0.112117 1.288656 0.082855 -0.024586 -471948.000000 0 0 1
-26.857939 2.179279 8.828601 28.355640 -0.080964 1.254180 0.066855 -0.028609 -197943.000000 0 0 1
-25.773269 2.761879 9.488101 27.602779 -0.106753 1.219903 0.075713 -0.028492 -488352.000000 0 0 1
-24.791089 1.783579 10.152901 26.848848 -0.071821 1.182999 0.064141 -0.024830 -285660.000000 0 0 1
-23.946889 1.120379 9.237101 25.691103 -0.046752 1.203016 0.064470 -0.025671 347174.000000 0 0 1
-24.517389 -0.079821 8.758101 26.034843 0.003256 1.227706 0.053621 -0.025019 181157.000000 0 0 1
-23.474789 -0.987421 8.000101 24.820200 0.042038 1.242615 0.055290 -0.028411 563939.000000 0 1 0
-22.675089 -1.821521 8.847501 24.408111 0.080159 1.199867 0.051270 -0.034845 -40224.400000 0 1 0
-21.648189 -2.383521 8.101201 23.236926 0.109661 1.214682 0.054936 -0.024118 -35370.400000 0 1 0
-20.381189 -2.801921 8.916801 22.422153 0.136619 1.161811 0.046451 -0.016990 139051.000000 0 1 0
-19.618589 -1.772721 9.485901 21.863529 0.090115 1.122014 0.034478 -0.018653 495621.000000 0 1 0
-20.216889 -1.143721 10.631601 22.870541 0.056512 1.087320 0.039877 -0.023020 -334372.000000 0 1 0
-19.639689 0.271079 10.866701 22.447184 -0.013802 1.065461 0.026891 -0.018413 -294620.000000 0 1 0
-20.042289 1.255679 9.882901 22.381729 -0.062570 1.113458 0.033794 -0.019044 638682.000000 0 1 0
-20.551889 2.413379 10.554501 23.229335 -0.116893 1.099142 0.040099 -0.011063 -204379.000000 0 1 0
-21.290989 3.423779 9.680901 23.637858 -0.159444 1.148835 0.038881 -0.025340 -643458.000000 0 1 0
-21.650989 4.567979 10.400001 24.449781 -0.207933 1.131435 0.043164 -0.022225 190154.000000 0 1 0
-22.246389 5.504879 9.616201 24.853105 -0.242578 1.173506 0.036562 -0.025741 -710829.000000 0 1 0
-22.376189 6.823279 10.394901 25.598924 -0.295978 1.152649 0.037923 -0.024090 -191590.000000 0 0 1
-23.218389 6.694279 11.503301 26.762528 -0.280705 1.126493 0.039146 -0.021799 52048.300000 0 0 1
-23.276689 7.805379 12.377001 27.493969 -0.323547 1.103839 0.036172 -0.015350 -118761.000000 0 0 1
-24.082789 7.472279 13.647701 28.671857 -0.300856 1.074700 0.043370 -0.014419 81041.300000 0 0 1
-25.452959 7.317579 13.346001 29.656632 -0.279944 1.104011 0.038709 -0.008724 -105635.000000 0 0 1
-26.214139 7.075679 14.507201 30.784821 -0.263636 1.080094 0.044188 -0.007391 529312.000000 0 0 1
-27.705649 6.666079 14.334501 31.898550 -0.236116 1.104728 0.032076 -0.000413 465268.000000 0 0 1
-27.938999 5.434079 13.722501 31.597846 -0.192100 1.121551 0.043820 -0.001838 -21802.100000 0 0 1
-28.753919 5.570179 12.578501 31.875279 -0.191349 1.165146 0.046440 -0.007013 -595803.000000 0 0 1
-29.018649 4.211379 11.868501 31.633511 -0.144120 1.186197 0.061901 -0.010713 -160922.000000 0 0 1
-29.847479 3.368479 12.651701 32.592701 -0.112381 1.172145 0.039919 -0.006256 193054.000000 0 0 1
-30.248969 2.276579 11.870601 32.574439 -0.075120 1.197792 0.037235 -0.004055 -529865.000000 0 0 1
-31.298929 1.394379 12.518201 33.738296 -0.044521 1.190669 0.017623 0.008360 -217775.000000 0 0 1
-30.787569 0.456479 13.472101 33.609229 -0.014826 1.158357 0.022482 0.008569 634322.000000 0 0 1
-31.915329 -0.268221 13.972401 34.840898 0.008404 1.158151 0.015397 0.014706 588286.000000 0 0 1
-31.543579 -1.392621 14.982901 34.948878 0.044120 1.127733 0.023789 0.005901 -141749.000000 0 0 1
-31.282569 -2.648121 14.410901 34.543968 0.084450 1.140461 0.031711 0.000400 162040.000000 0 0 1
-31.430129 -3.526021 15.510201 35.225731 0.111719 1.114854 0.034194 -0.001933 -142079.000000 0 0 1
-31.271909 -4.999921 15.143001 35.103304 0.158544 1.124770 0.040909 -0.001801 421894.000000 0 0 1
-32.252839 -5.380121 14.155801 35.631138 0.165289 1.162237 0.030852 0.000809 605281.000000 0 0 1
-32.018049 -6.727021 13.779301 35.500386 0.207089 1.172178 0.035433 -0.002621 -613998.000000 0 0 1
-33.063159 -7.165821 12.739401 36.149880 0.213430 1.210657 0.034364 -0.007831 1040200.000000 0 0 1
-34.456762 -7.260921 13.072401 37.561644 0.207687 1.215332 0.034533 -0.006483 1106290.000000 0 0 1
-35.086593 -6.023821 13.364701 38.025921 0.170027 1.211663 0.038614 -0.003098 28347.800000 0 0 1
34.394402 -5.840921 12.945301 37.211182 -0.168217 1.215480 0.057028 -0.007812 644431.000000 0 0 1
33.470172 -6.659021 13.566501 36.723901 -0.196389 1.192413 0.048856 -0.006870 -799742.000000 0 0 1
32.169322 -6.291921 13.190701 35.333385 -0.193149 1.188210 0.049179 -0.004971 -72240.900000 0 0 1
31.137812 -7.393521 13.568601 34.761105 -0.233128 1.169797 0.032259 -0.000325 -163735.000000 0 0 1
30.598972 -7.318021 14.837501 34.785082 -0.234750 1.130124 0.023864 -0.002820 42453.200000 0 0 1
29.570522 -8.278821 15.026901 34.187167 -0.272980 1.115701 0.019395 -0.008278 -43226.300000 0 0 1
28.951912 -8.104221 16.451001 34.271373 -0.272935 1.070117 0.008911 -0.001103 -338835.000000 0 0 1
29.757882 -8.649621 17.443801 35.561688 -0.282872 1.058107 -0.000925 0.004599 -204982.000000 0 0 1
29.088272 -8.704121 18.662101 35.639350 -0.290751 1.019681 -0.000890 0.000669 -426797.000000 0 0 1
29.935542 -9.464221 19.722501 37.076747 -0.306210 1.009910 0.000127 -0.000603 -198656.000000 0 0 1
31.009772 -8.732821 20.186701 38.018035 -0.274506 1.011043 0.002812 -0.002886 229232.000000 0 0 1
32.250352 -9.059421 19.499701 38.760762 -0.273852 1.043639 0.002141 -0.008507 918235.000000 0 0 1
33.432802 -8.177621 20.008301 39.811529 -0.239889 1.044221 0.009134 -0.001490 295324.000000 0 0 1
33.701592 -8.378521 21.423301 40.803857 -0.243669 1.018044 0.018998 -0.009268 -446192.000000 0 0 1
35.000054 -7.959921 21.739601 41.963965 -0.223622 1.026222 0.008998 -0.005579 -100546.000000 0 0 1
-35.326419 -8.544821 23.027601 43.026041 0.237324 1.006050 0.026471 -0.010347 -109770.000000 0 0 1
35.121441 -8.075621 24.216601 43.418602 -0.226006 0.979127 0.022843 -0.014148 -37338.800000 0 0 1
-35.491757 -8.933121 25.286701 44.484634 0.246574 0.966192 0.022200 -0.007121 -143101.000000 0 0 1
34.889192 -8.513621 26.659901 44.726813 -0.239341 0.932210 0.039488 -0.007996 -6018.990000 0 0 1
-35.320131 -7.521621 27.296201 45.267748 0.209821 0.923547 0.010038 -0.013701 -207571.000000 0 0 1
35.075490 -7.044521 28.488201 45.732842 -0.198202 0.898318 0.015014 -0.013051 110947.000000 0 0 1
-34.890061 -6.522521 29.541301 46.179520 0.184812 0.876681 0.020377 -0.008581 303122.000000 0 0 1
-34.423439 -7.456421 30.476401 46.576629 0.213313 0.857502 0.014961 -0.004261 233895.000000 0 0 1
-33.059419 -7.162121 30.742401 45.709040 0.213347 0.833124 0.009351 -0.006585 410934.000000 0 0 1
-32.381109 -7.854921 31.922701 46.144283 0.237980 0.806815 0.001501 -0.001833 -196019.000000 0 0 1
-32.494929 -9.265621 31.830401 46.421402 0.277769 0.815254 0.002236 -0.000921 386472.000000 0 0 1
-32.103069 -9.836321 33.084901 47.137786 0.297316 0.792768 0.000115 0.001873 -132708.000000 0 0 1
-32.086859 -11.366121 33.080601 47.466634 0.340438 0.799698 0.014511 -0.002606 -232776.000000 0 0 1
-33.416379 -11.779521 33.263601 48.599163 0.338907 0.816950 0.008322 -0.005984 25439.600000 0 0 1
-33.615109 -13.225821 33.356001 49.168289 0.374846 0.825207 0.015030 -0.014451 193607.000000 0 0 1
-35.116107 -13.579221 33.494301 50.392504 0.368984 0.843747 0.017515 -0.013154 188407.000000 0 0 1
-35.480743 -14.947621 33.523701 51.050495 0.398723 0.854392 0.018061 -0.018311 335071.000000 0 0 1
34.153762 -15.071321 33.958001 50.465533 -0.415578 0.832681 0.002492 -0.017129 19184.600000 0 0 1
33.727042 -16.511121 34.265701 50.835703 -0.455254 0.831121 -0.005333 -0.007442 11099.100000 0 0 1
34.375192 -16.999621 -33.407433 50.859586 -0.459263 2.287438 -0.002514 -0.019517 447814.000000 0 0 1
34.047972 -18.407621 -33.329633 51.078071 -0.495627 2.281706 0.000956 -0.021083 -113529.000000 0 0 1
34.592592 -19.280621 -32.188233 51.034029 -0.508478 2.253278 0.005163 -0.015135 -101098.000000 0 0 1
33.885712 -19.009321 -31.007133 49.709537 -0.511237 2.244348 0.006491 -0.014689 -203578.000000 0 0 1
34.222842 -19.926521 -30.015333 49.690938 -0.527272 2.219358 -0.000878 -0.005659 -169333.000000 0 0 1
33.074612 -20.060821 -28.931033 48.304981 -0.545209 2.212954 0.007982 -0.007067 334134.000000 0 0 1
31.876432 -20.591821 -29.378933 47.992205 -0.573550 2.229586 0.007073 0.000006 -573350.000000 0 0 1
31.047452 -19.752221 -30.135733 47.563189 -0.566609 2.256986 -0.004660 0.000156 -1568120.000000 0 0 1
29.708702 -20.384821 -30.464833 47.183196 -0.601375 2.272698 -0.004771 0.004515 -764838.000000 0 0 1
28.889572 -19.547121 -31.231033 46.819598 -0.594858 2.301039 -0.010251 0.010528 463482.000000 0 0 1
27.617812 -20.168021 -31.416033 46.437697 -0.630744 2.313823 0.002645 0.004932 655518.000000 0 0 1
26.608312 -19.546321 -32.421333 46.273143 -0.633569 2.347106 0.006591 0.016562 194720.000000 0 0 1
27.052212 -19.680321 -33.761033 47.528355 -0.628941 2.360770 -0.007650 0.012064 67364.700000 0 0 1
26.056392 -19.515921 34.110901 47.152522 -0.642853 0.762059 0.027863 -0.000552 -180173.000000 0 0 1
26.578162 -19.800621 32.681801 46.546357 -0.640291 0.792406 0.021810 0.004875 -480788.000000 0 0 1
27.507292 -18.856221 32.273701 46.409050 -0.600927 0.801795 -0.006526 0.003745 -193856.000000 0 0 1
27.772652 -18.893921 30.896201 45.638533 -0.597386 0.827150 -0.005100 -0.000746 92260.200000 0 0 1
26.710532 -18.193821 29.970901 44.076326 -0.597961 0.823065 -0.000355 0.010697 298999.000000 0 0 1
26.820062 -16.788021 30.203001 43.742138 -0.559282 0.808646 0.007614 -0.003192 860556.000000 0 0 1
25.757062 -16.073221 29.549801 42.367032 -0.557903 0.798933 0.022747 0.002199 424976.000000 0 0 1
25.521862 -14.821421 30.427401 42.389464 -0.526133 0.770151 0.031456 0.001693 133696.000000 0 0 1
26.544402 -13.847121 30.252501 42.562446 -0.480824 0.780191 0.033127 0.005020 452803.000000 0 0 1
26.319422 -12.673821 31.090901 42.661245 -0.448770 0.754250 0.044718 0.004708 20549.800000 0 0 1
27.538792 -11.717421 31.127001 43.180704 -0.402284 0.765762 0.035280 0.001182 159541.000000 0 0 1
27.824462 -11.130521 29.886601 42.323730 -0.380529 0.786760 0.035212 -0.006391 736743.000000 0 0 1
29.207822 -10.754321 29.911401 43.167629 -0.352796 0.805275 0.036642 -0.002943 747579.000000 0 0 1
29.880382 -10.139621 28.647201 42.618203 -0.327147 0.833644 0.047767 -0.009946 -29005.600000 0 0 1
29.678272 -8.756421 28.444801 42.030720 -0.286905 0.827441 0.043798 -0.001242 -115375.000000 0 0 1
30.259262 -8.238721 27.264501 41.555414 -0.265827 0.855157 0.036575 -0.001208 -20204.900000 0 0 1
30.197852 -6.681421 27.088301 41.113595 -0.217747 0.851488 0.035453 -0.008428 -672754.000000 0 0 1
28.901802 -6.207021 26.897601 39.966513 -0.211549 0.832534 0.041511 -0.008607 -699455.000000 0 0 1
28.868942 -4.812021 26.720201 39.630045 -0.165167 0.830860 0.045664 -0.011615 -439693.000000 0 0 1
27.449282 -4.263721 26.681501 38.516813 -0.154099 0.805538 0.044771 -0.012295 -389600.000000 0 0 1
26.878982 -4.488621 25.392701 37.248042 -0.165467 0.820687 0.040284 -0.008432 152446.000000 0 0 1
25.482262 -4.235921 25.419301 36.241269 -0.164724 0.793449 0.053543 -0.014637 107121.000000 0 0 1
24.841962 -4.513721 24.016901 34.846926 -0.179737 0.810396 0.042541 -0.007206 -290234.000000 0 0 1
25.141762 -3.562121 23.061601 34.302104 -0.140745 0.833473 0.047328 -0.004086 91528.700000 0 0 1
24.776162 -3.989621 21.799801 33.241639 -0.159656 0.855557 0.043015 -0.011017 -55956.200000 0 0 1
25.093662 -2.916621 20.754901 32.695022 -0.115710 0.883043 0.046541 -0.013888 -165821.000000 0 0 1
24.224662 -1.818821 20.773201 31.963545 -0.074941 0.863340 0.054347 -0.010266 12417.600000 0 0 1
24.675362 -0.957621 19.781101 31.639887 -0.038789 0.895415 0.058144 -0.012916 -568448.000000 0 0 1
23.516462 -0.198621 19.106401 30.300462 -0.008446 0.888516 0.033338 -0.013599 -141915.000000 0 0 1
22.734762 -1.141321 18.396201 29.267597 -0.050159 0.891107 0.038867 -0.016003 -135079.000000 0 0 1
21.555562 -0.528621 17.908001 28.028881 -0.024519 0.877713 0.037792 -0.013680 299749.000000 0 0 1
20.531662 -1.524121 17.317401 26.902871 -0.074097 0.871472 0.022611 -0.014000 -320503.000000 0 0 1
20.919962 -2.031721 16.060801 26.452259 -0.096815 0.918313 0.041895 -0.025295 23484.500000 0 0 1
19.836862 -2.730821 15.516301 25.332076 -0.136804 0.911557 0.036041 -0.026973 -466245.000000 0 0 1
20.126962 -3.413221 14.120801 24.822201 -0.167986 0.965656 0.042728 -0.032488 -556421.000000 0 1 0
19.073662 -4.125821 13.520201 23.740741 -0.213028 0.964907 0.036236 -0.033420 377676.000000 0 1 0
19.449162 -4.540321 12.209501 23.408467 -0.229338 1.022089 0.036904 -0.026560 -594803.000000 0 1 0
18.447462 -5.501821 11.630401 22.491001 -0.289844 1.027321 0.027589 -0.025868 -499316.000000 0 1 0
18.665662 -6.788921 12.105901 23.260465 -0.348838 1.023419 0.044959 -0.033148 814183.000000 0 1 0
17.435362 -7.536421 12.063501 22.501501 -0.407995 1.004963 0.034222 -0.018542 410938.000000 0 1 0
17.578662 -8.943921 12.699201 23.457894 -0.470658 0.998741 0.051270 -0.025988 -238274.000000 0 1 0
18.392862 -9.823921 11.925001 24.021083 -0.490566 1.051305 0.042607 -0.028643 681713.000000 0 1 0
17.820862 -11.120921 11.720001 24.054447 -0.557908 1.061884 0.039937 -0.026275 -158236.000000 0 1 0
18.406462 -11.830621 10.474501 24.258537 -0.571257 1.124324 0.031292 -0.025397 -358274.000000 0 1 0
18.013362 -11.314221 9.202901 23.177277 -0.560827 1.162479 0.044166 -0.025753 356111.000000 0 1 0
18.685962 -11.894621 8.103501 23.586308 -0.566865 1.220083 0.048236 -0.035313 -243126.000000 0 1 0
18.386162 -11.218821 6.774201 22.578811 -0.547869 1.266078 0.045473 -0.023990 -48745.800000 0 1 0
19.005462 -9.924421 6.668701 22.453803 -0.481240 1.269251 0.056281 -0.019044 750422.000000 0 1 0
19.138262 -9.585621 5.291201 22.048900 -0.464337 1.328455 0.020662 -0.019950 -388908.000000 0 1 0
19.754262 -8.179021 5.098201 21.979966 -0.392549 1.336717 0.041308 -0.018437 -396683.000000 0 1 0
20.492162 -7.841621 3.937101 22.291713 -0.365473 1.393248 0.054102 -0.021461 798410.000000 0 1 0
20.914862 -6.501221 4.006101 22.265358 -0.301374 1.389886 0.064007 -0.020355 -537629.000000 0 1 0
21.667462 -6.042521 2.735101 22.659915 -0.271966 1.449799 0.068277 -0.026456 -486607.000000 0 1 0
20.809762 -6.013621 1.656901 21.724529 -0.281317 1.494454 0.053829 -0.032832 290459.000000 0 1 0
21.407962 -5.276021 0.654701 22.058238 -0.241636 1.541111 0.061600 -0.028232 -62855.000000 0 1 0
-25.518329 -16.136721 -0.246399 30.193370 0.563873 1.578957 0.024358 0.003617 6554.890000 0 0 1
-24.519189 -15.359721 -0.913299 28.947293 0.559632 1.602352 0.024170 0.007506 1313050.000000 0 0 1
-23.168989 -15.744721 -0.532999 28.017537 0.596876 1.589821 0.034605 0.008108 1205600.000000 0 0 1
-22.569589 -15.143921 0.719201 27.189004 0.590988 1.544341 0.033594 -0.000899 -738135.000000 0 0 1
-23.098089 -15.646921 1.933001 27.965771 0.595405 1.501621 0.032207 0.008432 4752.300000 0 0 1
-22.484689 -15.000221 3.009601 27.196058 0.588324 1.459906 0.052582 0.014128 -212.313000 0 0 1
-22.746789 -15.642721 4.396101 27.954192 0.602416 1.412880 0.046928 0.017657 -325653.000000 0 0 1
-22.203189 -16.931621 4.547001 28.290221 0.651501 1.409369 0.045252 0.010177 498136.000000 0 0 1
-22.840889 -17.633721 5.646501 29.403015 0.657448 1.377558 0.055176 -0.001328 229556.000000 0 0 1
-22.463289 -19.166321 5.619901 30.058784 0.706365 1.382726 0.035008 -0.001327 534752.000000 0 0 1
-23.302589 -19.960321 6.495501 31.362663 0.708297 1.362177 0.032654 -0.001842 415822.000000 0 0 1
-23.197389 -21.350121 6.170501 32.125093 0.743955 1.377518 0.028416 -0.006298 74854.100000 0 0 1
-23.984589 -22.199421 7.169201 33.458515 0.746764 1.354851 0.033015 -0.004126 -144205.000000 0 0 1
-23.411489 -22.202021 8.421401 33.345878 0.758889 1.315485 0.039989 -0.001148 -463861.000000 0 0 1
-24.228189 -22.937621 9.271601 34.628055 0.758043 1.299741 0.046375 -0.000900 202742.000000 0 0 1
-23.434789 -23.502621 10.508301 34.813602 0.786843 1.264169 0.022477 -0.009317 459889.000000 0 0 1
-22.894389 -22.518521 11.363701 34.064212 0.777122 1.230680 0.043147 -0.012203 326989.000000 0 0 1
-22.033289 -22.995221 12.405501 34.178099 0.806758 1.199347 0.056103 -0.011639 210681.000000 0 0 1
-22.273989 -22.372621 13.766801 34.441103 0.787607 1.159585 0.039711 -0.007860 -743808.000000 0 0 1
-23.414689 -22.788221 14.433301 35.719334 0.771840 1.154829 0.031601 -0.008713 -581771.000000 0 0 1
-23.689789 -22.016921 15.572601 35.895081 0.748814 1.122050 0.031030 -0.008288 -120585.000000 0 0 1
-25.102159 -22.353421 16.115401 37.275997 0.727540 1.123725 0.017872 -0.003964 118937.000000 0 0 1
-26.254799 -21.865721 15.435601 37.492426 0.694440 1.146479 0.008896 -0.004042 491758.000000 0 0 1
-26.725789 -22.772421 14.467001 37.975585 0.705698 1.179967 0.002409 -0.004054 -249194.000000 0 0 1
-27.848869 -23.725221 14.966001 39.527545 0.705612 1.182489 0.006747 -0.007168 -242582.000000 0 0 1
-27.453819 -24.542221 16.054901 40.172038 0.729460 1.159657 0.011782 -0.006521 85197.700000 0 0 1
-28.488169 -25.467211 16.360001 41.566865 0.729467 1.166271 0.001028 -0.002634 115469.000000 0 0 1
-28.442639 -26.893831 15.716001 42.181211 0.757417 1.189005 0.009855 -0.000171 -209675.000000 0 0 1
-28.866219 -26.878951 14.329401 41.965085 0.749764 1.222326 0.003054 -0.007485 -405143.000000 0 0 1
-30.140799 -27.448071 14.311001 43.204966 0.738674 1.233184 0.012088 -0.009375 -814119.000000 0 0 1
-30.675479 -27.848811 12.913801 43.397091 0.737137 1.268647 0.027345 -0.018917 -192411.000000 0 0 1
-29.896949 -28.797891 12.198301 43.265975 0.766675 1.284983 0.029230 -0.029127 -143144.000000 0 0 1
-30.531869 -29.297441 11.059101 43.736012 0.764769 1.315161 0.038150 -0.015339 -323816.000000 0 0 1
-29.864189 -30.547931 10.463601 43.983324 0.796716 1.330594 0.033823 -0.022766 -58334.000000 0 0 1
-30.061679 -31.697641 11.246101 45.110085 0.811881 1.318835 0.026707 -0.016013 123983.000000 0 0 1
-29.397639 -32.832061 10.682501 45.346237 0.840532 1.332985 0.040506 -0.016469 -70724.900000 0 0 1
-29.585289 -34.163718 11.422201 46.614543 0.857095 1.323240 0.032378 -0.011890 179953.000000 0 0 1
-30.916579 34.371451 11.339101 47.600491 -0.838266 1.330270 0.026807 -0.010797 8748.410000 0 0 1
-31.056729 33.040917 11.918801 46.885823 -0.816344 1.313767 0.023191 -0.012082 -1096970.000000 0 0 1
-32.442869 32.523981 12.236001 47.540181 -0.786647 1.310484 0.030786 -0.012411 81823.300000 0 0 1
-33.417609 32.308941 11.160701 47.803405 -0.768532 1.335151 0.013530 -0.012346 1022070.000000 0 0 1
-34.036879 33.527386 10.721101 48.964648 -0.777857 1.350052 0.028945 -0.011028 -1045430.000000 0 0 1
-35.478272 33.354811 10.303801 49.773683 -0.754559 1.362275 0.019962 -0.005199 -766877.000000 0 0 1
35.331892 32.775311 9.001601 49.026446 0.747878 1.386142 0.000125 -0.001075 921412.000000 0 0 1
33.943172 32.547381 8.685201 47.821581 0.764409 1.388166 0.007529 0.003523 847793.000000 0 0 1
33.789482 31.975411 7.204601 47.075070 0.757821 1.417148 0.002788 0.001764 134953.000000 0 0 1
34.221492 30.589881 6.982701 46.428541 0.729423 1.419827 0.001128 0.002909 132145.000000 0 0 1
34.036642 30.249441 5.638501 45.883705 0.726554 1.447598 0.007750 -0.002632 9060.370000 0 0 1
34.383672 28.770061 5.275701 45.141847 0.696743 1.453659 -0.000026 0.005570 -19688.700000 0 0 1
33.467892 27.837091 5.805501 43.917050 0.693806 1.438216 0.017184 0.006441 37344.500000 0 0 1
33.906892 27.371131 7.053201 44.142992 0.679142 1.410328 0.006041 0.002990 -8370.020000 0 0 1
33.101982 26.182541 7.634201 42.889948 0.669208 1.391848 0.009160 0.000483 -51504.700000 0 0 1
33.250582 24.969551 6.909601 42.152369 0.644109 1.406134 0.006557 0.000012 20700.300000 0 0 1
32.165232 24.104881 7.184601 40.832168 0.643122 1.393921 0.002054 0.009920 -571231.000000 0 0 1
32.178782 22.782401 6.446701 39.950867 0.616071 1.408722 0.002862 0.002775 24147.900000 0 0 1
32.980422 21.706001 6.910801 40.082638 0.582082 1.397517 0.016152 -0.002428 101975.000000 0 0 1
34.374662 21.986301 6.856401 41.376624 0.569035 1.404321 0.027309 -0.007959 194557.000000 0 0 1
35.220262 20.647601 6.985701 41.419685 0.530242 1.401330 0.032151 -0.008749 68153.500000 0 0 1
35.009106 19.800901 5.869601 40.646837 0.514736 1.425885 0.039359 -0.016949 19001.300000 0 0 1
-35.367740 18.579401 6.212501 40.431007 -0.483698 1.416528 0.050595 -0.018071 -97977.100000 0 0 1
35.123720 17.446701 5.306901 39.575577 0.461021 1.436296 0.051035 -0.021030 69435.100000 0 0 1
-35.258847 17.541101 4.050101 39.588885 -0.461642 1.468313 0.047723 -0.013783 443797.000000 0 0 1
35.133194 16.425701 3.348001 38.927549 0.437333 1.484684 0.035609 -0.015262 -498401.000000 0 0 1
-35.061891 15.995301 2.084701 38.594453 -0.427999 1.516754 0.048451 0.006859 386257.000000 0 0 1
-33.959909 15.124001 2.387801 37.252012 -0.418979 1.506654 0.054560 -0.007472 327736.000000 0 0 1
-32.770339 15.871001 2.408101 36.490858 -0.451017 1.504756 0.056725 -0.007932 -1850560.000000 0 0 1
-31.511769 15.162501 2.714701 35.075100 -0.448470 1.493322 0.051137 -0.015213 -1186820.000000 0 0 1
-31.433299 14.672201 4.043001 34.923797 -0.436714 1.454770 0.068055 -0.026450 465182.000000 0 0 1
-30.121299 14.172601 4.267601 33.561402 -0.439785 1.443293 0.043813 -0.024184 182890.000000 0 0 1
-29.911909 13.261101 5.499701 33.178695 -0.417300 1.404268 0.051098 -0.021306 -157793.000000 0 0 1
-30.190409 11.929901 5.249501 32.883743 -0.376323 1.410472 0.061979 -0.021528 380417.000000 0 0 1
-29.765329 11.155301 6.396101 32.424152 -0.358573 1.372231 0.052419 -0.007025 -72070.300000 0 0 1
-30.073999 9.682301 6.290401 32.214306 -0.311470 1.374266 0.045050 -0.018043 553374.000000 0 0 1
-31.439209 9.338401 6.540401 33.442584 -0.288730 1.373957 0.045367 -0.001373 489625.000000 0 0 1
-31.660399 7.935701 6.605601 33.301504 -0.245591 1.371115 0.037371 -0.010553 -14621.000000 0 0 1
-33.155939 7.549401 6.691601 34.656706 -0.223877 1.376494 0.040688 -0.004313 -103599.000000 0 0 1
-33.699779 7.639301 7.962901 35.460426 -0.222920 1.344308 0.032390 0.001281 -177197.000000 0 0 1
-34.846861 6.816401 7.994001 36.396031 -0.193171 1.349352 0.016729 -0.006888 1034.950000 0 0 1
-35.225977 6.355901 9.429601 37.016001 -0.178512 1.313213 0.007081 -0.001405 -168332.000000 0 0 1
35.179007 7.241701 10.367801 37.383098 0.203017 1.289773 0.015176 -0.004989 -67526.700000 0 0 1
-34.992775 8.230801 10.916601 37.568771 -0.231015 1.275967 0.027456 -0.004075 -681291.000000 0 0 1
35.193436 9.193701 11.823201 38.247747 0.255523 1.256527 0.033113 -0.017864 -488207.000000 0 0 1
34.886402 8.585401 13.090101 38.237689 0.241301 1.221395 0.020651 -0.015481 93502.900000 0 0 1
34.058922 9.387101 13.857801 37.949525 0.268937 1.196987 0.034178 -0.035280 -643069.000000 0 0 1
33.372762 8.642401 15.036101 37.610061 0.253399 1.159509 0.032713 -0.027972 -40425.600000 0 0 1
32.206392 7.905801 14.667501 36.261397 0.240713 1.154371 0.035701 -0.027761 355363.000000 0 0 1
31.652332 7.344301 15.853401 36.154380 0.227996 1.116876 0.035317 -0.020741 1301230.000000 0 0 1
30.091422 7.055901 15.844501 34.732227 0.230321 1.097087 0.029455 -0.013471 623982.000000 0 0 1
29.345552 8.290901 15.830401 34.358435 0.275350 1.091964 0.023926 -0.017004 64545.400000 0 0 1
27.964652 8.019601 15.892201 33.149627 0.279281 1.070816 0.037311 -0.014490 -2557.450000 0 0 1
27.369882 7.534301 17.257301 33.221839 0.268624 1.024582 0.045380 -0.013676 -865892.000000 0 0 1
27.321122 8.517001 18.288101 33.962297 0.302189 1.002161 0.047963 -0.013318 297346.000000 0 0 1
26.653552 8.152701 19.504201 34.018998 0.296840 0.960229 0.048789 -0.012334 -115074.000000 0 0 1
27.242352 7.003701 20.380801 34.735783 0.251639 0.943772 0.055819 -0.009715 -20946.800000 0 0 1
26.642502 6.861301 21.667701 35.019846 0.252055 0.903676 0.054113 -0.004983 -47009.700000 0 0 1
27.007332 5.652101 22.261101 35.452769 0.206303 0.891933 0.063107 -0.009535 -915074.000000 0 0 1
26.509912 5.476801 23.705601 35.982305 0.203728 0.851557 0.070399 -0.006864 572426.000000 0 0 1
25.110062 5.280801 23.891101 35.059760 0.207285 0.821069 0.052163 -0.009227 235289.000000 0 0 1
24.337762 6.445201 23.686601 34.567649 0.258880 0.815884 0.055203 -0.005112 -720572.000000 0 0 1
22.827662 6.127101 23.775901 33.525169 0.262226 0.782440 0.039584 -0.009736 -33617.000000 0 0 1
22.365662 5.555001 22.540601 32.235998 0.243446 0.796467 0.031553 0.009839 -810182.000000 0 0 1
20.981962 5.629301 22.606601 31.352674 0.262120 0.765491 0.026709 0.003301 -1967820.000000 0 0 1
20.273662 4.947201 21.490201 29.955382 0.239344 0.770723 0.024076 0.003973 497364.000000 0 0 1
18.870462 5.160801 21.232701 28.871366 0.266958 0.744504 0.023465 -0.002559 1543830.000000 0 0 1
18.081362 4.406101 22.184601 28.956966 0.239023 0.698009 0.026850 -0.006029 -181618.000000 0 0 1
16.711362 3.975001 21.597101 27.595380 0.233523 0.671909 0.044629 -0.008358 -406870.000000 0 0 1
16.777262 3.015201 20.557501 26.705408 0.177821 0.692287 0.034147 -0.006688 371501.000000 0 0 1
15.559762 2.744001 19.880201 25.394057 0.174558 0.671534 0.046970 -0.019420 436735.000000 0 0 1
14.378262 2.065001 20.598701 25.205260 0.142644 0.614194 0.053401 -0.027959 -155246.000000 0 0 1
14.720362 0.684101 20.802501 25.493158 0.046440 0.616334 0.022681 -0.011472 343124.000000 0 0 1
13.740162 0.078701 21.616301 25.613721 0.005728 0.566221 0.022362 -0.015122 -50833.900000 0 0 1
14.072262 -1.377799 21.958101 26.116759 -0.097598 0.572099 0.005469 -0.013028 -169202.000000 0 0 1
13.919662 -2.147399 20.760601 25.087265 -0.153064 0.596093 0.029776 -0.010938 147149.000000 0 0 1
14.092462 -3.541599 20.965801 25.508924 -0.246213 0.606057 0.019488 -0.000339 -168989.000000 0 0 1
13.909462 -4.340799 19.616101 24.435775 -0.302498 0.638884 0.017203 -0.007750 432738.000000 0 1 0
12.605662 -4.364799 19.016401 23.228811 -0.333336 0.611730 0.031681 -0.012769 374477.000000 0 1 0
12.559662 -5.085199 17.787901 22.360988 -0.384709 0.650984 0.044872 -0.013478 -561345.000000 0 1 0
11.134862 -5.108399 17.266201 21.170795 -0.430127 0.617088 0.045661 -0.014352 -348774.000000 0 1 0
10.343162 -5.883599 18.139801 21.694472 -0.517192 0.580573 0.039421 -0.004662 383668.000000 0 1 0
8.940862 -5.820399 17.818501 20.768125 -0.577070 0.539485 0.039894 -0.017667 1027300.000000 0 1 0
8.018462 -6.630999 18.777401 21.467572 -0.690969 0.506007 0.043946 -0.014720 13554.400000 0 1 0
7.947862 -8.033199 18.674601 21.827540 -0.790738 0.544180 0.028528 -0.011742 -259028.000000 0 1 0
9.007662 -8.757999 19.264901 22.999498 -0.771346 0.577880 0.032169 -0.014551 -354001.000000 0 1 0
9.079662 -10.239299 18.845801 23.290507 -0.845352 0.628071 0.040287 -0.015370 50963.000000 0 1 0
9.415862 -10.396099 17.474801 22.407722 -0.834835 0.676360 0.040832 -0.009651 -13988.000000 0 1 0
9.452762 -11.769699 17.077301 22.792866 -0.894141 0.723884 0.021166 -0.011565 161682.000000 0 1 0
10.183962 -11.959799 15.724001 22.225977 -0.865423 0.784898 0.040540 -0.010165 191594.000000 0 1 0
10.305162 -13.297899 15.329701 22.760277 -0.911520 0.831824 0.016658 0.005320 -81622.100000 0 1 0
10.019062 -13.347999 13.944701 21.748686 -0.926909 0.874769 0.014260 0.008436 -468921.000000 0 1 0
10.652762 -14.557699 13.179301 22.340589 -0.939070 0.939829 0.024092 0.005654 1122180.000000 0 1 0
12.029962 -14.335599 12.810501 22.679028 -0.872625 0.970531 0.011056 -0.000384 449137.000000 0 1 0
12.208362 -13.457899 11.719401 21.621829 -0.834044 0.997961 -0.008996 -0.002036 -1210410.000000 0 1 0
13.612062 -13.039099 11.310301 21.982476 -0.763903 1.030355 0.011314 -0.011286 -629947.000000 0 1 0
14.333462 -14.085699 10.772601 22.801403 -0.776680 1.078724 0.021690 -0.006384 -372946.000000 0 1 0
15.445462 -13.655799 10.008701 22.917618 -0.723978 1.118841 0.023765 -0.023231 -147589.000000 0 1 0
16.202762 -14.829999 9.287801 23.847885 -0.741191 1.170751 0.024210 -0.024131 94812.900000 0 1 0
16.731762 -15.795899 10.143001 25.146426 -0.756635 1.155613 0.025030 -0.013368 108075.000000 0 0 1
15.832062 -16.863399 10.317701 25.327522 -0.816931 1.151223 0.051312 -0.012928 1916.170000 0 0 1
16.135162 -17.680499 11.550101 26.577214 -0.831065 1.121217 0.037188 -0.002914 273380.000000 0 0 1
17.261362 -18.542299 11.447601 27.799623 -0.821160 1.146379 0.062471 -0.011961 215885.000000 0 0 1
17.542762 -19.151699 12.701301 28.911228 -0.829217 1.115954 0.037503 -0.005507 -124189.000000 0 0 1
18.895362 -19.893499 12.727601 30.245294 -0.811125 1.136455 0.002095 -0.009820 -215506.000000 0 0 1
19.970462 -18.985499 12.649301 30.319521 -0.760120 1.140434 0.006339 -0.007779 -1659110.000000 0 0 1
21.111162 -19.721499 12.483201 31.471399 -0.751378 1.162929 -0.000624 -0.016062 -644153.000000 0 0 1
22.056662 -19.072499 11.404001 31.309867 -0.712969 1.197990 0.001582 -0.001271 -556884.000000 0 0 1
21.679362 -19.149499 10.048701 30.621470 -0.723515 1.236443 0.001800 -0.007714 87865.700000 0 0 1
20.538662 -18.429499 9.565901 29.205984 -0.731326 1.237106 0.018479 -0.007800 330683.000000 0 0 1
20.491762 -16.899299 9.844701 28.326961 -0.689614 1.215852 0.050109 -0.025237 133006.000000 0 0 1
21.428962 -16.100699 9.100101 28.306267 -0.644366 1.243497 0.042453 -0.015928 392965.000000 0 0 1
21.292162 -14.729099 9.405801 27.545809 -0.605175 1.222326 0.061899 -0.028413 21170.100000 0 0 1
-34.162181 24.950179 8.039601 43.060437 -0.630803 1.382989 0.016823 0.003470 -346347.000000 0 0 1
-33.349389 24.369979 9.011801 42.276355 -0.631065 1.355984 0.029954 -0.003499 -164972.000000 0 0 1
-32.319359 25.314679 9.284501 42.090092 -0.664454 1.348381 0.025390 0.001199 -665854.000000 0 0 1
-31.157669 24.567379 9.938801 40.903988 -0.667681 1.325361 0.044627 -0.009641 -712046.000000 0 0 1
-30.544679 23.645779 9.096301 39.684291 -0.658771 1.339523 0.057329 -0.013439 -8500.230000 0 0 1
-29.555149 22.852779 9.706301 38.600111 -0.658200 1.316610 0.063365 -0.016144 69462.600000 0 0 1
-28.733069 21.960179 8.798801 37.219049 -0.652579 1.332131 0.062857 -0.024451 17681.800000 0 0 1
-29.554179 20.920979 8.328601 37.155113 -0.615999 1.344718 0.068502 -0.029272 562788.000000 0 0 1
-28.809809 20.085079 7.408601 35.892936 -0.608818 1.362894 0.052461 -0.029458 116368.000000 0 0 1
-29.694729 19.260979 6.469501 35.980782 -0.575414 1.390009 0.055549 -0.022489 -390435.000000 0 0 1
-30.455389 18.287779 7.140901 36.234873 -0.540771 1.372425 0.054373 -0.026813 48440.700000 0 0 1
-31.313539 17.675379 6.204501 36.489075 -0.513880 1.399929 0.050294 -0.018023 -336310.000000 0 0 1
-32.106019 16.503179 6.787601 36.731769 -0.474802 1.384940 0.064516 -0.017689 -695071.000000 0 0 1
-32.996899 16.952479 7.785801 37.905152 -0.474595 1.363922 0.069309 -0.028257 -140474.000000 0 0 1
-33.730049 15.789779 8.141301 38.122357 -0.437822 1.355582 0.070546 -0.033396 -267221.000000 0 0 1
-34.755693 16.107079 9.251901 39.408043 -0.433972 1.333812 0.061567 -0.029246 293964.000000 0 0 1
35.184953 16.969879 8.823001 40.047510 0.449392 1.348661 0.055321 -0.024381 56768.800000 0 0 1
34.352512 17.390079 9.874801 39.749486 0.468615 1.319741 0.061104 -0.019057 119731.000000 0 0 1
33.579172 18.713579 9.522201 39.603423 0.508428 1.327978 0.039400 -0.012227 872925.000000 0 0 1
32.343952 18.442679 8.833301 38.266053 0.518223 1.337856 0.010132 -0.010678 492363.000000 0 0 1
31.516252 19.557979 8.786701 38.118169 0.555406 1.338192 -0.000999 -0.002504 817527.000000 0 0 1
30.139932 19.477279 8.035601 36.774322 0.573719 1.350508 -0.015025 -0.001175 605266.000000 0 0 1
29.276952 20.578279 8.171601 36.706682 0.612658 1.346296 -0.022437 0.001950 -48028.300000 0 0 1
28.008152 20.496679 7.572201 35.523353 0.631758 1.355987 -0.009112 -0.003214 -36382.400000 0 0 1
27.785932 20.268179 6.069001 34.924058 0.630213 1.396133 -0.017636 0.014274 -629528.000000 0 0 1
28.176642 18.921479 5.744501 34.423027 0.591362 1.403132 -0.028560 0.004967 -83837.800000 0 0 1
28.193562 18.496679 4.436301 34.010069 0.580624 1.439983 -0.037084 -0.000004 -432686.000000 0 0 1
26.958842 18.536479 3.513001 32.904732 0.602345 1.463830 -0.023648 0.015954 -834505.000000 0 0 1
25.839062 17.903979 4.095901 31.701514 0.605947 1.441232 -0.029473 0.005347 -397360.000000 0 0 1
24.642662 18.394779 3.579801 30.958741 0.641232 1.454906 0.002141 0.003421 -761227.000000 0 0 1
24.067562 19.591479 4.313401 31.331757 0.683232 1.432689 0.005000 0.006387 -1010790.000000 0 0 1
24.603862 20.829379 3.900901 32.471989 0.702511 1.450374 0.001540 0.005657 439647.000000 0 0 1
23.991862 21.948879 4.550301 32.833945 0.740957 1.431764 0.002024 0.016522 177669.000000 0 0 1
24.831862 23.227879 4.260101 34.268122 0.752036 1.446157 -0.002503 0.023881 693605.000000 0 0 1
26.023302 23.378479 5.039901 35.343544 0.731912 1.427711 -0.002322 0.012132 529386.000000 0 0 1
26.728122 24.541279 4.659501 36.583846 0.742770 1.443084 0.003725 0.015760 -139665.000000 0 0 1
28.152542 24.665179 5.268201 37.798024 0.719467 1.430963 -0.003122 0.012807 -93185.300000 0 0 1
29.037112 23.591579 5.053701 37.752567 0.682294 1.436530 -0.012351 0.010067 188620.000000 0 0 1
29.500492 23.260379 3.744201 37.753719 0.667673 1.471459 -0.007214 0.000701 -775512.000000 0 0 1
30.568232 24.209579 3.208001 39.125590 0.669835 1.488712 0.019240 -0.007869 -1070360.000000 0 0 1
30.094202 25.550579 3.048401 39.595275 0.703925 1.493731 0.008303 -0.006473 -365398.000000 0 0 1
31.089502 26.491479 2.737201 40.937121 0.705714 1.503883 0.028087 -0.005504 -410053.000000 0 0 1
30.500042 27.963379 2.935401 41.482764 0.742036 1.499975 0.024001 -0.001355 708021.000000 0 0 1
29.369692 28.410679 2.225901 40.923100 0.768802 1.516377 0.020013 -0.005643 645010.000000 0 0 1
28.119282 27.786179 2.564201 39.614907 0.779440 1.506023 0.003608 0.004340 1020020.000000 0 0 1
26.825462 28.422579 1.931401 39.130279 0.814298 1.521418 -0.009580 0.018912 676222.000000 0 0 1
26.431812 29.648979 2.528001 39.800671 0.842702 1.507237 -0.011923 0.023451 777783.000000 0 0 1
25.183162 30.194479 2.065801 39.372144 0.875646 1.518304 -0.013213 0.019640 691925.000000 0 0 1
24.902862 31.646379 2.571001 40.351653 0.904088 1.507038 0.001149 0.005087 73819.100000 0 0 1
24.610562 31.848779 3.946601 40.442553 0.912905 1.473055 -0.002158 -0.002111 5972.690000 0 0 1
25.803762 31.861479 4.671201 41.265095 0.890064 1.457353 0.000356 -0.002919 -347395.000000 0 0 1
25.596162 32.096379 6.208801 41.519757 0.897595 1.420695 0.009347 -0.016687 -30538.400000 0 0 1
24.907462 31.068879 6.898301 40.413407 0.895029 1.399263 0.004912 -0.013289 342032.000000 0 0 1
25.818962 30.045879 7.207201 40.265585 0.860918 1.390835 0.012021 -0.008311 392796.000000 0 0 1
25.014662 28.856779 7.803601 38.978753 0.856598 1.369233 0.024397 -0.004207 408791.000000 0 0 1
24.016262 28.357779 6.922501 37.800337 0.868104 1.386624 0.010952 -0.013007 210334.000000 0 0 1
23.703962 27.007279 7.195501 36.647594 0.850446 1.373169 0.017893 0.006703 166977.000000 0 0 1
22.655962 26.470379 6.144201 35.379723 0.862888 1.396247 0.038741 0.012051 89590.900000 0 0 1
23.077862 26.218979 4.854101 35.264498 0.849031 1.432710 0.016089 0.004683 24597.500000 0 0 1
23.197062 27.403579 4.074801 36.133970 0.868339 1.457787 0.012337 0.013964 -123630.000000 0 0 1
23.125062 27.226279 2.543801 35.812144 0.866671 1.499705 0.016699 0.015487 -310092.000000 0 0 1
24.133562 26.424579 1.965901 35.840646 0.830682 1.515918 -0.003066 0.025130 -37228.400000 0 0 1
23.860262 26.051579 0.645201 35.332890 0.829274 1.552535 0.010681 0.018838 -468905.000000 0 0 1
24.996962 25.368079 -0.109399 35.614597 0.792767 1.573868 0.015880 0.008864 -782268.000000 0 0 1
26.156382 26.161279 -0.320899 36.995565 0.785492 1.579470 0.008434 0.011920 464485.000000 0 0 1
27.184232 25.504779 -1.052299 37.290529 0.753534 1.599019 0.006783 0.003999 109998.000000 0 0 1
28.125012 24.644279 -0.243299 37.395400 0.719532 1.577302 0.011926 0.002675 -848531.000000 0 0 1
27.470832 23.393879 -0.110999 36.082302 0.705416 1.573873 0.017969 -0.005578 216096.000000 0 0 1
28.184052 22.467379 0.631001 36.048884 0.673011 1.553291 0.018404 -0.006812 67935.300000 0 0 1
27.164312 21.392079 1.151601 34.595477 0.667077 1.537503 0.009747 -0.002754 543038.000000 0 0 1
26.678042 20.535979 0.112401 33.666853 0.656035 1.567458 0.022826 -0.015979 -86815.300000 0 0 1
25.376862 20.185379 0.481201 32.429403 0.671945 1.555957 0.015480 -0.004565 -749680.000000 0 0 1
24.768762 18.991879 -0.307399 31.213419 0.654146 1.580645 0.022890 -0.019570 -770777.000000 0 0 1
23.559462 18.538979 0.212501 29.979779 0.666703 1.563708 0.032004 -0.015068 -304715.000000 0 0 1
23.120562 17.383879 -0.420899 28.929860 0.644703 1.585346 0.045423 -0.033303 582885.000000 0 0 1
21.629362 17.013179 -0.126299 27.518966 0.666503 1.575386 0.050538 -0.020841 -452347.000000 0 0 1
21.114462 15.843379 -0.777199 26.409036 0.643729 1.600230 0.048096 -0.025246 1646460.000000 0 0 1
19.699962 15.625179 -0.495799 25.149166 0.670555 1.590512 0.055816 -0.020857 1585240.000000 0 0 1
18.699462 16.638379 -1.091499 25.053880 0.727139 1.614376 0.058552 -0.023598 -938915.000000 0 0 1
18.630662 17.914679 -0.432999 25.850044 0.765809 1.587548 0.043510 -0.020891 -764498.000000 0 0 1
17.625162 18.650079 -0.975799 25.679251 0.813645 1.608805 0.031229 -0.022702 -661671.000000 0 0 1
17.826862 20.068379 -0.530099 26.848051 0.844480 1.590542 0.039752 -0.016452 -304437.000000 0 0 1
17.328462 20.274779 0.785801 26.682574 0.863591 1.541342 0.048864 -0.017928 86058.300000 0 0 1
17.395962 21.553779 1.264801 27.726965 0.891744 1.525164 0.060807 -0.015904 -39784.700000 0 0 1
16.218662 22.469079 0.888401 27.725327 0.945575 1.538748 0.056018 -0.021777 624526.000000 0 0 1
14.931062 22.195979 1.479101 26.791525 0.978634 1.515560 0.045704 -0.023765 688175.000000 0 0 1
14.071262 23.235079 1.021301 27.182942 1.026266 1.533216 0.039021 -0.023606 130363.000000 0 0 1
12.597062 22.978679 1.428001 26.243949 1.069331 1.516357 0.038613 -0.030252 121494.000000 0 0 1
12.335962 23.329379 2.731001 26.531005 1.084396 1.467677 0.044012 -0.017089 -125074.000000 0 0 1
11.009262 23.079379 3.131401 25.761740 1.125703 1.448943 0.031463 -0.023450 -79687.500000 0 0 1
10.867362 23.455779 4.645101 26.264997 1.136927 1.393006 0.023880 -0.016421 -84500.300000 0 0 1
11.567462 22.635879 5.560601 26.021327 1.098369 1.355442 0.028687 -0.036669 27787.700000 0 0 1
10.980562 22.731279 6.854101 26.158411 1.120793 1.305679 0.014730 -0.021843 -1036530.000000 0 0 1
11.589362 21.765879 7.959001 25.911628 1.081523 1.258590 0.025080 -0.016585 1067950.000000 0 0 1
12.900262 22.108479 8.441601 26.952963 1.042599 1.252238 0.036184 -0.010450 763730.000000 0 0 1
13.926162 22.087679 7.477301 27.160883 1.008256 1.291898 0.040362 -0.012039 548039.000000 0 0 1
15.407162 21.816779 8.045401 27.894102 0.955917 1.278213 0.043653 -0.010722 1388660.000000 0 0 1
15.467062 20.576379 8.720601 27.178415 0.926214 1.244154 0.044568 -0.011498 246480.000000 0 0 1
16.680762 20.423079 9.440101 28.008311 0.885919 1.227018 0.046998 -0.012583 145398.000000 0 0 1
16.965662 21.290579 10.653201 29.233767 0.897971 1.197793 0.034250 -0.002926 -391243.000000 0 0 1
16.086662 21.097979 11.747001 29.015469 0.919359 1.153978 0.035899 -0.011465 -25607.200000 0 0 1
16.343662 21.970979 12.853101 30.249651 0.931227 1.131944 0.020743 0.003340 1068070.000000 0 0 1
17.530862 21.525379 13.841701 31.020408 0.887320 1.108267 0.024891 0.012770 2327380.000000 0 0 1
18.892362 21.847179 13.474201 31.871220 0.857801 1.134296 0.030834 0.005856 797757.000000 0 0 1
19.773362 21.237879 14.411001 32.399233 0.821093 1.109852 0.023525 0.007811 333722.000000 0 0 1
21.243062 21.667579 14.196201 33.500504 0.795291 1.133203 0.033513 0.004131 319043.000000 0 0 1
21.891162 21.154879 13.020301 33.110121 0.768295 1.166641 0.045044 0.015097 139601.000000 0 0 1
23.227562 21.619879 12.953901 34.274514 0.749566 1.183220 0.026011 0.016687 -96015.000000 0 0 1
23.899462 21.133979 11.705401 33.983021 0.724066 1.219145 0.026053 0.024669 -287710.000000 0 0 1
23.424062 21.743379 10.539501 33.653265 0.748205 1.252258 0.025700 0.022558 139352.000000 0 0 1
24.233662 21.360579 9.474701 33.664739 0.722467 1.285499 0.023049 0.017015 -482597.000000 0 0 1
24.038562 22.393979 8.306501 33.887176 0.749994 1.323151 0.008626 0.018316 114589.000000 0 0 1
24.493862 23.739879 8.599201 35.177797 0.769768 1.323844 0.008893 0.021112 -243072.000000 0 0 1
25.882162 23.848479 8.542201 36.216094 0.744527 1.332685 0.000631 0.019807 -1019330.000000 0 0 1
26.311232 25.088479 9.316901 37.530219 0.761614 1.319922 0.009844 0.020564 322338.000000 0 0 1
27.667272 25.456379 9.026401 38.664985 0.743804 1.335171 0.004435 0.018682 900728.000000 0 0 1
28.013432 26.509079 9.942301 39.828796 0.757814 1.318502 0.010334 0.012060 334087.000000 0 0 1
29.261832 27.351779 9.559001 41.179474 0.751673 1.336529 0.016116 0.009005 207248.000000 0 0 1
29.074082 28.233679 8.437901 41.396147 0.770734 1.365525 0.016527 0.001515 64657.600000 0 0 1
30.291562 28.510779 7.784701 42.320737 0.755123 1.385798 0.019107 0.002838 -256899.000000 0 0 1
30.170852 29.425579 6.519801 42.645666 0.772893 1.417311 0.026432 -0.001052 31576.200000 0 0 1
30.154232 30.768979 6.852001 43.622903 0.795488 1.413070 0.027608 -0.001711 104056.000000 0 0 1
29.727362 31.499779 5.739201 43.690852 0.814338 1.439056 0.035746 0.000246 -81380.800000 0 0 1
29.638492 33.023279 5.976901 44.773882 0.839362 1.436906 0.019108 -0.002874 434643.000000 0 0 1
28.533752 33.380479 6.817201 44.439910 0.863520 1.416786 0.014519 -0.010635 352077.000000 0 0 1
28.468962 -34.182643 6.825201 45.005758 -0.876344 1.418557 0.012704 -0.013229 -130197.000000 0 0 1
27.108892 -33.576443 7.210401 43.752251 -0.891573 1.405240 0.032194 -0.020758 -234230.000000 0 0 1
26.101002 -33.728143 6.247901 43.103204 -0.912196 1.425332 0.029701 -0.018563 -536022.000000 0 0 1
24.946962 -33.069443 6.726901 41.966536 -0.924497 1.409810 0.015925 -0.020118 -405709.000000 0 0 1
23.780362 -33.180243 5.757401 41.225985 -0.948948 1.430684 0.011857 -0.009705 -664592.000000 0 0 1
24.061262 -32.525243 4.556601 40.713614 -0.933873 1.458643 0.009780 0.010705 219596.000000 0 0 1
23.091062 -32.759943 3.536401 40.235769 -0.956818 1.482791 0.004596 0.004440 -87103.100000 0 0 1
23.609362 -32.277443 2.158101 40.048629 -0.939273 1.516883 0.017545 0.016906 -127192.000000 0 0 1
23.664062 -30.836943 2.095701 38.926814 -0.916256 1.516933 0.028136 0.011171 41719.200000 0 0 1
24.191662 -30.369143 0.858101 38.836294 -0.898140 1.548699 0.025175 0.004179 -301399.000000 0 0 1
24.630162 -28.939343 0.986401 38.014516 -0.865666 1.544845 0.034822 -0.004534 120228.000000 0 0 1
23.620362 -27.911543 0.954601 36.577138 -0.868479 1.544695 0.041577 -0.000016 286358.000000 0 0 1
23.187462 -27.673243 -0.384199 36.105600 -0.873368 1.581438 0.053910 -0.011208 162713.000000 0 0 1
22.043462 -26.596543 -0.464199 34.547153 -0.878734 1.584233 0.048514 -0.006565 418429.000000 0 0 1
22.439362 -25.237043 -0.193299 33.770855 -0.844012 1.576520 0.040142 -0.006522 -158536.000000 0 0 1
22.529062 -24.772643 1.169501 33.505376 -0.832794 1.535884 0.034195 0.001516 -421657.000000 0 0 1
21.255362 -24.751743 2.002001 32.687111 -0.861249 1.509511 0.025053 -0.000261 -548556.000000 0 0 1
21.315362 -23.922543 3.181601 32.198685 -0.842967 1.471823 0.025420 -0.002058 -522936.000000 0 0 1
20.082262 -23.710043 3.821401 31.306014 -0.868050 1.448425 0.009244 0.001576 -103092.000000 0 0 1
20.226362 -22.906143 5.144601 30.988127 -0.847447 1.404006 0.003873 -0.001146 -32814.000000 0 0 1
20.547762 -21.532743 5.028701 30.185384 -0.808801 1.403422 0.025349 0.004449 -505979.000000 0 0 1
19.554362 -20.708243 4.517601 28.837703 -0.814049 1.413492 0.021339 -0.002636 -933726.000000 0 0 1
19.490662 -19.249643 5.032501 27.852482 -0.779177 1.389114 0.028024 -0.007926 -130465.000000 0 0 1
18.905562 -19.133943 6.309901 27.628661 -0.791402 1.340380 0.041614 -0.010239 -26737.400000 0 0 1
17.523962 -18.850943 6.206401 26.475776 -0.821863 1.334176 0.027853 -0.015043 -14360.000000 0 0 1
18.049811 -26.392801 -11.972399 34.142554 -0.970963 1.929071 0.042087 -0.004784 -152060.000000 0 0 1
18.228111 -25.109811 -12.461499 33.437339 -0.942875 1.952694 0.061051 -0.008775 309615.000000 0 0 1
16.976011 -24.465621 -12.748099 32.392370 -0.964195 1.975289 0.029851 -0.011440 314802.000000 0 0 1
16.969611 -22.977321 -13.169599 31.454146 -0.934672 2.002801 0.027959 -0.020302 -311782.000000 0 0 1
17.194211 -21.973821 -12.173599 30.441521 -0.906826 1.982205 0.029668 -0.024391 180119.000000 0 0 1
18.431111 -21.908421 -11.462299 30.839408 -0.871387 1.951611 0.042954 -0.028369 -257445.000000 0 0 1
18.407911 -22.489021 -10.025999 30.742933 -0.884859 1.902997 0.047882 -0.013813 175517.000000 0 0 1
17.477611 -21.839221 -9.165699 29.435158 -0.895881 1.887448 0.040859 -0.019728 438410.000000 0 0 1
16.127311 -22.265021 -9.316199 29.027795 -0.943925 1.897519 0.041807 -0.000023 -192613.000000 0 0 1
15.268011 -21.666121 -8.195599 27.743482 -0.956926 1.870677 0.036539 -0.011977 -1098300.000000 0 0 1
15.204811 -20.300421 -8.340299 26.699325 -0.927942 1.888492 0.021156 -0.023317 91889.200000 0 0 1
14.224411 -19.569521 -7.627399 25.366853 -0.942266 1.876206 0.014252 -0.026701 1028810.000000 0 0 1
12.735911 -19.779521 -8.117299 24.886210 -0.998726 1.903052 0.006984 -0.009785 487006.000000 0 1 0
12.253611 -21.033121 -7.792799 25.559164 -1.043279 1.880622 0.010886 -0.010819 -629763.000000 0 0 1
11.044711 -21.325221 -8.448299 25.458289 -1.092917 1.909059 -0.001136 -0.002208 -182220.000000 0 0 1
10.544211 -22.767421 -8.160999 26.384423 -1.137080 1.885265 -0.005022 0.000668 -196661.000000 0 0 1
10.314711 -22.911721 -6.769599 26.022446 -1.147781 1.833968 0.003307 -0.007033 109072.000000 0 0 1
9.907411 -24.215921 -6.409799 26.937950 -1.182446 1.811048 0.000615 -0.001274 -85.696000 0 0 1
10.356711 -24.596621 -5.008499 27.154011 -1.172266 1.756306 0.013682 -0.008981 43353.200000 0 0 1
9.635111 -25.654561 -4.401799 27.755499 -1.211525 1.730061 0.026261 -0.008069 115985.000000 0 0 1
10.293011 -25.978351 -3.154699 28.120685 -1.193557 1.683217 0.019918 -0.010433 -127474.000000 0 0 1
9.493211 -26.967661 -2.273999 28.680078 -1.232321 1.650168 0.039486 -0.010704 579767.000000 0 0 1
8.465711 -26.326091 -1.492699 27.694033 -1.259669 1.624722 0.024917 -0.006956 21140.700000 0 0 1
7.812711 -27.218281 -0.682299 28.325586 -1.291272 1.594886 0.033170 -0.012265 111636.000000 0 0 1
6.892611 -26.629631 0.424601 27.510464 -1.317522 1.555362 0.030350 -0.011114 812274.000000 0 0 1
5.529011 -26.327171 0.112701 26.901721 -1.363793 1.566607 0.038094 -0.016439 193064.000000 0 0 1
5.020511 -25.743341 1.290901 26.260076 -1.378192 1.521618 0.043381 -0.009933 -586890.000000 0 0 1
3.570111 -25.344021 1.056101 25.616019 -1.430851 1.529556 0.024080 -0.011979 -94498.000000 0 0 1
2.641511 -26.377091 0.688501 26.517967 -1.470985 1.544830 0.015275 -0.011262 -546741.000000 0 0 1
1.403611 -25.794351 0.470901 25.836804 -1.516434 1.552569 0.008663 -0.005796 -710458.000000 0 0 1
0.367211 -26.731051 -0.156499 26.734031 -1.557060 1.576650 0.005367 -0.007708 -15723.800000 0 0 1
-0.143789 -27.705441 0.727001 27.715351 1.565606 1.544562 0.006863 0.000214 42911.900000 0 0 1
0.627711 -28.909401 0.573201 28.921896 -1.549087 1.550976 -0.000490 -0.006911 33887.500000 0 0 1
0.250511 -30.056491 1.523701 30.096131 -1.562462 1.520147 0.007165 -0.003540 76300.500000 0 0 1
0.733311 -29.939791 2.828901 30.082080 -1.546308 1.476618 -0.006430 0.000014 -181440.000000 0 0 1
0.076611 -30.859421 3.624101 31.071592 -1.568314 1.453893 0.000599 0.001362 -251141.000000 0 0 1
0.304811 -30.621761 5.100101 31.045067 -1.560843 1.405768 -0.005756 0.006998 -602885.000000 0 0 1
1.578411 -31.003601 5.533101 31.532997 -1.519930 1.394413 -0.005687 0.018051 -519059.000000 0 0 1
1.748511 -30.904841 6.948301 31.724523 -1.514279 1.349986 -0.001576 0.016735 104281.000000 0 0 1
3.070311 -31.411801 7.554601 32.453044 -1.473362 1.335855 0.005872 0.015217 202048.000000 0 0 1
3.244511 -32.813961 7.330701 33.779018 -1.472241 1.352036 -0.003406 0.012776 243147.000000 0 0 1
4.535811 -33.330431 7.676001 34.502351 -1.435541 1.346441 -0.004201 0.010582 665607.000000 0 0 1
4.757411 34.134881 7.510601 35.273675 1.432317 1.356230 -0.001752 0.011871 -178187.000000 0 0 1
4.741711 33.788476 6.121801 34.664411 1.431372 1.393263 -0.002234 0.008116 -30140.500000 0 0 1
4.791111 32.375131 5.976301 33.268905 1.423875 1.390180 -0.006149 0.003147 -374916.000000 0 0 1
5.029911 31.831831 4.562201 32.548105 1.414077 1.430165 0.001079 0.000049 -1582.160000 0 0 1
6.375211 32.033291 4.178601 32.927735 1.374345 1.443551 0.010840 0.000076 -421922.000000 0 0 1
7.053211 30.845001 4.164101 31.913972 1.345995 1.439944 0.008655 0.000892 -175591.000000 0 0 1
8.451611 30.921201 3.489401 32.244787 1.303986 1.462368 0.007699 0.000588 960713.000000 0 0 1
9.510611 31.499501 4.295101 33.183101 1.277571 1.440996 0.007835 0.001593 199936.000000 0 0 1
10.686711 31.664041 3.529001 33.604630 1.245298 1.465587 0.018609 -0.008228 -296303.000000 0 0 1
11.805411 32.013911 4.507001 34.417601 1.217509 1.439469 0.028076 -0.016409 -271672.000000 0 0 1
12.297511 30.981541 5.384301 33.765002 1.192939 1.410649 0.031376 -0.011165 -387022.000000 0 0 1
13.393711 31.381821 6.131001 34.666978 1.167403 1.393007 0.039665 -0.011074 -230219.000000 0 0 1
14.107111 30.278541 6.950101 34.118976 1.134790 1.365659 0.040875 -0.015376 -411106.000000 0 0 1
13.531711 29.948431 8.180001 33.866327 1.146419 1.326846 0.025437 -0.001943 108853.000000 0 0 1
14.346711 29.061721 8.959201 33.625571 1.112231 1.301099 0.027511 -0.002269 270665.000000 0 0 1
14.096611 29.116731 10.473301 34.002772 1.119916 1.257692 0.013737 0.007250 128617.000000 0 0 1
14.645311 30.279211 11.113601 35.423550 1.120293 1.251672 0.006719 0.005905 112999.000000 0 0 1
14.104011 30.345361 12.398201 35.685844 1.135717 1.215971 0.003784 0.005377 -336037.000000 0 0 1
14.775511 31.364561 13.284801 37.128659 1.130544 1.204881 -0.003333 0.002279 -246514.000000 0 0 1
15.923211 30.888091 13.943701 37.443953 1.094816 1.189215 -0.014859 0.006047 15005.100000 0 0 1
16.536711 31.991311 14.646201 38.876960 1.093710 1.184530 -0.008180 0.010645 -176827.000000 0 0 1
17.521811 31.498731 15.714301 39.320773 1.063152 1.159668 -0.013398 0.005818 -672524.000000 0 0 1
18.785411 31.121541 15.248401 39.420245 1.027723 1.173619 0.002268 0.004943 -193968.000000 0 0 1
18.987311 29.686441 15.205201 38.379694 1.001770 1.163446 -0.006082 -0.000312 -476787.000000 0 0 1
20.380311 29.195341 14.816501 38.564928 0.961369 1.176459 0.009878 -0.008901 10008.000000 0 0 1
21.402211 29.301611 15.815501 39.582434 0.939951 1.159761 0.008343 -0.004371 745032.000000 0 0 1
22.669411 29.195521 15.134901 39.941781 0.910569 1.182163 0.023095 -0.011671 684365.000000 0 0 1
23.841411 29.195131 16.151901 41.007956 0.886001 1.165956 0.044817 -0.018216 -176589.000000 0 0 1
23.940411 28.035351 16.969001 40.584125 0.864021 1.139422 0.031067 -0.013310 -475243.000000 0 0 1
24.710811 28.130641 18.096501 41.586542 0.850027 1.120588 0.027855 -0.009703 -514701.000000 0 0 1
25.871311 27.125171 18.241501 41.687552 0.809053 1.117894 0.018098 0.002358 138090.000000 0 0 1
25.389011 25.880661 18.731801 40.807975 0.794987 1.093901 0.019264 0.011434 275837.000000 0 0 1
24.957611 25.736031 20.085601 41.093272 0.800752 1.060105 0.022914 0.011948 -86100.000000 0 0 1
24.500211 24.205401 20.302101 39.979208 0.779345 1.038148 0.028138 0.011398 842085.000000 0 0 1
25.570311 23.209801 20.340101 40.078116 0.737045 1.038502 0.029811 0.007890 515769.000000 0 0 1
25.070611 21.948301 20.629401 39.189739 0.719090 1.016438 0.028277 0.002827 -795719.000000 0 0 1
26.035311 20.824501 20.573001 39.175830 0.674653 1.017911 0.016275 -0.000647 -523287.000000 0 0 1
25.347511 19.576101 20.653401 38.108831 0.657626 0.998031 0.011526 0.005044 586350.000000 0 0 1
26.284911 18.530001 20.877401 38.342188 0.614052 0.995001 0.018403 0.002161 305826.000000 0 0 1
26.833811 18.449401 22.322101 39.480501 0.602317 0.969884 0.030719 0.002279 89830.800000 0 0 1
25.893911 17.829001 23.186601 39.063875 0.602993 0.935326 0.021421 0.005147 667500.000000 0 0 1
26.417311 17.658901 24.479101 40.111563 0.589243 0.914388 0.037280 0.001809 -424666.000000 0 0 1
25.319611 16.950701 25.226501 39.557367 0.589940 0.879262 0.023273 0.004981 -294403.000000 0 0 1
25.129911 15.599401 24.743101 38.562609 0.555538 0.874169 0.024774 0.001463 581969.000000 0 0 1
23.941211 15.105601 25.352201 38.001248 0.562863 0.840432 0.023455 0.001139 220320.000000 0 0 1
23.350011 13.796201 24.757601 36.721887 0.533660 0.830926 0.022880 -0.005219 369307.000000 0 0 1
22.092111 13.433301 25.311101 36.182410 0.546324 0.796041 0.023422 -0.004880 629627.000000 0 0 1
21.457011 12.391201 24.557801 34.885968 0.523703 0.789860 0.022341 -0.005521 229684.000000 0 0 1
20.089411 11.811801 24.983301 34.165310 0.531521 0.750647 0.026381 -0.002491 306780.000000 0 0 1
19.027911 12.747901 24.850101 33.794939 0.590278 0.744657 0.027991 -0.001111 1011020.000000 0 0 1
17.769711 12.092101 25.135301 33.072116 0.597511 0.707460 0.024958 0.002829 465879.000000 0 0 1
16.556911 12.959901 25.375201 32.954380 0.664133 0.691940 0.028963 0.000151 -534273.000000 0 0 1
16.566811 13.530901 26.665301 34.184540 0.684870 0.676067 0.030421 0.005363 -152131.000000 0 0 1
15.476611 14.387801 26.818101 34.143006 0.748956 0.667351 0.034459 0.007677 -395250.000000 0 0 1
15.262511 14.785601 28.290201 35.382110 0.769528 0.644230 0.024680 0.014250 -85649.000000 0 0 1
14.696111 13.700001 29.076601 35.342813 0.750333 0.604649 0.021296 0.020210 100903.000000 0 0 1
14.870811 13.921201 30.474401 36.655558 0.752428 0.589224 0.014821 0.031262 -131315.000000 0 0 1
16.288911 13.735601 31.051101 37.658548 0.700561 0.601402 0.026724 0.017666 -36936.200000 0 0 1
17.219111 14.629501 30.472201 37.935143 0.704267 0.638029 0.038062 0.007322 -188840.000000 0 0 1
18.505411 14.041201 30.396601 38.256488 0.649085 0.652534 0.040466 0.017915 5715.790000 0 0 1
19.614011 15.054201 29.984101 38.863668 0.654622 0.689569 0.038596 0.010397 -193104.000000 0 0 1
19.550911 15.682001 28.683401 38.090691 0.676027 0.718143 0.030905 0.008046 -120881.000000 0 0 1
19.630011 14.799101 27.592101 36.955037 0.645994 0.727800 0.039472 0.002583 -562561.000000 0 0 1
19.549611 15.513701 26.215601 36.195579 0.670799 0.760812 0.022777 0.000494 -205633.000000 0 0 1
20.604611 16.381101 25.876101 36.911557 0.671698 0.793956 0.024114 0.016578 -51006.000000 0 0 1
20.281011 16.881601 24.642401 36.104789 0.694178 0.819585 0.011113 0.008326 -68235.900000 0 0 1
21.490711 17.650801 24.034601 36.756815 0.687608 0.858093 0.014229 0.017292 15212.700000 0 0 1
21.205511 18.216401 22.738901 36.035657 0.709719 0.887940 0.008997 0.004032 -61742.300000 0 0 1
22.286311 18.932501 22.181401 36.703321 0.704211 0.921855 0.017465 0.004543 -42804.600000 0 0 1
22.719511 20.220201 22.914501 38.080271 0.727259 0.925116 0.024658 0.001759 -706961.000000 0 0 1
21.787311 21.231201 22.805401 38.020220 0.772472 0.927517 0.016798 0.005318 -14188.200000 0 0 1
22.294611 22.395101 23.465001 39.359833 0.787647 0.932079 0.026857 0.009024 232368.000000 0 0 1
21.379811 23.596701 23.161101 39.374322 0.834648 0.941930 0.013541 0.003993 170744.000000 0 0 1
21.622211 24.136121 21.869801 39.094252 0.840282 0.977120 0.023200 0.008222 366393.000000 0 0 1
20.754911 25.271281 21.674401 39.232431 0.883211 0.985482 0.022435 0.001853 38228.900000 0 0 1
21.072311 26.300801 20.500301 39.446632 0.895322 1.024300 0.020442 -0.001545 -356250.000000 0 0 1
20.816311 25.817031 19.182801 38.312110 0.892225 1.046391 0.009102 0.002397 131456.000000 0 0 1
21.289811 26.651801 18.148801 38.638757 0.896779 1.081840 0.015747 -0.008513 -385676.000000 0 0 1
21.254511 26.056791 16.710001 37.549097 0.886556 1.109603 0.012479 0.002847 -259976.000000 0 0 1
19.952411 25.791801 16.252001 36.434094 0.912365 1.108432 0.017131 0.007083 -265401.000000 0 0 1
19.980711 25.510271 14.856901 35.647303 0.906358 1.140902 0.025987 0.009977 -550307.000000 0 0 1
18.528211 25.407111 14.421601 34.594775 0.940706 1.140795 0.011662 0.007777 -1297280.000000 0 0 1
17.979011 26.721231 14.360901 35.263359 0.978535 1.151358 0.004569 0.011039 156614.000000 0 0 1
16.752011 26.890421 15.064801 35.080947 1.013656 1.126935 0.009691 0.021797 385867.000000 0 0 1
15.490611 26.226681 14.425701 33.703096 1.037285 1.128492 -0.002506 0.006549 -874529.000000 0 0 1
15.296711 24.840521 14.557001 32.602870 1.018842 1.107953 -0.010909 0.013808 -92548.100000 0 0 1
15.106611 24.236501 15.834501 32.655001 1.013420 1.064544 -0.006922 0.019825 9228.580000 0 0 1
14.050911 24.872191 16.779001 33.129879 1.056567 1.039720 0.017981 0.007712 -56942.900000 0 0 1
14.502511 26.098121 17.331801 34.522834 1.063594 1.044842 0.001725 0.005386 -538049.000000 0 0 1
13.489911 26.714331 18.040701 34.944242 1.103181 1.028305 -0.000768 -0.002963 -605196.000000 0 0 1
13.855411 28.027911 18.765501 36.464781 1.111684 1.030232 0.012279 -0.008237 -452173.000000 0 0 1
13.958211 29.095681 17.923401 36.913935 1.123492 1.063809 0.005154 -0.012475 158769.000000 0 0 1
14.621011 30.229211 18.507201 38.341826 1.120297 1.067073 -0.004343 -0.011110 -439701.000000 0 0 1
14.494611 31.566461 17.731201 38.999111 1.140337 1.098810 -0.007145 -0.012201 -768281.000000 0 0 1
13.216111 32.129821 17.777401 39.025978 1.180557 1.097832 -0.001133 -0.009300 -402233.000000 0 0 1
13.135711 33.306995 17.048401 39.655400 1.195142 1.126399 -0.004342 -0.006000 37708.400000 0 0 1
11.780411 33.986516 17.384601 39.951042 1.237136 1.120594 0.008311 -0.014414 -78641.500000 0 0 1
11.558411 -33.797401 16.710901 39.434951 -1.241274 1.133205 0.006458 -0.006295 -348107.000000 0 0 1
12.242111 -32.648251 17.171301 38.866839 -1.212052 1.113194 0.004676 -0.008712 -378006.000000 0 0 1
12.195611 -32.152731 18.624301 39.107488 -1.208259 1.074430 0.011864 -0.018977 -266031.000000 0 0 1
13.014611 -32.949901 19.459201 40.419507 -1.194623 1.068510 0.025871 -0.016983 122441.000000 0 0 1
12.716911 -32.867801 20.783901 40.914334 -1.201624 1.037952 0.026509 -0.019836 60608.000000 0 0 1
13.929511 -33.322001 21.641301 42.103835 -1.174846 1.030957 0.038627 -0.016710 1023240.000000 0 0 1
15.081511 -32.449161 21.655901 41.825567 -1.135725 1.026557 0.041547 -0.010522 546845.000000 0 0 1
16.149611 -33.076071 22.376101 43.075820 -1.116587 1.024579 0.045105 -0.005772 90786.700000 0 0 1
17.359811 -32.156241 22.292201 42.805713 -1.075773 1.023036 0.052669 -0.012138 -359200.000000 0 0 1
17.019111 -30.871681 22.795601 41.980356 -1.066967 0.996783 0.072453 -0.015890 472981.000000 0 0 1
18.143411 -30.021281 22.599601 41.727720 -1.027183 0.998461 0.060708 -0.009457 148601.000000 0 0 1
-4.556689 13.286979 18.599535 23.307722 -1.240421 0.646829 0.012024 0.007691 -368628.000000 0 1 0
-4.363189 14.422079 17.768635 23.297171 -1.277015 0.703327 0.007774 -0.001225 -175013.000000 0 1 0
-5.629689 14.993779 17.533935 23.747540 -1.211615 0.740180 0.004475 -0.001871 -26861.600000 0 1 0
-5.578489 16.493779 17.305135 24.548563 -1.244656 0.788465 0.012437 -0.006330 -63015.700000 0 1 0
-5.266189 17.142279 18.532135 25.788185 -1.272743 0.768968 0.021125 0.000317 211888.000000 0 0 1
-4.845889 18.482579 18.314335 26.467021 -1.314381 0.806585 0.028678 0.007475 -408311.000000 0 0 1
-4.116189 19.144079 19.465535 27.610610 -1.359010 0.788370 0.018986 0.005288 -302795.000000 0 0 1
-4.932889 19.311979 20.602735 28.666332 -1.320712 0.768853 0.007400 0.002739 131132.000000 0 0 1
-4.151089 19.892279 21.649035 29.692002 -1.365070 0.753761 -0.000287 0.001372 204937.000000 0 0 1
-5.016289 20.193379 22.894235 30.936737 -1.327312 0.737676 0.002393 0.004130 102756.000000 0 0 1
-5.364389 19.069679 23.671135 30.866680 -1.296578 0.696826 0.005385 -0.001487 -344555.000000 0 0 1
-6.147089 19.274079 24.824775 32.024151 -1.262064 0.683782 0.004440 -0.000308 -149284.000000 0 0 1
-5.600889 19.966979 26.118575 33.350115 -1.297317 0.671060 -0.000222 -0.001511 -1026540.000000 0 0 1
-5.267389 21.365579 25.950575 34.024486 -1.329080 0.703314 0.004859 -0.007607 129012.000000 0 0 1
-4.309689 21.823079 26.888625 34.897254 -1.375822 0.691158 0.000733 -0.000010 780748.000000 0 0 1
-2.843089 21.445579 26.486355 34.198289 -1.438993 0.684882 0.008628 0.005367 -122134.000000 0 0 1
-2.502389 20.077379 26.709145 33.507335 -1.446799 0.648297 0.011821 0.012938 -960915.000000 0 0 1
-1.186089 19.874779 26.344695 33.022062 -1.511189 0.647174 0.015231 0.020012 -667426.000000 0 0 1
-0.368189 18.780279 27.020935 32.908439 -1.551194 0.607471 0.008764 0.023330 -503124.000000 0 0 1
-0.886189 17.529079 26.765485 32.006954 -1.520284 0.580407 0.006121 0.021958 -309129.000000 0 0 1
-0.044389 16.444879 27.115915 31.712913 -1.568097 0.545162 0.007422 0.021313 25743.500000 0 0 1
1.249411 16.206179 26.307155 30.923578 1.493854 0.553452 0.005605 0.024081 -388047.000000 0 0 1
1.069211 16.010679 24.944685 29.660114 1.504114 0.571634 0.001712 0.014319 -287931.000000 0 0 1
1.078411 14.616779 24.606125 28.640436 1.497151 0.537211 0.009000 0.010567 23323.100000 0 0 1
1.024711 14.323279 23.085235 27.187027 1.499376 0.556466 0.010462 -0.000214 368753.000000 0 0 1
2.260611 14.650179 22.461335 26.911887 1.417698 0.583345 0.012146 -0.006038 -89371.500000 0 0 1
2.420111 13.941579 21.260735 25.539056 1.398920 0.587229 0.009617 -0.007055 -1376300.000000 0 0 1
3.868811 13.911579 20.925135 25.423631 1.299550 0.604021 0.003064 -0.010074 -1190400.000000 0 0 1
4.314211 15.036979 20.212935 25.559458 1.291395 0.658648 0.004571 -0.006557 277927.000000 0 0 1
5.737411 15.009579 20.064835 25.706088 1.205685 0.675254 0.012744 -0.000631 902156.000000 0 0 1
6.492311 15.990179 19.108635 25.748317 1.185112 0.734552 0.026754 -0.009535 100289.000000 0 0 1
6.320611 15.648579 17.746535 24.490154 1.186924 0.760285 0.022989 -0.015417 41638.100000 0 1 0
6.761911 16.667479 16.850435 24.646814 1.185390 0.818008 0.023436 -0.007673 -14071.900000 0 1 0
6.715911 16.172579 15.398335 23.318758 1.177200 0.849523 0.018108 -0.001867 191281.000000 0 1 0
7.692811 15.210079 15.015435 22.715394 1.102543 0.848613 0.016801 -0.003921 204986.000000 0 1 0
7.618111 13.973179 15.634435 22.309659 1.071649 0.794289 0.015034 -0.005034 -81514.200000 0 1 0
8.699811 13.073179 15.006735 21.720884 0.983622 0.808077 0.019209 -0.005891 -105447.000000 0 1 0
10.030911 13.388979 15.304635 22.674121 0.927813 0.829855 0.018478 -0.006064 -236273.000000 0 1 0
10.879011 12.824879 14.294135 22.071536 0.867305 0.866330 0.016703 -0.006101 -148262.000000 0 1 0
12.273811 13.431179 14.289435 23.135059 0.830393 0.905042 0.014644 -0.003057 -975127.000000 0 1 0
13.142411 13.055879 15.360735 24.065143 0.782095 0.878511 0.010028 -0.007305 1029340.000000 0 1 0
14.367911 13.822279 15.345535 25.159048 0.766045 0.914810 0.019380 -0.008535 963478.000000 0 0 1
15.442711 13.297679 14.352035 24.925619 0.710902 0.957221 0.024482 -0.010321 1276620.000000 0 1 0
16.800511 13.789779 14.662335 26.218300 0.687293 0.977327 0.024081 -0.014679 2332080.000000 0 0 1
17.791411 13.394679 13.712235 26.152956 0.645338 1.018893 0.021886 -0.009628 786053.000000 0 0 1
19.233311 13.883479 14.038535 27.563594 0.625237 1.036408 0.019057 -0.010168 535829.000000 0 0 1
19.786311 13.375379 15.237035 28.329597 0.594431 1.002913 0.009998 -0.017401 -799907.000000 0 0 1
21.138511 13.689079 15.272235 29.452821 0.574679 1.025663 0.018040 -0.009589 -281317.000000 0 0 1
21.956511 13.271279 16.573135 30.543150 0.543674 0.997251 0.021974 -0.012876 294389.000000 0 0 1
22.194711 11.900979 16.634435 30.181831 0.492193 0.987066 0.033906 -0.012756 220104.000000 0 0 1
23.009611 11.607279 17.753835 31.294884 0.467204 0.967563 0.029151 -0.010176 -326780.000000 0 0 1
23.393611 10.085579 17.919335 31.146147 0.407047 0.957788 0.040518 -0.014841 50068.600000 0 0 1
22.359711 9.268079 18.456935 30.438666 0.392943 0.919315 0.017841 -0.024822 449369.000000 0 0 1
21.876511 8.275279 17.545035 29.238506 0.361636 0.927213 0.031675 -0.001008 -108755.000000 0 0 1
20.624311 7.532079 18.046435 28.421264 0.350155 0.882836 0.029788 -0.002324 -228738.000000 0 0 1
20.474011 6.207979 17.484035 27.629977 0.294402 0.885642 0.045002 -0.010635 1011830.000000 0 0 1
19.245711 5.614379 17.949935 26.909456 0.283844 0.840555 0.040679 -0.008076 432225.000000 0 0 1
19.076911 4.099979 17.603235 26.279502 0.211698 0.836794 0.039867 0.001341 -253236.000000 0 0 1
19.040711 3.855279 16.206835 25.299671 0.199775 0.875524 0.051951 -0.008332 225765.000000 0 0 1
19.219811 2.490079 15.773935 24.988370 0.128840 0.887631 0.043980 -0.019419 -374523.000000 0 1 0
18.188811 1.397179 16.118235 24.343016 0.076665 0.847139 0.050342 -0.019843 -461809.000000 0 1 0
18.242911 0.907779 17.450135 25.261335 0.049720 0.808223 0.040843 -0.024465 838423.000000 0 0 1
17.113911 0.059779 17.804735 24.696115 0.003493 0.765620 0.033450 -0.021256 -114393.000000 0 1 0
17.144911 -0.599021 19.176635 25.730335 -0.034925 0.729822 0.025780 -0.006957 -848434.000000 0 0 1
18.140411 -1.549021 19.336735 26.559053 -0.085184 0.755300 0.023675 -0.001919 -577233.000000 0 0 1
17.764411 -2.666621 20.147935 26.993044 -0.148998 0.728142 0.010881 -0.013158 -104844.000000 0 0 1
17.721211 -3.972721 19.381935 26.560934 -0.220533 0.752890 0.001471 -0.007566 -355170.000000 0 0 1
16.856111 -3.973021 18.291435 25.189084 -0.231477 0.758069 -0.007282 -0.002006 -109601.000000 0 0 1
17.124211 -5.056021 17.402535 24.932913 -0.287099 0.798231 0.015719 -0.015147 -275970.000000 0 1 0
16.845411 -4.838721 15.889935 23.657369 -0.279712 0.834336 0.017130 -0.025896 484404.000000 0 1 0
15.442811 -4.634621 15.632335 22.457293 -0.291562 0.800857 0.006287 -0.017127 1013560.000000 0 1 0
15.091711 -4.577121 14.221235 21.235661 -0.294470 0.837010 0.013489 -0.019832 283329.000000 0 1 0
15.670911 -3.440021 13.346935 20.869879 -0.216089 0.876908 0.019886 -0.015624 -112350.000000 0 1 0
15.061811 -2.229621 13.757935 20.520968 -0.146964 0.836004 0.024709 -0.006196 491544.000000 0 1 0
15.578711 -1.099521 13.068435 20.363918 -0.070462 0.874025 0.029968 -0.007206 323927.000000 0 1 0
14.592811 0.090879 13.219535 19.690467 0.006228 0.834744 0.026116 -0.001931 -50644.300000 0 1 0
15.107811 1.296279 12.675935 19.763745 0.085592 0.874510 0.033879 -0.002818 482297.000000 0 1 0
15.710411 2.164679 13.638335 20.916669 0.136924 0.860535 0.034989 -0.009271 -183646.000000 0 1 0
15.991711 3.649079 13.212735 21.062454 0.224345 0.892699 0.032838 -0.008341 147983.000000 0 1 0
14.804611 4.422679 13.266735 20.365236 0.290297 0.861315 0.020700 -0.007242 473497.000000 0 1 0
14.997611 5.635879 12.626335 20.398917 0.359459 0.903365 0.031232 -0.006472 -389297.000000 0 1 0
13.893611 6.640179 12.899135 20.087610 0.445837 0.873505 0.019900 -0.005034 -717176.000000 0 1 0
14.077411 7.774079 12.083535 20.115209 0.504560 0.926399 0.009026 -0.014174 518473.000000 0 1 0
13.207811 8.888279 12.350035 20.148725 0.592344 0.911015 -0.000019 -0.000972 -209649.000000 0 1 0
13.488911 9.679079 13.688135 21.517442 0.622413 0.881309 0.014999 -0.004830 -150674.000000 0 1 0
13.103711 9.030579 14.861835 21.774589 0.603415 0.819576 0.019008 -0.007159 514589.000000 0 1 0
13.606111 9.717479 16.009035 23.148323 0.620192 0.807115 0.030484 -0.013504 -268038.000000 0 1 0
13.023911 9.144679 17.312435 23.515268 0.612164 0.743327 0.026675 -0.018790 -386065.000000 0 1 0
11.870011 9.722879 17.823535 23.518289 0.686287 0.710772 0.028920 -0.012553 -449177.000000 0 1 0
11.179611 9.016779 18.850135 23.698388 0.678715 0.651099 0.034954 -0.008855 63775.400000 0 1 0
11.794411 9.053779 20.261535 25.131829 0.654691 0.633078 0.057093 -0.017029 -478211.000000 0 0 1
12.979411 8.319279 20.356135 25.535225 0.569994 0.648189 0.051292 -0.019948 -356660.000000 0 0 1
13.673311 8.536479 21.568735 26.926590 0.558108 0.641799 0.039997 -0.017260 62918.800000 0 0 1
15.186711 8.238579 21.464035 27.553859 0.497056 0.677751 0.031994 -0.010276 225279.000000 0 0 1
15.867311 9.238079 20.711235 27.677950 0.527235 0.725310 0.039651 -0.011003 76078.400000 0 0 1
17.061111 8.739779 20.139035 27.803704 0.473410 0.760735 0.031015 -0.009237 -142257.000000 0 0 1
17.797311 9.744779 19.267935 27.981392 0.500954 0.811242 0.035577 -0.014928 -460323.000000 0 0 1
18.613511 10.609279 20.016735 29.320458 0.518051 0.819361 0.032691 -0.015938 67950.700000 0 0 1
19.428511 11.360479 19.092735 29.513726 0.529118 0.867271 0.028737 -0.016912 -55096.500000 0 0 1
20.319311 12.192179 20.028435 31.026792 0.540441 0.869092 0.018648 -0.014902 -913794.000000 0 0 1
19.662411 13.337179 20.542335 31.408252 0.596019 0.857880 0.015442 -0.003261 578200.000000 0 0 1
20.467911 14.223779 21.356735 32.823184 0.607316 0.862343 0.009241 -0.004613 9047.390000 0 0 1
21.732911 14.917679 20.826435 33.594597 0.601547 0.902138 0.007576 -0.003746 -326061.000000 0 0 1
22.838311 14.078279 20.729035 33.903971 0.552415 0.912962 0.001587 -0.006304 441898.000000 0 0 1
24.037611 14.782879 21.151435 35.266463 0.551368 0.927594 0.005018 -0.000681 1068650.000000 0 0 1
25.369011 13.999279 21.133035 35.863236 0.504244 0.940645 0.012762 -0.001414 -54933.500000 0 0 1
25.794411 13.671079 19.857135 35.306598 0.487360 0.973487 0.019785 -0.008620 -38454.000000 0 0 1
26.982011 12.926979 20.013735 35.995629 0.446785 0.981225 0.013539 -0.006753 -16424.300000 0 0 1
27.295711 12.051179 18.753335 35.241656 0.415767 1.009676 0.012661 -0.009373 -128235.000000 0 0 1
27.591011 12.730979 17.523435 35.077236 0.432308 1.047697 0.015778 -0.013261 436885.000000 0 0 1
27.783811 11.838179 16.389335 34.361213 0.402787 1.073590 0.028235 -0.017234 619367.000000 0 0 1
26.428311 11.432779 15.701935 32.798092 0.408287 1.071571 0.025817 -0.025455 660488.000000 0 0 1
25.985211 12.312179 14.676935 32.283639 0.442481 1.098846 0.030642 -0.027588 332006.000000 0 0 1
24.686911 12.013679 14.185835 30.903236 0.452904 1.093882 0.046005 -0.023120 357350.000000 0 0 1
24.204311 12.996779 13.055835 30.417425 0.492778 1.127165 0.035283 -0.015616 -43501.200000 0 0 1
23.855311 14.337279 13.410935 30.894767 0.541162 1.121775 0.022547 -0.008580 190857.000000 0 0 1
23.570111 15.097679 12.250835 30.554427 0.569699 1.158241 0.003886 0.002571 -240055.000000 0 0 1
22.931011 16.398379 12.650035 30.899215 0.620800 1.149004 0.013854 0.011260 -1326690.000000 0 0 1
21.645011 16.280179 13.138935 30.102863 0.644872 1.119127 0.035188 -0.003168 -727548.000000 0 0 1
21.002311 17.535679 13.322635 30.431722 0.695686 1.117660 0.035193 -0.000354 -442999.000000 0 0 1
20.341911 18.186179 12.079135 29.840173 0.729504 1.154042 0.036771 0.008137 625659.000000 0 0 1
19.095811 17.687079 11.541935 28.472777 0.747118 1.153416 0.036606 0.002186 1207440.000000 0 0 1
17.971011 17.837979 12.415235 28.200865 0.781683 1.114927 0.032117 -0.001710 -309351.000000 0 0 1
16.665211 17.387579 11.751335 26.798340 0.806608 1.116856 0.042725 0.000937 -451959.000000 0 0 1
16.512211 15.932279 11.677035 25.745752 0.767525 1.100050 0.033684 -0.000327 882052.000000 0 0 1
15.317511 15.533179 10.984435 24.424651 0.792389 1.104336 0.037809 -0.008948 686428.000000 0 1 0
15.599211 14.259179 10.201835 23.467786 0.740549 1.121073 0.043743 -0.012393 -277705.000000 0 1 0
15.669011 13.047079 10.946335 23.142308 0.694345 1.078103 0.032567 -0.010360 412497.000000 0 1 0
16.114811 11.998179 10.137235 22.503488 0.640000 1.103500 0.029715 -0.008072 -199107.000000 0 1 0
16.319611 10.655079 10.981335 22.370743 0.578411 1.057698 0.023030 -0.010807 -374553.000000 0 1 0
17.016511 9.646779 10.231535 22.075015 0.515731 1.088867 0.022112 -0.010173 539033.000000 0 1 0
17.402711 8.503879 10.965535 22.257881 0.454528 1.055654 0.016138 -0.007514 767275.000000 0 1 0
18.694611 8.638179 11.846935 23.758293 0.432844 1.048762 0.022833 -0.012186 184268.000000 0 1 0
18.363411 9.449779 12.918835 24.359998 0.475258 1.011807 0.023495 -0.015773 511385.000000 0 1 0
19.347111 9.401879 13.957435 25.642075 0.452351 0.995221 0.026343 -0.016219 -331858.000000 0 0 1
18.720911 9.729779 15.350035 26.091467 0.479305 0.941821 0.014800 -0.011135 393699.000000 0 0 1
17.997411 8.708679 16.023935 25.622537 0.450673 0.895172 0.017550 -0.013312 881302.000000 0 0 1
16.816911 8.193579 15.409835 24.236465 0.453374 0.881736 0.024565 -0.016961 -401803.000000 0 1 0
16.269711 6.888679 16.014035 23.845476 0.400519 0.834463 0.025677 -0.012165 -498603.000000 0 1 0
15.786311 7.037479 17.347135 24.487891 0.419353 0.783573 0.045679 -0.011840 137056.000000 0 1 0
15.271411 5.860979 17.862835 24.220816 0.366453 0.741436 0.044478 0.003869 -748124.000000 0 1 0
13.792411 5.612279 17.617135 23.067113 0.386450 0.701719 0.022185 -0.012979 -1144800.000000 0 1 0
13.421811 4.266179 17.882835 22.762712 0.307755 0.667099 0.022552 -0.010988 194406.000000 0 1 0
12.861011 3.621479 16.715335 21.399139 0.274479 0.674336 0.012279 -0.012156 -139230.000000 0 1 0
12.823711 2.144679 16.849635 21.282796 0.165710 0.657206 0.016929 -0.007135 -326012.000000 0 1 0
14.034811 1.442379 16.974835 22.072639 0.102412 0.693452 0.018929 -0.004980 -118116.000000 0 1 0
13.835011 0.027979 16.882935 21.827547 0.002022 0.686500 0.017952 0.000705 -692498.000000 0 1 0
13.081011 -0.832221 17.922435 22.204034 -0.063535 0.631454 0.015939 -0.004125 206201.000000 0 1 0
11.687911 -0.599421 17.998335 21.468736 -0.051241 0.576545 0.018928 0.003838 -391336.000000 0 1 0
11.198611 -1.351621 19.018435 22.111912 -0.120114 0.535332 0.027627 -0.009334 -392596.000000 0 1 0
-25.373669 13.996979 29.118835 41.080957 -0.504097 0.782978 0.011323 0.011783 -264299.000000 0 0 1
-24.364989 14.020479 30.102775 41.187420 -0.522161 0.751196 0.012339 0.008350 80594.600000 0 0 1
-23.769189 12.747679 30.177835 40.474429 -0.492273 0.729358 0.013061 0.000641 -167362.000000 0 0 1
-22.537789 12.808679 31.113295 40.497547 -0.516800 0.694653 0.001906 0.004137 -169544.000000 0 0 1
-22.891689 13.129879 32.493225 41.859680 -0.520755 0.682114 0.006899 0.003335 208513.000000 0 0 1
-21.807689 12.941579 33.412912 41.946185 -0.535583 0.649203 -0.006804 0.011950 -299807.000000 0 0 1
-22.050789 13.301979 -33.977229 42.633696 -0.542800 2.493037 0.013518 0.013416 -177822.000000 0 0 1
-22.869589 12.302979 -33.356869 42.273657 -0.493554 2.480090 -0.003885 0.010299 60954.400000 0 0 1
-23.349089 12.728779 -32.174389 41.741982 -0.499113 2.450880 -0.008482 0.008007 -321526.000000 0 0 1
-24.328189 11.741579 -31.499509 41.496319 -0.449657 2.432713 -0.011609 -0.004978 45784.700000 0 0 1
-23.773589 10.598979 -30.774019 40.305857 -0.419381 2.439531 -0.011812 -0.013198 241907.000000 0 0 1
-23.397889 9.460579 -31.530219 40.387108 -0.384238 2.466582 -0.017534 -0.010814 -66095.900000 0 0 1
-22.535189 8.527279 -30.681859 39.011866 -0.361747 2.475877 -0.017306 -0.008139 -450290.000000 0 0 1
-23.257789 7.833479 -29.684519 38.515696 -0.324877 2.450755 -0.016395 -0.008622 203778.000000 0 0 1
-22.425089 7.089579 -28.838239 37.212777 -0.306202 2.457441 -0.016082 -0.004882 -112055.000000 0 0 1
-23.223389 6.251279 -27.773109 36.738942 -0.262948 2.427913 -0.015829 -0.007018 -51712.000000 0 0 1
-23.814089 5.113779 -28.348789 37.375332 -0.211525 2.431788 -0.011981 -0.009261 75414.800000 0 0 1
-24.171289 4.162379 -27.371239 36.752705 -0.170531 2.410943 0.000874 0.003627 -534144.000000 0 0 1
-24.839589 2.911479 -28.005569 37.547221 -0.116679 2.412645 0.009584 0.009036 1555260.000000 0 0 1
-26.232369 3.011079 -28.432549 38.802237 -0.114285 2.393159 0.008657 0.010029 1645530.000000 0 0 1
-26.409419 3.898879 -29.533589 39.810696 -0.146573 2.406622 -0.006825 0.009643 -754933.000000 0 0 1
-27.808169 3.640579 -30.127149 41.160578 -0.130177 2.391964 0.022064 -0.001211 -592689.000000 0 0 1
-28.928909 4.168379 -29.479629 41.512717 -0.143105 2.360486 0.024742 0.003775 -484752.000000 0 0 1
-29.970989 4.204679 -30.417519 42.908798 -0.139382 2.358716 0.022279 0.001836 -394649.000000 0 0 1
-30.314759 5.653779 -30.804369 43.587372 -0.184384 2.355657 0.024336 -0.016229 -446249.000000 0 0 1
-29.335569 6.202679 -31.668439 43.611224 -0.208370 2.383507 0.021347 -0.012316 208844.000000 0 0 1
-29.704979 7.459879 -32.303139 44.514361 -0.246044 2.382817 0.018120 -0.011858 -629897.000000 0 0 1
-29.206429 8.733579 -31.504259 43.838445 -0.290566 2.372647 0.009721 -0.025307 -530375.000000 0 0 1
-27.807499 8.773379 -31.384409 42.839355 -0.305619 2.392941 0.005977 -0.037117 -138300.000000 0 0 1
-27.272909 8.033379 -30.330969 41.573001 -0.286454 2.388509 0.008553 -0.040813 -1002180.000000 0 0 1
-27.224869 8.763179 -28.982259 40.718032 -0.311409 2.362825 0.003725 -0.030393 99250.400000 0 0 1
-28.513339 9.018879 -28.425749 41.259834 -0.306347 2.330829 0.017464 -0.036847 565106.000000 0 0 1
-29.072579 7.905479 -27.736009 40.951162 -0.265503 2.314876 0.007841 -0.017427 -838353.000000 0 0 1
-30.517339 8.062279 -27.272739 41.714633 -0.258286 2.283383 0.004107 -0.009324 -447366.000000 0 0 1
-30.645289 9.016879 -26.218369 41.326030 -0.286158 2.258064 -0.010833 -0.011401 -51090.500000 0 0 1
-30.419129 8.259479 -25.000099 40.231174 -0.265130 2.241339 -0.005481 -0.010781 -461181.000000 0 0 1
-29.993709 9.090979 -23.812499 39.361194 -0.294295 2.220530 0.002938 -0.006834 -448514.000000 0 0 1
-30.874399 10.002079 -23.234199 39.913633 -0.313291 2.192120 0.003415 -0.012050 -563166.000000 0 0 1
-30.154559 10.863079 -22.420199 39.114821 -0.345774 2.181189 0.009774 -0.014989 -429558.000000 0 0 1
-30.912809 11.899979 -21.566299 39.526150 -0.367468 2.147926 -0.003425 -0.004971 -336987.000000 0 0 1
-31.627499 11.278279 -20.522999 39.353421 -0.342540 2.119410 -0.004652 -0.011546 70051.400000 0 0 1
-32.181879 12.215979 -19.603399 39.613088 -0.362790 2.088484 -0.012913 0.000726 311220.000000 0 0 1
-31.146239 12.957079 -18.671599 38.556487 -0.394230 2.076320 -0.007902 -0.004297 96094.300000 0 0 1
-30.701519 12.288479 -17.485299 37.407562 -0.380727 2.057174 0.015711 -0.004264 272610.000000 0 0 1
-31.639579 12.093079 -16.427899 37.645470 -0.365080 2.022373 0.007107 0.004485 -338012.000000 0 0 1
-31.942619 13.338279 -15.530699 37.939995 -0.395561 1.992537 -0.004607 0.007591 -115469.000000 0 0 1
-32.560809 14.386979 -16.293099 39.149157 -0.416055 2.000037 -0.011256 0.002638 114100.000000 0 0 1
-33.129209 15.359579 -15.505599 39.672216 -0.434128 1.972343 -0.017833 0.009396 -300948.000000 0 0 1
-34.110204 16.225479 -16.280399 41.131783 -0.444002 1.977747 -0.017683 -0.002499 -641516.000000 0 0 1
-35.292864 15.717179 -16.820399 42.137178 -0.418968 1.981421 -0.016967 -0.002918 202472.000000 0 0 1
34.852462 16.801779 -17.196499 42.340447 0.449212 1.989031 -0.012750 -0.004250 -494462.000000 0 0 1
34.522972 16.903379 -18.725499 42.757504 0.455315 2.024110 -0.018468 0.003438 303097.000000 0 0 1
33.541232 15.975679 -19.201399 41.820214 0.444508 2.047825 0.004426 0.002835 1318240.000000 0 0 1
32.178032 16.377579 -18.992499 40.796640 0.470796 2.055042 0.032360 -0.013059 552211.000000 0 0 1
31.170102 15.207079 -19.193599 39.638677 0.453900 2.076261 0.045436 -0.014069 -52454.100000 0 0 1
30.890752 14.901979 -20.580099 39.998100 0.449476 2.111252 0.032026 -0.010913 203085.000000 0 0 1
30.141602 13.701179 -20.753899 39.076371 0.426640 2.130708 0.015079 -0.007045 -62557.400000 0 0 1
30.653252 12.309779 -20.251399 38.746247 0.381869 2.120773 0.015308 0.012169 -208273.000000 0 0 1
30.636072 12.134479 -18.846599 37.960621 0.377127 2.090333 0.028572 0.004458 -419696.000000 0 0 1
31.505422 11.132879 -18.504599 38.196240 0.339668 2.076544 0.028610 0.012436 -545373.000000 0 0 1
31.638142 11.016779 -16.977399 37.557603 0.335081 2.039843 0.019789 0.015691 -246253.000000 0 0 1
30.553942 10.243479 -16.531699 36.218356 0.323483 2.044792 0.030373 0.012093 111298.000000 0 0 1
30.524662 10.129379 -15.095699 35.528009 0.320408 2.009643 0.021632 0.012121 38069.800000 0 0 1
30.012332 11.310379 -14.230399 35.088018 0.360398 1.988391 0.037520 -0.001245 -215507.000000 0 0 1
28.623182 11.577079 -14.309299 34.030447 0.384350 2.004776 0.041198 0.001031 374156.000000 0 0 1
28.254452 12.622479 -13.408199 33.725670 0.420142 1.979660 0.050796 -0.001590 -197948.000000 0 0 1
26.726802 12.684279 -13.293899 32.433634 0.443114 1.993119 0.051631 -0.007067 -590234.000000 0 0 1
26.059652 11.706679 -12.530199 31.195475 0.422210 1.984133 0.039482 -0.003651 1197010.000000 0 0 1
24.740662 11.384879 -13.050899 30.200030 0.431278 2.017670 0.040563 0.001394 721332.000000 0 0 1
24.613662 10.508379 -14.303499 30.345485 0.403507 2.061623 0.032835 -0.003513 -963961.000000 0 0 1
24.954562 9.165979 -14.221899 30.149755 0.352009 2.062024 0.029672 -0.003262 862738.000000 0 0 1
26.328012 8.868879 -14.484999 31.331078 0.324922 2.051407 0.032696 -0.009682 256886.000000 0 0 1
26.905022 7.681479 -13.677799 31.144301 0.278105 2.025477 0.033571 -0.006136 -332239.000000 0 0 1
26.290752 6.425279 -13.921899 30.435294 0.239695 2.045895 0.042772 -0.007651 512871.000000 0 0 1
25.932972 5.801579 -12.695199 29.450729 0.220090 2.016470 0.035118 -0.004530 -172435.000000 0 0 1
25.306162 4.414479 -12.929499 28.758675 0.172705 2.037098 0.031727 -0.002843 -242749.000000 0 0 1
24.895762 3.863579 -11.699099 27.777601 0.153962 2.005532 0.022517 -0.007642 483630.000000 0 0 1
24.039462 2.702779 -11.851699 26.938142 0.111961 2.026350 0.019681 -0.004450 432406.000000 0 0 1
23.244262 2.246079 -10.571199 25.633783 0.096330 1.995876 0.008137 -0.005557 -382395.000000 0 0 1
24.019162 1.778879 -9.507799 25.893682 0.073926 1.946778 0.010633 -0.000876 214843.000000 0 0 1
23.287462 1.815079 -8.279199 24.781960 0.077785 1.911427 0.016433 0.007974 -479983.000000 0 1 0
24.107362 1.327979 -7.035799 25.148179 0.055030 1.854355 0.024603 0.001235 -300959.000000 0 0 1
24.338762 -0.039621 -6.993299 25.323569 -0.001628 1.850590 0.009842 -0.003683 854493.000000 0 0 1
25.311362 -0.581421 -7.911899 26.525483 -0.022967 1.873682 0.023433 0.000398 -159738.000000 0 0 1
25.420162 -2.099021 -7.594599 26.613313 -0.082386 1.860187 0.029052 -0.010806 -154724.000000 0 0 1
26.246912 -2.358721 -6.457699 27.132376 -0.089626 1.811110 0.041431 -0.016724 508928.000000 0 0 1
26.461492 -3.737521 -6.173799 27.428004 -0.140316 1.797833 0.043858 -0.020254 -890022.000000 0 0 1
27.599822 -4.139621 -5.254999 28.398973 -0.148877 1.756911 0.047922 -0.022627 -649105.000000 0 0 1
28.827652 -4.056521 -5.944799 29.712447 -0.139798 1.772234 0.050807 -0.010204 -334096.000000 0 0 1
29.850552 -4.743021 -5.302099 30.686543 -0.157575 1.744450 0.060526 -0.009258 -550823.000000 0 0 1
31.031442 -5.028021 -6.258899 32.053162 -0.160634 1.767325 0.046565 -0.010688 -303348.000000 0 0 1
30.735082 -5.958421 -7.285399 32.143819 -0.191489 1.799433 0.036901 -0.007207 185006.000000 0 0 1
31.565112 -5.755421 -8.426699 33.173640 -0.180354 1.827629 0.034854 -0.015936 -653577.000000 0 0 1
31.210372 -6.579121 -9.739799 33.350200 -0.207758 1.867162 0.030362 -0.016857 405134.000000 0 0 1
29.934232 -6.191621 -10.270399 32.247101 -0.203965 1.894933 0.034997 -0.008411 614705.000000 0 0 1
28.915312 -6.977121 -9.652499 31.272132 -0.236769 1.884582 0.031499 -0.010295 90795.800000 0 0 1
27.615062 -6.120521 -9.403799 29.807446 -0.218111 1.891764 0.029718 -0.007906 9810.260000 0 0 1
26.794312 -5.868121 -10.529699 29.381024 -0.215602 1.937333 0.018903 -0.004187 -135970.000000 0 0 1
25.680062 -5.084721 -10.250699 28.113996 -0.195474 1.944012 0.031973 -0.003744 -20000.100000 0 0 1
24.418162 -5.979021 -10.033699 27.067886 -0.240135 1.950544 0.025851 0.002378 -1110340.000000 0 0 1
24.518662 -6.731921 -8.818099 26.911752 -0.267960 1.904630 0.022783 -0.006530 655580.000000 0 0 1
23.373662 -7.511421 -8.480299 25.974314 -0.310939 1.903382 0.024545 -0.004171 -156024.000000 0 0 1
22.341962 -6.701121 -7.650699 24.547942 -0.291397 1.887740 0.031049 -0.008389 -560322.000000 0 1 0
21.851262 -5.668421 -8.470299 24.111296 -0.253815 1.929756 0.022586 -0.007128 84601.500000 0 1 0
21.320662 -4.547621 -7.784799 23.148533 -0.210147 1.913779 0.003390 -0.008312 -282961.000000 0 1 0
21.352862 -3.378221 -8.826699 23.350968 -0.156909 1.958433 0.012322 0.000477 -855773.000000 0 1 0
22.549462 -3.073721 -9.461499 24.646419 -0.135475 1.964801 0.009966 0.007795 -166836.000000 0 1 0
22.421762 -2.207621 -10.574799 24.888459 -0.098143 2.009634 0.010858 0.006677 -197548.000000 0 1 0
23.652862 -2.232221 -11.513799 26.400914 -0.094096 2.022072 0.016783 -0.000144 6995.410000 0 0 1
24.824662 -1.665821 -10.957499 27.186496 -0.067003 1.985643 0.021257 -0.000230 887412.000000 0 0 1
25.885162 -1.692021 -11.930999 28.552641 -0.065274 2.001885 0.027902 0.000589 -632709.000000 0 0 1
26.946882 -0.708221 -11.571799 29.335006 -0.026276 1.976288 0.033758 -0.003523 -1348320.000000 0 0 1
28.054062 -0.969921 -12.395099 30.685658 -0.034560 1.986614 0.039194 -0.010851 1167830.000000 0 0 1
29.206892 -0.089121 -12.168299 31.640448 -0.003051 1.965550 0.043122 -0.010849 969629.000000 0 0 1
29.130432 1.347779 -12.818799 31.854673 0.046234 1.984950 0.043048 -0.007633 -429314.000000 0 0 1
29.201102 1.273379 -14.228399 32.508048 0.043580 2.023823 0.039809 -0.010007 327280.000000 0 0 1
29.166852 2.570079 -14.795699 32.805842 0.087889 2.038691 0.035736 -0.002158 -122472.000000 0 0 1
29.357122 2.544579 -16.342999 33.695832 0.086461 2.077177 0.028002 -0.003623 666829.000000 0 0 1
28.280842 1.862779 -17.045699 33.073128 0.065772 2.112264 0.036549 0.006225 509931.000000 0 0 1
28.514942 1.788879 -18.430699 33.999892 0.062653 2.143708 0.015238 0.000770 -87864.600000 0 0 1
27.519522 0.957079 -19.272999 33.610840 0.034764 2.181466 0.006349 -0.000515 -237191.000000 0 0 1
27.610302 -0.421421 -19.129799 33.592493 -0.015262 2.176653 0.016152 0.000924 168971.000000 0 0 1
27.321362 -1.059821 -20.413099 34.121469 -0.038771 2.212109 0.013687 -0.002735 -2452.510000 0 0 1
26.974482 -2.574521 -20.335999 33.879252 -0.095155 2.214609 0.022593 -0.012476 -136657.000000 0 0 1
25.689762 -2.807221 -19.795999 32.553432 -0.108842 2.224471 0.023359 -0.009441 260856.000000 0 0 1
25.324162 -4.171121 -19.891299 32.471144 -0.163243 2.230122 0.026238 -0.015672 -407377.000000 0 0 1
25.955952 -5.087621 -18.835399 32.471027 -0.193556 2.189608 0.016664 -0.012461 -264821.000000 0 0 1
27.318182 -5.354021 -19.084099 33.751318 -0.193534 2.171754 0.019707 -0.019041 -257751.000000 0 0 1
28.050072 -5.168121 -17.883999 33.665315 -0.182203 2.130847 0.021095 -0.018733 748826.000000 0 0 1
29.583232 -4.958021 -18.184699 35.077526 -0.166052 2.115792 0.049249 -0.024920 909841.000000 0 0 1
30.200972 -6.137821 -18.715899 36.056295 -0.200502 2.116564 0.031841 -0.021164 339219.000000 0 0 1
31.513312 -5.864021 -19.189499 37.359235 -0.183977 2.110228 0.046622 -0.019764 279261.000000 0 0 1
32.267242 -7.081021 -19.804899 38.516877 -0.216025 2.110856 0.038804 -0.009654 -77499.800000 0 0 1
32.722042 -7.922421 -18.801799 38.561696 -0.237542 2.080109 0.042331 -0.011163 222966.000000 0 0 1
33.444132 -9.007321 -19.432599 39.714830 -0.263082 2.082087 0.044120 -0.005920 534045.000000 0 0 1
34.291512 -9.817721 -18.387499 40.129734 -0.278843 2.046767 0.042029 -0.005087 -61537.400000 0 0 1
33.428452 -10.589921 -17.571999 39.222226 -0.306792 2.035336 0.035415 -0.006166 313114.000000 0 0 1
34.038722 -11.500621 -16.671599 39.608599 -0.325827 2.005243 0.025626 0.000471 -145065.000000 0 0 1
34.928046 -10.824521 -15.558399 39.739180 -0.300523 1.973071 0.037737 -0.003071 290915.000000 0 0 1
-35.455757 -11.674221 -14.577799 40.073811 0.318082 1.943112 0.032101 -0.005034 893632.000000 0 0 1
-34.655713 -12.834721 -14.865799 39.833911 0.354687 1.953246 0.025608 -0.002042 645301.000000 0 0 1
-33.225589 -12.714721 -15.480999 38.797748 0.365486 1.981242 0.037877 -0.006559 -238177.000000 0 0 1
-33.193019 -12.274321 -16.812199 39.180167 0.354192 2.014292 0.034414 -0.004856 -63410.500000 0 0 1
-31.901409 -12.461921 -17.345999 38.391185 0.372410 2.039603 0.044183 -0.007384 711.422000 0 0 1
-31.664999 -11.566021 -18.596599 38.500370 0.350206 2.074901 0.056548 -0.015999 133234.000000 0 0 1
-31.708739 -10.235121 -18.259799 37.995027 0.312228 2.072117 0.055001 -0.011008 871423.000000 0 0 1
-32.817039 -9.566621 -18.924299 39.071823 0.283653 2.076412 0.049132 -0.009471 613075.000000 0 0 1
-32.884569 -8.124821 -18.289699 38.495723 0.242220 2.065885 0.041909 -0.009038 -9947.490000 0 0 1
-34.072987 -7.519121 -18.752199 39.612506 0.217196 2.063933 0.048584 -0.014146 77562.200000 0 0 1
-34.474698 -6.360021 -18.050399 39.430592 0.182433 2.046289 0.041944 -0.015180 102003.000000 0 0 1
23.823111 26.974979 -27.384399 45.222731 0.847366 2.221247 0.028710 0.024273 -116919.000000 0 0 1
24.386111 26.125979 -26.447529 44.460330 0.819829 2.207884 0.029215 0.011907 -555972.000000 0 0 1
25.719111 25.891079 -26.818079 45.288299 0.788730 2.204537 0.023462 0.011227 -379670.000000 0 0 1
26.506111 25.155879 -25.676609 44.661845 0.759268 2.183292 0.014360 -0.004654 -194263.000000 0 0 1
26.817111 25.984479 -24.551999 44.689498 0.769630 2.152431 0.022488 0.003461 348822.000000 0 0 1
27.255511 25.203079 -23.417999 43.891466 0.746293 2.133581 0.017757 -0.003175 102619.000000 0 0 1
27.842311 26.136679 -22.272599 44.208471 0.753811 2.098798 0.014928 -0.001023 -334649.000000 0 0 1
26.930711 26.911479 -21.600899 43.773162 0.785041 2.086875 0.024724 -0.003932 -383063.000000 0 0 1
27.627111 27.703079 -20.667099 44.247563 0.786771 2.056781 0.016097 -0.010546 -11574.900000 0 0 1
26.701311 28.645679 -19.896299 43.924909 0.820514 2.040881 0.025420 0.002742 -345891.000000 0 0 1
25.835711 27.988279 -19.003599 42.567176 0.825370 2.033577 0.029602 -0.001172 -85715.800000 0 0 1
24.980111 28.924279 -18.375199 42.405988 0.858438 2.018965 0.024880 0.001839 -185624.000000 0 0 1
24.033011 28.203779 -17.414699 40.942771 0.865073 2.010137 0.021386 0.006486 -399361.000000 0 0 1
22.962111 27.575979 -18.049799 40.168251 0.876441 2.036839 0.032476 0.004423 -242104.000000 0 0 1
21.824211 27.389879 -17.235299 39.032771 0.898011 2.028133 0.024807 0.011615 -84537.500000 0 0 1
20.865111 26.418479 -17.935699 38.144176 0.902311 2.060323 0.022034 -0.002240 -514501.000000 0 0 1
20.208211 26.937379 -19.048599 38.689059 0.927172 2.085585 0.021746 0.003651 -436247.000000 0 0 1
19.350211 26.009379 -19.656499 37.911692 0.931165 2.115870 0.023167 0.005928 26852.600000 0 0 1
18.748511 26.552779 -20.948699 38.670463 0.955998 2.143283 0.018853 0.015809 580791.000000 0 0 1
17.742011 27.564879 -20.741699 38.792004 0.998901 2.134937 0.006255 0.016269 554120.000000 0 0 1
16.698611 27.367579 -21.719899 38.724437 1.022939 2.166249 0.003770 0.008367 270293.000000 0 0 1
15.435811 28.197279 -21.419099 38.628081 1.069935 2.158553 0.011555 0.006710 -468366.000000 0 0 1
14.743511 27.770179 -20.297199 37.423659 1.082726 2.144043 0.020689 0.006098 -524387.000000 0 0 1
13.915611 28.824379 -19.895499 37.687132 1.121026 2.126937 0.013830 0.004096 -278707.000000 0 0 1
13.640911 28.779479 -18.437199 36.800315 1.128180 2.095558 0.016505 0.001766 -339245.000000 0 0 1
12.706011 27.819879 -18.068799 35.522808 1.142365 2.104416 0.015246 0.007677 -412528.000000 0 0 1
12.358811 27.886879 -16.710999 34.780393 1.153631 2.071989 0.032177 0.007471 -68618.100000 0 0 1
11.448011 26.696079 -16.290699 33.303520 1.165688 2.081921 0.045085 0.004534 103997.000000 0 0 1
12.081211 25.447879 -16.266699 32.529305 1.127557 2.094468 0.016494 0.005696 -87496.400000 0 0 1
11.172511 24.417379 -15.933599 31.223596 1.141670 2.106337 0.040592 0.000608 491340.000000 0 0 1
11.975111 23.101279 -16.158799 30.629710 1.092557 2.126514 0.013225 0.007741 532629.000000 0 0 1
12.404211 22.971879 -17.521599 31.441662 1.075683 2.161895 0.017646 0.012709 183065.000000 0 0 1
13.356811 21.994879 -17.916499 31.355702 1.025049 2.179001 0.013619 0.015137 -48704.800000 0 0 1
12.726611 20.621779 -18.172699 30.289790 1.017866 2.214249 0.021931 0.012428 49037.000000 0 0 1
12.327911 20.022579 -16.967699 28.996273 1.018912 2.195884 0.023748 0.008786 -128144.000000 0 0 1
11.793011 18.725679 -17.096099 27.964312 1.008769 2.228567 0.019568 0.003571 -16747.300000 0 0 1
12.861811 17.609979 -17.095199 27.708904 0.939977 2.235666 0.020674 0.005446 -15043.100000 0 0 1
13.439311 17.379979 -15.842299 27.086107 0.912572 2.195536 0.020502 0.001583 85737.600000 0 0 1
14.397511 16.338079 -15.909499 26.969118 0.848452 2.201750 0.015164 0.004045 -364326.000000 0 0 1
14.833311 15.728579 -14.555599 26.063016 0.814683 2.163345 0.032780 0.005595 127951.000000 0 0 1
15.653911 16.523879 -13.656099 26.543786 0.812428 2.111191 0.022115 0.004414 824567.000000 0 0 1
16.999411 16.849679 -13.895599 27.676332 0.780975 2.096793 0.016715 -0.000453 112427.000000 0 0 1
18.046411 15.781179 -14.365899 27.948124 0.718534 2.110661 0.014631 -0.001917 -327454.000000 0 0 1
18.324711 14.635079 -13.525299 27.072390 0.673919 2.093930 0.020751 -0.001698 173142.000000 0 0 1
19.070811 14.975479 -12.411299 27.239698 0.665686 2.043879 0.016873 0.000812 -881835.000000 0 0 1
19.678611 13.741979 -11.711399 26.706677 0.609598 2.024747 0.017076 -0.005077 -340545.000000 0 0 1
18.842111 12.875279 -10.948999 25.311629 0.599447 2.018135 0.038520 -0.010945 413636.000000 0 0 1
19.559911 11.818579 -10.300499 25.067294 0.543520 1.994253 0.042189 -0.006645 107769.000000 0 0 1
19.931611 10.607379 -11.154999 25.183717 0.489066 2.029677 0.028886 -0.005122 -720934.000000 0 0 1
20.758411 10.891679 -12.275299 26.461732 0.483202 2.053176 0.021833 0.000988 618230.000000 0 0 1
21.162011 9.765979 -13.090699 26.731470 0.432365 2.082555 0.019716 0.000941 -144057.000000 0 0 1
22.047411 8.710779 -12.366699 26.737637 0.376269 2.051632 0.022630 0.006566 -981843.000000 0 0 1
21.381411 8.051879 -11.298899 25.488480 0.360158 2.030067 0.020620 -0.004952 384111.000000 0 0 1
22.048211 6.958479 -10.659699 25.459246 0.305709 2.002806 0.023874 0.005886 -1130310.000000 0 0 1
22.082111 5.662679 -11.493199 25.529967 0.251028 2.037768 0.021694 0.002900 -367208.000000 0 0 1
20.984211 4.793379 -11.792699 24.543458 0.224575 2.072001 0.017050 -0.000689 788172.000000 0 1 0
20.010111 5.422079 -12.637299 24.279720 0.264613 2.118219 -0.019703 -0.005429 -182720.000000 0 1 0
18.899911 4.473379 -13.061099 23.405343 0.232411 2.162817 -0.019632 -0.010033 -394823.000000 0 1 0
19.457311 3.559879 -13.973899 24.218372 0.180957 2.185842 -0.012116 -0.001813 569092.000000 0 1 0
18.620611 2.471079 -14.344799 23.634861 0.131936 2.222993 -0.004522 0.016731 -633841.000000 0 1 0
19.441711 1.391379 -15.027899 24.612067 0.071445 2.227603 0.010096 0.010861 -66015.800000 0 1 0
20.413011 0.885579 -14.117599 24.835094 0.043356 2.175421 0.011126 0.014838 509466.000000 0 1 0
21.691111 0.671979 -14.688399 26.205055 0.030970 2.165807 0.012920 0.009092 83737.000000 0 0 1
21.943011 -0.770121 -15.210799 26.710620 -0.035082 2.176653 0.015248 0.011049 -421499.000000 0 0 1
21.031611 -1.215721 -16.205399 26.578593 -0.057740 2.226499 0.008038 0.013460 137335.000000 0 0 1
21.540711 -2.318221 -16.895699 27.474371 -0.107208 2.233134 0.011143 0.006820 -92946.200000 0 0 1
20.491111 -3.041221 -17.785699 27.303219 -0.147341 2.280243 0.001552 0.005648 64701.900000 0 0 1
19.692411 -3.984821 -17.099699 26.383130 -0.199657 2.275923 -0.000738 0.006247 582385.000000 0 0 1
18.748411 -4.622821 -17.987899 26.390110 -0.241749 2.320764 -0.005442 0.005342 364676.000000 0 0 1
17.894511 -5.683721 -17.212199 25.471121 -0.307546 2.312783 -0.002543 0.001702 -364825.000000 0 0 1
18.652911 -6.661421 -16.565699 25.821077 -0.343008 2.267323 -0.006088 0.006884 272178.000000 0 0 1
17.889911 -7.526421 -15.771599 25.008784 -0.398229 2.253177 0.001610 0.001353 -146677.000000 0 0 1
18.864211 -8.610521 -15.291299 25.764770 -0.428203 2.206193 0.002218 0.000281 -17650.600000 0 0 1
19.378911 -9.467121 -16.224999 26.989242 -0.454427 2.215755 0.011348 0.007190 117528.000000 0 0 1
20.238611 -10.368021 -15.576399 27.563045 -0.473431 2.171374 0.011650 0.005829 -233362.000000 0 0 1
20.848211 -11.442621 -16.560699 28.979963 -0.501963 2.179072 0.006557 0.003680 209567.000000 0 0 1
21.885611 -10.962721 -17.430699 30.049800 -0.464375 2.189599 0.003833 0.008427 455492.000000 0 0 1
22.370311 -12.033821 -18.198899 31.248098 -0.493535 2.192475 0.004597 0.015850 -270881.000000 0 0 1
21.594211 -12.329521 -19.499199 31.599776 -0.518796 2.235807 0.005596 0.015967 742375.000000 0 0 1
20.287711 -12.905921 -19.334199 30.853935 -0.566573 2.248026 -0.000624 0.023636 670958.000000 0 0 1
20.102411 -14.195021 -19.794699 31.582205 -0.614832 2.248194 -0.004635 0.023976 -1172540.000000 0 0 1
18.671811 -14.597721 -20.007099 31.016351 -0.663548 2.271885 0.004509 0.017057 -941353.000000 0 0 1
18.168311 -14.028221 -21.201799 31.247317 -0.657512 2.316537 0.005413 0.023617 592419.000000 0 0 1
16.732011 -14.098121 -21.197099 30.463654 -0.700173 2.340352 0.009754 0.022576 611041.000000 0 0 1
16.189711 -13.490421 -22.490199 30.820566 -0.694702 2.388700 0.001147 0.032792 -573766.000000 0 0 1
16.261011 -14.306021 -23.602599 32.033817 -0.721528 2.399125 0.010540 0.031867 316948.000000 0 0 1
15.729011 -13.523521 -24.615599 32.190296 -0.710146 2.441357 0.009178 0.026835 -200050.000000 0 0 1
15.699211 -14.331321 -25.967419 33.558290 -0.739880 2.455615 0.005560 0.020891 236315.000000 0 0 1
14.684711 -15.351821 -26.048429 33.613090 -0.807604 2.457431 0.009637 0.022378 513878.000000 0 0 1
14.645811 -16.162321 -27.221599 34.881741 -0.834583 2.466096 0.009773 0.014691 -467842.000000 0 0 1
15.583611 -17.334121 -27.085119 35.734079 -0.838526 2.430981 0.013635 0.011808 -48262.800000 0 0 1
16.977811 -17.084221 -27.090059 36.248972 -0.788522 2.414836 0.030553 0.016391 36296.300000 0 0 1
17.744411 -18.243021 -27.044899 37.136216 -0.799252 2.386579 0.043502 0.007969 59710.300000 0 0 1
19.250411 -17.891921 -27.165569 37.797716 -0.748839 2.372741 0.040233 0.009299 85677.300000 0 0 1
19.841011 -17.320821 -26.032959 37.032304 -0.717685 2.350375 0.031900 0.015306 353432.000000 0 0 1
21.151511 -16.795921 -26.253159 37.665870 -0.671119 2.342003 0.030780 0.014872 501352.000000 0 0 1
21.765411 -16.150521 -24.970099 36.852114 -0.638379 2.315258 0.023843 0.019933 143274.000000 0 0 1
21.352611 -14.802521 -24.705799 35.852826 -0.606176 2.331028 0.020644 0.020681 -230944.000000 0 0 1
20.028511 -14.626421 -24.262199 34.694780 -0.630760 2.345220 0.027360 0.026746 -40095.600000 0 0 1
19.871611 -13.237021 -23.590899 33.565312 -0.587629 2.350172 0.017193 0.032581 -290210.000000 0 0 1
20.199211 -12.156821 -24.375799 33.911296 -0.541776 2.372886 0.018236 0.019962 122512.000000 0 0 1
19.982311 -10.961921 -23.704699 32.884179 -0.501753 2.375830 0.011541 0.025283 -30737.600000 0 0 1
20.068411 -9.713821 -24.600899 33.200959 -0.450795 2.405309 0.018114 0.010681 -284998.000000 0 0 1
19.817511 -8.481621 -23.999799 32.259293 -0.404397 2.409782 0.016917 0.016403 100468.000000 0 0 1
19.804011 -7.441421 -24.979299 32.734370 -0.359431 2.438879 0.006739 0.009130 -164399.000000 0 0 1
19.271411 -6.202621 -24.221199 31.567805 -0.311386 2.445378 -0.001200 0.001491 431951.000000 0 0 1
17.963511 -6.436621 -23.673799 30.406687 -0.344064 2.463184 -0.008519 0.013533 662804.000000 0 0 1
17.538211 -5.413421 -22.744499 29.226807 -0.299387 2.462602 -0.014083 0.007548 55356.400000 0 0 1
18.197211 -5.483421 -21.329699 28.568557 -0.292679 2.413755 -0.013591 0.006935 -18596.000000 0 0 1
17.697311 -6.571621 -20.538199 27.896212 -0.355553 2.398288 -0.009314 0.013624 432504.000000 0 0 1
18.188711 -7.849921 -20.884199 28.785417 -0.407432 2.382576 -0.004641 0.018981 -427644.000000 0 0 1
17.836911 -8.903121 -19.834399 28.121599 -0.462960 2.353654 -0.011464 0.023266 742468.000000 0 0 1
16.447511 -9.246721 -19.701699 27.279652 -0.512158 2.377792 -0.023190 0.018650 653470.000000 0 0 1
16.237811 -10.388121 -18.860799 26.968673 -0.569135 2.345297 -0.008507 0.017789 -229747.000000 0 0 1
14.723211 -10.509821 -18.583999 25.934423 -0.619945 2.369678 0.008941 0.004414 -83464.500000 0 0 1
14.220611 -9.744021 -17.515499 24.575688 -0.600727 2.364160 0.019499 0.002500 -12501.800000 0 1 0
14.185111 -8.365521 -17.685699 24.165746 -0.532841 2.391829 0.017492 -0.012202 -205912.000000 0 1 0
12.962911 -7.610821 -17.057199 22.735648 -0.530897 2.419222 0.029835 -0.008734 1166690.000000 0 1 0
11.757011 -7.628321 -17.843999 22.689797 -0.575553 2.475809 0.022017 -0.018029 600793.000000 0 1 0
10.875311 -6.598821 -17.451999 21.596044 -0.545383 2.511734 0.018779 -0.017202 -104989.000000 0 1 0
9.461711 -6.576721 -18.050999 21.415317 -0.607422 2.573449 0.022251 -0.011036 -15776.300000 0 1 0
9.292711 -6.285921 -19.392399 22.403849 -0.594735 2.617111 0.026132 -0.015122 -86063.100000 0 1 0
7.923211 -6.004521 -19.601699 21.978584 -0.648499 2.672225 0.024588 -0.018678 169575.000000 0 1 0
7.607411 -5.784921 -21.105899 23.168880 -0.650144 2.716399 0.036444 -0.021589 37949.100000 0 1 0
7.572111 -6.987521 -21.936399 24.235675 -0.745268 2.702478 0.035916 -0.015599 61057.400000 0 1 0
6.844311 -6.724321 -23.113999 25.026347 -0.776555 2.748129 0.051655 -0.019126 -231603.000000 0 0 1
6.983511 -7.828721 -24.169499 26.348112 -0.842398 2.732078 0.049603 -0.013916 -396464.000000 0 0 1
6.296311 -8.973021 -23.781899 26.186588 -0.958935 2.709690 0.049481 -0.013992 -112069.000000 0 0 1
6.204311 -9.893621 -24.881499 27.485746 -1.010687 2.702766 0.047545 -0.002379 -308681.000000 0 0 1
5.195511 -11.042921 -24.843399 27.679124 -1.131040 2.684977 0.031477 -0.001280 -84756.500000 0 0 1
5.561211 -11.961121 -23.842399 27.248036 -1.135587 2.636260 0.029352 -0.008014 -257455.000000 0 0 1
4.662711 -13.026921 -23.739199 27.477102 -1.227075 2.613884 0.029275 -0.013462 -747443.000000 0 0 1
5.070311 -14.120921 -22.654999 27.172734 -1.226070 2.556643 0.031953 -0.009623 891579.000000 0 0 1
6.242411 -14.903521 -23.053499 28.152202 -1.174142 2.530267 0.037497 -0.002337 1843920.000000 0 0 1
7.557211 -14.338621 -23.232199 28.327417 -1.085741 2.532437 0.030465 -0.000402 1107010.000000 0 0 1
8.201711 -13.733021 -21.934699 27.147651 -1.032419 2.511508 0.032165 0.002834 -243067.000000 0 0 1
8.677411 -14.707221 -20.924599 27.008122 -1.037755 2.457119 0.031112 0.006037 552131.000000 0 0 1
7.652811 -15.497421 -20.310899 26.669612 -1.112111 2.436536 0.037422 0.003569 285161.000000 0 0 1
8.029911 -15.876021 -18.870299 25.934836 -1.102529 2.385620 0.037771 -0.001310 964148.000000 0 0 1
9.176111 -16.757121 -18.753999 26.771526 -1.069802 2.346923 0.047592 -0.001824 721073.000000 0 0 1
9.754911 -16.932621 -17.461399 26.206343 -1.048135 2.300038 0.053542 -0.016876 48484.500000 0 0 1
8.900511 -17.840521 -16.530299 25.898920 -1.108035 2.263035 0.035000 -0.015417 -738506.000000 0 0 1
8.858311 -19.218221 -16.821399 27.032743 -1.138888 2.242423 0.034794 -0.020129 242076.000000 0 0 1
8.061711 -19.562321 -17.963899 27.755671 -1.179899 2.274722 0.038291 -0.020060 362873.000000 0 0 1
6.516411 -19.530221 -17.787999 27.208566 -1.248754 2.283345 0.022583 -0.004761 74019.400000 0 0 1
5.986711 -18.302321 -17.322999 25.901775 -1.254665 2.303384 0.027477 -0.002603 -1186160.000000 0 0 1
4.681911 -18.118421 -17.749299 25.792152 -1.317922 2.329756 0.010559 0.000124 -649131.000000 0 0 1
4.251211 -16.653021 -17.675799 24.654204 -1.320853 2.370212 0.012826 0.011777 -80645.600000 0 1 0
4.055611 -16.274321 -16.308699 23.393913 -1.326568 2.342189 -0.004969 0.011785 34159.600000 0 1 0
4.297811 -14.898521 -16.036799 22.307309 -1.289949 2.373020 0.005020 0.014130 206546.000000 0 1 0
10.108811 30.273779 -18.446199 36.863966 1.248524 2.094840 0.053380 -0.017869 -328989.000000 0 0 1
8.976611 29.900379 -19.182199 36.641083 1.279140 2.121769 0.075554 -0.019785 -599934.000000 0 0 1
8.153511 29.069379 -18.428799 35.371304 1.297338 2.118830 0.057495 -0.022130 22394.600000 0 0 1
7.059411 28.384979 -19.291699 35.038721 1.327039 2.153858 0.053781 -0.019444 701576.000000 0 0 1
6.204611 29.356379 -19.917799 36.014065 1.362507 2.156824 0.060594 -0.025107 -466784.000000 0 0 1
5.295511 28.853279 -20.820999 35.973159 1.389284 2.188044 0.057798 -0.024753 -394768.000000 0 0 1
4.413211 29.993979 -21.372799 37.093284 1.424708 2.184856 0.033737 -0.020522 -745098.000000 0 0 1
3.548711 30.487979 -20.426899 36.869614 1.454921 2.157995 0.030095 -0.024644 -597243.000000 0 0 1
2.586511 31.321979 -21.081299 37.844122 1.488405 2.161633 0.007606 -0.025525 -23435.300000 0 0 1
1.144511 30.869179 -20.761899 37.219250 1.533737 2.162561 -0.006769 -0.012443 80065.600000 0 0 1
0.540011 29.611379 -21.215599 36.431127 1.552562 2.192410 -0.009602 -0.018522 390070.000000 0 0 1
0.654211 29.291379 -22.579499 36.989818 1.548465 2.227393 0.006158 -0.027520 -685500.000000 0 0 1
0.057211 27.904679 -22.913499 36.106825 1.568746 2.258291 0.011753 -0.017476 274885.000000 0 0 1
-1.287289 27.829679 -22.455699 35.782769 -1.524573 2.249207 0.012350 -0.013550 297312.000000 0 0 1
-1.790389 26.514779 -22.645499 34.915006 -1.503374 2.276526 0.029264 -0.037671 -238950.000000 0 0 1
-2.732289 26.076979 -21.513899 33.916398 -1.466399 2.257927 0.018425 -0.029111 384944.000000 0 0 1
-3.990789 26.747379 -21.622999 34.625175 -1.422686 2.245272 0.010396 -0.026677 332138.000000 0 0 1
-4.863589 26.430979 -20.571299 33.844194 -1.388821 2.224113 0.017671 -0.024085 193230.000000 0 0 1
-6.196189 27.220079 -20.633599 34.714131 -1.346977 2.207298 0.034334 -0.033864 989194.000000 0 0 1
-7.267589 26.752379 -19.780699 34.055597 -1.305537 2.190551 0.038840 -0.026384 442841.000000 0 0 1
-7.938989 27.789679 -19.095199 34.639868 -1.292527 2.154657 0.035857 -0.030644 -227946.000000 0 0 1
-9.109589 27.312379 -18.250899 34.088795 -1.248866 2.135769 0.051060 -0.016363 -316365.000000 0 0 1
-8.828489 26.352979 -17.232999 32.701651 -1.247538 2.125835 0.039823 -0.026262 -459358.000000 0 0 1
-10.046189 25.910679 -16.692399 32.417979 -1.200917 2.111701 0.036968 -0.013448 -47830.600000 0 0 1
-9.810189 25.077879 -15.346399 30.994383 -1.197909 2.088786 0.047117 -0.010741 24124.100000 0 0 1
-9.412289 23.710379 -15.534899 29.868149 -1.192905 2.117783 0.035964 -0.011740 -186264.000000 0 0 1
-9.874289 22.892279 -14.483499 28.832790 -1.163570 2.097085 0.058836 -0.011077 6889.570000 0 0 1
-9.065889 21.515579 -14.360399 27.410428 -1.172009 2.122223 0.058871 0.000556 456557.000000 0 0 1
-9.703189 20.319979 -14.828799 26.961949 -1.125294 2.153148 0.031872 0.002341 15343.400000 0 0 1
-10.174189 20.304579 -16.178999 27.884585 -1.106286 2.189787 0.035441 0.005975 -313086.000000 0 0 1
-9.077989 20.203979 -17.213899 28.052254 -1.148511 2.231455 0.019588 0.002529 -677454.000000 0 0 1
-8.353989 19.035379 -17.138199 26.941653 -1.157240 2.260259 0.013183 0.004555 52912.200000 0 0 1
-7.271689 19.015879 -18.080599 27.228463 -1.205553 2.296996 0.022182 0.000091 618103.000000 0 0 1
-6.708389 17.594179 -18.450499 26.362445 -1.206527 2.346023 0.025698 -0.001364 239913.000000 0 0 1
-7.721689 16.717479 -18.918599 26.400984 -1.138096 2.369693 0.007928 -0.002085 -80888.000000 0 0 1
-7.340489 15.795679 -20.026399 26.541343 -1.135773 2.425743 0.010771 -0.004439 -95075.200000 0 0 1
-6.206089 14.808179 -19.770199 25.468775 -1.173935 2.459496 0.011176 0.000158 -293774.000000 0 0 1
-6.524889 13.748079 -18.832399 24.212458 -1.127671 2.461951 -0.003329 0.001763 807987.000000 0 1 0
-5.364389 12.940279 -18.524899 23.224973 -1.177810 2.494149 -0.000466 0.000892 602621.000000 0 1 0
-4.422089 13.431079 -17.457299 22.465664 -1.252732 2.460787 0.012255 0.005023 -574184.000000 0 1 0
-3.764589 14.618279 -17.723899 23.280954 -1.318747 2.436119 0.016154 -0.002726 -575337.000000 0 1 0
-3.285689 15.181279 -16.517099 22.673366 -1.357653 2.386897 0.020623 0.002998 -51672.400000 0 1 0
-2.534789 16.500379 -16.610399 23.549799 -1.418368 2.353686 0.035371 -0.000658 -368488.000000 0 1 0
-3.337489 17.576979 -16.893799 24.606696 -1.383152 2.327534 0.033424 -0.000265 -932346.000000 0 1 0
-2.603689 18.746679 -16.852799 25.342336 -1.432791 2.298298 0.039726 -0.001117 -244201.000000 0 0 1
-3.367989 19.981579 -17.323799 26.659348 -1.403811 2.278145 0.051730 -0.003971 60760.600000 0 0 1
-3.556489 19.901079 -18.746899 27.570778 -1.393955 2.318498 0.054043 -0.014227 -205598.000000 0 0 1
-4.161889 21.033779 -19.328399 28.867424 -1.375453 2.304409 0.060388 -0.011961 -715504.000000 0 0 1
-3.216189 22.152079 -19.657199 29.790333 -1.426617 2.291418 0.040589 -0.010964 -337411.000000 0 0 1
-2.153389 21.737879 -20.510699 29.964333 -1.472057 2.324719 0.052429 -0.019937 606714.000000 0 0 1
-0.998189 22.582679 -20.445799 30.479575 -1.526624 2.306088 0.040268 -0.017434 748430.000000 0 0 1
0.140811 22.155679 -19.502699 29.516931 1.564441 2.292586 0.046002 -0.009191 -228586.000000 0 0 1
-0.249889 22.190679 -18.136599 28.660511 -1.559536 2.255971 0.033049 -0.002765 -745004.000000 0 0 1
0.808711 21.894179 -17.291299 27.910538 1.533876 2.238935 0.038487 -0.001118 -840127.000000 0 0 1
0.465911 21.925979 -15.776699 27.016104 1.549550 2.194412 0.044369 -0.004304 -243500.000000 0 0 1
-0.324989 20.890179 -15.293599 25.892071 -1.555241 2.202682 0.047897 -0.005536 -276263.000000 0 0 1
-0.527589 20.933479 -13.883699 25.124609 -1.545599 2.156269 0.053853 -0.008919 -153728.000000 0 0 1
-1.434689 19.798579 -13.435399 23.969815 -1.498459 2.165802 0.039542 -0.005397 -334565.000000 0 1 0
-0.855989 18.527279 -13.338099 22.845080 -1.524628 2.194259 0.035624 -0.009572 -31533.300000 0 1 0
-1.831689 17.590079 -12.921599 21.902824 -1.467038 2.201795 0.029216 -0.007025 190527.000000 0 1 0
-1.272689 16.145679 -12.933899 20.726515 -1.492134 2.244682 0.018250 -0.006220 -42973.000000 0 1 0
-0.255989 15.970679 -11.932799 19.937899 -1.554769 2.212422 0.013888 -0.007616 599647.000000 0 1 0
0.390011 14.681179 -11.924099 18.917538 1.544237 2.252761 0.023319 -0.005630 925337.000000 0 1 0
1.054011 14.035879 -13.274899 19.347862 1.495843 2.326934 0.009169 -0.004248 -691749.000000 0 1 0
0.130311 13.928879 -14.291799 19.957108 1.561441 2.369032 0.011726 -0.011933 -574211.000000 0 1 0
0.477311 12.858279 -15.160299 19.884613 1.533692 2.437831 0.013629 -0.014433 -427697.000000 0 1 0
-0.240689 12.865379 -16.481799 20.909940 -1.552090 2.478720 0.019685 -0.007165 -249511.000000 0 1 0
0.175811 13.925479 -17.334299 22.235732 1.558172 2.464775 0.021828 -0.012364 -124691.000000 0 1 0
-0.160989 13.687779 -18.677599 23.156725 -1.559035 2.509129 0.035632 -0.010653 -381232.000000 0 1 0
-0.839589 14.842979 -19.448999 24.480247 -1.514292 2.488943 0.040982 -0.009564 309192.000000 0 1 0
-0.019889 16.020279 -19.531799 25.261451 -1.569555 2.454646 0.030299 -0.015646 225297.000000 0 0 1
-0.779989 17.114179 -19.986199 26.323975 -1.525252 2.432940 0.050707 -0.016492 441786.000000 0 0 1
0.161411 18.376979 -20.051199 27.199081 1.562013 2.399715 0.053591 -0.019309 755751.000000 0 0 1
0.979211 18.285879 -21.210099 28.021430 1.517297 2.429390 0.050927 -0.027048 -113521.000000 0 0 1
1.614311 19.495179 -21.538299 29.095813 1.488179 2.404245 0.051585 -0.021465 -41470.700000 0 0 1
2.075211 19.352579 -23.028599 30.152035 1.463973 2.439898 0.058295 -0.028053 13443.200000 0 0 1
3.164311 18.484079 -23.237099 29.860288 1.401249 2.462581 0.034553 -0.022906 -78234.600000 0 0 1
3.181011 18.102479 -24.661999 30.757646 1.396850 2.501126 0.032632 -0.034946 115064.000000 0 0 1
4.151311 16.939079 -24.884499 30.387564 1.330460 2.530295 0.012174 -0.021085 169767.000000 0 0 1
5.518711 17.154279 -24.535999 30.442416 1.259543 2.508127 0.003028 -0.010085 811621.000000 0 0 1
6.420011 16.128579 -24.997799 30.434151 1.191970 2.534611 0.009555 -0.015271 470821.000000 0 0 1
6.876011 16.359779 -26.430419 31.835341 1.172914 2.550303 0.008984 -0.022163 -1296480.000000 0 0 1
7.893911 17.328079 -26.654809 32.757518 1.143332 2.521286 0.010626 -0.015305 250187.000000 0 0 1
8.271411 17.439779 -28.002359 34.010208 1.127932 2.538088 0.016722 -0.020806 -37989.600000 0 0 1
8.695211 16.113479 -28.740249 34.077160 1.075955 2.574353 0.027635 -0.024015 784902.000000 0 0 1
10.067611 15.687279 -28.420559 33.987876 1.000229 2.561108 0.023580 -0.022979 1787740.000000 0 0 1
10.422311 14.411379 -28.900019 33.934106 0.944669 2.589924 0.027082 -0.018328 -222059.000000 0 0 1
10.109311 13.274079 -27.948819 32.550512 0.919923 2.603386 0.026131 -0.015200 285318.000000 0 0 1
8.722211 12.943879 -27.959049 32.020765 0.977838 2.632431 0.024634 -0.015555 269870.000000 0 0 1
8.350211 12.286379 -26.724979 30.576227 0.973872 2.634262 0.029995 -0.012294 -37703.400000 0 0 1
6.859511 11.940079 -26.784669 30.117053 1.049342 2.666723 0.017060 -0.018086 223160.000000 0 0 1
5.925211 13.015379 -26.824939 30.398776 1.143588 2.651809 0.009152 -0.015166 -473916.000000 0 0 1
4.640811 12.607979 -26.482929 29.695855 1.218102 2.672117 0.010042 -0.011400 -869795.000000 0 0 1
3.558011 13.627579 -26.607299 30.105128 1.315408 2.654747 0.019940 -0.011093 -1360470.000000 0 0 1
3.079011 13.899779 -27.910999 31.332220 1.352801 2.669917 0.025513 -0.017210 474751.000000 0 0 1
3.888911 14.782779 -28.726539 32.540256 1.313554 2.652586 0.026645 -0.026150 239771.000000 0 0 1
3.670611 14.501779 -30.244259 33.741520 1.322888 2.682266 0.045105 -0.028163 117551.000000 0 0 1
4.410311 13.357679 -30.693109 33.763077 1.251895 2.711851 0.036870 -0.027117 132741.000000 0 0 1
4.505411 13.401679 -32.117469 35.091816 1.246484 2.726902 0.042034 -0.025212 -503870.000000 0 0 1
5.579811 12.399479 -32.712149 35.425500 1.147939 2.747660 0.030135 -0.019067 753959.000000 0 0 1
6.934111 12.703879 -32.421759 35.505505 1.071163 2.721736 0.027970 -0.016493 291788.000000 0 0 1
7.386611 12.659579 -31.060689 34.345209 1.042612 2.700691 0.024067 -0.018140 -875102.000000 0 0 1
7.454411 11.288879 -30.310039 33.191949 0.987192 2.721802 0.026890 -0.014075 322992.000000 0 0 1
8.567011 10.442679 -30.636269 33.481700 0.883749 2.726342 0.033240 -0.010844 328897.000000 0 0 1
8.516211 9.270179 -29.848709 32.394560 0.827763 2.742493 0.038007 -0.014573 -336597.000000 0 0 1
9.547311 8.177279 -30.115609 32.633862 0.708256 2.746168 0.032093 -0.011840 -1185090.000000 0 0 1
10.804911 8.555779 -29.723599 32.763391 0.669747 2.707424 0.033069 -0.013587 -1194910.000000 0 0 1
11.690011 7.446579 -29.790799 32.857261 0.567185 2.706126 0.008412 -0.008009 -274279.000000 0 0 1
13.019211 7.680079 -29.039439 32.737937 0.532963 2.661662 0.009942 -0.005327 473693.000000 0 0 1
13.693711 6.398879 -28.722849 32.457132 0.437136 2.657177 0.015300 -0.000051 616284.000000 0 0 1
14.645011 6.042779 -29.727419 33.685471 0.391335 2.651947 0.007439 0.004878 -440495.000000 0 0 1
15.505111 4.879179 -29.224929 33.441162 0.304871 2.634008 0.019846 0.001683 -7364.070000 0 0 1
16.332611 5.187279 -28.121119 32.931131 0.307527 2.594301 0.012605 -0.003836 620627.000000 0 0 1
17.204711 4.101679 -27.736599 32.895969 0.234036 2.573932 0.011315 0.005246 437838.000000 0 0 1
17.890311 4.312279 -26.354869 32.144021 0.236528 2.532032 0.018979 -0.001014 -759040.000000 0 0 1
18.938811 5.192679 -26.430809 32.927650 0.267605 2.502594 0.038602 -0.010119 -557212.000000 0 0 1
19.354711 5.586379 -25.133429 32.210274 0.280995 2.465929 0.041270 -0.015274 285336.000000 0 0 1
20.333111 6.780079 -25.143319 33.039240 0.321856 2.435671 0.039968 -0.019951 141418.000000 0 0 1
19.590311 7.844279 -25.640819 33.207900 0.380865 2.452983 0.045402 -0.019695 849170.000000 0 0 1
20.524911 8.684179 -26.318649 34.487073 0.400264 2.438963 0.047705 -0.028215 56188.900000 0 0 1
20.580111 8.393079 -27.882339 35.656831 0.387234 2.468606 0.059993 -0.021654 110375.000000 0 0 1
19.547711 8.859179 -28.746649 35.874335 0.425518 2.500287 0.053160 -0.014031 770677.000000 0 0 1
18.335111 8.094579 -28.705269 35.009870 0.415746 2.532066 0.047409 -0.013113 -385603.000000 0 0 1
17.190711 8.784279 -29.381179 35.155907 0.472401 2.560274 0.029235 -0.011834 -1091280.000000 0 0 1
17.086811 8.638479 -30.790169 36.257647 0.468089 2.585274 0.022239 -0.002014 271671.000000 0 0 1
16.013011 9.448779 -31.251959 36.364556 0.533085 2.604905 0.014676 0.001021 168471.000000 0 0 1
15.447311 8.851179 -32.582309 37.129095 0.520324 2.641506 -0.005748 0.012975 150985.000000 0 0 1
14.753411 7.612479 -32.504339 36.498562 0.476350 2.669382 -0.002285 0.012417 581246.000000 0 0 1
13.580311 7.641279 -33.326239 36.789295 0.512521 2.704221 -0.008936 0.015247 503616.000000 0 0 1
13.158311 6.207379 -33.608289 36.622258 0.440790 2.733051 -0.005264 0.011634 -125796.000000 0 0 1
12.752511 5.497179 -32.462269 35.307852 0.406998 2.737365 0.005658 0.004226 167405.000000 0 0 1
11.922611 4.415379 -32.846559 35.221310 0.354676 2.772282 0.010295 -0.004802 162377.000000 0 0 1
11.657011 3.435079 -31.739429 33.986424 0.286568 2.775926 0.025863 -0.002900 532551.000000 0 0 1
12.828111 2.634479 -31.480689 34.095963 0.202551 2.747373 0.024556 -0.009956 781309.000000 0 0 1
12.648311 1.599079 -30.560849 33.113477 0.125759 2.746375 0.035400 -0.011092 -165284.000000 0 0 1
11.854111 0.358079 -31.091499 33.276561 0.030198 2.777189 0.041309 -0.009877 160409.000000 0 0 1
12.511111 -0.641121 -31.896209 34.268164 -0.051199 2.767344 0.035938 -0.014208 -118483.000000 0 0 1
13.489511 -1.309521 -31.143979 33.965117 -0.096774 2.731140 0.036676 -0.015094 -62723.100000 0 0 1
14.077611 -2.576521 -31.848649 34.916387 -0.181019 2.719273 0.045753 -0.019058 2666.280000 0 0 1
13.152511 -3.643121 -32.004099 34.792575 -0.270216 2.738505 0.054930 -0.017516 164326.000000 0 0 1
13.625311 -4.733521 -32.793949 35.825946 -0.334362 2.727219 0.053947 -0.021796 -626724.000000 0 0 1
12.733911 -5.938121 -32.773849 35.658645 -0.436345 2.736586 0.060261 -0.010109 -498987.000000 0 0 1
12.720411 -6.593421 -31.521899 34.625311 -0.478207 2.714977 0.054631 -0.008336 -166806.000000 0 0 1
12.245611 -7.851721 -31.539089 34.732098 -0.570155 2.709443 0.064103 -0.010301 -275970.000000 0 0 1
12.695511 -8.733521 -30.311749 34.003713 -0.602574 2.671276 0.046644 -0.004155 628470.000000 0 0 1
14.118411 -8.877621 -30.198149 34.497390 -0.561325 2.637007 0.048272 -0.001900 813880.000000 0 0 1
14.504511 -9.602521 -29.023249 33.836936 -0.584791 2.601651 0.049709 0.003490 7836.210000 0 0 1
14.447111 -11.152321 -29.040279 34.299141 -0.657396 2.580504 0.030620 0.009709 51181.600000 0 0 1
13.121611 -11.595821 -29.298239 34.132485 -0.723747 2.602877 0.020289 0.009819 316673.000000 0 0 1
12.922511 -12.891521 -28.844359 34.134728 -0.784198 2.577390 0.016602 0.001267 -2027.630000 0 0 1
-9.582689 -3.116121 -17.858199 20.504961 0.314397 2.627870 -0.002340 0.003987 -262343.000000 0 1 0
-10.341789 -2.752121 -18.949399 21.762502 0.260089 2.627494 0.000958 0.000182 -1094980.000000 0 1 0
-11.262089 -3.650621 -19.383299 22.712859 0.313464 2.593282 0.003242 0.004689 -934976.000000 0 1 0
-12.212789 -3.124221 -20.434599 24.010119 0.250445 2.588841 0.019525 -0.007717 -765078.000000 0 1 0
-13.127789 -2.166921 -20.014599 24.033697 0.163589 2.554893 0.015865 -0.007409 -103960.000000 0 1 0
-14.083489 -1.969621 -21.059599 25.411233 0.138952 2.547669 0.014027 -0.003247 517096.000000 0 0 1
-15.030389 -0.762621 -20.890699 25.747145 0.050695 2.517304 0.025708 -0.004170 480295.000000 0 0 1
-14.316389 0.479379 -20.964699 25.391089 -0.033472 2.542188 0.030188 -0.015054 282749.000000 0 0 1
-15.206289 1.534579 -20.678299 25.713386 -0.100577 2.505098 0.029689 -0.014213 85396.700000 0 0 1
-14.733589 2.881379 -21.372699 26.118447 -0.193128 2.529242 0.046149 -0.018072 346353.000000 0 0 1
-13.571789 3.570279 -20.938599 25.206453 -0.257238 2.551132 0.048595 -0.014874 384785.000000 0 0 1
-13.348189 4.779079 -21.596999 25.834940 -0.343812 2.560678 0.053270 -0.018884 6684.660000 0 0 1
-12.131189 5.532979 -20.971599 24.851309 -0.427911 2.575276 0.034754 -0.015535 -74439.400000 0 1 0
-12.336089 6.099679 -19.730699 24.055886 -0.459204 2.532561 0.040166 -0.021799 305140.000000 0 1 0
-11.114689 6.375279 -19.084599 22.987005 -0.520774 2.550324 0.015556 -0.015026 49437.000000 0 1 0
-11.383589 7.079179 -17.757899 22.249581 -0.556350 2.494969 0.032465 -0.015000 -74331.900000 0 1 0
-11.831689 8.378179 -17.838699 22.986995 -0.616151 2.459150 0.023099 -0.014082 371404.000000 0 1 0
-12.762189 8.648679 -16.798399 22.800424 -0.595588 2.399060 0.031961 -0.010552 69957.500000 0 1 0
-13.391189 10.057379 -16.771899 23.701717 -0.644169 2.356926 0.029125 -0.004048 178126.000000 0 1 0
-12.598489 10.995979 -16.017099 23.155581 -0.717583 2.334660 0.002502 0.001738 59943.700000 0 1 0
-13.216989 12.210479 -16.005599 24.082437 -0.745835 2.297778 0.006661 -0.006551 -373305.000000 0 1 0
-12.525789 13.398379 -15.238999 23.846154 -0.819045 2.264065 0.010147 0.005526 -290525.000000 0 1 0
-12.721189 13.386779 -13.858099 23.088556 -0.810886 2.214566 0.032251 0.000936 -39359.200000 0 1 0
-12.210089 14.558379 -13.262399 23.171618 -0.872900 2.180172 0.029736 -0.001864 -1159170.000000 0 1 0
-12.812889 14.917779 -11.845499 22.957049 -0.861158 2.112954 0.033497 -0.004943 -61836.700000 0 1 0
-14.106189 15.448779 -11.881499 24.058665 -0.830794 2.087314 0.030940 0.008495 -19883.700000 0 1 0
-15.109389 14.499079 -12.237799 24.254498 -0.764788 2.099666 0.028296 0.011745 -2053680.000000 0 1 0
-16.499589 14.901179 -11.848499 25.192628 -0.734539 2.060445 0.012313 0.023396 -1477990.000000 0 0 1
-17.402189 13.954379 -12.303599 25.474289 -0.675883 2.074852 0.006382 0.013042 1308100.000000 0 0 1
-18.759889 14.271779 -11.848399 26.381844 -0.650352 2.036567 0.043533 0.007114 1200900.000000 0 0 1
-19.963089 13.702679 -12.578299 27.285563 -0.601541 2.049904 0.041101 0.001239 -418435.000000 0 0 1
-20.222389 12.339479 -12.265899 26.676957 -0.547878 2.048559 0.044369 0.003114 190995.000000 0 0 1
-21.295389 11.833079 -13.022899 27.624468 -0.507181 2.061704 0.059080 0.001636 -225004.000000 0 0 1
-22.002689 10.611479 -12.363499 27.378421 -0.449372 2.039330 0.049416 -0.000059 268798.000000 0 0 1
-21.184389 9.421979 -12.291699 26.241911 -0.418488 2.058275 0.040564 -0.004456 593838.000000 0 0 1
-21.816189 8.452879 -11.519399 26.078608 -0.369649 2.028309 0.041247 -0.003612 -763969.000000 0 0 1
-20.948789 7.253479 -11.363499 24.911721 -0.333328 2.044461 0.052084 -0.004669 -651993.000000 0 1 0
-20.880389 6.500879 -12.536499 25.207457 -0.301827 2.091318 0.070922 -0.010795 292140.000000 0 0 1
-19.836089 5.556779 -12.438799 24.063914 -0.273134 2.114030 0.065801 -0.013262 -73312.300000 0 1 0
-19.679789 4.527679 -13.565199 24.327116 -0.226132 2.162308 0.059386 -0.021381 -322483.000000 0 1 0
-20.613489 3.516479 -13.481899 24.880578 -0.168965 2.143450 0.067872 -0.020562 -102617.000000 0 1 0
-20.109289 2.450379 -14.248899 24.767297 -0.121255 2.183781 0.059187 -0.025644 -98279.900000 0 1 0
-20.925989 1.169479 -14.103099 25.261870 -0.055828 2.163103 0.061488 -0.015404 206603.000000 0 0 1
-22.278189 1.327979 -14.514599 26.622450 -0.059538 2.147426 0.044798 -0.017342 331151.000000 0 0 1
-22.874689 0.043179 -14.550499 27.110335 -0.001888 2.137334 0.041966 -0.020706 630917.000000 0 0 1
-24.320889 -0.091921 -15.148899 28.653154 0.003779 2.127864 0.052401 -0.022718 910391.000000 0 0 1
-25.350899 0.424679 -14.326499 29.122105 -0.016750 2.085120 0.059636 -0.026413 8102.040000 0 0 1
-26.601669 0.365779 -14.974299 30.528875 -0.013749 2.083455 0.029904 -0.017304 23907.000000 0 0 1
-27.817309 0.694279 -14.093699 31.191618 -0.024953 2.039626 0.034183 -0.005919 -194228.000000 0 0 1
-28.080699 -0.287621 -13.087499 30.982108 0.010242 2.006911 0.030955 -0.013761 798172.000000 0 0 1
-29.370039 -0.065121 -12.475799 31.910014 0.002217 1.972480 0.040448 -0.012138 775071.000000 0 0 1
-29.504379 -0.782721 -11.119799 31.539990 0.026523 1.931104 0.039677 -0.019367 -520580.000000 0 0 1
-29.558289 -2.208421 -11.130099 31.661470 0.074576 1.930006 0.039345 -0.016280 622737.000000 0 0 1
-28.504809 -2.937421 -11.760399 30.975144 0.102688 1.960238 0.039123 -0.020933 -187927.000000 0 0 1
-28.595269 -4.424521 -11.304899 31.065520 0.153512 1.943253 0.039416 -0.019694 -171207.000000 0 0 1
-29.802189 -5.079921 -11.653799 32.400418 0.168832 1.938722 0.036080 -0.018836 179207.000000 0 0 1
-29.969609 -6.304521 -11.005199 32.542877 0.207341 1.915774 0.053370 -0.025834 -289261.000000 0 0 1
-29.215669 -7.509221 -11.587699 32.314370 0.251581 1.937556 0.062812 -0.024394 -875124.000000 0 0 1
-27.843039 -7.381921 -11.470099 31.004689 0.259164 1.949749 0.045428 -0.013835 -761767.000000 0 0 1
-27.178679 -8.376721 -12.249999 30.966313 0.298971 1.977508 0.057012 -0.019051 91068.700000 0 0 1
-25.671499 -8.584421 -11.992199 29.606266 0.322706 1.987837 0.060954 -0.017522 -63466.800000 0 0 1
-24.855989 -7.460721 -12.378099 28.752389 0.291602 2.015851 0.052437 -0.008922 152689.000000 0 0 1
-23.572389 -7.475221 -11.828999 27.412801 0.307086 2.016966 0.045821 -0.017496 -611880.000000 0 0 1
-23.379589 -7.233421 -10.305599 26.554339 0.300049 1.969360 0.029445 -0.017918 -754660.000000 0 0 1
-23.800589 -5.990321 -9.735999 26.403440 0.246567 1.948449 0.030561 -0.007276 -137195.000000 0 0 1
-25.166999 -5.931621 -9.476399 27.538411 0.231466 1.922093 0.034943 -0.015955 -933196.000000 0 0 1
-25.628849 -4.557421 -8.917899 27.516121 0.175984 1.900854 0.033388 -0.017873 -306641.000000 0 0 1
-25.294849 -4.456621 -7.520299 26.762768 0.174397 1.855631 0.023717 -0.018843 444570.000000 0 0 1
-25.742309 -3.270121 -6.927999 26.858096 0.126356 1.831694 0.038478 -0.024959 -230055.000000 0 0 1
-25.516939 -3.121621 -5.409299 26.270120 0.121730 1.778191 0.036451 -0.022755 347897.000000 0 0 1
-24.161789 -2.981521 -4.994499 24.852093 0.122778 1.773143 0.020674 -0.017260 576153.000000 0 1 0
-24.176989 -2.729121 -3.609299 24.596787 0.112405 1.718067 0.017454 -0.011569 596474.000000 0 1 0
-22.803889 -3.078521 -2.938399 23.197604 0.134189 1.697806 0.008120 -0.009550 490646.000000 0 1 0
-22.670989 -4.472221 -3.017199 23.304034 0.194766 1.700632 0.017417 -0.004903 240746.000000 0 1 0
-21.391489 -4.878121 -2.614399 22.095858 0.224206 1.689395 0.009593 -0.000748 -526218.000000 0 1 0
-21.222589 -6.455921 -2.636899 22.338989 0.295306 1.689112 0.019496 0.002442 -123231.000000 0 1 0
-21.886989 -7.115421 -1.573799 23.068297 0.314321 1.639073 0.024590 0.003396 522446.000000 0 1 0
-22.360289 -8.352021 -2.018199 23.954371 0.357473 1.655148 0.021791 0.006007 -193517.000000 0 1 0
-22.951089 -9.287421 -0.963499 24.777752 0.384518 1.609692 0.024517 0.003101 -460491.000000 0 1 0
-22.010489 -9.788021 -0.078299 24.088859 0.418436 1.574047 0.017603 0.007515 -324163.000000 0 1 0
-22.531789 -10.810321 0.746601 25.002039 0.447342 1.540930 0.019255 0.015975 249344.000000 0 0 1
-21.497289 -11.510121 1.689201 24.443194 0.491582 1.501634 0.033659 0.011576 17877.500000 0 1 0
-20.497089 -12.235321 1.059201 23.894678 0.538159 1.526454 0.027628 0.010297 265745.000000 0 1 0
-19.547489 -12.751721 2.006001 23.425088 0.578022 1.485057 0.028429 0.007385 327906.000000 0 1 0
-18.665789 -13.876621 1.393201 23.300500 0.639280 1.510968 0.024057 0.012080 -256223.000000 0 1 0
-19.360689 -15.077421 1.084501 24.563002 0.661658 1.526630 0.024867 0.012343 70630.100000 0 1 0
-18.610889 -16.064621 0.423401 24.588951 0.712098 1.553576 0.009807 0.011487 -16020.600000 0 1 0
-17.443989 -16.807721 1.124401 24.249877 0.766824 1.524412 0.020127 0.009320 46779.400000 0 1 0
-16.244789 -16.059721 1.143401 22.871711 0.779669 1.520784 0.027537 0.001845 -108074.000000 0 1 0
-15.211889 -16.723221 1.827301 22.680536 0.832688 1.490142 0.037531 -0.000391 53996.900000 0 1 0
-15.038889 -16.609621 3.405401 22.663725 0.834988 1.419967 0.033748 -0.003703 -253964.000000 0 1 0
-14.835489 -15.301821 3.882201 21.663540 0.800871 1.390619 0.031724 -0.009932 243995.000000 0 1 0
-13.898589 -15.214121 4.948401 21.192615 0.830555 1.335124 0.002095 -0.005584 -403393.000000 0 1 0
-14.399389 -15.679121 6.322901 22.207123 0.827919 1.282078 0.027949 -0.002798 -1061460.000000 0 1 0
-15.382889 -14.856021 6.847301 22.454847 0.767976 1.260925 0.024792 -0.004236 -402407.000000 0 1 0
-15.560889 -15.045621 8.254701 23.165752 0.768565 1.206457 0.024728 0.001140 -198625.000000 0 1 0
-16.435889 -16.193121 8.824601 24.702818 0.777958 1.205495 0.021068 0.008683 -477370.000000 0 1 0
-16.056489 -17.499121 8.551401 25.241960 0.828364 1.225179 0.027074 0.006012 -130556.000000 0 0 1
-16.765789 -18.501621 9.287701 26.639502 0.834578 1.214672 0.034720 -0.000236 -77128.200000 0 0 1
-16.316589 -18.785021 10.704601 27.086834 0.855605 1.164515 0.031184 0.006388 -170470.000000 0 0 1
-14.986689 -19.263021 10.703001 26.649935 0.909613 1.157517 0.024798 0.003758 -31656.000000 0 0 1
-14.584889 -19.358221 12.066101 27.074905 0.925109 1.108889 0.020318 -0.005540 -308080.000000 0 0 1
-13.292889 -20.113921 12.396701 27.109941 0.986811 1.095868 0.015664 -0.001123 286341.000000 0 0 1
-12.124289 -19.375221 11.997001 25.813283 1.011649 1.087432 0.005318 -0.003830 -256147.000000 0 0 1
-11.005989 -20.188921 12.269201 26.062571 1.071684 1.080645 0.008149 -0.001777 -3887.170000 0 0 1
-9.797289 -19.328421 12.695401 25.114696 1.101656 1.040839 0.008967 -0.007324 90346.400000 0 0 1
-9.222289 -18.562221 11.623101 23.763483 1.109687 1.059720 -0.000989 -0.011930 -168702.000000 0 1 0
-8.110189 -17.877021 12.181301 23.102968 1.144898 1.015422 -0.005621 -0.011653 -61695.800000 0 1 0
-7.357289 -17.108121 11.118201 21.689442 1.164659 1.032576 -0.008877 -0.017273 -267810.000000 0 1 0
-6.384789 -17.847921 10.441801 21.641281 1.227249 1.067296 -0.007905 -0.013482 -501283.000000 0 1 0
-5.862689 -17.278021 9.283001 20.471327 1.243672 1.100149 -0.000095 -0.012437 -55242.800000 0 1 0
-4.766689 -18.075821 8.538901 20.551629 1.312961 1.142320 -0.001263 -0.008609 831034.000000 0 1 0
-3.554989 -18.225021 9.291401 20.763417 1.378154 1.106841 0.017589 -0.009458 153466.000000 0 1 0
-2.535289 -18.861421 8.543301 20.860702 1.437181 1.148846 0.019940 -0.007050 303897.000000 0 1 0
-1.201989 -19.014721 9.308001 21.204794 1.507667 1.116358 0.018471 -0.017518 220457.000000 0 1 0
-0.264389 -19.723921 8.483801 21.472723 1.557393 1.164623 0.027914 -0.004868 -853543.000000 0 1 0
0.891311 -19.944321 9.216501 21.988958 -1.526136 1.138296 0.029829 -0.006979 -986769.000000 0 1 0
2.034411 -20.356621 8.290601 22.074078 -1.471189 1.185773 0.043551 -0.024085 -408542.000000 0 1 0
1.996211 -21.675021 7.753601 23.106487 -1.478958 1.228597 0.033949 -0.011313 -194293.000000 0 1 0
2.334511 -22.688321 8.709201 24.414341 -1.468262 1.206037 0.035797 -0.013066 19270.800000 0 1 0
1.832011 -24.114721 8.281901 25.562980 -1.494971 1.240863 0.020291 -0.002366 172725.000000 0 0 1
1.940411 -25.035941 9.313601 26.782582 -1.493446 1.215628 0.017386 -0.001178 -300992.000000 0 0 1
1.373011 -26.225451 8.844501 27.710732 -1.518490 1.245940 0.013711 0.004168 -628327.000000 0 0 1
1.533811 -27.480501 9.756101 29.201233 -1.515040 1.230147 0.019705 0.005665 212854.000000 0 0 1
0.754211 -27.441191 10.927401 29.546504 -1.543319 1.191962 0.018860 0.002687 96867.800000 0 0 1
-0.640989 -27.628371 10.724701 29.643835 1.547600 1.200614 0.011438 0.007742 200048.000000 0 0 1
-1.462489 -27.713841 12.020701 30.243894 1.518074 1.162051 0.017986 -0.000373 -35817.100000 0 0 1
-0.945589 -28.793161 12.803401 31.525662 1.537967 1.152585 0.011279 -0.002540 3678.050000 0 0 1
-1.145689 -28.589351 14.154401 31.921946 1.530744 1.111401 0.009618 -0.004924 -412754.000000 0 0 1
-0.681489 -29.713961 15.115601 33.344644 1.547865 1.100316 0.002708 -0.001989 -27000.800000 0 0 1
-0.832789 -29.452751 16.519201 33.779314 1.542528 1.059815 0.006281 0.000748 -23586.400000 0 0 1
-0.401389 -30.570251 17.326101 35.141075 1.557667 1.055211 0.000758 -0.002092 -180181.000000 0 0 1
-0.815289 -30.540161 18.779801 35.861498 1.544107 1.019636 0.000242 -0.000834 -401663.000000 0 0 1
-2.184889 -30.720431 18.994801 36.184542 1.499794 1.018149 0.004020 0.006003 -480124.000000 0 0 1
-2.454089 -30.643031 20.373501 36.879499 1.490881 0.985515 0.014493 0.000660 -195292.000000 0 0 1
-3.941489 -30.454551 20.737301 37.054698 1.442090 0.976845 0.033812 -0.004998 -156952.000000 0 0 1
-4.544689 -29.292921 20.145301 35.840795 1.416877 0.973901 0.033947 -0.008376 -376566.000000 0 0 1
-5.824189 -29.083821 20.660401 36.147503 1.373155 0.962393 0.026521 -0.012682 -303993.000000 0 0 1
-5.849689 -28.127621 21.888801 36.117884 1.365750 0.919726 0.031794 -0.021864 -350413.000000 0 0 1
-5.103489 -28.693931 22.969901 37.108000 1.394777 0.903326 0.030945 -0.022238 78372.300000 0 0 1
-4.922589 -27.647711 23.904101 36.878637 1.394596 0.865601 0.029391 -0.023814 -96974.000000 0 0 1
-3.857189 -27.904721 24.993701 37.659480 1.433440 0.845074 0.033243 -0.022126 53057.600000 0 0 1
-4.189789 -29.013651 25.781201 39.038655 1.427380 0.849443 0.031509 -0.020113 75121.600000 0 0 1
-3.418189 -30.174371 25.483201 39.643035 1.457996 0.872627 0.028570 -0.016480 133710.000000 0 0 1
-3.774889 -31.400171 26.317801 41.144224 1.451152 0.876757 0.033101 -0.011171 -91129.700000 0 0 1
-3.233889 -31.286571 27.621601 41.860010 1.467799 0.850169 0.036683 -0.024700 -27308.500000 0 0 1
-3.721289 -32.240891 28.540101 43.218751 1.455883 0.849493 0.029003 -0.014218 -346770.000000 0 0 1
-3.164189 -32.214431 29.999901 44.133612 1.472888 0.823372 0.049686 -0.023007 -746098.000000 0 0 1
-1.786189 -32.411151 30.006401 44.204720 1.515742 0.824662 0.046188 -0.021156 -706375.000000 0 0 1
-1.333589 -32.149821 31.297901 44.888173 1.529340 0.799254 0.051100 -0.029552 -235501.000000 0 0 1
-27.463609 3.318979 -10.576699 29.616414 -0.120267 1.935982 0.053066 -0.003296 -223870.000000 0 0 1
-28.438219 2.984179 -11.534599 30.833174 -0.104553 1.954219 0.052809 -0.021184 110365.000000 0 0 1
-29.218339 4.086679 -11.970899 31.838887 -0.138965 1.956254 0.049444 -0.012882 681474.000000 0 0 1
-30.231909 3.745579 -13.156499 33.182693 -0.123267 1.978483 0.042951 -0.006738 1069990.000000 0 0 1
-31.262079 2.823179 -12.719499 33.868475 -0.090063 1.955793 0.043609 -0.010046 898908.000000 0 0 1
-32.188349 2.653779 -13.813299 35.127476 -0.082259 1.974942 0.035116 -0.003168 -162768.000000 0 0 1
-33.194479 1.578179 -13.447199 35.849564 -0.047508 1.955302 0.030885 -0.013551 -502135.000000 0 0 1
-32.748729 0.246679 -13.448199 35.403307 -0.007532 1.960438 0.034252 -0.015950 -87151.500000 0 0 1
-33.674209 -0.597121 -12.795399 36.028199 0.017730 1.933870 0.037345 -0.017894 -14177.900000 0 0 1
-33.101279 -1.977921 -12.470999 35.427851 0.059683 1.930515 0.024023 -0.020081 -69082.000000 0 0 1
-32.931389 -2.821621 -13.611999 35.745272 0.085473 1.961464 0.028316 -0.017799 229221.000000 0 0 1
-32.373919 -4.099621 -13.298099 35.238004 0.125963 1.957761 0.029994 -0.017463 -148036.000000 0 0 1
-33.091269 -5.304021 -13.953099 36.302255 0.158933 1.965310 0.035045 -0.016993 -24169.500000 0 0 1
-32.852989 -6.566321 -13.398899 36.082765 0.197270 1.951246 0.038019 -0.024788 218552.000000 0 0 1
-33.330299 -7.538021 -14.338299 37.058297 0.222419 1.968077 0.039743 -0.016524 -431095.000000 0 0 1
-33.254229 -8.980421 -13.745299 37.086722 0.263762 1.950479 0.043326 -0.015131 504131.000000 0 0 1
-31.935789 -9.469921 -13.438799 35.919011 0.288270 1.954267 0.045378 -0.015251 1220930.000000 0 0 1
-31.185429 -9.823221 -14.633399 35.821265 0.305155 1.991619 0.050223 -0.020259 -198468.000000 0 0 1
-30.092079 -10.830421 -14.271599 35.021562 0.345475 1.990521 0.049716 -0.025197 -228165.000000 0 0 1
-30.702819 -12.034421 -13.830399 35.759898 0.373560 1.967909 0.052999 -0.022636 697324.000000 0 0 1
-29.720839 -13.047921 -13.609699 35.196597 0.413682 1.967821 0.061537 -0.019576 306676.000000 0 0 1
-30.179719 -14.319721 -14.391299 36.372783 0.443025 1.977584 0.070481 -0.015921 -337593.000000 0 0 1
-29.761229 -14.241321 -15.723599 36.548291 0.446316 2.015527 0.056962 -0.016533 -53942.900000 0 0 1
-29.953469 -15.447721 -16.377299 37.470766 0.476147 2.023133 0.062203 -0.018629 -263002.000000 0 0 1
-28.948229 -16.629521 -16.083399 37.056938 0.521426 2.019745 0.054750 -0.015164 749152.000000 0 0 1
-27.672679 -16.145821 -16.569199 36.069420 0.528167 2.048082 0.048588 -0.021714 110449.000000 0 0 1
-26.823849 -17.283921 -16.650899 35.993128 0.572392 2.051737 0.052187 -0.019493 161573.000000 0 0 1
-25.419849 -16.807021 -17.110199 34.948585 0.584192 2.082407 0.067057 -0.027755 84540.100000 0 0 1
-25.358949 -16.278421 -18.440799 35.328832 0.570674 2.119962 0.053738 -0.022971 247823.000000 0 0 1
-24.017989 -16.085621 -18.881999 34.527393 0.590122 2.149418 0.038375 -0.013985 -91651.400000 0 0 1
-23.851989 -15.685321 -20.329799 35.046361 0.581707 2.189627 0.029439 -0.005575 -211192.000000 0 0 1
-24.197889 -16.580821 -21.342499 36.276214 0.600736 2.199792 0.031335 -0.016217 332577.000000 0 0 1
-25.568999 -16.516021 -21.700299 37.382558 0.573515 2.190130 0.035042 -0.023598 43562.900000 0 0 1
-26.118099 -17.860721 -22.233599 38.671610 0.599801 2.183319 0.045463 -0.020545 -49078.500000 0 0 1
-25.497329 -18.309121 -23.434099 39.172627 0.622757 2.212082 0.042958 -0.008087 54526.100000 0 0 1
-26.200509 -19.357221 -24.006399 40.465737 0.636302 2.205889 0.037172 -0.021600 -1129420.000000 0 0 1
-25.687739 -19.584621 -25.430289 41.111032 0.651397 2.237725 0.032995 -0.024902 527561.000000 0 0 1
-24.286189 -19.795621 -25.532989 40.418054 0.683879 2.254569 0.032812 -0.021721 76867.200000 0 0 1
-23.976889 -21.089021 -25.107379 40.620420 0.721405 2.237117 0.034818 -0.014475 -190318.000000 0 0 1
-22.428789 -21.332721 -25.124429 39.866935 0.760357 2.252616 0.035564 -0.001539 931944.000000 0 0 1
-21.904789 -21.275221 -26.469669 40.411610 0.770819 2.284981 0.040155 -0.010645 621594.000000 0 0 1
-20.517189 -21.639321 -26.548179 39.925194 0.812010 2.298221 0.025675 -0.005017 698780.000000 0 0 1
-20.058889 -21.411721 -27.993309 40.551772 0.818008 2.332714 0.032822 -0.002079 -402437.000000 0 0 1
-20.487289 -22.427221 -28.871239 41.907728 0.830572 2.330800 0.064025 -0.008065 34391.900000 0 0 1
-20.574489 -21.927321 -30.195449 42.613169 0.817217 2.358300 0.064256 -0.020950 218408.000000 0 0 1
-19.464789 -22.566321 -31.084479 43.062300 0.859056 2.377267 0.064936 -0.030341 292325.000000 0 0 1
-19.679089 -23.867021 -31.689049 44.284276 0.881276 2.368254 0.071242 -0.042896 218984.000000 0 0 1
-18.606689 -24.169321 -32.585279 44.633680 0.914713 2.389207 0.076878 -0.045787 197911.000000 0 0 1
-19.001489 -25.000901 -33.830979 46.158821 0.920905 2.393409 0.081318 -0.026247 491465.000000 0 0 1
-17.947589 -25.069181 34.036339 45.924418 0.949464 0.736032 0.077853 -0.033048 440716.000000 0 0 1
-18.394989 -24.995091 32.685205 45.071641 0.936352 0.759496 0.070111 -0.031967 -796200.000000 0 0 1
-17.280889 -24.706521 31.692335 43.742947 0.960442 0.760469 0.068131 -0.027067 -412711.000000 0 0 1
-16.987789 -23.320521 31.531765 42.739722 0.941232 0.741047 0.047562 -0.025075 -455377.000000 0 0 1
-16.128889 -23.203321 30.444805 41.538191 0.963359 0.748170 0.047973 -0.025508 -84670.800000 0 0 1
-15.261789 -21.924021 30.371235 40.447457 0.962678 0.721401 0.025148 -0.020915 -4555.170000 0 0 1
-16.072889 -20.830921 30.046665 39.938291 0.913621 0.719209 0.024287 -0.020172 -170105.000000 0 0 1
-15.344789 -19.624921 29.963075 38.966472 0.907188 0.693607 0.027181 -0.021964 -112683.000000 0 0 1
-14.998089 -18.948521 31.281825 39.528998 0.901249 0.657759 0.028820 -0.021553 6915.190000 0 0 1
-14.615989 -17.603721 30.986325 38.518443 0.877864 0.636040 0.020675 -0.015677 -154360.000000 0 0 1
-14.090289 -17.043421 32.179405 39.045211 0.879968 0.602083 0.028063 -0.024884 -199529.000000 0 0 1
-13.443889 -15.662221 32.095495 38.159718 0.861466 0.571514 0.030112 -0.024309 -649947.000000 0 0 1
-12.324989 -15.782921 31.274365 37.136126 0.907807 0.569530 0.025961 -0.022026 -631852.000000 0 0 1
-12.049289 -14.517621 30.680355 36.017091 0.878042 0.551332 0.023178 -0.021191 -304194.000000 0 0 1
-10.537089 -14.310121 30.558335 35.349988 0.936096 0.526739 0.031964 -0.019866 -272128.000000 0 0 1
-10.216289 -12.952521 30.513335 34.687230 0.902953 0.495627 0.030645 -0.017267 -776593.000000 0 0 1
-8.907189 -12.723421 30.917235 34.599117 0.960028 0.465528 0.029465 -0.013768 -580869.000000 0 0 1
-8.511889 -11.229621 30.907595 33.968162 0.922204 0.427756 0.022681 -0.011856 -182758.000000 0 0 1
-9.299589 -10.589321 31.879385 34.855577 0.850154 0.416245 0.014465 -0.008978 196256.000000 0 0 1
-8.892489 -9.220921 32.046295 34.511835 0.803528 0.380283 0.007668 -0.009476 265275.000000 0 0 1
-9.829389 -8.332821 32.976376 35.404719 0.703184 0.372523 -0.000266 -0.005419 1291190.000000 0 0 1
-11.127189 -8.007421 32.440655 35.218308 0.623777 0.399822 0.005838 -0.005664 1707090.000000 0 0 1
-12.112589 -7.418821 33.348873 36.247773 0.549552 0.402651 0.011136 -0.008104 874518.000000 0 0 1
-11.928089 -5.934221 33.655790 36.196774 0.461645 0.376925 0.011115 -0.014580 -518944.000000 0 0 1
-12.045289 -5.147121 32.496345 35.037041 0.403829 0.383167 -0.001398 -0.009390 303696.000000 0 0 1
-12.362089 -3.818721 32.915165 35.366820 0.299607 0.374531 0.004266 -0.007757 -260962.000000 0 0 1
-11.821389 -2.678521 31.951865 34.173694 0.222820 0.362582 -0.005479 -0.001055 595717.000000 0 0 1
-10.393489 -2.672921 31.906645 33.663082 0.251718 0.324460 0.006342 -0.006071 509513.000000 0 0 1
-9.974689 -1.561021 31.195395 32.788471 0.155239 0.313002 -0.000285 -0.000496 -1056470.000000 0 0 1
-8.505789 -1.318221 31.436785 32.593827 0.153756 0.267248 0.027546 -0.005207 -942995.000000 0 0 1
-8.217589 -0.714421 32.666475 33.691805 0.086720 0.247339 0.030756 -0.012713 -481342.000000 0 0 1
-6.862289 -0.422221 32.817683 33.530129 0.061450 0.206512 0.045488 -0.019501 -632024.000000 0 0 1
-6.491389 0.115479 34.212135 34.822717 -0.017788 0.187539 0.061076 -0.029925 -135145.000000 0 0 1
-7.047489 1.384479 -34.282681 35.026934 -0.193980 2.935080 0.045355 -0.019360 228683.000000 0 0 1
-6.378689 2.445579 33.898393 34.579901 -0.366113 0.198863 0.055271 -0.016042 -276358.000000 0 0 1
-7.116389 3.806779 33.939868 34.886232 -0.491201 0.233455 0.052255 -0.009048 -244538.000000 0 0 1
-8.404889 3.765179 33.382561 34.629671 -0.421169 0.269188 0.028933 -0.001151 -387288.000000 0 0 1
-9.079989 4.988979 33.498425 35.063950 -0.502419 0.299947 0.016076 0.016981 274495.000000 0 0 1
-10.396989 4.937879 32.663665 34.632283 -0.443394 0.338793 0.000494 0.016854 270924.000000 0 0 1
-11.262989 6.010879 32.964862 35.350639 -0.490230 0.369492 0.007938 0.017833 -483780.000000 0 0 1
-12.448789 5.880779 32.250825 35.066674 -0.441323 0.403480 -0.006350 0.016758 -795785.000000 0 0 1
-13.282389 7.120279 32.158165 35.514332 -0.492085 0.438244 -0.003352 0.010920 -615146.000000 0 0 1
-13.891289 7.408079 33.373429 36.900316 -0.489923 0.440775 0.001728 0.016507 429673.000000 0 0 1
-14.642089 8.676679 33.204482 37.312372 -0.534949 0.473659 0.006400 0.021398 500945.000000 0 0 1
-15.438189 9.118279 -34.412697 38.803536 -0.533502 2.661267 0.010756 0.019248 176879.000000 0 0 1
-14.611589 9.483079 -33.345289 37.620947 -0.575680 2.660196 0.018201 0.012442 396964.000000 0 0 1
-15.513189 9.848679 -32.295549 37.157207 -0.565657 2.624297 0.019714 0.011258 -188401.000000 0 0 1
-14.806189 10.122579 -30.956489 35.777005 -0.599683 2.616469 0.038882 0.004732 181447.000000 0 0 1
-13.964289 11.237979 -30.921039 35.740792 -0.677640 2.616240 0.037998 0.001630 338989.000000 0 0 1
-12.648989 11.114179 -31.460469 35.683091 -0.720900 2.650172 0.039760 -0.000435 123457.000000 0 0 1
-11.857789 12.425079 -31.622979 35.986144 -0.808756 2.644042 0.038353 0.000637 -38164.700000 0 0 1
-12.379589 13.244879 -32.621439 37.320763 -0.819153 2.634341 0.036393 -0.000537 -40069.600000 0 0 1
-11.778089 14.533979 -32.777779 37.740465 -0.889756 2.622974 0.048277 -0.014117 -129120.000000 0 0 1
-11.803189 15.599879 -31.643399 37.201831 -0.923072 2.587897 0.042394 -0.019481 -335396.000000 0 0 1
-12.969489 16.357979 -31.736629 37.986902 -0.900428 2.559770 0.049897 -0.019454 -239921.000000 0 0 1
-12.926989 17.492879 -30.867059 37.760869 -0.934382 2.527740 0.028196 -0.006878 -794073.000000 0 0 1
-14.256889 18.191679 -30.646999 38.385344 -0.906071 2.495436 0.019892 -0.016824 -911692.000000 0 0 1
-14.754089 18.684279 -31.847799 39.762642 -0.902397 2.499673 0.033186 -0.028392 246163.000000 0 0 1
-16.051089 19.270979 -31.755489 40.465036 -0.876305 2.473111 0.030434 -0.028737 491480.000000 0 0 1
-16.338489 20.633679 -31.012389 40.675093 -0.901053 2.437875 0.001690 -0.033072 -764700.000000 0 0 1
-15.707689 21.795179 -31.499909 41.400551 -0.946315 2.435429 0.010520 -0.030549 53096.400000 0 0 1
-16.000489 23.041179 -30.859799 41.704182 -0.963818 2.403821 0.000051 -0.023506 231115.000000 0 0 1
-17.409889 23.630679 -31.144889 42.796230 -0.935830 2.385830 -0.001270 -0.021992 470719.000000 0 0 1
-18.531489 22.906479 -30.706489 42.555979 -0.890588 2.376842 0.009597 -0.023780 -168.750000 0 0 1
-19.490989 22.531279 -31.664709 43.476557 -0.857622 2.386659 0.034643 -0.021703 -699041.000000 0 0 1
-20.687089 21.861279 -30.929849 43.157001 -0.812988 2.369829 0.036923 -0.025757 117745.000000 0 0 1
-21.629089 22.637479 -30.153759 43.468634 -0.808174 2.337396 0.081790 -0.026907 1156140.000000 0 0 1
-22.379989 23.569379 -30.971959 44.895899 -0.811277 2.332094 0.080568 -0.021789 -365554.000000 0 0 1
-23.674689 23.033279 -31.632699 45.734566 -0.771667 2.334579 0.079097 -0.034143 -415398.000000 0 0 1
-23.507889 22.090179 -32.687039 45.924279 -0.754317 2.362796 0.067679 -0.024764 -164516.000000 0 0 1
-24.754589 21.718479 -33.201309 46.763329 -0.720160 2.360275 0.073357 -0.021117 -431674.000000 0 0 1
-24.749889 20.856679 34.370181 47.210882 -0.700240 0.755376 0.058599 -0.006476 -216841.000000 0 0 1
-24.305389 19.528179 -34.370101 46.404801 -0.676841 2.404846 0.061528 -0.009898 289147.000000 0 0 1
-24.193989 18.979879 33.248441 45.288450 -0.665210 0.746385 0.039470 -0.011826 -11919.600000 0 0 1
-23.725389 17.465579 33.228717 44.408199 -0.634582 0.725366 0.024989 0.007845 -395187.000000 0 0 1
-24.743989 16.656279 33.671898 44.983256 -0.592474 0.724934 0.028311 0.008930 -115260.000000 0 0 1
-24.858189 15.503779 32.855584 44.020292 -0.557656 0.728200 0.028564 0.009102 -438810.000000 0 0 1
-25.599279 14.366679 33.543566 44.574604 -0.511412 0.718906 0.022826 0.010699 -350923.000000 0 0 1
-26.919799 14.691079 33.947653 45.748732 -0.499563 0.734679 0.023513 0.008844 205761.000000 0 0 1
-27.873709 13.632879 33.904329 45.959793 -0.454885 0.741146 0.019578 0.008368 359632.000000 0 0 1
-27.766809 12.433079 -34.033479 45.649259 -0.420996 2.412145 0.023035 0.001409 -672198.000000 0 0 1
-26.755779 11.513379 -34.296855 44.996710 -0.406363 2.437514 0.020147 -0.010623 -290399.000000 0 0 1
-27.345199 10.241079 34.354493 45.087368 -0.358342 0.704472 0.019663 -0.004282 -269985.000000 0 0 1
-26.377029 9.057379 -34.290107 44.199493 -0.330766 2.458783 0.018455 -0.010674 347334.000000 0 0 1
-25.344419 8.769779 33.645333 43.026236 -0.333128 0.672972 0.007505 -0.009212 1088470.000000 0 0 1
-24.262389 9.720179 33.517575 42.503802 -0.381047 0.662303 0.000971 -0.011455 -62968.400000 0 0 1
-23.073989 9.214879 32.709175 41.075699 -0.379956 0.649619 0.003230 -0.003378 -334662.000000 0 0 1
-23.288789 9.315779 31.321675 40.127282 -0.380516 0.675238 0.001183 -0.004146 -188140.000000 0 0 1
-22.092489 9.112079 30.625665 38.846356 -0.391194 0.662626 -0.002199 -0.001377 -240506.000000 0 0 1
-22.100089 9.051279 29.100275 37.645260 -0.388719 0.687219 0.008937 -0.006207 -231851.000000 0 0 1
-22.433689 10.266379 28.484365 37.683258 -0.429183 0.713785 0.004973 -0.001146 217272.000000 0 0 1
-22.351889 10.108779 27.097605 36.552353 -0.424729 0.735736 0.001241 -0.003920 -873309.000000 0 0 1
-22.446589 11.456979 26.278015 36.409419 -0.471941 0.764488 0.002033 0.003144 475049.000000 0 0 1
-23.712689 12.126479 26.297335 37.428504 -0.472720 0.791749 0.012602 0.011122 -152453.000000 0 0 1
-24.659989 11.556579 25.475645 37.291796 -0.438244 0.818738 0.011942 0.015238 -519471.000000 0 0 1
-26.081459 12.007779 25.920435 38.682014 -0.431465 0.836466 0.016210 0.016201 184420.000000 0 0 1
-26.364029 13.342979 25.454865 39.000606 -0.468520 0.859682 0.016540 0.015881 345940.000000 0 0 1
-27.606809 13.793579 26.005155 40.356744 -0.463363 0.870582 0.014310 0.011537 528663.000000 0 0 1
-27.928859 15.149879 25.299635 40.615410 -0.497025 0.898343 0.017684 0.007592 169680.000000 0 0 1
-27.067319 16.233079 25.672955 40.684803 -0.540221 0.887928 0.019812 0.004148 129736.000000 0 0 1
-27.121349 17.385679 24.831735 40.674863 -0.570046 0.914113 0.015449 0.006028 -184833.000000 0 0 1
-22.044889 -9.401821 32.258375 40.186740 0.403128 0.638968 0.020102 0.001880 -35321.700000 0 0 1
-21.136389 -8.950521 31.236645 38.763214 0.400570 0.633717 0.020106 0.002409 371893.000000 0 0 1
-21.674589 -9.091421 29.924765 38.051719 0.397161 0.665799 0.015113 0.002773 -331302.000000 0 0 1
-20.600289 -8.902921 28.861255 36.559622 0.407932 0.660917 0.015600 0.002124 -557140.000000 0 0 1
-20.281489 -7.526021 28.590765 35.852637 0.355328 0.647735 0.017359 0.004730 847381.000000 0 0 1
-19.006189 -7.116221 29.111015 35.486998 0.358259 0.608810 0.014055 0.007224 827427.000000 0 0 1
-17.659389 -7.590721 28.495955 34.372845 0.405963 0.593434 0.014401 0.008912 -208406.000000 0 0 1
-17.279589 -8.973321 28.746255 34.719618 0.478970 0.595346 0.017272 0.008423 172224.000000 0 0 1
-16.830189 -9.277021 30.027115 35.650330 0.503774 0.569320 0.013000 0.003010 -523233.000000 0 0 1
-15.369289 -8.988421 30.420875 35.248211 0.529190 0.529525 0.011509 -0.001847 -35992.000000 0 0 1
-14.372089 -9.705421 29.722435 34.411848 0.593953 0.528178 0.020558 -0.005467 -787003.000000 0 0 1
-13.136889 -9.098921 29.941715 33.939277 0.605758 0.490252 0.016421 -0.009730 -527620.000000 0 0 1
-11.931189 -9.854921 29.382395 33.208400 0.690383 0.484757 0.013882 -0.006314 -262975.000000 0 0 1
-11.832589 -9.683221 27.982275 31.887029 0.685831 0.500080 0.031019 -0.010525 26979.200000 0 0 1
-10.674989 -10.344521 27.503005 31.263074 0.769678 0.495506 0.027148 -0.009031 333676.000000 0 0 1
-10.200589 -9.980921 26.062525 29.714071 0.774514 0.500984 0.020680 -0.003274 156690.000000 0 0 1
-11.158389 -10.426521 25.122585 29.400106 0.751505 0.546196 0.020766 -0.000885 262567.000000 0 0 1
-10.712289 -10.211921 23.771235 28.001930 0.761489 0.556869 0.007392 -0.008455 -249060.000000 0 0 1
-11.704189 -10.750821 22.755335 27.755602 0.742967 0.609653 0.011496 -0.009809 -785445.000000 0 0 1
-11.726789 -12.173721 22.662635 28.272108 0.804096 0.640847 0.016875 -0.005201 1403490.000000 0 0 1
-13.029689 -12.722321 22.308935 28.797896 0.773463 0.684599 0.017729 -0.001741 869144.000000 0 0 1
-14.067089 -12.687921 23.423035 30.124822 0.733896 0.680064 0.023001 0.000522 -663922.000000 0 0 1
-15.305889 -13.198821 22.966235 30.592925 0.711612 0.721669 0.018129 0.003492 679237.000000 0 0 1
-16.349589 -13.132721 23.957705 31.839426 0.676716 0.719016 0.016512 0.004740 174947.000000 0 0 1
-17.600689 -13.935421 23.615435 32.583262 0.669693 0.760093 0.019410 0.002902 -783770.000000 0 0 1
-17.341589 -15.287621 23.456835 32.934255 0.722532 0.778123 0.013777 0.000411 188670.000000 0 0 1
-18.507089 -16.053621 23.175035 33.724076 0.714527 0.813175 0.026787 0.004330 578394.000000 0 0 1
-19.477489 -16.263321 24.415805 35.213630 0.695710 0.804652 0.019207 -0.001052 -11931.900000 0 0 1
-18.885689 -16.974121 25.523955 36.003643 0.732142 0.782821 0.017482 -0.003692 347850.000000 0 0 1
-19.756489 -16.872121 26.627575 37.202353 0.706814 0.773099 0.014407 -0.012951 -285708.000000 0 0 1
-19.220489 -17.683821 27.860705 38.188527 0.743783 0.753122 0.017368 -0.014921 -11812.200000 0 0 1
-19.235389 -19.089621 27.639935 38.708911 0.781595 0.775536 0.031366 -0.014968 131483.000000 0 0 1
-18.894589 -19.907921 28.761115 39.755912 0.811507 0.762021 0.036370 -0.017733 -214120.000000 0 0 1
-18.865289 -21.397521 28.432945 40.276363 0.848208 0.787038 0.046522 -0.013978 -1367470.000000 0 0 1
-20.152689 -21.819521 28.278765 41.011107 0.825090 0.809944 0.051142 -0.016030 -1155520.000000 0 0 1
-20.139889 -23.224521 27.937805 41.539312 0.856411 0.833130 0.066097 -0.010071 -456202.000000 0 0 1
-21.421289 -23.716121 27.297955 42.029803 0.836195 0.863882 0.072547 -0.010197 -564438.000000 0 0 1
-22.375589 -24.183021 28.207595 43.372271 0.824199 0.862738 0.059712 -0.008149 -45525.200000 0 0 1
-23.614589 -24.476021 27.599985 43.800497 0.803309 0.889076 0.050506 -0.007471 169175.000000 0 0 1
-24.577089 -25.387971 28.412105 45.341262 0.801626 0.893578 0.032899 -0.003097 -51198.600000 0 0 1
-25.190699 -24.716721 29.526925 46.014421 0.775901 0.874099 0.021521 -0.002326 387821.000000 0 0 1
-25.865109 -25.735371 30.265435 47.405798 0.782884 0.878335 0.013774 -0.007890 -464612.000000 0 0 1
-26.938479 -25.215511 31.201045 48.321929 0.752374 0.868868 0.013460 -0.003224 -665041.000000 0 0 1
-28.151479 -24.875521 30.581565 48.440989 0.723698 0.887548 0.018935 -0.004750 -383162.000000 0 0 1
-28.979499 -24.230621 31.500405 49.185464 0.696386 0.875724 0.016110 -0.008603 -998616.000000 0 0 1
-30.349229 -23.972521 30.906095 49.507011 0.668545 0.896590 0.019252 -0.011011 -783663.000000 0 0 1
-31.315179 -25.019921 30.985555 50.663019 0.674113 0.912714 0.025965 -0.015980 -322176.000000 0 0 1
-32.318489 -24.799721 30.054325 50.623842 0.654515 0.935173 0.019953 -0.019574 -1216850.000000 0 0 1
-33.429879 -25.773591 30.386235 52.011134 0.656790 0.946871 0.016970 -0.020451 -702673.000000 0 0 1
-33.179059 -27.137501 30.082725 52.366633 0.685567 0.958848 0.025569 -0.017235 184446.000000 0 0 1
-34.221720 -27.919571 30.644065 53.755811 0.684327 0.964217 0.030365 -0.022837 226764.000000 0 0 1
-33.742139 -29.321371 31.007675 54.403590 0.715412 0.964344 0.038939 -0.021079 -216346.000000 0 0 1
-33.098829 -29.409231 32.236825 54.769044 0.726441 0.941476 0.040154 -0.017626 -269648.000000 0 0 1
-32.393309 -30.612291 32.376105 55.087666 0.757138 0.942559 0.047173 -0.019999 511567.000000 0 0 1
-31.340409 -30.657361 33.545608 55.203286 0.774381 0.917668 0.039607 -0.017052 256867.000000 0 0 1
-32.006019 -30.656721 -34.098084 55.918683 0.763869 2.226579 0.027502 -0.004623 -232829.000000 0 0 1
-31.149589 -30.808181 -33.003509 54.851368 0.779888 2.216411 0.027536 -0.009680 -209872.000000 0 0 1
-31.840869 -30.311341 -31.730329 54.216530 0.760794 2.195987 0.018998 -0.009454 -133427.000000 0 0 1
-31.881899 -28.909881 -31.533319 53.353415 0.736549 2.203128 0.013555 -0.004445 198990.000000 0 0 1
-30.644239 -28.217041 -31.354129 52.137819 0.744186 2.216011 0.017862 -0.003134 180774.000000 0 0 1
-30.827789 -26.683201 -31.345689 51.428572 0.713457 2.226225 -0.001090 0.004025 -23393.900000 0 0 1
-31.669219 -26.296721 -30.259049 51.088815 0.692978 2.204686 -0.003580 -0.000814 -9928.980000 0 0 1
-31.733509 -24.898621 -29.996539 50.266781 0.665290 2.210237 0.005683 0.005274 95492.900000 0 0 1
-30.472759 -24.271821 -29.326169 48.762019 0.672609 2.216066 0.004780 -0.006241 -94010.900000 0 0 1
-30.408659 -22.853521 -29.181249 47.942833 0.644490 2.225177 0.001568 -0.003000 -296963.000000 0 0 1
-29.344959 -22.480221 -28.345659 46.582865 0.653705 2.224965 0.020691 -0.009530 -422663.000000 0 0 1
-29.056019 -20.969421 -28.351009 45.691887 0.625135 2.240154 0.030129 -0.015062 -253244.000000 0 0 1
-28.443679 -20.574921 -29.546469 45.884247 0.626230 2.270427 0.042418 -0.017559 201767.000000 0 0 1
-28.259919 -19.197021 -29.546549 45.167989 0.596699 2.283852 0.035964 -0.024232 188418.000000 0 0 1
-27.455219 -18.692621 -30.811509 45.305102 0.597751 2.318681 0.047456 -0.017987 859999.000000 0 0 1
-28.255459 -18.517221 -32.019899 46.546024 0.580127 2.329414 0.046966 -0.016927 804533.000000 0 0 1
-29.119319 -17.381221 -32.019799 46.640209 0.538134 2.327499 0.048694 -0.013560 -348226.000000 0 0 1
-29.725099 -17.030621 -33.368659 47.823540 0.520283 2.343042 0.058384 -0.020267 190520.000000 0 0 1
-30.773469 -17.860221 -33.875199 49.127620 0.525866 2.331643 0.058702 -0.021551 934205.000000 0 0 1
-32.072599 -17.352721 -33.534399 49.541139 0.495942 2.314339 0.053729 -0.021098 227772.000000 0 0 1
-33.067449 -17.629121 34.188741 50.725852 0.489796 0.831199 0.054062 -0.025003 -412367.000000 0 0 1
-33.532959 -18.937221 34.255338 51.541302 0.514085 0.843812 0.036053 -0.023581 -340967.000000 0 0 1
-34.258632 -19.307421 33.156067 51.436904 0.513208 0.870300 0.038448 -0.018225 -154703.000000 0 0 1
-34.854668 -20.795721 33.150878 52.405063 0.537946 0.885905 0.018206 -0.017991 456827.000000 0 0 1
-33.866579 -21.781521 32.912384 52.005815 0.571549 0.885555 0.030140 -0.019844 402752.000000 0 0 1
-34.373300 -23.027021 33.325410 53.125798 0.590245 0.892725 0.022984 -0.020435 -64103.800000 0 0 1
-33.150409 -23.974421 33.381178 52.801757 0.626128 0.886409 0.024622 -0.016428 791861.000000 0 0 1
-32.146139 -23.939721 34.389027 52.811833 0.640110 0.861683 0.010078 -0.015975 623353.000000 0 0 1
-31.386589 -22.712221 -34.363261 51.786066 0.626408 2.296366 0.011306 -0.010460 -257896.000000 0 0 1
-30.209909 -22.927321 -33.367649 50.514361 0.649194 2.292358 0.007546 -0.010390 230116.000000 0 0 1
-29.145739 -23.755921 -33.845889 50.590138 0.683865 2.303688 0.006378 -0.006493 1533900.000000 0 0 1
-27.842229 -23.628821 -33.223749 49.369306 0.703721 2.309005 0.013128 -0.010171 1116650.000000 0 0 1
-27.676549 -23.930021 -31.708079 48.415282 0.712927 2.284872 0.018546 0.002709 -1172930.000000 0 0 1
-27.662829 -25.298561 -31.591849 49.023405 0.740786 2.271066 0.014173 0.002549 -115342.000000 0 0 1
-27.183309 -25.648671 -30.322169 48.127129 0.756359 2.252405 0.015499 -0.002006 -247543.000000 0 0 1
-26.583489 -27.071131 -30.206789 48.497197 0.794486 2.243185 0.017636 -0.000959 -216580.000000 0 0 1
-27.542769 -28.088511 -30.293379 49.651358 0.795208 2.227011 0.002007 0.004465 -85313.800000 0 0 1
-27.097579 -29.216631 -29.627729 49.655741 0.823010 2.210132 0.001465 0.001523 -228455.000000 0 0 1
-27.747129 -30.484071 -30.120419 51.053123 0.832365 2.201833 0.004411 0.008679 -192138.000000 0 0 1
-27.216309 -30.943601 -31.357899 51.783702 0.849398 2.221260 0.013808 -0.006294 115533.000000 0 0 1
-27.759809 -32.159271 -31.779019 53.054046 0.858690 2.213040 0.026957 -0.001188 -327584.000000 0 0 1
-27.358459 -32.582691 -33.168109 53.946645 0.872335 2.232969 0.033769 -0.011024 712285.000000 0 0 1
-25.975279 -32.968831 -33.224279 53.530474 0.903493 2.240382 0.017940 -0.011178 540847.000000 0 0 1
-25.635219 -33.283151 34.300721 54.235339 0.914482 0.886094 0.034851 -0.013823 -519035.000000 0 0 1
-24.137689 -33.569651 34.200809 53.658595 0.947410 0.879706 0.028422 -0.016450 -431659.000000 0 0 1
-23.785689 -33.976601 32.877120 52.925168 0.960030 0.900523 0.033263 -0.009773 14926.200000 0 0 1
-22.864989 33.979077 32.966857 52.575651 -0.978481 0.893053 0.025015 -0.003550 -534465.000000 0 0 1
-22.904189 33.095820 31.704765 51.235996 -0.965421 0.903584 0.025736 -0.009878 336909.000000 0 0 1
-24.139889 32.393241 31.629465 51.307693 -0.930365 0.906549 0.039647 -0.021716 288683.000000 0 0 1
-24.072089 31.616641 30.450805 50.063250 -0.920055 0.916947 0.031241 -0.014708 226274.000000 0 0 1
-25.462709 31.000391 30.152245 50.184974 -0.883162 0.926267 0.032702 -0.016529 267575.000000 0 0 1
-25.896589 30.118561 31.184305 50.499722 -0.860628 0.905218 0.036883 -0.020995 170822.000000 0 0 1
-27.093159 29.454051 30.829755 50.517860 -0.827125 0.914389 0.033795 -0.020865 178058.000000 0 0 1
-27.588249 28.385041 31.817825 50.785785 -0.799632 0.893728 0.026187 -0.034499 -269323.000000 0 0 1
-26.831369 27.189281 31.795235 49.700265 -0.792024 0.876637 0.034376 -0.033909 -59142.200000 0 0 1
-27.523499 26.054341 32.273375 49.778935 -0.757984 0.865402 0.027926 -0.022527 23786.800000 0 0 1
-28.487739 25.420121 31.247005 49.336691 -0.728555 0.884932 0.011162 -0.016634 200716.000000 0 0 1
-27.861139 25.095791 29.994965 48.018118 -0.733227 0.896101 0.007182 -0.012305 -549033.000000 0 0 1
-28.741719 24.434431 29.138865 47.667612 -0.704574 0.913103 0.009439 -0.011723 -191613.000000 0 0 1
-28.189269 24.238071 27.733095 46.381500 -0.710175 0.929875 0.019043 -0.016894 382754.000000 0 0 1
-26.861179 23.721701 27.661915 45.270559 -0.723412 0.913428 0.017955 0.000884 226181.000000 0 0 1
-26.655729 23.178301 26.383975 44.089405 -0.715731 0.929269 0.017030 -0.001416 435135.000000 0 0 1
-25.378789 22.268001 26.413085 42.867212 -0.720202 0.906938 0.016180 0.000062 455783.000000 0 0 1
-25.561209 21.080001 27.202745 42.868767 -0.689614 0.883359 0.019193 -0.004556 1189590.000000 0 0 1
-24.309289 20.361401 27.240115 41.803732 -0.697250 0.861079 0.020337 0.001222 764978.000000 0 0 1
-24.282689 19.298401 28.338145 42.013423 -0.671525 0.830506 0.027406 0.000136 -971580.000000 0 0 1
-23.134089 18.542501 28.365475 41.031824 -0.675669 0.807504 0.013141 0.008183 -454374.000000 0 0 1
-23.328989 17.459501 29.273885 41.304191 -0.642479 0.783087 0.008995 0.010403 258684.000000 0 0 1
-22.079189 16.552601 29.503455 40.397191 -0.643304 0.751985 0.005154 0.001444 563463.000000 0 0 1
-21.056589 17.085801 30.344185 40.694890 -0.681667 0.729285 0.025712 -0.003589 585997.000000 0 0 1
-19.895889 16.281201 30.381755 39.799182 -0.685812 0.702272 0.012484 -0.006334 104869.000000 0 0 1
-18.811189 16.757301 31.363915 40.228884 -0.727718 0.676711 0.007810 -0.012255 -442735.000000 0 0 1
-19.034789 16.536801 32.765335 41.344360 -0.715289 0.655902 0.009997 -0.012792 762869.000000 0 0 1
-17.939189 16.997501 33.584091 41.696771 -0.758451 0.634385 0.012904 -0.015378 90942.300000 0 0 1
-18.142689 16.631201 -33.767719 41.785319 -0.741959 2.511756 0.008036 -0.015010 146570.000000 0 0 1
-19.031289 17.439301 -33.027259 41.918004 -0.741775 2.478190 0.019071 -0.015058 -138534.000000 0 0 1
-20.395589 17.153501 -33.208099 42.579343 -0.699269 2.465320 0.030440 -0.010013 -891495.000000 0 0 1
-21.274189 18.067101 -32.405129 42.768021 -0.704058 2.430571 0.048088 -0.007857 -454864.000000 0 0 1
-21.445689 17.650601 -31.079669 41.682216 -0.688631 2.412282 0.042316 -0.009070 251972.000000 0 0 1
-22.359589 18.474101 -30.388199 42.008169 -0.690530 2.379493 0.043757 -0.015352 -323768.000000 0 0 1
-22.601489 18.018401 -28.885489 40.863940 -0.673045 2.355860 0.054470 -0.022617 363441.000000 0 0 1
-23.222589 16.750701 -28.620479 40.484645 -0.624886 2.355968 0.040073 -0.020823 -265065.000000 0 0 1
-24.485789 16.451501 -29.144609 41.468229 -0.591603 2.350147 0.044807 -0.023501 -442408.000000 0 0 1
-25.121019 15.348001 -28.225989 40.783982 -0.548441 2.335170 0.041971 -0.018012 -102940.000000 0 0 1
-24.609389 14.023801 -28.290099 40.032721 -0.517960 2.355583 0.021151 -0.008560 -136956.000000 0 0 1
-25.478849 13.204501 -27.562089 39.789438 -0.478143 2.336020 0.003616 -0.011448 -123572.000000 0 0 1
-25.077289 11.723601 -27.591029 39.084244 -0.437310 2.354542 0.009082 -0.009953 -38143.300000 0 0 1
-24.047989 11.382501 -26.687259 37.683908 -0.442080 2.357724 0.013029 -0.007531 -383153.000000 0 0 1
-23.131889 10.577601 -27.365919 37.361256 -0.428886 2.392736 0.001486 -0.002420 -904840.000000 0 0 1
-22.104589 9.925001 -26.517899 35.920989 -0.422024 2.401237 0.026184 -0.006308 -771060.000000 0 0 1
-22.677889 8.899801 -25.756359 35.452548 -0.373976 2.384015 0.005777 -0.005848 -358740.000000 0 0 1
-21.774389 8.359701 -24.865799 34.092764 -0.366571 2.388178 0.038233 -0.002200 -713981.000000 0 0 1
-22.470589 7.377101 -23.879399 33.609146 -0.317214 2.361009 0.036086 0.001220 16483.900000 0 0 1
-22.848389 6.193001 -24.524499 34.085968 -0.264688 2.373863 0.029638 -0.011357 206073.000000 0 0 1
-23.166589 5.262901 -23.511999 33.424588 -0.223385 2.351014 0.040018 -0.009165 -590309.000000 0 0 1
34.051402 25.332279 -10.293999 43.671372 0.639613 1.808751 -0.008333 0.002096 -289524.000000 0 0 1
35.136845 24.684879 -9.701599 44.023427 0.612426 1.792994 -0.009228 0.001822 -321269.000000 0 0 1
-35.316144 23.689279 -10.504999 43.803732 -0.590843 1.812976 -0.001285 0.004862 171450.000000 0 0 1
-34.177093 22.897279 -9.799999 42.289467 -0.590279 1.804658 0.010653 0.000137 -180589.000000 0 0 1
-34.647420 22.148579 -8.749899 42.042407 -0.568785 1.780450 0.002122 0.002508 1256010.000000 0 0 1
-33.517419 21.729679 -7.902499 40.719109 -0.575186 1.766109 0.001768 0.017499 884900.000000 0 0 1
-34.019459 20.869879 -6.749199 40.477489 -0.550264 1.738318 0.007623 0.033101 -224344.000000 0 0 1
-34.417733 19.630979 -7.160899 40.264552 -0.518351 1.749594 0.006074 0.023994 222111.000000 0 0 1
-34.636038 18.653379 -6.122999 39.813249 -0.494013 1.725202 0.017283 0.003228 -181868.000000 0 0 1
-35.395184 17.419979 -6.645499 40.005467 -0.457353 1.737685 0.020094 0.015696 243348.000000 0 0 1
34.252482 17.669979 -7.053999 39.181878 0.476266 1.751815 0.024138 0.008677 400894.000000 0 0 1
33.720302 16.644779 -7.892599 38.423958 0.458525 1.777677 0.025135 0.014472 587827.000000 0 0 1
32.438302 17.080579 -8.674599 37.672779 0.484666 1.803143 0.012992 0.000314 513890.000000 0 0 1
31.962502 15.979679 -9.493199 36.973943 0.463608 1.830458 0.030701 -0.009843 205391.000000 0 0 1
31.085292 16.457279 -10.505199 36.708263 0.486908 1.861035 0.053234 -0.010915 -118384.000000 0 0 1
30.485402 15.224279 -11.269899 35.890793 0.463164 1.890205 0.040416 -0.006981 808574.000000 0 0 1
29.337592 14.489979 -10.749299 34.441272 0.458760 1.888204 0.037813 -0.007536 1114610.000000 0 0 1
29.444942 13.954779 -9.437699 33.923600 0.442573 1.852721 0.031219 -0.008624 -445750.000000 0 0 1
28.322482 12.911979 -9.182999 32.453192 0.427742 1.857677 0.026671 0.000323 333206.000000 0 0 1
28.643442 11.678379 -9.844899 32.461567 0.387140 1.878928 0.031407 -0.002294 569368.000000 0 0 1
27.555292 10.761779 -9.769999 31.153858 0.372335 1.889783 0.036814 -0.002795 -86730.600000 0 0 1
27.977362 9.375979 -10.315699 31.257885 0.323364 1.907120 0.045336 -0.007804 -779866.000000 0 0 1
28.999032 8.869079 -9.546299 31.792078 0.296806 1.875775 0.044433 -0.007145 -297188.000000 0 0 1
29.047392 7.478079 -9.539099 31.474864 0.251972 1.878709 0.040958 -0.004483 -398857.000000 0 0 1
30.106642 6.857379 -8.584899 32.048932 0.223949 1.841976 0.051800 -0.004142 905689.000000 0 0 1
31.444632 7.194179 -9.009099 33.491565 0.224918 1.843147 0.051515 -0.006211 304449.000000 0 0 1
32.336522 6.837679 -8.018999 34.010423 0.208384 1.808818 0.048074 -0.012852 447668.000000 0 0 1
33.839442 7.014279 -8.476999 35.583247 0.204387 1.811339 0.044634 -0.012869 953884.000000 0 0 1
34.297442 5.996679 -9.348599 36.050950 0.173094 1.833111 0.048820 -0.003766 721538.000000 0 0 1
-35.317997 6.213779 -9.700599 37.149342 -0.174156 1.834983 0.051539 -0.001017 -258603.000000 0 0 1
-34.857485 5.341379 -10.882199 36.905241 -0.152052 1.870114 0.050098 -0.001202 -292620.000000 0 0 1
-33.461349 5.400479 -11.075499 35.658011 -0.160015 1.886624 0.048502 -0.003465 276947.000000 0 0 1
-33.014069 6.498579 -11.874699 35.681490 -0.194358 1.910065 0.036195 -0.002760 -480286.000000 0 0 1
-32.259339 7.531979 -11.014099 34.909970 -0.229373 1.891780 0.040168 0.002946 -623730.000000 0 0 1
-33.073959 8.384679 -10.204999 35.613644 -0.248282 1.861418 0.035175 0.003191 276165.000000 0 0 1
-33.253619 9.618579 -10.835199 36.272879 -0.281565 1.874141 0.036983 0.003590 -261017.000000 0 0 1
-34.262069 10.434079 -10.025999 37.192473 -0.295614 1.843743 0.035334 0.002243 29428.300000 0 0 1
-33.671149 11.052979 -8.878499 36.534126 -0.317180 1.816274 0.027441 0.000920 107809.000000 0 0 1
-34.643689 11.806679 -8.219999 37.512015 -0.328458 1.791719 0.030990 -0.000256 -93821.700000 0 0 1
-34.012029 12.876379 -7.245799 37.082622 -0.361908 1.767458 0.025796 0.001821 226631.000000 0 0 1
-33.230089 13.848079 -7.929099 36.862972 -0.394848 1.787587 0.027485 0.000161 736.465000 0 0 1
-32.750619 14.837379 -7.008899 36.631619 -0.425380 1.763318 0.022447 -0.000721 240702.000000 0 0 1
-31.628629 15.681579 -7.670999 36.126532 -0.460285 1.784762 0.004961 0.001945 42372.600000 0 0 1
-32.169459 16.574179 -8.589399 37.193484 -0.475745 1.803838 0.002685 0.003259 -66045.800000 0 0 1
-31.212949 17.544679 -8.987799 36.916723 -0.512083 1.816729 -0.003099 0.010089 72116.300000 0 0 1
-31.660599 18.681979 -9.923199 38.077286 -0.533086 1.834447 -0.016125 -0.001343 -61015.100000 0 0 1
-31.691559 18.286379 -11.283299 38.289155 -0.523344 1.869924 -0.019658 -0.006128 21264.100000 0 0 1
-32.346209 19.396679 -11.890899 39.546199 -0.540168 1.876206 -0.014113 -0.015140 -262923.000000 0 0 1
-32.219159 19.512579 -13.433999 39.991090 -0.544542 1.913383 -0.019977 0.002402 -111867.000000 0 0 1
-31.104079 20.250879 -13.890999 39.629808 -0.577126 1.928921 -0.022385 -0.003184 77917.900000 0 0 1
-31.135959 20.413879 -15.289299 40.248442 -0.580328 1.960455 -0.024276 -0.007047 -222197.000000 0 0 1
-30.284389 21.687679 -15.666199 40.409521 -0.621472 1.968916 -0.015754 -0.013692 -909642.000000 0 0 1
-28.997559 21.536179 -15.180299 39.180440 -0.638806 1.968656 -0.011961 -0.008975 -633056.000000 0 0 1
-28.331289 22.792679 -14.961599 39.319430 -0.677482 1.961149 -0.001572 -0.010354 53800.600000 0 0 1
-27.681999 23.488279 -16.172299 39.743371 -0.703625 1.989874 -0.013301 -0.007314 -755420.000000 0 0 1
-28.544449 24.073579 -17.160399 41.095037 -0.700633 2.001575 -0.001827 0.000178 228197.000000 0 0 1
-27.832019 24.605979 -18.284699 41.405382 -0.723955 2.028180 -0.007735 -0.000195 66299.700000 0 0 1
-26.986199 25.898379 -18.024899 41.519609 -0.764831 2.019868 0.005646 0.008946 13655.700000 0 0 1
-27.787899 27.018879 -17.702799 42.609579 -0.771368 1.999251 0.006436 0.009051 315128.000000 0 0 1
-27.063689 28.269779 -17.810499 42.998111 -0.807191 1.997877 0.001124 0.014939 111094.000000 0 0 1
-27.764279 29.516179 -17.291499 44.057416 -0.815973 1.974119 -0.008052 0.017603 -293243.000000 0 0 1
-28.159469 29.597679 -15.937099 43.851675 -0.810294 1.942745 -0.009563 0.008570 207902.000000 0 0 1
-27.111199 29.928879 -15.063899 43.100765 -0.834756 1.927838 -0.001875 0.008585 -475935.000000 0 0 1
-27.553649 30.531879 -13.717399 43.353964 -0.836626 1.892733 0.005217 -0.002994 -181831.000000 0 0 1
-27.753999 31.907279 -13.918199 44.520503 -0.854900 1.888751 0.005124 0.002389 140770.000000 0 0 1
-28.226219 32.537379 -12.784199 44.931461 -0.856229 1.859309 -0.003996 -0.005954 -38349.900000 0 0 1
-27.530889 33.912079 -12.602599 45.462121 -0.888883 1.851686 -0.008472 -0.002006 118643.000000 0 0 1
-27.820709 -34.229743 -13.679199 46.182114 0.888321 1.871509 -0.017534 -0.007530 -16184.500000 0 0 1
-26.771589 -33.297743 -13.894499 44.927884 0.893617 1.885213 0.020300 -0.011759 -2563.620000 0 0 1
-26.908249 -32.424643 -15.139099 44.772801 0.878105 1.915727 0.017834 -0.013320 -102264.000000 0 0 1
-26.540309 -33.011043 -16.371099 45.410680 0.893632 1.939613 0.016539 -0.014300 -251427.000000 0 0 1
-26.864589 -32.109343 -17.444899 45.354609 0.874098 1.965607 0.024287 -0.008670 -57289.100000 0 0 1
-26.155619 -32.380443 -18.786199 45.667612 0.891342 1.994751 0.014625 -0.001618 -286054.000000 0 0 1
-26.432519 -33.655043 -19.380999 46.978326 0.905024 1.996050 0.009891 0.002963 -216347.000000 0 0 1
-25.687929 34.272479 -18.921899 46.824254 -0.927602 1.986796 0.005129 0.008551 -775097.000000 0 0 1
-25.954529 32.946079 -19.713899 46.343495 -0.903546 2.010185 0.007907 0.015731 762153.000000 0 0 1
-27.216879 32.274779 -19.677599 46.579263 -0.870213 2.006947 0.000664 0.015146 454863.000000 0 0 1
-28.318459 32.886779 -20.312899 47.917525 -0.859899 2.008559 -0.003632 0.011881 -164767.000000 0 0 1
-29.637649 32.181579 -19.948799 48.083249 -0.826526 1.998608 -0.004049 0.009363 -182365.000000 0 0 1
-29.683589 30.896579 -20.460399 47.479911 -0.805418 2.016317 -0.003279 0.011111 494468.000000 0 0 1
-31.012259 30.403679 -20.432999 47.996368 -0.775489 2.010553 0.005337 0.007310 69722.800000 0 0 1
-31.215049 29.143579 -21.295199 47.720153 -0.751092 2.033369 0.012121 0.002152 -246267.000000 0 0 1
-32.567809 28.798279 -21.514599 48.506505 -0.724048 2.030341 0.019429 -0.005764 244366.000000 0 0 1
-32.606559 27.686479 -22.361099 48.267459 -0.703976 2.052483 0.017944 -0.003998 557940.000000 0 0 1
-34.039859 27.056979 -22.514499 48.966262 -0.671600 2.048562 0.016529 -0.009176 254663.000000 0 0 1
-34.904899 27.853679 -23.243399 50.343172 -0.673513 2.050706 0.004381 -0.000327 -954404.000000 0 0 1
35.007937 27.039779 -23.613299 50.142728 0.657677 2.061132 0.011535 -0.000415 -510611.000000 0 0 1
34.226382 27.560779 -24.849199 50.482912 0.677934 2.085446 0.012100 -0.008953 -191500.000000 0 0 1
34.920963 27.647479 -26.061459 51.604810 0.669669 2.100201 0.015839 -0.001633 -69485.000000 0 0 1
34.016852 28.087879 -27.077319 51.761534 0.690219 2.121300 0.025157 -0.004256 396174.000000 0 0 1
34.748732 28.496979 -28.412429 53.167831 0.686870 2.134584 0.018767 0.000540 335852.000000 0 0 1
35.137747 27.335979 -29.119239 53.196307 0.661161 2.150041 0.005498 0.012981 -149738.000000 0 0 1
-35.162667 27.649679 -30.295649 54.025404 -0.666354 2.166108 -0.021118 0.019167 -835366.000000 0 0 1
-34.745886 26.373179 -31.078499 53.560193 -0.649255 2.189836 -0.029211 0.013758 321717.000000 0 0 1
-33.870739 25.435579 -30.466409 52.176601 -0.644115 2.194332 -0.027082 0.013525 729629.000000 0 0 1
-32.528549 25.910679 -30.332279 51.473459 -0.672635 2.200964 -0.041643 0.018397 278708.000000 0 0 1
-31.590789 25.346579 -29.264879 49.968592 -0.676167 2.196497 -0.034929 0.012408 -225181.000000 0 0 1
-31.206189 23.983979 -29.483249 49.176412 -0.655277 2.213723 -0.015413 0.006382 479345.000000 0 0 1
-32.156479 23.024979 -28.964669 49.021841 -0.621403 2.202911 -0.027636 0.012642 325728.000000 0 0 1
-31.967479 21.566879 -29.452529 48.523205 -0.593510 2.223049 -0.043565 0.000092 366315.000000 0 0 1
-30.604219 21.158979 -29.314279 47.367157 -0.604914 2.238104 0.032467 -0.008926 525825.000000 0 0 1
-30.332909 19.865279 -29.892699 46.992426 -0.579818 2.260252 0.021309 -0.015229 -416097.000000 0 0 1
-28.873419 19.417579 -29.878079 45.863017 -0.592035 2.280308 0.048735 -0.020275 -451866.000000 0 0 1
-28.033409 20.010479 -30.880319 46.258895 -0.619933 2.301715 0.059690 -0.021074 394925.000000 0 0 1
-26.821009 19.320779 -31.122499 45.401200 -0.624260 2.326086 0.060618 -0.026736 41734.400000 0 0 1
-26.850269 18.016679 -31.862319 45.395430 -0.591000 2.348835 0.052348 -0.018818 -446219.000000 0 0 1
-27.333609 16.952279 -31.043659 44.701395 -0.555140 2.338476 0.030384 -0.013527 182423.000000 0 0 1
-27.185029 15.758679 -31.781339 44.692452 -0.525346 2.361875 0.004416 -0.001391 -159840.000000 0 0 1
-27.727469 14.495579 -31.099859 44.115027 -0.481711 2.353180 0.006424 -0.000054 -688687.000000 0 0 1
-29.126359 14.511979 -31.007569 44.948990 -0.462240 2.332063 0.009085 -0.005317 -253804.000000 0 0 1
-29.702599 13.227579 -30.750549 44.752760 -0.418967 2.328315 0.002411 -0.008265 -79174.900000 0 0 1
-29.139099 12.367979 -29.565099 43.314537 -0.401401 2.322067 0.000336 -0.022851 -571107.000000 0 0 1
-29.489179 12.972779 -28.380599 42.934404 -0.414437 2.292977 -0.009051 -0.019147 273734.000000 0 0 1
-29.615579 12.028979 -27.327959 42.054681 -0.385815 2.278143 0.003012 -0.018453 -62839.100000 0 0 1
-29.496889 12.693079 -25.956159 41.290470 -0.406367 2.250578 -0.005532 -0.015634 1046500.000000 0 0 1
-28.116149 12.946479 -25.609559 40.174353 -0.431522 2.261994 0.000784 -0.021277 925045.000000 0 0 1
-27.991039 13.470979 -24.321699 39.452637 -0.448544 2.235059 0.009673 -0.013089 435141.000000 0 0 1
-26.504269 13.833779 -24.028899 38.356717 -0.481049 2.247798 0.030121 -0.012268 252310.000000 0 0 1
-25.966189 15.012479 -24.664199 38.832206 -0.524202 2.258996 0.031553 -0.011794 -87422.100000 0 0 1
-24.580389 15.199579 -24.588899 37.945180 -0.553812 2.275767 0.041524 -0.019739 -190027.000000 0 0 1
-24.017089 15.651079 -23.235299 36.900623 -0.577544 2.251928 0.042427 -0.016554 -576576.000000 0 0 1
-24.474089 16.981379 -23.046599 37.662899 -0.606587 2.229279 0.054109 -0.019158 212096.000000 0 0 1
-24.706389 17.235179 -21.693399 37.122239 -0.609113 2.194909 0.051671 -0.015979 139766.000000 0 0 1
-26.139639 17.220279 -21.109999 37.755143 -0.582523 2.164131 0.043700 -0.012088 -119366.000000 0 0 1
-26.873859 16.020179 -21.102699 37.738234 -0.537565 2.164200 0.044813 -0.010078 389674.000000 0 0 1
-28.104439 16.332379 -20.450799 38.403662 -0.526430 2.132374 0.036220 -0.003591 -628541.000000 0 0 1
-29.135359 15.196279 -20.471199 38.715191 -0.480758 2.127940 -0.004162 -0.005664 -135692.000000 0 0 1
-29.695039 14.875079 -21.773099 39.713111 -0.464390 2.151078 -0.003298 -0.003173 958463.000000 0 0 1
-30.580599 15.901279 -22.306399 41.056049 -0.479503 2.145178 -0.013613 0.002456 -49478.000000 0 0 1
-30.959589 15.913679 -23.825599 42.182941 -0.474796 2.171007 -0.016699 0.003626 -358838.000000 0 0 1
-31.925029 14.956879 -24.129099 42.721530 -0.438132 2.170987 -0.010709 0.007244 -25951.400000 0 0 1
-32.623969 15.258079 -25.319329 44.025001 -0.437472 2.183538 -0.010355 0.005074 644550.000000 0 0 1
-33.936389 14.458579 -25.651079 44.930022 -0.402759 2.178412 -0.003437 0.001800 512541.000000 0 0 1
-33.788509 13.066979 -26.104219 44.652430 -0.369013 2.195195 -0.008497 0.001021 138241.000000 0 0 1
-33.437389 12.093979 -25.142149 43.548260 -0.347051 2.186263 -0.011618 -0.005234 -128894.000000 0 0 1
-33.477259 10.655879 -25.777969 43.574973 -0.308162 2.203810 -0.010883 -0.015579 301485.000000 0 0 1
-34.810748 10.206779 -25.998459 44.630554 -0.285214 2.192629 -0.013836 -0.005154 277771.000000 0 0 1
-34.812162 9.000979 -26.669019 44.767631 -0.253017 2.208959 -0.009907 0.004580 357674.000000 0 0 1
34.810822 8.305179 -26.984509 44.821123 0.234202 2.216861 -0.002181 0.005660 436799.000000 0 0 1
34.109132 7.834079 -25.838339 43.502016 0.225761 2.206765 -0.020657 0.015399 -434177.000000 0 0 1
32.988792 7.107979 -26.226949 42.739170 0.212222 2.231473 -0.011743 0.011318 -557366.000000 0 0 1
32.339372 6.171079 -25.218179 41.471361 0.188556 2.224444 -0.011318 0.012736 -183844.000000 0 0 1
33.232152 5.217179 -24.700299 41.733675 0.155721 2.204155 -0.020814 0.007193 127883.000000 0 0 1
32.608452 4.457479 -23.686699 40.549229 0.135855 2.194625 -0.017336 0.007786 -27338.000000 0 0 1
33.655452 3.609379 -22.965199 40.903758 0.106837 2.166927 -0.020962 0.010822 41339.200000 0 0 1
34.241912 2.649179 -23.845099 41.810470 0.077213 2.177684 -0.018781 0.003706 812638.000000 0 0 1
35.370125 2.034079 -23.186399 42.341378 0.057445 2.150297 -0.009004 0.006845 602568.000000 0 0 1
-35.083764 0.766279 -23.871499 42.441798 -0.021838 2.168145 0.012286 0.005424 -416792.000000 0 0 1
34.936519 -0.237721 -23.882599 42.320154 -0.006804 2.170420 0.003248 0.004249 122847.000000 0 0 1
35.485356 -1.373021 -24.580299 43.188966 -0.038673 2.176248 0.017357 0.000313 364772.000000 0 0 1
-22.243589 29.623079 27.712655 46.263325 -0.926728 0.928520 0.021312 -0.001653 1449610.000000 0 0 1
-23.672589 29.793979 27.360225 46.868481 -0.899392 0.947437 0.005250 -0.002853 2473360.000000 0 0 1
-23.960389 29.242479 26.068595 45.921612 -0.884356 0.967116 -0.003206 0.002822 -536527.000000 0 0 1
-24.171689 27.701279 26.095475 45.084423 -0.853336 0.953523 0.006598 -0.000099 -336777.000000 0 0 1
-25.464129 27.247179 26.449095 45.720731 -0.819212 0.953917 0.005630 0.006770 266538.000000 0 0 1
-25.823609 27.317579 27.830035 46.771997 -0.813504 0.933512 0.013423 0.000890 -673629.000000 0 0 1
-25.192499 26.214379 28.668285 46.300391 -0.805274 0.903098 0.023967 0.004318 28627.300000 0 0 1
-23.815989 26.307079 29.023425 45.843461 -0.835057 0.885247 0.028742 0.005775 299629.000000 0 0 1
-23.559389 27.005279 30.206605 46.869701 -0.853441 0.870453 0.025703 -0.003741 681112.000000 0 0 1
-22.108089 26.817879 30.768745 46.418551 -0.881366 0.846172 0.029441 0.000285 528432.000000 0 0 1
-20.994689 27.319179 30.039625 45.710978 -0.915562 0.853746 0.030129 -0.003802 794328.000000 0 0 1
-19.784689 26.805779 30.626285 45.254315 -0.934971 0.827444 0.042426 -0.005223 504133.000000 0 0 1
-19.246489 25.415679 30.206515 43.918306 -0.922660 0.812358 0.046041 -0.003078 -634243.000000 0 0 1
-18.683489 25.339179 28.939925 42.762904 -0.935450 0.827453 0.039884 -0.002758 -149394.000000 0 0 1
-19.354889 24.547079 27.957525 41.937978 -0.903119 0.841105 0.041313 -0.004893 -74538.800000 0 0 1
-19.269589 23.036979 28.061145 41.102887 -0.874214 0.819338 0.040165 0.008469 94074.600000 0 0 1
-20.065289 22.536679 29.103025 41.922593 -0.843344 0.803477 0.032665 0.000958 -8958.140000 0 0 1
-19.937689 21.116779 29.042805 41.072062 -0.814110 0.785382 0.025465 0.006882 228721.000000 0 0 1
-20.525489 20.458379 30.288445 41.919337 -0.783761 0.763325 0.022596 0.000238 89856.100000 0 0 1
-19.710589 20.850679 31.379335 42.519652 -0.813499 0.740700 0.028397 -0.012846 143900.000000 0 0 1
-20.159489 20.361079 32.618975 43.416311 -0.790373 0.720756 0.029710 -0.013056 -65671.500000 0 0 1
-19.190189 20.692579 33.820147 44.048252 -0.823051 0.695400 0.039154 -0.016636 63954.800000 0 0 1
-19.093389 22.011079 34.217766 44.943304 -0.856262 0.705397 0.036943 -0.012390 -253692.000000 0 0 1
-18.273589 22.784179 33.409627 44.376187 -0.894819 0.718380 0.041252 -0.010326 -569996.000000 0 0 1
-16.785889 22.842679 33.805225 44.117426 -0.937063 0.697803 0.036121 -0.006475 29258.300000 0 0 1
-16.029889 21.642079 33.607204 43.067169 -0.933286 0.675581 0.046481 -0.024129 -178450.000000 0 0 1
-14.670989 21.892879 33.873872 42.918239 -0.980403 0.661185 0.035721 -0.026596 -1102220.000000 0 0 1
-13.859889 20.640479 33.725093 41.898780 -0.979461 0.635259 0.037312 -0.025070 1035700.000000 0 0 1
-12.436489 20.742179 34.041723 41.758150 -1.030689 0.617702 0.023918 -0.019558 1550190.000000 0 0 1
-12.228289 20.722179 -33.391169 41.157137 -1.037683 2.517185 0.032587 -0.030379 -815077.000000 0 0 1
-10.763289 20.531279 -33.004759 40.332319 -1.087946 2.529279 0.014897 -0.021715 -364402.000000 0 0 1
-9.975489 21.692479 -33.175949 40.874413 -1.139774 2.517777 0.009571 -0.022524 -738301.000000 0 0 1
-8.719689 21.397079 -32.648279 39.997226 -1.183826 2.525710 0.000434 -0.017228 -523517.000000 0 0 1
-7.780189 22.650779 -32.643349 40.486755 -1.239938 2.508619 -0.003862 -0.014359 -125467.000000 0 0 1
-7.941089 23.648879 -31.618089 40.274482 -1.246835 2.473597 0.000960 -0.015218 132963.000000 0 0 1
-7.603489 23.280579 -30.294039 38.955452 -1.255116 2.461729 0.005199 -0.017904 -273686.000000 0 0 1
-7.440389 24.564179 -29.460049 39.072404 -1.276685 2.424906 0.003723 -0.021670 112401.000000 0 0 1
-6.354689 25.380179 -29.867719 39.706627 -1.325460 2.422206 0.002874 -0.015365 127645.000000 0 0 1
-6.254889 26.468479 -29.035389 39.783889 -1.338739 2.388866 0.009198 -0.015426 -263600.000000 0 0 1
-4.977189 27.256879 -29.393799 40.394372 -1.390183 2.385716 0.032312 -0.020982 -348749.000000 0 0 1
-3.853389 26.533879 -28.929979 39.444125 -1.426579 2.394168 0.038939 -0.016803 -354133.000000 0 0 1
-2.652189 26.676179 -29.632139 39.958933 -1.471700 2.406196 0.035762 -0.015965 369706.000000 0 0 1
-1.854089 28.007179 -29.275889 40.557581 -1.504692 2.377247 0.046363 -0.024351 -502013.000000 0 0 1
-1.341989 28.105079 -28.010559 39.702491 -1.523084 2.353941 0.051914 -0.033581 -120973.000000 0 0 1
-0.600589 29.265579 -27.884269 40.427309 -1.550277 2.331924 0.050360 -0.032462 -882480.000000 0 0 1
0.126011 29.442679 -26.516239 39.623202 1.566516 2.303941 0.041769 -0.032451 287555.000000 0 0 1
1.105311 28.482379 -26.158869 38.687906 1.532009 2.313322 0.049571 -0.033414 1153680.000000 0 0 1
2.326211 28.513579 -26.960819 39.310574 1.489394 2.326556 0.040005 -0.026257 579000.000000 0 0 1
3.577111 28.532879 -26.053439 38.803384 1.446079 2.306922 0.044085 -0.028263 -173873.000000 0 0 1
3.748011 27.388879 -25.267099 37.451630 1.434797 2.311300 0.056044 -0.029040 -97818.900000 0 0 1
4.985511 27.506079 -24.607299 37.241897 1.391492 2.292604 0.033074 -0.018140 -128996.000000 0 0 1
5.538011 26.250679 -23.850999 35.897603 1.362879 2.297511 0.045325 -0.017931 143258.000000 0 0 1
6.797711 26.536079 -23.288899 35.954766 1.320020 2.275394 0.035669 -0.022752 -452669.000000 0 0 1
7.439911 25.435579 -22.720999 34.907947 1.286234 2.279544 0.040188 -0.014463 63340.300000 0 0 1
8.942411 25.651079 -22.473499 35.256244 1.235354 2.261959 0.034846 -0.000799 -918944.000000 0 0 1
9.178211 26.472579 -21.311399 35.202453 1.237059 2.221059 0.044799 0.003435 444723.000000 0 0 1
10.559611 26.700679 -21.025499 35.587965 1.194192 2.202851 0.064268 0.000073 601458.000000 0 0 1
11.278511 25.490379 -20.407999 34.546355 1.154229 2.202775 0.037857 0.009773 -531827.000000 0 0 1
11.584611 24.572379 -21.445799 34.611087 1.130250 2.239058 0.033105 0.006318 -295724.000000 0 0 1
11.528311 23.256579 -21.023599 33.403026 1.110594 2.251567 0.021401 0.009506 -433504.000000 0 0 1
11.719811 22.143779 -22.036199 33.366075 1.084016 2.292197 0.019762 0.000610 -53648.800000 0 0 1
10.714311 22.156879 -23.021399 33.700275 1.120382 2.322825 0.023911 -0.010964 -132556.000000 0 0 1
11.039211 21.332979 -24.076899 34.009664 1.093269 2.357378 0.017005 -0.024399 278090.000000 0 0 1
10.019211 21.322879 -25.257059 34.539380 1.131533 2.390955 0.029707 -0.023312 643667.000000 0 0 1
8.670311 20.982279 -24.984399 33.758710 1.178945 2.403997 0.020265 -0.022482 382377.000000 0 0 1
7.940711 20.771279 -26.211249 34.373398 1.205647 2.438034 0.017042 -0.017232 326196.000000 0 0 1
6.487011 20.266279 -26.024079 33.616307 1.261013 2.456168 0.006033 -0.019703 714854.000000 0 0 1
5.496111 21.173979 -25.496819 33.595125 1.316832 2.432486 0.027564 -0.018037 349864.000000 0 0 1
5.645511 21.690579 -24.188499 32.976302 1.316171 2.394271 0.028565 -0.017837 -1185750.000000 0 0 1
4.309411 22.091279 -23.598099 32.610825 1.378143 2.379840 0.042764 -0.026270 -475187.000000 0 0 1
3.778411 23.329279 -24.129499 33.775204 1.410231 2.366583 0.038267 -0.025352 -305821.000000 0 0 1
2.403011 23.358679 -23.849999 33.469760 1.468283 2.363970 0.052245 -0.026577 -279612.000000 0 0 1
1.758211 24.588479 -24.557499 34.795910 1.499412 2.354289 0.037176 -0.020253 -70891.300000 0 0 1
0.368311 24.432879 -24.747699 34.778583 1.555723 2.362539 0.046810 -0.039749 -281932.000000 0 0 1
-0.031089 25.352079 -25.744379 36.131730 -1.569570 2.363872 0.038411 -0.029974 987344.000000 0 0 1
-1.568589 25.224979 -26.085369 36.320883 -1.508692 2.371997 0.061082 -0.028952 842266.000000 0 0 1
-1.760289 23.954979 -26.602409 35.841705 -1.497445 2.407172 0.084952 -0.034786 -1246870.000000 0 0 1
-2.953189 23.916179 -27.266819 36.389344 -1.447937 2.417813 0.082319 -0.028989 -954470.000000 0 0 1
-3.430189 22.474779 -27.684579 35.823425 -1.419341 2.454048 0.055602 -0.027671 242367.000000 0 0 1
-2.567489 21.985379 -28.764679 36.295394 -1.454541 2.485720 0.066353 -0.029228 620040.000000 0 0 1
-2.789089 20.647279 -29.191619 35.864185 -1.436526 2.521714 0.049900 -0.025428 -574392.000000 0 0 1
-4.018189 20.371079 -30.070079 36.542254 -1.376047 2.537266 0.032134 -0.015722 -543465.000000 0 0 1
-3.996289 20.694979 -31.430499 37.843477 -1.380040 2.550872 0.024324 -0.013445 -149798.000000 0 0 1
-4.070389 22.093179 -31.682169 38.838595 -1.388602 2.524803 0.041188 -0.018667 -412172.000000 0 0 1
-3.580189 22.511079 -33.071969 40.166174 -1.413076 2.538135 0.031429 -0.012242 -601482.000000 0 0 1
-2.300589 22.054179 -33.357529 40.055016 -1.466857 2.554930 0.039123 -0.011306 -396992.000000 0 0 1
-1.844889 22.352279 34.200419 40.898614 -1.488446 0.580435 0.036534 0.002549 -409849.000000 0 0 1
-0.599189 21.593779 33.782188 40.098460 -1.543055 0.568924 0.032960 0.005145 -485405.000000 0 0 1
-0.922089 20.267879 33.520522 39.182426 -1.525333 0.544283 0.022226 0.003532 126735.000000 0 0 1
0.129911 19.624779 32.835736 38.253554 1.564177 0.538711 0.028101 0.004561 -226679.000000 0 0 1
-0.172589 18.159779 32.500245 37.230005 -1.561293 0.509562 0.019075 0.022827 417606.000000 0 0 1
-1.103189 18.060279 31.417635 36.255461 -1.509788 0.522523 0.007493 0.021451 416742.000000 0 0 1
-1.465389 16.761079 31.064595 35.328320 -1.483590 0.496382 0.007356 0.019893 -167748.000000 0 0 1
-2.298289 16.657679 29.775245 34.195403 -1.433690 0.514095 0.007408 0.023462 1228400.000000 0 0 1
-3.712489 16.996879 29.862675 34.560900 -1.355752 0.527517 0.003013 0.015296 1468480.000000 0 0 1
-4.068089 18.363379 29.563865 35.039765 -1.352785 0.566614 0.005049 0.013935 598601.000000 0 0 1
-5.605489 18.590079 29.782255 35.552711 -1.277935 0.577751 0.004226 0.003893 917935.000000 0 0 1
-6.353089 18.022079 28.690885 34.472075 -1.231881 0.587564 0.004920 0.007441 -561929.000000 0 0 1
-7.681789 18.443779 28.841675 35.085967 -1.176149 0.605832 0.009476 0.001928 -79741.400000 0 0 1
-8.690389 17.721379 27.866755 34.148589 -1.114866 0.616263 0.020187 -0.000650 358045.000000 0 0 1
-9.032389 16.323679 28.136715 33.759758 -1.065400 0.585494 0.028918 -0.007437 480579.000000 0 0 1
-9.931689 16.053179 29.233745 34.798776 -1.016759 0.573366 0.035371 -0.004835 -301549.000000 0 0 1
-10.288489 14.551279 29.416705 34.393826 -0.955354 0.544686 0.031217 -0.004898 3590.010000 0 0 1
-9.307189 13.523079 29.638215 33.880986 -0.968003 0.505827 0.025626 0.004199 -76860.200000 0 0 1
-8.475189 13.740479 30.742235 34.723401 -1.018112 0.483558 0.023260 -0.000143 -381266.000000 0 0 1
-9.014089 13.474379 32.233635 36.080741 -0.981194 0.465995 0.035470 -0.010298 -269573.000000 0 0 1
-9.477889 12.127279 32.382775 35.854503 -0.907417 0.443695 0.030939 0.000734 252178.000000 0 0 1
-9.793589 12.003779 33.737957 37.124855 -0.886450 0.430469 0.025616 0.010672 -229352.000000 0 0 1
-10.253189 10.598279 34.188582 37.233191 -0.801947 0.407212 0.028175 -0.001317 -410506.000000 0 0 1
-9.279589 9.589279 34.189470 36.701293 -0.801809 0.372115 0.025070 -0.002814 -284875.000000 0 0 1
-9.331389 8.738179 -33.546809 35.900125 -0.752581 2.777503 0.046283 -0.007561 22446.600000 0 0 1
-8.425289 9.145179 -32.343019 34.650984 -0.826347 2.774554 0.037978 -0.009857 -97535.100000 0 0 1
-8.896189 10.326079 -31.685239 34.492383 -0.859649 2.735359 0.039677 -0.007312 193188.000000 0 0 1
-7.951789 11.035179 -30.896069 33.757565 -0.946388 2.726884 0.042320 -0.007280 -112981.000000 0 0 1
-7.063289 12.000979 -31.698879 34.622716 -1.038832 2.727673 0.034313 -0.010855 202959.000000 0 0 1
-7.769289 13.191079 -32.090229 35.554876 -1.038519 2.696463 0.037457 -0.010151 604987.000000 0 0 1
-6.819289 14.126679 -32.578609 36.158423 -1.121065 2.692857 0.025192 -0.013078 242079.000000 0 0 1
-7.457189 15.484179 -32.922769 37.138635 -1.121976 2.660485 0.017354 -0.008832 -3534.210000 0 0 1
-8.197089 15.476279 -34.128517 38.359655 -1.083707 2.667480 0.025698 -0.012930 -52923.100000 0 0 1
-8.511789 16.782279 34.400071 39.210462 -1.101414 0.500550 0.029489 -0.016186 -1100350.000000 0 0 1
-9.042389 17.031779 32.948179 38.176285 -1.082725 0.529512 0.038593 -0.021190 656056.000000 0 0 1
-10.309789 16.514179 32.564475 37.940148 -1.012701 0.538826 0.040676 -0.020880 18495.900000 0 0 1
-11.383189 16.987979 33.295009 39.073342 -0.980439 0.550782 0.041551 -0.028751 -1497750.000000 0 0 1
-12.783289 16.504879 32.924093 38.984861 -0.911789 0.565099 0.040736 -0.029924 -349443.000000 0 0 1
-12.751189 15.109379 33.105159 38.559534 -0.869839 0.538368 0.031835 -0.026171 192466.000000 0 0 1
-14.021489 14.524779 33.326258 38.964225 -0.803027 0.544659 0.029405 -0.013090 -238775.000000 0 0 1
-14.178789 12.999579 33.278329 38.437927 -0.742038 0.524113 0.023343 -0.003840 -181893.000000 0 0 1
-14.276089 12.476079 31.961665 37.161906 -0.718215 0.535399 0.003395 -0.003855 -639699.000000 0 0 1
-13.048789 12.012579 31.537345 36.182552 -0.744075 0.512304 0.016408 0.000914 -730902.000000 0 0 1
-13.197589 11.465679 30.106915 34.814716 -0.715291 0.526093 0.013665 0.005781 -291245.000000 0 0 1
-13.990589 10.343479 29.921885 34.612762 -0.636629 0.526690 0.008516 0.009712 -111164.000000 0 0 1
-13.722189 9.767779 28.605535 33.196153 -0.618617 0.532162 -0.008368 0.007212 124686.000000 0 0 1
-14.572989 8.515379 28.264845 32.920892 -0.528815 0.538325 -0.006749 0.009666 124928.000000 0 0 1
-14.232989 7.277079 28.856345 32.988217 -0.472633 0.505883 -0.015529 0.008813 360932.000000 0 0 1
-15.037389 6.248679 28.208685 32.571444 -0.393833 0.523538 -0.011229 0.013329 486758.000000 0 0 1
-14.430989 4.778179 28.277915 32.104905 -0.319744 0.493253 -0.006495 0.013675 817038.000000 0 0 1
-13.278689 4.598179 27.419975 30.811067 -0.333359 0.473585 -0.009329 0.003877 645824.000000 0 0 1
-13.667489 4.400679 26.053195 29.747860 -0.311499 0.503704 -0.013004 0.003724 -491726.000000 0 0 1
-12.518189 4.288579 25.036555 28.318299 -0.330056 0.486206 -0.014862 0.008461 -229132.000000 0 0 1
-11.715289 3.121879 25.162285 27.930891 -0.260427 0.449012 -0.018047 0.003464 113298.000000 0 0 1
-11.308689 2.683579 23.886545 26.564169 -0.232993 0.452855 -0.010787 0.003595 114164.000000 0 0 1
-10.343289 1.438179 24.001575 26.174942 -0.138159 0.410384 -0.010193 0.000185 -187369.000000 0 0 1
-9.008089 1.800279 24.152815 25.840765 -0.197253 0.363442 -0.006459 -0.011843 -465573.000000 0 0 1
-8.208389 0.732979 24.624175 25.966611 -0.089060 0.322956 -0.000983 -0.004893 102392.000000 0 0 1
-6.682289 0.924979 24.582375 25.491209 -0.137548 0.267831 0.002480 -0.007111 -338557.000000 0 0 1
-6.263889 1.034279 23.225635 24.077711 -0.163641 0.266831 0.001615 -0.006245 1305940.000000 0 1 0
-4.937389 1.488579 22.809635 23.385318 -0.292824 0.222346 -0.000806 -0.015847 1347930.000000 0 1 0
-4.448889 2.868979 23.293135 23.887105 -0.572764 0.223470 0.012262 -0.019444 -721993.000000 0 1 0
-4.209089 2.922779 24.666095 25.192763 -0.606956 0.204835 0.012069 -0.018154 -32177.700000 0 0 1
-3.698889 4.183179 25.137105 25.749850 -0.846763 0.218591 0.018793 -0.018691 -179020.000000 0 0 1
4.263211 -23.793821 12.705001 27.308203 -1.393505 1.086885 0.039015 -0.008160 352761.000000 0 0 1
3.847711 -24.893921 13.502201 28.580091 -1.417446 1.078746 0.030884 -0.013655 -680470.000000 0 0 1
2.520111 -25.257511 13.258501 28.637051 -1.471349 1.089437 0.022286 -0.004731 -179739.000000 0 0 1
2.241111 -26.551591 14.054701 30.125474 -1.486590 1.085423 0.015991 0.000454 -29566.700000 0 0 1
2.261611 -26.518671 15.467901 30.783287 -1.485718 1.044335 0.014885 -0.005636 -38892.300000 0 0 1
2.448611 -27.852351 15.939001 32.183861 -1.483108 1.052676 0.019400 -0.007585 -253661.000000 0 0 1
2.202611 -27.970391 17.527401 33.081778 -1.492211 1.012408 0.004648 -0.008339 -349895.000000 0 0 1
3.111811 -27.227431 18.264701 32.933504 -1.457001 0.982922 0.008909 -0.012057 -160322.000000 0 0 1
3.081311 -27.604531 19.627601 34.010988 -1.459633 0.955628 -0.003324 -0.012452 251031.000000 0 0 1
3.691711 -26.505241 20.625501 33.787096 -1.432404 0.914161 -0.003553 -0.009976 84659.100000 0 0 1
2.780311 -25.494741 20.971601 33.128839 -1.462171 0.885333 -0.012143 -0.008662 47250.700000 0 0 1
3.385511 -24.535121 21.817401 33.006557 -1.433676 0.848643 0.000642 -0.015477 167366.000000 0 0 1
2.416811 -23.377521 22.254701 32.366977 -1.467780 0.812653 0.005129 -0.009807 567306.000000 0 0 1
1.899811 -22.376321 21.323101 30.967461 -1.486097 0.811288 -0.003493 -0.011488 437619.000000 0 0 1
2.953511 -21.597721 20.759601 30.102256 -1.434888 0.809810 -0.001312 -0.004161 -31398.200000 0 0 1
2.467811 -20.424221 19.911401 28.630452 -1.450552 0.801733 -0.016387 -0.011979 -2676.290000 0 0 1
2.120611 -19.378021 20.727901 28.454359 -1.461796 0.754723 -0.016958 -0.008201 45865.300000 0 0 1
1.319511 -18.442221 19.993601 27.232347 -1.499370 0.746330 -0.017561 -0.013809 406489.000000 0 0 1
0.872511 -17.154021 20.736401 26.926196 -1.519977 0.691767 -0.005584 -0.008043 543450.000000 0 0 1
1.995211 -16.272221 20.671901 26.383585 -1.448791 0.670496 -0.016763 0.003954 375646.000000 0 0 1
1.692411 -14.989421 21.122301 25.955704 -1.458365 0.620165 -0.003728 0.005027 350062.000000 0 0 1
2.806411 -13.939121 20.802901 25.197931 -1.372119 0.599568 -0.016585 0.012680 78374.300000 0 0 1
3.129011 -13.454121 19.459801 23.863946 -1.342289 0.617294 -0.023566 0.008185 -13539.400000 0 1 0
2.016411 -13.183121 18.618801 22.902409 -1.419019 0.621575 -0.002682 0.010233 277866.000000 0 1 0
1.120711 -11.963021 18.917801 22.411003 -1.477388 0.565856 -0.000171 0.001583 82227.200000 0 1 0
1.809711 -10.678221 18.779901 21.679118 -1.402915 0.523116 0.006422 -0.000859 187497.000000 0 1 0
1.506111 -9.808221 19.901201 22.237971 -1.418430 0.462545 0.011240 0.000046 216241.000000 0 1 0
0.062511 -9.279321 20.050601 22.093807 -1.564060 0.433452 0.014905 -0.001758 180525.000000 0 1 0
-0.100689 -8.371821 21.142101 22.739524 1.558770 0.377060 0.023531 -0.007359 632430.000000 0 1 0
-1.472489 -7.923521 21.182701 22.664007 1.387055 0.363549 0.028273 -0.008200 1060970.000000 0 1 0
-1.783989 -7.165221 22.519401 23.699081 1.326779 0.316847 0.031550 -0.002826 -58203.800000 0 1 0
-2.033189 -7.994221 23.629501 25.027879 1.321744 0.335860 0.029390 0.004421 23576.700000 0 0 1
-2.272289 -7.243421 24.800601 25.936466 1.266815 0.297044 0.030050 0.006962 -49219.100000 0 0 1
-2.238389 -8.022221 26.144001 27.438571 1.298693 0.308404 0.029739 0.004700 -236008.000000 0 0 1
-0.980789 -8.580621 26.401901 27.778578 1.456987 0.316145 0.031272 -0.001137 -345405.000000 0 0 1
-1.036289 -9.890521 26.961701 28.737251 1.466401 0.353363 0.039522 0.001543 -708964.000000 0 0 1
0.338911 -10.520021 27.069601 29.043915 -1.538592 0.370840 0.035284 0.005885 -569790.000000 0 0 1
0.996311 -10.195621 28.292801 30.090296 -1.473386 0.347393 0.021401 0.006792 -254137.000000 0 0 1
2.136211 -10.999421 28.435501 30.563514 -1.378973 0.375364 0.017409 0.013860 -357759.000000 0 0 1
3.103111 -10.524821 29.516901 31.490452 -1.284083 0.355914 0.017889 0.009734 -308899.000000 0 0 1
2.546311 -10.647121 30.801001 32.688630 -1.336051 0.341497 0.018946 0.005054 -286724.000000 0 0 1
3.293311 -10.048121 31.827801 33.538329 -1.254076 0.320755 0.015986 0.007949 -374210.000000 0 0 1
2.626711 -9.940421 33.260001 34.812918 -1.312456 0.299810 0.018409 0.005931 -213188.000000 0 0 1
2.934811 -11.083721 34.037501 35.916757 -1.311951 0.324916 0.013917 0.002638 295331.000000 0 0 1
2.185111 -11.168121 -33.633433 35.506471 -1.377581 2.815334 0.018824 0.003079 -27739.900000 0 0 1
2.829411 -10.313721 -32.474233 34.189973 -1.303049 2.823448 0.010096 0.008610 97641.000000 0 0 1
2.584111 -8.900821 -32.503733 33.799333 -1.288241 2.863817 0.020017 0.000518 313547.000000 0 0 1
3.295011 -8.168221 -31.491233 32.699766 -1.187368 2.868872 0.011926 0.005141 191000.000000 0 0 1
2.834611 -6.651821 -31.273033 32.098043 -1.167960 2.914376 0.004443 -0.007019 74327.600000 0 0 1
3.250311 -5.871221 -32.358333 33.046898 -1.065193 2.937099 0.010322 -0.000635 132158.000000 0 0 1
3.520311 -4.511721 -31.896133 32.405424 -0.908209 2.964068 0.014879 -0.007027 -5373.130000 0 0 1
3.456111 -3.438121 -32.970733 33.329186 -0.782789 2.994799 0.013633 -0.004567 -615906.000000 0 0 1
2.215311 -2.980821 -33.413533 33.619296 -0.931669 3.030898 0.018506 -0.000839 -577639.000000 0 0 1
2.388411 -2.227221 34.270601 34.425849 -0.750490 0.095006 0.028337 -0.000345 -44217.000000 0 0 1
1.925911 -2.940321 32.967401 33.154248 -0.990914 0.106217 0.031551 -0.006922 -88876.300000 0 0 1
0.523111 -2.972521 32.897701 33.035863 -1.396598 0.091489 0.037004 -0.008624 -445158.000000 0 0 1
0.115911 -3.520121 31.691901 31.887008 -1.537880 0.110679 0.042562 -0.003185 -187180.000000 0 0 1
-1.376389 -3.660721 31.358801 31.601736 1.211159 0.124075 0.044037 -0.012349 122649.000000 0 0 1
-2.035589 -2.443921 30.972901 31.135783 0.876302 0.102332 0.049981 -0.011884 391519.000000 0 0 1
-3.438989 -2.615421 30.942301 31.242488 0.650200 0.138735 0.029839 -0.008894 34902.000000 0 0 1
-4.363889 -1.559721 30.398301 30.749519 0.343266 0.151286 0.037368 -0.001632 -437286.000000 0 0 1
-4.276889 -1.456321 28.982701 29.332739 0.328195 0.154643 0.034677 -0.003765 214626.000000 0 0 1
-5.433989 -0.967721 28.303601 28.836757 0.176239 0.192593 0.020770 -0.007992 451197.000000 0 0 1
-5.650689 0.546279 28.391201 28.953221 -0.096375 0.197355 0.024826 -0.005104 420401.000000 0 0 1
-6.855489 0.851379 29.091301 29.900274 -0.123557 0.233146 0.023737 -0.001433 235397.000000 0 0 1
-7.208589 2.253879 29.191401 30.152638 -0.303036 0.253179 0.023115 -0.004919 -603557.000000 0 0 1
-8.521689 2.592779 29.887401 31.186510 -0.295357 0.289650 0.017682 -0.005086 189555.000000 0 0 1
-9.629689 2.116179 29.100601 30.725463 -0.216317 0.326668 0.004800 0.003697 -498386.000000 0 0 1
-10.848389 2.639179 29.473301 31.517111 -0.238643 0.362107 -0.016316 0.006408 -590638.000000 0 0 1
-11.988289 1.987779 28.640401 31.111781 -0.164315 0.401273 -0.023869 0.010340 -165188.000000 0 0 1
-12.153689 0.566079 28.821901 31.284734 -0.046543 0.399445 -0.022243 0.012628 -17946.700000 0 0 1
-12.009989 -0.104121 27.587501 30.088551 0.008669 0.410611 -0.024936 0.011887 -815799.000000 0 0 1
-12.013789 -1.666321 27.828401 30.356674 0.137821 0.411018 -0.023617 0.007569 132141.000000 0 0 1
-10.782189 -2.281221 28.180801 30.259166 0.208498 0.372791 -0.019866 0.006881 425912.000000 0 0 1
-9.677589 -2.188321 27.307801 29.054440 0.222383 0.348506 -0.012376 0.002462 -392919.000000 0 0 1
-9.764189 -2.866921 25.923701 27.849540 0.285590 0.374068 -0.015469 0.005075 -748478.000000 0 0 1
-10.514689 -2.084521 25.016201 27.216065 0.195711 0.404827 -0.020052 0.002946 231195.000000 0 0 1
-10.659489 -2.744621 23.783401 26.207018 0.252008 0.433454 -0.007709 0.002956 -255913.000000 0 0 1
-9.630189 -2.281421 22.728701 24.789902 0.232615 0.410671 0.003240 -0.003228 764886.000000 0 1 0
-8.285789 -2.650921 23.029101 24.617497 0.309645 0.361190 0.008958 0.000002 695161.000000 0 1 0
-7.351389 -2.293921 21.978001 23.288141 0.302465 0.337026 0.008606 -0.008590 545928.000000 0 1 0
-5.893089 -2.412321 22.483401 23.367736 0.388538 0.275991 0.012714 -0.008064 134704.000000 0 1 0
-5.283289 -3.696321 22.487601 23.393762 0.610474 0.279241 0.019742 -0.009155 -131702.000000 0 1 0
-5.748189 -4.566921 23.504001 24.623901 0.671377 0.302751 0.025069 -0.002724 -101979.000000 0 1 0
-5.504389 -6.064821 23.163201 24.568562 0.833802 0.339869 0.022815 -0.001969 12445.900000 0 1 0
-6.421089 -6.586921 22.213301 24.042642 0.798146 0.392613 0.027269 -0.007849 26177.200000 0 1 0
-6.118989 -6.246221 20.877701 22.634834 0.795687 0.396624 0.023995 -0.009857 -536903.000000 0 1 0
-7.304389 -6.283021 19.915301 22.123509 0.710369 0.450597 0.024952 -0.010520 -387244.000000 0 1 0
-8.272989 -5.334021 20.304301 22.564547 0.572677 0.451412 0.027058 -0.007073 -257261.000000 0 1 0
-9.282089 -5.257121 19.300301 22.052123 0.515326 0.504921 0.031368 -0.002966 250166.000000 0 1 0
-9.822089 -3.824621 19.234401 21.933156 0.371326 0.501306 0.020210 -0.010479 -215372.000000 0 1 0
-8.938189 -2.862821 18.722901 20.943590 0.309967 0.464673 0.019556 -0.016283 -586498.000000 0 1 0
-9.453589 -1.548621 18.794301 21.094888 0.162371 0.471383 0.008893 -0.018394 -163808.000000 0 1 0
-8.448789 -0.436321 18.417001 20.267174 0.051597 0.430611 0.002845 -0.011860 690153.000000 0 1 0
-7.335589 -0.127821 19.275501 20.624552 0.017423 0.363691 0.007820 -0.003161 975131.000000 0 1 0
-7.781489 0.702079 20.328201 21.777976 -0.089981 0.366941 0.017549 -0.001349 -2895.310000 0 1 0
-7.587489 2.186079 20.155701 21.647199 -0.280519 0.373380 0.000599 -0.008915 -514890.000000 0 1 0
-8.471689 2.652779 19.164301 21.120539 -0.303463 0.433794 -0.006781 -0.018951 -28907.700000 0 1 0
-8.280289 3.981279 18.794801 20.920285 -0.448181 0.454682 -0.009715 -0.017256 -289360.000000 0 1 0
-9.284389 4.394179 17.704301 20.468291 -0.442050 0.525721 -0.008231 -0.009340 699727.000000 0 1 0
-10.609589 4.550279 18.264501 21.606953 -0.405156 0.563657 -0.005128 0.002110 500422.000000 0 1 0
-11.471989 5.231779 17.396201 21.485014 -0.427872 0.627173 -0.003605 0.016600 -375183.000000 0 1 0
-11.408089 6.774579 17.348901 21.840874 -0.535878 0.652889 -0.008471 0.013361 -893624.000000 0 1 0
-10.238689 7.251379 16.747401 20.925790 -0.616230 0.642962 -0.007682 -0.000412 -101507.000000 0 1 0
-10.352389 8.618379 16.561201 21.347641 -0.694247 0.682837 -0.012538 -0.006526 348490.000000 0 1 0
-9.014889 9.370879 16.824201 21.263474 -0.804758 0.657986 -0.015001 0.000022 148566.000000 0 1 0
-8.662989 9.564579 18.177601 22.292459 -0.834821 0.617351 0.003346 0.011686 256299.000000 0 1 0
-7.712389 10.656579 18.245301 22.492990 -0.944327 0.624672 0.014715 0.005307 497878.000000 0 1 0
-8.299189 12.053779 18.004201 23.201754 -0.967821 0.682522 0.013992 0.006158 5170.630000 0 1 0
-8.189889 12.387679 16.657401 22.315866 -0.986635 0.728104 0.002210 -0.001897 -219066.000000 0 1 0
-9.093589 13.434279 16.407001 23.072990 -0.975746 0.779747 0.017629 -0.008468 -137877.000000 0 1 0
-8.980989 14.013279 14.960601 22.379672 -1.000851 0.838619 0.017193 -0.007346 2007.100000 0 1 0
-7.847989 14.831979 14.925201 22.457519 -1.084120 0.843842 0.017312 -0.000188 -387018.000000 0 1 0
-7.646089 15.414379 13.643601 21.959362 -1.110325 0.900381 0.008750 0.003179 -260232.000000 0 1 0
-6.579989 16.531579 13.530301 22.353040 -1.191993 0.920653 -0.009598 0.003351 321309.000000 0 1 0
-5.219489 16.128579 13.559401 21.707867 -1.257815 0.896138 -0.003983 -0.004795 42073.800000 0 1 0
-4.457389 17.358879 13.554101 22.470261 -1.319448 0.923287 -0.003837 -0.002034 455592.000000 0 1 0
-2.916489 17.173279 13.444401 22.004075 -1.402574 0.913478 0.011228 -0.008321 280763.000000 0 1 0
-2.159589 16.767179 14.555401 22.308335 -1.442703 0.859964 0.017642 -0.006591 -105415.000000 0 1 0
-2.489889 15.415379 14.986201 21.643005 -1.410660 0.805949 0.016615 -0.000416 -806710.000000 0 1 0
-1.497489 14.865479 15.990901 21.884557 -1.470399 0.751459 0.005773 0.001745 926181.000000 0 1 0
-0.217489 14.578879 15.335301 21.160398 -1.555879 0.760173 0.000932 -0.010637 1788640.000000 0 1 0
0.762611 13.884779 16.173601 21.329651 1.515927 0.710143 0.003600 -0.007432 802319.000000 0 1 0
1.732911 14.804979 16.923701 22.552207 1.454277 0.722094 0.004957 -0.001241 -77536.500000 0 1 0
1.069111 15.631779 17.907601 23.794488 1.502509 0.718803 -0.000520 -0.003803 469109.000000 0 1 0
1.978311 16.636779 18.397201 24.882788 1.452440 0.738685 0.012279 -0.003856 253380.000000 0 1 0
1.198711 17.772679 19.098201 26.116016 1.503451 0.750595 0.020587 -0.002315 473373.000000 0 0 1
0.482611 18.687679 18.294301 26.156141 1.544977 0.796201 0.012450 -0.001225 423213.000000 0 0 1
-0.757889 18.271479 17.723201 25.466315 -1.529341 0.801059 0.011289 -0.001117 135332.000000 0 0 1
-1.340789 19.335279 16.721301 25.597903 -1.501563 0.858955 0.014387 0.001204 108067.000000 0 0 1
-1.944589 20.417279 17.448401 26.927558 -1.475840 0.865873 0.007088 0.005279 -53032.500000 0 0 1
-2.663889 21.243879 16.561801 27.068283 -1.446052 0.912396 0.016199 0.003139 -421713.000000 0 0 1
-3.202289 22.425079 17.340901 28.527980 -1.428956 0.917439 0.008597 0.011399 -1065750.000000 0 0 1
-4.303689 22.167579 18.110901 28.946986 -1.379038 0.894822 0.009869 0.011298 -894789.000000 0 0 1
-4.661489 23.230279 18.954601 30.342252 -1.372762 0.896058 0.005571 0.017469 -1822.160000 0 0 1
-5.692289 22.896579 20.031401 30.950161 -1.327128 0.866871 -0.001095 0.016377 300345.000000 0 0 1
-7.029489 22.641279 19.588801 30.753249 -1.269760 0.880239 0.004075 0.013191 331876.000000 0 0 1
-7.892689 22.558679 20.690301 31.611344 -1.234234 0.857247 0.003830 0.004731 1481600.000000 0 0 1
-9.437189 22.831079 20.394101 32.034950 -1.178836 0.880689 0.010416 0.004819 1467130.000000 0 0 1
-9.658189 24.171979 20.078301 32.874053 -1.190668 0.913771 0.018761 0.000355 -171762.000000 0 0 1
-10.898789 24.294779 19.418701 32.956120 -1.149102 0.940692 0.021091 -0.002858 -57626.900000 0 0 1
-11.355289 25.749279 19.397901 34.179621 -1.155457 0.967296 0.033407 -0.006195 223264.000000 0 0 1
-12.074789 25.987579 20.624001 35.305866 -1.135837 0.946961 0.038228 -0.003981 255861.000000 0 0 1
-12.569489 27.296079 20.752801 36.520497 -1.139256 0.966418 0.049010 -0.012067 -163686.000000 0 0 1
-13.372489 27.483879 22.055601 37.691333 -1.117960 0.945714 0.051354 -0.019658 269913.000000 0 0 1
-14.703089 26.974779 22.048401 37.814699 -1.071748 0.948301 0.039763 -0.013684 440002.000000 0 0 1
-15.316989 27.062379 23.320501 38.869374 -1.055761 0.927331 0.030629 -0.003921 1612410.000000 0 0 1
-16.875089 26.739279 23.431701 39.354825 -1.007824 0.933038 0.035476 0.000988 1485070.000000 0 0 1
-17.179489 25.414679 23.180901 38.449901 -0.976383 0.923683 0.038415 0.002296 -958857.000000 0 0 1
-18.534389 25.143779 23.282301 38.958936 -0.935579 0.930278 0.040517 0.009187 -754646.000000 0 0 1
26.309511 23.567779 23.812185 42.598717 0.730484 0.977631 0.032080 0.000923 -76678.700000 0 0 1
26.049711 23.046079 25.128235 42.908477 0.724295 0.945147 0.046816 -0.023768 188379.000000 0 0 1
26.031811 21.650179 25.247295 42.235191 0.693763 0.930069 0.053531 -0.009623 -108422.000000 0 0 1
25.527111 21.224979 26.647795 42.570390 0.693636 0.894421 0.054488 -0.016695 -388447.000000 0 0 1
24.261611 21.754479 26.924435 42.270655 0.730968 0.880257 0.051019 -0.006155 -294167.000000 0 0 1
23.964211 21.470179 28.270585 42.830806 0.730560 0.849908 0.044995 -0.014581 -25885.700000 0 0 1
22.668011 22.090379 28.845085 42.823621 0.772493 0.831756 0.050174 -0.009485 -162265.000000 0 0 1
22.625211 23.480479 29.111195 43.711494 0.803946 0.841983 0.060098 -0.026518 606600.000000 0 0 1
21.464711 23.736879 29.917815 43.809233 0.835623 0.819056 0.078820 -0.025784 470103.000000 0 0 1
21.206411 25.232679 30.237025 44.728935 0.871882 0.828467 0.066383 -0.017864 -397937.000000 0 0 1
20.633111 26.008279 29.180515 44.200207 0.900137 0.849725 0.044946 -0.031259 347470.000000 0 0 1
20.110111 27.321179 29.549975 44.989603 0.936275 0.854205 0.033648 -0.032827 897939.000000 0 0 1
18.747811 27.252779 30.332995 44.880786 0.968222 0.828669 0.041514 -0.029700 662218.000000 0 0 1
17.587511 26.913479 29.557555 43.672702 0.991976 0.827393 0.051877 -0.023931 1189080.000000 0 0 1
16.342911 26.946679 30.262895 43.692757 1.025618 0.805668 0.046595 -0.019349 673401.000000 0 0 1
15.930911 25.677479 31.083575 43.351072 1.015495 0.771279 0.010936 -0.015807 -694241.000000 0 0 1
16.574111 25.474079 32.320275 44.364738 0.993981 0.754648 0.022972 -0.014187 226423.000000 0 0 1
15.888911 24.600179 33.235086 44.296695 0.997319 0.722305 -0.008876 -0.008438 325601.000000 0 0 1
16.753411 24.266879 -34.351597 45.272402 0.966555 2.432228 0.025922 -0.001861 -4503.660000 0 0 1
16.932811 25.493879 -33.644559 45.482022 0.984509 2.403470 0.026147 0.002724 104713.000000 0 0 1
17.174211 25.328679 -32.266389 44.470388 0.974952 2.382659 0.018100 0.012259 -120914.000000 0 0 1
17.379811 26.593279 -31.371879 44.648126 0.991936 2.349907 0.024621 0.006113 -80793.800000 0 0 1
16.235511 27.315779 -30.955279 44.361841 1.034531 2.343105 0.026807 -0.006375 296412.000000 0 0 1
16.645811 28.589279 -30.472809 44.978017 1.043538 2.315161 0.034449 -0.002129 -36887.400000 0 0 1
16.175011 28.834479 -29.040179 44.004433 1.059577 2.291532 0.045233 -0.002374 -183402.000000 0 0 1
16.546911 27.887679 -28.040959 42.869783 1.035287 2.283783 0.040776 0.004982 201534.000000 0 0 1
16.151511 28.314079 -26.765719 42.177744 1.052395 2.258279 0.029298 0.009467 -540902.000000 0 0 1
16.755711 27.359979 -25.748079 41.137402 1.021297 2.247087 0.021706 0.006480 257273.000000 0 0 1
18.115611 27.756679 -25.617769 41.891272 0.992555 2.228789 0.033362 0.011604 64493.500000 0 0 1
18.861411 27.001979 -24.667999 41.150576 0.961065 2.213619 0.032852 0.006286 30511.000000 0 0 1
20.376011 27.242579 -24.745799 42.067737 0.928610 2.199673 0.029310 0.012305 -215888.000000 0 0 1
21.012411 26.759479 -23.577099 41.394091 0.905125 2.176787 0.025546 0.015272 -928558.000000 0 0 1
22.389411 26.766379 -23.807799 42.243770 0.874207 2.169511 0.032366 0.017390 -446220.000000 0 0 1
23.149511 26.582679 -22.473099 41.804053 0.854322 2.138363 0.041198 0.014070 -23975.400000 0 0 1
22.812611 25.411779 -21.815899 40.522922 0.839243 2.139286 0.040164 0.006858 137384.000000 0 0 1
23.440811 25.309679 -20.536099 40.147015 0.823715 2.107752 0.036935 0.002397 -282865.000000 0 0 1
22.901311 24.120479 -19.718099 38.666148 0.811320 2.105932 0.034209 -0.000378 -785289.000000 0 0 1
23.428511 22.859779 -20.006299 38.362959 0.773112 2.119405 0.037271 0.000883 72078.800000 0 0 1
23.187511 21.978379 -18.885999 37.113216 0.758634 2.104674 0.044753 -0.000626 -707695.000000 0 0 1
23.385211 20.488779 -19.328799 36.609570 0.719477 2.127006 0.061624 -0.006200 567377.000000 0 0 1
22.393911 19.974279 -20.241699 36.196484 0.728350 2.164238 0.035912 -0.007974 943091.000000 0 0 1
21.093111 19.861279 -19.659599 35.012706 0.755329 2.166993 0.034210 -0.009368 -126411.000000 0 0 1
19.944811 19.700679 -20.668999 34.829869 0.779240 2.206107 0.042455 -0.004058 -34796.100000 0 0 1
19.869511 20.649979 -21.738099 35.968932 0.804657 2.219756 0.039733 -0.005603 -119626.000000 0 0 1
19.899411 22.089979 -21.439799 36.655405 0.837520 2.195555 0.037994 -0.006360 -166146.000000 0 0 1
19.749711 22.915279 -22.779299 37.868953 0.859458 2.216211 0.039045 -0.001580 548583.000000 0 0 1
18.392511 22.868079 -23.197299 37.407863 0.893446 2.239690 0.048891 -0.010122 -139937.000000 0 0 1
18.107911 23.205779 -24.554099 38.331559 0.908172 2.266038 0.038528 -0.007470 -15278.500000 0 0 1
16.625211 23.168179 -24.972299 37.904853 0.948363 2.290039 0.036594 -0.007011 30615.200000 0 0 1
15.899911 24.233779 -24.355899 37.858857 0.990141 2.269642 0.030160 -0.006573 483511.000000 0 0 1
14.524411 24.158879 -24.737299 37.503919 1.029492 2.291073 0.025655 -0.007941 763993.000000 0 0 1
13.620011 25.195479 -24.000699 37.367772 1.075219 2.268270 0.018279 -0.002368 297907.000000 0 0 1
13.863211 26.505679 -24.474799 38.649132 1.088897 2.256550 0.014185 0.000741 676640.000000 0 0 1
12.822411 27.356579 -23.944099 38.550182 1.132489 2.240961 0.025177 0.006911 619848.000000 0 0 1
12.981711 28.841779 -24.415499 39.956096 1.147858 2.228193 0.024538 -0.000064 32258.800000 0 0 1
12.937911 28.804179 -25.841719 40.802754 1.148635 2.256649 0.019806 -0.006894 -228282.000000 0 0 1
12.313511 29.908279 -26.517539 41.824725 1.180237 2.257532 0.033867 -0.006655 -37859.700000 0 0 1
13.006411 31.294279 -26.563229 43.059305 1.176901 2.235592 0.049989 -0.005755 135883.000000 0 0 1
14.185711 31.308079 -27.361999 43.933008 1.145367 2.243128 0.034497 0.004843 -139105.000000 0 0 1
14.833711 32.524379 -27.176639 44.904832 1.142898 2.220820 0.029813 -0.005018 387834.000000 0 0 1
16.260811 32.427779 -27.842739 45.729563 1.105992 2.225415 0.022306 0.008969 712407.000000 0 0 1
17.145211 31.668379 -27.003779 45.011649 1.074581 2.214208 0.001811 0.012458 178880.000000 0 0 1
18.444811 31.800579 -27.566909 45.950216 1.045201 2.214210 0.015949 0.015415 -54891.400000 0 0 1
19.529511 31.080379 -26.707239 45.394585 1.009788 2.199795 0.008370 0.024076 -517014.000000 0 0 1
19.911111 31.842179 -25.516609 45.403459 1.011977 2.167595 0.011895 0.019497 229251.000000 0 0 1
20.781811 32.946879 -25.689479 46.661867 1.008061 2.153814 0.015444 0.010801 667627.000000 0 0 1
22.268711 32.605279 -26.109409 47.336043 0.971586 2.155048 0.025608 0.016715 459349.000000 0 0 1
22.322511 32.090679 -27.484269 47.785889 0.963025 2.183589 0.018452 0.022429 -81590.900000 0 0 1
23.565811 32.297979 -28.116669 48.877950 0.940455 2.183697 0.021943 0.026034 -526143.000000 0 0 1
23.609611 31.465879 -29.427489 49.127308 0.927088 2.213054 0.006438 0.025666 1036240.000000 0 0 1
22.643811 31.849979 -30.471239 49.554614 0.952758 2.233058 0.014891 0.015995 1563010.000000 0 0 1
21.274611 31.481079 -30.284119 48.588016 0.976504 2.243731 0.010311 0.013156 429696.000000 0 0 1
20.265511 32.189679 -31.211879 49.204144 1.008921 2.257943 0.000197 0.011553 -1090230.000000 0 0 1
19.881211 33.448679 -30.734749 49.585295 1.034520 2.239330 0.010463 0.008011 525774.000000 0 0 1
18.954011 34.196479 -31.570509 50.252868 1.064682 2.250076 0.006483 0.000424 728827.000000 0 0 1
17.473611 33.719479 -31.475519 49.325842 1.092691 2.262843 0.013025 -0.002323 -300120.000000 0 0 1
17.183411 32.406479 -31.983789 48.666336 1.083246 2.287902 0.016392 -0.003569 74388.900000 0 0 1
17.540211 32.064879 -33.345119 49.474361 1.070242 2.310390 0.024184 -0.008931 -756924.000000 0 0 1
16.806611 32.874479 34.410241 50.470370 1.098201 0.820588 0.024971 -0.011833 -186261.000000 0 0 1
17.204211 34.241079 34.306580 51.433236 1.105196 0.840605 0.016779 -0.006885 21675.300000 0 0 1
17.061311 -34.148343 33.037569 50.484439 -1.107450 0.857393 0.016388 -0.015126 22808.300000 0 0 1
15.655911 -33.571743 32.740535 49.437962 -1.134436 0.846972 0.023294 -0.011972 -300927.000000 0 0 1
14.668611 34.485479 32.434395 49.562147 1.168624 0.857383 0.031113 -0.016457 -626592.000000 0 0 1
13.382011 -33.990843 32.476885 48.879481 -1.195737 0.844068 0.026646 -0.008168 -450998.000000 0 0 1
12.830311 -33.469843 31.150965 47.489261 -1.204734 0.855345 0.018480 -0.001915 -1054660.000000 0 0 1
13.488111 -32.333043 30.720745 46.595268 -1.175583 0.850895 0.025588 -0.005249 114619.000000 0 0 1
12.881611 -31.763443 29.572245 45.269967 -1.185516 0.858938 0.024092 -0.008856 -21177.200000 0 0 1
13.343311 -30.324943 29.378755 44.280440 -1.156280 0.845349 0.025446 -0.011547 -87010.300000 0 0 1
12.827511 -29.428743 30.343435 44.173748 -1.159743 0.813566 0.024774 -0.004790 195163.000000 0 0 1
13.321011 -28.167143 30.105165 43.326184 -1.129040 0.802586 0.036607 -0.013969 -466527.000000 0 0 1
12.904211 -27.234443 31.233625 43.402452 -1.128312 0.767530 0.023889 -0.005585 -87967.900000 0 0 1
11.560511 -26.822443 31.317555 42.823803 -1.163853 0.750553 0.016464 -0.004866 -278162.000000 0 0 1
11.277511 -25.693943 30.533065 41.468410 -1.157197 0.743215 0.011341 -0.001425 -228342.000000 0 0 1
11.540211 -24.303643 31.217855 41.211625 -1.127483 0.711319 0.016853 -0.011016 -178851.000000 0 0 1
10.674611 -23.970143 32.269035 41.590933 -1.151833 0.682708 0.013800 -0.010604 -90110.600000 0 0 1
11.029711 -22.735143 32.817725 41.419130 -1.119108 0.656173 0.010907 -0.007991 1018960.000000 0 0 1
9.842611 -22.310343 33.801202 41.679128 -1.155311 0.624960 -0.000111 -0.006155 312741.000000 0 0 1
9.766111 -23.038643 -33.832499 42.080803 -1.169857 2.504770 -0.003385 0.001767 -307957.000000 0 0 1
10.860311 -23.130443 -32.952849 41.699569 -1.131825 2.482004 0.003184 -0.001320 -198686.000000 0 0 1
11.462411 -21.853443 -32.367329 40.701399 -1.087731 2.490198 0.008718 -0.015774 -310011.000000 0 0 1
12.039511 -21.056643 -33.354579 41.241484 -1.051395 2.512842 -0.001693 -0.012127 264233.000000 0 0 1
13.014411 -20.107943 -32.887599 40.685359 -0.996373 2.512123 0.006819 -0.022987 300649.000000 0 0 1
13.296311 -18.977543 -33.875629 41.042628 -0.959645 2.541665 -0.001217 -0.015064 -605308.000000 0 0 1
14.078711 -19.387243 33.866160 41.484842 -0.942712 0.615733 0.016439 -0.007864 436840.000000 0 0 1
13.915411 -18.563143 32.752575 40.136767 -0.927535 0.616297 0.000804 -0.003106 -241845.000000 0 0 1
14.863111 -17.358843 32.752915 39.937388 -0.862698 0.609199 0.015018 -0.005453 -862619.000000 0 0 1
14.493011 -16.343543 33.703167 40.162946 -0.845337 0.575058 0.012963 -0.007655 361112.000000 0 0 1
15.197011 -15.123043 33.560557 39.824196 -0.782959 0.568485 0.033348 -0.008743 -836882.000000 0 0 1
16.647211 -15.116543 34.034056 40.791622 -0.737246 0.583863 0.039957 0.004653 -471715.000000 0 0 1
17.481611 -15.758643 33.054653 40.577723 -0.733611 0.618755 0.050141 -0.004330 -323559.000000 0 0 1
18.785511 -15.868143 33.553202 41.599408 -0.701410 0.632455 0.064955 0.000449 -328352.000000 0 0 1
19.785811 -16.533443 32.569485 41.540395 -0.696087 0.669642 0.087094 -0.009293 -505355.000000 0 0 1
19.974911 -15.749743 31.388895 40.401908 -0.667675 0.681044 0.065719 -0.003057 382165.000000 0 0 1
20.694111 -16.438043 30.403995 40.284717 -0.671277 0.715557 0.063960 -0.005157 -416937.000000 0 0 1
20.950611 -15.574543 29.082095 39.080209 -0.639259 0.731513 0.045768 0.005818 -255702.000000 0 0 1
21.846111 -14.496343 29.197865 39.241710 -0.585853 0.731682 0.028002 0.003469 292721.000000 0 0 1
22.146511 -14.003643 27.943915 38.307080 -0.563845 0.753248 0.022172 -0.000833 -123952.000000 0 0 1
22.851411 -12.631243 28.013925 38.295108 -0.504956 0.750237 0.011368 0.002463 -351659.000000 0 0 1
22.096811 -11.615643 28.574645 37.943412 -0.483973 0.718057 0.017868 -0.002399 289124.000000 0 0 1
22.908411 -10.470743 28.869245 38.312727 -0.428718 0.717403 0.012165 0.002282 476887.000000 0 0 1
22.018211 -9.222943 28.987995 37.552206 -0.396674 0.688911 0.024442 -0.006233 -180735.000000 0 0 1
21.036811 -9.139843 29.978395 37.746368 -0.409864 0.653096 0.033712 -0.015771 -441982.000000 0 0 1
20.207011 -8.057543 29.665135 36.786785 -0.379428 0.632745 0.045157 -0.018731 -615220.000000 0 0 1
19.001411 -7.869143 30.576265 36.849491 -0.392632 0.592117 0.032723 -0.010530 -634051.000000 0 0 1
19.180411 -7.510443 31.909835 37.980686 -0.373217 0.573219 0.034430 -0.012061 -60569.300000 0 0 1
19.534911 -8.577343 32.796064 39.124997 -0.413734 0.576752 0.037611 -0.017138 -483160.000000 0 0 1
19.742511 -8.093843 34.216536 40.324290 -0.389072 0.557588 0.045816 -0.021199 134904.000000 0 0 1
18.519011 -7.663343 -34.041329 39.503072 -0.392354 2.609483 0.035672 -0.026200 722869.000000 0 0 1
18.768011 -7.072743 -32.776339 38.425907 -0.360392 2.592455 0.024190 -0.030251 -431465.000000 0 0 1
17.485411 -6.714643 -32.036569 37.110212 -0.366650 2.612532 0.026286 -0.027779 -460821.000000 0 0 1
17.654511 -5.867743 -30.894859 36.063895 -0.320879 2.599576 0.011196 -0.023623 385415.000000 0 0 1
16.399811 -5.474043 -30.361799 34.939345 -0.322159 2.623946 0.015566 -0.012733 161865.000000 0 0 1
16.522411 -4.446743 -29.219979 33.861051 -0.262905 2.611851 0.002457 -0.004184 76137.700000 0 0 1
17.300711 -4.755343 -28.038289 33.287739 -0.268240 2.572334 -0.003481 -0.002241 393482.000000 0 0 1
16.909011 -5.827343 -27.212769 32.563897 -0.331882 2.560153 -0.008406 0.001492 42984.600000 0 0 1
15.583311 -5.656743 -26.409289 31.181547 -0.348209 2.581023 0.010256 -0.000765 223810.000000 0 0 1
15.608711 -4.646943 -25.439889 30.206190 -0.289359 2.572162 -0.015544 0.007414 -496501.000000 0 0 1
14.401411 -4.509543 -24.742899 28.981851 -0.303461 2.593918 0.016165 0.003548 -277599.000000 0 0 1
14.332411 -3.312843 -23.696099 27.890824 -0.227154 2.586027 0.015092 0.003844 -23472.600000 0 0 1
14.446111 -2.023843 -24.268699 28.315293 -0.139190 2.600387 0.008585 -0.002913 27391.200000 0 0 1
14.002311 -1.013843 -23.370399 27.262945 -0.072279 2.600647 0.017341 -0.008865 -22887.400000 0 0 1
14.173011 0.431157 -23.891399 27.782352 0.030412 2.605966 0.003285 -0.008562 73979.400000 0 0 1
13.368611 0.736157 -25.040199 28.394951 0.055011 2.650576 0.027925 -0.015055 337038.000000 0 0 1
13.704211 2.018157 -25.555209 29.067973 0.146215 2.644879 0.021713 -0.003844 -35733.300000 0 0 1
12.934511 2.332157 -26.865209 29.907858 0.178388 2.686604 0.032447 -0.002536 532432.000000 0 0 1
11.702711 3.013157 -26.612609 29.227787 0.252002 2.715347 0.038636 -0.015166 434515.000000 0 0 1
11.060311 3.517157 -27.759879 30.088399 0.307886 2.745591 0.039832 -0.011920 820532.000000 0 0 1
9.641111 4.148157 -27.470919 29.407646 0.406315 2.776644 0.039036 -0.016683 633761.000000 0 0 1
9.646011 5.433157 -26.750889 28.951249 0.512962 2.749203 0.046984 -0.024595 454945.000000 0 0 1
8.466411 6.189157 -27.035859 28.998680 0.631246 2.771554 0.054626 -0.024796 357394.000000 0 0 1
7.722011 5.038879 -31.235529 32.568052 0.578155 2.854549 0.036951 -0.009789 -4864.270000 0 0 1
7.948211 3.990679 -30.276359 31.555626 0.465314 2.855876 0.032177 -0.000637 392537.000000 0 0 1
7.736611 2.689379 -30.833339 31.902707 0.334550 2.881944 0.028981 0.001218 -170194.000000 0 0 1
7.529511 1.669279 -29.724829 30.709046 0.218170 2.887733 0.033594 0.000970 -643925.000000 0 0 1
8.636111 1.497279 -28.887739 30.188172 0.171668 2.847007 0.050818 -0.004477 -198108.000000 0 0 1
8.442611 0.529479 -27.912039 29.165733 0.062633 2.847325 0.053276 -0.008851 -400169.000000 0 0 1
9.668411 0.148479 -27.064099 28.739619 0.015356 2.798444 0.051861 -0.019823 239054.000000 0 0 1
10.572811 -0.680021 -27.826449 29.775124 -0.064229 2.777799 0.038801 -0.007459 569092.000000 0 0 1
11.681311 -1.124321 -27.056539 29.491922 -0.095954 2.732349 0.033236 -0.005616 4723.190000 0 0 1
12.516311 -2.196421 -27.704649 30.479992 -0.173716 2.711544 0.029942 -0.004491 480717.000000 0 0 1
11.664411 -3.342221 -28.000149 30.516181 -0.279055 2.732673 0.044064 -0.008728 1151990.000000 0 0 1
12.482211 -4.462621 -28.386559 31.329177 -0.343357 2.704708 0.045364 -0.006695 244774.000000 0 0 1
11.814211 -5.787021 -27.941219 30.883279 -0.455483 2.701556 0.038893 0.002712 69820.600000 0 0 1
11.797811 -5.824421 -26.541849 29.624010 -0.458584 2.681378 0.035066 0.001952 137341.000000 0 0 1
11.356311 -7.081721 -26.008159 29.249631 -0.557587 2.666344 0.039552 0.001694 79528.100000 0 0 1
10.997711 -6.966521 -24.469499 27.717115 -0.564654 2.652650 0.046028 0.000687 54444.500000 0 0 1
12.104011 -6.697821 -23.638999 27.389235 -0.505416 2.612125 0.015658 0.008726 1951.880000 0 0 1
11.631511 -6.544221 -22.283399 25.974387 -0.512487 2.601963 0.030214 -0.000574 -101120.000000 0 0 1
12.690611 -6.575821 -21.197199 25.565881 -0.478073 2.548329 0.016342 -0.004649 -124101.000000 0 0 1
13.181111 -5.279721 -20.847199 25.223458 -0.380982 2.543659 -0.001538 -0.009903 -678095.000000 0 0 1
14.280311 -5.408221 -20.015199 25.175074 -0.362027 2.489870 -0.015629 -0.005629 -365316.000000 0 0 1
14.825311 -4.055921 -19.457399 24.795780 -0.267046 2.473018 -0.006866 -0.000031 17405.500000 0 1 0
15.619611 -3.361221 -20.426399 25.932756 -0.211960 2.477811 -0.007973 0.002834 325199.000000 0 0 1
16.113811 -2.149121 -19.829799 25.641657 -0.132589 2.454894 -0.006254 -0.000803 -118828.000000 0 0 1
17.006511 -1.426321 -20.842499 26.938181 -0.083673 2.455482 -0.020182 0.002868 -247748.000000 0 0 1
18.239411 -2.042221 -21.113699 27.975616 -0.111503 2.426020 -0.009226 -0.003587 -176559.000000 0 0 1
19.001911 -1.190521 -21.948099 29.055275 -0.062571 2.427047 -0.004713 0.000735 -734112.000000 0 0 1
20.396711 -1.685121 -22.272299 30.247657 -0.082430 2.398429 -0.004066 -0.003763 -1596940.000000 0 0 1
21.228711 -1.619621 -21.108299 29.980688 -0.076146 2.351899 0.006701 -0.004891 77725.000000 0 0 1
22.516711 -2.127121 -21.293299 31.063347 -0.094189 2.326059 -0.005037 -0.005533 -309634.000000 0 0 1
23.516211 -1.473621 -22.227299 32.391921 -0.062582 2.327047 0.010829 -0.012353 -1333250.000000 0 0 1
23.168411 -1.804021 -23.597099 33.118769 -0.077709 2.363850 0.012467 -0.012957 1074680.000000 0 0 1
24.118911 -1.192321 -24.533799 34.424567 -0.049395 2.364112 0.010907 -0.007243 401685.000000 0 0 1
25.314411 -2.075421 -24.881099 35.555532 -0.081803 2.345888 0.018412 -0.021466 -1300970.000000 0 0 1
26.215011 -2.172821 -23.756199 35.444392 -0.082696 2.305327 0.016809 -0.014711 637279.000000 0 0 1
27.477911 -2.705621 -24.147399 36.680415 -0.098149 2.289379 0.004822 -0.009906 595074.000000 0 0 1
28.400911 -1.802721 -25.030699 37.899835 -0.063389 2.292206 0.004564 -0.009757 -1271480.000000 0 0 1
28.039411 -1.671821 -26.392859 38.543308 -0.059553 2.325069 0.013225 -0.007896 76161.000000 0 0 1
28.691411 -0.607121 -27.046679 39.434611 -0.021157 2.326583 0.008666 -0.007950 -820905.000000 0 0 1
28.084411 -0.266221 -28.426339 39.960753 -0.009479 2.362223 0.009802 -0.008943 -193501.000000 0 0 1
26.811211 0.329579 -28.431879 39.080960 0.012292 2.385485 0.019162 -0.005972 -114964.000000 0 0 1
26.548911 1.556379 -27.729649 38.421354 0.058556 2.377087 0.013834 -0.000942 -27630.000000 0 0 1
25.050811 1.936979 -27.983839 37.608380 0.077168 2.409961 0.012664 -0.003965 487128.000000 0 0 1
24.143011 1.262879 -27.142019 36.347889 0.052261 2.413927 0.013176 -0.009855 589358.000000 0 0 1
22.795611 1.624579 -27.449129 35.717416 0.071147 2.447303 0.019277 -0.006769 501539.000000 0 0 1
21.787711 1.256979 -26.338529 34.205299 0.057628 2.449658 0.020886 -0.009442 -69490.400000 0 0 1
21.949111 2.082279 -25.206619 33.488401 0.094585 2.422945 0.025300 -0.010065 1185680.000000 0 0 1
20.791011 1.979779 -24.347799 32.078045 0.094937 2.432599 0.026779 -0.007544 303891.000000 0 0 1
21.026211 2.433679 -22.893199 31.178886 0.115232 2.395362 0.020249 -0.005864 -608043.000000 0 0 1
21.035911 3.871479 -22.766999 31.238344 0.182005 2.387387 0.027807 -0.015182 159885.000000 0 0 1
21.289411 4.238079 -21.466899 30.529135 0.196501 2.350630 0.024780 -0.019180 -406422.000000 0 0 1
20.902111 5.717379 -21.083399 30.234027 0.267000 2.342476 0.032268 -0.017474 210245.000000 0 0 1
21.710111 6.754679 -21.699799 31.429857 0.301637 2.332866 0.020123 -0.010677 346530.000000 0 0 1
21.317111 8.083079 -21.386199 31.258997 0.362433 2.324250 0.014770 -0.014340 -468089.000000 0 0 1
21.495111 8.544279 -19.878999 30.499494 0.378348 2.280727 0.016670 -0.009363 241169.000000 0 0 1
22.880111 8.659679 -19.553399 31.318125 0.361819 2.245093 0.012479 -0.000649 716784.000000 0 0 1
23.098011 8.773179 -18.145099 30.655039 0.362993 2.204226 0.020831 -0.008004 -41230.100000 0 0 1
22.748311 10.176879 -17.519699 30.463000 0.420663 2.183540 0.022731 -0.014382 939550.000000 0 0 1
21.360111 10.583079 -17.538399 29.594786 0.460009 2.205101 0.028445 -0.019220 982748.000000 0 0 1
21.195211 11.987679 -17.179399 29.800557 0.514729 2.185210 0.010486 -0.013088 1622620.000000 0 0 1
19.617211 12.274579 -17.013799 28.722284 0.559106 2.204775 0.016091 -0.013762 2015260.000000 0 0 1
18.906511 12.197279 -18.232999 28.959835 0.572949 2.251830 0.011757 -0.013462 -89311.300000 0 0 1
18.361611 10.935179 -18.452799 28.235309 0.537138 2.283043 0.018474 -0.016208 -531349.000000 0 0 1
17.616811 10.752579 -19.793399 28.596305 0.548002 2.335283 0.029198 -0.023662 317548.000000 0 0 1
18.511211 10.973179 -20.891899 29.992450 0.535098 2.341405 0.040029 -0.028515 740255.000000 0 0 1
17.925311 10.451379 -22.087699 30.305355 0.527864 2.387420 0.030407 -0.025449 275195.000000 0 0 1
18.890411 10.571579 -23.321899 31.820071 0.510204 2.393416 0.043610 -0.022876 129200.000000 0 0 1
19.087211 11.945579 -23.697599 32.689367 0.559205 2.381733 0.037490 -0.018405 -135245.000000 0 0 1
19.966411 12.053879 -24.755699 34.011736 0.543141 2.385989 0.040704 -0.019417 -449668.000000 0 0 1
20.090511 13.571679 -25.109349 34.904133 0.594111 2.373706 0.054464 -0.028390 38810.200000 0 0 1
20.727311 13.868979 -26.366809 36.292956 0.589696 2.384010 0.049444 -0.030484 331278.000000 0 0 1
20.678711 15.250979 -26.672319 37.035308 0.635466 2.374867 0.049377 -0.017460 543405.000000 0 0 1
19.377011 15.807879 -27.369979 37.073890 0.684305 2.401276 0.046704 -0.017479 70029.100000 0 0 1
18.271011 15.634479 -26.579069 35.842903 0.707793 2.406164 0.041537 -0.018868 -622655.000000 0 0 1
17.036511 15.856279 -27.242539 35.830437 0.749532 2.434599 0.042182 -0.019527 225918.000000 0 0 1
15.777311 15.287279 -26.598199 34.497661 0.769625 2.451229 0.035621 -0.024185 -159373.000000 0 0 1
15.696111 13.857779 -26.693889 33.925944 0.723275 2.476449 0.032911 -0.020302 291061.000000 0 0 1
14.423611 13.480079 -26.199779 32.805206 0.751597 2.495840 0.026337 -0.020829 150140.000000 0 0 1
14.289311 11.929679 -26.093819 32.052910 0.695643 2.521950 0.021176 -0.017946 -867825.000000 0 0 1
12.972311 11.572579 -25.900429 31.193552 0.728432 2.550466 0.030421 -0.015588 -867451.000000 0 0 1
12.786411 10.165879 -25.684419 30.438903 0.671717 2.575126 0.042700 -0.017630 -65127.600000 0 0 1
11.312711 9.728779 -25.573669 29.608092 0.710263 2.613439 0.039195 -0.024511 196892.000000 0 0 1
10.610611 10.229179 -24.423799 28.526183 0.767097 2.598644 0.045743 -0.023571 381259.000000 0 0 1
9.420711 9.510479 -24.173099 27.632186 0.790140 2.635854 0.033963 -0.024588 246715.000000 0 0 1
8.385011 10.070179 -23.159999 26.610195 0.876457 2.626695 0.020617 -0.019502 88965.700000 0 0 1
7.910911 11.343079 -23.642899 27.390411 0.961803 2.612334 0.022503 -0.018563 -5276.100000 0 0 1
7.244911 12.187579 -22.706999 26.770014 1.034467 2.583422 0.019657 -0.005902 104350.000000 0 0 1
8.118711 13.031079 -21.743799 26.617950 1.013617 2.526786 0.023331 -0.005825 -131321.000000 0 0 1
8.839611 12.272679 -20.834799 25.745800 0.946597 2.513671 0.023825 -0.010611 -546886.000000 0 0 1
9.813911 13.036379 -20.182599 25.953754 0.925500 2.461695 0.025588 -0.004006 -280213.000000 0 0 1
10.880011 12.233979 -19.389799 25.377336 0.843909 2.440379 0.026579 -0.005240 211210.000000 0 0 1
12.009211 11.708779 -20.059799 26.147891 0.772732 2.445209 0.032979 -0.014350 639280.000000 0 0 1
11.590611 10.563079 -20.888799 26.120161 0.739049 2.497624 0.039563 -0.021703 -233095.000000 0 0 1
12.749711 9.952679 -21.695899 27.061467 0.662812 2.500975 0.041532 -0.024053 -337835.000000 0 0 1
13.484411 9.007879 -21.018299 26.546942 0.588940 2.484450 0.055336 -0.034572 -668439.000000 0 0 1
14.561411 8.625879 -21.802799 27.600770 0.534797 2.481498 0.064178 -0.040547 -765110.000000 0 0 1
15.218811 7.344479 -21.258799 27.156769 0.449625 2.469978 0.075483 -0.036793 -219777.000000 0 0 1
15.962811 7.520479 -20.080899 26.732217 0.440282 2.420655 0.042041 -0.034057 345555.000000 0 0 1
16.474411 6.235379 -19.559499 26.322237 0.361826 2.408456 0.028385 -0.031553 -149135.000000 0 0 1
17.295411 6.296479 -18.312099 25.963626 0.349141 2.353640 0.036378 -0.027236 -667150.000000 0 0 1
18.474811 7.051879 -18.412899 27.020039 0.364634 2.320543 0.032131 -0.036434 302930.000000 0 0 1
19.190611 7.305279 -17.187499 26.777916 0.363732 2.267709 0.025402 -0.029401 624934.000000 0 0 1
19.939211 6.102979 -16.462099 26.567258 0.297025 2.239079 0.021514 -0.022222 497999.000000 0 0 1
21.232411 5.762179 -16.983799 27.793298 0.265003 2.228215 0.022559 -0.024280 715973.000000 0 0 1
21.784811 4.723379 -16.233799 27.575796 0.213515 2.200243 0.034196 -0.024637 94967.600000 0 0 1
23.189011 4.299479 -16.754599 28.929783 0.183328 2.188478 0.006167 0.006590 118603.000000 0 0 1
23.663211 3.183479 -16.067899 28.779498 0.133730 2.163144 0.005866 0.005343 450054.000000 0 0 1
24.904211 2.706279 -16.594299 30.048535 0.108243 2.155857 0.012095 -0.001716 417393.000000 0 0 1
25.471111 1.548879 -15.761399 29.993303 0.060734 2.124096 0.033903 -0.007569 -292800.000000 0 0 1
24.969511 0.324879 -16.192699 29.762149 0.013010 2.146077 0.030388 0.007039 -27925.300000 0 0 1
25.953611 -0.635721 -15.895799 30.441263 -0.024490 2.120201 0.036481 0.003841 -56265.000000 0 0 1
25.616811 -2.129321 -16.243699 30.407446 -0.082931 2.134359 0.026391 -0.002116 -306381.000000 0 0 1
24.798711 -2.711721 -15.260199 29.243857 -0.108917 2.119786 0.022800 0.000538 324281.000000 0 0 1
24.680711 -4.100221 -15.448599 29.404226 -0.164627 2.123966 0.022002 -0.006108 -850224.000000 0 0 1
24.186111 -4.860121 -14.161399 28.445280 -0.198306 2.091911 0.018432 -0.006938 174424.000000 0 0 1
22.845711 -4.761421 -13.724899 27.073428 -0.205475 2.102440 0.016507 0.005720 292659.000000 0 0 1
21.932111 -5.399021 -14.600299 26.894900 -0.241370 2.144641 0.009889 0.008034 -306722.000000 0 0 1
20.474011 -5.472921 -14.078699 25.443030 -0.261204 2.157168 0.011598 0.004050 -187959.000000 0 0 1
20.187211 -6.455621 -13.080499 24.905782 -0.309510 2.123746 0.010543 0.004556 462513.000000 0 1 0
20.582011 -6.139621 -11.749099 24.481737 -0.289897 2.071352 0.022832 0.000745 -473809.000000 0 1 0
20.458511 -7.346821 -10.806299 24.275555 -0.344766 2.032140 0.027823 -0.003765 -451514.000000 0 1 0
19.160411 -7.858921 -10.603299 23.266155 -0.389238 2.043999 0.039383 -0.011762 505177.000000 0 1 0
18.791611 -8.934021 -11.463799 23.756264 -0.443796 2.074370 0.023228 -0.011963 12772.000000 0 1 0
17.334111 -9.473221 -11.422899 22.818763 -0.500158 2.095079 0.043934 -0.022264 -223438.000000 0 1 0
16.426311 -8.559721 -11.863199 21.996091 -0.480383 2.140440 0.041669 -0.012457 -489748.000000 0 1 0
15.198211 -9.087921 -12.307699 21.565143 -0.538918 2.178181 0.032449 -0.010877 154206.000000 0 1 0
14.104611 -8.060721 -12.671799 20.603150 -0.519197 2.233235 0.025152 -0.010520 -94381.200000 0 1 0
14.445511 -7.200521 -13.739999 21.196884 -0.462415 2.276026 0.033078 -0.014262 156177.000000 0 1 0
15.125011 -6.043821 -13.402199 21.092953 -0.380154 2.259307 0.014254 -0.014961 -460315.000000 0 1 0
15.003311 -4.919821 -14.462599 21.411930 -0.316867 2.312365 0.005153 -0.013911 -567070.000000 0 1 0
13.894011 -4.112321 -14.230799 20.309367 -0.287763 2.347176 0.014165 -0.016388 -518950.000000 0 1 0
13.588111 -3.108021 -15.204499 20.627005 -0.224863 2.399589 0.003043 -0.019676 -191903.000000 0 1 0
14.629711 -1.944921 -15.377099 21.313525 -0.132168 2.376721 0.002544 -0.016396 -101362.000000 0 1 0
15.657511 -2.342321 -16.267099 22.699397 -0.148496 2.369757 -0.005802 -0.005537 -110097.000000 0 1 0
16.834111 -1.582321 -16.200799 23.417022 -0.093720 2.334829 0.007759 0.000777 35617.200000 0 1 0
17.896611 -2.108221 -15.220699 23.588196 -0.117260 2.272170 0.013734 0.005782 -889763.000000 0 1 0
17.526311 -1.904021 -13.904699 22.453007 -0.108213 2.238622 0.010813 0.010125 386334.000000 0 1 0
18.459511 -2.551421 -13.009199 22.726693 -0.137347 2.180250 0.006008 0.016263 307654.000000 0 1 0
18.036611 -2.716021 -11.470699 21.546996 -0.149461 2.132179 0.007466 0.007243 -571983.000000 0 1 0
18.218611 -1.620221 -10.635099 21.157699 -0.088699 2.097468 0.026065 0.002544 660225.000000 0 1 0
17.740911 -1.982421 -9.353099 20.153173 -0.111281 2.053415 0.029575 0.001170 -816601.000000 0 1 0
17.813911 -0.775721 -8.385099 19.703986 -0.043518 2.010370 0.032378 0.000936 214602.000000 0 1 0
19.077011 -0.261321 -7.977599 20.679524 -0.013697 1.966842 0.030208 0.004321 1035480.000000 0 1 0
20.004911 0.265679 -8.928099 21.908400 0.013280 1.990532 0.019628 0.010899 -236675.000000 0 1 0
19.639111 1.617279 -9.614399 21.925942 0.082165 2.024719 0.013918 0.011633 -681024.000000 0 1 0
19.651911 2.733779 -8.804599 21.706960 0.138223 1.988444 0.022831 0.012717 577569.000000 0 1 0
18.768011 3.681179 -9.352899 21.290046 0.193682 2.025625 0.000715 0.001334 -556258.000000 0 1 0
18.900911 5.165179 -8.948599 21.540681 0.266763 1.999209 0.025591 0.009794 -153197.000000 0 1 0
18.065111 6.032679 -9.690999 21.369532 0.322297 2.041480 0.016659 0.004465 309258.000000 0 1 0
18.545211 7.321579 -9.583099 22.121622 0.376012 2.018837 0.038068 0.006468 -391676.000000 0 1 0
-25.483159 -29.616731 5.654501 39.478039 0.860278 1.427070 0.027310 -0.016113 -333781.000000 0 0 1
-25.824669 -28.492891 6.489401 38.998342 0.834481 1.403617 0.024617 -0.013163 -106804.000000 0 0 1
-24.795589 -27.522681 6.519901 37.614204 0.837476 1.396580 0.025937 -0.010795 -421361.000000 0 0 1
-25.102379 -26.473071 7.576301 37.260613 0.811968 1.366036 0.015045 -0.006120 239785.000000 0 0 1
-26.298609 -25.746811 7.298501 37.520437 0.774796 1.375028 0.005572 -0.008951 406698.000000 0 0 1
-27.556159 -26.286041 7.623201 38.838268 0.761813 1.373233 0.013982 -0.007332 -276944.000000 0 0 1
-27.929979 -26.468441 9.130601 39.547819 0.758537 1.337819 -0.000485 -0.001580 -483377.000000 0 0 1
-27.057019 -27.337251 9.800401 39.692007 0.790550 1.321305 0.002316 -0.002104 -241063.000000 0 0 1
-27.352419 -27.241011 11.176901 40.188937 0.783357 1.288972 0.002492 -0.005367 -552419.000000 0 0 1
-26.338389 -27.881961 12.138401 40.230029 0.813859 1.264295 -0.001968 -0.009505 -349909.000000 0 0 1
-25.212249 -27.110461 12.387801 39.039624 0.821661 1.247901 0.002116 -0.000775 -537305.000000 0 0 1
-25.388879 -26.390261 13.638701 39.077554 0.804735 1.214275 0.005019 -0.007986 -906703.000000 0 0 1
-24.093189 -25.791921 14.135701 38.020034 0.819438 1.189853 0.027349 -0.010205 -849354.000000 0 0 1
-23.228289 -26.776791 14.627001 38.347087 0.856242 1.179446 0.044366 -0.010408 -509717.000000 0 0 1
-22.184189 -26.201891 15.371401 37.615918 0.868242 1.149832 0.047863 -0.013611 -228141.000000 0 0 1
-21.330289 -27.282631 16.072501 38.179163 0.907235 1.136276 0.036916 -0.022107 -359680.000000 0 0 1
-22.007589 -28.091121 16.992701 39.524637 0.906237 1.126385 0.039710 -0.019215 420259.000000 0 0 1
-21.164489 -29.178371 17.308501 39.986212 0.943260 1.123131 0.042071 -0.023509 215053.000000 0 0 1
-21.965989 -30.073081 18.283101 41.486946 0.939944 1.114423 0.036555 -0.021859 379990.000000 0 0 1
-23.122989 -30.669131 17.718001 42.298886 0.924772 1.138589 0.020539 -0.017040 339248.000000 0 0 1
-23.779989 -31.501151 18.629001 43.644588 0.924171 1.129807 0.015421 -0.012730 54038.900000 0 0 1
-24.958689 -32.276301 17.950701 44.574919 0.912560 1.156322 0.010546 -0.013815 297822.000000 0 0 1
-24.468389 -33.479661 17.357801 44.954232 0.939669 1.174373 0.011570 -0.016711 207566.000000 0 0 1
-25.468529 -34.281519 16.776901 45.883907 0.931840 1.196478 0.011485 -0.014010 -656547.000000 0 0 1
-25.076959 34.212235 15.410701 45.131149 -0.938276 1.222321 0.007082 -0.019751 564702.000000 0 0 1
-23.909089 33.369851 15.416001 43.850252 -0.949090 1.211559 -0.002949 -0.023665 574970.000000 0 0 1
-22.768789 34.059656 14.980501 43.622166 -0.981527 1.220246 -0.000483 -0.020219 -671938.000000 0 0 1
-21.464489 33.244420 15.050901 42.337281 -0.997480 1.207347 0.017306 -0.025976 -19180.200000 0 0 1
-21.340089 32.218401 14.045901 41.118269 -0.985783 1.222180 0.015426 -0.018165 561334.000000 0 0 1
-20.171689 31.420321 14.309601 39.986226 -1.000069 1.204818 0.027821 -0.018966 587577.000000 0 0 1
-19.877389 30.468041 13.094301 38.663585 -0.992735 1.225290 0.020777 -0.016779 13634.800000 0 0 1
-19.434989 31.020261 11.892701 38.489112 -1.011101 1.256667 0.006232 -0.006200 -45165.600000 0 0 1
-19.312989 29.972261 10.950901 37.299466 -0.998395 1.272812 0.015833 -0.009488 94164.600000 0 0 1
-19.003989 30.402441 9.510501 37.093256 -1.012139 1.311506 0.007525 -0.007517 -75565.700000 0 0 1
-17.684089 30.888161 9.360101 36.802404 -1.050828 1.313637 0.010414 -0.014370 -273592.000000 0 0 1
-17.407189 31.411421 8.105801 36.815643 -1.064759 1.348805 0.013532 -0.019670 -85507.700000 0 0 1
-16.772889 30.465631 7.072201 35.489442 -1.067530 1.370177 0.015526 -0.012620 -236766.000000 0 0 1
-17.549389 29.351661 6.623001 34.833392 -1.031922 1.379498 0.018072 -0.004078 36440.700000 0 0 1
-17.107989 28.176661 7.191701 33.739118 -1.025122 1.355992 0.019263 -0.005159 312430.000000 0 0 1
-18.063789 27.017201 6.673701 33.177822 -0.981454 1.368265 0.023996 0.003086 907412.000000 0 0 1
-17.727189 26.519571 5.367001 32.347265 -0.981555 1.404107 0.030709 -0.000049 -265119.000000 0 0 1
-18.924889 26.063341 4.851401 32.572769 -0.942760 1.421300 0.020415 0.002573 -1092960.000000 0 0 1
-18.881489 25.316391 3.472801 31.772482 -0.929975 1.461275 0.024046 -0.007758 -1417530.000000 0 0 1
-18.725689 26.161701 2.389801 32.261388 -0.949567 1.496652 0.020402 -0.005120 719150.000000 0 0 1
-17.433589 26.725461 2.159801 31.981948 -0.992791 1.503213 0.019702 -0.004822 1565420.000000 0 0 1
-16.075989 25.878281 2.266501 30.549302 -1.014923 1.496537 0.022742 -0.011143 487276.000000 0 0 1
-16.111489 24.657871 1.518701 29.494018 -0.992034 1.519282 0.036510 -0.012950 14207.500000 0 0 1
-15.972389 24.831381 0.101301 29.524989 -0.999192 1.567365 0.026830 -0.010491 -201116.000000 0 0 1
-15.554789 23.562801 -0.645299 28.241343 -0.987325 1.593648 0.036349 -0.021562 192440.000000 0 0 1
-16.680289 22.691201 -0.838099 28.174901 -0.936900 1.600547 0.041773 -0.029066 660064.000000 0 0 1
-16.451989 21.500901 -1.558899 27.118017 -0.917653 1.628314 0.045967 -0.031841 -291015.000000 0 0 1
-15.481789 20.469301 -0.929199 25.681540 -0.923249 1.606986 0.047674 -0.031783 129379.000000 0 0 1
-15.999089 19.657101 0.120301 25.345353 -0.887632 1.566050 0.060777 -0.039217 493914.000000 0 0 1
-14.924289 18.856301 0.624901 24.055872 -0.901275 1.544816 0.074654 -0.055758 351767.000000 0 1 0
-15.377089 17.572801 1.369501 23.390890 -0.851938 1.512214 0.051764 -0.055293 119958.000000 0 1 0
-16.123089 16.683101 0.568401 23.207820 -0.802467 1.546302 0.046132 -0.048462 185652.000000 0 1 0
-16.973589 15.884901 1.335901 23.285563 -0.752278 1.513394 0.062205 -0.056135 -271291.000000 0 1 0
-17.620289 14.757701 0.493701 22.989303 -0.697216 1.549319 0.074426 -0.047627 -323028.000000 0 1 0
-18.573889 15.172701 -0.455899 23.987664 -0.684951 1.589803 0.085695 -0.043913 -96177.400000 0 1 0
-19.222889 14.049001 -0.872299 23.825507 -0.631130 1.607416 0.069842 -0.032479 -1289940.000000 0 1 0
-20.107389 14.245701 -2.117199 24.733168 -0.616395 1.656503 0.048908 -0.023898 -76861.100000 0 1 0
-21.059189 13.233201 -2.411899 24.988483 -0.561027 1.667467 0.041976 -0.020285 1604290.000000 0 1 0
-22.060489 12.930601 -1.384999 25.608277 -0.530168 1.624907 0.042225 -0.022554 -133133.000000 0 0 1
-23.306089 13.827801 -1.309599 27.131106 -0.535488 1.619084 0.036336 -0.023466 -487485.000000 0 0 1
-23.035989 15.087401 -0.726899 27.546594 -0.579847 1.597187 0.045982 -0.031524 1164120.000000 0 0 1
-24.269189 15.647801 -0.224499 28.877285 -0.572683 1.578571 0.036750 -0.022084 606291.000000 0 0 1
-24.007889 16.878601 0.650101 29.354532 -0.612766 1.548648 0.038975 -0.026205 -226282.000000 0 0 1
-23.546989 16.539801 1.973701 28.843044 -0.612346 1.502314 0.037900 -0.025011 393051.000000 0 0 1
-23.240489 17.719101 2.728501 29.351858 -0.651405 1.477704 0.028740 -0.028248 11643.500000 0 0 1
-24.503989 18.420301 3.272701 30.829589 -0.644605 1.464441 0.031690 -0.024725 -1403790.000000 0 0 1
-25.228469 17.622401 4.212201 31.060703 -0.609727 1.434765 0.034519 -0.023782 -117300.000000 0 0 1
-26.544439 18.050001 4.443801 32.406128 -0.597171 1.433234 0.032054 -0.020647 -137473.000000 0 0 1
-27.451569 17.951001 3.190601 32.954620 -0.579123 1.473826 0.021632 -0.011944 -3222180.000000 0 0 1
-28.619599 18.606401 3.378001 34.302922 -0.576465 1.472161 0.020701 -0.005998 -1574180.000000 0 0 1
-29.389769 18.509201 2.230001 34.804051 -0.562032 1.506679 0.007938 0.003830 -691635.000000 0 0 1
-30.575919 19.466001 2.260801 36.316983 -0.566929 1.508504 0.016559 -0.004253 -47852.500000 0 0 1
-31.685659 19.036901 3.054301 37.090610 -0.541011 1.488356 0.024956 -0.004486 844254.000000 0 0 1
-32.850089 19.852601 2.918901 38.493819 -0.543604 1.494896 0.027989 -0.006512 475312.000000 0 0 1
-33.145379 20.660501 4.204001 39.282898 -0.557397 1.463572 0.033160 -0.017048 -364225.000000 0 0 1
-32.132799 21.612001 4.454701 38.979991 -0.592088 1.456264 0.018333 -0.011479 392069.000000 0 0 1
-32.152949 22.004601 5.810201 39.392550 -0.600161 1.422761 0.031848 -0.015280 -560275.000000 0 0 1
-31.167369 23.129501 6.056601 39.281817 -0.638430 1.415995 0.031259 -0.009606 -424970.000000 0 0 1
-31.432109 24.351381 5.411101 40.127886 -0.659141 1.435538 0.017162 -0.002592 -128451.000000 0 0 1
-30.456069 25.205091 5.880401 39.968085 -0.691338 1.423133 0.021570 -0.003196 -646118.000000 0 0 1
-30.760709 26.670351 5.594901 41.095398 -0.714296 1.434228 0.012177 0.000256 -478460.000000 0 0 1
-31.762219 27.125951 6.471401 42.267420 -0.706830 1.417086 0.017139 0.002190 -54273.800000 0 0 1
-31.988059 28.511181 6.186301 43.294268 -0.727992 1.427416 0.006506 0.003785 -389175.000000 0 0 1
-33.093109 29.145671 6.984901 44.647652 -0.722059 1.413706 0.000952 0.004069 -1061040.000000 0 0 1
-32.540189 29.504681 8.190301 44.681888 -0.736513 1.386452 0.011517 0.004375 -102991.000000 0 0 1
-33.361789 30.209061 9.096901 45.916772 -0.735845 1.371360 0.010339 -0.000050 4316.380000 0 0 1
-34.585145 29.469781 9.726501 46.467247 -0.705708 1.359917 -0.001149 0.006954 435009.000000 0 0 1
-34.155296 28.243261 10.317001 45.505017 -0.690934 1.342085 0.014354 -0.001817 1194320.000000 0 0 1
-35.270991 27.745331 11.111901 46.231164 -0.666537 1.328065 0.005819 -0.001691 1128590.000000 0 0 1
-34.940198 26.401501 11.767901 45.346887 -0.647088 1.308283 0.024146 -0.000319 -353793.000000 0 0 1
-33.906929 26.483491 12.703701 44.860218 -0.663088 1.283684 0.028882 -0.007614 -230195.000000 0 0 1
-33.748159 25.238571 13.379101 44.214523 -0.642124 1.263382 0.042239 -0.008109 51066.100000 0 0 1
-32.555029 25.313521 14.354501 43.665272 -0.660908 1.235828 0.042557 -0.010954 10104.100000 0 0 1
-32.831369 26.275831 15.307001 44.750669 -0.674940 1.221698 0.035467 -0.009129 -52541.700000 0 0 1
-31.674169 26.643511 16.020001 44.382092 -0.699348 1.201503 0.041933 -0.008763 -136080.000000 0 0 1
-31.951419 27.851391 16.932701 45.643285 -0.716946 1.190733 0.035094 -0.009489 -236519.000000 0 0 1
-31.951509 29.085141 16.206001 46.146276 -0.738471 1.211957 0.039062 -0.016778 66165.900000 0 0 1
-32.144899 30.160591 17.113301 47.284467 -0.753561 1.200467 0.030347 -0.018099 -139399.000000 0 0 1
-32.017429 31.501901 16.476901 47.843221 -0.777282 1.219203 0.026609 -0.017157 768238.000000 0 0 1
-30.670399 31.849881 16.105101 47.058076 -0.804262 1.221498 0.019013 -0.012538 637751.000000 0 0 1
-30.490889 33.146082 15.586301 47.658051 -0.827098 1.237622 0.015736 -0.002543 -426127.000000 0 0 1
-29.008439 33.480713 15.283101 46.861720 -0.856845 1.238588 0.024861 -0.007700 18779.300000 0 0 1
-28.500789 32.881011 14.121401 45.747894 -0.856638 1.256993 0.018514 -0.007732 243851.000000 0 0 1
-28.044649 31.484761 14.262201 44.510705 -0.843122 1.244622 0.021436 -0.013546 -127520.000000 0 0 1
-29.042629 30.331311 13.912701 44.238286 -0.807099 1.250872 0.035731 -0.014651 4242.670000 0 0 1
-29.396779 30.090741 12.606201 43.915141 -0.797063 1.279642 0.040596 -0.013885 -545360.000000 0 0 1
-30.298839 29.056511 12.537501 43.811978 -0.764471 1.280573 0.045870 -0.013469 -479704.000000 0 0 1
-30.475059 28.547521 11.144501 43.219094 -0.752752 1.309989 0.047905 -0.010360 302384.000000 0 0 1
-29.389469 27.831121 10.561401 41.831273 -0.758171 1.315558 0.059164 -0.008164 65557.200000 0 0 1
-29.419319 27.951511 9.152301 41.599855 -0.759819 1.348974 0.053366 -0.009886 12718.000000 0 0 1
-28.362289 27.041531 8.496801 40.098123 -0.761564 1.357277 0.040139 -0.005283 113895.000000 0 0 1
-27.975019 27.563331 7.212901 39.929498 -0.777986 1.389158 0.027670 -0.001714 -14732.400000 0 0 1
-27.011049 26.674481 6.629701 38.536705 -0.779129 1.397900 0.041041 0.001512 109227.000000 0 0 1
-26.577529 26.978381 5.218801 38.228706 -0.792883 1.433853 0.037037 -0.005221 52707.800000 0 0 1
-25.666609 28.055141 5.047101 38.358037 -0.829830 1.438835 0.044322 0.005648 279978.000000 0 0 1
-25.331059 28.178131 3.680601 38.068575 -0.838555 1.473962 0.038880 0.006843 43242.500000 0 0 1
-24.340689 29.350531 3.412201 38.282710 -0.878437 1.481546 0.041002 0.001733 735812.000000 0 0 1
-22.984689 29.051171 3.736501 37.232082 -0.901457 1.470270 0.034090 0.005180 233856.000000 0 0 1
-22.111089 30.120001 3.442401 37.522857 -0.937549 1.478926 0.029136 0.005400 566920.000000 0 0 1
-20.626189 29.757611 3.719601 36.397672 -0.964689 1.468424 0.013600 0.006393 115348.000000 0 0 1
-19.693689 30.673761 3.315501 36.602097 -1.000039 1.480090 0.005368 0.007065 -563673.000000 0 0 1
-18.334489 30.307941 3.493901 35.593990 -1.026752 1.472478 0.003396 0.003080 157016.000000 0 0 1
-17.404389 31.376201 2.994601 36.004810 -1.064352 1.487528 0.005361 -0.002649 -630863.000000 0 0 1
-17.270089 32.554161 3.822301 37.049148 -1.083045 1.467444 0.007791 -0.002922 41926.300000 0 0 1
-16.283989 33.466717 3.386501 37.371885 -1.117948 1.480056 0.010558 0.000224 30028.900000 0 0 1
-16.007689 -34.339517 4.312301 38.131935 1.134586 1.457465 0.018617 -0.007030 401357.000000 0 0 1
-17.014689 -33.309711 4.190801 37.637738 1.098544 1.459219 0.012625 -0.009195 517404.000000 0 0 1
-16.704489 -32.218551 5.051801 36.641448 1.092479 1.432485 0.014156 -0.012723 614484.000000 0 0 1
-17.838089 -31.129591 5.168901 36.248674 1.050446 1.427713 0.011329 -0.010662 574842.000000 0 0 1
-18.105589 -30.370151 4.014601 35.584764 1.033202 1.457738 0.013342 -0.006263 -50193.200000 0 0 1
-19.205789 -29.512241 4.197601 35.460606 0.993877 1.452144 0.026212 -0.014143 -225776.000000 0 0 1
-19.662889 -28.722551 2.930901 34.931423 0.970494 1.486793 0.020848 -0.015538 -317601.000000 0 0 1
-18.718989 -27.769201 2.561001 33.587018 0.977671 1.494473 0.019943 -0.015156 -177742.000000 0 0 1
-19.136489 -26.942941 1.472601 33.080143 0.953218 1.526265 0.011087 -0.010679 25145.800000 0 0 1
-18.208089 -25.717501 1.399101 31.541748 0.954719 1.526425 0.005366 0.002077 511065.000000 0 0 1
-16.903389 -26.014081 0.909101 31.036808 0.994577 1.541501 0.007308 0.006270 -25234.500000 0 0 1
-16.083689 -24.850721 0.952601 29.616732 0.996383 1.538626 0.020144 0.015098 13803.100000 0 0 1
-14.697089 -25.163601 0.363701 29.143499 1.042179 1.558316 0.038718 0.009990 -425672.000000 0 0 1
-14.598289 -25.417841 -1.047399 29.330423 1.049464 1.606514 0.032379 0.010216 -36879.100000 0 0 1
-14.555089 -24.224021 -1.785799 28.316831 1.029749 1.633903 0.030790 0.009728 -307809.000000 0 0 1
-14.820489 -24.257421 -3.299399 28.617397 1.022352 1.686347 0.015915 0.005503 -61230.500000 0 0 1
-13.814589 -24.854521 -4.112599 28.731578 1.063497 1.714428 0.034556 0.001558 -15067.400000 0 0 1
-14.194689 -24.869521 -5.467599 29.152649 1.052149 1.759464 0.017821 0.004298 -642414.000000 0 0 1
-13.074389 -25.300951 -6.362799 29.181552 1.093835 1.790604 0.047625 -0.002523 -473614.000000 0 0 1
-12.657589 -26.616721 -6.263499 30.131310 1.126899 1.780197 0.022338 0.001682 290313.000000 0 0 1
-11.426589 -26.757741 -6.981399 29.921290 1.167200 1.806292 0.022601 -0.000908 365391.000000 0 0 1
22.816011 13.352479 28.434785 38.825198 0.529484 0.748986 0.032257 0.001413 -170726.000000 0 0 1
23.695911 12.261079 28.672895 39.165867 0.477498 0.749413 0.026798 -0.006388 449512.000000 0 0 1
23.072611 11.256079 29.471755 39.084895 0.453884 0.716598 0.035305 -0.008466 -31804.200000 0 0 1
22.986911 11.499579 30.985095 40.258098 0.463861 0.692486 0.041957 0.001252 343536.000000 0 0 1
22.074111 12.555979 31.306665 40.311614 0.517170 0.681519 0.038424 0.003876 400967.000000 0 0 1
22.235711 12.931879 32.650375 41.565699 0.526766 0.667273 0.040815 0.001808 61036.900000 0 0 1
21.280311 14.093279 33.156064 41.842523 0.584952 0.656061 0.034486 0.005001 328834.000000 0 0 1
20.010911 13.561179 33.461296 41.279540 0.595595 0.625616 0.032401 0.014910 -259071.000000 0 0 1
19.234111 14.291579 34.322191 41.859444 0.639027 0.609492 0.034750 0.010614 -657337.000000 0 0 1
18.214511 13.484179 -33.749689 40.652589 0.637263 2.550259 0.027764 0.016157 -238333.000000 0 0 1
17.070111 13.148979 34.334119 40.535368 0.656362 0.560449 0.019567 0.020796 36982.900000 0 0 1
16.193311 12.413879 -33.682299 39.380515 0.654044 2.596933 0.003535 0.014773 -428439.000000 0 0 1
14.844211 12.146279 -34.350023 39.342176 0.685770 2.632341 -0.001315 0.020306 -210718.000000 0 0 1
14.926611 11.172679 33.498443 38.337686 0.642545 0.507889 -0.013068 0.034805 104137.000000 0 0 1
13.647011 10.698179 33.112556 37.378246 0.664860 0.482414 -0.005023 0.027630 354678.000000 0 0 1
13.871511 9.679979 31.962935 36.162826 0.609269 0.486742 -0.006777 0.032479 119187.000000 0 0 1
14.157111 8.351379 32.402175 36.332771 0.532965 0.469451 -0.017535 0.027790 -43846.400000 0 0 1
14.734011 7.642379 31.325365 35.451030 0.478487 0.487250 -0.019526 0.010730 -38498.300000 0 0 1
15.177111 6.212479 31.759485 35.743593 0.388525 0.476651 0.002135 0.003172 80604.000000 0 0 1
14.143711 5.305079 32.161405 35.532301 0.358844 0.439107 -0.002309 0.001917 91802.200000 0 0 1
14.650211 4.019079 32.536055 35.907890 0.267749 0.436829 0.005163 -0.003686 166673.000000 0 0 1
13.531411 3.101679 33.039340 35.837375 0.225328 0.397778 -0.007407 -0.003353 31059.100000 0 0 1
14.012111 1.790479 33.244795 36.121482 0.127092 0.401794 0.005651 -0.013287 -76110.000000 0 0 1
12.926811 0.902979 33.390239 35.816558 0.069740 0.370194 0.013705 -0.014760 136807.000000 0 0 1
13.412311 -0.516021 33.823816 36.389654 -0.038455 0.377769 0.010511 -0.020678 11258.200000 0 0 1
13.881111 -1.242821 32.697325 35.543563 -0.089295 0.402913 0.015039 -0.018316 -73226.200000 0 0 1
14.071511 -2.609921 33.039131 36.005601 -0.183392 0.408769 0.038167 -0.026903 -397018.000000 0 0 1
14.382211 -3.505121 31.847445 35.119704 -0.239052 0.435106 0.046886 -0.025187 -1354340.000000 0 0 1
14.704711 -4.875821 32.148095 35.686162 -0.320174 0.449059 0.056420 -0.023691 948163.000000 0 0 1
15.907411 -5.209321 32.900848 36.914070 -0.316471 0.470632 0.042126 -0.026932 1101120.000000 0 0 1
17.222711 -4.715221 32.227195 36.843550 -0.267231 0.505972 0.045597 -0.031507 -756867.000000 0 0 1
17.294211 -3.309821 32.242255 36.737006 -0.189097 0.499858 0.037739 -0.030115 -300566.000000 0 0 1
18.395911 -2.849521 31.480265 36.572345 -0.153678 0.534022 0.049605 -0.033640 -87624.400000 0 0 1
18.385611 -1.355521 31.287045 36.314560 -0.073594 0.532469 0.048921 -0.032949 -400313.000000 0 0 1
18.813011 -0.686321 32.482005 37.543056 -0.036465 0.525260 0.035603 -0.026338 -10085.800000 0 0 1
18.544511 0.677479 32.467535 37.396506 0.036516 0.519239 0.027081 -0.012541 37317.000000 0 0 1
19.591311 1.614279 31.786825 37.374157 0.082212 0.553856 0.039849 -0.009666 -194544.000000 0 0 1
19.707911 1.597679 30.357305 36.228722 0.080891 0.577308 0.041421 -0.009822 -74953.400000 0 0 1
20.451911 2.628979 29.765415 36.210111 0.127843 0.605848 0.033922 0.000100 -46061.500000 0 0 1
19.809611 4.074679 29.902855 36.099923 0.202863 0.594666 0.031535 0.004957 -101882.000000 0 0 1
19.914911 4.702179 31.164275 37.281714 0.231867 0.581002 0.034841 0.011943 499460.000000 0 0 1
19.108411 5.862079 31.252465 37.097330 0.297665 0.568991 0.025769 0.010632 -172312.000000 0 0 1
18.907911 6.193979 32.774175 38.340853 0.316570 0.545610 0.026628 0.012485 -265814.000000 0 0 1
18.088211 5.347079 33.553032 38.491305 0.287426 0.512127 0.017200 0.007774 127456.000000 0 0 1
17.948311 5.734279 -33.942139 38.821291 0.309239 2.634824 0.010138 0.016457 -119721.000000 0 0 1
16.806911 5.002079 -33.230859 37.573702 0.289272 2.656042 0.015384 0.007431 -216955.000000 0 0 1
17.140511 3.623979 -33.119309 37.467572 0.208359 2.655031 0.014753 0.004790 297474.000000 0 0 1
16.034111 2.856179 -32.665239 36.500251 0.176282 2.679075 0.012383 0.010529 180563.000000 0 0 1
16.077711 1.380279 -33.167609 36.884797 0.085640 2.688784 0.014188 -0.005535 -303850.000000 0 0 1
17.200511 0.697179 -32.675339 36.932661 0.040510 2.656705 0.001950 -0.011116 -91693.100000 0 0 1
17.156011 -0.695021 -33.006679 37.205546 -0.040490 2.661916 0.009374 -0.014750 -270355.000000 0 0 1
18.370111 -1.308721 -32.272419 37.157540 -0.071122 2.623024 0.016718 -0.019884 -486399.000000 0 0 1
18.376811 -1.393721 -30.848369 35.934267 -0.075696 2.603069 0.012964 -0.013996 325357.000000 0 0 1
18.261311 -0.151421 -30.187529 35.281515 -0.008292 2.597542 0.005709 -0.008679 -680580.000000 0 0 1
17.932611 -0.261121 -28.728399 33.866911 -0.014560 2.583513 0.000948 -0.007931 -157153.000000 0 0 1
16.608311 -0.643221 -28.407519 32.912564 -0.038710 2.612214 0.008655 -0.011303 301193.000000 0 0 1
16.265311 -0.639721 -27.034189 31.556568 -0.039310 2.599614 0.004695 -0.003051 -219516.000000 0 0 1
16.892911 -1.772321 -26.202229 31.226085 -0.104533 2.566448 0.000794 -0.000359 -388917.000000 0 0 1
18.241911 -1.498721 -25.876369 31.695425 -0.081974 2.525958 0.002567 -0.002817 -29724.800000 0 0 1
18.984211 -2.672221 -25.557109 31.948503 -0.139841 2.498003 -0.006129 -0.003991 663520.000000 0 0 1
19.900311 -3.229221 -26.713369 33.467213 -0.160868 2.495090 0.001198 -0.014256 26778.900000 0 0 1
21.050111 -2.445921 -26.951929 34.285510 -0.115676 2.475274 0.011757 -0.011005 -106134.000000 0 0 1
21.316411 -2.392121 -28.362829 35.560676 -0.111752 2.494085 0.020820 -0.018036 -304811.000000 0 0 1
22.721811 -1.833021 -28.652949 36.614644 -0.080498 2.469554 0.013865 -0.020493 -463709.000000 0 0 1
23.643411 -2.842621 -28.396909 37.060435 -0.119655 2.443754 0.010040 -0.021901 -164349.000000 0 0 1
24.970511 -2.373921 -28.662189 38.087833 -0.094784 2.422690 0.000642 -0.019600 322013.000000 0 0 1
26.010011 -3.448721 -28.290149 38.584283 -0.131823 2.393818 0.003718 -0.019171 -458672.000000 0 0 1
26.111311 -4.401621 -29.318379 39.506230 -0.167001 2.407025 0.008750 -0.019789 592053.000000 0 0 1
27.136811 -5.370921 -29.027349 40.097884 -0.195395 2.380253 0.012543 -0.012783 -89910.900000 0 0 1
26.918111 -6.508021 -27.979349 39.367284 -0.237219 2.361326 0.010114 -0.007680 -327601.000000 0 0 1
27.116511 -6.095321 -26.669729 38.519249 -0.221108 2.335570 0.007448 -0.002965 266655.000000 0 0 1
26.695211 -6.993921 -25.658549 37.681698 -0.256233 2.319826 -0.008586 -0.001818 -164029.000000 0 0 1
26.690711 -6.389921 -24.241199 36.617767 -0.234983 2.294289 -0.014496 -0.003069 -114789.000000 0 0 1
27.984511 -6.466121 -23.698499 37.236574 -0.227076 2.260658 -0.010909 -0.002710 129439.000000 0 0 1
27.983311 -5.907721 -22.421099 36.341059 -0.208061 2.235675 0.002875 -0.011624 -337415.000000 0 0 1
29.379911 -5.470521 -21.948599 37.078926 -0.184091 2.204263 0.007110 -0.010919 -672726.000000 0 0 1
29.879811 -4.392421 -22.606399 37.724604 -0.145958 2.213358 0.010889 -0.017774 -194517.000000 0 0 1
31.181611 -4.101721 -22.136699 38.459725 -0.130792 2.184111 0.020101 -0.011898 133049.000000 0 0 1
31.787911 -2.879421 -22.845399 39.251428 -0.090336 2.192016 0.022191 -0.010714 15727.500000 0 0 1
31.076311 -1.692421 -22.458899 38.379728 -0.054406 2.195894 0.004560 -0.005760 231511.000000 0 0 1
31.692511 -0.509221 -22.894799 39.100465 -0.016066 2.196340 0.000006 -0.004264 -187135.000000 0 0 1
30.835011 0.758979 -22.739099 38.320237 0.024609 2.206069 0.002337 0.005112 -252186.000000 0 0 1
29.687511 0.793679 -23.547199 37.900512 0.026728 2.241184 -0.000085 0.001625 9371.100000 0 0 1
28.717611 1.660079 -22.977099 36.815814 0.057743 2.244788 -0.002498 0.005556 -524462.000000 0 0 1
27.498111 1.741179 -23.882199 36.462820 0.063236 2.284945 -0.006572 0.003812 -493412.000000 0 0 1
26.521411 2.649979 -23.387099 35.459329 0.099588 2.291012 -0.007685 0.002058 -567217.000000 0 0 1
25.537811 2.815379 -24.337099 35.389272 0.109800 2.329109 0.008260 -0.004481 -833693.000000 0 0 1
24.567811 3.934479 -23.871799 34.480723 0.158799 2.335500 0.015453 -0.005011 -438900.000000 0 0 1
25.116911 5.210879 -23.604799 34.859705 0.204563 2.314661 -0.002669 0.000598 -293029.000000 0 0 1
24.121511 6.178179 -23.431699 34.191545 0.250737 2.325821 0.022450 -0.007388 -696581.000000 0 0 1
24.636311 7.428179 -22.708999 34.319445 0.292845 2.293873 0.033715 -0.002764 -402701.000000 0 0 1
25.231111 8.318379 -23.657899 35.573875 0.318466 2.298338 0.019227 -0.001024 295160.000000 0 0 1
25.328511 9.642579 -23.202499 35.677286 0.363759 2.278833 0.024276 -0.003736 -218666.000000 0 0 1
26.142911 10.548479 -24.193199 37.148797 0.383514 2.280028 0.040950 -0.008448 -137391.000000 0 0 1
25.697511 10.789379 -25.543799 37.805535 0.397510 2.312660 0.048398 -0.020153 -214608.000000 0 0 1
24.446711 11.387779 -25.675559 37.236508 0.435932 2.331631 0.056508 -0.028731 -229574.000000 0 0 1
23.948911 11.641779 -27.199649 38.064449 0.452473 2.366803 0.048810 -0.025911 1576.220000 0 0 1
23.731711 10.463279 -27.981449 38.152796 0.415259 2.394114 0.044088 -0.012107 120525.000000 0 0 1
24.853411 9.819179 -28.523439 39.085738 0.376261 2.388776 0.041645 -0.020257 -350029.000000 0 0 1
25.624711 10.459479 -29.703219 40.599356 0.387538 2.391489 0.041490 -0.010787 -1333340.000000 0 0 1
26.625211 11.342179 -29.239419 41.139890 0.402712 2.361334 0.033211 -0.008012 739510.000000 0 0 1
27.508311 11.823879 -30.273349 42.579185 0.405954 2.361701 0.029733 0.000601 833840.000000 0 0 1
28.499911 10.747579 -30.809629 43.324227 0.360619 2.361916 0.018603 -0.001733 -759540.000000 0 0 1
27.776111 9.916679 -31.730679 43.320767 0.342917 2.392723 0.026579 -0.008651 473871.000000 0 0 1
28.442111 8.690879 -31.967519 43.662425 0.296553 2.392272 0.018534 -0.004853 -184492.000000 0 0 1
27.723111 7.653879 -32.935359 43.725172 0.269373 2.423764 0.030962 -0.006925 137269.000000 0 0 1
26.588611 7.068079 -32.327889 42.450022 0.259822 2.436500 0.027362 -0.006746 315648.000000 0 0 1
25.925411 6.076479 -33.164209 42.531345 0.230227 2.465077 0.037618 -0.000733 -713559.000000 0 0 1
24.666811 5.457279 -32.588979 41.234391 0.217733 2.482152 0.047219 -0.000050 265519.000000 0 0 1
23.477311 6.267679 -32.667369 40.713940 0.260883 2.502041 0.038191 0.002137 849664.000000 0 0 1
23.473211 7.105279 -31.518629 39.936207 0.293930 2.480341 0.043874 -0.001584 -614430.000000 0 0 1
22.089411 7.700179 -31.173769 38.974847 0.335419 2.497830 0.043867 0.005984 209534.000000 0 0 1
21.539011 8.596579 -32.138089 39.631893 0.379745 2.516510 0.041224 0.005684 591076.000000 0 0 1
20.111811 8.654179 -32.096249 38.852915 0.406354 2.542941 0.030514 0.011771 547603.000000 0 0 1
19.537311 9.661479 -33.138739 39.663922 0.459249 2.559817 0.028470 0.010458 -225625.000000 0 0 1
19.565811 9.280079 34.348733 40.605126 0.442878 0.562506 0.026589 0.010778 188958.000000 0 0 1
19.100711 10.297479 33.451988 39.873685 0.494448 0.575447 0.022170 0.019332 653064.000000 0 0 1
18.024111 9.838879 32.368655 38.332779 0.499669 0.565330 0.015188 0.022072 578539.000000 0 0 1
18.409511 8.934879 31.333985 37.424067 0.451851 0.578528 0.017492 0.016050 370372.000000 0 0 1
19.321011 9.385579 30.277895 37.123328 0.452199 0.617026 0.029937 0.012215 316688.000000 0 0 1
18.836411 10.509479 29.269705 36.358976 0.508914 0.635087 0.025161 0.008502 -26243.600000 0 0 1
17.924211 10.152479 28.278145 34.985763 0.515356 0.629578 0.017510 0.007918 -158896.000000 0 0 1
16.560811 10.262979 28.587385 34.595199 0.554790 0.598219 0.018769 0.007821 -365638.000000 0 0 1
15.583211 9.464379 27.737765 33.193290 0.545802 0.581493 0.017246 0.006121 -458501.000000 0 0 1
15.585811 9.678779 26.342855 32.102060 0.555717 0.608341 0.024132 0.001565 582943.000000 0 0 1
14.523811 9.112879 25.533375 30.756119 0.560355 0.591351 0.030057 0.002445 635322.000000 0 0 1
14.449211 7.560179 25.341535 30.135185 0.482054 0.571800 0.026967 0.006135 -100314.000000 0 0 1
14.206811 6.885279 26.541605 30.881990 0.451289 0.536599 0.008949 0.004767 97460.700000 0 0 1
13.733711 5.624579 26.108735 30.031929 0.388708 0.516879 0.017241 -0.002943 -179513.000000 0 0 1
13.921711 4.613879 27.260185 30.955122 0.320024 0.493594 0.017866 -0.001004 243822.000000 0 0 1
15.235811 4.098179 27.462545 31.672012 0.262764 0.521462 0.004691 0.004952 548915.000000 0 0 1
15.412811 3.816779 28.827655 32.911339 0.242753 0.503460 -0.008792 0.006187 222866.000000 0 0 1
16.463411 2.683679 29.007075 33.461267 0.161587 0.521877 0.011688 0.000529 86215.200000 0 0 1
15.935811 1.344679 28.837735 32.975342 0.084182 0.506342 0.008447 -0.012006 306591.000000 0 0 1
15.207911 0.959179 30.006465 33.653952 0.062988 0.469891 0.002885 -0.016092 66536.200000 0 0 1
14.857511 -0.560321 29.949405 33.436902 -0.037695 0.460795 0.006715 -0.018824 -283062.000000 0 0 1
14.072211 -1.038921 28.866825 32.130983 -0.073694 0.454659 0.005083 -0.018026 496421.000000 0 0 1
14.701911 -1.068721 27.546445 31.242519 -0.072565 0.491349 0.008212 -0.011465 -366599.000000 0 0 1
15.871211 -2.080421 27.344195 31.684830 -0.130338 0.529607 0.015865 -0.010339 1431200.000000 0 0 1
17.138011 -1.885121 28.049375 32.924649 -0.109556 0.551143 0.019092 -0.019009 1622240.000000 0 0 1
17.908711 -0.834621 27.426095 32.765976 -0.046571 0.578964 0.024129 -0.014172 -1589010.000000 0 0 1
19.329611 -0.651921 27.849865 33.906840 -0.033714 0.606998 0.046416 -0.004668 -608794.000000 0 0 1
20.272511 -1.407921 27.062535 33.842839 -0.069338 0.644079 0.040856 -0.013678 682388.000000 0 0 1
21.607911 -0.959921 27.227495 34.772974 -0.044395 0.671310 0.052281 -0.020057 435489.000000 0 0 1
22.649011 -1.446721 26.189685 34.655018 -0.063789 0.714035 0.055242 -0.012103 -180066.000000 0 0 1
22.682711 -0.778621 24.943865 33.723998 -0.034313 0.738250 0.054078 -0.007748 37357.100000 0 0 1
21.819411 -1.350621 24.004965 32.467664 -0.061821 0.738692 0.052349 0.003577 -273225.000000 0 0 1
21.602611 -0.495321 22.742835 31.371240 -0.022925 0.759823 0.038603 -0.018192 120014.000000 0 0 1
20.427911 0.307479 22.732235 30.563845 0.015051 0.732115 0.016924 -0.003712 282768.000000 0 0 1
20.144511 0.868479 21.527335 29.495453 0.043086 0.752690 0.035669 -0.002530 86291.000000 0 0 1
-29.651729 -27.846643 -10.456999 42.000112 0.754015 1.822419 0.006424 0.017993 -50526.200000 0 0 1
-29.573629 -26.605343 -9.833799 40.977401 0.732611 1.813143 0.009268 0.015472 -438307.000000 0 0 1
-30.214269 -26.701643 -8.633299 41.236072 0.723760 1.781720 0.022353 0.005513 -746529.000000 0 0 1
-30.635069 -25.463543 -7.873899 40.606622 0.693472 1.765939 0.032568 -0.000981 398586.000000 0 0 1
-29.612129 -24.710743 -7.213599 39.236909 0.695415 1.755695 0.021035 -0.001860 -104248.000000 0 0 1
-28.869029 -25.320943 -6.192099 38.896183 0.720017 1.730672 0.018326 -0.001197 1181380.000000 0 0 1
-27.695769 -24.430143 -5.530999 37.342730 0.722831 1.719458 0.025053 -0.001135 746902.000000 0 0 1
-28.046029 -23.326043 -4.778499 36.790190 0.693777 1.701049 0.033353 -0.003460 -273126.000000 0 0 1
-28.864959 -22.330243 -5.331999 36.881646 0.658442 1.715875 0.035103 -0.005967 -24142.100000 0 0 1
-28.972469 -21.141043 -4.320699 36.125007 0.630378 1.690687 0.043813 -0.009801 418673.000000 0 0 1
-27.794729 -20.321743 -4.408299 34.712437 0.631319 1.698135 0.047836 -0.021565 684686.000000 0 0 1
-27.820489 -19.321143 -3.418199 34.043652 0.607021 1.671372 0.040586 -0.013214 -251730.000000 0 0 1
-26.653339 -18.324543 -3.399399 32.522996 0.602297 1.675511 0.044525 -0.009269 -160678.000000 0 0 1
-26.647379 -17.387943 -4.456899 32.129228 0.578145 1.709963 0.051155 -0.021524 82482.100000 0 0 1
-25.578919 -16.470443 -4.350899 30.732506 0.572080 1.712847 0.053926 -0.021612 147196.000000 0 0 1
-25.832719 -15.354943 -5.441499 30.540360 0.536291 1.749927 0.051737 -0.033724 388898.000000 0 0 1
-27.045379 -14.622443 -5.262399 31.192326 0.495647 1.740315 0.042914 -0.028030 338408.000000 0 0 1
-27.327089 -13.681843 -6.290299 31.201450 0.464183 1.773790 0.063582 -0.037846 -121777.000000 0 0 1
-28.700279 -13.005043 -6.200799 32.113659 0.425456 1.765106 0.069252 -0.030127 818658.000000 0 0 1
-29.853289 -13.802343 -6.592099 33.543693 0.433068 1.768607 0.076969 -0.029148 974914.000000 0 0 1
-31.000579 -12.982143 -6.691499 34.268763 0.396583 1.767324 0.060331 -0.030195 654276.000000 0 0 1
-32.172239 -13.706243 -7.481299 35.761486 0.402740 1.781553 0.041466 -0.027883 628103.000000 0 0 1
-32.783329 -14.780743 -6.760499 36.591275 0.423570 1.756621 0.035584 -0.026431 244634.000000 0 0 1
-32.946029 -15.888043 -7.584399 37.354971 0.449343 1.775254 0.047658 -0.027249 61318.400000 0 0 1
-33.861649 -16.977943 -6.913099 38.505230 0.464760 1.751312 0.030630 -0.022250 1545770.000000 0 0 1
-35.279623 -16.711143 -6.807599 39.626475 0.442368 1.743447 0.007998 -0.025373 1197140.000000 0 0 1
35.293285 -15.987843 -5.640999 39.154156 -0.425346 1.715371 0.019599 -0.028416 795836.000000 0 0 1
33.740812 -15.777143 -5.551399 37.658713 -0.437392 1.718749 0.007199 -0.026969 387528.000000 0 0 1
33.098052 -14.743643 -6.299899 36.776960 -0.419067 1.742946 0.025018 -0.031898 -186101.000000 0 0 1
31.744822 -14.601143 -5.989499 35.451392 -0.431100 1.740560 0.032824 -0.031809 -582712.000000 0 0 1
31.191732 -14.153143 -4.636499 34.564906 -0.425965 1.705341 0.039003 -0.033926 -1189770.000000 0 0 1
31.460622 -15.029743 -3.557999 35.047443 -0.445675 1.672491 0.027058 -0.028572 288437.000000 0 0 1
31.036402 -14.467643 -2.333199 34.322220 -0.436203 1.638828 0.027369 -0.036774 -1173380.000000 0 0 1
31.162762 -15.363943 -1.034299 34.759722 -0.458050 1.600556 0.030069 -0.035075 383997.000000 0 0 1
32.496542 -15.673743 -0.602099 36.083985 -0.449404 1.587483 0.040949 -0.031938 767394.000000 0 0 1
33.361922 -16.387843 -1.469099 37.198622 -0.456594 1.610300 0.030082 -0.028302 -717313.000000 0 0 1
32.922992 -17.805243 -1.957999 37.480446 -0.495764 1.623061 0.011092 -0.014421 -945715.000000 0 0 1
33.040722 -18.741443 -0.906399 37.996744 -0.515970 1.594653 0.023680 -0.016103 -20440.200000 0 0 1
32.669392 -20.087543 -1.164099 38.368655 -0.551284 1.601141 0.011334 -0.007471 -346402.000000 0 0 1
33.498422 -20.968243 -2.119599 39.576561 -0.559280 1.624379 0.022395 -0.011584 -139736.000000 0 0 1
33.648372 -20.254243 -3.320399 39.414114 -0.541843 1.655140 0.011773 -0.020899 -127798.000000 0 0 1
34.592722 -20.764043 -4.233099 40.567487 -0.540598 1.675334 0.020804 -0.019072 -217964.000000 0 0 1
34.550322 -19.903243 -5.567799 40.259958 -0.522635 1.709537 0.028927 -0.021469 809168.000000 0 0 1
33.425282 -20.129043 -6.471499 39.551336 -0.542043 1.735158 0.019707 -0.024973 950131.000000 0 0 1
33.498172 -19.242243 -7.602099 39.372368 -0.521403 1.765099 0.023686 -0.025920 438067.000000 0 0 1
32.309862 -19.408643 -8.608399 38.661701 -0.540937 1.795338 0.028371 -0.030007 383166.000000 0 0 1
32.442972 -20.639343 -9.291399 39.558299 -0.566594 1.807890 0.041287 -0.029762 532917.000000 0 0 1
31.508932 -20.747743 -10.376399 39.127373 -0.582308 1.839203 0.040909 -0.035028 49125.300000 0 0 1
31.566122 -22.216043 -10.970699 40.128903 -0.613268 1.847708 0.045978 -0.033532 -132592.000000 0 0 1
31.083732 -23.140243 -9.996999 40.020110 -0.639939 1.823269 0.044214 -0.030219 50488.700000 0 0 1
31.167452 -24.528243 -10.338599 40.986966 -0.666753 1.825792 0.032983 -0.015371 -772388.000000 0 0 1
30.335292 -25.463843 -9.469199 40.722266 -0.698316 1.805476 0.026174 -0.016421 -706256.000000 0 0 1
29.004862 -25.033243 -9.459599 39.464279 -0.712033 1.812853 0.029202 -0.021732 -878589.000000 0 0 1
28.178422 -26.092743 -9.080599 39.462792 -0.746986 1.802982 0.014150 -0.015869 -445581.000000 0 0 1
26.724662 -25.661943 -8.842299 38.091064 -0.765115 1.805069 0.020735 -0.024906 -363715.000000 0 0 1
26.194132 -25.190143 -10.057299 37.707096 -0.765862 1.840786 0.026184 -0.019904 476035.000000 0 0 1
24.965762 -24.479843 -9.809999 36.315122 -0.775571 1.844330 0.037189 -0.029059 276256.000000 0 0 1
24.188962 -24.141543 -11.052799 35.917744 -0.784417 1.883598 0.074612 -0.036148 -268335.000000 0 0 1
23.250262 -25.127743 -11.433499 36.092978 -0.824187 1.893128 0.058222 -0.030272 551449.000000 0 0 1
22.412262 -24.785943 -12.528699 35.687824 -0.835648 1.929503 0.061987 -0.009404 113832.000000 0 0 1
21.814362 -26.008343 -13.183299 36.415652 -0.872873 1.941233 0.065177 -0.017526 -293007.000000 0 0 1
22.731562 -26.830743 -13.853899 37.796074 -0.867918 1.946087 0.057136 -0.008589 185618.000000 0 0 1
22.193262 -28.146843 -13.982599 38.474651 -0.903119 1.942737 0.046613 0.009440 -158024.000000 0 0 1
23.124162 -29.194543 -14.617599 40.009029 -0.900909 1.944813 0.028576 0.008602 -279361.000000 0 0 1
23.154462 -29.116143 -16.010799 40.499686 -0.898962 1.977225 0.027264 0.012388 278293.000000 0 0 1
23.690262 -30.317943 -16.503499 41.866116 -0.907504 1.975990 0.017060 0.017061 -423235.000000 0 0 1
23.537962 -30.475743 -18.041799 42.524265 -0.913144 2.008953 0.011009 0.014591 820159.000000 0 0 1
22.209062 -30.499443 -18.615099 42.071135 -0.941407 2.029144 0.015654 0.014457 918506.000000 0 0 1
22.167462 -30.631843 -20.024499 42.786525 -0.944358 2.057833 0.012846 0.016435 -956059.000000 0 0 1
20.785562 -30.530343 -20.620699 42.300764 -0.973062 2.079995 0.009642 0.015799 -878310.000000 0 0 1
20.755162 -30.406843 -22.004499 42.889985 -0.971856 2.109525 0.003836 0.019125 -690009.000000 0 0 1
19.439462 -30.188343 -22.362499 42.300238 -0.998693 2.127819 0.011891 0.012793 -1215710.000000 0 0 1
19.218662 -30.278643 -23.888099 43.090538 -1.005233 2.158402 0.013081 0.008055 -488051.000000 0 0 1
19.665762 -29.139643 -24.583699 42.897777 -0.977129 2.181051 0.026975 0.004821 348856.000000 0 0 1
19.747862 -29.450743 -25.947819 43.938749 -0.980118 2.202531 0.028701 -0.003784 -582776.000000 0 0 1
20.050962 -28.259143 -26.871459 43.848553 -0.953697 2.230426 0.040065 -0.007806 -104654.000000 0 0 1
19.042762 -27.282243 -26.814259 42.731160 -0.961420 2.249148 0.050534 -0.012800 -316767.000000 0 0 1
18.111662 -27.480443 -27.832049 43.102552 -0.988068 2.272758 0.061045 -0.021897 -599562.000000 0 0 1
17.376562 -26.174343 -28.269449 42.263494 -0.984727 2.303505 0.061652 -0.026590 -393794.000000 0 0 1
16.693762 -25.667643 -27.166299 40.933084 -0.994153 2.296519 0.043321 -0.002453 -120203.000000 0 0 1
15.947062 -24.546343 -27.624719 40.248688 -0.994652 2.327256 0.025510 0.011237 34677.300000 0 0 1
14.894862 -24.053443 -26.597019 38.830741 -1.016350 2.325328 0.015178 0.010114 205140.000000 0 0 1
13.741062 -24.888643 -26.490679 38.858943 -1.066341 2.320899 0.019690 -0.002050 534950.000000 0 0 1
12.654462 -24.366743 -25.708419 37.613779 -1.091802 2.323321 -0.001390 0.003684 350392.000000 0 0 1
12.769962 -24.529543 -24.171199 36.728971 -1.090809 2.289084 0.003086 -0.001249 -591396.000000 0 0 1
13.882262 -23.896043 -23.576599 36.326218 -1.044506 2.277098 -0.003790 -0.000432 -149672.000000 0 0 1
13.976762 -24.310643 -22.213099 35.773999 -1.049019 2.240723 0.003912 -0.002101 -174248.000000 0 0 1
15.233862 -23.842143 -21.479599 35.523112 -1.002231 2.220142 0.005556 -0.006982 -233674.000000 0 0 1
15.145362 -22.509043 -21.018199 34.319145 -0.978521 2.229932 -0.002958 -0.011081 -393636.000000 0 0 1
16.266962 -22.173543 -20.253899 34.154070 -0.937861 2.205595 0.008480 -0.005524 -644304.000000 0 0 1
16.211662 -20.870543 -19.409799 32.789295 -0.910380 2.204279 0.012421 0.014531 -342684.000000 0 0 1
15.303062 -20.854243 -18.355199 31.717448 -0.937737 2.187942 0.007502 -0.008046 806102.000000 0 0 1
14.032462 -20.227443 -18.661299 30.891804 -0.964288 2.219414 0.006636 -0.006244 740304.000000 0 0 1
13.150262 -20.030543 -17.403099 29.614522 -0.989858 2.198953 0.017843 -0.012635 -131260.000000 0 0 1
13.627862 -19.159843 -16.446699 28.693416 -0.952545 2.181186 0.024076 -0.018623 -143297.000000 0 0 1
12.636062 -19.014043 -15.463299 27.573856 -0.984250 2.166143 0.024693 -0.018861 26728.600000 0 0 1
12.760962 -17.758243 -14.645499 26.318966 -0.947700 2.160918 0.020018 -0.018594 -605240.000000 0 0 1
12.539562 -16.643743 -15.432899 25.931239 -0.925116 2.208245 0.065570 -0.028219 170059.000000 0 0 1
12.602362 -15.477143 -14.718699 24.799226 -0.887423 2.206215 0.059510 -0.023776 420944.000000 0 1 0
11.179562 -15.028243 -14.219799 23.516662 -0.931208 2.220147 0.042236 -0.015077 502081.000000 0 1 0
10.404562 -14.505643 -15.279099 23.497222 -0.948569 2.278711 0.037834 -0.008911 -844572.000000 0 1 0
9.229362 -13.916343 -14.850999 22.347212 -0.985195 2.297697 0.040559 -0.009939 -518131.000000 0 1 0
8.402962 -13.205443 -15.964099 22.357235 -1.004094 2.366057 0.037226 -0.007603 375739.000000 0 1 0
8.992162 -12.068043 -16.642499 22.438124 -0.930425 2.406407 0.042301 -0.004416 1112960.000000 0 1 0
10.277862 -12.303643 -17.299499 23.585732 -0.874868 2.394214 0.055199 -0.002004 1321980.000000 0 1 0
10.670462 -11.083043 -18.155199 23.797140 -0.804362 2.438607 0.059535 -0.004429 -478144.000000 0 1 0
9.805362 -10.954343 -19.211099 24.191095 -0.840688 2.488386 0.046427 -0.006477 -257981.000000 0 1 0
9.970162 -9.711443 -19.869799 24.259538 -0.772254 2.530551 0.047366 -0.010232 200184.000000 0 1 0
9.361862 -9.725743 -21.329499 25.242466 -0.804460 2.577333 0.030049 -0.009353 -108519.000000 0 0 1
10.139562 -10.436743 -22.235499 26.573554 -0.799840 2.562123 0.009374 0.016324 -628365.000000 0 0 1
9.780962 -10.232443 -23.602599 27.521860 -0.807953 2.601371 0.020620 0.015076 124235.000000 0 0 1
10.737262 -11.112543 -24.475199 28.944996 -0.802572 2.578440 0.042059 0.014632 405591.000000 0 0 1
10.503162 -12.513843 -24.440499 29.398141 -0.872533 2.552350 0.020692 0.013974 -306790.000000 0 0 1
11.474962 -13.257443 -25.139949 30.650475 -0.857344 2.532581 0.011120 0.015918 -122156.000000 0 0 1
11.517462 -14.703443 -24.645899 30.923511 -0.906311 2.493101 0.003977 0.012021 514118.000000 0 0 1
10.506562 -15.556743 -25.200239 31.423751 -0.976792 2.501347 0.014002 0.001846 56808.300000 0 0 1
10.633762 -16.896843 -24.701099 31.760424 -1.009086 2.461846 0.017503 0.005980 158533.000000 0 0 1
9.494262 -17.848643 -25.105489 32.233533 -1.081931 2.463646 0.017794 0.002830 203475.000000 0 0 1
9.688162 -18.374543 -26.412399 33.602071 -1.085579 2.475165 0.010990 -0.006931 161122.000000 0 0 1
8.506662 -19.069343 -26.775039 33.954468 -1.151198 2.479256 0.008696 -0.008208 83113.800000 0 0 1
8.655262 -19.995043 -28.026389 35.499208 -1.162278 2.480779 0.001315 -0.012206 -334074.000000 0 0 1
9.518662 -21.086143 -27.766349 36.141396 -1.146764 2.446930 -0.009720 -0.013680 12111.300000 0 0 1
9.590262 -22.003143 -28.840119 37.521513 -1.159764 2.447491 -0.004873 -0.008562 89713.600000 0 0 1
9.839562 -23.505343 -28.375979 38.138096 -1.174351 2.409882 -0.005987 -0.012219 163363.000000 0 0 1
9.413462 -24.490143 -29.349699 39.367312 -1.203830 2.412133 0.008238 -0.013056 -200719.000000 0 0 1
9.805362 -25.843043 -29.237739 40.234977 -1.208156 2.384265 0.021924 -0.010915 121488.000000 0 0 1
9.396162 -26.632243 -27.970039 39.747796 -1.231619 2.351371 0.028180 -0.010086 566374.000000 0 0 1
10.162562 -26.130343 -26.855099 38.823561 -1.199880 2.334667 0.012470 -0.009856 -111355.000000 0 0 1
9.607562 -26.477243 -25.564829 38.038272 -1.222710 2.307813 0.007795 -0.012127 329508.000000 0 0 1
8.773262 -25.342043 -24.955899 36.633130 -1.237516 2.320249 0.010972 -0.011072 -149671.000000 0 0 1
9.643562 -24.289843 -24.604799 35.894163 -1.192861 2.326062 -0.012951 -0.009323 -474851.000000 0 0 1
8.979662 -23.048743 -24.707599 34.962042 -1.199292 2.355616 -0.002181 -0.014078 -56433.900000 0 0 1
9.852162 -21.801243 -24.471899 34.223284 -1.146357 2.367515 0.006814 -0.011111 -115318.000000 0 0 1
10.208262 -21.601743 -23.116899 33.245074 -1.129335 2.339700 0.015308 -0.011200 -176874.000000 0 0 1
11.343762 -20.771643 -23.092399 33.066614 -1.070939 2.343900 0.008918 -0.001779 -40719.400000 0 0 1
11.963962 -20.470643 -21.686999 32.132687 -1.041893 2.311653 0.008349 -0.000910 1045160.000000 0 0 1
11.030962 -19.794243 -20.735199 30.715512 -1.062380 2.311859 0.018010 0.004390 1124900.000000 0 0 1
10.529962 -18.470243 -21.040699 29.912222 -1.052649 2.350987 0.035618 0.005628 32733.300000 0 0 1
11.584162 -17.337343 -21.030199 29.614955 -0.981759 2.360466 0.020160 0.001831 103576.000000 0 0 1
12.568862 -17.474143 -22.016899 30.790677 -0.947245 2.367493 0.013137 0.015227 -418983.000000 0 0 1
13.857062 -17.200043 -21.514499 30.833964 -0.892625 2.343053 0.018309 0.004554 -313316.000000 0 0 1
14.957162 -17.227643 -22.562399 32.086917 -0.855827 2.350635 0.012451 0.024692 -176288.000000 0 0 1
16.244062 -17.452443 -22.020999 32.455843 -0.821244 2.316503 0.017634 0.024539 220281.000000 0 0 1
17.276762 -17.291343 -22.959099 33.535016 -0.785820 2.324893 0.009118 0.029836 280952.000000 0 0 1
18.698262 -17.531343 -22.359499 34.013530 -0.753200 2.288121 0.004220 0.025749 392882.000000 0 0 1
18.858762 -18.934043 -22.151999 34.711122 -0.787390 2.262930 0.009772 0.016101 895011.000000 0 0 1
20.254062 -19.261343 -22.068699 35.612552 -0.760281 2.239142 0.012793 0.005660 851939.000000 0 0 1
20.382862 -20.734943 -21.654299 36.253381 -0.793961 2.210932 0.016148 0.001717 -154324.000000 0 0 1
20.141262 -20.849743 -20.238099 35.354814 -0.802680 2.180261 0.019879 -0.001154 323014.000000 0 0 1
20.077062 -22.196143 -19.743099 35.854528 -0.835484 2.153932 0.022354 0.015898 -205644.000000 0 0 1
-16.152889 12.905979 28.632025 35.316752 -0.674124 0.625414 0.009120 -0.016406 -531591.000000 0 0 1
-17.372889 13.604479 28.566435 36.096264 -0.664343 0.657707 0.006351 -0.013182 -308918.000000 0 0 1
-17.693489 13.687179 27.224655 35.236064 -0.658417 0.687813 0.006825 -0.014633 -492597.000000 0 0 1
-18.948089 14.474579 26.872785 35.926175 -0.652342 0.725753 0.014260 -0.008930 -360267.000000 0 0 1
-18.938789 15.850379 27.223975 36.756728 -0.696855 0.736755 0.014445 -0.000203 -31647.100000 0 0 1
-19.992889 16.475279 26.522015 37.075163 -0.689239 0.773660 0.010490 -0.001615 -735755.000000 0 0 1
-20.048789 18.032579 26.829675 38.038918 -0.732503 0.787919 0.017259 0.006501 -195776.000000 0 0 1
-19.057689 18.897779 26.358965 37.618035 -0.781185 0.794418 0.021329 0.007251 -147707.000000 0 0 1
-17.775789 18.818279 26.944825 37.364821 -0.813878 0.765367 0.011626 0.011741 -643951.000000 0 0 1
-16.673989 19.591679 26.287275 36.781471 -0.865678 0.774618 0.015914 0.012706 -616997.000000 0 0 1
-16.826589 21.008079 26.395005 37.698405 -0.895472 0.795171 0.020030 0.010932 556823.000000 0 0 1
-15.797789 21.723679 25.678325 37.159988 -0.942038 0.807896 0.029287 0.009834 563905.000000 0 0 1
-15.925889 23.264979 25.625565 38.099380 -0.970519 0.833082 0.034745 0.008266 -115424.000000 0 0 1
-15.750889 23.887479 26.889955 39.265402 -0.987856 0.816432 0.034396 0.007234 50058.000000 0 0 1
-15.818889 25.322879 26.803765 40.123899 -1.012422 0.839245 0.034785 0.004311 -632989.000000 0 0 1
-15.179189 26.108079 27.909705 41.121663 -1.044167 0.824791 0.018428 0.003146 -603653.000000 0 0 1
-13.797389 26.248079 27.717805 40.590717 -1.086837 0.819125 0.030709 -0.002215 -459521.000000 0 0 1
-13.277989 27.046979 28.816545 41.692173 -1.114437 0.807684 0.025842 -0.004091 165493.000000 0 0 1
-11.750189 27.153779 28.999805 41.429257 -1.162399 0.795422 0.038819 -0.008121 126063.000000 0 0 1
-11.180389 27.959979 27.995195 41.115599 -1.190401 0.821819 0.038807 -0.007998 207871.000000 0 0 1
-9.764289 27.857479 28.121605 40.770150 -1.233668 0.809639 0.032892 -0.006697 693713.000000 0 0 1
-8.906989 28.434979 26.943195 40.172356 -1.267237 0.835658 0.041724 -0.009623 1104700.000000 0 0 1
-7.476789 28.311779 27.006405 39.834722 -1.312603 0.825810 0.026217 -0.007488 1277460.000000 0 0 1
-6.806889 28.782779 25.815025 39.258090 -1.338571 0.853205 0.035456 -0.010709 -578516.000000 0 0 1
-5.347589 28.395379 25.784525 38.726425 -1.384651 0.842215 0.019251 -0.010805 -1160600.000000 0 0 1
-4.567789 28.971779 26.817305 39.741622 -1.414420 0.830114 0.019289 -0.007855 500876.000000 0 0 1
-3.169189 28.708179 26.733735 39.356014 -1.460848 0.824016 0.007680 -0.000945 635728.000000 0 0 1
-2.393289 29.690979 25.819755 39.420068 -1.490364 0.856627 -0.003570 0.013648 -736135.000000 0 0 1
-2.692289 29.672679 24.434265 38.532448 -1.480311 0.883924 -0.009256 0.026762 -199563.000000 0 0 1
-2.208789 30.779579 23.680535 38.897673 -1.499158 0.916261 -0.011155 0.023389 -457164.000000 0 0 1
-2.386089 30.632479 22.110435 37.853844 -1.493059 0.947025 -0.011137 0.033159 1091570.000000 0 0 1
-3.711689 30.505479 21.557635 37.537881 -1.449719 0.959060 -0.002250 0.023522 375260.000000 0 0 1
-4.253889 29.247879 21.728535 36.683282 -1.426366 0.936851 -0.011791 0.017656 34842.900000 0 0 1
-5.694089 28.910079 21.251435 36.329586 -1.376327 0.945963 0.012110 0.007666 156263.000000 0 0 1
-5.770889 28.894079 19.859035 35.532411 -1.373665 0.977739 -0.007670 0.017521 -339993.000000 0 0 1
-6.881489 28.176079 19.401635 34.895125 -1.331254 0.981233 0.001514 0.004677 -997728.000000 0 0 1
-6.625189 26.709679 18.969035 33.423410 -1.327659 0.967285 -0.002864 0.007679 192931.000000 0 0 1
-5.735089 26.459779 17.883735 32.447482 -1.357351 0.987043 -0.009061 0.009098 25264.000000 0 0 1
-4.380889 26.666579 18.237335 32.602132 -1.407967 0.977146 -0.006245 0.019835 -693323.000000 0 0 1
-3.529589 27.035679 17.024935 32.143963 -1.440978 1.012613 -0.001334 0.014796 -307651.000000 0 0 1
-3.131889 25.859279 16.380735 30.770757 -1.450271 1.009425 0.000870 0.012725 -121412.000000 0 0 1
-2.380089 26.168679 15.214235 30.363424 -1.480094 1.045960 0.004155 -0.002804 -14439.000000 0 0 1
-1.789589 24.930879 14.502035 28.897411 -1.499137 1.045065 0.008330 -0.004021 -33106.100000 0 0 1
-0.709589 24.456379 15.296235 28.854684 -1.541790 1.012063 0.016431 0.001007 -87860.200000 0 0 1
-0.020789 23.424579 14.604635 27.604469 -1.569909 1.013295 0.016002 -0.013883 -813465.000000 0 0 1
1.254911 22.975079 15.269035 27.614715 1.516230 0.984918 0.016099 -0.010839 -570140.000000 0 0 1
2.266811 23.969879 15.182435 28.464010 1.476508 1.008192 0.019052 -0.017301 -550730.000000 0 0 1
3.424011 23.480779 15.785235 28.499903 1.425995 0.983791 0.028592 -0.015393 -619405.000000 0 0 1
4.585311 24.498779 15.762235 29.490054 1.385772 1.006888 0.033029 -0.016757 11162.100000 0 0 1
5.814911 23.814779 15.818435 29.174985 1.331310 0.997753 0.032310 -0.014556 -445634.000000 0 0 1
6.908011 24.667679 16.079035 30.244840 1.297748 1.010274 0.039065 -0.015877 372481.000000 0 0 1
8.268411 23.936679 15.811535 29.855248 1.238200 1.012660 0.039247 -0.012445 151710.000000 0 0 1
8.487711 23.654579 14.463035 28.995857 1.226287 1.048587 0.028826 -0.009346 -24304.000000 0 0 1
9.296911 24.634879 13.833935 29.743698 1.209934 1.087043 0.030529 -0.009497 -487085.000000 0 0 1
9.744411 24.115179 12.462735 28.841206 1.186779 1.123959 0.023102 -0.000740 144570.000000 0 0 1
10.736911 23.109279 12.694435 28.468732 1.135855 1.108608 0.023039 -0.006655 227693.000000 0 0 1
11.154311 22.489579 11.440035 27.587573 1.110372 1.143204 0.031270 -0.010886 1085520.000000 0 0 1
12.444711 21.568479 11.597735 27.469575 1.047471 1.134922 0.023441 -0.008986 742351.000000 0 0 1
12.215411 20.318579 12.243035 26.682444 1.029499 1.094104 0.019657 0.006116 -388000.000000 0 0 1
13.297211 19.436179 12.440835 26.633724 0.970789 1.084779 0.026760 0.000472 -360635.000000 0 0 1
13.823211 19.367879 13.871035 27.542721 0.950923 1.043014 0.027405 -0.000667 -24230.200000 0 0 1
14.844311 18.395279 14.090235 27.518622 0.891824 1.033255 0.029836 -0.002622 309727.000000 0 0 1
15.121511 18.166779 15.439135 28.232230 0.876626 0.992185 0.018521 -0.007674 201416.000000 0 0 1
16.201711 17.040579 15.573035 28.202769 0.810628 0.985818 0.001677 -0.008093 312279.000000 0 0 1
16.659111 16.844479 16.889935 29.095229 0.790931 0.951447 0.012479 -0.012844 395407.000000 0 0 1
17.676511 15.831279 16.928735 29.149108 0.730385 0.951130 0.001712 -0.008614 372188.000000 0 0 1
18.223611 15.568479 18.318235 30.166791 0.706987 0.918224 0.010426 -0.012418 544821.000000 0 0 1
19.026311 16.528779 19.074735 31.607698 0.715269 0.922933 0.014603 -0.005722 1120170.000000 0 0 1
18.169111 17.558279 19.556635 31.951083 0.768303 0.912108 0.007089 -0.001273 267862.000000 0 0 1
18.871411 18.527079 20.529135 33.478772 0.776191 0.910693 0.003789 0.005114 -42330.800000 0 0 1
17.980811 19.577279 20.894035 33.810355 0.827879 0.904629 0.017106 0.010212 238751.000000 0 0 1
18.537311 20.386679 21.928935 35.215434 0.832875 0.898597 0.010545 0.017572 -71229.400000 0 0 1
17.649311 21.540279 22.430535 35.757666 0.884360 0.892724 0.017173 0.011916 30444.500000 0 0 1
16.719811 21.137279 23.414235 35.701023 0.901561 0.855499 0.022039 0.007287 -451561.000000 0 0 1
15.925711 22.219579 23.757235 36.218009 0.948922 0.855355 0.030262 -0.003054 -593179.000000 0 0 1
15.164211 21.928279 25.012725 36.557340 0.965773 0.817283 0.039447 -0.006015 -216688.000000 0 0 1
14.209311 20.897479 24.795205 35.403550 0.973652 0.794896 0.037607 -0.009997 -62516.800000 0 0 1
13.532711 20.569579 25.979465 35.793497 0.988888 0.758578 0.033621 -0.003559 8573.880000 0 0 1
12.598711 19.276179 26.021235 34.747709 0.991902 0.724453 0.042835 -0.011310 401553.000000 0 0 1
13.198011 17.955179 26.060705 34.289011 0.936930 0.707436 0.039460 -0.016511 -44815.000000 0 0 1
13.846911 17.548779 24.865565 33.436401 0.902766 0.732257 0.042103 -0.012570 -107770.000000 0 0 1
13.005011 17.256779 23.591635 31.992061 0.924984 0.741551 0.055690 -0.017417 -473935.000000 0 0 1
12.574011 18.357079 22.745235 31.818765 0.970230 0.774405 0.041333 -0.012579 607578.000000 0 0 1
13.586611 19.097879 21.998735 32.144507 0.952447 0.817057 0.035924 -0.007109 1004910.000000 0 0 1
14.343211 18.260679 20.900635 31.241265 0.904978 0.837924 0.037257 -0.000393 28831.400000 0 0 1
13.487711 18.028179 19.807335 29.987732 0.928483 0.849292 0.042747 -0.007007 4009.030000 0 0 1
13.913311 16.931379 19.036135 29.028025 0.882935 0.855575 0.035615 -0.005983 -23520.800000 0 0 1
12.855211 16.365279 18.067235 27.559096 0.904949 0.855844 0.032436 -0.003636 58936.600000 0 0 1
12.461011 17.101479 16.919335 27.092458 0.941099 0.896301 0.039215 -0.003737 278027.000000 0 0 1
11.300711 16.541779 16.296535 25.824670 0.971461 0.887896 0.030464 -0.006903 681796.000000 0 0 1
10.731811 17.330479 15.069535 25.349717 1.016346 0.934195 0.028094 -0.002174 145654.000000 0 0 1
10.053911 18.543479 15.356235 26.091295 1.073976 0.941523 0.025457 0.000631 182383.000000 0 0 1
9.602111 19.165179 14.152135 25.686330 1.106334 0.987282 0.019149 0.002936 155828.000000 0 0 1
8.485411 20.236779 14.376935 26.234056 1.173758 0.990794 0.025747 0.005756 -163221.000000 0 0 1
7.275211 19.718379 14.834735 25.725717 1.217335 0.956174 0.005598 0.002975 -1117350.000000 0 0 1
6.366511 20.763779 14.964035 26.374027 1.273281 0.967478 0.018809 -0.003266 -482837.000000 0 0 1
5.101411 20.266079 15.684535 26.129351 1.324198 0.926964 0.018481 -0.008294 -234724.000000 0 0 1
4.248911 19.512479 14.837635 24.878615 1.356390 0.931786 0.016773 -0.017619 -461632.000000 0 1 0
3.161611 19.087579 15.635635 24.875782 1.406650 0.891111 0.012787 -0.012581 769063.000000 0 1 0
1.949011 18.553679 14.775735 23.798319 1.466133 0.900940 0.013801 -0.009705 506186.000000 0 1 0
1.223811 19.519779 14.118735 24.121736 1.508182 0.945532 0.016284 -0.016163 -778510.000000 0 1 0
0.154911 19.042679 13.371735 23.269098 1.562662 0.958612 0.016051 -0.017430 -268487.000000 0 1 0
-0.630689 20.105079 12.547935 23.707860 -1.539437 1.013053 0.021746 -0.021744 126754.000000 0 1 0
-1.712789 20.723879 13.192235 24.626162 -1.488336 1.005460 0.021084 -0.013024 -410323.000000 0 1 0
-2.692289 21.136979 12.264035 24.585094 -1.444105 1.048536 0.020861 -0.010811 -249184.000000 0 1 0
-3.827589 21.799579 13.008035 25.672574 -1.396987 1.039455 0.012591 -0.013921 -354863.000000 0 0 1
-4.651889 21.005179 13.856235 25.590093 -1.352850 0.998613 0.013880 -0.009167 261012.000000 0 0 1
-5.694189 21.820779 14.373635 26.742692 -1.315536 1.003352 0.003226 -0.001576 -313331.000000 0 0 1
-6.392089 21.303679 15.601935 27.168473 -1.279297 0.959089 0.005409 0.001420 -939647.000000 0 0 1
-7.293889 20.263579 15.263935 26.396991 -1.225284 0.954220 0.002352 0.004067 -121810.000000 0 0 1
-7.885789 19.659079 16.395235 26.785608 -1.189319 0.912094 -0.002278 0.018110 -28222.100000 0 0 1
-9.032689 20.466679 17.123435 28.172441 -1.155170 0.917499 0.001107 0.016533 -444928.000000 0 0 1
-10.059989 20.630079 16.203935 28.095748 -1.117088 0.956064 -0.008651 0.010412 109941.000000 0 0 1
-11.210989 19.852579 16.662535 28.239179 -1.056728 0.939675 -0.009281 0.014356 1003170.000000 0 0 1
-12.396189 19.727779 15.644935 28.064475 -1.009783 0.979468 0.008924 0.007452 111622.000000 0 0 1
-13.152889 20.914179 15.610035 29.224554 -1.009399 1.007305 0.003990 0.005285 -733340.000000 0 0 1
-14.074989 20.762379 14.614935 29.030639 -0.975051 1.043231 0.008139 -0.005055 -363819.000000 0 0 1
-15.112889 21.912679 14.331935 30.231925 -0.967025 1.076893 0.009754 -0.011452 710433.000000 0 0 1
-16.177889 21.880379 15.277435 31.206972 -0.934127 1.059220 0.014479 -0.012704 310718.000000 0 0 1
-17.219989 22.804379 14.939235 32.245131 -0.924028 1.089079 0.023216 -0.017422 756396.000000 0 0 1
-18.457589 22.669379 15.874435 33.265312 -0.887452 1.073323 0.029996 -0.018534 -286954.000000 0 0 1
-19.294389 21.535379 15.603635 32.856041 -0.840229 1.075936 0.022343 -0.013991 1461910.000000 0 0 1
-20.573489 21.543279 16.305535 33.959561 -0.808420 1.069976 0.020996 -0.009051 1853550.000000 0 0 1
-21.566989 22.743279 16.064035 35.219951 -0.811939 1.097182 0.024513 -0.017225 -787741.000000 0 0 1
-22.212189 22.755979 14.833535 35.089167 -0.797490 1.134332 0.026658 -0.011782 28452.400000 0 0 1
-22.993489 23.905479 14.616935 36.246755 -0.804842 1.155718 0.041887 -0.019498 -226288.000000 0 0 1
-22.208089 25.092579 14.053635 36.336502 -0.846305 1.173677 0.035225 -0.015296 20521.800000 0 0 1
-21.190789 25.589779 14.939835 36.429178 -0.879157 1.148226 0.012125 -0.020679 364608.000000 0 0 1
-20.605389 26.725979 14.339735 36.667260 -0.913998 1.168994 0.010781 -0.006755 131494.000000 0 0 1
-19.061189 26.800879 14.512235 35.947475 -0.952583 1.155232 0.013488 -0.011878 546614.000000 0 0 1
-18.292889 26.069379 13.558135 34.613080 -0.958930 1.168312 0.016129 -0.006634 -275811.000000 0 0 1
-17.000189 26.595079 13.505735 34.332339 -1.002034 1.166489 0.014059 -0.007216 -898336.000000 0 0 1
-16.048089 26.109379 12.441935 33.076314 -1.019675 1.185150 0.019718 -0.012202 9740.590000 0 0 1
-14.745789 26.624679 12.626235 32.950472 -1.065010 1.177551 0.016171 -0.005333 289004.000000 0 0 1
-13.763189 26.085279 11.752835 31.748957 -1.085295 1.191593 0.012526 -0.010545 757845.000000 0 0 1
-12.301289 26.459179 12.116035 31.594432 -1.135608 1.177228 0.003233 -0.002003 -632277.000000 0 0 1
-11.245989 25.812379 11.447535 30.394033 -1.159913 1.184632 -0.001356 -0.002051 -940623.000000 0 0 1
-10.094689 26.350679 11.972135 30.652782 -1.204952 1.169543 0.011911 -0.004903 -1018650.000000 0 0 1
-9.485489 27.534979 11.177535 31.194340 -1.239040 1.204329 0.008243 -0.010122 -1077810.000000 0 0 1
-8.375189 28.075279 11.818435 31.591779 -1.280889 1.187372 0.023634 -0.020302 -311564.000000 0 0 1
-7.945489 29.285579 11.218735 32.351753 -1.305863 1.216667 0.027124 -0.020667 -184695.000000 0 0 1
-6.680289 29.900379 11.869135 32.856282 -1.350988 1.201195 0.024917 -0.023137 625633.000000 0 0 1
-5.549989 29.069979 11.556535 31.771364 -1.382148 1.198516 0.027812 -0.024251 300485.000000 0 0 1
-4.353689 29.604279 12.101735 32.277235 -1.424780 1.186474 0.023005 -0.027870 -17365.300000 0 0 1
-3.079989 29.192079 11.371935 31.479909 -1.465678 1.201194 0.035632 -0.034203 -358970.000000 0 0 1
-2.865589 29.848479 10.118135 31.646800 -1.475085 1.245362 0.046984 -0.036557 467743.000000 0 0 1
-1.722389 29.420779 9.358035 30.921217 -1.512320 1.263334 0.035869 -0.033863 683170.000000 0 0 1
-1.471289 30.206979 8.051535 31.296221 -1.522128 1.310602 0.032448 -0.029171 -161601.000000 0 0 1
-2.523889 30.124279 7.128935 31.059039 -1.487209 1.339203 0.038871 -0.026909 -176885.000000 0 0 1
-2.340889 31.018679 6.036035 31.687094 -1.495472 1.379136 0.034717 -0.016052 113191.000000 0 0 1
10.805511 -33.951443 -26.991439 44.698964 -1.262669 2.219118 0.059401 -0.002967 48799.900000 0 0 1
11.433211 -33.945643 -25.716669 44.095035 -1.245921 2.193471 0.054449 -0.003777 207032.000000 0 0 1
12.601311 -33.160143 -25.751729 43.835370 -1.207637 2.198719 0.058183 -0.003123 -581913.000000 0 0 1
13.286411 -33.087343 -24.404099 43.207188 -1.188950 2.171006 0.055567 0.002233 -920319.000000 0 0 1
12.708311 -32.277543 -23.409699 41.849193 -1.195716 2.164437 0.050595 -0.000042 -163761.000000 0 0 1
13.150611 -32.363743 -22.105899 41.340310 -1.184838 2.134984 0.036447 0.003392 133684.000000 0 0 1
14.626411 -31.940143 -21.800899 41.344696 -1.141366 2.126212 0.022860 0.006043 881312.000000 0 0 1
15.542411 -33.008043 -22.093199 42.652162 -1.130725 2.115290 0.024990 0.008801 -45376.800000 0 0 1
16.893611 -32.689043 -21.917099 42.829042 -1.093801 2.107999 0.012007 0.004438 -150239.000000 0 0 1
17.834311 -33.926843 -22.151199 44.269278 -1.086825 2.094827 0.001511 0.011458 -421794.000000 0 0 1
19.194611 -33.609443 -22.166799 44.602632 -1.051892 2.090916 -0.002103 0.017160 -419861.000000 0 0 1
19.946111 34.239679 -22.270399 45.455183 1.043311 2.082819 0.001180 0.017931 -386734.000000 0 0 1
21.430011 34.439679 -21.926799 46.109884 1.014179 2.066367 0.013654 0.025965 -163848.000000 0 0 1
22.228711 -33.958343 -22.896699 46.599823 -0.991203 2.084432 0.014868 0.023821 73562.500000 0 0 1
23.613411 -33.954443 -22.616599 47.138179 -0.963135 2.071216 0.025033 0.025291 378988.000000 0 0 1
24.422611 -33.235443 -23.757199 47.596882 -0.937071 2.093395 0.035547 0.017361 50808.100000 0 0 1
24.337811 -31.844143 -23.943599 46.686984 -0.918219 2.109302 0.034239 0.013651 405676.000000 0 0 1
23.055711 -31.430243 -24.424599 45.999859 -0.937905 2.130543 0.021324 0.016266 438273.000000 0 0 1
22.967411 -29.865043 -24.298099 44.831021 -0.915221 2.143603 0.014692 0.003748 -587476.000000 0 0 1
23.765411 -29.144943 -25.199209 45.268340 -0.886723 2.161160 0.011062 0.000976 -109173.000000 0 0 1
23.849711 -27.787443 -24.764399 44.206631 -0.861509 2.165419 0.024812 0.006326 153181.000000 0 0 1
24.437511 -26.862043 -25.812189 44.553680 -0.832625 2.188728 0.029233 0.008927 -109535.000000 0 0 1
23.493811 -26.443143 -26.758179 44.353119 -0.844391 2.218427 0.025116 0.003612 -211598.000000 0 0 1
24.154511 -25.981143 -27.922699 45.145734 -0.821816 2.237630 0.021031 0.003767 1984.860000 0 0 1
23.120911 -25.861343 -29.066719 45.257704 -0.841287 2.268225 0.022965 -0.006241 692080.000000 0 0 1
22.322611 -24.692643 -29.053529 44.182951 -0.835765 2.288390 0.039028 -0.011596 -242493.000000 0 0 1
21.123411 -24.781843 -28.328179 43.160445 -0.864925 2.286761 0.046770 -0.012895 -166568.000000 0 0 1
20.405911 -23.383543 -28.068429 41.845287 -0.853292 2.306039 0.053864 -0.014207 143003.000000 0 0 1
19.796711 -22.872943 -29.228799 42.064284 -0.857368 2.339022 0.064014 -0.020282 106184.000000 0 0 1
19.354411 -21.549043 -28.943109 40.947015 -0.839001 2.355821 0.056365 -0.004440 -342516.000000 0 0 1
18.280211 -21.076643 -29.939419 40.923830 -0.856332 2.391446 0.064953 -0.013358 319797.000000 0 0 1
17.102011 -21.874743 -29.807489 40.736588 -0.907242 2.391628 0.053307 -0.017776 553996.000000 0 0 1
15.980111 -21.329143 -30.481229 40.489525 -0.927798 2.423129 0.040703 -0.019032 -48310.300000 0 0 1
14.732311 -22.201243 -30.292729 40.343347 -0.984933 2.420179 0.018257 -0.019516 -509084.000000 0 0 1
14.702911 -23.314443 -31.171889 41.610402 -1.008155 2.417555 0.025652 -0.014230 488220.000000 0 0 1
13.922011 -24.394343 -30.607649 41.541961 -1.052195 2.399105 0.029599 -0.022525 209253.000000 0 0 1
13.946611 -25.703143 -31.425299 42.926786 -1.073650 2.392148 0.053255 -0.022417 152443.000000 0 0 1
13.308111 -26.781043 -30.718989 42.871744 -1.109614 2.369615 0.054482 -0.015489 61611.600000 0 0 1
13.628311 -28.061143 -31.205879 44.124432 -1.118682 2.356361 0.110907 -0.018239 90903.800000 0 0 1
13.111611 -29.184843 -30.292579 44.060297 -1.148557 2.328872 0.083089 -0.027717 -710225.000000 0 0 1
13.663211 -29.331143 -29.003589 43.453509 -1.134860 2.301592 0.083852 -0.028928 -203389.000000 0 0 1
13.354311 -28.324543 -28.001559 42.008388 -1.130228 2.300395 0.064661 -0.021589 -444708.000000 0 0 1
14.441611 -28.218743 -26.936719 41.598611 -1.097774 2.275147 0.044318 -0.006042 -378125.000000 0 0 1
14.427611 -29.276743 -25.959979 41.703767 -1.112924 2.242711 0.052927 -0.016682 3612.610000 0 0 1
15.412911 -29.063943 -24.968099 41.299838 -1.083195 2.220006 0.053987 -0.018859 -694761.000000 0 0 1
15.070311 -27.955443 -23.857399 39.721488 -1.076373 2.215069 0.040889 -0.014041 -186771.000000 0 0 1
14.064211 -28.265843 -22.958499 39.036555 -1.109095 2.199539 0.027576 -0.008720 -1233880.000000 0 0 1
12.798811 -28.225443 -23.503399 38.895951 -1.145078 2.219637 0.033818 -0.003461 -1683670.000000 0 0 1
11.646111 -28.058743 -22.515799 37.813836 -1.177373 2.208607 0.025512 -0.000576 -226664.000000 0 0 1
11.578411 -26.758843 -21.949799 36.495054 -1.162426 2.216106 0.019272 0.000732 551580.000000 0 0 1
10.243811 -26.483443 -21.505199 35.619967 -1.201720 2.218981 0.020322 0.000105 -120748.000000 0 0 1
10.107611 -24.950143 -21.351199 34.359091 -1.185891 2.241342 0.015126 -0.001438 -179721.000000 0 0 1
10.608811 -24.405643 -20.150099 33.379766 -1.160750 2.218883 0.006677 -0.004207 12170.100000 0 0 1
10.196511 -23.058543 -19.922399 32.133584 -1.154447 2.239522 0.005635 -0.008888 -149483.000000 0 0 1
10.382711 -22.505343 -18.472199 30.911378 -1.138549 2.211283 0.006407 -0.015637 93397.500000 0 0 1
9.444911 -23.009543 -17.527899 30.428156 -1.181290 2.184675 0.020486 -0.015962 326716.000000 0 0 1
9.621711 -22.357343 -16.264199 29.273748 -1.164394 2.159869 0.019990 -0.013971 304037.000000 0 0 1
8.711411 -22.867543 -15.099999 28.754533 -1.206819 2.123670 0.035203 -0.015188 233195.000000 0 0 1
9.302411 -24.013143 -14.531599 29.569127 -1.201209 2.084544 0.020841 -0.010826 354985.000000 0 0 1
8.593011 -24.612643 -13.425799 29.323610 -1.234897 2.046371 0.016024 -0.012916 87405.900000 0 0 1
8.778211 -26.181143 -13.439899 30.710587 -1.247288 2.023758 0.035216 -0.015800 1133490.000000 0 0 1
10.141111 -26.524843 -13.095999 31.271627 -1.205619 2.002900 0.036558 -0.018370 915959.000000 0 0 1
10.388311 -27.896143 -13.328399 32.615304 -1.214314 1.991776 0.047981 -0.015785 -863788.000000 0 0 1
11.722311 -28.437643 -12.808899 33.319364 -1.179808 1.965385 0.044320 -0.016418 640140.000000 0 0 1
12.960711 -27.919443 -13.330099 33.543507 -1.136182 1.979475 0.033478 -0.012052 617359.000000 0 0 1
13.223511 -27.963743 -14.712299 34.253232 -1.129079 2.014753 0.030652 -0.008616 -949168.000000 0 0 1
14.615111 -27.589943 -15.246899 34.745854 -1.083652 2.025073 0.015447 -0.000033 311706.000000 0 0 1
15.665411 -28.480943 -14.832999 35.729359 -1.067929 1.998903 0.015123 0.001513 59852.900000 0 0 1
16.846411 -28.042843 -15.453399 36.180246 -1.029834 2.012104 0.021734 0.004698 -448350.000000 0 0 1
18.051511 -28.953143 -15.247899 37.371647 -1.013296 1.991067 0.020155 0.007515 -136363.000000 0 0 1
18.008411 -30.182643 -15.940699 38.592755 -1.032845 1.996596 0.002438 0.012259 -127679.000000 0 0 1
19.320211 -30.569843 -16.301599 39.667720 -1.007177 1.994296 0.007231 0.016224 298664.000000 0 0 1
19.421011 -31.811443 -17.244999 41.067427 -1.022689 2.004153 0.009074 0.013845 -1395.730000 0 0 1
19.266711 -33.113543 -16.661599 41.777049 -1.043838 1.981028 -0.005228 0.018937 -275478.000000 0 0 1
19.544311 -34.014743 -17.726799 43.049068 -1.049275 1.995204 -0.004287 0.016704 -1038.940000 0 0 1
19.618111 33.510679 -17.341599 42.527249 1.041160 1.990814 -0.008207 0.010513 34474.700000 0 0 1
20.651811 33.168079 -16.419699 42.381898 1.013895 1.968630 -0.004564 0.011644 391181.000000 0 0 1
20.379411 31.860679 -15.984799 41.060164 1.001738 1.970670 0.003275 0.007490 -350177.000000 0 0 1
21.277011 31.325979 -14.845399 40.674489 0.974158 1.944408 -0.002517 0.001965 -148591.000000 0 0 1
22.658711 31.235679 -15.171799 41.464060 0.943219 1.945399 0.003757 0.004975 236173.000000 0 0 1
23.499011 30.796779 -14.148599 41.241096 0.919005 1.920980 0.020650 -0.000712 -115259.000000 0 0 1
23.134611 29.501479 -13.371399 39.803791 0.905773 1.913392 0.015699 0.006545 -1358460.000000 0 0 1
23.529411 28.285979 -13.973499 39.357191 0.876940 1.933757 0.011108 0.018361 325603.000000 0 0 1
22.951611 27.178179 -13.273099 37.968474 0.869512 1.927921 0.010993 0.013059 -207295.000000 0 0 1
21.440911 26.980679 -13.264499 36.927180 0.899310 1.938214 0.011358 0.005028 -1648050.000000 0 0 1
20.800811 26.557679 -14.409099 36.682505 0.906364 1.974477 0.022255 -0.004311 -657763.000000 0 0 1
19.409111 26.515079 -14.334899 35.850416 0.938913 1.982153 0.024018 -0.013495 1455.520000 0 0 1
18.573911 27.885279 -14.106999 36.353629 0.983198 1.969310 0.024629 -0.009794 -219923.000000 0 0 1
18.650111 28.820179 -15.183999 37.536425 0.996448 1.987243 0.018439 -0.004615 17617.300000 0 0 1
18.001111 28.382879 -16.355199 37.378073 1.005591 2.023681 0.015169 0.002111 -873453.000000 0 0 1
18.181511 29.282079 -17.580899 38.692318 1.015144 2.042469 0.007578 0.004457 -737501.000000 0 0 1
17.304011 30.326879 -17.620999 39.110715 1.052288 2.038168 0.006772 -0.001581 -758166.000000 0 0 1
17.556211 31.086679 -18.771499 40.335733 1.056699 2.054862 0.004782 0.005874 -530034.000000 0 0 1
16.532711 32.130979 -19.265799 40.949986 1.095584 2.060621 0.002275 0.002259 -204615.000000 0 0 1
16.448611 33.308379 -18.491299 41.496181 1.112098 2.032657 -0.009854 -0.001385 277363.000000 0 0 1
15.631311 34.290279 -19.121299 42.258552 1.143086 2.040345 -0.001548 0.001387 19197.000000 0 0 1
15.505811 -33.464843 -18.213999 41.134847 -1.136899 2.029502 -0.002768 0.001829 -442448.000000 0 0 1
14.603211 -32.512643 -18.656899 40.229412 -1.148645 2.053034 0.004178 0.004815 -341805.000000 0 0 1
14.218311 -31.851343 -17.484599 39.017684 -1.150944 2.035457 0.017326 -0.002910 -363887.000000 0 0 1
13.039811 -30.879643 -17.576399 37.848631 -1.171233 2.053738 0.020931 -0.003661 177288.000000 0 0 1
11.793411 -31.544743 -17.708399 38.049215 -1.213023 2.054892 0.032750 -0.005034 107405.000000 0 0 1
10.701711 -30.663543 -17.879099 37.073463 -1.235009 2.074031 0.033571 0.003871 493332.000000 0 0 1
9.358111 -31.332443 -18.242399 37.444377 -1.280559 2.079662 0.047820 -0.007147 -585541.000000 0 0 1
8.648311 -31.921343 -17.140399 37.249949 -1.306222 2.048955 0.051823 -0.005832 355766.000000 0 0 1
7.607311 -32.838843 -17.506399 37.983349 -1.343156 2.049802 0.065545 -0.001596 1091420.000000 0 0 1
6.314711 -32.152243 -18.104599 37.435529 -1.376864 2.075583 0.055617 0.003562 -258948.000000 0 0 1
6.426311 -31.473143 -19.332999 37.491613 -1.369381 2.112576 0.050883 0.004918 -282185.000000 0 0 1
6.288611 -32.401343 -20.377999 38.789902 -1.379095 2.123914 0.044311 0.000295 -1051480.000000 0 0 1
6.476011 -31.745943 -21.791099 39.046071 -1.369562 2.162875 0.032004 0.012684 812622.000000 0 0 1
7.796911 -31.256243 -22.161899 39.101078 -1.326334 2.173394 0.042834 0.005765 1772160.000000 0 0 1
8.876111 -32.219143 -22.204399 40.123483 -1.301973 2.157239 0.044322 -0.000601 377738.000000 0 0 1
8.701111 -33.397943 -23.212899 41.592916 -1.315933 2.162887 0.043756 0.002113 -561177.000000 0 0 1
7.798411 -34.357143 -22.704299 41.913169 -1.347597 2.143253 0.046073 -0.000501 -168119.000000 0 0 1
7.537211 33.663579 -23.683099 41.844179 1.350531 2.172422 0.042783 -0.007654 -196316.000000 0 0 1
6.370811 32.660679 -23.343499 40.647585 1.378155 2.182533 0.047252 -0.014220 1007680.000000 0 0 1
5.074011 33.221079 -23.548299 41.035449 1.419233 2.181999 0.033566 -0.007692 320883.000000 0 0 1
4.631411 33.995379 -22.435599 40.993803 1.435393 2.149922 0.021880 -0.007193 -962038.000000 0 0 1
3.324311 -34.304743 -22.815899 41.333179 -1.474193 2.155557 0.008506 -0.001332 -101906.000000 0 0 1
2.168511 33.921779 -22.740299 40.896341 1.506956 2.160419 -0.002911 -0.012427 553015.000000 0 0 1
0.960111 -34.429843 -23.149399 41.499766 -1.542918 2.162553 -0.003340 -0.006315 1804110.000000 0 0 1
-0.379089 34.047379 -22.478299 40.800020 -1.559663 2.154285 -0.008654 -0.013663 975984.000000 0 0 1
-0.603789 34.476279 -21.166499 40.459845 -1.553285 2.121337 -0.016991 -0.006498 273756.000000 0 0 1
-1.770189 33.771479 -20.712699 39.656806 -1.518428 2.120341 -0.011241 -0.011566 537908.000000 0 0 1
-2.053389 33.841679 -19.222999 38.974342 -1.510194 2.086586 -0.009408 -0.001570 127416.000000 0 0 1
-1.008489 33.423679 -18.376899 38.155862 -1.540633 2.073307 -0.009346 -0.011039 -209475.000000 0 0 1
-1.553589 33.149379 -17.112399 37.338039 -1.523964 2.046889 -0.015213 -0.004945 623686.000000 0 0 1
-0.638889 32.204379 -16.231199 36.069128 -1.550960 2.037565 -0.029380 -0.004675 1259790.000000 0 0 1
0.550811 32.772579 -15.659699 36.325907 1.553991 2.016496 -0.013863 -0.003821 178912.000000 0 0 1
1.259811 31.769279 -14.990099 35.150779 1.531162 2.011362 -0.004481 0.011029 395353.000000 0 0 1
2.456411 32.350679 -14.162399 35.400197 1.495011 1.982385 0.015477 -0.000948 -328364.000000 0 0 1
3.521511 32.775879 -14.927699 36.186952 1.463765 1.996011 0.022389 -0.005202 -371509.000000 0 0 1
4.521311 33.322379 -14.057699 36.447800 1.435936 1.966756 0.033637 -0.006770 301377.000000 0 0 1
5.936711 33.587079 -14.582499 37.094281 1.395848 1.974819 0.058885 -0.021441 -119509.000000 0 0 1
6.676811 32.411479 -14.780899 36.243051 1.367637 1.990869 0.054864 -0.010836 -106948.000000 0 0 1
7.975511 32.811679 -15.222199 37.039579 1.332351 1.994315 0.063823 -0.008969 536382.000000 0 0 1
8.969111 31.634979 -15.388999 36.304795 1.294528 2.008525 0.056952 -0.016466 174755.000000 0 0 1
9.486311 31.260979 -14.111699 35.586219 1.276173 1.978552 0.066414 -0.018819 -443076.000000 0 0 1
10.142811 30.042879 -14.036599 34.676755 1.245201 1.987539 0.063423 -0.010722 -252223.000000 0 0 1
9.284311 28.789679 -13.793899 33.246288 1.258839 1.998630 0.046078 -0.007439 74435.300000 0 0 1
8.586311 28.226279 -14.917899 33.060419 1.275495 2.038941 0.053891 -0.006298 75926.600000 0 0 1
7.863111 27.094879 -14.532899 31.735881 1.288348 2.046465 0.043337 -0.001960 -456436.000000 0 0 1
7.233011 26.399079 -15.762499 31.586139 1.303372 2.093278 0.041785 -0.000024 290206.000000 0 0 1
8.105611 25.715479 -16.676999 31.703455 1.265450 2.124723 0.047462 -0.000319 -101623.000000 0 0 1
7.345411 24.943279 -17.565299 31.379324 1.284407 2.164908 0.032001 0.006497 460879.000000 0 0 1
8.197311 23.871779 -18.394999 31.231934 1.240023 2.200593 0.035654 0.012214 591406.000000 0 0 1
7.478811 23.256479 -19.471199 31.239783 1.259661 2.243729 0.034622 0.005109 -274083.000000 0 0 1
8.273211 22.269779 -20.063799 31.095741 1.215098 2.272116 0.032446 0.007907 -721399.000000 0 0 1
7.606711 21.306579 -21.096299 30.933577 1.227888 2.321272 0.028669 -0.006647 -149910.000000 0 0 1
6.780011 20.362679 -20.470799 29.659077 1.249379 2.332567 0.017911 0.003913 -160307.000000 0 0 1
6.167111 19.408779 -21.285899 29.458843 1.263137 2.378300 0.009823 -0.003270 -772.784000 0 0 1
24.180011 -12.238221 -9.437999 28.697087 -0.468539 1.905917 0.014827 -0.000754 -80329.000000 0 0 1
24.770011 -11.493221 -8.367399 28.559779 -0.434433 1.868137 0.009021 0.001694 705499.000000 0 0 1
24.305411 -12.007021 -7.118199 28.028384 -0.458841 1.827573 0.008446 0.009024 -251178.000000 0 0 1
25.240511 -11.666121 -5.904099 28.426047 -0.432952 1.780020 0.007891 0.003968 -23853.200000 0 0 1
25.189711 -10.270621 -5.541699 27.761802 -0.387153 1.771762 0.011248 0.001400 707575.000000 0 0 1
26.037411 -9.447921 -6.359799 28.419307 -0.348085 1.796492 0.007262 -0.004302 -851448.000000 0 0 1
25.997411 -8.020221 -5.768499 27.811237 -0.299237 1.779729 0.027895 -0.008144 52184.000000 0 0 1
26.675611 -7.659721 -4.550299 28.124096 -0.279620 1.733304 0.046038 -0.015320 494349.000000 0 0 1
28.046711 -7.979521 -4.497699 29.504577 -0.277184 1.723834 0.049094 -0.020080 -581779.000000 0 0 1
28.588211 -7.899721 -3.073399 29.818404 -0.269600 1.674050 0.046091 -0.017961 -519567.000000 0 0 1
29.000111 -6.597521 -2.681499 29.861751 -0.223693 1.660715 0.057529 -0.017869 543106.000000 0 0 1
29.691311 -6.650421 -1.433399 30.460740 -0.220349 1.617871 0.056522 -0.022923 -65900.800000 0 0 1
30.077111 -5.231321 -0.959799 30.543748 -0.172208 1.602225 0.063632 -0.033295 -72357.300000 0 0 1
28.944911 -4.446521 -0.617799 29.290973 -0.152429 1.591890 0.067613 -0.034513 213823.000000 0 0 1
29.184211 -3.144921 -0.097299 29.353333 -0.107347 1.574111 0.062033 -0.027209 -425833.000000 0 0 1
29.770311 -3.033321 1.309601 29.953089 -0.101540 1.527061 0.065110 -0.026553 -764921.000000 0 0 1
28.849711 -3.230721 2.339301 29.124143 -0.111520 1.490388 0.068966 -0.032146 230349.000000 0 0 1
29.569811 -3.197221 3.546701 29.952880 -0.107706 1.452109 0.061573 -0.027189 -364143.000000 0 0 1
29.171211 -4.217021 4.616401 29.833772 -0.143566 1.415435 0.056697 -0.033248 -653059.000000 0 0 1
29.470311 -5.543221 4.251401 30.286977 -0.185923 1.429961 0.052674 -0.036336 151911.000000 0 0 1
29.155811 -6.353121 5.382801 30.321577 -0.214549 1.392327 0.046011 -0.037410 -395205.000000 0 0 1
29.963111 -7.637321 5.635701 31.430524 -0.249576 1.390515 0.027219 -0.027588 1223810.000000 0 0 1
31.380211 -7.314521 5.653301 32.713601 -0.229004 1.397112 0.041747 -0.029585 1166360.000000 0 0 1
32.239311 -8.425321 5.624701 33.793438 -0.255620 1.403574 0.036696 -0.022908 538682.000000 0 0 1
33.762611 -8.111521 5.565101 35.166476 -0.235783 1.411878 0.047369 -0.022657 433475.000000 0 0 1
34.212411 -7.528821 4.385901 35.304509 -0.216609 1.446244 0.051636 -0.026171 -850152.000000 0 0 1
-35.427940 -7.208021 4.483601 36.430717 0.200716 1.447412 0.047847 -0.018191 -534780.000000 0 0 1
-34.647840 -7.105221 3.157501 35.509531 0.202265 1.481759 0.043964 -0.011430 -101806.000000 0 0 1
-34.515540 -8.323721 2.539501 35.595728 0.236640 1.499393 0.046269 -0.010972 78550.800000 0 0 1
-33.542640 -8.224421 1.530001 34.570084 0.240449 1.526524 0.056950 -0.009404 -295220.000000 0 0 1
-33.278140 -9.492921 0.702401 34.612765 0.277880 1.550502 0.052497 -0.013232 -103791.000000 0 0 1
-32.558640 -10.482321 1.400901 34.233121 0.311473 1.529863 0.044242 -0.009990 212302.000000 0 0 1
-32.567440 -11.694521 0.668701 34.609928 0.344746 1.551474 0.036626 -0.014392 -483227.000000 0 0 1
-32.468540 -12.873121 1.634501 34.965625 0.377468 1.524033 0.019394 -0.017890 612188.000000 0 0 1
-31.192040 -13.162421 2.193601 33.926458 0.399310 1.506094 0.023040 -0.011397 853475.000000 0 0 1
-30.224040 -13.783521 1.313801 33.244610 0.427870 1.531267 0.025330 -0.007300 178163.000000 0 0 1
-28.900940 -14.063321 2.068501 32.207453 0.452874 1.506528 0.023535 -0.001523 255592.000000 0 0 1
-28.082340 -12.921421 2.381001 31.004033 0.431243 1.493924 0.019202 -0.003971 666257.000000 0 0 1
-27.002640 -13.362421 3.205301 30.298033 0.459524 1.464806 0.025921 -0.000881 -41830.000000 0 0 1
-26.175840 -12.241821 3.790001 29.144483 0.437456 1.440385 0.026268 0.002521 -572207.000000 0 0 1
-25.078040 -12.687221 4.541101 28.469198 0.468364 1.410603 0.031005 0.005319 -136219.000000 0 0 1
-24.563040 -11.660821 5.322501 27.706438 0.443228 1.377491 0.025935 0.013790 -556458.000000 0 0 1
-23.121340 -11.852921 5.804601 26.622950 0.473708 1.351001 0.033075 0.020924 -427071.000000 0 0 1
-22.982140 -12.973321 6.672301 27.221414 0.513904 1.323161 0.034689 0.006243 947980.000000 0 0 1
-21.630740 -13.213521 7.130301 26.331108 0.548372 1.296579 0.029329 0.011926 902756.000000 0 0 1
-21.121840 -12.469221 8.406801 25.928515 0.533292 1.240599 0.034315 0.005602 -653842.000000 0 0 1
-20.989040 -11.073721 8.347801 25.156567 0.485479 1.232549 0.036108 0.004928 959451.000000 0 0 1
-22.100740 -10.317821 8.874601 25.954935 0.436781 1.221833 0.043249 0.002063 -34968.900000 0 0 1
-22.400340 -10.430821 10.393101 26.806600 0.435796 1.172654 0.047313 0.004796 -506120.000000 0 0 1
-22.897740 -11.653121 10.938401 27.924010 0.470758 1.168296 0.041320 -0.006040 177218.000000 0 0 1
-24.152640 -12.069321 10.456901 28.954538 0.463416 1.201297 0.035314 -0.007705 -323120.000000 0 0 1
-25.362340 -11.543121 11.277301 30.061095 0.427111 1.186242 0.047668 -0.011775 -646808.000000 0 0 1
-25.410740 -12.313321 12.483501 30.873311 0.451229 1.154533 0.043550 -0.010178 209194.000000 0 0 1
-26.650040 -12.194121 13.152901 32.123512 0.429127 1.148948 0.035349 -0.014500 49095.700000 0 0 1
-26.674640 -12.877621 14.550701 33.001400 0.449766 1.114182 0.032512 -0.011304 -10960.100000 0 0 1
-26.469740 -14.287921 14.518001 33.400062 0.494965 1.121125 0.019259 -0.013376 291813.000000 0 0 1
-26.298240 -14.761221 15.824201 34.057252 0.511478 1.087574 0.008902 -0.005328 -555158.000000 0 0 1
-26.019240 -16.248821 15.935601 34.568315 0.558234 1.091687 0.012415 -0.002919 544925.000000 0 0 1
-27.224740 -16.987821 15.608301 35.684613 0.557869 1.118096 0.008396 -0.003569 850073.000000 0 0 1
-27.006040 -18.349021 15.549601 36.163557 0.596795 1.126326 0.003259 0.000854 -64539.400000 0 0 1
-28.048740 -19.215821 16.304801 37.707110 0.600647 1.123636 -0.008512 0.003495 10965.100000 0 0 1
-28.037640 -18.901921 17.696301 38.164786 0.593174 1.088651 0.004462 0.004602 171156.000000 0 0 1
-28.645640 -19.964521 18.489601 39.509747 0.608675 1.083798 0.008654 0.005580 342885.000000 0 0 1
-27.767040 -21.268321 18.614801 39.621469 0.653635 1.081714 0.006100 0.008834 -26209.900000 0 0 1
-26.655140 -21.062821 19.437801 39.140350 0.668735 1.051098 0.028448 0.007841 115412.000000 0 0 1
-25.968140 -22.263421 19.841601 39.543562 0.708738 1.045158 0.033735 0.000553 996765.000000 0 0 1
-24.523140 -22.057421 20.445101 38.806138 0.732513 1.015903 0.044763 0.002404 1249010.000000 0 0 1
-23.511340 -21.777521 19.483901 37.505545 0.747133 1.024538 0.045633 -0.001779 -385443.000000 0 0 1
-22.253540 -21.645021 20.052501 36.957134 0.771537 0.997281 0.050418 -0.000474 -614433.000000 0 0 1
-21.170940 -21.302521 19.029001 35.554310 0.788496 1.006041 0.043296 -0.004136 -304997.000000 0 0 1
-20.981640 -22.331021 18.089101 35.582570 0.816543 1.037506 0.036442 -0.008529 768456.000000 0 0 1
-19.781140 -22.119921 17.328701 34.363764 0.841157 1.042257 0.034536 -0.008456 573019.000000 0 0 1
-19.551340 -23.162221 16.186301 34.361893 0.869735 1.080311 0.030781 -0.003913 -555889.000000 0 0 1
-19.491740 -24.550321 16.579801 35.461754 0.899755 1.084290 0.034398 -0.011540 30022.300000 0 0 1
-18.268140 -24.973021 17.108101 35.356242 0.939231 1.065716 0.035532 -0.015867 119461.000000 0 0 1
-16.927440 -24.994311 16.310101 34.311415 0.975501 1.075429 0.040134 -0.019285 35895.200000 0 0 1
-16.317040 -23.759421 16.326601 33.125727 0.969011 1.055414 0.038865 -0.015733 -582829.000000 0 0 1
-15.166740 -23.820521 15.520501 32.223177 1.003821 1.068252 0.037908 -0.013924 237327.000000 0 0 1
-14.280540 -22.500421 15.517801 30.838367 1.005267 1.043501 0.041982 -0.007133 327299.000000 0 0 1
-14.890140 -21.393321 14.833201 29.990237 0.962748 1.053421 0.037695 -0.003963 626605.000000 0 0 1
-15.926940 -20.668621 15.541101 30.370794 0.914250 1.033620 0.038210 -0.005086 416781.000000 0 0 1
-15.418240 -19.628021 16.516701 29.929630 0.904946 0.986214 0.034311 -0.011682 -395365.000000 0 0 1
-14.807040 -18.501821 15.854001 28.511667 0.895871 0.981167 0.029654 -0.011021 157301.000000 0 0 1
-14.966640 -17.383921 16.677301 28.360772 0.859981 0.942161 0.019943 -0.009391 -394625.000000 0 0 1
-14.301040 -16.133621 16.057301 26.882157 0.845539 0.930639 0.023679 -0.010225 281142.000000 0 0 1
-14.997040 -15.474121 14.973101 26.240301 0.801054 0.963542 0.013772 -0.016183 135814.000000 0 0 1
-15.077740 -16.183221 13.755901 26.047259 0.820746 1.014419 0.020353 -0.013587 -343777.000000 0 0 1
-15.980740 -15.515721 12.728401 25.654119 0.770635 1.051633 0.014741 -0.006163 821055.000000 0 0 1
-17.400440 -15.636821 12.969201 26.748563 0.732066 1.064598 0.013421 -0.008156 921755.000000 0 0 1
-18.063940 -14.663821 12.189001 26.266049 0.681879 1.088224 0.022598 -0.009180 -646902.000000 0 0 1
-19.586740 -14.797921 12.192101 27.409235 0.647016 1.109826 0.029101 -0.009667 -423186.000000 0 0 1
-20.151640 -15.977821 11.687301 28.248404 0.670384 1.144246 0.034700 -0.013800 -53858.400000 0 0 1
-20.358640 -15.993821 10.285401 27.857961 0.665901 1.192639 0.041679 -0.006929 -134721.000000 0 0 1
-21.157940 -17.211621 9.731601 28.958632 0.682908 1.228075 0.040000 -0.001482 303614.000000 0 0 1
-20.435140 -18.424221 9.790301 29.204398 0.733696 1.228943 0.044212 0.008235 559050.000000 0 0 1
-21.258740 -19.480721 9.220701 30.272988 0.741782 1.261294 0.048236 -0.001896 1162800.000000 0 0 1
-20.530840 -20.924421 9.286801 30.750471 0.794892 1.264001 0.043888 0.009349 1882190.000000 0 0 1
-19.352040 -21.131921 8.433801 29.869525 0.829335 1.284549 0.054857 0.010643 1077880.000000 0 0 1
-18.902740 -22.513621 8.541601 30.612671 0.872363 1.288021 0.051424 0.004914 910978.000000 0 0 1
-17.583540 -22.843521 7.744401 29.849339 0.914782 1.308344 0.053993 0.006054 815600.000000 0 0 1
-16.442340 -22.160021 8.221201 28.792451 0.932446 1.281234 0.040161 0.001404 -249824.000000 0 0 1
-15.266140 -22.531121 7.540701 28.241257 0.975291 1.300507 0.056070 0.009741 660319.000000 0 0 1
-13.998340 -22.094821 8.389201 27.468406 1.006067 1.260424 -0.012896 0.014551 -265072.000000 0 0 1
-12.841740 -22.446521 7.751601 26.997109 1.051141 1.279570 0.006107 0.017869 -1396380.000000 0 0 1
-11.700340 -21.908221 8.389901 26.215616 1.080272 1.245030 0.008790 0.009132 365886.000000 0 0 1
-10.403340 -22.346321 7.679501 25.817867 1.135086 1.268777 0.008604 0.016405 94894.900000 0 0 1
-10.387140 -23.790221 7.652701 27.063465 1.159130 1.284117 0.010274 0.019437 -248597.000000 0 0 1
-9.076140 -24.246621 7.397801 26.925869 1.212617 1.292470 0.018465 0.016072 130766.000000 0 0 1
-8.969440 -25.755641 7.571601 28.304294 1.235680 1.299991 0.020974 0.012884 -192667.000000 0 0 1
-9.619740 -26.463841 6.523101 28.903722 1.222141 1.343151 0.007529 0.011320 -156238.000000 0 0 1
-9.677840 -27.863771 6.791301 30.268335 1.236505 1.344500 0.024818 0.001788 -175636.000000 0 0 1
-8.732940 -28.813751 6.071401 30.714140 1.276514 1.371811 0.017370 -0.003886 285918.000000 0 0 1
-7.348840 -28.463111 6.196001 30.042379 1.318126 1.363063 0.025241 -0.002364 1124320.000000 0 0 1
-6.334440 -29.348251 5.672901 30.555307 1.358220 1.384053 0.028582 0.002341 1094980.000000 0 0 1
-6.300240 -30.743081 6.345401 32.017092 1.368663 1.371288 0.032476 -0.010762 -519363.000000 0 0 1
-6.415240 -30.695261 7.805501 32.315325 1.364764 1.326842 0.033773 -0.011420 158775.000000 0 0 1
-6.691640 -32.004901 8.256001 33.723186 1.364684 1.323466 0.062775 -0.019491 -13787.600000 0 0 1
-6.874640 -32.069611 9.777401 34.224526 1.359626 1.281076 0.061899 -0.022908 -370158.000000 0 0 1
-5.770040 -31.529891 10.442101 33.711495 1.389797 1.255867 0.045615 -0.011406 -201911.000000 0 0 1
-5.968040 -31.634081 11.828401 34.296409 1.384329 1.218677 0.034695 -0.010332 90936.300000 0 0 1
-5.060040 -30.777511 12.753501 33.697344 1.407847 1.182651 0.033866 -0.005995 34658.400000 0 0 1
-5.399040 -29.481921 12.686501 32.546591 1.389673 1.170387 0.024653 -0.000519 279338.000000 0 0 1
-4.711040 -28.717681 13.707401 32.168182 1.408198 1.130600 0.013263 0.002979 211218.000000 0 0 1
-5.686040 -28.377981 14.884401 32.545142 1.373047 1.095787 0.021965 0.003420 99373.100000 0 0 1
-5.964040 -29.447641 15.782801 33.938623 1.370969 1.087117 0.023107 -0.003589 395462.000000 0 0 1
-4.913040 -30.086691 16.536801 34.681591 1.408929 1.073765 0.010513 -0.001558 583751.000000 0 0 1
-5.490040 -31.429261 17.098501 36.198035 1.397862 1.078830 0.013220 0.006994 312590.000000 0 0 1
-5.505040 -32.301351 16.019001 36.473156 1.401991 1.116089 0.014947 0.001664 30137.300000 0 0 1
-6.350540 -33.389341 16.294201 37.691888 1.382845 1.123755 0.020521 -0.000236 -200884.000000 0 0 1
-5.947040 34.259182 15.687801 38.146637 -1.398919 1.146971 0.013301 -0.006669 -530410.000000 0 0 1
-6.161240 34.062319 14.318301 37.459527 -1.391850 1.178584 0.020946 -0.015377 -75938.200000 0 0 1
-5.366040 33.046280 13.770401 36.200483 -1.409822 1.180575 0.022962 -0.016916 200881.000000 0 0 1
-4.058040 33.457735 13.060301 36.144974 -1.450097 1.201101 0.029783 -0.022665 230649.000000 0 0 1
-4.421040 34.077629 11.844301 36.347185 -1.441783 1.238869 0.032755 -0.027681 -523680.000000 0 0 1
-3.294040 -34.487353 11.202001 36.410343 1.475571 1.258064 0.040307 -0.028355 -1299820.000000 0 0 1
-3.605040 -34.324614 9.682801 35.845949 1.466152 1.297276 0.039305 -0.024334 -314883.000000 0 0 1
-3.880040 33.521522 8.848401 34.886120 -1.455561 1.314358 0.048622 -0.031491 637348.000000 0 0 1
-4.901040 32.617741 9.288301 34.266744 -1.421655 1.296304 0.057986 -0.033319 1174070.000000 0 0 1
-6.357840 33.085596 9.621801 35.037948 -1.380947 1.292611 0.074114 -0.037868 489774.000000 0 0 1
-7.202140 33.405430 8.528801 35.221215 -1.358449 1.326216 0.077904 -0.022355 -646437.000000 0 0 1
-8.536540 33.600711 8.911301 35.795133 -1.322002 1.319197 0.060621 -0.026830 -445271.000000 0 0 1
-9.420240 33.791354 7.692401 35.913362 -1.298922 1.354930 0.070150 -0.034612 -424737.000000 0 0 1
-9.283040 -33.977131 7.082701 35.927495 1.304091 1.372358 0.084227 -0.029410 -230227.000000 0 0 1
-10.097240 -33.924101 5.957501 35.892767 1.281504 1.404044 0.070892 -0.019290 -387295.000000 0 0 1
-10.276840 -32.472281 5.438501 34.491155 1.264289 1.412457 0.049565 -0.017562 958109.000000 0 0 1
-11.208340 -31.594981 6.145501 34.082795 1.229896 1.389494 0.058354 -0.014783 285897.000000 0 0 1
-12.168740 -30.962071 5.327401 33.691383 1.196321 1.412006 0.059056 -0.016789 -195058.000000 0 0 1
-13.050540 -30.118611 6.255901 33.415320 1.161912 1.382469 0.052519 -0.016083 -32318.200000 0 0 1
-13.899640 -31.056801 6.963501 34.730609 1.149977 1.368928 0.062093 -0.009257 425752.000000 0 0 1
-14.673740 -30.411901 7.992201 34.699822 1.121247 1.338386 0.052970 -0.014573 425564.000000 0 0 1
31.914672 -13.092321 -12.602599 36.725749 -0.389293 1.921069 0.004885 0.003771 76780.900000 0 0 1
31.065002 -12.831321 -11.472699 35.514785 -0.391703 1.899736 0.007299 0.000523 397785.000000 0 0 1
30.755732 -14.025821 -10.755599 35.472829 -0.427865 1.878852 0.002852 0.011546 -571569.000000 0 0 1
31.789972 -14.658921 -9.835799 36.362470 -0.432061 1.844702 0.010222 0.001816 -523635.000000 0 0 1
32.893332 -15.209621 -10.504399 37.731237 -0.433111 1.852925 0.013789 -0.004861 -229431.000000 0 0 1
33.869652 -15.655621 -9.563499 38.518986 -0.432979 1.821701 0.027916 -0.011568 -478403.000000 0 0 1
35.240780 -15.853021 -10.155999 39.954664 -0.422728 1.827804 0.026709 -0.020427 -852372.000000 0 0 1
-35.171658 -14.655421 -10.613399 39.553396 0.394805 1.842456 0.028643 -0.016082 -89635.900000 0 0 1
-33.869179 -14.814621 -11.131799 38.607140 0.412333 1.863284 0.043717 -0.022391 292971.000000 0 0 1
-33.179259 -13.477921 -11.545199 37.627240 0.385853 1.882658 0.058889 -0.025302 -5196.210000 0 0 1
-32.938829 -12.648621 -10.430999 36.793475 0.366641 1.858240 0.074005 -0.025446 519307.000000 0 0 1
-32.185939 -11.520721 -10.930499 35.890632 0.343733 1.880262 0.068838 -0.024984 90689.500000 0 0 1
-32.373019 -10.277821 -10.043799 35.419258 0.307416 1.858310 0.059763 -0.029259 -226649.000000 0 0 1
-31.799109 -10.272421 -8.792999 34.554635 0.312459 1.828092 0.059590 -0.023013 78201.700000 0 0 1
-32.325529 -9.197821 -8.055599 34.560561 0.277211 1.806047 0.064366 -0.028617 -168312.000000 0 0 1
-31.899019 -9.084021 -6.546599 33.807171 0.277430 1.765673 0.060036 -0.023005 -19818.100000 0 0 1
-30.673119 -8.361521 -6.385099 32.427222 0.266134 1.768997 0.061140 -0.024994 625981.000000 0 0 1
-30.192149 -8.346521 -5.026899 31.725384 0.269711 1.729917 0.055462 -0.018450 437001.000000 0 0 1
-29.304599 -9.584921 -4.566099 31.168566 0.316111 1.717822 0.054953 -0.015721 68170.600000 0 0 1
-30.036879 -10.792421 -4.445599 32.225049 0.344941 1.709192 0.061389 -0.013115 498419.000000 0 0 1
-30.580269 -10.929721 -3.113399 32.623686 0.343262 1.666375 0.046189 -0.015476 -213775.000000 0 0 1
-31.162669 -12.264921 -2.695999 33.597747 0.374957 1.651126 0.049996 -0.019755 -103986.000000 0 0 1
-32.489109 -12.478121 -3.136499 34.944003 0.366699 1.660675 0.053788 -0.028139 258039.000000 0 0 1
-33.022149 -13.777721 -2.865299 35.895652 0.395268 1.650704 0.053605 -0.028533 -874544.000000 0 0 1
-34.527548 -13.671621 -2.781999 37.239822 0.377021 1.645571 0.035397 -0.026916 -997936.000000 0 0 1
-34.895059 -13.075121 -1.581199 37.297776 0.358506 1.613203 0.032990 -0.028484 936376.000000 0 0 1
34.677662 -12.791921 -1.553299 36.994408 -0.353395 1.612796 0.052676 -0.033154 846364.000000 0 0 1
34.304282 -11.751621 -0.501899 36.264807 -0.330040 1.584637 0.054969 -0.037660 -210752.000000 0 0 1
34.448822 -12.177721 0.827001 36.547259 -0.339791 1.548166 0.064292 -0.029275 166397.000000 0 0 1
34.205412 -11.190821 1.818001 36.035397 -0.316189 1.520324 0.055810 -0.026809 -212128.000000 0 0 1
34.548462 -11.601321 3.253801 36.589262 -0.323968 1.481751 0.050537 -0.021388 321182.000000 0 0 1
33.480622 -12.217921 3.937401 35.857116 -0.349909 1.460766 0.047167 -0.030334 341140.000000 0 0 1
34.047782 -12.448221 5.244201 36.629378 -0.350513 1.427133 0.041900 -0.024559 85092.800000 0 0 1
33.064192 -12.526721 6.448901 35.940894 -0.362151 1.390389 0.044691 -0.022034 -109407.000000 0 0 1
32.524922 -11.300721 6.866601 35.110213 -0.334400 1.373955 0.035690 -0.025326 34347.600000 0 0 1
32.303922 -11.306721 8.272301 35.211025 -0.336684 1.333645 0.022671 -0.012314 -359772.000000 0 0 1
31.549622 -10.032121 8.763101 34.246372 -0.307869 1.312034 0.026294 -0.027737 806386.000000 0 0 1
30.126282 -10.062721 8.522301 32.885876 -0.322367 1.308657 0.028077 -0.022744 709444.000000 0 0 1
29.524892 -9.060921 9.305101 32.255301 -0.297767 1.278154 0.037610 -0.012505 109120.000000 0 0 1
27.985032 -9.256621 9.132901 30.858660 -0.319442 1.270337 0.034143 -0.013069 249609.000000 0 0 1
27.492442 -8.808221 7.887901 29.927213 -0.310054 1.304076 0.052249 -0.018066 -66120.700000 0 0 1
26.551452 -9.693921 7.350601 29.205873 -0.350063 1.316378 0.063071 -0.022136 -510792.000000 0 0 1
25.852462 -9.187321 6.104801 28.107388 -0.341455 1.351856 0.070386 -0.027528 -428517.000000 0 0 1
24.834762 -8.269721 6.430701 26.953805 -0.321441 1.329891 0.063389 -0.026968 99911.700000 0 0 1
24.122262 -7.656521 5.378901 25.873508 -0.307347 1.361377 0.074473 -0.035519 -168233.000000 0 0 1
24.783962 -6.407421 4.722101 26.030714 -0.252992 1.388381 0.076968 -0.031674 -217670.000000 0 0 1
25.912562 -6.672021 3.907801 27.041591 -0.252008 1.425778 0.089909 -0.033647 463892.000000 0 0 1
26.185322 -5.496121 3.127401 26.938060 -0.206890 1.454438 0.082191 -0.032810 93275.500000 0 0 1
26.780832 -5.639721 1.671101 27.419190 -0.207555 1.509812 0.072702 -0.039160 -264602.000000 0 0 1
25.720962 -6.000721 0.858101 26.425610 -0.229201 1.538318 0.079225 -0.039591 -128921.000000 0 0 1
26.083342 -5.857821 -0.543899 26.738560 -0.220916 1.591139 0.068252 -0.038152 -354166.000000 0 0 1
25.027962 -6.205321 -1.633799 25.837457 -0.243035 1.634072 0.058430 -0.032385 625255.000000 0 0 1
23.947762 -5.258121 -1.757099 24.581101 -0.216137 1.642339 0.057241 -0.025849 627066.000000 0 1 0
23.482662 -5.216321 -3.099899 24.253964 -0.218586 1.698957 0.047425 -0.022769 -634015.000000 0 1 0
22.266962 -4.313121 -3.225799 22.909090 -0.191331 1.712075 0.027015 -0.024734 -1233210.000000 0 1 0
22.429062 -2.864921 -3.123099 22.825958 -0.127045 1.708049 0.017594 -0.022373 345372.000000 0 1 0
23.034962 -2.284921 -4.264799 23.537605 -0.098870 1.752994 0.022388 -0.019538 -3681.940000 0 1 0
22.057362 -1.368321 -5.039799 22.667137 -0.061955 1.795010 0.007364 -0.011177 70336.700000 0 1 0
21.842762 -0.132721 -4.443199 22.290489 -0.006076 1.771472 -0.001337 -0.006861 292647.000000 0 1 0
21.037762 0.736379 -5.211699 21.686205 0.034988 1.813495 0.012322 -0.000638 -749639.000000 0 1 0
20.974262 2.141479 -4.590099 21.577178 0.101748 1.785164 0.026483 0.003614 -836198.000000 0 1 0
22.166162 2.857979 -4.456399 22.789609 0.128227 1.767610 0.044027 0.001087 -260239.000000 0 1 0
22.779062 2.603379 -3.224699 23.153011 0.113794 1.710528 0.042343 0.000264 -29371.000000 0 1 0
24.026662 3.484179 -2.944599 24.455892 0.144009 1.691494 0.037459 -0.008213 -266360.000000 0 1 0
23.713262 4.845679 -2.954599 24.382966 0.201570 1.692270 0.039480 0.000358 403910.000000 0 1 0
24.769662 5.783479 -2.719699 25.580882 0.229381 1.677315 0.034102 -0.004339 -262608.000000 0 0 1
24.428262 7.269679 -2.941699 25.656223 0.289247 1.685707 0.027889 -0.007694 289137.000000 0 0 1
23.458462 7.767079 -2.003999 24.791994 0.319739 1.651717 0.037139 -0.008110 866076.000000 0 1 0
22.658762 8.806779 -2.544399 24.442848 0.370701 1.675081 0.034462 -0.002141 38900.600000 0 1 0
21.481162 9.276079 -1.641299 23.455912 0.407636 1.640827 0.022554 0.000158 -168912.000000 0 1 0
21.899962 9.897079 -0.429299 24.036322 0.424451 1.588658 0.017229 0.001774 1395200.000000 0 1 0
20.771062 10.347979 0.373001 23.208981 0.462200 1.554724 0.008137 0.003114 822492.000000 0 1 0
21.228562 10.684479 1.813601 23.834829 0.466290 1.494632 0.025434 -0.008115 -267301.000000 0 1 0
22.137262 11.784479 1.890501 25.149678 0.489181 1.495555 0.036976 -0.012544 504853.000000 0 0 1
21.675762 13.129979 1.727701 25.401180 0.544633 1.502727 0.046488 -0.013779 -293164.000000 0 0 1
20.607662 13.684179 2.759101 24.890663 0.586177 1.459719 0.039581 -0.007814 1002580.000000 0 1 0
19.249162 13.239979 2.587501 23.505796 0.602505 1.460494 0.058049 -0.002712 755310.000000 0 1 0
18.385162 13.843579 3.507301 23.280035 0.645403 1.419563 0.060531 -0.007410 -323482.000000 0 1 0
18.457162 13.548979 5.020301 23.440245 0.633232 1.354950 0.057620 -0.011209 -948285.000000 0 1 0
17.941762 12.362979 5.434301 22.456217 0.603347 1.326374 0.035415 -0.006143 123235.000000 0 1 0
18.012462 12.237879 6.873401 22.835457 0.596774 1.265059 0.027565 -0.010816 -113436.000000 0 1 0
18.100762 10.756779 7.326501 22.294024 0.536197 1.235943 0.013792 -0.014715 -752050.000000 0 1 0
19.218262 10.102979 6.840401 22.764069 0.483993 1.265589 0.010951 -0.017874 -231331.000000 0 1 0
19.394662 8.833679 7.332901 22.537929 0.427393 1.239406 0.027719 -0.013287 8304.560000 0 1 0
20.475662 8.127079 6.499101 22.968249 0.377843 1.283917 0.037055 -0.015775 25253.100000 0 1 0
19.962962 7.966179 5.189201 22.111256 0.379685 1.333901 0.020351 -0.011814 888222.000000 0 1 0
20.875162 7.190279 4.428401 22.518509 0.331715 1.372850 0.021013 -0.010869 86373.000000 0 1 0
20.456262 6.860979 3.000001 21.783748 0.323607 1.432640 0.012187 -0.007005 -404943.000000 0 1 0
21.375962 5.909079 2.535501 22.322135 0.269700 1.456964 0.011915 -0.010029 416648.000000 0 1 0
21.180562 5.660779 1.172501 21.955304 0.261159 1.517367 0.014805 0.000799 456412.000000 0 1 0
22.244362 4.682879 0.498001 22.737392 0.207490 1.548892 0.027022 -0.005338 794518.000000 0 1 0
21.946662 3.321979 0.770701 22.210031 0.150226 1.536089 0.014441 -0.000517 522167.000000 0 1 0
23.131762 2.579179 0.669701 23.284739 0.111041 1.542031 0.030338 0.003675 -139794.000000 0 1 0
22.917162 1.081279 0.590801 22.950262 0.047147 1.545051 0.045157 -0.008413 -10396.700000 0 1 0
22.087262 0.664479 -0.500499 22.102922 0.030075 1.593442 0.027682 -0.013827 996352.000000 0 1 0
22.441162 -0.619121 -0.975699 22.470893 -0.027582 1.614231 0.047342 -0.019325 -1236980.000000 0 1 0
22.237362 -1.857821 -0.029799 22.314853 -0.083351 1.572132 0.059647 -0.016132 -572269.000000 0 1 0
23.044862 -1.979921 1.090801 23.155466 -0.085705 1.523671 0.058499 -0.018144 400702.000000 0 1 0
24.365062 -2.353321 0.651501 24.487115 -0.096287 1.544187 0.067687 -0.026995 279998.000000 0 1 0
25.407862 -2.177421 1.797701 25.564278 -0.085490 1.500417 0.069932 -0.027476 -49137.600000 0 0 1
25.366762 -0.789321 2.096501 25.465485 -0.031106 1.488376 0.058891 -0.026585 184196.000000 0 0 1
26.265982 -0.365321 3.081901 26.448693 -0.013908 1.454007 0.059576 -0.026741 -347473.000000 0 0 1
25.956822 1.056279 3.636801 26.231634 0.040671 1.431706 0.056156 -0.022788 -99599.800000 0 0 1
26.073422 2.155679 2.754301 26.306966 0.082490 1.465906 0.053777 -0.020212 168015.000000 0 0 1
27.396092 2.454279 2.379501 27.608538 0.089346 1.484502 0.061098 -0.023333 -337858.000000 0 0 1
27.419902 3.672679 1.433501 27.701886 0.133150 1.519026 0.049215 -0.023266 -492898.000000 0 0 1
26.822342 3.385279 0.178501 27.035717 0.125547 1.564194 0.048830 -0.013826 497803.000000 0 0 1
27.311332 4.209879 -0.911699 27.648926 0.152940 1.603776 0.048541 -0.004466 -90475.900000 0 0 1
28.747902 3.854079 -1.392199 29.038492 0.133270 1.618758 0.053236 -0.008867 388912.000000 0 0 1
29.711392 4.221879 -0.398199 30.012491 0.141151 1.584064 0.061298 -0.017178 351170.000000 0 0 1
31.062512 4.086579 -0.842999 31.341513 0.130809 1.597697 0.053940 -0.017408 374871.000000 0 0 1
32.030882 4.543779 0.247201 32.352503 0.140916 1.563155 0.036787 -0.014427 -256024.000000 0 0 1
32.314792 3.677879 1.388501 32.553041 0.113326 1.528130 0.037510 -0.011542 539521.000000 0 0 1
31.325522 3.814479 2.405501 31.648460 0.121172 1.494716 0.026507 -0.008723 43743.900000 0 0 1
31.365182 2.674679 3.513801 31.674522 0.085070 1.459633 0.037522 -0.010602 -303164.000000 0 0 1
30.809152 1.450879 3.119301 31.000628 0.047058 1.470005 0.046992 -0.018160 206803.000000 0 0 1
30.986122 0.414279 4.061101 31.253862 0.013369 1.440489 0.046797 -0.017006 810663.000000 0 0 1
32.342362 -0.386821 3.856301 32.573748 -0.011960 1.452131 0.051996 -0.019416 1671670.000000 0 0 1
33.518322 0.292079 4.345901 33.800149 0.008714 1.441863 0.043713 -0.013986 306815.000000 0 0 1
34.663502 -0.479121 4.277401 34.929702 -0.013821 1.448031 0.037057 -0.018691 -817427.000000 0 0 1
-35.035055 0.328879 4.522801 35.327312 -0.009387 1.442418 0.032706 -0.015887 -98402.600000 0 0 1
-34.707119 1.508579 3.732001 34.939773 -0.043439 1.463780 0.035611 -0.014260 194119.000000 0 0 1
-34.517636 1.324979 2.364301 34.623874 -0.038367 1.502458 0.043699 -0.011546 -942529.000000 0 0 1
-34.456524 2.639779 1.544601 34.591997 -0.076463 1.526130 0.049485 -0.014831 1180800.000000 0 0 1
-33.267299 3.443379 1.828601 33.494982 -0.103139 1.516176 0.046386 -0.022773 1604590.000000 0 0 1
-32.096939 2.878179 1.221701 32.248875 -0.089432 1.532904 0.051246 -0.028382 -271682.000000 0 0 1
-30.806599 3.587779 1.711101 31.061979 -0.115939 1.515682 0.051905 -0.031099 -19796.700000 0 0 1
-30.537559 3.338279 3.095101 30.875010 -0.108885 1.470382 0.040457 -0.028035 95976.100000 0 0 1
-29.952849 4.503479 3.647001 30.508279 -0.149234 1.450968 0.040819 -0.027472 -301282.000000 0 0 1
-30.408529 4.638179 5.158401 31.189749 -0.151362 1.404645 0.031415 -0.015660 577562.000000 0 0 1
-31.791979 4.963979 5.340201 32.617308 -0.154889 1.406333 0.036301 -0.003518 1135680.000000 0 0 1
-32.769119 3.923879 5.327201 33.430391 -0.119176 1.410762 0.046994 -0.001103 -113611.000000 0 0 1
-32.592449 2.775379 6.400901 33.330796 -0.084949 1.377554 0.021643 0.002021 -780081.000000 0 0 1
-32.585549 3.410779 7.671801 33.649784 -0.104292 1.340784 0.014264 0.003896 350630.000000 0 0 1
-32.305919 2.573079 8.776301 33.575536 -0.079480 1.306335 0.009700 0.000848 -276128.000000 0 0 1
-33.390189 1.591279 9.282501 34.692963 -0.047621 1.299935 0.016500 0.009450 -321219.000000 0 0 1
-33.450769 0.509279 8.470801 34.510401 -0.015224 1.322806 0.021968 0.006381 393913.000000 0 0 1
-34.429892 -0.508421 8.713101 35.518926 0.014766 1.322958 0.033667 0.006477 120994.000000 0 0 1
-34.308670 -1.315721 10.038501 35.771322 0.038331 1.286346 0.042881 0.003821 604335.000000 0 0 1
-33.057629 -2.015921 10.225301 34.661615 0.060907 1.271337 0.030962 -0.001622 989940.000000 0 0 1
-33.091419 -2.877721 11.374201 35.109767 0.086745 1.240883 0.030591 0.002344 -249497.000000 0 0 1
-31.866049 -3.788321 11.306801 34.024112 0.118327 1.232037 0.034150 0.001913 -366570.000000 0 0 1
-31.832329 -4.685921 10.184801 33.748855 0.146157 1.264235 0.034405 -0.001450 279479.000000 0 0 1
-30.601349 -5.378221 10.152001 32.686862 0.173974 1.254989 0.016728 -0.003478 17018.800000 0 0 1
-30.610329 -6.418821 9.025701 32.552370 0.206700 1.289848 0.014164 -0.001255 70342.400000 0 0 1
-31.548409 -7.453521 9.219501 33.702467 0.232003 1.293709 0.026984 -0.006610 -21862.300000 0 0 1
-31.660119 -8.222621 8.047101 33.685760 0.254101 1.329576 0.032118 -0.007716 -110258.000000 0 0 1
-32.706919 -9.307221 8.178201 34.974989 0.277236 1.334781 0.037941 -0.012152 837674.000000 0 0 1
-34.069319 -8.955721 8.481901 36.233494 0.257052 1.334514 0.039211 -0.009623 889062.000000 0 0 1
-34.954482 -10.010221 8.238601 37.281294 0.278914 1.347972 0.041338 -0.014780 -126613.000000 0 0 1
7.765311 -24.022121 10.503701 27.343922 -1.258142 1.176528 0.051750 -0.021429 -94672.800000 0 0 1
7.100311 -24.605921 9.409001 27.283604 -1.289867 1.218708 0.055648 -0.025104 248871.000000 0 0 1
5.822211 -25.108891 9.825801 27.584433 -1.342945 1.206590 0.060872 -0.021250 855059.000000 0 0 1
5.250311 -26.114591 8.783201 28.047856 -1.372392 1.252288 0.042238 -0.010185 130610.000000 0 0 1
4.729411 -25.529591 7.567801 27.044389 -1.387621 1.287180 0.053400 -0.010034 -284114.000000 0 0 1
4.522211 -26.580421 6.624101 27.764148 -1.402277 1.329888 0.033877 -0.001886 -205098.000000 0 0 1
4.007311 -26.104201 5.243301 26.925454 -1.418473 1.374810 0.033265 -0.001929 524727.000000 0 0 1
2.597911 -25.960221 5.145301 26.592411 -1.471056 1.376081 0.015651 -0.001071 321758.000000 0 0 1
1.887211 -27.113621 4.621401 27.569319 -1.501305 1.402373 0.001758 0.006417 371366.000000 0 0 1
0.346511 -27.039091 4.587301 27.427648 -1.557982 1.402756 0.000041 0.008634 290101.000000 0 0 1
-0.184689 -26.815291 5.907001 27.458817 1.563909 1.353979 -0.000019 0.011458 -720590.000000 0 0 1
-1.553489 -26.998701 6.102301 27.723298 1.513320 1.348864 -0.012934 0.008893 -10829.600000 0 0 1
-2.066089 -28.499391 6.379101 29.277584 1.498427 1.351151 -0.015275 0.011227 -406078.000000 0 0 1
-1.870689 -28.981131 7.686801 30.041510 1.506337 1.312046 -0.003361 0.010147 -264093.000000 0 0 1
-2.487289 -30.173421 8.019101 31.319769 1.488549 1.311873 0.007407 0.005144 -258727.000000 0 0 1
-2.205289 -30.692601 9.449801 32.190026 1.499069 1.272844 0.012101 0.004323 743188.000000 0 0 1
-0.859789 -31.175671 9.520001 32.608160 1.543224 1.274530 0.010517 0.003751 277095.000000 0 0 1
-0.510489 -31.394591 10.844101 33.218601 1.554537 1.238255 0.016818 0.001765 35002.600000 0 0 1
0.956711 -31.700991 11.203901 33.636223 -1.540626 1.231217 0.016389 0.004351 -292076.000000 0 0 1
1.339211 -32.964641 10.671001 34.674649 -1.530193 1.257973 0.017714 0.003025 678469.000000 0 0 1
2.753611 -33.145161 10.880001 34.993692 -1.487909 1.254643 0.015737 0.009528 1072360.000000 0 0 1
3.141911 -33.764731 12.268501 36.061680 -1.478010 1.223657 0.022116 0.003887 -535302.000000 0 0 1
2.762011 -32.932691 13.336201 35.637692 -1.487124 1.187245 0.026197 0.004010 -67533.900000 0 0 1
3.377311 -33.322671 14.553701 36.518719 -1.469789 1.160886 0.029644 0.002116 -503377.000000 0 0 1
3.129011 -32.321781 15.747201 36.089646 -1.474289 1.119274 0.028769 0.001602 32715.700000 0 0 1
3.695911 -31.015041 15.668101 34.943983 -1.452191 1.105847 0.027649 -0.004012 -686986.000000 0 0 1
5.063611 -30.999871 15.923201 35.216196 -1.408883 1.101616 0.021465 0.003865 -722759.000000 0 0 1
5.682111 -29.675661 15.353601 33.891950 -1.381612 1.100651 0.026263 0.003894 -376056.000000 0 0 1
5.842911 -29.617611 13.928201 33.246613 -1.376019 1.138523 0.020974 0.006675 312104.000000 0 0 1
4.648911 -29.661201 13.124101 32.766465 -1.415327 1.158696 0.011869 0.015439 120251.000000 0 0 1
4.834411 -29.633451 11.621101 32.195698 -1.409081 1.201508 0.014210 0.014229 101311.000000 0 0 1
5.204911 -30.951721 11.114101 33.295996 -1.404193 1.230468 0.014566 0.012806 2485460.000000 0 0 1
6.691511 -31.037481 10.988701 33.598409 -1.358452 1.237605 0.017762 0.005453 2554790.000000 0 0 1
7.174411 -32.435961 10.467701 34.830109 -1.353114 1.265542 0.006938 0.004371 -280409.000000 0 0 1
7.011311 -33.462071 11.432401 36.049528 -1.364254 1.248094 0.004971 0.005844 302035.000000 0 0 1
6.995811 34.276427 10.783901 36.607476 1.369462 1.271778 0.011198 0.003548 -122986.000000 0 0 1
6.941011 33.023241 11.647301 35.698343 1.363626 1.238441 0.022456 0.002311 603120.000000 0 0 1
5.623911 32.796931 12.179701 35.434618 1.400971 1.219918 0.014733 -0.000145 685179.000000 0 0 1
5.398611 31.453671 12.729301 34.358602 1.400816 1.191267 0.028791 -0.000474 482094.000000 0 0 1
4.039011 31.297771 13.462201 34.308817 1.442455 1.167575 0.028609 -0.002477 385861.000000 0 0 1
4.096911 31.844251 14.730301 35.324535 1.442845 1.140655 0.050249 -0.004670 -14512.600000 0 0 1
2.887611 31.814801 15.452901 35.486786 1.480281 1.120253 0.042265 -0.004235 -86713.100000 0 0 1
3.116911 32.057621 16.976301 36.408804 1.473873 1.085728 0.036960 -0.002266 -77208.900000 0 0 1
3.766811 33.280985 17.212301 37.657352 1.458094 1.096091 0.034421 -0.004251 219461.000000 0 0 1
4.171511 33.347414 18.576101 38.399519 1.446350 1.065852 0.031527 -0.010192 -193396.000000 0 0 1
4.541911 -34.313825 19.107201 39.536726 -1.439197 1.066402 0.025777 -0.012603 133269.000000 0 0 1
3.499611 -33.368271 19.360001 38.736268 -1.466300 1.047440 0.014344 -0.007541 -118476.000000 0 0 1
3.823311 -32.439981 20.375001 38.498191 -1.453480 1.013085 0.011208 -0.006561 226717.000000 0 0 1
2.617611 -31.623791 20.957401 38.027999 -1.488211 0.987109 0.000917 -0.000901 447441.000000 0 0 1
1.756911 -32.432311 21.732301 39.079847 -1.516678 0.981110 0.001049 0.000021 -620308.000000 0 0 1
0.760011 -31.714241 22.372401 38.818746 -1.546837 0.956566 0.003390 -0.002268 -602268.000000 0 0 1
-0.387789 -32.621791 22.869001 39.841220 1.558909 0.959410 0.000152 0.003296 -1370480.000000 0 0 1
-1.055289 -33.220091 21.812701 39.755276 1.539040 0.990019 0.002205 0.000527 217773.000000 0 0 1
-1.997989 -34.222630 22.255501 40.871600 1.512480 0.994977 -0.000635 0.009545 441345.000000 0 0 1
-3.219789 -33.817181 23.097101 41.078521 1.475871 0.973672 0.014348 0.011015 -439396.000000 0 0 1
-4.335689 -33.295361 22.385001 40.354275 1.441306 0.982780 0.011787 0.008766 -115847.000000 0 0 1
-5.400789 -32.990861 23.240001 40.714409 1.408530 0.963310 0.013747 0.009519 -593424.000000 0 0 1
-6.723289 -32.664741 22.558701 40.262674 1.367804 0.976063 0.009844 0.005629 -195049.000000 0 0 1
-7.409489 -33.755861 21.953201 40.942664 1.354721 1.004875 0.008461 0.016551 464161.000000 0 0 1
-8.559089 -33.308181 21.234601 40.417833 1.319272 1.017638 0.021450 -0.004736 486614.000000 0 0 1
-9.487589 -34.439237 20.740501 41.306704 1.301977 1.044760 0.033477 -0.013386 177649.000000 0 0 1
-10.073389 33.823986 21.748601 41.455239 -1.281343 1.018518 0.047072 -0.014428 -484264.000000 0 0 1
-11.450089 33.553758 21.611001 41.521014 -1.241941 1.023379 0.054358 -0.020923 24164.900000 0 0 1
-12.067189 33.399344 23.015301 42.318286 -1.224090 0.995764 0.047459 -0.012558 -476889.000000 0 0 1
-12.105889 -34.422270 23.828501 43.580302 1.232619 0.992292 0.042291 -0.012713 -113896.000000 0 0 1
-10.895889 -33.812281 24.230401 43.001199 1.259057 0.972202 0.025817 -0.009371 -240130.000000 0 0 1
-11.062389 -32.391411 24.843501 42.293965 1.241694 0.942953 0.022442 -0.012313 -156497.000000 0 0 1
-11.606789 -32.291911 26.129601 43.130513 1.225742 0.919992 0.037642 -0.009806 -150509.000000 0 0 1
-11.974589 -30.966631 26.326301 42.372127 1.201814 0.900381 0.038465 -0.011450 113113.000000 0 0 1
-13.002689 -30.767791 27.479301 43.253195 1.170954 0.882383 0.018533 -0.002727 12833.200000 0 0 1
-12.456189 -30.925671 28.761901 44.031815 1.187897 0.858984 0.004666 0.004338 178848.000000 0 0 1
-13.202689 -30.154081 29.709301 44.342104 1.158100 0.836585 0.016094 -0.004243 251935.000000 0 0 1
-12.611189 -30.169091 31.142401 45.156010 1.174855 0.809774 0.006274 0.000220 -508715.000000 0 0 1
-13.410589 -29.405161 31.995401 45.477611 1.142912 0.790427 0.018355 -0.003072 20532.400000 0 0 1
-12.860589 -29.014711 33.216801 45.941311 1.153575 0.762622 0.002495 0.003966 -725388.000000 0 0 1
-12.319589 -29.988201 34.259701 47.167696 1.181002 0.757817 0.009389 0.007858 -223878.000000 0 0 1
-11.130289 -30.638811 33.865701 47.005380 1.222345 0.766325 0.002135 0.010542 -231928.000000 0 0 1
-10.877189 -31.591181 -34.007933 47.674474 1.239199 2.365044 -0.000888 0.016399 -110524.000000 0 0 1
-9.389389 -31.989681 -33.923933 47.563994 1.285301 2.364888 -0.006691 0.006236 -104548.000000 0 0 1
-8.601389 -31.003321 -33.305333 46.308045 1.300168 2.373465 0.019591 0.001514 246994.000000 0 0 1
-7.252789 -31.458931 -33.194533 46.304906 1.344208 2.370097 0.025035 -0.007219 957864.000000 0 0 1
-6.312589 -30.650151 -32.231933 44.924137 1.367680 2.370967 0.036230 -0.003731 209926.000000 0 0 1
-6.694089 -30.766831 -30.893333 44.111300 1.356560 2.346684 0.034533 -0.006600 -347314.000000 0 0 1
-5.916589 -30.029521 -30.010733 42.865164 1.376262 2.346361 0.032759 -0.000389 -106478.000000 0 0 1
-6.414489 -30.263371 -28.537133 42.087828 1.361932 2.315886 0.038687 -0.008145 -176671.000000 0 0 1
-6.154589 -31.536421 -28.038133 42.644598 1.378061 2.288271 0.035512 -0.001377 -401933.000000 0 0 1
-6.940789 -31.953011 -26.963533 42.381619 1.356901 2.260370 0.045987 -0.006263 -578813.000000 0 0 1
-6.468789 -33.216581 -26.186633 42.789324 1.378458 2.229371 0.040215 -0.008155 -197139.000000 0 0 1
-5.392989 -32.953471 -25.334933 41.915086 1.408580 2.219852 0.009631 -0.009391 -392510.000000 0 0 1
-5.186289 -34.020009 -24.455533 42.217671 1.419513 2.188632 0.016069 -0.009694 280768.000000 0 0 1
-4.347889 -33.591171 -23.183933 41.045897 1.442077 2.171023 0.013870 -0.017879 164477.000000 0 0 1
-5.134389 -32.955771 -22.240133 40.088257 1.416242 2.158894 0.013517 -0.009171 -209709.000000 0 0 1
-5.258589 -31.572841 -22.478633 39.112479 1.405757 2.183055 0.007005 0.001060 -121285.000000 0 0 1
-5.736789 -30.719601 -21.331633 37.837061 1.386176 2.169747 0.006846 -0.003237 -429670.000000 0 0 1
-7.130889 -30.756011 -21.147033 37.999721 1.342968 2.160970 0.018963 -0.002635 -214716.000000 0 0 1
-7.644889 -29.498031 -20.625933 36.796838 1.317210 2.165829 0.014326 -0.003497 155990.000000 0 0 1
-7.720089 -28.290431 -21.586633 36.413335 1.304396 2.205355 0.032058 -0.025184 82245.800000 0 0 1
-6.425389 -27.766031 -21.897833 35.940968 1.343387 2.225939 0.026337 -0.014031 189795.000000 0 0 1
-6.483089 -27.041211 -23.099833 36.150516 1.335489 2.263981 0.056335 -0.033652 -1144020.000000 0 0 1
-5.536489 -27.590311 -24.137233 37.074034 1.372759 2.279770 0.050846 -0.028913 1902180.000000 0 0 1
-4.109289 -27.218551 -24.130633 36.606328 1.420954 2.290541 0.056306 -0.025661 2350820.000000 0 0 1
-3.440589 -27.626761 -22.889233 36.041540 1.446896 2.258907 0.023372 -0.026729 -1693010.000000 0 0 1
-2.006389 -27.176391 -22.732633 35.487384 1.497102 2.266054 0.026926 -0.024776 -839756.000000 0 0 1
-1.652489 -25.786551 -22.762533 34.435590 1.506800 2.292970 0.032618 -0.031496 -101254.000000 0 0 1
-2.212989 -24.978721 -21.757633 33.199826 1.482432 2.285447 0.041401 -0.032971 -882565.000000 0 0 1
-2.241389 -23.595921 -22.371233 32.592382 1.476090 2.327316 0.037692 -0.028185 33477.800000 0 0 1
-2.898289 -23.506021 -23.626433 33.453572 1.448116 2.354977 0.030300 -0.033954 592877.000000 0 0 1
-4.320389 -23.619521 -23.484333 33.586626 1.389880 2.345098 0.036624 -0.031948 -67074.000000 0 0 1
-5.012989 -23.811921 -24.846233 34.777478 1.363302 2.366612 0.039617 -0.028743 -140405.000000 0 0 1
-5.265689 -22.586621 -25.495033 34.465630 1.341754 2.403456 0.042771 -0.032793 -42657.600000 0 0 1
-5.637089 -22.719421 -26.818433 35.597433 1.327590 2.423985 0.043842 -0.025668 -59825.200000 0 0 1
-5.863889 -21.424621 -27.569433 35.404424 1.303640 2.463388 0.049720 -0.010879 -83585.000000 0 0 1
-6.092889 -21.523421 -28.997733 36.623073 1.294932 2.484528 0.047370 -0.006547 -885758.000000 0 0 1
-5.100489 -22.082321 -29.753933 37.402412 1.343801 2.490642 0.032648 -0.003536 -1023190.000000 0 0 1
-5.474889 -22.243421 -31.231833 38.732049 1.329458 2.508762 0.039579 -0.010452 -85659.700000 0 0 1
-5.761989 -20.960021 -31.826433 38.541469 1.302520 2.542364 0.044434 -0.014899 -229106.000000 0 0 1
-6.584589 -21.289021 -32.918233 39.751595 1.270834 2.546503 0.042442 -0.013456 -219878.000000 0 0 1
-6.649189 -20.371521 -34.178133 40.340493 1.255302 2.581567 0.032873 -0.008098 -451435.000000 0 0 1
-5.504389 -20.602121 33.939501 40.082857 1.309719 0.560981 0.037615 -0.003952 -706014.000000 0 0 1
-5.468289 -19.935721 32.687601 38.675760 1.303085 0.563913 0.032215 0.006404 811085.000000 0 0 1
-4.203489 -20.336721 31.827601 38.003259 1.366972 0.578111 0.017967 0.010664 -789647.000000 0 0 1
-4.266089 -21.672621 31.338901 38.340954 1.376439 0.613958 0.032500 0.002446 581257.000000 0 0 1
-3.109189 -22.199221 30.648901 37.971405 1.431643 0.631475 0.027686 -0.000355 1798260.000000 0 0 1
-1.719489 -21.996621 31.405101 38.380833 1.492784 0.612437 0.003384 -0.003119 -36536.800000 0 0 1
-1.179489 -20.720221 31.066501 37.361026 1.513933 0.588955 -0.000148 0.003389 -515370.000000 0 0 1
-0.180189 -20.291021 31.958701 37.856526 1.561916 0.565714 0.010404 0.003609 -372459.000000 0 0 1
-0.524889 -19.789021 33.409201 38.833691 1.544278 0.534909 0.008709 -0.003173 -319777.000000 0 0 1
-1.293289 -18.597221 33.398101 38.248691 1.501366 0.509101 0.014967 -0.004228 -135695.000000 0 0 1
-1.738289 -18.380621 -34.164033 38.833620 1.476505 2.646141 0.023882 -0.008891 237741.000000 0 0 1
-2.883089 -17.364821 -33.917633 38.213284 1.406267 2.662877 0.027082 -0.007162 382721.000000 0 0 1
-2.410389 -16.086721 -34.098333 37.779477 1.422066 2.696480 0.042750 -0.007005 397561.000000 0 0 1
-3.461789 -15.175921 -33.736333 37.154175 1.346523 2.709304 0.040351 -0.005543 596311.000000 0 0 1
-3.224689 -13.667621 -34.092433 36.871350 1.339097 2.750865 0.039187 -0.010002 -184796.000000 0 0 1
-2.113689 -13.125321 -33.403633 35.951974 1.411128 2.762817 0.043988 -0.007047 40759.900000 0 0 1
-2.053889 -11.706021 -33.593833 35.634183 1.397108 2.801554 0.029884 -0.001169 -189431.000000 0 0 1
-1.439689 -11.166521 33.955201 35.773168 1.442575 0.320174 0.028322 -0.001931 -697779.000000 0 0 1
-2.220589 -11.321021 32.795901 34.765898 1.377108 0.338254 0.030961 -0.004751 -138512.000000 0 0 1
-1.644789 -10.804621 31.613201 33.449060 1.419726 0.332851 0.022583 0.002178 168078.000000 0 0 1
-0.658289 -11.869321 30.990901 33.192621 1.515392 0.366274 0.022314 -0.001895 305315.000000 0 0 1
-1.254889 -12.977321 30.330101 33.013643 1.474397 0.405984 0.032519 -0.002915 -12279.900000 0 0 1
-0.293389 -13.945221 29.988601 33.073727 1.549761 0.435357 0.026645 0.001185 -132844.000000 0 0 1
-0.689689 -15.348021 30.465901 34.120500 1.525890 0.467070 0.018516 0.006758 294997.000000 0 0 1
-1.769889 -15.916421 29.737701 33.775669 1.460052 0.493991 0.026685 -0.000751 224992.000000 0 0 1
-2.058489 -17.142421 30.311701 34.884082 1.451287 0.517767 0.024639 0.003090 -241341.000000 0 0 1
-2.414889 -18.206621 29.278101 34.561828 1.438928 0.560250 0.025360 -0.003398 556635.000000 0 0 1
-3.818389 -18.086421 28.969801 34.364925 1.362733 0.567951 0.031970 -0.006365 1096440.000000 0 0 1
-4.419489 -19.136921 28.201101 34.366491 1.343835 0.608338 0.036587 -0.008528 12623.500000 0 0 1
-4.146889 -19.059421 26.676001 33.046441 1.356558 0.631356 0.024884 -0.008557 -482776.000000 0 0 1
-4.807889 -19.957321 25.821001 32.986884 1.334392 0.671699 0.031031 -0.006126 -460346.000000 0 0 1
-4.419089 -21.364521 25.945501 33.898969 1.366830 0.699169 0.025538 -0.008007 -254148.000000 0 0 1
-28.977229 34.408679 -0.415699 44.986773 -0.870878 1.580037 0.019202 -0.003022 87408.100000 0 0 1
-28.305979 -33.353843 -0.097899 43.746050 0.867082 1.573034 0.031639 -0.000133 414381.000000 0 0 1
-28.655369 -32.799343 1.170001 43.569439 0.852728 1.543939 0.025971 -0.006227 -99166.000000 0 0 1
-27.981629 -31.379943 1.454001 42.068831 0.842583 1.536227 0.032400 -0.009536 585686.000000 0 0 1
-26.588489 -31.514043 1.703401 41.267230 0.869969 1.529507 0.029094 -0.011713 37056.600000 0 0 1
-26.004939 -30.225943 1.849601 39.915981 0.860323 1.524442 0.032350 -0.016399 281587.000000 0 0 1
-24.480689 -30.214543 2.097001 38.943808 0.889849 1.516923 0.032524 -0.009709 75093.000000 0 0 1
-24.051189 -30.775743 3.308201 39.198855 0.907439 1.486300 0.027407 -0.007533 -699448.000000 0 0 1
-22.654189 -30.817243 3.338101 38.393459 0.936890 1.483742 0.028449 -0.008662 -802632.000000 0 0 1
-22.258589 -31.498843 4.619201 38.845320 0.955623 1.451602 0.032950 -0.017694 -374809.000000 0 0 1
-22.538189 -30.691043 5.714201 38.504054 0.937382 1.421841 0.026728 -0.017137 -551590.000000 0 0 1
-22.022889 -31.201043 6.871701 38.803776 0.956163 1.392769 0.019326 -0.007283 -477366.000000 0 0 1
-22.596589 -30.737743 8.226801 39.026849 0.936873 1.358405 0.011874 0.003328 -443697.000000 0 0 1
-22.246889 -29.449843 8.592301 37.895184 0.923838 1.342069 0.032725 -0.007938 -49209.100000 0 0 1
-22.701689 -29.124043 9.907501 38.232645 0.908692 1.308668 0.013877 -0.001920 -66574.800000 0 0 1
-21.989789 -27.910843 10.499001 37.051248 0.903503 1.283496 0.032077 -0.003262 130042.000000 0 0 1
-20.764889 -28.076943 11.178801 36.666892 0.934003 1.260990 0.032571 -0.010956 -59712.500000 0 0 1
-20.376389 -26.871543 11.871401 35.752024 0.922011 1.232322 0.048991 -0.014550 -242791.000000 0 0 1
-19.074189 -27.090043 12.620901 35.453946 0.957322 1.206834 0.043794 -0.014102 -566417.000000 0 0 1
-19.207189 -27.967743 13.715901 36.595583 0.969010 1.186619 0.034789 -0.014233 -298131.000000 0 0 1
-17.959889 -28.273443 14.300401 36.420415 1.004881 1.167287 0.036787 -0.016734 -15759.700000 0 0 1
-17.915089 -29.396243 15.391601 37.709295 1.023468 1.150354 0.057467 -0.025160 -236754.000000 0 0 1
-17.991289 -30.697243 14.910601 38.578922 1.040669 1.173967 0.060790 -0.030118 -52769.100000 0 0 1
-17.953489 -31.678243 15.964401 39.758030 1.055188 1.157600 0.064456 -0.031805 223576.000000 0 0 1
-17.379089 -33.007743 15.395301 40.355410 1.086162 1.179386 0.063667 -0.033648 138514.000000 0 0 1
-17.485689 -33.938343 16.458601 41.574584 1.095048 1.163769 0.069392 -0.033113 493302.000000 0 0 1
-16.809689 33.815679 16.133601 41.065300 -1.109473 1.167039 0.062010 -0.030013 69026.000000 0 0 1
-17.022089 32.654279 17.162901 40.627806 -1.090268 1.134658 0.071398 -0.029092 -372282.000000 0 0 1
-18.105689 31.832679 16.804001 40.292802 -1.053652 1.140602 0.062508 -0.025581 -118730.000000 0 0 1
-18.420589 30.851379 17.788101 40.094167 -1.032530 1.111120 0.053442 -0.019050 234939.000000 0 0 1
-19.173689 31.195679 19.123601 41.309960 -1.019691 1.089499 0.050647 -0.022298 422626.000000 0 0 1
-18.419589 32.124279 19.961401 42.067898 -1.050176 1.076395 0.054966 -0.023156 640792.000000 0 0 1
-19.152389 32.404279 21.158601 43.180293 -1.036987 1.058700 0.049158 -0.023312 175733.000000 0 0 1
-18.597889 33.610679 21.954201 44.244165 -1.065398 1.051573 0.046907 -0.010177 790280.000000 0 0 1
-17.299489 33.345379 22.512501 43.794969 -1.092224 1.030905 0.033801 -0.018828 434977.000000 0 0 1
-17.047589 33.836179 23.836201 44.762392 -1.104092 1.009239 0.032247 -0.022686 -302445.000000 0 0 1
-17.684989 33.067979 25.009101 45.074440 -1.079692 0.982626 0.025740 -0.021143 276567.000000 0 0 1
-19.090089 33.294379 25.008001 45.807721 -1.050186 0.993293 0.016336 -0.018995 409361.000000 0 0 1
-19.763789 32.377679 25.940201 45.954493 -1.022755 0.970998 0.007301 -0.012774 197569.000000 0 0 1
-21.292489 32.538479 25.867201 46.703691 -0.991349 0.983806 0.027228 -0.009969 -315513.000000 0 0 1
-21.717089 32.267279 24.551101 45.995280 -0.978396 1.007739 0.019710 -0.004254 595831.000000 0 0 1
-23.090889 32.635579 24.412901 46.842928 -0.955030 1.022581 -0.000857 -0.008243 471997.000000 0 0 1
-23.653889 32.357179 22.980601 46.201748 -0.939551 1.050201 -0.013824 -0.010844 -6429.700000 0 0 1
-22.989289 33.089279 21.964401 45.889462 -0.963592 1.071694 -0.009129 -0.007405 290391.000000 0 0 1
-23.193389 32.413879 20.696601 44.910379 -0.949718 1.091852 -0.014586 -0.000623 -39492.100000 0 0 1
-23.071089 33.348679 19.426301 44.964327 -0.965585 1.124045 0.006854 -0.013043 149513.000000 0 0 1
-21.744489 33.859379 19.437301 44.688802 -0.999924 1.120816 0.037091 -0.015372 190054.000000 0 0 1
-21.413489 -34.271743 18.380901 44.395353 1.012330 1.143922 0.041922 -0.018111 397305.000000 0 0 1
-19.966789 -33.760743 18.676401 43.442702 1.036709 1.126405 0.057627 -0.023877 449575.000000 0 0 1
-19.927289 -32.673443 19.592201 42.994245 1.023135 1.097645 0.047862 -0.029583 515367.000000 0 0 1
-18.600089 -32.162643 19.661201 42.035244 1.046475 1.084074 0.061326 -0.027977 360503.000000 0 0 1
-18.568789 -31.149843 20.825801 41.818975 1.033241 1.049507 0.054204 -0.022177 25349.500000 0 0 1
-19.073389 -29.852943 20.468401 40.913907 1.002256 1.046874 0.070284 -0.029206 108724.000000 0 0 1
-19.268089 -29.141643 21.658701 41.104671 0.986597 1.015829 0.069189 -0.025856 -59388.100000 0 0 1
-20.081789 -27.847043 21.438301 40.476373 0.946019 1.012609 0.052688 -0.024849 -148709.000000 0 0 1
-19.449189 -27.008043 20.487701 39.082621 0.946690 1.019003 0.049828 -0.018244 449394.000000 0 0 1
-20.082889 -25.721343 20.318101 38.441321 0.907881 1.013907 0.048874 -0.006668 258408.000000 0 0 1
-21.372689 -25.549643 19.445201 38.570610 0.874183 1.042404 0.050721 -0.015169 759711.000000 0 0 1
-22.607589 -25.860243 20.071001 39.783166 0.852407 1.041982 0.045285 -0.011987 620213.000000 0 0 1
-23.723489 -25.487043 19.272601 39.797317 0.821220 1.065269 0.038891 -0.006254 1018250.000000 0 0 1
-25.080319 -26.111543 19.807301 41.269411 0.805540 1.070197 0.031951 -0.010740 612048.000000 0 0 1
-25.343839 -27.469643 19.655301 42.228217 0.825628 1.086649 0.021048 -0.006222 -43312.300000 0 0 1
-25.480579 -28.050643 18.306501 42.085941 0.833372 1.120781 0.013473 -0.016255 664207.000000 0 0 1
-26.706799 -29.058143 18.296801 43.501744 0.827538 1.136691 0.010891 -0.015123 1270070.000000 0 0 1
-27.971809 -28.422843 18.460101 43.943776 0.793396 1.137258 -0.001442 -0.013382 506943.000000 0 0 1
-29.064929 -29.281943 18.144701 45.071415 0.789118 1.156466 -0.000917 -0.001595 -27442.200000 0 0 1
-30.451289 -28.772343 18.496501 45.795734 0.757057 1.155030 -0.005013 0.004555 -403783.000000 0 0 1
-30.729409 -27.588343 17.825901 44.979729 0.731589 1.163302 0.001612 0.013084 -313813.000000 0 0 1
-32.031719 -27.201443 18.198901 45.794645 0.704031 1.162112 -0.012107 0.025684 -72914.900000 0 0 1
-32.569539 -26.040543 17.296201 45.144693 0.674458 1.177616 -0.014280 0.013011 -426113.000000 0 0 1
-32.626659 -26.366143 15.901001 44.861054 0.679671 1.208471 0.010226 -0.008068 80434.800000 0 0 1
-33.087079 -25.307143 15.044201 44.289212 0.652947 1.224219 0.010350 -0.011181 -31208.600000 0 0 1
-32.162789 -24.071643 14.784501 42.807365 0.642496 1.218160 -0.011532 -0.000987 188562.000000 0 0 1
-31.866399 -23.332943 16.000201 42.613379 0.632019 1.185889 -0.023896 0.000654 408654.000000 0 0 1
-31.169449 -22.087243 15.842001 41.356376 0.616487 1.177689 -0.008824 -0.001924 282496.000000 0 0 1
-32.057149 -20.864343 16.217601 41.545062 0.576971 1.169772 -0.008462 -0.005383 311216.000000 0 0 1
-32.456079 -20.704543 17.603801 42.331654 0.567840 1.141914 -0.003173 -0.002580 127312.000000 0 0 1
-33.195169 -19.519443 17.697401 42.380726 0.531565 1.140014 0.012369 -0.005767 -217835.000000 0 0 1
-33.564209 -19.080543 19.134301 43.089961 0.516920 1.110677 0.010584 -0.000895 202645.000000 0 0 1
-34.662813 -19.843543 19.649401 44.512647 0.519934 1.113600 0.008962 0.003686 583950.000000 0 0 1
-34.895271 -19.405543 20.973101 45.101286 0.507521 1.087137 0.014105 0.006775 961045.000000 0 0 1
34.630062 -19.814243 21.482501 45.313831 -0.519704 1.076874 0.018890 0.005447 1261290.000000 0 0 1
34.288712 -21.188343 21.675101 45.765398 -0.553506 1.077407 0.008679 0.006829 30783.400000 0 0 1
34.992062 -21.785043 22.747201 47.079376 -0.556851 1.066528 -0.006571 0.010366 -366907.000000 0 0 1
34.537882 -23.178343 23.135001 47.595474 -0.591065 1.063203 0.005034 0.007354 121883.000000 0 0 1
33.342242 -23.325043 23.880501 47.180939 -0.610434 1.040085 0.029520 -0.006558 133256.000000 0 0 1
33.199882 -24.569643 24.429401 47.986406 -0.637104 1.036669 0.030541 -0.020662 -694835.000000 0 0 1
32.130162 -24.592343 25.512001 47.832968 -0.653283 1.008233 0.030780 -0.025312 305546.000000 0 0 1
30.773522 -24.458443 25.080701 46.629032 -0.671555 1.002879 0.041076 -0.026186 71334.600000 0 0 1
29.967572 -24.445543 26.198401 46.711842 -0.684261 0.975383 0.027468 -0.024813 -886291.000000 0 0 1
28.580052 -25.030343 25.929901 45.996709 -0.719282 0.971897 0.012227 -0.017972 -338167.000000 0 0 1
27.719782 -24.102643 25.284801 44.594225 -0.715712 0.967940 0.021558 -0.011059 -25663.200000 0 0 1
26.430292 -24.648243 25.035701 43.964560 -0.750524 0.964957 0.015320 -0.006025 -149538.000000 0 0 1
25.510362 -23.491743 24.729801 42.593469 -0.744227 0.951330 0.010930 0.003460 -939215.000000 0 0 1
25.543862 -22.897643 23.467501 41.563380 -0.730825 0.970824 0.018043 -0.001464 879197.000000 0 0 1
26.691792 -22.032343 23.188401 41.660267 -0.690059 0.980500 0.024229 0.004997 956119.000000 0 0 1
26.644742 -21.324043 21.769801 40.479394 -0.674930 1.002971 0.031845 -0.006570 -131712.000000 0 0 1
25.809862 -20.207143 21.770901 39.350346 -0.664241 0.984526 0.024824 -0.002952 -306833.000000 0 0 1
25.606962 -19.662543 20.505701 38.246776 -0.654833 1.004936 0.007066 -0.003689 14195.200000 0 0 1
24.588562 -18.499143 20.405201 36.921374 -0.645002 0.985236 0.020247 0.007507 -72735.300000 0 0 1
24.919362 -17.333543 21.043501 36.935826 -0.607757 0.964617 0.032527 -0.012140 -173077.000000 0 0 1
24.786062 -17.378943 22.463701 37.696079 -0.611503 0.932390 0.030934 -0.005817 -98235.400000 0 0 1
24.918062 -15.960743 23.099201 37.539688 -0.569688 0.907995 0.038324 -0.000506 284667.000000 0 0 1
23.758362 -15.114443 23.017201 36.368911 -0.566594 0.885527 0.006413 -0.002507 336437.000000 0 0 1
23.865462 -13.925543 23.788501 36.460579 -0.528200 0.859991 0.002659 0.002022 469672.000000 0 0 1
22.489562 -13.196943 23.682301 35.224864 -0.530659 0.833461 -0.009944 0.003483 1064730.000000 0 0 1
21.403262 -13.955543 24.243201 35.222004 -0.577800 0.811657 0.016350 0.002824 -221524.000000 0 0 1
20.235962 -13.197243 24.248701 34.229532 -0.577898 0.783547 0.029165 -0.002640 -303348.000000 0 0 1
19.062662 -14.017543 24.854701 34.316654 -0.634053 0.760814 0.029991 0.003272 -227325.000000 0 0 1
18.539162 -14.962743 23.983501 33.805214 -0.679048 0.782062 0.039113 0.002255 147259.000000 0 0 1
17.394062 -15.648543 24.487501 33.868392 -0.732621 0.762633 0.028911 0.008051 108785.000000 0 0 1
16.853362 -16.630943 23.446501 33.322102 -0.778756 0.790300 0.022063 0.004696 -34188.200000 0 0 1
17.599162 -17.834843 23.571101 34.400711 -0.792049 0.815929 0.020829 0.012253 247552.000000 0 0 1
17.209462 -18.784743 22.613101 34.064417 -0.829135 0.844863 0.021971 0.007290 31283.400000 0 0 1
17.700162 -20.210443 23.018501 35.378088 -0.851517 0.862366 0.014538 0.017229 380396.000000 0 0 1
16.887962 -20.870143 24.019101 36.023372 -0.890475 0.840938 0.023434 0.013343 315857.000000 0 0 1
17.301862 -22.171443 24.354801 37.203275 -0.908142 0.857088 0.030359 0.012121 -200794.000000 0 0 1
17.006162 -23.256543 23.271501 37.035646 -0.939409 0.891361 0.022334 0.015658 418314.000000 0 0 1
17.886562 -23.338543 22.118701 36.794750 -0.916884 0.925873 0.023369 0.020829 153761.000000 0 0 1
18.889462 -24.308243 22.286801 38.005315 -0.910188 0.944173 0.017306 0.019756 54191.700000 0 0 1
19.751062 -24.426243 20.978301 37.773468 -0.890833 0.981987 0.016828 0.014003 69324.100000 0 0 1
19.167262 -25.322243 20.013601 37.538569 -0.922872 1.008480 0.028570 -0.004408 507204.000000 0 0 1
19.951562 -25.409543 18.841101 37.399155 -0.905145 1.042822 0.025005 0.007470 75937.500000 0 0 1
19.225862 -26.313643 17.853301 37.158874 -0.939800 1.069619 0.015765 -0.001471 142184.000000 0 0 1
18.966262 -27.621443 18.361801 38.207577 -0.969086 1.069480 0.034876 -0.016531 -105121.000000 0 0 1
18.141162 -28.309343 17.441001 37.877555 -1.000902 1.092286 0.032318 -0.021132 -408637.000000 0 0 1
17.384562 -29.464843 18.039501 38.675878 -1.037755 1.085548 0.042207 -0.011922 325102.000000 0 0 1
16.323862 -28.910843 18.850901 38.179337 -1.056792 1.054404 0.047014 -0.013990 206572.000000 0 0 1
15.610662 -29.952143 19.489501 38.995696 -1.090343 1.047445 0.053432 -0.020262 -125266.000000 0 0 1
14.302062 -29.473643 20.146101 38.459199 -1.119019 1.019455 0.049826 -0.011577 10934.700000 0 0 1
13.335862 -29.091343 19.160801 37.299970 -1.140968 1.031311 0.060943 -0.008220 -539820.000000 0 0 1
12.150962 -28.698743 19.791301 36.918279 -1.170284 1.005005 0.038371 -0.009487 -628350.000000 0 0 1
11.157662 -28.230143 18.752401 35.680344 -1.194401 1.017415 0.037449 -0.010064 -588753.000000 0 0 1
10.909462 -29.217843 17.832801 35.926418 -1.213444 1.051384 0.023056 -0.009763 -13952.000000 0 0 1
10.415762 -28.631643 16.636101 34.713383 -1.221894 1.071006 0.019002 -0.008127 99034.300000 0 0 1
10.477762 -29.696143 15.506601 35.101269 -1.231600 1.113228 0.013290 -0.006965 -601068.000000 0 0 1
9.490362 -30.647343 15.686801 35.712775 -1.270498 1.116034 0.015836 -0.005967 -298625.000000 0 0 1
9.602262 -31.610743 14.701201 36.160307 -1.275888 1.152115 0.007251 -0.004130 -503010.000000 0 0 1
8.373162 -32.503943 14.595801 36.601278 -1.318673 1.160612 0.006954 -0.003952 -549536.000000 0 0 1
8.231962 -33.466943 15.550101 37.810146 -1.329611 1.146952 0.009858 -0.009019 -5914.230000 0 0 1
7.201562 -34.357843 15.159001 38.237667 -1.364183 1.163159 0.011703 -0.003002 145483.000000 0 0 1
7.143262 33.364479 16.094301 37.725869 1.359883 1.130053 0.032875 -0.008043 -148908.000000 0 0 1
8.296262 32.588279 15.960001 37.222916 1.321514 1.127668 0.037665 -0.014017 -349670.000000 0 0 1
8.210562 31.648879 17.021001 36.861624 1.316965 1.090825 0.047350 -0.015191 702086.000000 0 0 1
9.564862 30.873979 17.186101 36.606710 1.270370 1.082095 0.030332 -0.019238 537178.000000 0 0 1
9.894362 29.965779 16.163801 35.455814 1.251879 1.097429 0.043291 -0.012785 -182420.000000 0 0 1
11.088362 29.245679 16.399901 35.315977 1.208396 1.087866 0.028906 -0.015892 -6450.590000 0 0 1
11.795962 28.595179 15.190701 34.461375 1.179547 1.114302 0.016608 -0.012074 -8604.960000 0 0 1
10.966062 27.849879 14.367701 33.200920 1.195684 1.123255 0.026177 -0.011818 -226720.000000 0 0 1
11.815462 27.302179 13.405701 32.630154 1.162366 1.147424 0.021480 -0.003701 -53627.800000 0 0 1
-8.984989 -9.442521 18.907135 22.964559 0.810222 0.603564 0.001576 -0.016167 -528840.000000 0 1 0
-9.443389 -9.643821 17.594635 22.175483 0.795899 0.654377 0.010903 -0.020361 -44967.200000 0 1 0
-9.005889 -10.876221 16.997235 22.097606 0.879193 0.693225 0.008020 -0.024886 -288692.000000 0 1 0
-9.442589 -11.190021 15.582135 21.381814 0.869889 0.754292 0.007326 -0.022211 992325.000000 0 1 0
-10.881689 -11.114421 15.427235 21.907558 0.795978 0.789505 0.009692 -0.015581 1117890.000000 0 1 0
-11.420189 -11.633021 14.255035 21.655344 0.794630 0.852280 0.013985 -0.020509 2250.260000 0 1 0
-11.575089 -13.172421 14.218135 22.575445 0.849854 0.889494 0.014074 -0.018062 189428.000000 0 1 0
-10.323689 -13.820621 13.933935 22.175271 0.929233 0.891360 0.012224 -0.011444 674236.000000 0 1 0
-10.397589 -15.194521 14.098635 23.189541 0.970686 0.917290 0.024444 -0.017946 144133.000000 0 1 0
-9.970089 -15.719521 15.517035 24.233951 1.005574 0.875906 0.025464 -0.021148 459845.000000 0 1 0
-10.876189 -15.257121 16.515935 24.976936 0.951492 0.848316 0.019978 -0.012123 89161.100000 0 1 0
-10.247689 -15.266021 17.756835 25.561137 0.979611 0.802820 0.023196 -0.008198 -491383.000000 0 0 1
-11.195889 -14.666221 18.783835 26.330181 0.918787 0.776464 0.013467 -0.005611 -385105.000000 0 0 1
-11.623589 -13.324021 18.579835 25.648540 0.853453 0.760631 0.015896 -0.004272 551587.000000 0 0 1
-12.801189 -13.135821 17.789235 25.551460 0.798299 0.800689 0.017589 -0.011886 -54752.100000 0 0 1
-14.108489 -13.160321 18.575835 26.782553 0.750641 0.804350 0.012262 -0.004567 -637348.000000 0 0 1
-14.478889 -14.468621 18.973135 27.909838 0.785043 0.823305 0.016048 0.001199 -6974.760000 0 0 1
-15.630889 -14.489321 19.807135 29.096180 0.747516 0.822015 0.019850 0.001006 185866.000000 0 0 1
-15.989489 -15.857421 20.374235 30.368256 0.781251 0.835367 0.016129 0.006156 -61944.900000 0 0 1
-16.883189 -16.577521 19.540935 30.687203 0.776263 0.880484 0.024261 0.002462 -42846.800000 0 0 1
-17.042389 -17.943321 19.993035 31.813947 0.811144 0.891255 0.006440 0.000925 218214.000000 0 0 1
-18.246389 -18.663921 19.309335 32.467261 0.796710 0.933863 0.023771 0.003908 221477.000000 0 0 1
-18.120589 -18.714021 17.908735 31.611598 0.801507 0.968515 0.028213 -0.003535 44068.700000 0 0 1
-18.730989 -17.576021 17.261135 30.946942 0.753598 0.979105 0.028081 -0.007378 -453015.000000 0 0 1
-18.566189 -17.537621 15.714035 29.986704 0.756917 1.019217 0.030712 -0.012386 -427816.000000 0 0 1
-19.248589 -18.539021 15.017235 30.654866 0.766623 1.058843 0.033889 -0.014466 -140220.000000 0 0 1
-18.840689 -18.532821 13.690135 29.763347 0.777161 1.092839 0.038629 -0.014446 -163344.000000 0 0 1
-19.016489 -19.839821 12.949735 30.379944 0.806584 1.130443 0.040983 -0.010080 -364393.000000 0 0 1
-18.204189 -20.917621 13.300835 30.754700 0.854646 1.123553 0.050275 -0.007670 -369962.000000 0 0 1
-18.175889 -21.940521 12.290335 31.029047 0.878967 1.163540 0.045260 -0.009349 -49583.000000 0 0 1
-17.175989 -23.118121 12.453235 31.377463 0.931812 1.162676 0.045901 -0.009734 28889.400000 0 0 1
-17.486389 -24.258521 11.675535 32.102457 0.946224 1.198564 0.055881 -0.013678 444552.000000 0 0 1
-16.348389 -24.698721 10.940335 31.575110 0.986092 1.216974 0.042864 -0.009100 354362.000000 0 0 1
-16.728489 -25.918501 10.034535 32.439219 0.997643 1.256304 0.050274 -0.009988 -324003.000000 0 0 1
-17.707689 -25.622961 9.099535 32.448419 0.966077 1.286553 0.045336 -0.008910 -668405.000000 0 0 1
-18.021289 -26.707811 8.258535 33.260749 0.977213 1.319875 0.048681 -0.007848 91817.900000 0 0 1
-19.341789 -26.417181 7.494635 33.587822 0.938806 1.345766 0.038605 -0.012785 203196.000000 0 0 1
-19.237489 -25.295531 6.657035 32.469385 0.920603 1.364307 0.042606 -0.014573 267449.000000 0 0 1
-20.246389 -25.308361 5.636435 32.896790 0.896063 1.398610 0.038264 -0.015480 327327.000000 0 0 1
-20.211989 -24.067721 4.706135 31.779355 0.872256 1.422162 0.038136 -0.007535 -92770.900000 0 0 1
-20.994489 -24.253421 3.549335 32.273748 0.857298 1.460598 0.027607 -0.008964 -87367.300000 0 0 1
-20.940589 -23.097621 2.762835 31.299227 0.834340 1.482410 0.029232 0.004486 131282.000000 0 0 1
-21.758489 -23.174221 1.452935 31.821178 0.816896 1.525121 0.006035 0.009655 -89188.900000 0 0 1
-21.145989 -24.000021 0.500935 31.990699 0.848532 1.555137 -0.009333 0.001306 36031.600000 0 0 1
-21.395889 -23.502121 -0.818765 31.793146 0.832275 1.596552 0.002161 0.007707 -313784.000000 0 0 1
-20.647489 -24.163421 -2.010065 31.846979 0.863699 1.633955 -0.001516 0.005194 31201.400000 0 0 1
-19.237489 -24.044221 -1.838965 30.847809 0.896002 1.630446 -0.010854 0.008629 664512.000000 0 0 1
-18.408089 -24.703721 -2.811465 30.935997 0.930404 1.661802 -0.005800 0.014247 106399.000000 0 0 1
-18.489389 -26.238381 -2.976065 32.236115 0.956943 1.663249 0.002977 0.007425 -589617.000000 0 0 1
-19.660589 -26.658951 -3.678165 33.328176 0.935353 1.681384 0.025212 0.000397 183147.000000 0 0 1
-19.562689 -28.042221 -3.934965 34.417276 0.961672 1.685378 0.026857 -0.004689 -441259.000000 0 0 1
-20.907089 -28.600321 -4.428265 35.702861 0.939561 1.695148 0.024524 -0.008873 51829.200000 0 0 1
-21.123689 -28.239401 -5.742865 35.730302 0.928562 1.732225 0.020783 -0.000338 -189813.000000 0 0 1
-22.189289 -28.952171 -6.338965 37.023982 0.916874 1.742856 0.029746 -0.011736 -55264.600000 0 0 1
-22.489789 -28.298251 -7.768565 36.972047 0.899270 1.782494 0.019040 -0.002441 141558.000000 0 0 1
-21.336389 -28.305311 -8.596465 36.473708 0.924871 1.808724 0.026764 0.000904 323364.000000 0 0 1
-21.643489 -28.161561 -10.009565 36.901294 0.915530 1.845490 0.022915 0.001752 91240.700000 0 0 1
-22.385589 -26.881371 -10.505065 36.525048 0.876400 1.862530 0.011736 0.004822 -15444.900000 0 0 1
-21.626089 -25.677051 -10.558365 35.192013 0.870828 1.875512 0.009024 0.006144 97992.900000 0 0 1
-21.372389 -25.009041 -9.346965 34.199370 0.863646 1.847627 0.002302 0.005460 -29792.100000 0 0 1
-21.111189 -23.489521 -9.728665 33.046737 0.838673 1.869615 -0.007676 0.005402 76755.100000 0 0 1
-22.265089 -22.840421 -10.222565 33.495072 0.798153 1.880941 -0.003389 0.010246 -180092.000000 0 0 1
-22.079589 -21.451721 -10.411465 32.497434 0.770976 1.896925 0.003382 0.013080 -453247.000000 0 0 1
-23.397489 -20.731621 -10.585765 33.004561 0.725061 1.897303 0.022454 0.012466 -1300690.000000 0 0 1
-24.101189 -20.960321 -11.802965 34.051613 0.715809 1.924761 0.022509 0.014496 2068820.000000 0 0 1
-25.443419 -20.341121 -11.796065 34.644999 0.674415 1.918228 0.027643 0.015006 1721870.000000 0 0 1
-25.462899 -18.839021 -11.711665 33.770269 0.636981 1.924958 0.034330 0.007117 -1368340.000000 0 0 1
-24.973689 -18.238121 -12.914265 33.512571 0.630769 1.966390 0.046317 0.006174 456084.000000 0 0 1
-24.707189 -16.838921 -12.856065 32.546472 0.598229 1.976871 0.058434 -0.011865 -323754.000000 0 0 1
-23.507889 -16.408921 -12.014565 31.084133 0.609394 1.967649 0.035666 -0.008290 -664502.000000 0 0 1
-23.808689 -16.521021 -10.637965 30.870117 0.606625 1.922613 0.054425 -0.014723 11870.000000 0 0 1
-22.627989 -16.530421 -9.913665 29.724762 0.630923 1.910826 0.036432 -0.014043 -441500.000000 0 0 1
-23.046989 -16.909921 -8.467765 29.812953 0.632997 1.858791 0.025765 -0.022248 191812.000000 0 0 1
-23.514889 -18.198721 -8.206565 30.846250 0.658637 1.840087 0.033416 -0.012388 -839411.000000 0 0 1
-24.770289 -18.310521 -7.663665 31.742309 0.636562 1.814639 0.041007 -0.016260 -877822.000000 0 0 1
-25.066089 -19.736021 -7.099565 32.683684 0.666986 1.789762 0.035307 -0.001689 -11263.600000 0 0 1
-25.122199 -20.753521 -8.024265 33.559236 0.690456 1.812243 0.025474 -0.010984 28857.200000 0 0 1
-25.570009 -21.951921 -7.462665 34.516714 0.709410 1.788722 0.030983 -0.000110 5673.100000 0 0 1
-25.289529 -23.130221 -8.413165 35.289499 0.740832 1.811519 0.017529 0.007632 39947.300000 0 0 1
-25.821169 -24.371221 -8.048465 36.406963 0.756518 1.793707 0.012185 0.009025 -380759.000000 0 0 1
-25.373259 -25.333691 -8.917465 36.947522 0.784618 1.814558 0.003364 0.015271 244792.000000 0 0 1
-26.182839 -26.663681 -8.713365 38.372069 0.794497 1.799870 0.000844 0.010768 239002.000000 0 0 1
-25.778559 -27.284341 -7.504065 38.278981 0.813768 1.768110 0.016762 -0.004594 70297.900000 0 0 1
-26.494219 -28.441341 -7.214365 39.533537 0.820827 1.754312 0.018860 -0.007988 4917.760000 0 0 1
-25.920139 -29.014441 -5.895065 39.350263 0.841666 1.721172 0.026726 -0.010223 -24357.200000 0 0 1
-26.411369 -28.286041 -4.769565 38.992426 0.819658 1.693424 0.012834 -0.009181 278658.000000 0 0 1
-25.710939 -28.579831 -3.559265 38.607350 0.838192 1.663119 0.017629 -0.007774 84412.100000 0 0 1
-25.967389 -29.976221 -2.899865 39.765416 0.856934 1.643785 0.016862 -0.000734 -239217.000000 0 0 1
-25.611609 -31.111041 -3.662965 40.463177 0.882049 1.661446 0.036109 -0.004283 -44229.800000 0 0 1
-25.750219 -32.355701 -2.965865 41.457949 0.898592 1.642397 0.043513 -0.007227 188864.000000 0 0 1
-24.967889 -32.518301 -1.596165 41.029052 0.915994 1.609709 0.035632 -0.011304 1408590.000000 0 0 1
-23.527889 -32.514721 -1.728365 40.171581 0.944402 1.613834 0.045046 -0.013773 943213.000000 0 0 1
-22.850889 -32.716481 -0.496965 39.909626 0.961110 1.583249 0.071648 -0.010157 653075.000000 0 0 1
-21.497689 -31.943311 -0.379465 38.505451 0.978425 1.580651 0.050009 -0.014716 394237.000000 0 0 1
-21.531889 -30.584671 -0.024265 37.403809 0.957385 1.571445 0.039779 -0.010782 -248376.000000 0 0 1
-21.707389 -29.759481 -1.128265 36.852550 0.940592 1.601417 0.027422 -0.010037 -128291.000000 0 0 1
-22.193189 -28.358631 -0.794565 36.019174 0.906762 1.592858 0.035058 -0.009353 1041380.000000 0 0 1
-23.588989 -28.301021 -0.423865 36.845188 0.875958 1.582301 0.025319 -0.011451 1395170.000000 0 0 1
-24.260589 -27.022161 -0.180265 36.315367 0.839196 1.575760 0.035465 -0.014919 613076.000000 0 0 1
-23.793189 -26.252061 1.077435 35.446402 0.834492 1.540395 0.030018 -0.009660 -241186.000000 0 0 1
-24.158689 -26.850751 2.291335 36.191923 0.838125 1.507443 0.023142 -0.010681 -88254.200000 0 0 1
-23.700289 -26.083131 3.377335 35.403952 0.833226 1.475257 0.027254 -0.011922 60072.100000 0 0 1
-24.669189 -24.980921 3.905635 35.325193 0.791677 1.460008 0.034216 -0.010967 -10502.100000 0 0 1
-24.746889 -23.911021 2.986535 34.540771 0.768221 1.484224 0.028245 -0.009144 -344240.000000 0 0 1
-25.711639 -22.962621 3.316435 34.631908 0.728980 1.474887 0.017081 -0.003443 -693792.000000 0 0 1
-25.796519 -21.769821 2.320635 33.834462 0.700945 1.502155 0.021315 0.000149 -420271.000000 0 0 1
-24.757389 -20.883621 2.578035 32.491540 0.700726 1.491368 0.018464 0.004941 -409416.000000 0 0 1
-24.710189 -19.869821 1.578335 31.747352 0.677245 1.521060 0.008592 0.003282 103924.000000 0 0 1
-23.435689 -19.008221 1.727635 30.224637 0.681461 1.513605 0.020206 0.007779 -395658.000000 0 0 1
-22.256989 -19.715821 1.468135 29.769827 0.724929 1.521460 0.021404 0.007878 -555497.000000 0 0 1
-21.175489 -18.882521 1.897435 28.435035 0.728219 1.504018 0.024445 0.009435 -157974.000000 0 0 1
-19.898189 -19.696221 1.641735 28.045933 0.780297 1.512225 0.012390 0.004853 -637400.000000 0 0 1
-19.586189 -19.985621 0.291535 27.984439 0.795492 1.560378 -0.000625 0.013272 346030.000000 0 0 1
-18.286989 -20.530821 0.106635 27.494362 0.843138 1.566918 0.011735 0.014508 421863.000000 0 0 1
-18.107289 -21.001521 -1.366665 27.763386 0.859268 1.620042 0.009221 0.012402 -56245.000000 0 0 1
-17.841889 -19.890121 -2.256165 26.814925 0.839629 1.655034 0.014560 0.007980 54177.000000 0 0 1
-17.740389 -20.363721 -3.599465 27.246260 0.854136 1.703292 0.018196 0.007697 153214.000000 0 0 1
-17.026589 -19.307421 -4.526965 26.137610 0.848090 1.744872 0.021696 0.005459 885409.000000 0 0 1
-15.624289 -19.204721 -4.255465 25.120683 0.887839 1.741018 0.058167 -0.005118 552143.000000 0 0 1
-14.973689 -18.523021 -5.300265 24.400953 0.890965 1.789757 0.060997 -0.006957 -165011.000000 0 1 0
-13.456089 -18.315021 -5.248265 23.324893 0.937158 1.797747 0.073318 -0.015291 -612042.000000 0 1 0
-12.628189 -19.400021 -5.435365 23.777619 0.993763 1.801427 0.061128 -0.018767 -803280.000000 0 1 0
-11.438989 -18.953521 -6.022165 22.942382 1.027786 1.836399 0.057924 -0.026481 -451949.000000 0 1 0
-10.342689 -20.031421 -6.004465 23.329866 1.094176 1.831098 0.044876 -0.028944 -14976.100000 0 1 0
-10.715389 -21.172221 -6.728565 24.664876 1.102276 1.847098 0.052779 -0.018414 417978.000000 0 1 0
-9.556789 -21.943921 -7.063065 24.955055 1.160058 1.857750 0.033941 -0.014592 496530.000000 0 1 0
-10.018189 -23.124721 -7.930865 26.419982 1.161980 1.875682 0.041392 -0.000746 -71421.100000 0 0 1
-10.420289 -22.744721 -9.258965 26.676454 1.141193 1.925256 0.038341 -0.005378 84705.900000 0 0 1
-10.423889 -23.873721 -10.108165 27.942567 1.159120 1.940938 0.042243 -0.006341 -528543.000000 0 0 1
-11.136089 -23.611521 -11.408965 28.490014 1.130095 1.982810 0.060196 -0.007194 -560113.000000 0 0 1
-10.578089 -22.630521 -12.227965 27.812939 1.133546 2.026006 0.039154 -0.006806 -161903.000000 0 0 1
-11.425789 -22.284221 -13.329165 28.369029 1.097017 2.059916 0.040885 -0.008888 -460686.000000 0 0 1
-11.054289 -21.070821 -14.145465 27.681600 1.087643 2.107151 0.038185 -0.000222 -384077.000000 0 0 1
-11.071689 -19.840321 -13.480265 26.418520 1.061801 2.106281 0.042220 -0.007630 -222211.000000 0 0 1
-10.805489 -18.676821 -14.265265 25.866581 1.046298 2.154951 0.030162 0.009523 -180261.000000 0 0 1
-10.530489 -17.412821 -13.403265 24.366884 1.026888 2.153233 0.047394 -0.001666 -252846.000000 0 1 0
-11.624189 -16.830221 -12.740365 24.097614 0.966357 2.127862 0.061681 -0.012223 -210641.000000 0 1 0
-11.231889 -15.835321 -11.798365 22.718146 0.953860 2.116871 0.053499 -0.014958 316496.000000 0 1 0
-10.603489 -14.468121 -12.243965 21.718084 0.938338 2.169737 0.039003 -0.008171 565816.000000 0 1 0
-11.562189 -13.599921 -12.863065 22.002284 0.866206 2.195213 0.025447 -0.004324 370828.000000 0 1 0
-11.490689 -13.677121 -14.251665 22.851904 0.872055 2.244204 0.019824 0.003408 58609.000000 0 1 0
-12.705089 -12.988721 -14.940665 23.523385 0.796437 2.258987 0.019187 0.010986 140879.000000 0 1 0
-12.764789 -11.610821 -14.548565 22.570152 0.738092 2.271287 0.011838 0.006850 53971.600000 0 1 0
-13.900289 -10.909921 -15.061565 23.218423 0.665447 2.276659 0.007913 -0.000318 -65395.300000 0 1 0
-14.070289 -9.516421 -14.347165 22.234578 0.594676 2.272165 0.008611 -0.011654 486345.000000 0 1 0
-13.002689 -8.571621 -14.577865 21.332060 0.582829 2.323176 0.014227 -0.008718 641825.000000 0 1 0
-13.041489 -7.884621 -15.834265 21.976616 0.543780 2.375327 0.018259 -0.004021 301716.000000 0 1 0
-11.877589 -6.821721 -15.853065 20.950720 0.521335 2.429022 0.007099 0.000537 1689740.000000 0 1 0
-10.584289 -7.484821 -15.823965 20.455992 0.615517 2.455238 0.002311 -0.005276 774699.000000 0 1 0
-9.544589 -6.571521 -15.560465 19.401344 0.602971 2.501483 -0.004134 0.001467 8650.870000 0 1 0
11.480711 22.265279 15.720235 29.574907 1.094721 1.010379 0.033279 0.001775 -716009.000000 0 0 1
12.157611 22.127079 16.908235 30.385910 1.068379 0.980689 0.037137 0.005764 -305601.000000 0 0 1
12.587911 20.752679 17.003635 29.635330 1.025561 0.959704 0.030540 0.008689 -677107.000000 0 0 1
13.672611 20.535379 18.013335 30.547051 0.983389 0.940120 0.032714 0.004454 205994.000000 0 0 1
14.971611 20.983479 17.556235 31.187768 0.951070 0.972881 0.015768 0.010088 808935.000000 0 0 1
15.900011 20.755179 18.631835 32.105032 0.917087 0.951650 0.018496 0.006723 -360661.000000 0 0 1
17.258111 21.348279 18.335635 33.011921 0.890950 0.981923 0.016171 0.009433 -2045670.000000 0 0 1
17.215411 22.747079 18.700635 34.110317 0.922946 0.990538 0.028831 0.007574 739172.000000 0 0 1
18.324611 23.528279 18.193835 34.934036 0.909096 1.023002 0.028742 0.009875 826689.000000 0 0 1
19.756011 23.098179 18.573735 35.620352 0.863230 1.022263 0.012618 0.003210 -666601.000000 0 0 1
20.162711 21.835679 17.952335 34.722012 0.825211 1.027418 0.026771 0.005955 -941207.000000 0 0 1
21.413611 21.394579 18.353235 35.399322 0.784954 1.025744 0.030904 0.004984 -701275.000000 0 0 1
21.516511 19.855279 18.249735 34.499930 0.745266 1.013399 0.031891 -0.002831 -101242.000000 0 0 1
21.607311 19.339579 16.924035 33.575559 0.730072 1.042505 0.014518 0.002140 -20860.500000 0 0 1
21.390411 17.931279 16.825235 32.590934 0.697654 1.028324 0.018629 0.006824 22507.800000 0 0 1
22.280111 16.911879 17.606435 33.051498 0.649273 1.009012 0.014203 0.006068 425821.000000 0 0 1
23.597211 16.820779 17.079035 33.637188 0.619284 1.038234 0.011400 0.001078 -57939.900000 0 0 1
24.438211 16.046479 17.874235 34.266659 0.581011 1.022046 -0.001369 -0.011052 -622294.000000 0 0 1
25.823711 15.868279 17.271535 34.885129 0.551002 1.052849 0.037701 0.000417 -465916.000000 0 0 1
26.688611 17.018979 17.310535 36.077447 0.567671 1.070351 0.023558 0.001385 1554910.000000 0 0 1
28.052611 16.958379 17.755635 37.279997 0.543737 1.074380 0.019850 -0.002152 1535010.000000 0 0 1
29.046911 16.013179 16.960835 37.253387 0.503831 1.098106 0.019438 -0.008477 -42164.700000 0 0 1
29.129911 16.189279 15.573835 36.785715 0.507256 1.133638 0.031807 -0.002553 -80057.000000 0 0 1
29.597111 14.979479 15.040935 36.422568 0.468526 1.145098 0.053837 -0.015254 39638.300000 0 0 1
29.186911 14.816579 13.547435 35.425129 0.469745 1.178378 0.017045 -0.002838 -56587.800000 0 0 1
29.601211 15.904879 12.734035 35.935394 0.493044 1.208568 0.016510 0.008524 -218682.000000 0 0 1
28.999411 15.861879 11.431535 34.974920 0.500516 1.237828 -0.004925 0.008505 567270.000000 0 0 1
27.618711 16.582779 11.323635 34.146837 0.540727 1.232780 -0.011970 0.016203 259060.000000 0 0 1
27.712711 17.993779 11.533435 34.997008 0.575881 1.234964 -0.024093 0.030896 -28025.900000 0 0 1
28.064511 18.470279 12.848835 35.970273 0.582074 1.205520 0.001104 0.024533 -748988.000000 0 0 1
27.063311 18.329279 13.973935 35.547941 0.595310 1.166795 -0.004757 0.022182 -894570.000000 0 0 1
25.959111 19.169879 13.887835 35.131633 0.636077 1.164393 0.002433 0.032464 -216343.000000 0 0 1
25.225311 19.294379 15.120535 35.174137 0.652958 1.126440 0.010591 0.022577 253796.000000 0 0 1
25.835511 20.154879 16.290835 36.593498 0.662503 1.109417 0.030722 0.007860 -68814.800000 0 0 1
25.914611 21.561979 16.128435 37.371278 0.693974 1.124561 0.022715 0.008925 514363.000000 0 0 1
24.709511 22.180979 16.591235 37.119063 0.731526 1.107417 0.020129 0.007608 337641.000000 0 0 1
24.724311 23.719479 16.436635 38.000897 0.764659 1.123496 0.023081 0.010025 -77269.200000 0 0 1
24.442211 24.154879 15.094035 37.532782 0.779486 1.156926 0.047117 0.002875 71580.800000 0 0 1
24.721211 25.557279 14.924635 38.562385 0.802025 1.173393 0.046536 -0.003363 -250343.000000 0 0 1
24.428411 26.038479 13.448935 38.152634 0.817291 1.210551 0.037449 -0.001890 -175390.000000 0 0 1
23.068611 25.913379 13.112535 37.089117 0.843411 1.209442 0.050740 0.000405 -192516.000000 0 0 1
22.882111 26.271579 11.760335 36.770808 0.854246 1.245248 0.040743 -0.009472 -39038.500000 0 0 1
22.247711 25.140079 10.927535 35.304323 0.846359 1.256104 0.040753 -0.002630 354413.000000 0 0 1
20.846011 24.924579 11.148335 34.352237 0.874272 1.240281 0.046425 -0.003815 646308.000000 0 0 1
20.302411 23.686779 10.740435 32.994065 0.862183 1.239228 0.050943 0.006621 60533.800000 0 0 1
20.290111 23.374279 9.222435 32.297040 0.855915 1.281216 0.054903 0.014302 -1187490.000000 0 0 1
19.171311 23.748479 8.517635 31.687214 0.891641 1.298646 0.057393 0.010696 -781401.000000 0 0 1
19.467211 24.282379 7.235135 31.952362 0.895019 1.342380 0.048613 0.004874 -179029.000000 0 0 1
18.217911 24.545079 6.376535 31.225204 0.932291 1.365139 0.042722 0.004182 -716218.000000 0 0 1
17.638311 23.320379 5.952035 29.839182 0.923245 1.369979 0.059671 0.010738 319868.000000 0 0 1
16.868511 23.451879 4.765135 29.278726 0.947246 1.407318 0.070850 -0.007019 -105877.000000 0 0 1
15.450511 24.038779 4.764135 28.970298 0.999547 1.405597 0.062532 -0.009266 -566256.000000 0 0 1
15.416911 25.422779 5.179535 30.179901 1.025669 1.398320 0.082150 -0.015231 -133790.000000 0 0 1
14.110711 25.839979 5.474235 29.946351 1.070967 1.386961 0.072135 -0.015578 -213265.000000 0 0 1
13.951911 27.349479 4.994635 31.106208 1.099074 1.409531 0.070500 -0.016536 -220913.000000 0 0 1
13.926411 27.408979 3.616335 30.956016 1.100692 1.453707 0.064222 -0.016009 314415.000000 0 0 1
13.683811 28.732679 3.088635 31.974258 1.126332 1.474048 0.057606 -0.018013 -215632.000000 0 0 1
13.196011 28.858479 1.615035 31.773493 1.141916 1.519945 0.066037 -0.018367 81882.600000 0 0 1
14.148511 28.468479 0.617935 31.796486 1.109561 1.551361 0.083948 -0.019988 68065.700000 0 0 1
14.280211 27.114279 0.400535 30.647495 1.086043 1.557727 0.071989 -0.014944 -463058.000000 0 0 1
15.295111 26.786379 -0.665565 30.852771 1.051971 1.592370 0.077869 -0.016999 -412736.000000 0 0 1
14.911111 27.157579 -1.972665 31.044593 1.068676 1.634382 0.069396 -0.015285 387290.000000 0 0 1
16.001211 27.246579 -2.909665 31.731388 1.039787 1.662622 0.058781 -0.008625 635056.000000 0 0 1
15.457111 27.747079 -4.263865 32.046891 1.062540 1.704243 0.062774 -0.005382 -490093.000000 0 0 1
14.473611 26.997079 -4.890465 31.020063 1.078674 1.729112 0.062520 -0.009044 -639854.000000 0 0 1
14.292411 27.553079 -6.178365 31.648339 1.092283 1.767277 0.051977 -0.008350 586764.000000 0 0 1
13.006811 27.008879 -6.872865 30.755373 1.121997 1.796168 0.041264 -0.012254 543151.000000 0 0 1
13.143711 25.678079 -7.346465 29.767288 1.097702 1.820170 0.036385 -0.010574 221327.000000 0 0 1
11.842911 25.194879 -7.674665 28.877967 1.131393 1.839791 0.031039 -0.004741 355584.000000 0 0 1
11.708911 23.742579 -8.242365 27.726255 1.112635 1.872635 0.020023 -0.006866 -204422.000000 0 0 1
12.149011 23.629579 -9.588065 28.246884 1.095897 1.917116 0.022729 -0.006250 128016.000000 0 0 1
12.126711 22.269779 -9.955165 27.241613 1.072157 1.944901 0.016825 -0.003294 -178426.000000 0 0 1
12.384311 22.020879 -11.462365 27.743037 1.058491 1.996720 0.017830 -0.003079 169537.000000 0 0 1
12.033611 20.628279 -11.654765 26.573807 1.042706 2.024815 0.024615 -0.006236 -24910.100000 0 0 1
11.859311 20.213979 -12.998565 26.799457 1.040222 2.077195 0.022469 -0.006326 -46699.400000 0 0 1
13.171511 19.662579 -13.590265 27.291043 0.980574 2.092059 0.017201 0.000041 561381.000000 0 0 1
14.210311 20.646779 -13.644765 28.537730 0.967994 2.069321 0.012543 0.002581 122877.000000 0 0 1
15.444611 20.138079 -14.106065 29.035484 0.916544 2.078099 0.019540 0.007303 48511.900000 0 0 1
16.620911 21.054279 -13.750765 30.143339 0.902533 2.044493 0.025276 0.007897 -445951.000000 0 0 1
16.761511 22.300079 -14.418365 31.402723 0.926250 2.047827 0.026324 0.008028 -22504.700000 0 0 1
15.761211 23.291279 -14.263565 31.533296 0.975880 2.040176 0.025042 0.007583 107873.000000 0 0 1
16.308511 24.627979 -14.849465 33.060724 0.985896 2.036618 0.023185 0.005786 -22513.800000 0 0 1
16.419211 24.761679 -16.258765 33.868550 0.985274 2.071514 0.019164 0.005766 292549.000000 0 0 1
15.199911 24.941179 -16.996865 33.793389 1.023472 2.097821 0.015378 0.008122 270066.000000 0 0 1
15.364411 24.993779 -18.536265 34.703706 1.019617 2.134274 0.015220 0.007451 267895.000000 0 0 1
15.882111 23.775379 -19.128165 34.400535 0.981867 2.160413 0.015698 0.004721 -25543.200000 0 0 1
15.633311 23.746879 -20.490865 35.045545 0.988587 2.195297 0.020793 0.008568 74591.200000 0 0 1
16.076611 22.450779 -21.204965 34.815879 0.949358 2.225671 0.025806 0.004769 71858.900000 0 0 1
15.072111 21.460879 -21.070565 33.640847 0.958524 2.247644 0.023687 0.004187 357528.000000 0 0 1
15.533111 20.383779 -21.854365 33.680696 0.919639 2.276894 0.025675 0.002802 -17185.600000 0 0 1
14.562611 19.208079 -22.036365 32.659169 0.922099 2.311405 0.018920 -0.002080 -725581.000000 0 0 1
14.346511 18.515479 -20.828565 31.344449 0.911587 2.297629 0.021250 0.002178 580355.000000 0 0 1
13.416811 17.443279 -21.086365 30.478084 0.915140 2.334849 0.021819 0.003539 452260.000000 0 0 1
11.918911 17.632979 -21.365165 30.157133 0.976398 2.358112 0.027781 0.005129 -644617.000000 0 0 1
11.139711 17.909579 -20.213365 29.213461 1.014359 2.334941 0.015792 0.005445 -215958.000000 0 0 1
9.784511 17.966479 -20.608465 29.038593 1.072110 2.359858 0.020075 0.004664 238952.000000 0 0 1
8.830711 17.518379 -19.450065 27.625714 1.103888 2.351890 0.014737 0.000776 -148629.000000 0 0 1
8.766711 16.089279 -19.254665 26.579358 1.071893 2.380992 0.008017 -0.001971 666179.000000 0 0 1
7.421311 15.710579 -18.931865 25.696569 1.129491 2.399043 0.011407 0.005057 911728.000000 0 0 1
6.944511 15.812779 -17.457865 24.557021 1.156984 2.361590 0.007682 0.006462 -145482.000000 0 1 0
7.124311 17.115479 -17.008065 25.158889 1.176361 2.313153 0.013631 0.004743 -265194.000000 0 0 1
6.511111 17.260879 -15.740765 24.250860 1.210083 2.277172 0.007768 -0.004220 -32763.700000 0 1 0
6.159811 18.662779 -15.216865 24.855494 1.251996 2.229653 0.016334 -0.011098 -77558.400000 0 1 0
7.219411 19.548879 -14.896165 25.615899 1.217032 2.191393 0.012987 -0.009155 -375428.000000 0 0 1
7.783911 20.180679 -15.981365 26.893365 1.202668 2.207128 0.022632 0.000011 -417260.000000 0 0 1
8.855011 21.184479 -15.512665 27.709857 1.174874 2.164971 0.019772 0.010144 -459171.000000 0 0 1
8.508411 22.307079 -14.810265 28.095245 1.206407 2.126034 0.025503 0.008535 -338066.000000 0 0 1
8.371711 22.017379 -13.441665 27.120636 1.207447 2.089351 0.012321 -0.005371 -112291.000000 0 0 1
8.059311 23.327879 -12.640865 27.729657 1.238154 2.044135 0.031176 -0.004572 -965337.000000 0 0 1
6.840411 23.920279 -12.995765 28.068860 1.292263 2.052168 0.029711 -0.000035 -635086.000000 0 0 1
6.309811 24.785279 -12.010065 28.255361 1.321513 2.009818 0.027342 -0.000226 41162.000000 0 0 1
5.841811 24.128279 -10.733665 27.046482 1.333253 1.978890 0.020368 -0.008025 -1058680.000000 0 0 1
6.854111 23.883479 -9.795465 26.708623 1.291326 1.946313 0.018207 -0.004628 -549000.000000 0 0 1
6.380111 23.378479 -8.576365 25.706286 1.304379 1.910947 0.020154 -0.015373 -240639.000000 0 0 1
7.417111 23.290879 -7.448465 25.553047 1.262495 1.866581 0.007888 -0.016418 -73255.300000 0 0 1
7.732311 24.563579 -6.912865 26.663566 1.265829 1.833055 0.019917 -0.009034 68861.500000 0 0 1
8.626411 24.562879 -5.829365 26.678296 1.233055 1.791079 0.015142 -0.012364 -221518.000000 0 0 1
8.677811 25.956579 -5.194765 27.857386 1.248158 1.758371 0.009000 -0.005689 -50928.500000 0 0 1
9.282011 26.956179 -5.997265 29.133460 1.239175 1.778134 0.015348 -0.001884 44737.300000 0 0 1
9.165911 28.281479 -5.539065 30.241316 1.257382 1.754998 0.020309 -0.009681 76550.400000 0 0 1
9.428611 29.267379 -6.683865 31.466684 1.259140 1.784838 0.029142 -0.002231 -556330.000000 0 0 1
10.731511 29.345179 -7.146065 32.052630 1.220205 1.795634 0.032814 -0.003588 -856801.000000 0 0 1
10.896311 30.466479 -7.916965 33.310873 1.227323 1.810762 0.035208 0.001464 163004.000000 0 0 1
12.238811 30.584579 -8.696265 34.070955 1.190150 1.828892 0.037914 -0.008493 1002640.000000 0 0 1
13.375111 30.642279 -7.826765 34.338042 1.159232 1.800750 0.038013 -0.002713 153810.000000 0 0 1
14.451711 31.380079 -8.383965 35.550699 1.139214 1.808870 0.036128 -0.004055 1000190.000000 0 0 1
15.656711 31.450779 -7.359265 35.894887 1.108897 1.777283 0.035412 -0.004348 642518.000000 0 0 1
16.373411 30.233579 -7.064065 35.100697 1.074453 1.773432 0.041007 -0.007231 -435429.000000 0 0 1
17.481111 30.661879 -6.339365 35.859833 1.052633 1.748512 0.030871 0.000462 -265408.000000 0 0 1
18.602811 29.599179 -6.194465 35.504188 1.009691 1.746165 0.033127 -0.000059 -191017.000000 0 0 1
18.279911 28.628979 -5.229565 34.367455 1.002540 1.723556 0.059727 -0.012773 427801.000000 0 0 1
19.355011 27.702579 -4.975965 34.158594 0.960962 1.716989 0.050370 -0.010879 191974.000000 0 0 1
19.578311 26.583279 -5.990865 33.554008 0.935998 1.750303 0.042554 0.008446 166587.000000 0 0 1
20.080611 27.024879 -7.309565 34.452935 0.931763 1.784582 0.030587 0.012315 456572.000000 0 0 1
19.900811 26.031279 -8.203265 33.778149 0.918082 1.816106 0.019642 0.008945 -613505.000000 0 0 1
20.461611 26.364379 -9.651065 34.740482 0.910794 1.852304 0.024776 0.004269 423430.000000 0 0 1
21.861811 26.340979 -9.845965 35.619222 0.878055 1.850866 0.018956 0.004446 102974.000000 0 0 1
22.453411 25.061679 -9.736865 35.029273 0.840237 1.852470 0.033199 0.006402 -228208.000000 0 0 1
23.977511 25.135579 -9.423765 35.993412 0.808973 1.835703 0.008858 0.013089 368516.000000 0 0 1
24.710211 25.384679 -10.598765 36.977159 0.798861 1.861504 0.006042 0.013949 -1165040.000000 0 0 1
26.013911 25.759279 -10.329765 38.039033 0.780480 1.845807 -0.003909 0.021185 -1021070.000000 0 0 1
26.738711 25.842679 -11.675465 38.975880 0.768359 1.875024 -0.008964 0.019121 -281976.000000 0 0 1
26.517711 27.045979 -12.423565 39.862501 0.795260 1.887736 -0.020011 0.019475 117220.000000 0 0 1
27.330611 27.031979 -13.597265 40.774696 0.779905 1.910782 -0.014053 0.015054 215850.000000 0 0 1
26.993711 28.136579 -14.587165 41.630673 0.806126 1.928789 -0.002532 0.011545 -133176.000000 0 0 1
27.391911 29.475579 -14.255065 42.688797 0.822023 1.911266 -0.004517 0.006780 64119.300000 0 0 1
27.359011 30.276479 -15.437465 43.629073 0.835974 1.932464 0.014392 0.005386 -322271.000000 0 0 1
27.646611 31.766779 -15.191765 44.768885 0.854635 1.917009 0.009802 0.003433 179735.000000 0 0 1
28.948711 31.970779 -14.672465 45.556995 0.834965 1.898710 0.005397 0.000507 -42349.100000 0 0 1
29.275611 33.325979 -14.960065 46.813308 0.850009 1.896071 0.006051 -0.003956 -110651.000000 0 0 1
14.742511 -32.751743 -29.063539 46.202896 -1.147835 2.251116 0.045646 -0.015503 -758990.000000 0 0 1
15.899011 -33.258543 -28.503209 46.597663 -1.124868 2.228988 0.029738 -0.010872 -359253.000000 0 0 1
15.975411 -32.689143 -27.213589 45.435375 -1.116224 2.212988 0.049437 -0.019573 -986151.000000 0 0 1
17.171711 -33.047443 -26.355769 45.624859 -1.091586 2.186658 0.022755 -0.009913 -29629.700000 0 0 1
18.478211 -32.603043 -26.677569 46.001037 -1.055174 2.189444 0.022701 -0.009646 924363.000000 0 0 1
19.176911 -33.346243 -27.704319 47.405223 -1.048898 2.194955 0.016707 -0.009849 -90142.500000 0 0 1
20.691611 -33.056143 -27.767809 47.873820 -1.011512 2.189551 0.034334 -0.005352 57261.800000 0 0 1
21.015311 -31.758143 -28.243319 47.412109 -0.986219 2.208931 0.037696 -0.017008 27378.700000 0 0 1
22.368111 -31.414543 -28.024609 47.671633 -0.952042 2.199217 0.019800 -0.006518 -149951.000000 0 0 1
22.715511 -30.125643 -28.711209 47.411838 -0.924724 2.221279 0.007292 0.001358 -203238.000000 0 0 1
22.968911 -30.314943 -30.086619 48.495065 -0.922401 2.240056 0.006573 -0.002921 97903.500000 0 0 1
23.471211 -29.080943 -30.631549 48.320708 -0.891741 2.257410 0.013498 -0.009952 231397.000000 0 0 1
23.935411 -29.088343 -32.129409 49.510954 -0.882276 2.276981 0.017700 -0.012065 -80888.100000 0 0 1
25.118511 -29.809743 -32.273809 50.607896 -0.870598 2.262335 0.025142 -0.022512 -701516.000000 0 0 1
25.194411 -30.400743 -33.551379 51.813691 -0.878773 2.275147 0.022330 -0.022947 564772.000000 0 0 1
26.518511 -31.232643 -33.663149 53.027512 -0.866846 2.258577 0.014854 -0.022965 1289230.000000 0 0 1
27.661211 -30.400643 -33.941829 53.304685 -0.832544 2.261074 0.021741 -0.021345 679842.000000 0 0 1
28.738911 -31.099843 34.282338 54.483061 -0.824833 0.890235 0.023600 -0.018728 -106368.000000 0 0 1
29.927811 -30.232443 33.995034 54.454906 -0.790462 0.896589 0.029382 -0.025331 -702065.000000 0 0 1
29.827611 -29.394043 32.858080 53.229217 -0.778077 0.905498 0.032279 -0.022126 173659.000000 0 0 1
31.018711 -28.634643 32.711085 53.405227 -0.745454 0.911568 0.035414 -0.025221 134255.000000 0 0 1
31.156011 -27.729343 31.462735 52.244781 -0.727272 0.924520 0.022722 -0.029108 -783587.000000 0 0 1
32.319911 -26.970643 31.429845 52.534059 -0.695421 0.929449 0.034625 -0.034249 -410961.000000 0 0 1
32.418711 -26.094343 30.311945 51.484965 -0.677731 0.941281 0.030571 -0.032011 -283818.000000 0 0 1
33.191811 -26.607443 29.079005 51.529029 -0.675732 0.971184 0.044671 -0.024671 -198920.000000 0 0 1
32.582611 -27.701043 28.407375 51.341536 -0.704598 0.984473 0.043483 -0.029761 554750.000000 0 0 1
31.337811 -27.389843 27.786435 50.043460 -0.718274 0.982138 0.035394 -0.029391 15909.900000 0 0 1
30.611811 -28.527343 27.052625 49.827069 -0.750166 0.996874 0.030628 -0.020374 12211.200000 0 0 1
29.433911 -28.061943 26.409195 48.489930 -0.761541 0.994845 0.023727 -0.008896 8133.640000 0 0 1
28.829311 -29.144243 25.715365 48.392108 -0.790830 1.010549 0.003997 0.001960 504730.000000 0 0 1
27.416911 -28.740743 25.173625 47.025830 -0.808967 1.005916 0.001961 0.014389 755213.000000 0 0 1
26.539911 -28.252743 26.187095 46.779785 -0.816648 0.976658 -0.000669 0.006438 -384620.000000 0 0 1
25.227011 -28.186743 25.737115 45.752526 -0.840753 0.973355 -0.009706 0.024990 -544639.000000 0 0 1
24.127911 -27.924743 26.768245 45.590419 -0.858211 0.943267 -0.001799 0.020986 -132046.000000 0 0 1
24.208611 -26.792543 27.565585 45.428611 -0.836019 0.918782 -0.005718 0.010572 570467.000000 0 0 1
22.979211 -26.753643 28.288015 45.210766 -0.861147 0.894778 0.005896 -0.005435 304497.000000 0 0 1
22.948411 -25.521643 29.199145 45.061890 -0.838437 0.865869 0.003807 0.004442 343632.000000 0 0 1
21.689511 -25.337043 29.870675 44.773406 -0.862806 0.840417 0.014213 0.007170 651479.000000 0 0 1
21.660111 -24.236643 30.765445 44.755870 -0.841477 0.812885 0.018699 0.000193 -207394.000000 0 0 1
21.455311 -22.828643 30.101355 43.446161 -0.816400 0.805372 0.031059 0.004292 -513623.000000 0 0 1
22.535111 -22.443243 29.291175 43.237753 -0.783356 0.826514 0.036868 0.001778 -150568.000000 0 0 1
22.456211 -21.116243 28.809555 42.192032 -0.754655 0.819181 0.064565 0.006114 147558.000000 0 0 1
22.956111 -19.932643 29.713635 42.511097 -0.715019 0.796852 0.055668 0.008736 59498.400000 0 0 1
22.196811 -19.845043 30.911035 42.918717 -0.729518 0.766673 0.058267 0.007388 230137.000000 0 0 1
22.772511 -18.976343 31.848015 43.508446 -0.694719 0.749549 0.061039 -0.010936 -564364.000000 0 0 1
22.058911 -18.966643 33.170814 44.120653 -0.710166 0.719978 0.068050 -0.004788 -591378.000000 0 0 1
22.409811 -20.112443 33.901430 45.343323 -0.731423 0.726264 0.063533 -0.003851 199156.000000 0 0 1
21.867811 -19.994743 -33.657569 44.842200 -0.740685 2.419733 0.072279 -0.008186 -70976.200000 0 0 1
22.005611 -21.104843 -32.613629 44.646502 -0.764507 2.389829 0.053332 -0.003625 8742.040000 0 0 1
23.269911 -21.140143 -31.991529 44.853677 -0.737478 2.364909 0.041633 -0.005447 -158933.000000 0 0 1
23.262611 -22.127043 -30.964749 44.604605 -0.760385 2.338111 0.037919 -0.008699 513400.000000 0 0 1
24.669211 -22.357943 -30.333459 45.039609 -0.736290 2.309708 0.048837 0.000220 705678.000000 0 0 1
25.625811 -23.037343 -31.162179 46.459475 -0.732257 2.306001 0.022158 -0.000146 -120502.000000 0 0 1
26.582311 -23.636543 -30.335979 46.750156 -0.726807 2.276929 0.030713 -0.007270 -525273.000000 0 0 1
27.429111 -24.686543 -31.051409 48.228327 -0.732822 2.270305 0.007900 -0.007429 -978372.000000 0 0 1
28.313011 -24.074443 -31.933289 48.999392 -0.704666 2.280630 0.008006 -0.009314 -475396.000000 0 0 1
27.919511 -23.887343 -33.299989 49.588240 -0.707724 2.307068 0.012615 -0.005994 -214414.000000 0 0 1
27.971211 -25.164843 -34.129306 50.798302 -0.732632 2.307512 0.010216 -0.006601 -479884.000000 0 0 1
26.853511 -25.986743 -33.987639 50.513181 -0.768996 2.308847 0.022304 -0.013703 -569653.000000 0 0 1
26.830211 -27.113043 34.061643 51.138761 -0.790641 0.841878 0.022010 -0.011662 -131148.000000 0 0 1
26.390911 -26.993543 32.638635 49.904028 -0.796686 0.857899 0.021406 -0.023839 -385783.000000 0 0 1
27.389311 -26.499343 31.777765 49.620720 -0.768885 0.875760 0.019800 -0.027066 -332613.000000 0 0 1
27.023111 -26.452843 30.444635 48.547680 -0.774735 0.892962 0.006498 -0.023112 -293728.000000 0 0 1
28.200211 -25.966643 29.524805 48.386285 -0.744187 0.914497 0.008066 -0.019842 436135.000000 0 0 1
28.595611 -24.595343 29.657825 47.981522 -0.710334 0.904461 0.002469 -0.028446 -47610.800000 0 0 1
29.075811 -24.209543 30.907265 48.854517 -0.694326 0.885840 0.002623 -0.022394 -2119620.000000 0 0 1
29.501611 -22.726643 30.961295 48.429817 -0.656400 0.877206 -0.013229 -0.007747 -175119.000000 0 0 1
30.723111 -22.449843 30.313135 48.649678 -0.631044 0.898109 0.002622 -0.013515 -38361.000000 0 0 1
31.803211 -22.736743 31.180335 50.006170 -0.620669 0.897547 0.004177 -0.015380 -1047050.000000 0 0 1
33.139311 -22.094143 30.828245 50.366117 -0.588029 0.912104 -0.001796 -0.012103 -492427.000000 0 0 1
33.713311 -22.495943 29.647285 50.215698 -0.588421 0.939244 0.010802 -0.020401 166324.000000 0 0 1
35.007011 -21.963143 29.411925 50.724075 -0.560318 0.952262 -0.007907 -0.009455 145978.000000 0 0 1
-35.401240 -22.349643 28.081805 50.411726 0.563134 0.979968 0.010842 -0.013955 -297514.000000 0 0 1
-35.129740 -23.737943 27.945285 50.779203 0.594246 0.988038 0.012902 -0.016799 234433.000000 0 0 1
-34.958040 -24.124943 26.578675 50.104924 0.604058 1.011653 0.006995 -0.000693 -609726.000000 0 0 1
-34.706340 -25.637743 26.316235 50.540757 0.636233 1.023133 0.007217 -0.006761 34744.200000 0 0 1
35.157911 -26.484343 26.599725 51.429996 -0.645608 1.027217 0.024213 -0.005800 295196.000000 0 0 1
35.292411 -27.782043 26.047655 51.921831 -0.666885 1.045267 0.032268 -0.006030 -159689.000000 0 0 1
-34.901440 -28.795843 26.845345 52.611630 0.689837 1.035315 0.032982 -0.015832 -767019.000000 0 0 1
-34.765240 -30.091843 26.241435 52.941041 0.713466 1.052187 0.046642 -0.012124 892270.000000 0 0 1
-33.789040 -30.968143 26.878595 53.133642 0.741865 1.040409 0.052321 -0.015705 579742.000000 0 0 1
-32.316740 -30.548743 26.928665 51.987983 0.757282 1.026310 0.057846 -0.015090 -977326.000000 0 0 1
-31.793540 -30.443643 25.658235 50.950855 0.763712 1.043050 0.047358 -0.012320 -208671.000000 0 0 1
-30.515840 -29.856243 25.643765 49.801751 0.774473 1.029886 0.025617 -0.002983 12858.000000 0 0 1
-29.759740 -29.643843 24.311335 48.532881 0.783447 1.046129 0.022444 0.001663 -127649.000000 0 0 1
-29.439140 -30.815743 23.620735 48.725887 0.808241 1.064699 0.024832 -0.002607 384326.000000 0 0 1
-29.079940 -30.579143 22.270635 47.714862 0.810522 1.085191 0.014739 0.000582 -540391.000000 0 0 1
-29.349640 -31.913643 21.464735 48.379922 0.827226 1.111106 0.014116 0.000288 320483.000000 0 0 1
-28.400840 -32.960943 21.592535 48.572307 0.859577 1.110131 0.002894 -0.012552 1210710.000000 0 0 1
-27.043640 -32.708243 21.153035 47.419811 0.879918 1.108416 0.011567 -0.009923 1416220.000000 0 0 1
-26.112440 -34.000743 21.207535 47.829589 0.915877 1.111410 0.001702 -0.001180 98956.400000 0 0 1
-26.283240 34.010479 20.202335 47.493744 -0.912863 1.131427 -0.014089 -0.003160 280515.000000 0 0 1
-27.514740 33.284279 20.130035 47.645802 -0.880010 1.134602 -0.005512 -0.002167 473110.000000 0 0 1
-27.643640 32.153079 21.187535 47.401508 -0.860669 1.107410 0.001390 0.003132 -423372.000000 0 0 1
-26.781240 31.105779 20.886335 46.054785 -0.859966 1.100096 -0.006225 0.007788 -254990.000000 0 0 1
-26.969740 29.950579 21.696735 45.772834 -0.837719 1.076958 0.003618 0.006422 -313329.000000 0 0 1
-25.951640 28.852479 21.382235 44.307484 -0.838280 1.067190 -0.000485 0.013281 76928.700000 0 0 1
-24.618440 29.157479 21.713635 43.905672 -0.869605 1.053477 -0.005161 0.009543 58327.800000 0 0 1
-23.650640 28.209779 21.315135 42.537975 -0.873084 1.045944 -0.000419 0.007439 -137557.000000 0 0 1
-22.208440 28.654079 21.546135 42.172348 -0.911453 1.034557 0.003735 0.009307 -609678.000000 0 0 1
-21.800740 28.711679 22.847135 42.680491 -0.921371 1.005926 0.005706 0.010913 1010290.000000 0 0 1
-20.473940 29.278779 22.937835 42.456723 -0.960557 1.000046 0.036972 0.008246 853596.000000 0 0 1
-19.970940 29.248779 24.388125 43.001280 -0.971710 0.967756 0.033526 0.008204 -491371.000000 0 0 1
-19.694440 27.910579 24.918725 42.282552 -0.956304 0.940557 0.031957 -0.001423 262884.000000 0 0 1
-19.348440 27.884379 26.265895 42.916173 -0.964189 0.912174 0.033451 -0.004509 1702180.000000 0 0 1
-17.926740 28.481279 26.797835 43.019475 -1.009024 0.898322 0.026616 -0.001175 1245210.000000 0 0 1
-17.604540 29.832779 26.599225 43.674172 -1.037683 0.915949 0.016290 -0.006879 948600.000000 0 0 1
-16.273440 30.144879 27.070185 43.661579 -1.075786 0.902053 0.013294 -0.009286 967856.000000 0 0 1
-16.162440 30.355079 28.639295 44.753374 -1.081530 0.876381 0.002509 0.001417 -720395.000000 0 0 1
-16.453140 29.170779 29.351865 44.532821 -1.057247 0.851166 0.010872 0.004702 146867.000000 0 0 1
-16.427540 29.317179 30.779315 45.571123 -1.060050 0.829272 0.011752 0.008648 -203992.000000 0 0 1
-16.419940 27.941179 31.532625 45.217589 -1.039499 0.799099 0.017598 0.010140 -436787.000000 0 0 1
-15.081640 27.520279 31.631855 44.557781 -1.069475 0.781431 0.015037 0.012966 39054.500000 0 0 1
-14.893740 26.311779 32.401545 44.316964 -1.055715 0.750817 0.026358 0.002229 -107009.000000 0 0 1
-15.011940 26.493279 33.965927 45.617281 -1.055274 0.730884 0.030383 -0.000093 412291.000000 0 0 1
-16.384940 26.203479 34.245657 46.128663 -1.011984 0.734159 0.033427 0.000920 347207.000000 0 0 1
-16.838140 26.974479 -33.543759 46.220442 -1.012755 2.382897 0.024318 0.004287 378334.000000 0 0 1
-18.268840 26.620879 -33.072149 46.218922 -0.969352 2.368214 0.014247 0.002687 -254747.000000 0 0 1
-19.389440 26.803579 -33.856139 47.335192 -0.944544 2.367767 0.018004 0.004035 -414289.000000 0 0 1
-20.460540 26.077079 -33.276169 46.967554 -0.905505 2.358156 0.028938 -0.006896 -222764.000000 0 0 1
-21.787540 26.228079 -34.041339 48.181135 -0.877617 2.355377 0.040347 -0.016033 -279540.000000 0 0 1
-21.962140 25.403979 33.620642 47.518894 -0.857935 0.784811 0.041208 -0.012973 86786.500000 0 0 1
-21.855040 24.007679 33.736616 46.820622 -0.832300 0.766201 0.039372 -0.016384 -401294.000000 0 0 1
-22.405840 23.337379 32.463905 45.831867 -0.805760 0.783672 0.033237 -0.008207 654212.000000 0 0 1
-23.804540 23.483479 32.202245 46.423210 -0.778609 0.804229 0.037291 -0.015371 428266.000000 0 0 1
-24.083440 23.053279 30.882155 45.444177 -0.763547 0.823630 0.037518 -0.009218 -866049.000000 0 0 1
-25.508840 22.705179 30.542585 45.815669 -0.727313 0.841104 0.029044 -0.005905 -1001300.000000 0 0 1
-25.803940 21.423479 31.122175 45.753672 -0.692910 0.822745 0.030347 -0.004979 -400854.000000 0 0 1
-26.832240 20.765879 30.477235 45.607594 -0.658632 0.838944 0.022059 -0.007411 -649047.000000 0 0 1
-27.318140 19.376279 31.020155 45.650531 -0.616929 0.823697 0.033656 -0.012800 -231636.000000 0 0 1
-27.840140 19.493779 32.344535 46.917478 -0.610863 0.810147 0.037332 -0.012357 179870.000000 0 0 1
-28.052440 18.305979 33.070257 47.071118 -0.578175 0.791809 0.030897 0.001773 -91191.800000 0 0 1
-28.795140 17.087779 32.426375 46.611394 -0.535572 0.801437 0.017421 0.001395 -16495.800000 0 0 1
-30.132140 17.434379 32.127455 47.371687 -0.524534 0.825487 0.010148 -0.003837 236922.000000 0 0 1
-30.893340 16.302379 31.659095 47.143019 -0.485560 0.834492 0.023323 -0.000330 535510.000000 0 0 1
-32.430740 16.494479 31.652485 48.225517 -0.470509 0.854835 0.024457 -0.003394 -43949.300000 0 0 1
-32.995640 16.548079 32.932816 49.468389 -0.464865 0.842319 0.026225 -0.005990 -353615.000000 0 0 1
-34.347540 16.867679 32.850852 50.432634 -0.456493 0.861393 0.031349 -0.011227 -792931.000000 0 0 1
-34.930840 17.193779 34.221253 51.835159 -0.457407 0.849720 0.024975 -0.004050 -1259180.000000 0 0 1
34.706911 17.488679 34.308703 51.841206 0.466760 0.847574 0.006669 -0.005171 -930434.000000 0 0 1
34.366411 17.897479 -33.272599 51.072848 0.480136 2.280321 -0.007739 0.004348 -627664.000000 0 0 1
32.905311 18.272979 -33.065929 50.100069 0.506919 2.291612 0.003030 0.006667 -352196.000000 0 0 1
32.132411 17.076579 -33.129619 49.210497 0.488485 2.309355 0.008885 0.012927 -755404.000000 0 0 1
30.807011 17.285679 -32.772129 48.185880 0.511322 2.318721 0.004301 0.018772 -820097.000000 0 0 1
29.997311 15.963879 -32.684949 47.148595 0.489057 2.336761 -0.002285 0.017501 -316282.000000 0 0 1
29.536311 15.634079 -33.978679 47.658879 0.486825 2.364501 0.009995 -0.004977 -80452.400000 0 0 1
29.051211 14.288579 -34.097491 47.018882 0.457099 2.382103 0.007508 -0.008592 -30598.800000 0 0 1
30.135811 13.176979 -34.073759 47.358431 0.412203 2.373859 0.011439 -0.007227 48535.500000 0 0 1
30.581811 12.864179 -32.762919 46.627708 0.398179 2.349910 0.011380 0.003049 302188.000000 0 0 1
31.398211 11.697779 -32.916619 46.970092 0.356631 2.347314 0.020655 0.003222 -359326.000000 0 0 1
17.465011 -21.387221 9.705501 29.268355 -0.886009 1.232793 0.005456 -0.002450 8618.300000 0 0 1
17.290811 -22.536221 10.534101 30.295556 -0.916349 1.215668 0.005139 -0.008353 -193408.000000 0 0 1
18.453111 -23.297121 10.697501 31.586543 -0.900905 1.225290 0.006604 -0.010572 -531151.000000 0 0 1
18.117311 -24.588221 11.467401 32.623900 -0.935778 1.211620 0.019917 -0.008503 -44591.800000 0 0 1
17.386411 -25.541181 10.725401 32.705863 -0.973127 1.236679 0.016536 -0.009850 46569.300000 0 0 1
16.038511 -25.539471 11.155401 32.154959 -1.010050 1.216504 0.015553 -0.007681 418636.000000 0 0 1
15.020011 -26.536451 10.484501 32.244515 -1.055741 1.239620 0.022941 0.003339 516347.000000 0 0 1
14.808711 -26.089941 9.125701 31.356999 -1.054539 1.275497 0.023981 -0.007124 -142611.000000 0 0 1
14.099111 -27.011251 8.353101 31.593780 -1.089726 1.303224 0.031456 -0.001118 -236323.000000 0 0 1
13.898911 -26.482211 6.870401 30.686962 -1.087475 1.344996 0.036806 -0.008959 71201.200000 0 0 1
12.935811 -25.412861 6.916301 29.342528 -1.099954 1.332848 0.034610 -0.019802 396666.000000 0 0 1
12.770911 -24.711821 5.668301 28.388376 -1.093804 1.369775 0.043542 -0.009366 72500.400000 0 0 1
12.012511 -23.370821 5.828601 26.915949 -1.096015 1.352519 0.044979 -0.013245 -37094.400000 0 0 1
11.567711 -22.822621 4.585501 25.994438 -1.101681 1.393465 0.043535 -0.011898 -157513.000000 0 0 1
10.988511 -21.584621 4.984601 24.728314 -1.099903 1.367831 0.053583 -0.012528 -145637.000000 0 1 0
10.092411 -20.914021 3.934601 23.552794 -1.121192 1.402955 0.043913 -0.012698 -22742.400000 0 1 0
10.832711 -20.363521 2.813901 23.236580 -1.081904 1.449400 0.028331 -0.006801 -255186.000000 0 1 0
10.055711 -19.814421 1.781501 22.291307 -1.101171 1.490792 0.026555 0.006077 -518523.000000 0 1 0
10.845611 -19.346021 0.583701 22.186404 -1.059842 1.544484 0.014416 0.003193 -70062.800000 0 1 0
11.633711 -18.191621 0.832901 21.609536 -1.001831 1.532244 0.013129 0.003114 241635.000000 0 1 0
12.459611 -17.956421 -0.324699 21.858188 -0.964189 1.585652 0.025188 -0.000367 673315.000000 0 1 0
13.652611 -16.945121 -0.195499 21.761644 -0.892592 1.579780 0.029013 -0.001305 705504.000000 0 1 0
14.721511 -17.445921 0.577301 22.834542 -0.869891 1.545512 0.038934 -0.011798 -280945.000000 0 1 0
15.938911 -16.761321 0.343001 23.132411 -0.810543 1.555968 0.042176 -0.016685 469090.000000 0 1 0
17.028611 -17.557821 1.161201 24.486712 -0.800698 1.523357 0.034906 -0.012724 45226.400000 0 1 0
17.372711 -18.765421 0.547201 25.578341 -0.823918 1.549402 0.037756 -0.015901 -398318.000000 0 0 1
18.445811 -19.346521 1.206701 26.758026 -0.809227 1.525684 0.043110 -0.012162 -474415.000000 0 0 1
18.730111 -20.712721 0.742201 27.935367 -0.835621 1.544225 0.030120 -0.013791 248644.000000 0 0 1
17.808511 -21.750821 1.129701 28.133921 -0.884726 1.530631 0.031736 -0.009318 238836.000000 0 0 1
18.001611 -22.925921 0.402501 29.151636 -0.905140 1.556989 0.033663 -0.011398 259118.000000 0 0 1
16.827911 -23.973421 0.508801 29.294409 -0.958769 1.553427 0.020872 -0.002632 370082.000000 0 0 1
16.642211 -24.569821 1.800901 29.730162 -0.975438 1.510184 0.017432 0.000401 -536608.000000 0 0 1
15.591111 -25.471131 1.857701 29.921770 -1.021521 1.508671 0.015903 -0.000679 -1290400.000000 0 0 1
15.672711 -26.309141 3.148301 30.785006 -1.033535 1.468350 0.003921 -0.000207 741081.000000 0 0 1
16.754411 -27.239371 3.290801 32.148453 -1.019362 1.468254 0.008569 -0.000929 1571760.000000 0 0 1
18.068111 -26.672431 3.593101 32.415823 -0.975394 1.459724 0.005953 0.006752 583885.000000 0 0 1
19.134511 -27.749301 3.685101 33.907716 -0.967119 1.461901 0.013758 0.008870 -642610.000000 0 0 1
19.499211 -28.224951 2.409701 34.390024 -0.966238 1.500669 0.024327 0.005878 -32836.000000 0 0 1
20.567211 -29.153891 2.481701 35.764764 -0.956408 1.501351 0.042293 0.003930 -6416.490000 0 0 1
20.198611 -30.560081 2.884401 36.745370 -0.986764 1.492219 0.030666 0.006521 -352121.000000 0 0 1
19.965711 -30.764181 4.264601 36.922233 -0.995130 1.455036 0.038680 0.005348 178846.000000 0 0 1
19.273411 -31.999381 4.537001 37.629897 -1.028683 1.449933 0.033770 -0.008261 -21582.700000 0 0 1
18.879211 -32.309311 6.036301 37.904526 -1.041981 1.410865 0.044075 -0.009611 -204962.000000 0 0 1
19.968911 -32.856671 6.750701 39.037036 -1.024692 1.396992 0.036016 -0.019982 485934.000000 0 0 1
19.479811 -33.687121 7.761101 39.680220 -1.046518 1.373936 0.035488 -0.014382 -643752.000000 0 0 1
20.641911 -34.472317 8.251401 41.018468 -1.031262 1.368251 0.021906 -0.016641 -308213.000000 0 0 1
21.507511 -33.740781 9.130401 41.041169 -1.003306 1.346450 0.029918 -0.018329 357615.000000 0 0 1
22.612611 -34.489995 9.584401 42.340887 -0.990475 1.342454 0.034775 -0.022847 228141.000000 0 0 1
23.561211 -33.706901 10.530201 42.451984 -0.960740 1.320130 0.032744 -0.021267 -67763.900000 0 0 1
24.215011 -32.634801 9.895701 41.824896 -0.932435 1.331933 0.020107 -0.020606 722785.000000 0 0 1
25.339411 -32.167811 10.679301 42.319042 -0.903585 1.315686 0.013485 -0.009118 938597.000000 0 0 1
26.186111 -31.082641 10.016901 41.859065 -0.870692 1.329151 0.021728 -0.014857 -307063.000000 0 0 1
25.361211 -29.971441 9.853101 40.479154 -0.868525 1.324914 0.013993 -0.021099 170316.000000 0 0 1
25.703511 -29.383451 8.591901 39.973472 -0.852101 1.354166 0.028221 -0.020210 155860.000000 0 0 1
25.144811 -27.949361 8.376201 38.517386 -0.838171 1.351579 0.021657 -0.016155 1679.140000 0 0 1
25.942611 -27.142061 9.168501 38.649346 -0.807989 1.331290 0.010625 -0.022477 -15350.000000 0 0 1
25.468811 -25.829411 8.951701 37.362438 -0.792428 1.328852 0.014906 -0.021910 -22814.400000 0 0 1
26.187811 -24.736921 9.826401 37.339990 -0.756915 1.304500 0.024291 -0.031412 -234152.000000 0 0 1
27.502311 -24.548221 9.404701 38.045245 -0.728705 1.321009 0.042604 -0.028146 -1162120.000000 0 0 1
28.294811 -23.895821 10.357201 38.456186 -0.701310 1.298105 0.029816 -0.027066 1005470.000000 0 0 1
29.761611 -23.731721 9.794401 39.304941 -0.673150 1.318952 0.050893 -0.027206 1165850.000000 0 0 1
29.660911 -22.807521 8.742601 38.423765 -0.655514 1.341255 0.055085 -0.017783 78130.500000 0 0 1
30.965211 -22.632721 8.215301 39.224680 -0.631170 1.359792 0.058727 -0.018992 124108.000000 0 0 1
31.043911 -21.638721 7.001701 38.483535 -0.608734 1.387837 0.057114 -0.008569 -63030.300000 0 0 1
30.866011 -20.272421 7.371701 37.656655 -0.581132 1.373763 0.051459 0.000296 -15614.900000 0 0 1
30.898411 -19.522021 6.174801 37.066822 -0.563484 1.403430 0.030830 0.010550 -155338.000000 0 0 1
30.665311 -18.015421 6.452101 36.146180 -0.531167 1.391334 0.035278 0.013378 225799.000000 0 0 1
31.567911 -17.403521 7.354501 36.790002 -0.503844 1.369535 0.042354 0.006965 452794.000000 0 0 1
30.951811 -16.151121 7.645301 35.739669 -0.480947 1.355214 0.040354 0.003206 488383.000000 0 0 1
31.411311 -15.625821 9.070201 36.236795 -0.461612 1.317802 0.037631 -0.014105 406874.000000 0 0 1
32.802911 -15.367721 9.203901 37.375254 -0.438121 1.321980 0.034530 -0.013027 164134.000000 0 0 1
33.159711 -14.705121 10.387301 37.731990 -0.417405 1.291903 0.033622 -0.020842 -191059.000000 0 0 1
34.700511 -14.703121 10.473601 39.115260 -0.400782 1.299726 0.022921 -0.023223 -185990.000000 0 0 1
35.175311 -13.879921 9.451601 38.978038 -0.375836 1.325870 0.028614 -0.016249 441919.000000 0 0 1
-34.598840 -14.441121 8.910901 38.536085 0.395405 1.337449 0.022304 -0.022487 794088.000000 0 0 1
-33.742940 -13.507021 8.036501 37.223795 0.380758 1.353186 0.018541 -0.017023 -45276.400000 0 0 1
-34.329440 -13.155921 6.787501 37.385276 0.365963 1.388228 0.029352 -0.018374 170540.000000 0 0 1
-33.335540 -12.708221 5.884901 36.157837 0.364214 1.407313 0.032704 -0.007824 11929.300000 0 0 1
-32.402240 -13.716221 5.185601 35.565859 0.400439 1.424472 0.015829 -0.003305 -601194.000000 0 0 1
-31.511540 -14.323621 6.017201 35.133317 0.426633 1.398680 0.018959 -0.004499 -721528.000000 0 0 1
-30.743640 -15.344821 5.411501 34.783894 0.462945 1.414587 0.016172 -0.000954 90351.200000 0 0 1
-29.854940 -16.018721 6.477601 34.494582 0.492460 1.381889 0.014875 -0.004388 -342931.000000 0 0 1
-30.671740 -16.703221 7.378701 35.695916 0.498673 1.362585 0.003586 -0.008063 -489812.000000 0 0 1
-30.008640 -17.074221 8.530101 35.564169 0.517296 1.328584 0.006498 -0.012458 -60571.100000 0 0 1
-30.950140 -17.667521 9.614201 36.911859 0.518701 1.307294 -0.012533 -0.009045 -654924.000000 0 0 1
-32.026140 -16.806521 9.960601 37.514615 0.483271 1.302061 -0.001017 -0.008171 368229.000000 0 0 1
-32.966140 -17.323221 10.907201 38.804992 0.483827 1.285880 0.014231 -0.012736 89997.200000 0 0 1
-33.796640 -18.534421 10.437401 39.933406 0.501622 1.306355 0.034311 -0.014922 -1348900.000000 0 0 1
-33.134540 -19.809921 10.218901 39.934404 0.538847 1.312026 0.022949 -0.011155 -109663.000000 0 0 1
-32.392040 -20.380121 11.313701 39.907310 0.561593 1.283355 0.013141 -0.017662 -213609.000000 0 0 1
-33.218440 -21.024521 12.514201 41.256520 0.564272 1.262615 0.047505 -0.019415 305258.000000 0 0 1
-33.696740 -22.336021 12.338101 42.268154 0.585358 1.274583 0.021743 -0.015458 381202.000000 0 0 1
-34.974440 -22.270121 11.681501 43.076991 0.567007 1.296180 0.039953 -0.018967 321694.000000 0 0 1
35.360711 -23.686121 11.542701 44.098142 -0.590198 1.305961 0.041225 -0.014972 -31428.000000 0 0 1
35.047911 -24.304921 12.739801 44.512782 -0.606335 1.280532 0.061275 -0.013713 -41554.100000 0 0 1
34.745611 -25.649541 12.412001 44.935668 -0.635912 1.290940 0.028150 -0.001853 -317616.000000 0 0 1
34.068111 -26.275631 13.658401 45.139749 -0.656974 1.263398 0.036358 -0.024138 181423.000000 0 0 1
32.830011 -25.592871 13.837001 43.866471 -0.662151 1.249882 0.036330 -0.015454 114988.000000 0 0 1
32.487611 -25.552101 15.198801 44.038146 -0.666466 1.218421 0.041825 -0.009230 -177239.000000 0 0 1
32.041411 -24.133821 15.744001 43.092539 -0.645551 1.196784 0.034547 -0.013837 -86856.000000 0 0 1
33.076811 -23.311621 16.266401 43.613105 -0.613922 1.188588 0.038871 -0.016865 87682.700000 0 0 1
33.801411 -22.679821 15.220501 43.457719 -0.590978 1.212972 0.044684 -0.014715 220157.000000 0 0 1
34.982311 -21.800321 15.747501 44.124822 -0.557290 1.205865 0.039059 -0.014741 165157.000000 0 0 1
34.698211 -20.564021 16.351201 43.522484 -0.535000 1.185649 0.039353 -0.007771 698087.000000 0 0 1
33.661911 -20.436421 17.366601 43.039173 -0.545630 1.155450 0.035789 -0.007023 779879.000000 0 0 1
33.605011 -18.983521 17.983001 42.580032 -0.514212 1.134777 0.032161 -0.001170 -187361.000000 0 0 1
33.354411 -17.891221 17.061601 41.517596 -0.492340 1.147302 0.029842 -0.010251 117098.000000 0 0 1
33.269611 -16.624821 17.773201 41.220606 -0.463407 1.125004 0.019368 -0.008845 344786.000000 0 0 1
34.568411 -15.872021 18.228901 42.180433 -0.430435 1.123904 0.017220 -0.010878 587732.000000 0 0 1
35.298611 -16.434821 19.342001 43.476526 -0.435746 1.109752 0.019684 -0.001444 653138.000000 0 0 1
-34.614840 -15.609021 19.750401 42.800783 0.423631 1.091168 0.017058 -0.010195 79012.500000 0 0 1
-34.240640 -15.570821 21.264501 43.209384 0.426794 1.056265 0.008011 0.001930 -11892.200000 0 0 1
-33.699240 -16.768721 21.797901 43.496865 0.461725 1.045884 0.011055 0.003099 190292.000000 0 0 1
-33.291840 -16.616021 23.193101 43.844711 0.462929 1.013395 0.005604 0.010492 114747.000000 0 0 1
-32.480540 -17.820021 23.714301 43.987574 0.501796 1.001412 0.006284 0.010587 -678847.000000 0 0 1
-33.182040 -19.050621 23.891301 45.108405 0.521176 1.012618 -0.002168 0.009723 639997.000000 0 0 1
-32.372540 -20.224421 24.234501 45.214152 0.558412 1.005112 -0.012072 0.015315 402982.000000 0 0 1
-31.279540 -20.739721 23.281701 44.165408 0.585491 1.015556 -0.010609 0.012370 610603.000000 0 0 1
-30.172040 -19.849021 23.050501 42.844617 0.581882 1.002731 -0.003244 0.014090 907422.000000 0 0 1
-29.092140 -20.596121 22.434201 42.117053 0.616049 1.009052 0.017626 0.007789 274744.000000 0 0 1
-27.823340 -19.745821 22.420701 40.825525 0.617197 0.989410 0.031040 0.005816 -160090.000000 0 0 1
-27.213840 -19.527221 23.718801 41.042502 0.622406 0.954633 0.029771 0.005372 341658.000000 0 0 1
-26.007540 -18.802921 23.705801 39.898709 0.625983 0.934588 0.043718 0.003117 -97619.500000 0 0 1
-25.512840 -18.283621 25.050401 40.158665 0.621809 0.897219 0.034952 -0.000186 -1250570.000000 0 0 1
-24.605440 -17.256621 24.894201 39.024862 0.611620 0.879020 0.034753 -0.002736 -416379.000000 0 0 1
-24.207440 -16.626721 26.102701 39.291207 0.601841 0.844187 0.028186 -0.007692 374222.000000 0 0 1
-23.191640 -17.379621 27.024201 39.625886 0.643112 0.820325 0.020568 -0.009038 -739847.000000 0 0 1
-23.608840 -18.675521 27.296001 40.635256 0.669253 0.834252 0.030402 -0.010123 -212616.000000 0 0 1
-22.717740 -19.324121 28.190701 41.039407 0.704853 0.813557 0.032766 -0.014929 -229547.000000 0 0 1
-23.362140 -20.559921 28.780101 42.388608 0.721685 0.824453 0.033494 -0.010309 -92647.400000 0 0 1
-24.287040 -20.251021 29.815301 43.461665 0.695025 0.814800 0.032278 -0.013293 128925.000000 0 0 1
-24.739540 -21.545521 30.304601 44.661204 0.716500 0.825017 0.035092 -0.016289 -737246.000000 0 0 1
-25.944540 -21.526621 31.222001 45.949188 0.692600 0.823729 0.028799 -0.007207 -1104460.000000 0 0 1
-25.618940 -20.899321 32.493401 46.356583 0.684287 0.794075 0.041000 -0.015485 -107047.000000 0 0 1
-26.533240 -20.932821 33.547101 47.619363 0.667953 0.789100 0.042892 -0.017980 175133.000000 0 0 1
-27.810440 -20.014921 33.431001 47.871175 0.623819 0.797702 0.020775 -0.020394 292775.000000 0 0 1
-28.544440 -20.382721 32.299001 47.680875 0.620106 0.826575 0.030427 -0.018069 -215993.000000 0 0 1
-29.813440 -19.745821 32.353001 48.222975 0.584982 0.835369 0.052093 -0.024260 390260.000000 0 0 1
-30.837940 -20.407321 31.373301 48.494549 0.584598 0.867225 0.042612 -0.007972 156398.000000 0 0 1
-31.329740 -19.469721 30.434801 47.821540 0.556039 0.880942 0.031517 -0.011763 636365.000000 0 0 1
-32.378640 -19.956321 29.598601 48.194483 0.552349 0.909489 0.024850 -0.011429 298489.000000 0 0 1
-32.818740 -18.873821 28.541401 47.412049 0.521904 0.924810 0.012521 0.001025 -113572.000000 0 0 1
-34.001840 -19.296721 27.920901 48.042328 0.516195 0.950627 -0.000093 0.007933 36186.500000 0 0 1
-34.512740 -18.366921 26.981101 47.502135 0.489057 0.966725 -0.002050 0.009638 67243.100000 0 0 1
35.386311 -18.941821 26.045201 47.847007 -0.491477 0.995190 -0.005148 0.006748 -397339.000000 0 0 1
34.130111 -19.129921 26.611801 47.318139 -0.510869 0.973509 0.001920 0.001551 -492098.000000 0 0 1
33.316211 -19.978121 25.840601 46.656531 -0.540163 0.983818 0.027539 0.002603 -529615.000000 0 0 1
32.238511 -20.672021 26.645801 46.654611 -0.570179 0.962916 0.021479 -0.011472 96749.100000 0 0 1
31.148611 -19.752421 26.936101 45.672176 -0.565141 0.940022 0.006866 -0.013985 785945.000000 0 0 1
30.342811 -20.364221 27.931501 45.995178 -0.591092 0.918176 0.010431 -0.007318 -216346.000000 0 0 1
-29.377769 -5.864521 33.913136 45.249825 0.197034 0.723544 0.002491 0.011851 -100064.000000 0 0 1
-30.350259 -5.394921 33.018957 45.171837 0.175918 0.751064 0.007335 0.005106 117619.000000 0 0 1
-29.832919 -4.369121 32.198615 44.111711 0.145419 0.752572 0.015163 0.001848 -198093.000000 0 0 1
-30.401959 -4.210121 30.774435 43.463434 0.137607 0.784058 0.008758 0.001580 -11043.400000 0 0 1
-30.095339 -5.284021 29.934445 42.775241 0.173805 0.795668 0.007920 -0.002451 292334.000000 0 0 1
-28.740599 -5.366421 29.502825 41.535974 0.184594 0.780878 0.015815 -0.002402 199682.000000 0 0 1
-28.440739 -6.399521 28.421225 40.713579 0.221326 0.798088 0.014837 -0.006596 -241019.000000 0 0 1
-28.952139 -5.968121 27.169175 40.149830 0.203290 0.827532 0.022280 -0.012036 -111732.000000 0 0 1
-28.665039 -6.857021 26.143865 39.398031 0.234800 0.845198 0.031259 -0.011433 -194657.000000 0 0 1
-29.410279 -6.472721 24.871025 39.056734 0.216630 0.880466 0.035237 -0.018769 -238822.000000 0 0 1
-28.972239 -5.258221 24.327985 38.195423 0.179537 0.880281 0.044822 -0.016116 132829.000000 0 0 1
-29.687479 -4.939821 23.132135 37.958450 0.164883 0.915484 0.056238 -0.023115 164150.000000 0 0 1
-29.234899 -3.606621 22.534035 37.087326 0.122747 0.917769 0.056840 -0.021300 -493568.000000 0 0 1
-27.974589 -3.657821 21.952135 35.747077 0.130018 0.909556 0.064698 -0.019717 -614717.000000 0 0 1
-27.679939 -2.504421 21.209335 34.961222 0.090232 0.918953 0.066294 -0.020925 -334559.000000 0 0 1
-26.227429 -2.412821 20.742135 33.525153 0.091738 0.903705 0.063088 -0.015249 -408754.000000 0 0 1
-25.957239 -3.425421 19.778435 32.813080 0.131206 0.923840 0.067459 -0.012989 -513460.000000 0 0 1
-24.796689 -3.073121 19.090435 31.444627 0.123304 0.918374 0.052319 -0.016963 -876116.000000 0 0 1
-24.683689 -3.749321 17.721535 30.616902 0.150742 0.953521 0.049783 -0.019206 -1284290.000000 0 0 1
-25.649379 -3.481021 16.801535 30.859354 0.134891 0.995057 0.050389 -0.008363 -624836.000000 0 0 1
-25.233539 -3.981321 15.542235 29.902232 0.156489 1.024217 0.052880 -0.010828 -330162.000000 0 0 1
-26.383639 -4.266221 14.577635 30.443464 0.160312 1.071460 0.046524 -0.009230 -8219.400000 0 0 1
-27.042279 -3.053121 14.158935 30.677057 0.112426 1.091057 0.047061 -0.010228 281589.000000 0 0 1
-28.177859 -3.347921 13.365635 31.366232 0.118259 1.130602 0.031495 -0.003321 -73566.700000 0 0 1
-28.537979 -2.075321 12.531335 31.237118 0.072594 1.158005 0.031288 -0.002438 -51757.800000 0 0 1
-27.675689 -1.778021 11.409735 29.988117 0.064157 1.180486 0.036483 -0.005315 349666.000000 0 0 1
-28.031149 -0.671521 10.586835 29.971275 0.023952 1.209772 0.034878 -0.003991 103900.000000 0 0 1
-29.300999 -0.788021 9.691735 30.872305 0.026888 1.251467 0.015846 0.003485 499320.000000 0 0 1
-29.172899 -1.823921 8.744535 30.509861 0.062440 1.280106 0.007026 -0.006059 -214537.000000 0 0 1
-30.447199 -2.050221 8.206735 31.600409 0.067235 1.308081 0.004301 0.001445 -274083.000000 0 0 1
-30.438669 -2.730421 6.815035 31.311539 0.089463 1.351388 0.014676 -0.004788 -607175.000000 0 0 1
-30.077449 -1.896321 5.741535 30.679214 0.062965 1.382539 0.019753 -0.010634 -249085.000000 0 0 1
-31.012049 -0.936921 5.340635 31.482493 0.030202 1.400334 0.015522 -0.012370 -1051600.000000 0 0 1
-30.658359 -0.160921 4.071535 30.927953 0.005249 1.438767 0.019110 -0.015274 -541016.000000 0 0 1
-30.717179 -0.954221 2.945535 30.872833 0.031055 1.475242 0.030007 -0.019477 205495.000000 0 0 1
-30.074059 -0.394121 1.860935 30.134157 0.013104 1.509002 0.028379 -0.023111 -590686.000000 0 0 1
-30.562889 -0.932421 0.521135 30.581549 0.030499 1.553755 0.025139 -0.021074 618301.000000 0 0 1
-31.962269 -0.596821 0.447335 31.970970 0.018671 1.556804 0.034504 -0.014752 912524.000000 0 0 1
-32.529799 -1.011821 -0.768365 32.554600 0.031094 1.594401 0.043755 -0.013006 920413.000000 0 0 1
-34.079744 -0.741921 -0.919265 34.100212 0.021767 1.597757 0.056107 -0.015839 1182420.000000 0 0 1
-34.846750 -1.523821 -0.008965 34.880053 0.043701 1.571053 0.042148 -0.011446 1314430.000000 0 0 1
34.710852 -1.342721 -0.089365 34.736927 -0.038664 1.573369 0.049934 -0.011596 1013110.000000 0 0 1
33.763302 -2.458321 0.392135 33.854950 -0.072682 1.559213 0.054279 -0.016635 -326615.000000 0 0 1
33.729782 -2.730421 1.817635 33.888895 -0.080774 1.517135 0.047665 -0.020211 400336.000000 0 0 1
33.030512 -3.969521 1.995035 33.327946 -0.119604 1.510900 0.045407 -0.013240 -434728.000000 0 0 1
33.188882 -4.361721 3.485135 33.655202 -0.130672 1.467056 0.049224 -0.017779 -203791.000000 0 0 1
32.845542 -3.338521 4.383635 33.304528 -0.101295 1.438790 0.047813 -0.022382 327242.000000 0 0 1
32.885832 -3.899521 5.728535 33.608039 -0.118026 1.399509 0.049089 -0.022260 -74426.700000 0 0 1
32.274022 -2.892321 6.773735 33.103799 -0.089379 1.364720 0.059066 -0.019312 -1194510.000000 0 0 1
30.909402 -2.827821 6.805135 31.775738 -0.091233 1.354963 0.054389 -0.019376 -1317620.000000 0 0 1
30.418862 -1.770621 7.584535 31.400118 -0.058142 1.326839 0.061280 -0.017085 -417093.000000 0 0 1
28.911632 -1.819421 7.900135 30.026736 -0.062848 1.304559 0.045397 -0.011303 -913307.000000 0 0 1
28.135882 -1.524021 6.737235 28.971379 -0.054114 1.336100 0.046068 -0.013948 414722.000000 0 0 1
26.749822 -1.487321 7.042235 27.701230 -0.055544 1.313754 0.043788 -0.003912 132364.000000 0 0 1
26.089262 -2.876521 7.005335 27.166131 -0.109813 1.309979 0.056290 -0.015454 -997142.000000 0 0 1
26.609052 -3.750921 8.042735 28.049895 -0.140041 1.279985 0.045659 -0.017529 532765.000000 0 0 1
25.966562 -4.991721 7.920735 27.602856 -0.189920 1.279751 0.056148 -0.023970 -294046.000000 0 0 1
26.178302 -5.995621 9.081035 28.349888 -0.225147 1.244729 0.046970 -0.015357 -161164.000000 0 0 1
25.513062 -5.640421 10.303635 28.087285 -0.217580 1.195183 0.047604 -0.007884 723777.000000 0 0 1
25.896362 -6.506521 11.344835 29.011405 -0.246157 1.169027 0.041405 -0.007900 -530337.000000 0 0 1
24.877162 -6.383721 12.456535 28.544532 -0.251190 1.119214 0.030251 -0.010019 -1321640.000000 0 0 1
23.705262 -6.962821 12.108035 27.514084 -0.285690 1.115123 0.040701 -0.017149 -1114180.000000 0 0 1
22.589962 -6.676921 12.930735 26.871761 -0.287388 1.068771 0.044439 -0.021641 487201.000000 0 0 1
21.514862 -7.768421 13.017735 26.319177 -0.346505 1.053410 0.043570 -0.027626 -343502.000000 0 0 1
21.996862 -8.858921 13.771635 27.422625 -0.382862 1.044656 0.041269 -0.029037 -109859.000000 0 0 1
21.118062 -9.943721 13.921735 27.178389 -0.440068 1.033011 0.068732 -0.043268 -564017.000000 0 0 1
21.524562 -11.060721 14.922935 28.431326 -0.474678 1.018226 0.059324 -0.034550 -475092.000000 0 0 1
21.439862 -10.675021 16.256235 28.946311 -0.461970 0.974479 0.054308 -0.031463 151882.000000 0 0 1
21.865662 -11.723421 17.067735 30.114006 -0.492153 0.968215 0.043272 -0.031308 -177285.000000 0 0 1
21.641562 -11.399421 18.528935 30.685916 -0.484808 0.922505 0.048893 -0.028082 -325075.000000 0 0 1
20.274062 -11.268921 18.827135 29.874524 -0.507308 0.888977 0.045204 -0.039164 -366483.000000 0 0 1
19.942862 -11.543321 20.174435 30.626358 -0.524700 0.851670 0.048245 -0.028842 279341.000000 0 0 1
20.397362 -10.552821 21.316435 31.333764 -0.477441 0.822621 0.038360 -0.025011 -258045.000000 0 0 1
19.615262 -9.367121 21.329835 30.454282 -0.445521 0.794854 0.036031 -0.025795 -221658.000000 0 0 1
19.976362 -8.285821 20.454235 29.767190 -0.393184 0.813251 0.038987 -0.019247 -630413.000000 0 0 1
21.166862 -7.324821 20.802335 30.568385 -0.333153 0.822327 0.026755 -0.013237 1863100.000000 0 0 1
22.507262 -7.874221 20.852135 31.676359 -0.336543 0.852255 0.037462 -0.009042 1242990.000000 0 0 1
23.029862 -8.281521 19.595135 31.351674 -0.345201 0.895651 0.028214 -0.017468 -542903.000000 0 0 1
24.374262 -9.043521 19.594635 32.555178 -0.355283 0.924931 0.015771 -0.015553 -86168.900000 0 0 1
24.281562 -10.274121 20.263035 33.252705 -0.400281 0.915537 0.012447 -0.024160 244386.000000 0 0 1
25.484462 -11.036421 20.289635 34.393745 -0.408682 0.939834 0.017724 -0.023662 271007.000000 0 0 1
25.188862 -12.472021 20.679435 34.895116 -0.459752 0.936493 0.003043 -0.025451 160592.000000 0 0 1
24.421362 -13.061221 19.619135 33.939783 -0.491120 0.954451 0.025559 -0.027023 240839.000000 0 0 1
24.218862 -14.400021 19.885935 34.487161 -0.536424 0.956213 0.023848 -0.015411 139340.000000 0 0 1
23.271362 -15.092821 18.867835 33.546158 -0.575361 0.973458 0.043472 -0.018035 46450.200000 0 0 1
23.884062 -15.238821 17.579635 33.342370 -0.567917 1.015440 0.035332 -0.017933 514562.000000 0 0 1
23.037962 -15.755821 16.550935 32.448837 -0.599843 1.035539 0.000141 -0.012078 -350716.000000 0 0 1
22.781262 -17.286521 16.658335 33.095465 -0.649112 1.043334 -0.004998 -0.004753 -992911.000000 0 0 1
23.810562 -18.170421 16.416535 34.155668 -0.651848 1.069413 0.003860 -0.001257 -712348.000000 0 0 1
23.400062 -19.468621 16.681335 34.711051 -0.693945 1.069484 0.007886 -0.000448 272826.000000 0 0 1
24.408662 -20.509221 16.103635 35.717474 -0.698803 1.103066 0.009823 0.007194 302927.000000 0 0 1
24.426562 -20.638021 14.708235 35.198253 -0.701526 1.139699 0.003552 -0.005290 -26923.300000 0 0 1
25.490862 -21.504221 14.393935 36.323559 -0.700770 1.163346 0.018761 -0.018618 -158270.000000 0 0 1
25.922522 -21.409921 12.941935 36.025762 -0.690347 1.203342 0.020820 -0.029616 300085.000000 0 0 1
24.863462 -21.735321 12.039835 35.150726 -0.718369 1.221198 0.003033 -0.021343 550064.000000 0 0 1
25.385062 -21.355921 10.799235 34.886963 -0.699409 1.256077 0.014992 -0.017638 -164909.000000 0 0 1
24.387762 -21.352221 9.593335 33.804029 -0.719130 1.283049 -0.007990 -0.015512 -55275.400000 0 0 1
23.894462 -22.574021 9.141235 34.118820 -0.756990 1.299559 -0.010267 -0.020709 -253178.000000 0 0 1
22.677162 -22.857221 9.816735 33.661172 -0.789353 1.274862 -0.025343 -0.004319 -404716.000000 0 0 1
21.836362 -23.761821 8.892235 33.474209 -0.827600 1.301924 -0.014071 -0.006291 -510750.000000 0 0 1
22.244262 -25.125991 8.915335 34.721835 -0.846157 1.311123 -0.016350 -0.005376 -111769.000000 0 0 1
21.804862 -25.838041 7.790335 34.695038 -0.869851 1.344328 -0.004557 0.004031 661192.000000 0 0 1
20.308662 -26.310111 7.699035 34.116548 -0.913429 1.343167 -0.001733 0.016881 1164470.000000 0 0 1
19.359962 -25.289221 7.439635 32.706284 -0.917422 1.341320 -0.001537 0.012817 708616.000000 0 0 1
17.981662 -25.692981 7.480435 32.240136 -0.960160 1.336640 0.009539 -0.005700 825799.000000 0 0 1
16.999562 -24.551221 7.232635 30.725536 -0.965181 1.333171 0.007719 -0.008693 -494053.000000 0 0 1
17.018062 -23.899321 6.001435 29.946773 -0.952014 1.369027 0.015655 -0.010263 86334.200000 0 0 1
16.096662 -22.827221 6.049935 28.579473 -0.956621 1.357494 0.017285 -0.008933 -56665.900000 0 0 1
15.941362 -22.012221 4.769135 27.593650 -0.944009 1.397090 0.027784 -0.002209 -241608.000000 0 0 1
15.017462 -20.973921 4.906835 26.258457 -0.949408 1.382824 0.032605 -0.005459 -183272.000000 0 0 1
14.911262 -20.265521 3.616035 25.418749 -0.936449 1.428054 0.045299 -0.006070 352816.000000 0 0 1
14.111262 -18.950421 3.594435 23.899082 -0.930734 1.419823 0.043680 -0.008168 184105.000000 0 1 0
14.922062 -17.976221 4.127135 23.724369 -0.877969 1.395945 0.033838 -0.002212 297480.000000 0 1 0
14.206862 -16.785521 3.953635 22.343229 -0.868410 1.392910 0.007022 -0.001167 666010.000000 0 1 0
15.222162 -15.620421 4.215635 22.214485 -0.798310 1.379869 0.010422 -0.004587 -357405.000000 0 1 0
15.517962 -15.490421 5.617635 22.634445 -0.784510 1.319985 0.013632 -0.014170 -55858.000000 0 1 0
16.520162 -14.556521 5.925135 22.801651 -0.722295 1.307924 0.025548 -0.014872 226153.000000 0 1 0
17.940562 -15.131521 5.616335 24.132342 -0.700665 1.335912 0.034448 -0.025567 -899989.000000 0 1 0
18.912862 -14.161621 5.535535 24.267056 -0.642721 1.340661 0.050543 -0.021856 1307.250000 0 1 0
20.222862 -14.709621 5.419435 25.587250 -0.628864 1.357378 0.062559 -0.018845 710987.000000 0 0 1
21.409762 -13.705821 5.342035 25.976235 -0.569432 1.363668 0.059256 -0.022431 175418.000000 0 0 1
21.538562 -12.885721 6.482835 25.922550 -0.539141 1.318029 0.068872 -0.027798 -458487.000000 0 0 1
22.704562 -12.155721 6.492535 26.559588 -0.491555 1.323842 0.070629 -0.025516 -851268.000000 0 0 1
22.816762 -11.274821 7.760635 26.607399 -0.458954 1.274822 0.072792 -0.026799 80929.000000 0 0 1
23.573062 -11.878021 8.817135 27.830172 -0.466748 1.248422 0.069142 -0.014737 537569.000000 0 0 1
23.384962 -11.095921 10.028935 27.758880 -0.443032 1.201148 0.070469 -0.024186 14405.200000 0 0 1
23.780362 -11.890921 11.288035 28.884587 -0.463673 1.169298 0.052174 -0.019216 -578752.000000 0 0 1
22.818462 -12.802721 11.671235 28.649775 -0.511301 1.151217 0.061889 -0.026229 -37364.000000 0 0 1
23.293862 -13.723921 12.657235 29.852229 -0.532414 1.132943 0.053387 -0.019865 137904.000000 0 0 1
22.253662 -14.865821 12.904135 29.710853 -0.588937 1.121509 0.035897 -0.022510 1018320.000000 0 0 1
21.022062 -14.302721 13.433435 28.756775 -0.597428 1.084743 0.035048 -0.025761 389814.000000 0 0 1
20.187662 -15.399521 13.666735 28.835162 -0.651655 1.077013 0.015803 -0.016421 -1216660.000000 0 0 1
18.796462 -14.956221 14.047535 27.826763 -0.672109 1.041622 0.026723 -0.016183 -994188.000000 0 0 1
18.680962 -14.349121 15.337435 28.108940 -0.654994 0.993641 0.023971 -0.020731 175256.000000 0 0 1
18.453862 -12.984421 15.316535 27.271532 -0.613148 0.974441 0.034210 -0.038188 -961939.000000 0 0 1
17.014862 -12.591121 15.570235 26.276873 -0.637075 0.936582 0.043670 -0.041946 -1253000.000000 0 0 1
16.118462 -12.963821 14.557735 25.294132 -0.677348 0.957534 0.052293 -0.044357 2713210.000000 0 0 1
14.672362 -12.654521 14.770935 24.363818 -0.711691 0.919441 0.061833 -0.036603 2704380.000000 0 1 0
14.276962 -11.199421 14.667635 23.332342 -0.665181 0.890994 0.043358 -0.029428 -908976.000000 0 1 0
14.848162 -10.369821 15.597435 23.901487 -0.609645 0.859823 0.025151 -0.025062 -49830.600000 0 1 0
14.513662 -9.063221 15.280935 22.941127 -0.558212 0.841837 0.019032 -0.024469 -616513.000000 0 1 0
15.223162 -8.126221 16.246835 23.701050 -0.490326 0.815520 0.026327 -0.017613 -389701.000000 0 1 0
16.622662 -8.017421 16.191235 24.550927 -0.449403 0.850648 0.026238 -0.032141 -196735.000000 0 1 0
17.249062 -8.909221 17.118135 25.883101 -0.476764 0.848161 0.041455 -0.027737 -2313920.000000 0 0 1
18.695062 -8.776321 16.886235 26.677220 -0.438907 0.885396 0.038738 -0.028752 -2090040.000000 0 0 1
19.182862 -7.500421 17.318135 26.910152 -0.372720 0.871664 0.030165 -0.034855 1567750.000000 0 0 1
20.531762 -7.295121 16.785235 27.504839 -0.341397 0.914402 0.030512 -0.021656 1608910.000000 0 0 1
21.159462 -5.856621 17.013835 27.775770 -0.270025 0.911523 0.026723 -0.021681 77762.800000 0 0 1
21.410262 -5.505121 18.328135 28.716305 -0.251674 0.878576 0.029660 -0.019902 325085.000000 0 0 1
22.244262 -4.367321 18.405835 29.200264 -0.193869 0.888817 0.029298 -0.019016 -109276.000000 0 0 1
-5.649789 -33.640043 -6.494399 34.723909 1.404401 1.758934 0.006864 0.004285 -153773.000000 0 0 1
-6.337489 -32.376343 -6.439599 33.613387 1.377496 1.763566 0.001429 0.001288 327754.000000 0 0 1
-5.795689 -31.536943 -5.434699 32.522373 1.389050 1.738690 -0.005013 -0.000169 -268078.000000 0 0 1
-6.487289 -30.165943 -5.452199 31.333616 1.358969 1.745691 0.005667 -0.001082 1001240.000000 0 0 1
-7.873489 -29.954343 -5.170099 31.400389 1.313761 1.736200 0.013648 -0.002471 602951.000000 0 0 1
-8.765789 -30.370843 -6.192399 32.211380 1.289808 1.764243 0.016520 -0.002159 -294106.000000 0 0 1
-10.231889 -30.197243 -5.754099 32.398684 1.244102 1.749346 0.025535 0.000479 290250.000000 0 0 1
-11.151689 -30.489343 -6.815699 33.172488 1.220154 1.777732 0.015598 -0.000754 427028.000000 0 0 1
-12.493289 -30.174843 -6.422999 33.284506 1.178254 1.764987 0.018728 -0.001023 968534.000000 0 0 1
-13.518589 -30.655343 -7.506799 34.334448 1.155463 1.791214 0.027244 -0.011501 311142.000000 0 0 1
-13.417989 -29.893143 -8.687999 33.898728 1.148887 1.829981 0.035206 -0.018837 300745.000000 0 0 1
-14.303989 -30.381343 -9.710699 34.956084 1.130768 1.852297 0.039682 -0.019589 166260.000000 0 0 1
-14.509789 -29.433843 -10.925299 34.586808 1.112794 1.892181 0.051909 -0.023975 -398489.000000 0 0 1
-15.153789 -28.205543 -10.646099 33.742101 1.077785 1.891794 0.057880 -0.025707 739876.000000 0 0 1
-14.215889 -27.188443 -10.184899 32.327003 1.089024 1.891315 0.042081 -0.017095 513431.000000 0 0 1
-14.825189 -25.842143 -9.758799 31.350227 1.049953 1.887339 0.043829 -0.004301 -203935.000000 0 0 1
-15.053389 -24.948143 -10.838799 31.088486 1.027890 1.926920 0.040754 -0.023038 38856.900000 0 0 1
-15.540189 -23.736243 -10.362299 30.204039 0.991122 1.920987 0.026018 -0.005773 -593329.000000 0 0 1
-16.095889 -22.904843 -11.500199 30.264898 0.958241 1.960576 0.044293 -0.000213 -104449.000000 0 0 1
-17.386389 -23.407243 -11.771799 31.444567 0.931933 1.954510 0.048343 -0.006392 -459061.000000 0 0 1
-18.063989 -22.847643 -12.838199 31.829889 0.901796 1.985958 0.047618 -0.011212 432185.000000 0 0 1
-19.446489 -23.544143 -13.089599 33.223940 0.880426 1.975755 0.043236 -0.004504 195786.000000 0 0 1
-19.454589 -24.954343 -13.506899 34.404020 0.908614 1.974249 0.064810 -0.011469 -224446.000000 0 0 1
-18.981889 -25.908643 -12.590999 34.497872 0.938494 1.944407 0.064711 -0.010620 -835360.000000 0 0 1
-19.085489 -27.300043 -13.126299 35.802905 0.960674 1.946177 0.065715 -0.014833 127071.000000 0 0 1
-18.215589 -27.718943 -14.183799 36.073919 0.989409 1.974892 0.070869 -0.022730 1897170.000000 0 0 1
-16.779889 -27.708243 -13.905599 35.251626 1.026275 1.976284 0.068011 -0.029238 1117020.000000 0 0 1
-16.059989 -28.977843 -14.266199 36.071638 1.064722 1.977404 0.062682 -0.024980 -406273.000000 0 0 1
-16.088789 -29.236043 -15.630099 36.849632 1.067718 2.008829 0.063100 -0.030963 -68153.300000 0 0 1
-15.454089 -30.451743 -16.069799 37.740906 1.101171 2.010634 0.061198 -0.023663 109357.000000 0 0 1
-16.099489 -31.835143 -15.705999 38.978819 1.102588 1.985520 0.067591 -0.023790 -181011.000000 0 0 1
-16.159589 -31.970943 -14.314699 38.576990 1.102801 1.950956 0.071643 -0.024174 172417.000000 0 0 1
-16.416089 -33.342043 -13.969699 39.703052 1.113284 1.930348 0.060212 -0.018908 -1398660.000000 0 0 1
-16.924289 -33.637743 -12.528399 39.684885 1.104645 1.891987 0.060702 -0.022508 -44513.600000 0 0 1
-18.275689 -33.315643 -12.284899 39.935594 1.069058 1.883485 0.062295 -0.019936 168077.000000 0 0 1
-18.741589 -31.962143 -12.531099 39.113351 1.040460 1.896926 0.069775 -0.024766 -821411.000000 0 0 1
-18.234589 -30.780643 -11.698499 37.640445 1.035981 1.886827 0.071989 -0.024298 -449407.000000 0 0 1
-18.519489 -30.943643 -10.348599 37.517650 1.031487 1.850252 0.052523 -0.018412 98109.700000 0 0 1
-18.058989 -29.931343 -9.504399 36.226316 1.027919 1.836265 0.051859 -0.019133 -273003.000000 0 0 1
-18.361589 -30.225643 -8.004099 36.260213 1.024892 1.793370 0.038664 -0.012800 370850.000000 0 0 1
-17.386989 -31.005843 -7.332299 36.296450 1.059726 1.774208 0.032419 -0.013701 124270.000000 0 0 1
-17.962589 -31.439743 -6.154299 36.728565 1.051722 1.739152 0.044892 -0.015239 473748.000000 0 0 1
-17.098889 -32.572343 -5.453199 37.189608 1.087388 1.717959 0.042352 -0.017591 850971.000000 0 0 1
-15.845989 -32.167243 -4.907299 36.192658 1.113076 1.706803 0.033491 -0.014832 453731.000000 0 0 1
-15.770089 -32.342043 -3.520399 36.153792 1.117115 1.668324 0.027078 -0.010480 327171.000000 0 0 1
-14.517189 -31.725943 -2.826899 35.003937 1.141656 1.651644 0.027666 -0.006079 -24791.700000 0 0 1
-13.299289 -32.387043 -2.947799 35.135184 1.181155 1.654794 0.014837 -0.005596 -181227.000000 0 0 1
-12.259289 -31.519043 -2.426099 33.906138 1.199853 1.642411 0.017781 0.000129 1126480.000000 0 0 1
-10.854389 -32.171043 -2.303499 34.030867 1.245394 1.638537 0.026722 -0.001880 37865.200000 0 0 1
-10.873989 -33.250443 -1.347499 35.009304 1.254727 1.609296 0.023991 -0.000226 832695.000000 0 0 1
-9.595489 -33.925943 -1.213499 35.277693 1.295159 1.605202 0.034422 -0.004298 864889.000000 0 0 1
-8.566789 -33.239443 -0.323399 34.327176 1.318556 1.580218 0.041803 -0.009299 -501861.000000 0 0 1
-8.918489 -33.125143 1.035601 34.320359 1.307796 1.540617 0.049962 -0.007817 -370526.000000 0 0 1
-7.839589 -32.713643 1.831901 33.689723 1.335589 1.516394 0.046344 -0.006661 118948.000000 0 0 1
-7.099589 -33.888543 2.561501 34.718854 1.364285 1.496951 0.049205 -0.018601 158057.000000 0 0 1
-7.876789 -34.425643 3.622401 35.500570 1.345862 1.468581 0.059739 -0.023578 76387.400000 0 0 1
-7.142089 33.580679 4.254901 34.594445 -1.361234 1.447490 0.065168 -0.015180 414123.000000 0 0 1
-6.116089 34.116279 5.345201 35.069904 -1.393409 1.417784 0.065407 -0.012700 302827.000000 0 0 1
-5.010289 -34.263243 4.792601 34.957715 1.425596 1.433266 0.057798 -0.019423 -1253270.000000 0 0 1
-4.059889 -33.911643 5.732001 34.631461 1.451644 1.404517 0.038505 -0.022095 124732.000000 0 0 1
-2.922289 -33.067143 5.076501 33.581938 1.482651 1.419047 0.046250 -0.016518 218209.000000 0 0 1
-3.438389 -31.887043 4.495501 32.385422 1.463381 1.431534 0.032673 -0.009488 191339.000000 0 0 1
-3.461989 -32.014243 3.078801 32.347738 1.463076 1.475474 0.031334 -0.004943 -167150.000000 0 0 1
-3.995089 -30.745443 2.402301 31.096850 1.441579 1.493467 0.013022 -0.002530 -43593.200000 0 0 1
-3.143789 -29.651543 2.566201 29.927960 1.465166 1.484945 0.002659 -0.005175 -136413.000000 0 0 1
-3.697489 -28.512543 1.901401 28.814091 1.441837 1.504760 0.001239 -0.003988 479306.000000 0 0 1
-3.081189 -27.161643 2.383301 27.439546 1.457840 1.483830 0.002490 0.000102 112988.000000 0 0 1
-3.526389 -26.045843 1.624001 26.333605 1.436223 1.509087 0.006441 -0.003586 -334377.000000 0 0 1
-3.233689 -24.813043 2.239801 25.122909 1.441205 1.481524 0.007382 0.001065 290807.000000 0 0 1
-4.271689 -24.327943 3.307801 24.920628 1.396980 1.437670 -0.003792 0.007037 129024.000000 0 1 0
-4.030989 -24.935143 4.563901 25.667868 1.410524 1.392040 -0.001066 0.009548 -114456.000000 0 0 1
-4.820989 -24.297843 5.531601 25.381602 1.374928 1.351096 -0.008595 0.015368 -144058.000000 0 0 1
-5.507789 -25.303543 6.434101 26.683379 1.356471 1.327269 0.003191 0.012413 95252.300000 0 0 1
-4.576189 -25.971443 7.305501 27.364716 1.396386 1.300551 -0.006777 0.008585 512764.000000 0 0 1
-5.336189 -26.798843 8.188601 28.525534 1.374247 1.279638 0.001398 0.004642 386119.000000 0 0 1
-4.524889 -27.537843 9.304001 29.417203 1.407936 1.248993 -0.002351 0.007899 -105164.000000 0 0 1
-4.070589 -26.616143 10.317001 28.834515 1.419035 1.204885 -0.001245 0.005097 -377400.000000 0 0 1
-5.025889 -26.087143 11.217301 28.837934 1.380471 1.171275 -0.000658 0.004180 -302543.000000 0 0 1
-4.579989 -24.952743 12.157901 28.132370 1.389270 1.123901 -0.011178 0.008102 124832.000000 0 0 1
-3.668889 -25.422243 13.146901 28.854674 1.427468 1.097723 -0.019044 0.010095 -3697.320000 0 0 1
-3.302989 -24.433243 14.115101 28.410019 1.436427 1.050848 -0.005081 0.004063 -32463.600000 0 0 1
-2.297289 -25.097943 15.076001 29.367841 1.479518 1.031712 0.008051 0.001329 -92720.700000 0 0 1
-2.886489 -25.844743 16.117801 30.595197 1.459572 1.015955 0.001835 0.006842 413719.000000 0 0 1
-1.910889 -26.450443 17.003801 31.502487 1.498678 1.000644 -0.005299 0.007816 733574.000000 0 0 1
-2.585289 -26.996443 18.295201 32.714004 1.475323 0.977319 0.009951 -0.005001 147378.000000 0 0 1
-2.875689 -25.931543 19.216801 32.403703 1.460352 0.935963 0.018486 -0.001196 -166700.000000 0 0 1
-2.451989 -26.295143 20.505301 33.435223 1.477816 0.910584 0.019318 -0.014949 133311.000000 0 0 1
-2.627789 -25.161043 21.527101 33.217457 1.466735 0.865754 0.025537 -0.017655 -30514.400000 0 0 1
-2.219389 -25.435843 22.835501 34.254458 1.483762 0.841100 -0.003237 -0.020918 -185252.000000 0 0 1
-2.413389 -24.347543 23.714801 34.073730 1.471997 0.801006 0.003632 -0.016236 118930.000000 0 0 1
-1.485689 -23.127143 23.583101 33.064099 1.506644 0.776666 0.005151 -0.015297 -31610.700000 0 0 1
-1.976089 -22.237143 22.629901 31.788487 1.482165 0.778611 0.022658 -0.010472 -768939.000000 0 0 1
-1.000989 -21.298543 22.337101 30.880026 1.523833 0.762153 0.023351 -0.009546 -869115.000000 0 0 1
-1.404889 -20.001243 21.536501 29.425233 1.500671 0.749682 0.020228 0.004624 -490659.000000 0 0 1
-2.136389 -19.039643 22.265001 29.373499 1.459056 0.710561 0.019390 -0.008828 -156514.000000 0 0 1
-3.474189 -19.320243 22.572801 29.914430 1.392877 0.715784 0.029948 -0.011532 -328924.000000 0 0 1
-4.645689 -19.159943 21.564001 29.218008 1.332918 0.740638 0.027662 -0.008821 106334.000000 0 0 1
-4.690089 -20.105743 20.474001 29.076151 1.341623 0.789570 0.032721 -0.006200 -201435.000000 0 0 1
-5.194289 -21.369543 20.872901 30.320224 1.332351 0.811495 0.023375 -0.005551 -41382.700000 0 0 1
-5.049789 -22.205743 19.622301 30.060441 1.347190 0.859572 0.017305 0.000316 167945.000000 0 0 1
-5.692089 -23.481643 19.693301 31.170716 1.332978 0.886938 0.015360 -0.003749 -46383.100000 0 0 1
-5.431789 -24.013643 18.395601 30.733655 1.348344 0.929108 0.020340 -0.004772 139205.000000 0 0 1
-6.092489 -25.382443 18.138501 31.786665 1.335225 0.963521 0.017406 -0.011618 999699.000000 0 0 1
-7.524689 -25.354043 18.043901 32.016102 1.282292 0.972073 0.036805 -0.013494 405291.000000 0 0 1
-8.054389 -26.680843 17.965501 33.158706 1.277616 0.998215 0.047076 -0.010173 1206150.000000 0 0 1
-9.618189 -26.807943 18.116801 33.754909 1.226320 1.004256 0.039297 -0.012432 510640.000000 0 0 1
-10.255789 -26.146643 17.012201 32.836613 1.196996 1.026184 0.048534 -0.014346 -280214.000000 0 0 1
-11.657589 -26.227443 17.042401 33.379958 1.152542 1.034963 0.049834 -0.019747 185210.000000 0 0 1
-12.419389 -25.352343 18.076601 33.522321 1.115284 1.001261 0.049161 -0.025853 -677016.000000 0 0 1
-12.410989 -23.947743 17.743201 32.285418 1.092653 0.988943 0.039820 -0.022787 -74811.100000 0 0 1
-12.686489 -23.098943 18.805601 32.375281 1.068549 0.951008 0.032799 -0.015117 181671.000000 0 0 1
-11.407389 -22.559843 19.514801 31.935912 1.102639 0.913396 0.021619 -0.016145 303941.000000 0 0 1
-10.732489 -23.429543 20.382801 32.857090 1.141248 0.901611 0.023393 -0.020789 -612235.000000 0 0 1
-9.363689 -23.293043 20.117601 32.170831 1.188571 0.895233 0.032465 -0.024392 -199352.000000 0 0 1
-8.506889 -24.164443 21.085601 33.179663 1.232304 0.882143 0.027531 -0.025319 10282.000000 0 0 1
-8.579489 -23.793643 22.436701 33.810511 1.224728 0.845174 0.021968 -0.020517 -6970.010000 0 0 1
-7.716489 -24.606943 23.197601 34.686806 1.266919 0.838239 0.020133 -0.016818 96321.800000 0 0 1
-7.748089 -24.219443 24.626901 35.399132 1.261173 0.801413 0.017740 -0.020390 -622225.000000 0 0 1
-6.948889 -25.061643 25.364201 36.327891 1.300319 0.797914 0.023397 -0.018620 -497642.000000 0 0 1
-6.738189 -24.537943 26.596601 36.808872 1.302799 0.763299 0.032171 -0.017336 30372.600000 0 0 1
-5.492289 -25.114043 27.320901 37.514158 1.355492 0.754984 0.018869 -0.015411 -355247.000000 0 0 1
-4.285489 -24.681343 26.785101 36.673911 1.398878 0.751950 0.020110 -0.008469 -1070220.000000 0 0 1
-3.292789 -24.670443 27.759001 37.283178 1.438110 0.730943 0.020168 -0.005138 97554.600000 0 0 1
-1.964089 -23.984743 27.349301 36.429518 1.489090 0.721606 0.004302 -0.001367 -418166.000000 0 0 1
-2.068889 -22.586743 27.316001 35.505002 1.479454 0.692963 0.005955 -0.003168 -602465.000000 0 0 1
-0.839789 -21.996443 27.005501 34.840290 1.532636 0.683887 0.008241 -0.005581 136443.000000 0 0 1
0.173611 -21.835443 28.197401 35.663849 -1.562846 0.658937 0.014102 -0.002557 -128568.000000 0 0 1
0.740311 -23.092743 28.546001 36.724610 -1.538749 0.680435 0.013925 0.001247 -91308.400000 0 0 1
1.720611 -22.789243 29.522201 37.334574 -1.495438 0.658768 0.006376 -0.007994 -142112.000000 0 0 1
2.217611 -24.005743 30.254501 38.684988 -1.478679 0.672810 0.019761 -0.016964 -778700.000000 0 0 1
2.866111 -24.886443 29.382601 38.612004 -1.456134 0.705988 0.011965 -0.015786 617626.000000 0 0 1
3.766511 -25.772243 30.078901 39.788634 -1.425678 0.713666 0.011564 -0.003220 1088850.000000 0 0 1
5.134811 -25.237343 30.700201 40.072336 -1.370075 0.698015 0.001081 -0.007726 1144980.000000 0 0 1
6.166011 -24.766443 29.839201 39.265434 -1.326791 0.707582 0.017893 -0.014220 324694.000000 0 0 1
6.685111 -25.671843 28.902401 39.231149 -1.316048 0.742588 0.016627 -0.006492 381867.000000 0 0 1
7.953711 -25.179043 28.062401 38.532377 -1.264830 0.754986 0.021749 -0.013081 947995.000000 0 0 1
7.684811 -24.045143 27.237901 37.136619 -1.261457 0.747411 0.033504 -0.013769 -365498.000000 0 0 1
8.707411 -23.770843 26.344501 36.536348 -1.219669 0.765481 0.026393 -0.004750 -420896.000000 0 0 1
8.337811 -22.568643 25.457101 35.027514 -1.216907 0.757182 0.038811 -0.004202 -142234.000000 0 0 1
7.413411 -22.854443 24.450301 34.279753 -1.257130 0.776661 0.023188 0.000842 -158757.000000 0 0 1
7.241811 -21.765643 23.523201 32.856172 -1.249600 0.772820 0.030565 0.013363 181663.000000 0 0 1
6.311911 -22.117943 22.369901 32.085138 -1.292810 0.799306 0.018613 0.011401 477188.000000 0 0 1
7.087111 -23.004143 21.506801 32.279409 -1.271943 0.841601 0.011831 0.008076 1380840.000000 0 0 1
6.409311 -23.048443 20.240501 31.336686 -1.299569 0.868589 0.008405 0.002633 65852.200000 0 0 1
7.205711 -24.049643 19.416201 31.737934 -1.279690 0.912505 0.036262 -0.014993 64624.600000 0 0 1
8.384811 -23.445443 18.953601 31.292696 -1.227340 0.920166 0.063034 -0.013614 -480117.000000 0 0 1
9.202211 -24.360243 18.244501 31.795659 -1.209612 0.959652 0.044520 -0.015396 153783.000000 0 0 1
10.550311 -23.816443 17.745101 31.518576 -1.153792 0.972780 0.057345 -0.016089 2429.910000 0 0 1
10.501911 -22.897743 16.634901 30.188023 -1.140777 0.987183 0.085930 -0.013002 -674980.000000 0 0 1
11.779711 -22.492443 16.225601 30.132071 -1.088354 1.002161 0.068716 -0.017369 28343.100000 0 0 1
-12.236189 22.519679 11.534501 28.105248 -1.073069 1.147899 0.009980 -0.008118 108151.000000 0 0 1
-13.172989 21.446479 11.366201 27.616474 -1.019982 1.146617 0.005581 -0.012010 371502.000000 0 0 1
-12.601289 20.324879 10.706201 26.201449 -1.015805 1.149865 0.014419 -0.015899 -123491.000000 0 0 1
-13.445889 19.808679 9.548401 25.774942 -0.974449 1.191300 0.022803 -0.013920 -536549.000000 0 0 1
-13.667289 20.768179 8.550501 26.291122 -0.988756 1.239548 0.024451 -0.017355 174904.000000 0 0 1
-14.358589 20.220879 7.408501 25.883178 -0.953332 1.280508 0.024083 -0.014733 2440880.000000 0 0 1
-15.962089 20.030879 7.518701 26.693731 -0.897964 1.285267 0.020300 -0.016400 1719720.000000 0 0 1
-16.413489 19.134779 8.471301 26.595212 -0.861801 1.246621 0.014823 -0.014680 -66642.900000 0 0 1
-17.813789 19.306179 8.609901 27.643987 -0.825581 1.254071 0.018359 -0.011520 27520.500000 0 0 1
-18.431089 18.260379 9.555801 27.648866 -0.780746 1.217905 0.012580 -0.012433 -264010.000000 0 0 1
-18.455789 16.930879 9.017601 26.619315 -0.742332 1.225196 0.013482 -0.014197 -21659.600000 0 0 1
-18.929489 15.918379 9.884901 26.635157 -0.699205 1.190579 0.018024 -0.020513 -701268.000000 0 0 1
-17.971589 15.342879 10.926201 26.033897 -0.706655 1.137691 0.026299 -0.011663 -197424.000000 0 0 1
-17.020989 14.442779 10.377901 24.617245 -0.703639 1.135620 0.018987 0.005212 -111854.000000 0 1 0
-16.407589 13.549779 11.245201 24.067821 -0.690290 1.084641 0.009776 0.005130 695409.000000 0 1 0
-17.349689 12.398179 11.880001 24.410263 -0.620461 1.062510 0.023271 -0.001161 559761.000000 0 1 0
-18.081689 11.592179 10.999301 24.131115 -0.570093 1.097510 0.015774 -0.001017 -289032.000000 0 1 0
-19.045089 10.877579 11.733201 24.873784 -0.518935 1.079568 0.028344 -0.002917 127223.000000 0 1 0
-20.154689 10.235179 10.838301 25.068688 -0.469893 1.123705 0.038896 -0.003366 -324946.000000 0 0 1
-19.809889 9.106079 10.125601 24.039138 -0.430869 1.136014 0.043225 -0.006944 466499.000000 0 1 0
-19.046789 9.283379 8.911201 22.986317 -0.453516 1.172689 0.032608 -0.001447 12258.100000 0 1 0
-19.906989 9.548679 7.654401 23.367827 -0.447247 1.237075 0.040441 -0.004692 -127117.000000 0 1 0
-20.398289 8.356479 7.154601 23.175617 -0.388811 1.256957 0.023740 -0.009971 168471.000000 0 1 0
-20.965289 8.494879 5.871901 23.370612 -0.384971 1.316823 0.016195 -0.012252 -54540.900000 0 1 0
-21.345289 7.070379 5.362401 23.116379 -0.319864 1.336690 0.035984 -0.008338 -297531.000000 0 1 0
-22.347389 6.430579 6.113301 24.044346 -0.280186 1.313723 0.048610 -0.015323 309218.000000 0 1 0
-22.363189 5.007379 5.826801 23.646092 -0.220278 1.321815 0.065613 -0.018896 159032.000000 0 1 0
-23.607189 4.267679 6.432901 24.837364 -0.178847 1.308809 0.111767 -0.012400 630696.000000 0 1 0
-24.762789 4.376879 5.605401 25.763798 -0.174945 1.351473 0.113211 -0.022429 360647.000000 0 0 1
-25.216109 3.084679 5.234801 25.937820 -0.121725 1.367579 0.078036 -0.025499 -150478.000000 0 0 1
-26.322629 3.264679 4.177401 26.851249 -0.123395 1.414586 0.067995 -0.026077 -275978.000000 0 0 1
-25.675549 3.378779 2.994301 26.069442 -0.130843 1.455684 0.056238 -0.023007 25853.600000 0 0 1
-26.564789 2.968079 2.009001 26.805477 -0.111268 1.495779 0.044934 -0.019527 -300115.000000 0 0 1
-25.985899 2.906879 0.568401 26.154158 -0.111401 1.549062 0.049565 -0.021096 -243739.000000 0 0 1
-25.653979 4.223579 0.139401 25.999705 -0.163173 1.565435 0.050293 -0.023279 405853.000000 0 0 1
-25.541899 4.282379 -1.304499 25.931238 -0.166116 1.621124 0.066924 -0.019687 -346144.000000 0 0 1
-26.817619 4.745079 -2.041599 27.310595 -0.175126 1.645621 0.057648 -0.024969 232812.000000 0 0 1
-27.889549 3.833579 -1.820199 28.210572 -0.136600 1.635363 0.044574 -0.018868 -61762.100000 0 0 1
-29.123239 4.423679 -2.090999 29.531411 -0.150743 1.641662 0.037451 -0.006827 -401736.000000 0 0 1
-30.274039 3.412979 -2.321899 30.554166 -0.112262 1.646863 0.037516 -0.006773 -204711.000000 0 0 1
-30.144059 2.790879 -3.549199 30.480323 -0.092322 1.687503 0.039081 -0.005363 422668.000000 0 0 1
-30.995429 1.669879 -3.595099 31.247877 -0.053823 1.686103 0.051282 -0.010696 -131681.000000 0 0 1
-31.008899 1.054279 -5.038999 31.433339 -0.033986 1.731798 0.048141 -0.009795 560419.000000 0 0 1
-29.767799 0.398579 -5.402199 30.256643 -0.013389 1.750305 0.049236 -0.010740 1194960.000000 0 0 1
-29.808499 -0.285921 -6.662499 30.545331 0.009592 1.790682 0.047204 -0.010569 -162767.000000 0 0 1
-30.275329 0.507879 -7.946499 31.304957 -0.016774 1.827446 0.048536 -0.010890 279990.000000 0 0 1
-31.674629 0.752579 -8.040599 32.687914 -0.023755 1.819328 0.041980 -0.012034 561717.000000 0 0 1
-32.118809 1.560179 -9.086099 33.415704 -0.048537 1.846175 0.055466 -0.017652 -775761.000000 0 0 1
-33.630909 1.670479 -9.110099 34.882982 -0.049630 1.835022 0.070832 -0.017513 -531753.000000 0 0 1
-34.218759 2.473179 -8.095699 35.250254 -0.072150 1.802528 0.060835 -0.007545 348498.000000 0 0 1
35.365337 2.639379 -8.153299 36.388867 0.074494 1.796775 0.063652 -0.007198 -59747.800000 0 0 1
34.880502 3.455079 -6.955799 35.734719 0.098733 1.766698 0.066861 -0.007954 89498.100000 0 0 1
33.486432 3.491379 -6.696999 34.327549 0.103887 1.767147 0.063077 -0.012864 577807.000000 0 0 1
33.164812 4.169279 -5.454399 33.867951 0.125058 1.732550 0.058261 -0.019600 553424.000000 0 0 1
31.726742 3.784779 -4.993999 32.339615 0.118732 1.725840 0.052626 -0.020457 314874.000000 0 0 1
31.825992 2.594379 -4.278799 32.216963 0.081338 1.704002 0.061032 -0.026484 -34229.400000 0 0 1
30.636562 1.851479 -4.239299 30.983843 0.060360 1.708050 0.056538 -0.026066 -633915.000000 0 0 1
30.790872 0.555379 -3.464499 30.990143 0.018035 1.682824 0.075892 -0.020910 -105783.000000 0 0 1
31.691522 -0.401421 -4.034599 31.949831 -0.012666 1.697414 0.059665 -0.020156 397220.000000 0 0 1
31.744742 -1.618521 -3.307699 31.957614 -0.050941 1.674485 0.067464 -0.015057 172179.000000 0 0 1
32.727522 -2.673821 -3.876499 33.064592 -0.081518 1.688307 0.048154 -0.009682 189527.000000 0 0 1
32.647702 -3.918021 -3.184599 33.035814 -0.119438 1.667345 0.044481 -0.014317 29276.100000 0 0 1
33.714622 -4.755321 -3.575599 34.235562 -0.140122 1.675428 0.048996 -0.019086 114950.000000 0 0 1
33.552112 -6.207921 -2.895599 34.244226 -0.182954 1.655455 0.052265 -0.015674 76379.400000 0 0 1
33.518172 -6.159221 -1.465099 34.110854 -0.181730 1.613761 0.056948 -0.020341 -32832.800000 0 0 1
33.846542 -7.418621 -0.873499 34.661035 -0.215772 1.596000 0.055043 -0.019918 -188243.000000 0 0 1
33.361262 -7.554621 0.580201 34.210857 -0.222693 1.553836 0.045132 -0.017559 128949.000000 0 0 1
31.948602 -7.617221 0.674001 32.851020 -0.234052 1.550278 0.042092 -0.019813 96581.100000 0 0 1
31.422992 -7.762821 1.960901 32.427009 -0.242193 1.510288 0.039361 -0.029257 -362835.000000 0 0 1
31.183272 -9.262121 2.402801 32.618350 -0.288723 1.497065 0.042182 -0.029483 -38511.700000 0 0 1
30.025182 -9.921221 1.890601 31.678329 -0.319135 1.511080 0.038041 -0.037484 1202740.000000 0 0 1
28.752182 -9.590621 2.489701 30.411619 -0.321956 1.488838 0.037354 -0.040998 -1096020.000000 0 0 1
27.735922 -10.580721 2.017901 29.754074 -0.364440 1.502925 0.046259 -0.037929 -1586460.000000 0 0 1
26.476372 -10.336121 2.617801 28.542714 -0.372195 1.478952 0.064865 -0.037280 696371.000000 0 0 1
25.663662 -9.318221 2.029701 27.378321 -0.348288 1.496593 0.071776 -0.035352 -582269.000000 0 0 1
25.111362 -9.562121 0.572601 26.876431 -0.363836 1.549490 0.059541 -0.028210 -86612.100000 0 0 1
26.186292 -9.620921 -0.383999 27.900385 -0.352094 1.584560 0.055124 -0.035743 944268.000000 0 0 1
25.694662 -9.790421 -1.710899 27.549867 -0.364046 1.632938 0.046923 -0.020134 -575597.000000 0 0 1
25.143062 -11.145021 -2.075099 27.580629 -0.417238 1.646105 0.043530 -0.010359 -250506.000000 0 0 1
23.746562 -11.218921 -1.824299 26.326630 -0.441361 1.640147 0.053629 -0.005456 446717.000000 0 0 1
23.329362 -12.587321 -1.788099 26.568724 -0.494784 1.638148 0.043783 -0.002035 632382.000000 0 0 1
21.844962 -12.814721 -1.354799 25.362471 -0.530524 1.624239 0.055690 -0.003901 407273.000000 0 0 1
20.857862 -12.576821 -2.308399 24.465395 -0.542606 1.665291 0.038725 0.004596 -7398.290000 0 1 0
19.582362 -12.953021 -1.813699 23.548655 -0.584392 1.647892 0.049238 0.008151 71917.400000 0 1 0
18.417462 -12.509521 -2.711099 22.428577 -0.596644 1.691970 0.037969 0.007553 -189325.000000 0 1 0
18.369562 -13.136221 -3.979599 22.931165 -0.620794 1.745225 0.028200 -0.002631 123953.000000 0 1 0
17.552962 -12.407721 -4.865499 22.039308 -0.615324 1.793395 0.039236 -0.007580 -303093.000000 0 1 0
17.604462 -12.967521 -6.313499 22.758162 -0.634873 1.851901 0.030239 -0.010663 -182556.000000 0 1 0
16.840362 -14.141121 -6.600199 22.959349 -0.698493 1.862384 0.033119 -0.013619 282507.000000 0 1 0
16.844462 -14.420121 -7.946099 23.554538 -0.708010 1.914896 0.035964 -0.020965 -414574.000000 0 1 0
15.866462 -15.545421 -8.295699 23.711250 -0.775178 1.928222 0.028029 -0.021330 -753157.000000 0 1 0
14.537062 -15.130121 -8.370399 22.590049 -0.805386 1.950381 0.028246 -0.014866 -305930.000000 0 1 0
13.667762 -15.990521 -9.081499 22.912401 -0.863556 1.978342 0.025936 -0.016207 -872.532000 0 1 0
13.545762 -15.789121 -10.600899 23.348727 -0.861724 2.042074 0.026691 -0.026654 -470229.000000 0 1 0
12.733362 -14.757821 -11.174999 22.468031 -0.858906 2.091365 0.014542 -0.021646 396688.000000 0 1 0
13.241762 -13.448421 -10.937899 21.813801 -0.793141 2.096037 0.020805 -0.011287 -49713.500000 0 1 0
13.200562 -12.572421 -12.230499 21.952351 -0.761031 2.161732 0.034941 -0.009378 252464.000000 0 1 0
14.427562 -12.621221 -12.964299 23.141366 -0.718716 2.165450 0.027534 -0.013094 436808.000000 0 1 0
14.258262 -12.128821 -14.289299 23.549743 -0.704873 2.222788 0.039033 -0.005707 -514252.000000 0 1 0
15.527662 -12.041321 -15.128299 24.798531 -0.659607 2.226918 0.028094 -0.009859 -491646.000000 0 1 0
16.084962 -13.269421 -15.510499 25.988057 -0.689775 2.210343 0.020310 -0.012717 121966.000000 0 0 1
17.223062 -13.015121 -16.333099 27.070230 -0.647126 2.218504 0.023945 -0.004895 69309.700000 0 0 1
18.250262 -14.160121 -16.200599 28.214190 -0.659863 2.182423 0.023863 -0.009534 -409416.000000 0 0 1
19.000762 -14.064421 -15.029399 28.012849 -0.637201 2.137102 0.019575 -0.018818 717895.000000 0 0 1
20.143362 -14.942921 -14.979199 29.213393 -0.638251 2.109182 0.009313 -0.010567 653968.000000 0 0 1
21.159762 -14.716421 -13.847499 29.258534 -0.607693 2.063808 0.006635 -0.017928 -343121.000000 0 0 1
21.723462 -13.425921 -13.953399 29.100885 -0.553577 2.070863 0.012289 -0.014582 62893.200000 0 0 1
22.825062 -13.214021 -13.099299 29.448013 -0.524780 2.031778 0.006419 -0.010082 -78297.900000 0 0 1
23.539162 -11.868821 -13.088599 29.432507 -0.467015 2.031634 0.011617 -0.011367 -473717.000000 0 0 1
22.701362 -10.749421 -12.777999 28.181184 -0.442236 2.041398 0.017444 -0.014730 379105.000000 0 0 1
23.264262 -9.446321 -13.004299 28.276680 -0.385706 2.048673 0.024998 -0.014836 -538082.000000 0 0 1
24.367262 -8.996421 -12.052999 28.635185 -0.353677 2.005251 0.029967 -0.009579 -695133.000000 0 0 1
25.538062 -9.730821 -12.287499 29.964381 -0.364049 1.993327 0.010946 -0.002965 -224244.000000 0 0 1
26.476992 -9.415421 -11.256599 30.271972 -0.341662 1.951796 0.006888 0.001949 -33407.100000 0 0 1
27.852242 -10.093621 -11.491799 31.775620 -0.347678 1.940838 -0.000742 0.006126 -338191.000000 0 0 1
28.549722 -9.456021 -12.462999 32.555020 -0.319840 1.963653 -0.003270 0.003490 227944.000000 0 0 1
29.707282 -10.200321 -12.892699 33.952774 -0.330748 1.960295 0.000276 0.004560 642727.000000 0 0 1
30.331122 -9.722721 -14.221799 34.882199 -0.310204 1.990740 0.006581 0.006594 215118.000000 0 0 1
29.568182 -10.220221 -15.329499 34.838540 -0.332794 2.026412 -0.002861 0.000259 719249.000000 0 0 1
30.113152 -9.638621 -16.502799 35.665772 -0.309776 2.051843 0.005130 -0.001569 -160272.000000 0 0 1
29.712632 -10.416921 -17.807999 36.172884 -0.337199 2.085529 -0.002702 0.000388 -161797.000000 0 0 1
28.440772 -10.186121 -18.338699 35.340380 -0.343919 2.116379 -0.005396 -0.001382 -254801.000000 0 0 1
28.291192 -8.907321 -18.914799 35.178140 -0.305019 2.138487 -0.001725 -0.000782 -523218.000000 0 0 1
26.897572 -8.552621 -19.454499 34.279793 -0.307860 2.174288 -0.019180 0.003328 -243800.000000 0 0 1
26.481092 -9.177621 -20.664699 34.821068 -0.333618 2.206140 -0.015180 0.010474 -9508.470000 0 0 1
25.150562 -8.915021 -21.015899 33.966106 -0.340648 2.237923 -0.006483 0.016357 -302429.000000 0 0 1
24.663962 -9.642621 -22.309199 34.626457 -0.372689 2.270880 -0.001286 0.016776 -8693.830000 0 0 1
24.469562 -11.034621 -22.382499 34.949944 -0.423646 2.265836 -0.001999 0.015762 253936.000000 0 0 1
23.932362 -11.463021 -23.611299 35.519744 -0.446687 2.297938 0.003541 0.011044 -1097460.000000 0 0 1
24.004462 -12.988121 -23.789299 36.205472 -0.495962 2.287713 0.001746 0.025157 717086.000000 0 0 1
25.210062 -13.572821 -24.286399 37.544612 -0.493885 2.274266 0.001719 0.021287 1111040.000000 0 0 1
26.462522 -13.205221 -23.699799 37.898858 -0.462860 2.246368 -0.010126 0.021801 -716124.000000 0 0 1
27.684762 -13.822121 -24.301899 39.345640 -0.463062 2.236550 -0.011819 0.017639 -689929.000000 0 0 1
28.112832 -13.293021 -25.581569 40.267262 -0.441689 2.259186 -0.006469 -0.000215 571036.000000 0 0 1
29.475302 -13.644621 -25.813149 41.488405 -0.433544 2.242317 -0.018792 -0.005315 198442.000000 0 0 1
30.057772 -13.081521 -27.120029 42.545174 -0.410489 2.261969 -0.011252 -0.002064 -214163.000000 0 0 1
29.824252 -13.810821 -28.288389 43.364245 -0.433673 2.281469 -0.005158 -0.008614 162498.000000 0 0 1
30.368312 -13.123121 -29.417149 44.269847 -0.407896 2.297616 -0.003304 -0.006177 26038.500000 0 0 1
30.445992 -13.926121 -30.701019 45.425190 -0.428994 2.312926 -0.002820 -0.009802 33254.400000 0 0 1
31.190132 -15.085021 -30.380179 46.079686 -0.450480 2.290679 0.003321 -0.018551 -40140.900000 0 0 1
31.504592 -15.937421 -31.500249 47.316027 -0.468337 2.299284 -0.013914 -0.016089 -147789.000000 0 0 1
30.344712 -16.688421 -32.197259 47.286028 -0.502814 2.319793 -0.025498 -0.001192 -94914.900000 0 0 1
29.648662 -15.830221 -33.094179 47.168461 -0.490419 2.348460 -0.027666 -0.003668 -209942.000000 0 0 1
28.544012 -16.577421 -33.535619 47.055385 -0.526158 2.364113 -0.008731 0.000875 -256173.000000 0 0 1
27.681712 -15.849321 34.238949 46.795125 -0.519995 0.750016 0.013696 -0.003798 84732.400000 0 0 1
26.950262 -14.723821 -34.119433 45.904719 -0.500024 2.408736 0.019742 -0.007322 223188.000000 0 0 1
27.733602 -13.559321 -34.046149 45.958113 -0.454739 2.405069 0.010890 -0.011054 -212368.000000 0 0 1
26.848262 -12.305021 -33.706679 44.814986 -0.429749 2.422084 0.018980 -0.005451 914052.000000 0 0 1
25.791362 -11.993621 34.238939 44.512315 -0.435278 0.693206 0.018813 -0.008432 47398.800000 0 0 1
25.064662 -10.869021 -34.227828 43.794031 -0.409165 2.467965 -0.008584 -0.011711 -157138.000000 0 0 1
19.750111 -29.882543 9.250101 36.994562 -0.986779 1.318075 0.006875 -0.003512 -55797.900000 0 0 1
20.386811 -29.499543 8.072701 36.756137 -0.966076 1.349363 -0.002908 -0.008737 -180376.000000 0 0 1
21.641311 -30.105243 7.924801 37.914041 -0.947528 1.360223 0.018874 -0.007801 -155638.000000 0 0 1
22.255511 -29.955743 6.485301 37.877611 -0.931825 1.398731 0.016470 -0.006260 -25669.600000 0 0 1
22.589411 -28.605043 6.206001 36.973564 -0.902367 1.402148 0.022512 -0.004029 -6437.530000 0 0 1
23.320311 -28.645243 5.007201 37.275447 -0.887512 1.436059 0.029641 -0.007663 -91253.000000 0 0 1
23.465911 -27.287643 4.311401 36.247105 -0.860556 1.451569 0.029178 -0.005815 73758.000000 0 0 1
24.237311 -26.334843 5.029901 36.142373 -0.826850 1.431174 0.032239 -0.006876 191852.000000 0 0 1
24.082511 -25.028043 4.590101 35.034830 -0.804649 1.439403 0.026234 -0.002381 -90390.200000 0 0 1
24.744711 -24.026943 5.614801 34.944538 -0.770682 1.409419 0.011065 -0.001252 -738280.000000 0 0 1
26.093711 -23.940943 5.323601 35.810491 -0.742399 1.421583 0.003586 0.001088 -781667.000000 0 0 1
26.892911 -23.200043 6.256001 36.063946 -0.711811 1.396445 0.021569 -0.001096 341944.000000 0 0 1
26.636911 -21.690843 6.526801 34.965938 -0.683409 1.383033 0.006715 0.009512 -363787.000000 0 0 1
26.920611 -20.852343 5.405701 34.478415 -0.659052 1.413362 0.015034 0.017076 185911.000000 0 0 1
26.818011 -19.474143 5.777401 33.642627 -0.628068 1.398212 0.013572 0.004264 -95521.600000 0 0 1
26.840311 -18.450243 4.625601 32.896960 -0.602225 1.429720 0.014511 0.016582 130438.000000 0 0 1
28.096011 -18.524743 3.974301 33.887269 -0.582911 1.453246 0.025001 0.014868 201480.000000 0 0 1
28.087211 -17.762943 2.831501 33.353125 -0.563918 1.485799 0.013609 0.011210 531844.000000 0 0 1
29.208411 -16.676843 2.632001 33.736861 -0.518793 1.492701 0.018423 -0.004632 396960.000000 0 0 1
28.861011 -15.494843 3.285001 32.921716 -0.492713 1.470848 0.023652 -0.014311 578264.000000 0 0 1
30.028511 -14.707643 3.588901 33.628953 -0.455446 1.463872 0.032604 -0.016463 791132.000000 0 0 1
29.712111 -13.482043 4.476901 32.933534 -0.425973 1.434437 0.042919 -0.022177 56201.000000 0 0 1
29.479011 -13.806543 5.854501 33.074279 -0.438010 1.392848 0.039262 -0.016256 21368.500000 0 0 1
29.317911 -12.653743 6.623301 32.611735 -0.407451 1.366278 0.028122 -0.019463 -475332.000000 0 0 1
28.813911 -12.928543 8.057901 32.593227 -0.421765 1.320980 0.038385 -0.012527 -607079.000000 0 0 1
27.420711 -13.084643 8.069201 31.435892 -0.445226 1.311203 0.031145 -0.004688 -412307.000000 0 0 1
26.771311 -13.220543 9.332401 31.282256 -0.458701 1.267855 0.036095 0.001382 126466.000000 0 0 1
27.155611 -14.318643 10.370101 32.403545 -0.485234 1.245035 0.029841 0.002071 1365130.000000 0 0 1
28.506111 -14.241943 10.958601 33.697511 -0.463336 1.239568 0.018437 -0.001069 1793810.000000 0 0 1
28.740911 -15.535643 11.555901 34.654509 -0.495552 1.230825 0.019404 -0.006372 -228229.000000 0 0 1
29.507011 -15.507243 12.869101 35.731667 -0.483874 1.202357 0.018746 -0.007467 -419755.000000 0 0 1
30.885611 -15.233043 12.819301 36.746443 -0.458200 1.214444 0.021521 -0.007575 -361647.000000 0 0 1
31.338111 -15.338943 14.101501 37.632602 -0.455185 1.186707 0.031137 -0.007935 -728119.000000 0 0 1
32.854711 -15.220543 14.204301 38.895490 -0.433833 1.196958 0.024463 -0.016436 -763625.000000 0 0 1
33.347411 -13.964943 13.870701 38.722936 -0.396583 1.204453 0.020934 -0.020077 -294878.000000 0 0 1
34.715411 -13.922643 14.166401 39.996083 -0.381412 1.208744 0.024128 -0.029813 -306286.000000 0 0 1
35.456411 -12.569643 13.893901 40.102288 -0.340687 1.217000 0.028131 -0.032151 203972.000000 0 0 1
-34.513440 -12.668243 12.889201 38.958868 0.351785 1.233601 0.031987 -0.029314 393801.000000 0 0 1
-33.840340 -11.429443 12.779101 37.935553 0.325717 1.227213 0.036080 -0.025846 459521.000000 0 0 1
-32.637940 -11.415843 11.738401 36.515019 0.336472 1.243517 0.040113 -0.023779 729491.000000 0 0 1
-31.524540 -12.170043 12.134401 35.904738 0.368423 1.226047 0.026540 -0.021011 -253766.000000 0 0 1
-31.659540 -13.515943 11.777001 36.382756 0.403492 1.241162 0.020270 -0.019830 -362008.000000 0 0 1
-30.541840 -14.504443 12.222601 35.952396 0.443370 1.223915 0.012211 -0.018062 440371.000000 0 0 1
-29.282440 -14.229143 11.631801 34.572078 0.452326 1.227651 0.023513 -0.017698 -181344.000000 0 0 1
-28.457940 -15.367143 11.787601 34.423117 0.495129 1.221291 0.018538 -0.012758 1321000.000000 0 0 1
-27.029840 -15.307843 11.074301 32.978515 0.515295 1.228338 0.021930 -0.006799 1321730.000000 0 0 1
-27.088940 -15.340443 9.678501 32.600816 0.515271 1.269374 0.017787 -0.009743 483400.000000 0 0 1
-25.795540 -15.112743 9.120801 31.256901 0.529962 1.274687 0.020913 -0.010116 466771.000000 0 0 1
-25.864140 -14.976543 7.568601 30.830736 0.524870 1.322772 0.031770 -0.000167 39068.700000 0 0 1
-26.059840 -16.223243 6.872201 31.456891 0.556827 1.350556 0.041727 0.005075 211396.000000 0 0 1
-26.161740 -15.876643 5.488101 31.090572 0.545452 1.393347 0.038125 0.006238 -608989.000000 0 0 1
-26.524640 -17.066243 4.565801 31.869416 0.571729 1.427036 0.023110 0.008122 -409018.000000 0 0 1
-27.830240 -17.561543 4.623301 33.231084 0.562919 1.431218 0.004414 0.002483 -478860.000000 0 0 1
-28.148040 -18.483743 3.610501 33.867338 0.581044 1.463986 0.004934 0.006976 -37196.900000 0 0 1
-29.633940 -18.908943 3.671101 35.343960 0.567953 1.466741 0.017972 0.005342 154600.000000 0 0 1
-30.436140 -17.908043 3.067501 35.446667 0.531832 1.484149 0.026734 0.001693 -1282920.000000 0 0 1
-31.759140 -17.992243 3.434401 36.662772 0.515439 1.476983 0.039194 0.002742 -1077220.000000 0 0 1
-32.636240 -16.940243 2.740801 36.872862 0.478781 1.496397 0.038710 -0.010111 -165905.000000 0 0 1
-32.891140 -17.229943 1.392601 37.156929 0.482543 1.533309 0.039599 -0.008870 -259920.000000 0 0 1
-33.503440 -16.209343 0.652001 37.224298 0.450613 1.553280 0.045253 -0.016503 60952.000000 0 0 1
-34.150040 -16.856043 -0.622099 38.088560 0.458505 1.587130 0.046983 -0.018664 96507.300000 0 0 1
-33.163440 -17.206543 -1.581899 37.394936 0.478606 1.613111 0.045310 -0.017266 282704.000000 0 0 1
-33.793940 -17.867243 -2.645199 38.317957 0.486352 1.639884 0.032140 -0.009860 -27097.800000 0 0 1
-32.785040 -18.367543 -3.686999 37.760024 0.510672 1.668595 0.040120 -0.010012 -172989.000000 0 0 1
-33.300440 -19.303343 -4.559399 38.759856 0.525339 1.688701 0.040417 -0.019616 -795541.000000 0 0 1
-32.287040 -19.901843 -5.256799 38.290602 0.552394 1.708518 0.032320 -0.015375 -1002870.000000 0 0 1
-32.764340 -21.139643 -6.091899 39.465145 0.572995 1.725778 0.046898 -0.013635 -294124.000000 0 0 1
-33.266840 -22.166943 -5.355599 40.332846 0.587775 1.703975 0.070123 -0.015184 -34218.100000 0 0 1
-33.682840 -23.233243 -6.207699 41.386626 0.603824 1.721357 0.060919 -0.016518 81758.800000 0 0 1
-34.071740 -24.517643 -5.496999 42.334564 0.623752 1.701011 0.053570 -0.019707 -230082.000000 0 0 1
-32.921840 -25.163743 -5.009599 41.739161 0.652621 1.691108 0.055847 -0.017306 -253469.000000 0 0 1
-33.209740 -26.543643 -4.771099 42.781014 0.674297 1.682553 0.042848 -0.008136 -746041.000000 0 0 1
-32.069640 -27.333643 -4.242899 42.350821 0.705840 1.671149 0.029489 -0.009362 -1508800.000000 0 0 1
-31.212740 -27.910943 -5.217899 42.195762 0.729611 1.694773 0.033778 -0.009216 568534.000000 0 0 1
-30.551140 -29.173543 -4.881599 42.524085 0.762336 1.685846 0.028902 -0.003349 649734.000000 0 0 1
-29.628240 -29.162943 -3.607199 41.729147 0.777484 1.657348 0.033840 -0.008645 -369890.000000 0 0 1
-30.341140 -28.865543 -2.392799 41.946750 0.760481 1.627871 0.028739 -0.010557 75315.900000 0 0 1
-29.461240 -28.902643 -1.282399 41.291306 0.775828 1.601859 0.031124 -0.011105 -97210.100000 0 0 1
-30.113240 -28.641443 0.097201 41.558981 0.760354 1.568457 0.024022 -0.009231 -227452.000000 0 0 1
-30.780840 -29.775943 0.563701 42.829717 0.768805 1.557635 0.017789 -0.008753 -253939.000000 0 0 1
-31.453440 -29.469443 1.782101 43.138647 0.752844 1.529474 0.025319 -0.007813 -85090.100000 0 0 1
-32.003140 -30.727843 2.454001 44.434485 0.765071 1.515541 0.008259 -0.003593 -871021.000000 0 0 1
-32.818840 -30.467643 3.608801 44.926350 0.748264 1.490383 0.013409 -0.003697 392645.000000 0 0 1
-33.499340 -31.609943 4.052801 46.236560 0.756387 1.483030 0.004655 -0.003789 152882.000000 0 0 1
-34.462540 -32.361343 3.065101 47.374234 0.753965 1.506051 0.001379 -0.004320 -559471.000000 0 0 1
-35.321340 -33.249043 3.803801 48.657628 0.755186 1.492542 0.007336 -0.003889 222443.000000 0 0 1
34.829511 -33.933843 2.889801 48.712950 -0.772374 1.511438 0.008100 -0.004170 -1273550.000000 0 0 1
33.807611 34.158279 3.564801 48.191808 0.790558 1.496758 0.004145 -0.002265 -466700.000000 0 0 1
32.891111 -34.334243 4.544001 47.763097 -0.806862 1.475516 -0.000210 -0.004078 1082000.000000 0 0 1
32.185211 -33.113843 4.201101 46.368779 -0.799618 1.480070 0.007880 -0.009318 17830.800000 0 0 1
31.196311 -33.192743 2.951501 45.647337 -0.816394 1.506092 0.018368 -0.006321 -126122.000000 0 0 1
31.889711 -33.265443 1.695801 46.113112 -0.806510 1.534013 0.012149 -0.002792 -238220.000000 0 0 1
31.025811 -33.059243 0.613001 45.341926 -0.817118 1.557276 0.016742 0.002225 -1212570.000000 0 0 1
31.460211 -33.771243 -0.682599 46.159589 -0.820812 1.585585 0.007910 -0.000039 572001.000000 0 0 1
32.647611 -33.374843 -1.371399 46.707894 -0.796413 1.600162 0.003859 -0.002819 354820.000000 0 0 1
33.841811 -33.497543 -0.607199 47.620608 -0.780286 1.583547 0.005143 -0.000269 -1090420.000000 0 0 1
35.043711 -33.285143 -1.522999 48.355785 -0.759667 1.602297 -0.006591 0.004088 -786307.000000 0 0 1
35.323211 -34.348943 -2.371899 49.327528 -0.771415 1.618900 -0.014739 -0.000896 312983.000000 0 0 1
-34.805440 -33.968643 -3.448799 48.756349 0.773231 1.641591 -0.007440 -0.001494 -146888.000000 0 0 1
-34.407840 33.785979 -4.237899 48.408177 -0.776279 1.658454 -0.009876 -0.009670 -302506.000000 0 0 1
-33.391940 33.027679 -3.628199 47.106401 -0.779914 1.647894 -0.014550 -0.003251 -322375.000000 0 0 1
-32.973340 32.103779 -4.544099 46.244379 -0.772037 1.669218 -0.006540 -0.014037 -204745.000000 0 0 1
-31.678040 31.393679 -4.102299 44.787165 -0.780890 1.662520 0.004972 -0.017870 -911805.000000 0 0 1
-30.558640 32.206779 -4.164399 44.592032 -0.811651 1.664321 0.010120 -0.012232 -181458.000000 0 0 1
-29.321540 31.542279 -3.880099 43.240296 -0.821869 1.660651 0.047854 -0.016365 989098.000000 0 0 1
-28.962940 31.376479 -2.344599 42.764851 -0.825376 1.625649 0.035140 -0.013140 -152044.000000 0 0 1
-29.886240 30.497279 -1.734699 42.735003 -0.795517 1.611399 0.022176 -0.005818 -173462.000000 0 0 1
-29.645840 30.405479 -0.391399 42.467895 -0.798047 1.580013 0.015651 0.010461 692134.000000 0 0 1
-30.863540 29.761379 0.404201 42.877280 -0.767220 1.561369 0.010013 0.010643 644406.000000 0 0 1
-31.097640 28.442579 -0.058999 42.143172 -0.740835 1.572196 0.014674 0.005418 -189490.000000 0 0 1
-32.314240 28.387379 -0.768299 43.019108 -0.720797 1.588657 0.002761 0.004307 -252363.000000 0 0 1
-32.594240 26.949179 -1.237799 42.310458 -0.690875 1.600056 0.009452 0.004491 -114566.000000 0 0 1
-32.837740 26.071379 -0.138699 41.929145 -0.671038 1.574104 -0.005238 0.009630 -4227.710000 0 0 1
-33.115540 24.817179 -0.748599 41.389512 -0.643125 1.588884 0.016793 0.011788 -256703.000000 0 0 1
-33.122640 23.629979 0.253501 40.688443 -0.619669 1.564566 0.013423 0.012394 -962853.000000 0 0 1
-31.960340 23.153479 0.808701 39.474053 -0.626944 1.550308 0.018816 0.005254 -854741.000000 0 0 1
-31.495740 23.832179 1.986701 39.546193 -0.647762 1.520538 0.011268 0.003205 -304420.000000 0 0 1
-29.978040 23.646579 2.315801 38.251882 -0.667872 1.510218 0.015316 -0.011465 519054.000000 0 0 1
-29.116040 24.473579 1.581401 38.068368 -0.698984 1.529243 0.029694 -0.010492 -202356.000000 0 0 1
-29.185040 25.821079 1.878301 39.013109 -0.724318 1.522632 0.013743 -0.003835 -582951.000000 0 0 1
-28.463640 26.730779 0.812901 39.056038 -0.754013 1.549981 0.019861 -0.003061 -26769.700000 0 0 1
-27.079940 26.556879 0.733701 37.935857 -0.775647 1.551455 0.025231 -0.006920 -688568.000000 0 0 1
-26.521940 27.373779 -0.252999 38.115628 -0.801202 1.577434 0.029824 -0.006271 -896058.000000 0 0 1
-25.163940 26.970079 -0.713499 36.893334 -0.820028 1.590137 0.032268 -0.005875 -1455880.000000 0 0 1
-25.302040 26.016479 -1.735899 36.332681 -0.799319 1.618592 0.040718 -0.011910 213848.000000 0 0 1
-24.145840 25.350479 -2.253299 35.081986 -0.809731 1.635070 0.028060 -0.009995 183002.000000 0 0 1
-23.515440 24.228479 -1.416099 33.793497 -0.800332 1.612713 0.011806 -0.004486 -155660.000000 0 0 1
-24.144640 22.963079 -1.344299 33.347770 -0.760321 1.611119 0.009620 -0.003162 -525289.000000 0 0 1
-23.284040 22.075279 -0.709599 32.093114 -0.758756 1.592909 0.006998 -0.015613 -1139200.000000 0 0 1
-23.743440 20.605879 -0.414899 31.440822 -0.714769 1.583993 0.015046 -0.014696 120630.000000 0 0 1
-24.674740 20.482679 0.699901 32.076047 -0.692831 1.548975 -0.001625 -0.007554 1282870.000000 0 0 1
-25.966140 21.099479 0.640801 33.463996 -0.682363 1.551646 0.001844 -0.001873 488333.000000 0 0 1
-26.915340 20.631279 -0.505299 33.916670 -0.653993 1.585695 -0.000139 -0.009906 -686360.000000 0 0 1
-27.292740 19.280679 -0.316599 33.417637 -0.615035 1.580270 0.004202 -0.012760 216161.000000 0 0 1
-27.962640 18.774179 -1.452299 33.711840 -0.591274 1.613889 0.013582 -0.007217 -171079.000000 0 0 1
-28.125340 17.244779 -1.406499 33.021135 -0.550025 1.613403 -0.004457 -0.004902 -77665.700000 0 0 1
-29.171540 16.758879 -0.589499 33.647975 -0.521454 1.588317 0.013113 -0.003684 405716.000000 0 0 1
-29.299740 15.339179 -0.696499 33.079454 -0.482291 1.591853 0.019257 -0.014039 -373383.000000 0 0 1
-28.228740 14.496679 0.007301 31.733507 -0.474423 1.570566 0.032734 -0.020180 -643804.000000 0 0 1
-28.192640 14.501679 1.426301 31.735752 -0.475084 1.525838 0.046843 -0.022017 450678.000000 0 0 1
-26.950140 14.185479 2.045601 30.524127 -0.484513 1.503730 0.047896 -0.024243 232057.000000 0 0 1
-26.483440 12.713779 1.944201 29.441343 -0.447573 1.504712 0.051051 -0.023698 -360528.000000 0 0 1
-26.048740 12.318179 0.684301 28.822606 -0.441725 1.547052 0.036659 -0.026406 378063.000000 0 0 1
-25.520440 10.998679 0.741701 27.799531 -0.406921 1.544113 0.039830 -0.018086 -83563.500000 0 0 1
-25.410340 10.259479 -0.598499 27.409861 -0.383737 1.592633 0.036734 -0.015615 -18734.300000 0 0 1
-26.675040 9.858879 -1.098399 28.459826 -0.354021 1.609401 0.037605 -0.020486 531464.000000 0 0 1
-26.530640 9.104179 -2.282199 28.141950 -0.330566 1.651981 0.038052 -0.019099 40264.200000 0 0 1
-27.881440 8.456779 -2.650499 29.256058 -0.294493 1.661517 0.045097 -0.022374 13594.800000 0 0 1
-27.900940 7.882079 -3.930999 29.258201 -0.275328 1.705559 0.042622 -0.012564 899373.000000 0 0 1
-29.253340 7.707279 -4.378499 30.566833 -0.257612 1.714534 0.051585 -0.008161 589956.000000 0 0 1
-10.893089 18.098979 -19.515399 28.759055 -1.029009 2.316628 0.013239 0.000029 -141587.000000 0 0 1
-11.406089 17.548979 -20.689999 29.430284 -0.994451 2.350428 -0.002511 0.009531 -629105.000000 0 0 1
-10.454889 17.288179 -21.682199 29.636187 -1.026897 2.391480 -0.007742 0.000794 -613927.000000 0 0 1
-10.703489 16.209379 -22.742699 29.908845 -0.987196 2.434726 -0.013912 0.004949 -300906.000000 0 0 1
-10.325989 14.911079 -22.340599 28.776183 -0.965119 2.459662 -0.006571 0.001617 -87952.100000 0 0 1
-10.328589 14.023579 -23.490299 29.242686 -0.935981 2.503592 -0.001143 -0.000235 -233743.000000 0 0 1
-9.639289 12.692979 -23.248499 28.187237 -0.921294 2.540624 -0.015126 0.004388 180500.000000 0 0 1
-8.221689 12.722379 -23.336099 27.821370 -0.997070 2.565841 -0.006262 0.003540 245230.000000 0 0 1
-7.719889 11.508279 -22.773999 26.658811 -0.979930 2.594954 -0.001678 0.000887 -63338.100000 0 0 1
-6.210889 11.497279 -22.474299 25.997244 -1.075504 2.614927 0.007639 0.002322 -330311.000000 0 0 1
-5.464889 11.289079 -23.599899 26.725710 -1.119960 2.653100 0.001400 -0.007856 250323.000000 0 0 1
-4.041289 11.345979 -23.374399 26.294977 -1.228620 2.665801 0.017204 -0.008282 1232700.000000 0 0 1
-3.236489 11.110079 -24.674399 27.253159 -1.287330 2.703064 0.031854 -0.014106 -163657.000000 0 0 1
-3.258889 9.811879 -25.252519 27.287049 -1.250123 2.752991 0.028942 -0.009665 -259718.000000 0 0 1
-2.598889 9.682079 -26.500469 28.333227 -1.308555 2.779942 0.025140 -0.009533 -453610.000000 0 0 1
-2.246889 8.208179 -26.767289 28.087550 -1.303604 2.833768 0.028986 -0.005303 -169469.000000 0 0 1
-1.048389 7.664579 -26.264179 27.379773 -1.434856 2.855149 0.029711 -0.003751 737.657000 0 0 1
-1.315189 6.578479 -25.390079 26.261421 -1.373475 2.883272 0.031725 -0.009199 -2672.110000 0 0 1
-0.025389 5.923379 -24.858199 25.554200 -1.566510 2.907666 -0.004122 0.001920 306339.000000 0 0 1
0.669011 6.634579 -23.816599 24.732481 1.470299 2.868600 0.006806 -0.000367 397231.000000 0 1 0
1.647211 5.818979 -23.179799 23.955728 1.294938 2.886381 0.017564 0.004562 124059.000000 0 1 0
1.848611 6.390379 -21.724099 22.719833 1.289203 2.844438 0.021846 -0.002115 202683.000000 0 1 0
2.586511 7.592579 -21.828399 23.255458 1.242464 2.789449 0.012954 -0.003373 -58474.200000 0 1 0
2.512611 8.276779 -20.670099 22.406947 1.276064 2.745268 0.018474 -0.006584 6647.000000 0 1 0
3.182911 9.646079 -20.575299 22.946039 1.252076 2.683013 0.013865 -0.012355 -242498.000000 0 1 0
2.872211 10.270579 -19.351999 22.096024 1.298108 2.637915 0.010827 -0.020233 163039.000000 0 1 0
3.392911 11.619879 -19.285399 22.769718 1.286702 2.581067 0.012287 -0.009480 72258.300000 0 1 0
4.736011 11.749979 -18.532299 22.448562 1.187650 2.541964 0.006632 -0.015292 42510.900000 0 1 0
5.750311 11.090079 -19.271699 22.966374 1.092451 2.566472 0.013157 -0.002466 -1060690.000000 0 1 0
6.777111 10.805979 -18.382999 22.374831 1.010643 2.534996 0.015291 -0.000466 -17313.600000 0 1 0
7.889411 9.860879 -18.981999 22.799036 0.896012 2.554544 0.020370 0.000913 99027.100000 0 1 0
7.589611 8.481379 -19.012799 22.159028 0.840831 2.602191 0.020757 -0.001277 -37511.800000 0 1 0
6.811611 8.175379 -20.148799 22.786157 0.876145 2.655695 0.016292 -0.006756 273226.000000 0 1 0
6.269011 6.717879 -20.173499 22.167554 0.819948 2.714192 0.016836 -0.010946 380740.000000 0 1 0
7.353011 5.897279 -20.565599 22.622744 0.675973 2.711837 0.015086 0.003312 521159.000000 0 1 0
6.893111 4.596279 -21.004999 22.579875 0.588090 2.765898 0.014558 0.007305 92468.300000 0 1 0
6.852911 4.446079 -22.495499 23.932770 0.575522 2.793267 0.028722 0.001012 -316329.000000 0 1 0
5.680011 4.929479 -23.098899 24.292415 0.714774 2.826826 0.013794 -0.001968 -247987.000000 0 1 0
5.737411 4.767479 -24.503499 25.613829 0.693328 2.846074 0.026696 -0.003612 -88847.500000 0 0 1
4.774111 5.719179 -25.186869 26.265558 0.875220 2.854007 0.016730 -0.004145 -207103.000000 0 0 1
5.318411 7.051379 -25.306309 26.803297 0.924589 2.805799 0.019189 -0.009069 284725.000000 0 0 1
5.161411 7.947279 -24.190099 25.979998 0.994803 2.768226 0.021888 -0.014635 -930942.000000 0 0 1
4.910711 9.391079 -24.575399 26.762991 1.088987 2.734461 0.019412 -0.023068 647554.000000 0 0 1
3.696311 9.630279 -25.301099 27.323078 1.204314 2.754465 0.021943 -0.018074 1075830.000000 0 0 1
2.474511 9.494579 -24.539199 26.428063 1.315844 2.761225 0.013100 -0.012708 429829.000000 0 0 1
1.280011 9.987979 -25.420889 27.342636 1.443336 2.764438 0.013483 -0.003636 -60714.800000 0 0 1
1.324311 11.358679 -25.828879 28.247201 1.454730 2.724788 0.028446 -0.015918 502576.000000 0 0 1
0.112311 11.854479 -26.414709 28.953033 1.561322 2.719734 0.046839 -0.021222 59417.400000 0 0 1
0.063811 13.414079 -26.607899 29.798018 1.566039 2.674635 0.047702 -0.022497 -496823.000000 0 0 1
-0.043989 14.172579 -25.425229 29.108525 -1.567693 2.633067 0.042673 -0.026540 63076.200000 0 0 1
-0.147889 15.520579 -25.869899 30.168890 -1.561268 2.601192 0.046036 -0.032439 -266758.000000 0 0 1
-0.789589 16.388979 -24.742799 29.688856 -1.522656 2.556034 0.052301 -0.017833 586698.000000 0 0 1
-2.022689 15.751279 -24.368099 29.086050 -1.443081 2.564025 0.048740 -0.014765 231302.000000 0 0 1
-2.366089 16.259279 -23.089099 28.338473 -1.426288 2.523114 0.053371 -0.019892 -47376.200000 0 0 1
-3.599589 15.577579 -22.384799 27.508130 -1.343707 2.521375 0.042249 -0.017089 585343.000000 0 0 1
-4.898589 15.818779 -22.843099 28.214130 -1.270492 2.514323 0.042243 -0.014322 -478794.000000 0 0 1
-5.167089 15.382279 -24.131699 29.080100 -1.246727 2.549609 0.038826 -0.013791 -323696.000000 0 0 1
-6.684689 15.407379 -24.476799 29.684779 -1.161443 2.540216 0.012246 -0.006201 629954.000000 0 0 1
-7.387889 16.624679 -24.621699 30.613541 -1.152615 2.505250 0.015754 -0.005818 284147.000000 0 0 1
-8.522989 16.529679 -25.469659 31.536886 -1.094733 2.510893 0.005280 -0.003570 38534.200000 0 0 1
-9.158089 17.884479 -25.883849 32.767344 -1.097540 2.481488 0.011007 -0.006405 228809.000000 0 0 1
-9.796589 18.552679 -24.741199 32.439204 -1.084968 2.438265 0.008164 -0.014122 194760.000000 0 0 1
-10.785889 19.435979 -25.186189 33.592213 -1.064165 2.418500 0.004422 -0.011668 -89843.900000 0 0 1
-11.489489 20.284479 -24.114599 33.540756 -1.055436 2.373107 0.006781 -0.010574 -420001.000000 0 0 1
-10.859289 21.456579 -23.720299 33.778122 -1.102276 2.349333 -0.001418 -0.012312 -355136.000000 0 0 1
-11.212789 22.647379 -24.396699 35.125907 -1.111074 2.338591 -0.007382 -0.010816 -142539.000000 0 0 1
-10.585889 22.982679 -25.806989 36.142292 -1.139160 2.366046 -0.003372 -0.016901 -308551.000000 0 0 1
-11.003489 22.171579 -26.846399 36.515542 -1.110123 2.396765 -0.004106 -0.022818 124208.000000 0 0 1
-10.768189 22.824079 -28.111359 37.777520 -1.129970 2.410027 0.006044 -0.019259 -196249.000000 0 0 1
-11.459989 22.049779 -29.289769 38.411127 -1.091488 2.438016 0.008318 -0.016305 102957.000000 0 0 1
-10.862389 20.867279 -29.878059 38.028059 -1.090847 2.474598 0.015936 -0.018510 -10194.900000 0 0 1
-10.583789 19.837279 -28.934499 36.643410 -1.080686 2.480992 0.008232 -0.012464 -524722.000000 0 0 1
-9.598389 18.870179 -29.589619 36.383489 -1.100250 2.520547 0.010254 -0.013997 -1017560.000000 0 0 1
-8.340289 19.515779 -29.720639 36.520439 -1.166927 2.521472 0.009424 -0.009993 -5961.990000 0 0 1
-7.266389 18.790879 -30.268149 36.360121 -1.201810 2.554319 0.015103 -0.002983 157069.000000 0 0 1
-6.859989 17.463279 -29.528079 34.984754 -1.196492 2.575545 0.023371 -0.017028 -1002910.000000 0 0 1
-7.857289 16.440979 -29.662259 34.812245 -1.124977 2.590712 0.023047 -0.020843 381782.000000 0 0 1
-7.545589 15.235479 -28.941249 33.565632 -1.110944 2.610450 0.006561 -0.014246 230765.000000 0 0 1
-8.820189 14.364979 -28.846529 33.410636 -1.020142 2.612754 0.006185 -0.004782 507893.000000 0 0 1
-9.763989 14.673179 -27.832499 32.943674 -0.983650 2.577083 0.001259 -0.002235 -766668.000000 0 0 1
-10.955089 14.002979 -27.952419 33.127558 -0.906917 2.575087 0.034609 -0.003936 -483019.000000 0 0 1
-12.025189 14.419879 -26.915559 32.817456 -0.875705 2.532487 0.028734 0.000135 180550.000000 0 0 1
-12.512789 15.750479 -27.025739 33.690326 -0.899456 2.501735 0.020514 -0.002501 -524133.000000 0 0 1
-13.310589 16.181079 -25.961079 33.361306 -0.882425 2.462558 0.001966 -0.002869 -663799.000000 0 0 1
-14.358789 17.120479 -26.496429 34.660444 -0.872905 2.440995 -0.014007 -0.004569 -741093.000000 0 0 1
-13.840189 18.371079 -26.852489 35.356803 -0.925143 2.433297 -0.006295 -0.004957 238247.000000 0 0 1
-14.879789 19.315679 -27.073689 36.434712 -0.914399 2.408449 -0.013092 -0.008752 -49651.800000 0 0 1
-14.376489 20.772779 -27.008279 36.981602 -0.965404 2.389582 -0.013830 -0.011345 -673257.000000 0 0 1
-15.363689 21.722279 -27.223019 38.065642 -0.955203 2.367649 -0.034499 -0.006261 -420000.000000 0 0 1
-14.971089 23.098779 -27.371769 38.818821 -0.995734 2.353383 -0.018225 -0.009456 -199306.000000 0 0 1
-14.453989 23.786579 -26.106359 38.160989 -1.024769 2.324181 -0.042329 -0.010146 15909.900000 0 0 1
-13.799489 25.006979 -26.395099 38.890566 -1.066553 2.316790 -0.022443 -0.015648 60411.700000 0 0 1
-13.421389 25.667379 -25.217319 38.403922 -1.089000 2.287143 -0.006613 -0.010327 -152048.000000 0 0 1
-12.982589 27.160679 -25.496219 39.450061 -1.124910 2.273510 0.013665 -0.019523 -279372.000000 0 0 1
-14.007889 28.107879 -25.693689 40.576341 -1.108460 2.256501 0.024233 -0.014014 -271726.000000 0 0 1
-14.530089 28.686579 -24.498399 40.425423 -1.101953 2.221837 0.033385 -0.010258 806922.000000 0 0 1
-15.857089 29.509379 -24.815399 41.689984 -1.077711 2.208356 0.027688 -0.009819 791032.000000 0 0 1
-16.836389 28.572979 -25.131569 41.610995 -1.038325 2.219262 0.015744 -0.007495 132141.000000 0 0 1
-18.105489 29.141079 -25.550529 42.776638 -1.014859 2.210928 0.014252 -0.004692 1737390.000000 0 0 1
-19.318589 28.142379 -25.416409 42.558139 -0.969216 2.210822 0.014053 0.001222 452083.000000 0 0 1
-19.665989 27.845079 -24.069299 41.730453 -0.955878 2.185578 0.017525 -0.000413 102830.000000 0 0 1
-20.768889 26.949179 -23.996799 41.634737 -0.914198 2.185070 0.015775 -0.004423 62494.900000 0 0 1
-21.450189 26.937179 -22.620599 41.199681 -0.898313 2.152021 0.017934 -0.000695 -567497.000000 0 0 1
-22.141689 28.135979 -22.444199 42.256713 -0.904062 2.130741 0.013226 0.007817 -276745.000000 0 0 1
-22.609489 28.316679 -21.096199 41.929380 -0.897000 2.098021 -0.000093 0.012932 656390.000000 0 0 1
-23.990989 29.060479 -21.222999 43.249216 -0.880667 2.083705 -0.009084 0.019505 301211.000000 0 0 1
-25.115709 28.233579 -21.265099 43.360561 -0.843774 2.083374 -0.018295 0.021423 -508199.000000 0 0 1
-26.282579 29.024579 -21.367799 44.606983 -0.834935 2.070338 -0.002091 0.021795 341381.000000 0 0 1
-27.552499 28.157479 -21.613199 44.934555 -0.796257 2.072583 -0.014268 0.019661 134204.000000 0 0 1
-27.420999 27.317579 -22.752999 44.898333 -0.783509 2.102227 -0.013169 0.025448 -1047450.000000 0 0 1
-28.694389 27.164779 -23.242499 45.842196 -0.758022 2.102510 -0.006739 0.018633 -982371.000000 0 0 1
-28.891089 26.798179 -24.720499 46.518174 -0.747834 2.131068 -0.006576 0.026930 -177410.000000 0 0 1
-28.336279 25.569679 -25.133989 45.699788 -0.734120 2.153137 0.008171 0.021466 -33727.400000 0 0 1
-28.608299 25.294579 -26.504539 46.483772 -0.724000 2.177532 0.022959 0.015374 139429.000000 0 0 1
-28.977279 23.834679 -26.889059 46.160547 -0.688329 2.192612 0.015737 0.010214 -457211.000000 0 0 1
-27.833769 23.043579 -26.808489 44.993559 -0.691523 2.209094 0.034169 -0.001369 -161874.000000 0 0 1
-28.130749 21.713779 -27.189169 44.744588 -0.657363 2.223898 0.038680 -0.010109 -477096.000000 0 0 1
-26.861789 20.863179 -27.178919 43.537588 -0.660363 2.244985 0.057193 -0.013369 -244131.000000 0 0 1
-26.463499 20.457479 -25.877309 42.290192 -0.658088 2.229255 0.053137 -0.012366 115059.000000 0 0 1
-25.824189 19.175779 -25.867359 41.276137 -0.638717 2.248095 0.044716 -0.022130 117579.000000 0 0 1
-26.744369 17.916779 -25.813619 41.262758 -0.590256 2.246685 0.049313 -0.013145 -458715.000000 0 0 1
-27.588029 17.784779 -26.887809 42.430555 -0.572609 2.257110 0.035349 -0.008885 -121680.000000 0 0 1
-28.397199 16.616479 -26.718119 42.383560 -0.529425 2.252850 0.016315 -0.010582 37057.400000 0 0 1
-29.266419 16.174479 -27.918309 43.561095 -0.504886 2.266467 0.000198 -0.009838 -87718.800000 0 0 1
-30.516519 16.831879 -27.925469 44.658727 -0.504045 2.246323 -0.013009 -0.007658 -120072.000000 0 0 1
-31.289549 16.190379 -28.913089 45.575552 -0.477500 2.258027 -0.003365 -0.004265 221345.000000 0 0 1
-32.621029 16.833879 -29.382139 47.019369 -0.476400 2.245793 0.004774 -0.006539 286150.000000 0 0 1
-33.617829 16.908679 -28.375329 47.129833 -0.466019 2.216884 -0.015128 0.004846 576139.000000 0 0 1
-34.860110 17.185779 -29.059699 48.528799 -0.458026 2.212815 -0.015407 0.011048 399538.000000 0 0 1
34.892242 16.931679 -28.202229 47.953269 0.451783 2.199527 -0.000894 0.019632 -459242.000000 0 0 1
34.639242 17.921479 -27.229199 47.565594 0.477451 2.180294 -0.006992 0.018405 541904.000000 0 0 1
33.480552 17.541779 -26.461079 46.139463 0.482615 2.181571 0.006461 0.018622 698059.000000 0 0 1
33.014172 18.673579 -25.510419 45.710169 0.514759 2.162879 0.014146 0.015876 -18535.200000 0 0 1
32.554892 19.837279 -26.180279 46.246574 0.547265 2.172566 0.016328 0.010561 -45528.400000 0 0 1
31.997502 20.802679 -25.318869 45.799964 0.576470 2.156534 0.026280 0.001112 -668914.000000 0 0 1
31.295202 21.935779 -26.110879 46.285484 0.611351 2.170172 0.032644 -0.004769 1920680.000000 0 0 1
29.917672 21.790879 -26.593369 45.575397 0.629508 2.193832 0.034591 -0.001884 1934700.000000 0 0 1
28.949912 21.708279 -25.527699 44.283295 0.643409 2.185190 0.021229 -0.002684 474929.000000 0 0 1
27.471752 21.504079 -25.980279 43.498247 0.664147 2.210892 0.022057 -0.001702 609484.000000 0 0 1
27.314932 20.125379 -26.318259 42.939343 0.634993 2.230544 0.017211 -0.006008 313315.000000 0 0 1
26.086372 19.862979 -27.001349 42.474811 0.650777 2.259715 0.013775 -0.004027 161989.000000 0 0 1
25.682162 18.374479 -27.080959 41.600159 0.621025 2.279674 0.019533 -0.003279 -384951.000000 0 0 1
26.575452 17.582579 -27.823019 42.302744 0.584494 2.288574 0.016771 -0.005500 362971.000000 0 0 1
27.622052 16.990479 -27.054499 42.232689 0.551453 2.266083 0.014361 0.001107 432355.000000 0 0 1
28.571702 16.018279 -27.843709 42.990691 0.510971 2.275317 -0.000212 0.015584 70219.000000 0 0 1
28.025492 14.811379 -28.289499 42.486479 0.486184 2.299425 0.009259 0.021600 -84778.300000 0 0 1
27.560232 13.801879 -27.398039 41.239675 0.464279 2.297435 0.024728 0.008521 -89149.200000 0 0 1
28.545502 13.111879 -26.409839 41.039574 0.430588 2.269886 0.015598 -0.000098 -7386.930000 0 0 1
29.001632 13.966979 -25.358089 40.978090 0.448814 2.238037 0.009859 0.003106 315334.000000 0 0 1
29.861742 13.259879 -24.460799 40.815177 0.417889 2.213431 0.002985 0.003973 -122780.000000 0 0 1
-14.715589 -31.637843 -24.189899 42.457660 1.135435 2.176988 0.047539 0.015266 32005.900000 0 0 1
-13.979689 -30.509743 -24.640199 41.634307 1.141141 2.204117 0.035835 0.000929 250533.000000 0 0 1
-14.105089 -30.358943 -26.002959 42.388357 1.135859 2.231213 0.029190 0.009215 -387401.000000 0 0 1
-13.276589 -29.231743 -26.592989 41.688724 1.144468 2.262557 0.037015 -0.001320 -274180.000000 0 0 1
-13.693989 -27.979643 -26.095239 40.636772 1.115643 2.268107 0.039013 0.003012 267862.000000 0 0 1
-13.004589 -26.947843 -26.803379 40.171218 1.121179 2.301278 0.032722 -0.006244 -12772.800000 0 0 1
-13.409689 -25.500143 -26.463159 39.120019 1.086670 2.313743 0.015865 0.004375 -187272.000000 0 0 1
-12.967989 -25.050943 -25.199869 37.825281 1.093117 2.299922 0.020864 -0.014991 212122.000000 0 0 1
-13.508589 -23.772343 -24.942899 37.010194 1.054051 2.310334 0.017727 -0.009137 -342131.000000 0 0 1
-13.162689 -23.101743 -23.587799 35.543371 1.052901 2.296463 0.023187 -0.000725 394968.000000 0 0 1
-11.803489 -22.669443 -23.577999 34.772806 1.090743 2.315914 0.026154 -0.017501 416676.000000 0 0 1
-11.419089 -21.960043 -22.409299 33.388857 1.091282 2.306570 0.013213 -0.002103 569818.000000 0 0 1
-9.890689 -21.911043 -22.106099 32.658830 1.146777 2.314312 0.019836 -0.010241 394882.000000 0 0 1
-9.180189 -21.064343 -22.965199 32.486656 1.159800 2.355919 0.032381 -0.015638 -1409670.000000 0 0 1
-7.823589 -21.240643 -22.817099 32.140216 1.217885 2.360186 0.045783 -0.009911 -825078.000000 0 0 1
-7.020589 -20.057443 -23.463199 31.656143 1.234100 2.405637 0.029375 0.004505 143128.000000 0 0 1
-7.205689 -18.879543 -22.699099 30.390923 1.206194 2.414190 0.047212 -0.001254 47344.400000 0 0 1
-7.808489 -17.823243 -23.470599 30.487859 1.157876 2.449378 0.033640 -0.007361 -229139.000000 0 0 1
-6.934189 -16.957743 -24.371799 30.489877 1.182633 2.496993 0.047028 -0.011449 -239794.000000 0 0 1
-6.645089 -17.632143 -25.603369 31.789655 1.210384 2.507145 0.036642 -0.016780 54124.600000 0 0 1
-5.801489 -16.785943 -26.360749 31.785441 1.238032 2.548711 0.030568 -0.013126 -216839.000000 0 0 1
-5.474189 -17.428843 -27.681609 33.166290 1.266465 2.558259 0.025547 0.002102 451359.000000 0 0 1
-6.538289 -17.381343 -28.676439 34.164287 1.211003 2.566917 0.034049 0.000923 563648.000000 0 0 1
-6.388389 -18.158143 -29.839399 35.509427 1.232501 2.568676 0.035946 -0.007008 -453713.000000 0 0 1
-7.387189 -17.803343 -30.940259 36.453110 1.177484 2.584449 0.036991 -0.009069 -172915.000000 0 0 1
-7.233489 -16.625243 -31.723459 36.539019 1.160410 2.622375 0.031298 -0.002890 -226533.000000 0 0 1
-7.223189 -15.418843 -31.003959 35.371750 1.132693 2.639376 0.021364 -0.003752 -163961.000000 0 0 1
-7.405489 -14.162443 -31.938759 35.714148 1.089000 2.677635 0.016307 -0.005850 -584877.000000 0 0 1
-6.538189 -14.030943 -32.995119 36.445757 1.134730 2.702932 0.035906 -0.008787 -251612.000000 0 0 1
-7.169289 -13.292943 -34.074390 37.271505 1.076182 2.724377 0.035044 -0.006378 46856.700000 0 0 1
-7.602589 -11.809543 -33.864839 36.661860 0.998816 2.748445 0.017025 -0.003175 464464.000000 0 0 1
-6.552189 -10.830743 -33.930329 36.214685 1.026736 2.784514 0.013174 -0.008200 431345.000000 0 0 1
-5.982089 -10.520543 33.658042 35.767737 1.053777 0.345173 0.009848 -0.008895 125588.000000 0 0 1
-4.943889 -9.363643 33.675108 35.300605 1.085010 0.304648 0.025691 -0.011611 128946.000000 0 0 1
-4.804589 -8.846343 32.379275 33.908101 1.073254 0.301431 0.019594 -0.007075 304622.000000 0 0 1
-3.837089 -7.786843 32.304295 33.450346 1.112953 0.262521 0.021421 -0.013411 -436697.000000 0 0 1
-3.874489 -6.931343 30.999085 31.999976 1.061084 0.250768 0.025405 -0.007899 1398410.000000 0 0 1
-5.039689 -6.023743 30.946875 31.927935 0.874111 0.248540 0.014839 -0.008077 455540.000000 0 0 1
-6.210789 -6.688743 30.627405 31.958584 0.822433 0.289640 0.013700 -0.007682 -1709990.000000 0 0 1
-7.409089 -5.750343 30.704475 32.104919 0.660010 0.296451 0.002020 -0.001355 -795914.000000 0 0 1
-8.599589 -6.384043 30.334825 32.170025 0.638597 0.339405 -0.006779 0.006828 -1201660.000000 0 0 1
-9.604589 -5.433343 30.266345 32.215229 0.514819 0.349616 -0.007708 0.000071 -800136.000000 0 0 1
-10.734989 -5.866343 29.324155 31.773574 0.500129 0.395224 -0.008409 0.001704 -505176.000000 0 0 1
-10.432289 -5.802543 27.903935 30.350152 0.507598 0.404244 -0.011116 0.006987 892267.000000 0 0 1
-11.483889 -6.358643 27.098235 30.110237 0.505680 0.451101 -0.007791 0.000915 343957.000000 0 0 1
-11.170489 -6.087143 25.598525 28.585269 0.498943 0.461210 -0.006085 0.000324 623864.000000 0 0 1
-10.015789 -6.823243 25.128865 27.898611 0.598030 0.449370 -0.003892 0.000171 861411.000000 0 0 1
-9.540689 -6.532843 23.843515 26.499358 0.600407 0.451538 -0.000109 -0.006139 -240322.000000 0 0 1
-10.483789 -6.778743 22.630535 25.845740 0.573976 0.504119 0.007105 -0.009797 -240939.000000 0 0 1
-11.530189 -5.869743 22.624435 26.062697 0.470882 0.519480 0.005154 -0.003599 -341160.000000 0 0 1
-12.500189 -5.999843 21.607935 25.674027 0.447504 0.570509 0.016401 -0.002757 49336.600000 0 0 1
-13.503289 -4.837343 21.445235 25.799938 0.343992 0.589511 0.005842 0.004778 -87699.300000 0 0 1
-13.063589 -3.646843 20.920535 24.932421 0.272230 0.575189 0.001416 -0.001262 -38589.900000 0 1 0
-14.082389 -2.666843 21.117235 25.521821 0.187158 0.596301 -0.002058 0.003550 342663.000000 0 0 1
-13.774489 -1.322843 20.577435 24.797526 0.095742 0.592015 -0.005416 -0.000970 442176.000000 0 1 0
-12.637489 -0.656843 21.161735 24.656776 0.051929 0.538942 -0.011941 -0.000736 592152.000000 0 1 0
-12.652089 0.743157 20.939335 24.476180 -0.058670 0.544284 -0.009497 -0.006151 -320333.000000 0 1 0
-12.353989 1.339157 19.524435 23.143421 -0.107977 0.566792 0.005278 -0.016449 -447683.000000 0 1 0
-13.165389 0.964157 18.479435 22.710054 -0.073104 0.620287 0.008097 -0.009864 959326.000000 0 1 0
-14.484289 1.593157 18.353035 23.434305 -0.109552 0.671049 0.004405 -0.008326 1636240.000000 0 1 0
-15.304789 0.905157 17.218235 23.054793 -0.059073 0.727499 0.017420 -0.005468 -11176.700000 0 1 0
-15.621289 -0.410843 17.574635 23.517254 0.026294 0.726795 -0.004199 -0.005454 -205470.000000 0 1 0
-16.800189 -0.908843 17.028835 23.938537 0.054045 0.779370 0.003401 0.001141 -459865.000000 0 1 0
-16.956589 -2.465843 17.183735 24.266995 0.144409 0.783976 0.009106 0.003423 -117765.000000 0 1 0
-17.312989 -2.813843 18.498235 25.491998 0.161119 0.758820 -0.004485 0.012872 -235514.000000 0 0 1
-17.171189 -4.186643 18.736735 25.757386 0.239152 0.756225 -0.004581 0.010996 -33105.600000 0 0 1
-17.933589 -4.703143 19.981935 27.258226 0.256478 0.747985 -0.015927 0.012120 -20489.400000 0 0 1
-17.281289 -4.302043 21.174935 27.668184 0.243983 0.699262 -0.013009 0.012318 1196630.000000 0 0 1
-18.222789 -4.358743 22.320535 29.142322 0.234781 0.698333 -0.007793 0.011655 689959.000000 0 0 1
-18.505189 -5.757743 22.942535 30.032541 0.301647 0.701426 -0.005282 0.013583 16224.500000 0 0 1
-17.456389 -6.350643 23.677335 30.094391 0.348916 0.665239 0.009571 0.013230 38705.200000 0 0 1
-16.382089 -6.859243 22.915035 28.991738 0.396526 0.659337 -0.002676 0.012103 -241428.000000 0 0 1
-15.213789 -7.293743 23.834315 29.201586 0.447046 0.615994 0.002168 0.006527 -94200.900000 0 0 1
-15.479789 -8.529043 24.499375 30.209068 0.503595 0.624947 0.004251 0.004249 166601.000000 0 0 1
-14.430689 -8.860243 25.390055 30.518905 0.550640 0.588192 0.018632 0.007184 245700.000000 0 0 1
-14.864789 -9.802643 26.551125 31.968985 0.582993 0.590742 0.012257 0.004540 36443.100000 0 0 1
-14.849389 -11.214843 26.286255 32.206277 0.646846 0.616021 0.011865 -0.003310 -33167.200000 0 0 1
-14.600089 -11.983943 27.493485 33.356696 0.687304 0.601961 0.012456 -0.007259 -101213.000000 0 0 1
-14.618289 -13.439643 27.140415 33.629161 0.743415 0.631657 0.004182 -0.011504 -336645.000000 0 0 1
-15.865089 -14.091843 27.221055 34.514735 0.726274 0.662139 0.024495 -0.014728 -454486.000000 0 0 1
-15.860789 -15.506843 27.014755 34.954596 0.774115 0.687472 0.020332 -0.011258 -84965.600000 0 0 1
-14.870689 -16.378543 27.835125 35.555425 0.833613 0.671538 0.022115 -0.014635 1122950.000000 0 0 1
-13.497489 -16.340243 27.397955 34.638615 0.880385 0.658411 0.017206 -0.016799 983925.000000 0 0 1
-12.685189 -17.200843 28.169255 35.359439 0.935360 0.649056 0.014803 -0.011062 -514052.000000 0 0 1
-11.318189 -17.461443 27.572175 34.543136 0.995700 0.646503 0.012621 -0.012225 -506001.000000 0 0 1
-10.395789 -18.170943 28.400825 35.282608 1.051136 0.635201 0.020761 -0.018528 -347965.000000 0 0 1
-9.216689 -18.336743 27.672035 34.451778 1.105043 0.638131 0.014316 -0.008236 -574328.000000 0 0 1
-8.135489 -18.900443 28.615185 35.245450 1.164328 0.623426 0.024175 -0.016831 -514635.000000 0 0 1
-8.446489 -20.206143 28.986435 36.329668 1.174856 0.647039 0.011986 -0.009370 -489849.000000 0 0 1
-7.399289 -20.820643 29.665415 36.990343 1.229335 0.640198 0.027294 -0.011276 -549065.000000 0 0 1
-7.728089 -22.170543 30.418815 38.426041 1.235392 0.657341 0.013648 -0.005764 -1518.550000 0 0 1
-7.654189 -23.420243 29.738315 38.619448 1.254920 0.691901 0.009958 -0.013357 -81682.600000 0 0 1
-8.118489 -24.461243 30.578665 39.991462 1.250344 0.700330 0.009695 -0.012093 -222459.000000 0 0 1
-8.157789 -25.854443 29.815625 40.298551 1.265156 0.737922 0.012298 -0.008528 -535792.000000 0 0 1
-9.289689 -26.004943 29.003795 40.047166 1.227697 0.760863 0.006365 -0.011909 -124681.000000 0 0 1
-9.196289 -27.135243 28.194885 40.197571 1.244039 0.793426 0.005977 -0.013761 -130872.000000 0 0 1
-10.505689 -27.382143 27.399715 40.135964 1.204447 0.819383 0.012507 -0.018260 154224.000000 0 0 1
-10.590189 -26.716243 26.135115 38.845257 1.193401 0.832808 0.014464 -0.017287 53367.900000 0 0 1
-11.129989 -25.410943 26.156745 38.128309 1.157966 0.814793 0.006695 -0.008106 -455526.000000 0 0 1
-11.401989 -24.853443 24.722245 36.863103 1.140674 0.835711 0.016380 -0.022415 353516.000000 0 0 1
-12.595889 -25.339043 24.073665 37.151916 1.109476 0.865868 0.014735 -0.021981 653485.000000 0 0 1
-12.655489 -24.771743 22.761235 35.942655 1.098479 0.885031 0.018864 -0.024489 189743.000000 0 0 1
-13.999489 -24.750043 21.967435 35.932138 1.056029 0.913020 0.024981 -0.024895 120742.000000 0 0 1
-14.352789 -25.996243 21.478435 36.648743 1.066335 0.944606 0.035189 -0.029374 460957.000000 0 0 1
-15.456489 -25.952643 20.551435 36.534972 1.033644 0.973373 0.040777 -0.030378 534434.000000 0 0 1
-16.025689 -27.383743 20.303335 37.668521 1.041311 1.001547 0.047953 -0.027801 389828.000000 0 0 1
-15.187589 -28.026443 19.335535 37.282801 1.074192 1.025562 0.039347 -0.026600 356906.000000 0 0 1
-15.569589 -29.361843 19.142335 38.353082 1.083230 1.048227 0.048963 -0.022941 359716.000000 0 0 1
-14.630889 -30.054243 18.111435 38.017687 1.117751 1.074246 0.051582 -0.023466 330634.000000 0 0 1
-14.866889 -29.551843 16.838435 37.119654 1.104689 1.099967 0.048961 -0.027141 -63254.400000 0 0 1
-13.798389 -29.837143 15.964335 36.544639 1.137632 1.118708 0.055423 -0.025387 67792.100000 0 0 1
-14.140289 -29.249243 14.598635 35.617217 1.120483 1.148478 0.039489 -0.022715 -240999.000000 0 0 1
-13.983689 -27.830943 14.610435 34.403049 1.105190 1.132183 0.044490 -0.017726 -18408.600000 0 0 1
-14.020589 -27.136443 13.354635 33.336313 1.093902 1.158621 0.043205 -0.009255 102699.000000 0 0 1
-12.964089 -27.414643 12.253735 32.707557 1.129072 1.186782 0.039463 -0.003565 140428.000000 0 0 1
-13.320289 -26.725143 11.055635 31.841646 1.108415 1.216205 0.029209 0.005352 -70390.800000 0 0 1
-12.416089 -27.009243 10.028735 31.372504 1.139907 1.245419 0.031087 0.005394 -285065.000000 0 0 1
-12.714589 -26.291443 8.693235 30.470856 1.120353 1.281480 0.024120 0.009820 -147679.000000 0 0 1
-13.900889 -26.709343 8.068435 31.172478 1.090923 1.308984 0.035380 -0.002722 -274825.000000 0 0 1
-14.107689 -25.980343 6.896935 30.357418 1.073332 1.341604 0.029972 0.001791 446674.000000 0 0 1
-15.226389 -26.563143 5.969935 31.194288 1.050305 1.378229 0.034035 -0.008576 211948.000000 0 0 1
-14.860889 -27.706043 5.268035 31.878253 1.078472 1.404780 0.046781 -0.007488 -156043.000000 0 0 1
-15.580689 -27.713843 4.058535 32.051313 1.058636 1.443829 0.041529 -0.004116 18103.400000 0 0 1
-15.143089 -28.918543 3.154735 32.795543 1.088411 1.474453 0.035388 0.004068 -156680.000000 0 0 1
-13.858989 -28.818943 2.604935 32.084089 1.122546 1.489516 0.044752 0.007898 -391056.000000 0 0 1
-13.505689 -30.000443 1.840335 32.951738 1.147790 1.514918 0.031098 0.005812 -242515.000000 0 0 1
-12.151189 -29.973743 1.129135 32.362812 1.185648 1.535899 0.018261 0.005841 -191182.000000 0 0 1
-12.001389 -29.347943 -0.102565 31.707186 1.182612 1.574031 0.019864 0.015569 -258019.000000 0 0 1
-12.198089 -27.936143 -0.169965 30.483608 1.159106 1.576372 0.016706 0.014784 -371730.000000 0 0 1
-11.819289 -27.251443 -1.508065 29.742411 1.161569 1.621522 0.019798 0.014871 419703.000000 0 0 1
-10.437689 -27.322243 -1.834865 29.305581 1.205884 1.633449 0.018207 0.013160 -39775.500000 0 0 1
-10.181189 -26.428443 -2.873865 28.467145 1.203082 1.671922 0.033743 0.006371 -30088.400000 0 0 1
-8.835689 -26.692943 -3.548065 28.340278 1.251136 1.696321 0.018364 0.004696 -287300.000000 0 0 1
-8.399489 -25.666943 -4.350765 27.354571 1.254531 1.730525 0.015693 -0.004092 616347.000000 0 0 1
-7.113089 -26.014343 -4.933865 27.416876 1.303891 1.751739 0.004402 0.006844 1559680.000000 0 0 1
-6.437289 -24.958443 -5.843065 26.429226 1.318377 1.793722 0.000012 0.000312 155796.000000 0 0 1
-7.055089 -24.918343 -7.121065 26.859033 1.294889 1.839132 -0.002116 -0.001223 -254815.000000 0 0 1
-6.339689 -23.984543 -7.863765 26.024772 1.312382 1.877759 -0.004782 0.001609 -477488.000000 0 0 1
-6.609789 -23.746943 -9.383365 26.375257 1.299325 1.934528 -0.001414 -0.004880 -102271.000000 0 0 1
-5.955489 -24.853943 -10.057265 27.465158 1.335611 1.945700 -0.021614 -0.004717 79216.600000 0 0 1
-6.215989 -24.853143 -11.472665 28.070256 1.325715 1.991839 -0.028208 0.002862 405198.000000 0 0 1
-7.612689 -25.395743 -11.908865 29.064031 1.279558 1.992972 -0.027278 -0.001078 289825.000000 0 0 1
-7.869489 -25.191043 -13.269765 29.539874 1.268010 2.036683 -0.021622 -0.001753 110352.000000 0 0 1
-9.082289 -25.777443 -13.709365 30.576318 1.232043 2.035732 -0.019569 -0.007149 -836891.000000 0 0 1
-9.164489 -25.633443 -15.287865 31.221468 1.227437 2.082495 -0.009176 -0.012311 132308.000000 0 0 1
-8.301689 -26.501343 -15.999065 32.050106 1.267223 2.093459 -0.011118 -0.011107 989044.000000 0 0 1
-6.900089 -26.171243 -15.938465 31.409869 1.313011 2.103002 -0.013749 -0.010266 409994.000000 0 0 1
-6.006089 -27.184743 -16.641765 32.435038 1.353353 2.109565 -0.014290 -0.012815 -350325.000000 0 0 1
-5.909789 -26.956443 -18.054765 32.978023 1.354976 2.150145 0.007213 -0.014965 -548353.000000 0 0 1
-4.775189 -27.430343 -18.697565 33.538412 1.398439 2.162164 0.010551 -0.019692 -643997.000000 0 0 1
-24.804289 14.831979 -5.568499 29.432100 -0.538918 1.761142 0.021300 -0.013420 -393789.000000 0 0 1
-24.996189 13.525079 -5.076699 28.870575 -0.495973 1.747559 0.014772 -0.011309 -272475.000000 0 0 1
-23.782889 12.841579 -4.991199 27.485342 -0.495095 1.753404 0.026575 -0.010289 -969248.000000 0 0 1
-23.852989 11.344579 -4.529099 26.798830 -0.443941 1.740615 0.035570 -0.018602 -6972.630000 0 0 1
-24.402089 10.454279 -5.507099 27.112396 -0.404762 1.775341 0.031621 -0.011415 669080.000000 0 0 1
-25.775049 10.618679 -5.847199 28.483315 -0.390787 1.777551 0.025158 -0.011839 -7798.750000 0 0 1
-26.026949 9.960079 -7.208999 28.784977 -0.365490 1.823934 0.041969 -0.003238 -422725.000000 0 0 1
-25.765089 10.880779 -8.288199 29.170626 -0.399587 1.858893 0.057400 0.005348 -271378.000000 0 0 1
-26.062219 10.290379 -9.506199 29.588832 -0.376049 1.897874 0.058467 0.005637 -401644.000000 0 0 1
-26.312269 11.300779 -10.687299 30.565691 -0.405665 1.927994 0.044826 -0.000836 1045750.000000 0 0 1
-25.160269 12.170179 -10.950299 30.017685 -0.450528 1.944209 0.051334 0.001066 1266950.000000 0 0 1
-25.446799 13.106479 -12.001599 31.038005 -0.475618 1.967819 0.052332 -0.004421 -226636.000000 0 0 1
-24.391589 14.198579 -12.227199 30.757985 -0.527161 1.979619 0.047254 -0.003723 -265015.000000 0 0 1
-24.380189 15.283579 -11.323199 30.922423 -0.559954 1.945698 0.043976 0.005572 97410.300000 0 0 1
-23.894189 16.450379 -11.918299 31.362288 -0.602944 1.960614 0.042373 0.001777 -225158.000000 0 0 1
-23.833489 17.661479 -11.048899 31.655034 -0.637740 1.927344 0.036407 -0.003840 -68798.100000 0 0 1
-22.889189 17.627879 -9.989299 30.568663 -0.656267 1.903693 0.022118 0.003529 178724.000000 0 0 1
-22.767589 19.003279 -9.486899 31.136618 -0.695523 1.880405 -0.010843 0.009574 -150285.000000 0 0 1
-21.638089 19.130379 -8.463499 30.096663 -0.723965 1.855852 -0.015378 0.016396 -261097.000000 0 0 1
-22.007889 18.484579 -7.238999 29.638319 -0.698605 1.817537 -0.001680 0.009346 374089.000000 0 0 1
-22.768689 19.324479 -6.376399 30.536980 -0.703757 1.781153 -0.004567 0.001051 161301.000000 0 0 1
-23.334389 18.598379 -5.144299 30.279650 -0.672932 1.741517 -0.004230 0.001185 171238.000000 0 0 1
-22.270089 18.303979 -4.265599 29.140828 -0.687958 1.717703 0.007775 -0.014702 423015.000000 0 0 1
-22.733889 17.936379 -2.967799 29.109298 -0.667980 1.672927 -0.000373 -0.011204 325227.000000 0 0 1
-21.543189 17.595879 -2.015799 27.888840 -0.684885 1.643139 0.018469 -0.027303 66233.800000 0 0 1
-20.852989 18.699479 -1.448199 28.046656 -0.731005 1.622455 0.019613 -0.024906 7239.100000 0 0 1
-19.972189 18.321879 -0.436099 27.106637 -0.742329 1.586885 0.068765 -0.044980 -575117.000000 0 0 1
-19.268189 19.566479 0.065301 27.461145 -0.793079 1.568418 0.057290 -0.042316 -653270.000000 0 0 1
-20.132589 20.523879 0.653001 28.757210 -0.795022 1.548087 0.043924 -0.034077 259842.000000 0 0 1
-19.607289 21.852679 0.788201 29.370165 -0.839503 1.543956 0.046124 -0.026588 557751.000000 0 0 1
-20.501889 22.627879 1.867901 30.591460 -0.834651 1.509699 0.026010 -0.015401 621331.000000 0 0 1
-20.327189 22.122779 3.220901 30.215661 -0.827672 1.463996 0.035575 -0.021016 630920.000000 0 0 1
-21.557889 22.245779 3.937401 31.226917 -0.801101 1.444370 0.019562 -0.015351 477060.000000 0 0 1
-21.415289 21.736179 5.416701 30.990591 -0.792834 1.395109 0.028506 -0.012848 50646.400000 0 0 1
-20.740789 22.767579 6.158501 31.408122 -0.831948 1.373438 0.026340 -0.003108 773319.000000 0 0 1
-19.895489 22.365079 7.256601 30.800738 -0.843769 1.332962 0.028241 0.000430 735740.000000 0 0 1
-20.697889 21.879079 8.523901 31.301016 -0.813134 1.294993 0.011758 -0.015694 -308600.000000 0 0 1
-21.559089 20.763279 8.455101 31.103003 -0.766597 1.295490 0.013314 -0.009265 560451.000000 0 0 1
-22.012289 20.190279 9.679101 31.398618 -0.742252 1.257427 0.012837 -0.008396 87225.800000 0 0 1
-22.640389 21.174179 10.753701 32.811205 -0.751947 1.236881 0.019354 -0.012858 -1232140.000000 0 0 1
-23.856789 21.724979 10.353701 33.886874 -0.738663 1.260294 0.030926 -0.012015 -38856.000000 0 0 1
-24.321789 22.647979 11.311501 35.105988 -0.749777 1.242733 0.039371 -0.009446 68440.400000 0 0 1
-25.557479 23.530679 11.022501 36.446853 -0.744133 1.263559 0.056304 -0.013802 2558.900000 0 0 1
-26.039999 24.156679 12.192601 37.553777 -0.747897 1.240133 0.055553 -0.013775 -104752.000000 0 0 1
-26.590929 25.416479 11.972901 38.683656 -0.762820 1.256121 0.052107 -0.012941 -59584.000000 0 0 1
-27.160219 26.096979 13.261001 39.932242 -0.765437 1.232280 0.052231 -0.013700 236485.000000 0 0 1
-26.190539 26.078579 14.301201 39.630303 -0.783256 1.201601 0.039335 -0.012571 121413.000000 0 0 1
-26.607099 26.797979 15.440401 40.797982 -0.788972 1.182664 0.042428 -0.004852 -301642.000000 0 0 1
-25.556169 26.931479 16.535601 40.642938 -0.811595 1.151793 0.031575 -0.007157 -363071.000000 0 0 1
-25.205959 25.663879 17.020101 39.795212 -0.794400 1.128858 0.041306 -0.009730 -115386.000000 0 0 1
-24.204089 25.755979 17.997901 39.662738 -0.816451 1.099801 0.030645 -0.006693 -153890.000000 0 0 1
-23.939189 24.392679 18.739401 38.977592 -0.794781 1.069259 0.040323 -0.001953 79195.200000 0 0 1
-22.779789 24.320779 19.552601 38.635777 -0.818104 1.040168 0.040561 -0.007751 294773.000000 0 0 1
-22.543489 23.062679 20.078301 37.989923 -0.796782 1.013944 0.040965 -0.003655 -462497.000000 0 0 1
-21.075289 22.917979 20.523001 37.290684 -0.827259 0.988011 0.048371 -0.007259 -707821.000000 0 0 1
-20.214989 23.386279 19.506401 36.552202 -0.858004 1.007875 0.041929 -0.014907 913660.000000 0 0 1
-18.837089 22.954879 19.600501 35.580079 -0.883612 0.987373 0.034487 -0.016060 995499.000000 0 0 1
-18.601289 21.384679 19.349601 34.317918 -0.854895 0.971776 0.040803 0.005543 -823440.000000 0 0 1
-18.845089 20.567279 20.500901 34.618453 -0.829067 0.937015 0.034243 0.001447 -25462.900000 0 0 1
-17.961889 20.698279 21.602101 34.895544 -0.856061 0.903263 0.024731 0.006846 -282763.000000 0 0 1
-18.610089 20.342479 22.953701 35.875120 -0.829843 0.876529 0.010418 0.009909 772601.000000 0 0 1
-19.623589 21.334579 23.333001 37.211267 -0.827148 0.893047 0.019366 0.008991 1055350.000000 0 0 1
-20.091489 21.307679 24.695801 38.308846 -0.814767 0.870231 0.028558 0.013603 544635.000000 0 0 1
-21.386089 22.155479 24.907801 39.605916 -0.803067 0.890670 0.025118 0.008719 58813.200000 0 0 1
-21.078489 23.521179 24.696001 40.092905 -0.840113 0.907180 0.035347 0.001302 533810.000000 0 0 1
-22.084389 24.493879 25.040801 41.409082 -0.837082 0.921385 0.028880 -0.003814 -135968.000000 0 0 1
-23.141389 24.710179 23.984701 41.489549 -0.818171 0.954410 0.026681 -0.002094 -341990.000000 0 0 1
-24.048789 23.618079 23.789901 41.256724 -0.776363 0.956197 0.021314 -0.002514 371281.000000 0 0 1
-24.885489 23.982779 22.698201 41.348151 -0.766928 0.989685 0.024707 0.004148 -394626.000000 0 0 1
-25.935859 22.986379 22.231201 41.173641 -0.725182 1.000433 0.026859 0.010449 80066.900000 0 0 1
-27.098799 23.008579 23.064601 42.375882 -0.703950 0.995259 0.006295 0.000759 561267.000000 0 0 1
-28.096199 22.134579 22.503501 42.258059 -0.667266 1.009215 0.009376 0.003086 666546.000000 0 0 1
-29.530139 22.565379 22.927901 43.668227 -0.652494 1.018025 0.026806 0.005718 -475193.000000 0 0 1
-29.938169 23.625079 22.105001 44.080261 -0.668077 1.045497 0.013805 0.003967 436957.000000 0 0 1
-31.357219 23.757679 22.060801 45.104117 -0.648377 1.059729 0.007807 -0.002008 596159.000000 0 0 1
-32.182209 22.921679 21.082301 44.783494 -0.618898 1.080644 0.012790 -0.008040 -855500.000000 0 0 1
-32.135149 21.632979 21.648501 44.376921 -0.592503 1.061191 0.011891 -0.001791 262862.000000 0 0 1
-32.688639 20.612879 20.776401 43.875924 -0.562604 1.077506 0.016053 0.003230 1949530.000000 0 0 1
-34.286238 20.596279 20.618501 44.998615 -0.540946 1.094824 0.008850 0.000306 1651340.000000 0 0 1
-34.711203 19.710379 19.576701 44.459126 -0.516436 1.114830 0.018403 0.003447 -182799.000000 0 0 1
34.881112 19.574279 19.461201 44.481262 0.511380 1.117964 0.018200 -0.002253 3709.790000 0 0 1
34.358732 18.754879 18.201801 43.169127 0.499655 1.135544 0.044243 -0.011550 -114744.000000 0 0 1
34.598502 17.341579 18.328401 42.821922 0.464626 1.128502 0.055607 -0.010734 420324.000000 0 0 1
34.202142 16.643679 17.168201 41.731830 0.452892 1.146814 0.052963 -0.015851 53744.300000 0 0 1
34.218042 15.095579 17.319401 41.215440 0.415477 1.137113 0.054668 -0.018210 376035.000000 0 0 1
33.278372 14.492179 16.417901 39.837429 0.410717 1.146014 0.052104 -0.030613 411736.000000 0 0 1
33.293872 13.105379 16.504001 39.403235 0.375001 1.138619 0.031357 -0.035300 -165371.000000 0 0 1
32.337282 12.448279 15.517701 37.966544 0.367466 1.149745 0.042256 -0.038965 -412786.000000 0 0 1
32.631292 12.779279 14.221601 37.820168 0.373267 1.185286 0.064157 -0.041188 441449.000000 0 0 1
31.755782 12.144379 13.273301 36.497892 0.365269 1.198588 0.060978 -0.036386 -23722.900000 0 0 1
32.066032 12.665279 11.807701 36.442578 0.376167 1.240833 0.058994 -0.030313 -590514.000000 0 0 1
33.339772 12.327779 11.365701 37.318811 0.354171 1.261323 0.058259 -0.033834 -355143.000000 0 0 1
33.440322 12.584779 9.972801 37.095667 0.359941 1.298608 0.047658 -0.027098 -1088850.000000 0 0 1
34.870922 12.556779 9.500701 38.261171 0.345638 1.319859 0.054492 -0.018225 -1081210.000000 0 0 1
-35.472145 11.303279 9.546301 38.433957 -0.308480 1.319787 0.065173 -0.015835 513078.000000 0 0 1
-34.108658 11.326079 9.132101 37.082015 -0.320603 1.321969 0.073502 -0.014642 320468.000000 0 0 1
-33.764499 11.296279 7.638001 36.414096 -0.322855 1.359473 0.093950 -0.030174 -430137.000000 0 0 1
-34.052759 12.527179 6.942101 36.942027 -0.352510 1.381754 0.086836 -0.031030 156075.000000 0 0 1
-33.922249 12.310279 5.545001 36.510395 -0.348118 1.418332 0.074419 -0.028623 -211327.000000 0 0 1
-35.069003 13.043679 4.833901 37.727167 -0.356088 1.442315 0.055233 -0.029777 386160.000000 0 0 1
34.638782 12.503079 5.212201 37.193269 0.346402 1.430195 0.040114 -0.035775 -36156.900000 0 0 1
33.614792 13.382979 4.894601 36.510484 0.378891 1.436331 0.049687 -0.024607 -395063.000000 0 0 1
33.102152 14.226979 6.102401 36.543107 0.405921 1.403018 0.030000 -0.021914 -995777.000000 0 0 1
32.080322 15.132579 5.696301 35.924780 0.440760 1.411562 0.000140 -0.019488 258476.000000 0 0 1
31.606242 15.941179 6.770301 36.040431 0.467136 1.381821 0.013314 -0.018245 73901.700000 0 0 1
30.517622 15.273379 7.631301 34.969102 0.464029 1.350796 0.014543 -0.016454 -260743.000000 0 0 1
31.084652 14.145579 8.248601 35.133921 0.427059 1.333808 0.012367 -0.011421 60024.000000 0 0 1
30.059972 13.197879 8.431901 33.895175 0.413712 1.319392 0.029018 -0.015148 -354991.000000 0 0 1
30.242392 12.020679 7.465501 33.389110 0.378330 1.345299 0.028751 -0.012631 -16999.200000 0 0 1
29.955472 12.402379 6.112001 32.992512 0.392540 1.384466 0.005965 -0.017117 300394.000000 0 0 1
30.251942 11.203279 5.346401 32.699808 0.354672 1.406560 0.029943 -0.025278 -228362.000000 0 0 1
30.074182 11.331879 3.872501 32.370730 0.360346 1.450879 0.017251 -0.032937 -113659.000000 0 0 1
28.711812 11.232079 3.509901 31.029778 0.372898 1.457440 0.006053 -0.022889 233405.000000 0 0 1
28.546352 11.523679 2.101701 30.856223 0.383677 1.502631 0.016135 -0.022209 -1770460.000000 0 0 1
27.128652 11.347279 1.726401 29.456832 0.396162 1.512155 0.024943 -0.007387 -1676460.000000 0 0 1
26.665902 10.011379 1.609401 28.528726 0.359154 1.514353 0.027295 -0.010603 -875131.000000 0 0 1
25.293562 9.903779 1.696701 27.216317 0.373204 1.508415 0.025444 -0.007175 -870777.000000 0 0 1
24.769562 8.425279 1.706201 26.218841 0.327870 1.505675 0.027868 -0.011088 173150.000000 0 0 1
25.231662 7.661979 2.824901 26.520233 0.294816 1.464075 0.035343 -0.011027 385065.000000 0 0 1
26.561462 7.189979 2.780301 27.657497 0.264357 1.470100 0.044364 -0.017114 -212695.000000 0 0 1
26.908002 6.386579 4.067201 27.953015 0.233037 1.424777 0.048030 -0.017056 -1183890.000000 0 0 1
28.259792 6.078479 4.107501 29.196495 0.211865 1.429643 0.064732 -0.021673 -462981.000000 0 0 1
28.488562 5.423079 5.357101 29.490786 0.188109 1.388129 0.056303 -0.012100 -485239.000000 0 0 1
29.988422 5.288979 5.623101 30.966078 0.174572 1.388194 0.039288 -0.014457 -403727.000000 0 0 1
30.537482 6.536779 6.004601 31.801297 0.210875 1.380840 0.045835 -0.013377 -45085.500000 0 0 1
31.913172 6.459579 6.347601 33.173314 0.199713 1.378262 0.030539 -0.006360 488700.000000 0 0 1
32.393512 7.831079 7.038401 34.061775 0.237197 1.362660 0.021633 -0.011902 134458.000000 0 0 1
31.870242 7.904979 8.350301 33.881094 0.243130 1.321771 0.020507 -0.014740 -16197.800000 0 0 1
32.336562 9.037979 9.071101 34.779637 0.272542 1.306929 0.031798 -0.018278 -137639.000000 0 0 1
31.842942 9.155679 10.512601 34.760814 0.279974 1.263559 0.036412 -0.023920 -924394.000000 0 0 1
30.501502 9.433579 10.746701 33.687173 0.299951 1.246107 0.035463 -0.022002 -459103.000000 0 0 1
30.077682 9.094379 12.090101 33.668163 0.293623 1.203497 0.039108 -0.025828 -706011.000000 0 0 1
28.593572 9.300979 12.353801 32.507183 0.314487 1.180964 0.029642 -0.027131 -690892.000000 0 0 1
28.166152 10.644379 12.680101 32.671392 0.361323 1.172216 0.036831 -0.026450 268657.000000 0 0 1
28.061442 11.533779 11.570801 32.470849 0.389969 1.206444 0.034739 -0.027991 -586254.000000 0 0 1
26.940692 11.470179 10.522301 31.114059 0.402511 1.225809 0.025085 -0.023728 -317819.000000 0 0 1
27.181072 12.446979 9.544701 31.382149 0.429427 1.261756 0.007756 -0.002400 -53296.900000 0 0 1
26.164782 12.411779 8.591801 30.207070 0.442934 1.282384 0.008517 -0.007419 -435018.000000 0 0 1
26.335952 13.606679 7.634001 30.610489 0.476885 1.318744 -0.001874 0.002090 -22032.300000 0 0 1
26.101942 14.850179 8.290901 31.154104 0.517261 1.301425 -0.009704 0.011219 411362.000000 0 0 1
26.230792 15.885579 7.331001 31.530138 0.544533 1.336141 -0.014737 0.009929 -835554.000000 0 0 1
26.178212 17.356779 7.824201 32.369348 0.585476 1.326662 -0.007527 0.009881 682598.000000 0 0 1
24.979662 18.061979 8.209101 31.899967 0.626040 1.310529 0.004758 0.016855 2143030.000000 0 0 1
23.852862 17.314279 8.821901 30.766365 0.627884 1.279976 0.022600 0.016225 1180750.000000 0 0 1
22.586462 18.186479 8.968201 30.353334 0.677900 1.270859 0.033473 0.008514 -182227.000000 0 0 1
21.920362 18.526979 7.771701 29.734669 0.701698 1.306357 0.041273 0.001717 153074.000000 0 0 1
21.041962 19.626379 8.046201 29.878090 0.750604 1.298129 0.084199 -0.008650 497320.000000 0 0 1
20.102262 19.964679 6.833901 29.144322 0.781964 1.334108 0.065620 -0.006883 544263.000000 0 0 1
20.895862 20.302479 5.709101 29.688744 0.770996 1.377293 0.030895 0.004247 374614.000000 0 0 1
20.014962 20.779279 4.712601 29.233298 0.804132 1.408883 0.048405 -0.004902 223955.000000 0 0 1
16.929511 17.670479 33.149120 41.203377 0.806810 0.635922 0.051453 0.003721 -49881.300000 0 0 1
16.387111 18.567879 32.191435 40.615170 0.847705 0.655741 0.022134 -0.001215 286761.000000 0 0 1
15.849111 17.689779 31.177415 39.193798 0.840225 0.651017 0.034014 0.002644 -210388.000000 0 0 1
15.411011 18.425579 29.924365 38.372761 0.874256 0.676397 0.030419 0.001466 87435.700000 0 0 1
16.501411 18.998779 29.171655 38.525778 0.855630 0.711783 0.018488 0.003180 588249.000000 0 0 1
16.094411 19.067079 27.796225 37.352559 0.869741 0.731522 0.027029 -0.009762 566987.000000 0 0 1
17.289011 19.341879 26.792525 37.294203 0.841382 0.769283 0.016895 0.002832 332350.000000 0 0 1
17.967511 20.526379 26.932155 38.334119 0.851775 0.791803 0.013455 0.000198 -204227.000000 0 0 1
19.004711 20.648879 25.980975 38.243513 0.826838 0.823911 0.009943 0.011259 -52823.500000 0 0 1
19.849911 21.911779 26.305675 39.574405 0.834730 0.843685 0.023553 0.002230 -232816.000000 0 0 1
19.247411 23.148779 26.006255 39.782585 0.877161 0.858320 0.018781 -0.003558 -74959.900000 0 0 1
19.872011 24.136279 26.733075 41.135314 0.881994 0.863368 0.033948 -0.004530 -384448.000000 0 0 1
19.289511 25.555079 26.367725 41.477756 0.924217 0.881871 0.035465 -0.007278 136309.000000 0 0 1
19.330611 25.938579 24.973025 40.867277 0.930345 0.913377 0.035451 -0.006528 22870.500000 0 0 1
18.418411 26.981379 24.753905 40.987662 0.971821 0.922367 0.049293 -0.022063 -155986.000000 0 0 1
18.557111 27.795879 23.458835 40.832514 0.982133 0.958787 0.049805 -0.022168 -188722.000000 0 0 1
19.628911 28.701979 23.400035 41.912520 0.970966 0.978453 0.041799 -0.021102 -144490.000000 0 0 1
19.432611 29.439779 22.232435 41.696620 0.987368 1.008423 0.028864 -0.019241 -117403.000000 0 0 1
20.608211 30.379679 21.949435 42.771497 0.974745 1.031912 0.035212 -0.017692 -288468.000000 0 0 1
21.792911 29.661479 21.622835 42.688187 0.937146 1.039641 0.034736 -0.011836 12358.800000 0 0 1
22.742111 30.523979 20.989535 43.468120 0.930466 1.066865 0.037638 -0.022778 157134.000000 0 0 1
22.601711 30.855379 19.520235 42.941021 0.938587 1.098893 0.032669 -0.018098 -626777.000000 0 0 1
21.748611 31.931179 19.259635 43.168690 0.972862 1.108339 0.008425 -0.009775 -5681.200000 0 0 1
21.544911 32.041879 17.842135 42.534774 0.978836 1.137933 0.014842 -0.006608 112698.000000 0 0 1
21.010311 33.400779 17.281235 43.077677 1.009300 1.158009 0.024532 -0.002547 -657701.000000 0 0 1
21.982711 34.354979 17.540835 44.398030 1.001576 1.164640 0.018250 -0.003738 -41075.700000 0 0 1
22.351311 -33.854343 16.426335 43.766678 -0.987270 1.186059 0.017931 -0.008624 -46407.300000 0 0 1
23.448911 34.484379 15.546835 44.505369 0.973629 1.213946 0.011518 -0.005551 -729772.000000 0 0 1
23.104611 33.412479 14.727335 43.210082 0.965800 1.222996 0.023979 -0.012148 41642.300000 0 0 1
22.172311 33.717379 13.698935 42.616122 0.989102 1.243536 0.008080 -0.012089 25523.500000 0 0 1
21.749811 32.464279 12.909635 41.153886 0.980516 1.251718 0.014190 -0.019500 -711174.000000 0 0 1
22.780711 31.866179 12.220735 41.033651 0.950149 1.268386 0.025831 -0.029123 -452934.000000 0 0 1
22.304911 30.616579 11.670535 39.636919 0.941182 1.271931 0.031733 -0.025578 -796865.000000 0 0 1
23.271911 29.853379 10.732435 39.344520 0.908656 1.294514 0.030930 -0.023328 711651.000000 0 0 1
24.431111 29.166379 11.229735 39.669431 0.873518 1.283789 0.030556 -0.017401 641493.000000 0 0 1
25.376911 30.035979 11.798535 41.053052 0.869280 1.279288 0.037232 -0.018958 -573642.000000 0 0 1
26.775411 29.433679 12.120835 41.595417 0.832655 1.275108 0.040639 -0.018854 428720.000000 0 0 1
26.802511 28.648279 13.304535 41.425948 0.818672 1.243838 0.045865 -0.012097 73153.700000 0 0 1
28.058711 28.055879 13.583535 41.939671 0.785348 1.240966 0.041490 -0.000551 78069.400000 0 0 1
28.200311 27.295479 14.922335 41.987817 0.769095 1.207458 0.025812 -0.001157 -370362.000000 0 0 1
29.545511 27.282879 15.307735 43.030448 0.745604 1.207089 0.018475 -0.015163 -259855.000000 0 0 1
29.786211 26.266979 16.277635 42.920088 0.722697 1.181806 0.013875 -0.014574 -185146.000000 0 0 1
31.076211 26.373179 17.077335 44.191751 0.703716 1.174031 0.016780 -0.010738 -111739.000000 0 0 1
32.303511 26.369579 16.393235 44.806357 0.684605 1.196230 0.024631 -0.011583 -342933.000000 0 0 1
33.424111 26.624579 17.165435 46.050967 0.672645 1.188827 0.026461 -0.010823 -386910.000000 0 0 1
34.711311 26.984679 16.435135 46.937849 0.660810 1.213069 0.028592 -0.019374 -241261.000000 0 0 1
34.584511 28.269679 15.816435 47.385892 0.685266 1.230486 0.030316 -0.013640 -637091.000000 0 0 1
-35.194840 28.663879 15.248535 47.883322 -0.683480 1.246700 0.029953 -0.016444 -627713.000000 0 0 1
-35.264840 29.987779 14.427235 48.487327 -0.704703 1.268675 0.018755 -0.014562 -29086.900000 0 0 1
35.476111 31.102979 15.233435 49.578295 0.719809 1.258484 0.022545 -0.020686 120626.000000 0 0 1
-35.387740 32.290379 14.474535 50.044708 -0.739664 1.277372 0.022730 -0.008983 -436813.000000 0 0 1
34.334411 33.148779 14.583335 49.903577 0.767831 1.274238 0.026060 -0.009947 -909638.000000 0 0 1
34.208211 34.246579 13.701435 50.306651 0.785959 1.294953 0.008888 -0.016417 164612.000000 0 0 1
33.170711 -33.847243 14.007535 49.418043 -0.795493 1.283407 0.004814 -0.007826 -302479.000000 0 0 1
31.759711 -34.290343 13.615835 48.681597 -0.823693 1.287323 0.012405 -0.007185 -654623.000000 0 0 1
31.198411 33.679879 14.383135 48.109767 0.823628 1.267188 0.015927 -0.013728 472069.000000 0 0 1
30.072511 33.074579 13.711835 46.757867 0.832903 1.273170 0.024135 -0.006115 19069.500000 0 0 1
29.418411 31.926579 14.440735 45.752423 0.826262 1.249678 0.033416 -0.016186 -197430.000000 0 0 1
28.402711 32.342379 15.350635 45.698856 0.850163 1.228227 0.036405 -0.012170 356175.000000 0 0 1
28.074911 31.331379 16.261135 45.102998 0.840160 1.201957 0.039184 -0.019265 -197628.000000 0 0 1
26.940611 31.558479 17.273435 44.945586 0.864174 1.176326 0.022900 -0.014758 -90932.200000 0 0 1
26.755511 30.629179 18.331835 44.610090 0.852799 1.147317 0.012126 -0.003433 272431.000000 0 0 1
27.792911 30.700279 19.315235 45.694981 0.835062 1.134375 0.020334 -0.003105 121184.000000 0 0 1
27.822911 29.554979 20.343735 45.403510 0.815576 1.106196 0.024784 0.001197 563856.000000 0 0 1
26.732111 29.376979 21.284635 45.062715 0.832501 1.078860 0.021890 -0.008867 484557.000000 0 0 1
27.021411 28.417379 22.297035 45.109443 0.810573 1.053781 0.008226 -0.001966 116653.000000 0 0 1
25.949111 28.102479 23.398735 44.839787 0.825216 1.021802 0.011633 -0.007458 -57095.400000 0 0 1
24.851111 27.436179 22.824335 43.488756 0.834798 1.018277 0.035741 -0.007423 240949.000000 0 0 1
23.597611 27.574079 23.484735 43.228577 0.862951 0.996471 0.043150 -0.015513 582338.000000 0 0 1
23.383911 26.524379 24.601975 43.076759 0.848240 0.962927 0.035211 -0.019270 -512926.000000 0 0 1
24.468011 26.462779 25.490915 44.144637 0.824544 0.955206 0.019692 -0.013426 15478.500000 0 0 1
24.165111 25.521279 26.425915 43.972915 0.812686 0.926096 0.043566 -0.015951 -661920.000000 0 0 1
25.287711 25.466379 27.445455 45.180281 0.788918 0.917931 0.053406 -0.021861 -395214.000000 0 0 1
25.505411 26.644179 28.210015 46.435366 0.807231 0.917873 0.066743 -0.030731 204916.000000 0 0 1
26.382711 27.519579 27.535945 47.027682 0.806486 0.945267 0.050140 -0.014206 -744550.000000 0 0 1
26.851511 28.711079 28.400475 48.496563 0.818854 0.945154 0.020683 -0.012028 -743013.000000 0 0 1
27.586911 28.436679 29.536795 49.417655 0.800565 0.930171 0.024759 -0.006514 -168484.000000 0 0 1
27.807411 29.596879 30.264435 50.647442 0.816561 0.930353 0.011622 -0.008151 -67394.000000 0 0 1
29.268611 30.080379 30.363485 51.801757 0.799075 0.944500 -0.003504 -0.003721 -117164.000000 0 0 1
29.753711 30.244879 29.050165 51.419336 0.793584 0.970405 -0.020076 -0.007078 -430723.000000 0 0 1
31.162211 30.232279 29.022755 52.224461 0.770252 0.981554 0.003096 -0.013284 29095.100000 0 0 1
31.779911 30.700479 27.678775 52.140164 0.768124 1.011189 -0.001467 -0.013560 -606195.000000 0 0 1
31.514011 32.052479 27.459085 52.673481 0.793869 1.022414 -0.003972 -0.009698 111370.000000 0 0 1
32.108711 32.562079 26.297185 52.752253 0.792408 1.048925 0.004613 -0.010482 -601005.000000 0 0 1
31.677311 33.964879 25.968765 53.211294 0.820233 1.060964 -0.001946 -0.010057 -581653.000000 0 0 1
32.202411 -34.074043 26.819045 54.012007 -0.813630 1.051190 0.031272 -0.018736 135371.000000 0 0 1
31.818511 -32.783443 26.548865 52.839512 -0.800334 1.044374 0.038036 -0.011569 -211542.000000 0 0 1
32.876411 -31.886543 27.254885 53.295767 -0.770115 1.033996 0.040305 -0.019253 291482.000000 0 0 1
32.777211 -31.790743 28.673935 53.918378 -0.770121 1.010069 0.032262 -0.028389 161768.000000 0 0 1
33.761011 -30.907043 29.141775 54.261351 -0.741294 1.003845 0.047102 -0.030174 -321700.000000 0 0 1
33.642211 -30.480043 30.661245 54.780866 -0.736123 0.976764 0.038582 -0.031496 -437641.000000 0 0 1
33.571511 -31.508043 31.629985 55.859279 -0.753702 0.968855 0.037779 -0.027714 870402.000000 0 0 1
32.438611 -32.411443 31.680815 55.735439 -0.784979 0.966219 0.030063 -0.025612 412413.000000 0 0 1
32.390511 -33.362643 32.895427 56.958935 -0.800182 0.955098 0.026373 -0.017247 -341430.000000 0 0 1
32.101211 -32.750643 34.138000 57.170757 -0.795412 0.930886 0.028266 -0.021116 206583.000000 0 0 1
32.402711 -33.461843 -33.503849 57.377160 -0.801477 2.194349 0.023611 -0.015437 -10192.700000 0 0 1
31.764411 34.125279 -33.345409 57.318660 0.821213 2.191681 0.009613 -0.012007 -181146.000000 0 0 1
32.242511 33.216779 -34.306080 57.618062 0.800281 2.208566 0.013774 -0.011999 263026.000000 0 0 1
31.315611 32.155279 34.389179 56.544187 0.798627 0.917028 0.019099 -0.006054 36126.000000 0 0 1
31.705211 31.235079 33.216798 55.535630 0.777929 0.929647 0.005910 -0.001642 -616784.000000 0 0 1
32.909111 30.565579 33.397342 55.970051 0.748494 0.931414 0.001510 -0.005649 -482563.000000 0 0 1
33.166711 29.729779 32.306185 55.023450 0.730808 0.943282 -0.000253 -0.003775 -850169.000000 0 0 1
34.568211 29.198979 32.527955 55.727995 0.701396 0.947529 0.000320 -0.005417 -842724.000000 0 0 1
34.591011 27.979079 33.230502 55.530470 0.680116 0.929270 0.001596 0.004135 546564.000000 0 0 1
-35.115140 27.353079 33.158524 55.504519 -0.661776 0.930538 -0.009444 0.004318 300219.000000 0 0 1
-35.054940 26.088679 33.959677 55.341915 -0.639793 0.910142 -0.026865 0.010008 115299.000000 0 0 1
35.452611 24.959579 33.214852 54.617713 0.613423 0.917089 -0.025589 0.009466 244113.000000 0 0 1
35.242011 23.814379 33.949849 54.421652 0.594257 0.897163 -0.029216 0.004549 -321315.000000 0 0 1
34.682111 22.636479 33.154364 53.051587 0.578260 0.895734 -0.032634 -0.005577 113771.000000 0 0 1
-35.262340 22.001079 32.386685 52.691341 -0.557826 0.908855 -0.022623 -0.005358 630341.000000 0 0 1
35.304911 20.877579 31.662645 51.815375 0.534035 0.913389 -0.006974 -0.007278 -452585.000000 0 0 1
-34.521040 20.121679 31.014395 50.581388 -0.527737 0.910744 -0.002806 -0.019904 -486002.000000 0 0 1
-34.032640 20.917279 29.962355 49.934916 -0.551103 0.927260 -0.006757 -0.014257 -185236.000000 0 0 1
-32.880940 20.324679 29.400985 48.566106 -0.553643 0.920552 0.010425 -0.014717 -286532.000000 0 0 1
-33.090240 19.252379 28.319355 47.619365 -0.526940 0.933901 0.020821 -0.007467 -897603.000000 0 0 1
-33.807340 18.181679 28.859465 48.024768 -0.493430 0.926134 0.016786 -0.010081 26435.500000 0 0 1
-34.177840 17.362779 27.815705 47.363533 -0.470037 0.943101 0.019964 -0.014439 -388691.000000 0 0 1
-35.026940 16.214979 28.362665 47.898359 -0.433553 0.937081 0.035201 -0.020605 -231324.000000 0 0 1
-34.225740 15.099479 28.758525 47.185255 -0.415489 0.915390 0.038362 -0.012126 202912.000000 0 0 1
-34.874340 14.178579 29.613825 47.898124 -0.386150 0.904261 0.040447 -0.016306 -367383.000000 0 0 1
-34.037640 12.955279 29.983905 47.174513 -0.363685 0.882017 0.045074 -0.012726 -493132.000000 0 0 1
-33.010340 13.217879 30.882585 47.097016 -0.380865 0.855657 0.045051 -0.004309 -149608.000000 0 0 1
-32.403740 12.053079 31.402345 46.705313 -0.356108 0.833417 0.041751 -0.003857 12608.400000 0 0 1
-30.865340 12.221079 31.498125 45.761947 -0.377009 0.811648 0.037255 0.001035 -928749.000000 0 0 1
-30.306440 12.168279 30.205365 44.484956 -0.381806 0.824394 0.032775 -0.001434 719430.000000 0 0 1
-28.944740 12.643879 30.263005 43.743743 -0.411846 0.806783 0.024348 0.007550 1164990.000000 0 0 1
-27.922240 11.520479 30.635235 43.021977 -0.391314 0.778335 0.024524 0.009638 -545384.000000 0 0 1
-27.610840 10.690579 29.499715 41.795695 -0.369413 0.787234 0.020093 0.006615 1068040.000000 0 0 1
-26.443540 9.886679 29.868905 41.099376 -0.357787 0.757220 0.015682 0.005598 817247.000000 0 0 1
-25.975240 8.885979 28.741395 39.745962 -0.329615 0.762477 0.011753 0.001641 29848.900000 0 0 1
-26.811440 7.785379 28.487675 39.887505 -0.282604 0.775315 0.008685 -0.003923 705349.000000 0 0 1
-28.095540 8.074779 27.886365 40.400628 -0.279861 0.808968 0.015625 -0.000177 479046.000000 0 0 1
-28.976340 6.822379 27.747695 40.695303 -0.231235 0.820521 0.012590 -0.001019 -279664.000000 0 0 1
-29.437940 6.437479 29.040515 41.849551 -0.215291 0.803868 0.009107 -0.004856 101768.000000 0 0 1
-30.123840 5.194279 28.924285 42.083732 -0.170752 0.813026 0.008352 -0.007065 -673167.000000 0 0 1
-30.493240 4.765379 30.360415 43.293201 -0.155023 0.793613 -0.001887 -0.000989 -154243.000000 0 0 1
-31.785340 5.262679 30.628445 44.453405 -0.164081 0.810686 0.007242 -0.008244 -330904.000000 0 0 1
-32.281340 4.860879 31.878215 45.628211 -0.149456 0.797285 0.013213 -0.006095 558770.000000 0 0 1
-33.741240 5.411779 32.014595 46.826199 -0.159036 0.817989 0.021307 -0.002969 417918.000000 0 0 1
-33.883440 6.759779 32.249605 47.263295 -0.196916 0.819838 0.030280 -0.002050 865050.000000 0 0 1
-35.307840 6.981479 32.342885 48.388498 -0.195214 0.838740 0.038575 -0.000930 1076280.000000 0 0 1
35.260311 8.453279 32.666975 48.804495 0.235298 0.837471 0.033940 -0.007128 -60709.400000 0 0 1
-35.448740 8.892079 34.015030 49.926991 -0.245772 0.821265 0.028651 -0.006569 396894.000000 0 0 1
34.928311 10.139879 34.327268 50.011652 0.282539 0.814289 0.030497 -0.010526 -95368.300000 0 0 1
34.957511 10.416579 -33.050629 49.222726 0.289601 2.306961 0.023947 -0.012042 -725207.000000 0 0 1
33.979811 9.710879 -32.379519 47.930804 0.278364 2.312503 0.030050 -0.002639 -304553.000000 0 0 1
34.189711 9.888779 -30.978659 47.184760 0.281549 2.287018 0.022801 0.003585 -750861.000000 0 0 1
33.060911 9.249079 -30.243879 45.752175 0.272785 2.292996 0.005132 0.004026 -794747.000000 0 0 1
33.066011 7.861679 -30.270959 45.513713 0.233423 2.298418 -0.001443 0.003403 -188345.000000 0 0 1
31.898111 7.314179 -29.737039 44.218528 0.225402 2.308380 0.004131 0.007249 -485182.000000 0 0 1
34.226022 6.421579 -20.302299 40.309312 0.185466 2.098630 -0.011277 0.014521 -797071.000000 0 0 1
33.492492 7.244479 -19.437799 39.396161 0.213020 2.086783 -0.016462 0.007285 -11059.300000 0 0 1
34.103822 8.450579 -19.089699 39.986242 0.242897 2.068497 -0.017791 0.012075 -111509.000000 0 0 1
-35.479680 8.471979 -18.400699 40.855451 -0.234395 2.037993 -0.011904 0.006864 1350080.000000 0 0 1
-34.309198 8.112279 -19.167099 40.128641 -0.232182 2.068764 -0.006285 0.000665 957815.000000 0 0 1
-33.902999 8.962779 -20.250399 40.494733 -0.258453 2.094482 -0.005740 -0.003279 -933287.000000 0 0 1
-32.962789 8.177079 -21.147999 40.008098 -0.243161 2.127739 -0.004001 -0.003015 -409679.000000 0 0 1
-33.501619 7.098779 -21.953399 40.678039 -0.208805 2.140861 -0.007790 0.008437 413010.000000 0 0 1
-34.312517 7.479179 -23.078799 42.022826 -0.214615 2.152199 -0.016406 0.015038 265086.000000 0 0 1
-34.460255 6.369779 -24.156999 42.563410 -0.182781 2.174327 -0.008691 0.007377 -4462.250000 0 0 1
-33.285699 6.244379 -24.931399 42.053593 -0.185444 2.205387 0.002731 -0.005456 86017.400000 0 0 1
-33.096949 4.895079 -25.406849 42.010449 -0.146837 2.220279 0.014189 0.009981 -185041.000000 0 0 1
-31.850739 4.714679 -26.304529 41.576749 -0.146957 2.255798 0.025035 0.009587 -171845.000000 0 0 1
-30.679839 4.859879 -25.548479 40.219345 -0.157101 2.259101 0.021122 0.006916 -772390.000000 0 0 1
-29.565109 4.466879 -26.285779 39.811944 -0.149952 2.291946 0.019532 0.007284 -618421.000000 0 0 1
-28.203669 4.632979 -25.625349 38.387107 -0.162815 2.301711 0.023349 -0.002373 -361547.000000 0 0 1
-27.875539 6.021479 -25.517139 38.267849 -0.212744 2.300708 0.018380 -0.008938 36749.200000 0 0 1
-26.591149 6.229879 -24.965299 37.002253 -0.230133 2.311350 0.016340 -0.010266 -62281.200000 0 0 1
-26.084079 7.668579 -25.079099 36.988478 -0.285938 2.315868 0.012801 -0.014726 -439814.000000 0 0 1
-26.728899 8.623179 -24.258499 37.111562 -0.312074 2.283212 0.030696 -0.023709 -263691.000000 0 0 1
-26.331819 9.909379 -24.526899 37.324647 -0.359934 2.287793 0.020861 -0.023912 756156.000000 0 0 1
-24.931389 10.380279 -23.969599 36.109085 -0.394525 2.296699 0.036883 -0.013578 461391.000000 0 0 1
-25.010189 10.917879 -22.708199 35.501717 -0.411602 2.264822 0.044496 -0.018498 312564.000000 0 0 1
-23.699389 10.961979 -22.177499 34.258831 -0.433235 2.274901 0.065093 -0.020533 -198373.000000 0 0 1
-23.719489 11.339379 -20.666199 33.440805 -0.445943 2.236984 0.077264 -0.029218 -1215730.000000 0 0 1
-23.997489 12.719979 -20.420499 33.980496 -0.487401 2.215483 0.073345 -0.031455 865423.000000 0 0 1
-25.352179 13.151179 -20.569199 35.196284 -0.478527 2.194954 0.066675 -0.024689 491120.000000 0 0 1
-26.460379 12.381579 -19.780699 35.280748 -0.437663 2.165986 0.056624 -0.020666 -988113.000000 0 0 1
-26.333659 12.386879 -18.361399 34.409844 -0.439674 2.133658 0.063437 -0.023817 -180323.000000 0 0 1
-27.283839 11.627779 -17.707899 34.542478 -0.402868 2.109055 0.043781 -0.025732 -1133630.000000 0 0 1
-26.845739 11.460779 -16.211799 33.389603 -0.403489 2.077771 0.057649 -0.024953 885792.000000 0 0 1
-25.890239 10.415579 -15.898799 32.117917 -0.382485 2.088647 0.073031 -0.026521 540729.000000 0 0 1
-24.590689 10.623379 -16.364499 31.390365 -0.407792 2.119196 0.072101 -0.020597 -971894.000000 0 0 1
-23.660889 9.425179 -16.126499 30.145242 -0.379078 2.135257 0.056325 -0.018713 -512630.000000 0 0 1
-22.290389 9.675779 -16.007599 29.098546 -0.409535 2.153300 0.057376 -0.014244 -308610.000000 0 0 1
-21.675989 8.449979 -15.722799 28.079477 -0.371710 2.165109 0.047755 -0.013958 708126.000000 0 0 1
-20.107489 8.496679 -15.603499 26.832328 -0.399805 2.191390 0.064866 -0.016786 1079270.000000 0 0 1
-19.454389 8.999279 -16.801799 27.235285 -0.433269 2.235611 0.070120 -0.023443 -9809.570000 0 0 1
-18.069789 8.841179 -16.641099 26.107660 -0.455035 2.261919 0.070271 -0.017103 -392065.000000 0 0 1
-17.206489 9.395379 -17.819599 26.492915 -0.499795 2.308537 0.056883 -0.011225 -43126.000000 0 0 1
-17.010389 8.550479 -18.961299 26.869963 -0.465775 2.354163 0.082761 -0.017606 -135626.000000 0 0 1
-16.134089 7.492179 -18.808399 25.888172 -0.434739 2.384047 0.079418 -0.018558 -856903.000000 0 0 1
-15.917689 6.672579 -20.061999 26.464692 -0.396942 2.431140 0.067531 -0.025140 -277419.000000 0 0 1
-16.996789 5.906279 -20.523399 27.294411 -0.334440 2.421776 0.073674 -0.017410 -17985.800000 0 0 1
-17.925589 6.578979 -21.376999 28.663318 -0.351753 2.412526 0.064766 -0.017317 77825.100000 0 0 1
-18.872289 5.529779 -22.025099 29.527051 -0.285032 2.412726 0.063999 -0.014376 -465610.000000 0 0 1
-19.810489 5.060079 -21.104199 29.384470 -0.250077 2.372022 0.049115 -0.019123 145874.000000 0 0 1
-20.471489 3.942579 -21.708399 30.097847 -0.190259 2.376417 0.031479 -0.001534 -444141.000000 0 0 1
-21.501089 3.206979 -20.832199 30.109169 -0.148063 2.334898 0.048696 -0.007162 -140073.000000 0 0 1
-22.016189 2.031379 -21.409699 30.776847 -0.092007 2.340111 0.049112 -0.000677 388490.000000 0 0 1
-22.818389 1.354479 -20.446899 30.669026 -0.059290 2.300563 0.055387 -0.008434 -456120.000000 0 0 1
-23.262789 -0.042921 -20.873799 31.254995 0.001845 2.302119 0.059794 0.004326 -217140.000000 0 0 1
-22.244789 -1.017321 -20.857499 30.510668 0.045701 2.323498 0.057686 -0.006466 -46442.400000 0 0 1
-22.672289 -2.286021 -21.303799 31.194718 0.100489 2.322562 0.047380 -0.002699 -868571.000000 0 0 1
-23.044389 -2.464821 -22.820099 32.525008 0.106555 2.348461 0.035994 -0.008262 -617402.000000 0 0 1
-22.068889 -2.505121 -23.784999 32.542859 0.113030 2.390410 0.013369 -0.007045 -597437.000000 0 0 1
-21.246289 -3.675221 -23.748799 32.076744 0.171287 2.404423 0.009843 -0.011353 695526.000000 0 0 1
-20.159589 -3.644821 -24.892799 32.238877 0.178866 2.452992 0.014147 -0.008197 754117.000000 0 0 1
-20.823089 -3.724621 -26.164899 33.646334 0.176998 2.461707 0.003818 -0.010305 450975.000000 0 0 1
-19.881589 -3.769921 -27.183279 33.888354 0.187394 2.501670 0.005128 -0.011605 -65580.300000 0 0 1
-20.647189 -3.671221 -28.550399 35.424703 0.175968 2.508068 -0.008397 -0.010914 440135.000000 0 0 1
-21.331489 -4.890621 -28.832389 36.197476 0.225373 2.492331 0.005756 -0.006956 294338.000000 0 0 1
-22.197689 -4.742221 -29.931779 37.565110 0.210472 2.492773 -0.017521 -0.011693 -491046.000000 0 0 1
-22.072189 -5.917321 -30.880869 38.416459 0.261930 2.504527 0.009213 -0.010482 -777494.000000 0 0 1
-20.843389 -5.947521 -31.538799 38.268992 0.277957 2.539469 -0.009172 -0.009464 -495465.000000 0 0 1
-20.401089 -7.240021 -31.838879 38.501124 0.341019 2.544475 -0.004944 -0.005214 196420.000000 0 0 1
-18.893989 -7.247021 -32.252279 38.075079 0.366256 2.581245 0.010036 -0.011169 175261.000000 0 0 1
-18.602889 -6.953421 -33.628279 39.054817 0.357702 2.608134 0.017730 -0.015458 360306.000000 0 0 1
-19.079889 -7.922121 34.316455 40.055227 0.393548 0.541903 0.015509 -0.008310 -765076.000000 0 0 1
-18.872589 -7.440021 32.864694 38.621453 0.375517 0.553016 0.017194 0.000157 -89783.000000 0 0 1
-17.536789 -7.266321 32.416285 37.565328 0.392813 0.529755 0.018216 -0.003794 334720.000000 0 0 1
-17.048789 -5.945721 32.808274 37.448573 0.335558 0.503107 0.008811 -0.007318 111670.000000 0 0 1
-15.635589 -5.677721 32.201095 36.243878 0.348322 0.476826 0.004625 -0.009673 231185.000000 0 0 1
-15.695289 -5.695821 30.764675 35.003567 0.348121 0.497243 0.000589 -0.004983 54968.600000 0 0 1
-14.573489 -5.110421 30.141735 33.867789 0.337268 0.473490 -0.005788 -0.003347 -96468.700000 0 0 1
-14.814489 -4.997221 28.638505 32.628289 0.325334 0.499713 -0.003973 0.009844 -114766.000000 0 0 1
-15.635389 -3.945121 28.225215 32.506801 0.247161 0.519059 -0.015563 0.005762 -248700.000000 0 0 1
-16.130289 -4.046821 26.890905 31.617776 0.245810 0.553862 -0.004452 0.008773 -30467.600000 0 0 1
-15.142789 -3.688421 25.761885 30.109520 0.238924 0.544076 -0.003395 0.005282 40223.100000 0 0 1
-14.986289 -2.293321 25.702915 29.841046 0.151850 0.532919 -0.008295 0.007535 -74297.300000 0 0 1
-14.272789 -1.900721 24.557505 28.467460 0.132392 0.530307 -0.014641 0.008562 -191256.000000 0 0 1
-13.847789 -0.413321 24.435905 28.089954 0.029839 0.515764 -0.006315 0.007035 -155935.000000 0 0 1
-14.738689 0.381479 23.686535 27.900294 -0.025877 0.556762 -0.008244 0.002878 -33150.200000 0 0 1
-15.088189 1.561979 24.356075 28.693407 -0.103156 0.557012 -0.019457 0.002974 -315931.000000 0 0 1
-15.791289 2.620379 23.520435 28.450695 -0.164440 0.597564 -0.013360 0.001229 293757.000000 0 0 1
-14.907389 3.064179 22.462735 27.132893 -0.202724 0.595482 -0.017740 0.000433 1038010.000000 0 0 1
-15.624889 3.912679 21.567835 26.918724 -0.245368 0.641464 -0.008781 0.001240 667555.000000 0 0 1
-14.631889 4.678279 20.590735 25.689625 -0.309460 0.640964 0.002473 0.004328 802049.000000 0 0 1
-14.001389 5.798279 21.180635 26.043775 -0.392621 0.621046 -0.000807 -0.002651 446544.000000 0 0 1
-12.620689 5.863779 20.865935 25.080927 -0.434942 0.588194 -0.011023 0.003898 716486.000000 0 0 1
-11.776789 7.113379 21.245435 25.311290 -0.543368 0.574681 -0.006806 0.006453 314305.000000 0 0 1
-12.288589 8.202479 20.519835 25.285444 -0.588571 0.624035 0.004949 -0.002871 485339.000000 0 0 1
-11.347189 9.282079 20.521635 25.220095 -0.685625 0.620304 -0.005832 0.000181 284067.000000 0 0 1
-11.952589 10.715479 20.589735 26.107912 -0.730877 0.662203 0.004190 0.002626 -367126.000000 0 0 1
-12.449989 11.179779 19.365435 25.593158 -0.731695 0.712600 0.010588 0.003305 2901.850000 0 0 1
-13.004289 12.425379 19.565335 26.576378 -0.762637 0.743369 0.000299 0.007583 -571590.000000 0 0 1
-13.279289 13.080279 18.174735 26.033713 -0.777848 0.798024 -0.001692 0.006016 251284.000000 0 0 1
-12.148289 13.704679 17.545935 25.362551 -0.845527 0.806811 -0.001141 0.003804 553705.000000 0 0 1
-11.868189 15.087379 17.936235 26.271495 -0.904261 0.819309 0.002391 0.006527 -291912.000000 0 0 1
-12.880789 16.124079 17.389335 26.986841 -0.896754 0.870606 0.005279 0.010706 -154302.000000 0 0 1
-12.802089 16.455879 16.016535 26.291041 -0.909637 0.915743 -0.005867 0.000482 -2694.580000 0 0 1
-13.262589 15.480379 15.099435 25.367919 -0.862405 0.933260 0.000231 -0.001611 -211217.000000 0 0 1
-13.691289 16.047179 13.736335 25.172410 -0.864453 0.993584 -0.003979 -0.004440 -477748.000000 0 0 1
-14.760789 16.941979 13.785935 26.362161 -0.854091 1.020495 0.004775 -0.002516 -282489.000000 0 0 1
-15.229489 17.222979 12.461635 26.150730 -0.846749 1.074092 0.001831 -0.003432 213883.000000 0 0 1
-16.272589 18.385779 12.431135 27.520304 -0.846295 1.102118 0.013185 -0.009029 590559.000000 0 0 1
-17.560689 17.954179 12.850735 28.211198 -0.796477 1.097841 0.016792 -0.011828 709178.000000 0 0 1
-18.531489 18.984079 13.211935 29.637249 -0.797462 1.108742 0.014939 -0.013361 247403.000000 0 0 1
-19.847989 18.310579 13.544035 30.210277 -0.745130 1.105905 0.017972 -0.005950 -609502.000000 0 0 1
-20.488489 17.923179 12.321835 29.880531 -0.718713 1.145742 0.011378 -0.010126 -166555.000000 0 0 1
-21.727989 17.327879 12.670435 30.543425 -0.673209 1.143037 0.036277 -0.021187 52997.600000 0 0 1
-22.433089 16.697279 11.432935 30.211829 -0.639853 1.182701 0.028869 -0.015725 -309721.000000 0 0 1
-21.881589 15.465679 11.052535 28.985336 -0.615268 1.179578 0.025330 -0.006688 -46724.400000 0 0 1
-22.625789 14.805779 10.009835 28.832867 -0.579446 1.216247 0.025825 -0.016129 -160459.000000 0 0 1
-22.105189 13.435779 9.413535 27.527698 -0.546143 1.221788 0.047768 -0.003850 -447522.000000 0 0 1
-22.248789 12.337979 10.242135 27.425092 -0.506327 1.188062 0.046220 -0.007245 150773.000000 0 0 1
-23.554289 11.884879 10.564635 28.419472 -0.467300 1.189914 0.040016 -0.014195 229147.000000 0 0 1
-24.462889 11.254379 9.459835 28.540891 -0.431188 1.232958 0.052130 0.002545 -133232.000000 0 0 1
-24.912689 12.127379 8.405635 28.954621 -0.453028 1.276252 0.063646 -0.008822 -150615.000000 0 0 1
-25.764059 11.450479 7.550435 29.187485 -0.418217 1.309133 0.064414 -0.009110 -810886.000000 0 0 1
-26.104349 12.444079 6.428135 29.624535 -0.444839 1.352070 0.049348 -0.002642 -612385.000000 0 0 1
-25.339509 12.556779 5.216635 28.757202 -0.460074 1.388384 0.051469 -0.016608 166494.000000 0 0 1
-24.069589 13.154879 5.353635 27.947403 -0.500179 1.378044 0.048602 -0.020674 -323796.000000 0 0 1
-23.986489 14.674979 5.768935 28.705178 -0.549052 1.368446 0.048077 -0.018367 -983453.000000 0 0 1
-22.703389 15.201579 5.964235 27.966122 -0.590012 1.355879 0.040860 -0.016742 -125352.000000 0 0 1
-22.783189 16.493779 6.469935 28.861367 -0.626616 1.344702 0.038005 -0.018091 -47724.900000 0 0 1
-21.423789 17.220079 6.574335 28.261842 -0.677043 1.336023 0.032340 -0.018906 25971.600000 0 0 1
-20.926789 17.779879 5.410535 27.988006 -0.704275 1.376255 0.043223 -0.031010 1035170.000000 0 0 1
-19.567889 18.234679 5.553035 27.317430 -0.750145 1.366092 0.051262 -0.029016 767887.000000 0 0 1
-18.989589 19.048679 4.370935 27.249986 -0.786952 1.409699 0.052080 -0.027378 1147300.000000 0 0 1
-17.553389 19.260279 4.477435 26.441014 -0.831731 1.400640 0.037722 -0.031087 1751900.000000 0 0 1
-17.026589 20.298379 3.628035 26.741196 -0.872832 1.434705 0.038170 -0.030952 114980.000000 0 0 1
-17.212089 21.746679 4.129635 28.039756 -0.901271 1.422981 0.038132 -0.024534 -690572.000000 0 0 1
-16.522289 22.027679 5.272035 28.035674 -0.927251 1.381623 0.043666 -0.025006 -314090.000000 0 0 1
-16.472089 23.404279 5.484235 29.140467 -0.957520 1.381467 0.025589 -0.022910 -244778.000000 0 0 1
-15.758589 23.746279 6.813635 29.302636 -0.984903 1.336122 0.022859 -0.006102 -623001.000000 0 0 1
-16.493089 23.355579 7.919235 29.668490 -0.955939 1.300596 0.022858 -0.009150 -415218.000000 0 0 1
-15.874589 23.405079 9.186035 29.735224 -0.974815 1.256731 0.016044 -0.009902 -317886.000000 0 0 1
-16.621989 22.653079 10.307835 29.928314 -0.937768 1.219178 0.012611 -0.008169 382790.000000 0 0 1
-17.719089 23.432379 10.794735 31.298064 -0.923352 1.218663 0.016787 -0.009300 -372110.000000 0 0 1
-18.580389 22.586579 11.458935 31.411647 -0.882408 1.197380 0.014015 -0.013233 -556245.000000 0 0 1
-19.693289 23.310879 12.247435 32.881946 -0.869322 1.189131 0.002950 -0.011333 -427516.000000 0 0 1
-20.634789 24.023579 11.482435 33.686394 -0.861136 1.222962 0.004715 -0.005305 117620.000000 0 0 1
-20.178889 25.248479 10.889035 34.106368 -0.896536 1.245841 0.010578 -0.001794 -320133.000000 0 0 1
-21.383689 26.099579 10.422735 35.314070 -0.884390 1.271190 0.026053 -0.002726 528081.000000 0 0 1
-22.138689 26.697979 11.483335 36.534512 -0.878486 1.251062 0.028105 -0.021301 350808.000000 0 0 1
-23.141089 27.596879 11.075635 37.679801 -0.872993 1.272449 0.035468 -0.011003 -186542.000000 0 0 1
-23.836589 28.266279 12.240535 38.948635 -0.870212 1.251105 0.030068 -0.020222 -34122.000000 0 0 1
-23.064689 29.363279 12.784435 39.466743 -0.904963 1.240917 0.032016 -0.014158 817286.000000 0 0 1
-23.809989 30.171179 13.695035 40.801588 -0.902698 1.228502 0.032172 -0.011740 -137424.000000 0 0 1
8.148711 -33.593343 28.147975 44.578276 -1.332823 0.887403 0.009502 -0.004539 946591.000000 0 0 1
9.506711 -33.193043 27.872415 44.373722 -1.291857 0.891650 0.017215 -0.020383 915827.000000 0 0 1
9.739511 -32.698243 26.572425 43.244964 -1.281304 0.909091 0.018646 -0.019442 -554139.000000 0 0 1
11.191111 -32.487043 26.110955 43.155891 -1.239048 0.920983 0.019282 -0.017588 -282521.000000 0 0 1
11.842311 -33.725943 25.933505 44.161366 -1.233112 0.943146 0.018277 -0.014654 -271521.000000 0 0 1
13.179011 -33.488443 25.567045 44.145622 -1.195872 0.953108 0.024266 -0.013318 -322625.000000 0 0 1
14.027611 34.255579 25.519855 44.960889 1.182128 0.967207 0.032398 -0.007166 -455193.000000 0 0 1
14.001911 33.545979 24.281715 43.714847 1.175385 0.981884 0.033464 -0.015243 -23440.000000 0 0 1
14.899411 32.456979 24.329845 43.213300 1.140441 0.972764 0.039307 -0.007778 -352187.000000 0 0 1
15.389011 32.032779 22.925435 42.290615 1.122940 0.997871 0.039484 -0.018618 -345262.000000 0 0 1
14.464811 31.183779 22.289335 40.969175 1.136479 0.995538 0.030636 -0.013031 -506224.000000 0 0 1
14.841311 29.810279 22.145635 39.991829 1.108863 0.983930 0.031558 -0.012691 -57592.500000 0 0 1
14.551211 28.784879 23.295235 39.786618 1.102746 0.945294 0.027925 -0.007330 147092.000000 0 0 1
15.306311 28.980079 24.497705 40.917792 1.084870 0.928912 0.036466 -0.014994 162303.000000 0 0 1
14.588611 28.590379 25.648885 41.086526 1.098972 0.896606 0.022367 -0.012963 251638.000000 0 0 1
15.359711 28.847879 27.017725 42.403753 1.081536 0.879996 0.028579 -0.016767 394487.000000 0 0 1
15.410811 30.216079 27.424095 43.618637 1.099165 0.890885 0.028090 -0.009804 810566.000000 0 0 1
16.334111 30.345379 28.541965 44.746944 1.077001 0.879089 0.044200 -0.015701 585911.000000 0 0 1
16.208711 31.723979 29.163225 46.039405 1.098444 0.884805 0.044210 -0.021668 -116073.000000 0 0 1
16.775211 32.756679 28.403365 46.488266 1.097503 0.913499 0.041392 -0.013642 -62666.400000 0 0 1
16.485611 33.986779 29.044775 47.649506 1.119172 0.915303 0.044434 0.004928 356431.000000 0 0 1
17.111611 -33.750543 28.331345 47.271254 -1.101562 0.928125 0.035368 -0.002227 -178404.000000 0 0 1
16.596711 -33.616843 27.000065 46.201152 -1.112200 0.946653 0.044886 -0.009757 -26270.300000 0 0 1
16.874311 -32.410443 26.319775 45.032319 -1.090770 0.946577 0.041859 -0.013880 439378.000000 0 0 1
18.374811 -31.943143 26.228575 45.232026 -1.048786 0.952230 0.042746 -0.005203 846058.000000 0 0 1
18.925411 -31.247343 27.356395 45.639237 -1.026222 0.928039 0.027711 -0.001196 -316177.000000 0 0 1
19.856411 -30.286943 27.003655 45.174920 -0.990488 0.930095 0.026825 0.003874 -365555.000000 0 0 1
20.269111 -29.315843 28.160125 45.422991 -0.965862 0.902113 0.026580 0.006439 -216094.000000 0 0 1
19.179811 -28.512743 28.564665 44.685364 -0.978646 0.877287 0.023021 0.000088 123295.000000 0 0 1
19.476711 -27.623143 29.658085 44.966458 -0.956665 0.850563 0.040151 0.001091 -1080910.000000 0 0 1
18.246211 -27.004943 30.244225 44.462392 -0.976592 0.822733 0.030985 -0.004631 -931772.000000 0 0 1
17.567511 -26.146843 29.373635 43.070701 -0.979194 0.820321 0.026044 0.001630 102079.000000 0 0 1
16.364211 -25.721543 29.998555 42.770299 -1.004179 0.793454 0.032212 0.000791 -202637.000000 0 0 1
15.335611 -25.035843 29.097095 41.335400 -1.021203 0.789885 0.031615 0.011035 -584739.000000 0 0 1
14.897511 -26.028243 28.132415 41.119801 -1.050949 0.817349 0.033581 0.002529 239544.000000 0 0 1
14.308211 -25.497143 26.933385 39.752188 -1.059418 0.826394 0.038636 -0.008313 631305.000000 0 0 1
12.814111 -24.951443 27.023505 38.949272 -1.096358 0.804026 0.026330 -0.003884 1391220.000000 0 0 1
11.877411 -26.021843 27.238185 39.498455 -1.142600 0.809858 0.019246 0.000595 354583.000000 0 0 1
11.571611 -26.788843 26.093985 39.146396 -1.163048 0.841192 0.026634 -0.003706 -752886.000000 0 0 1
10.675111 -28.021743 26.362855 39.927136 -1.206812 0.849613 0.028566 -0.009523 -698781.000000 0 0 1
9.325611 -27.703143 26.398905 39.386969 -1.246085 0.836258 0.015028 -0.012990 -1156930.000000 0 0 1
8.591711 -28.876443 26.465385 40.100911 -1.281604 0.850018 0.005247 -0.012148 291819.000000 0 0 1
7.121811 -28.718743 27.038105 40.081735 -1.327715 0.830409 0.005488 -0.014001 1313120.000000 0 0 1
6.069011 -28.415943 26.122825 39.073017 -1.360380 0.838520 0.008254 -0.013350 300223.000000 0 0 1
6.206411 -27.226543 25.411375 37.756353 -1.346672 0.832491 0.002856 -0.015424 -803501.000000 0 0 1
5.130311 -26.974843 24.315345 36.676944 -1.382852 0.846031 0.009719 -0.006586 -444599.000000 0 0 1
5.078211 -27.788043 23.191235 36.548556 -1.390043 0.883393 -0.012072 -0.003128 -67654.300000 0 0 1
4.524511 -29.116643 23.246835 37.532192 -1.416637 0.902839 -0.017603 0.001043 638873.000000 0 0 1
2.991411 -29.223943 23.592935 37.677765 -1.468790 0.894157 -0.007354 -0.009326 -134846.000000 0 0 1
2.217011 -28.727643 22.561135 36.595046 -1.493776 0.906497 -0.009273 -0.010675 500025.000000 0 0 1
0.977511 -28.060543 22.903535 36.234259 -1.535975 0.886541 0.008902 -0.013304 935704.000000 0 0 1
1.023711 -26.796043 23.779835 35.840709 -1.532611 0.845327 0.003901 -0.011222 -560860.000000 0 0 1
1.162411 -27.006443 25.168315 36.934310 -1.527781 0.821075 0.002515 -0.009472 -109274.000000 0 0 1
1.082111 -25.757743 25.850915 36.508932 -1.528810 0.784034 0.000521 -0.000036 -1033930.000000 0 0 1
2.296311 -25.072343 26.418805 36.494502 -1.479464 0.761340 -0.000389 -0.001402 -1029440.000000 0 0 1
3.248011 -24.777443 25.411905 35.640373 -1.440452 0.777016 0.002892 -0.004293 -355818.000000 0 0 1
4.292911 -23.955043 25.827335 35.486961 -1.393472 0.755691 0.013173 -0.009945 -176628.000000 0 0 1
3.901211 -22.419643 26.002315 34.554019 -1.398513 0.718928 -0.000499 0.002855 -199925.000000 0 0 1
3.634711 -21.698743 24.827875 33.173332 -1.404829 0.725107 0.000205 -0.002830 52015.700000 0 0 1
3.237011 -20.367343 25.077775 32.468472 -1.413183 0.688227 0.002267 0.001497 -64078.800000 0 0 1
3.456211 -19.381743 23.904945 30.968431 -1.394328 0.688951 0.007353 0.002591 -436849.000000 0 0 1
4.779911 -19.021543 23.632535 30.710965 -1.324605 0.692716 0.020764 0.005308 -461360.000000 0 0 1
4.759811 -17.957043 22.642635 29.288225 -1.311688 0.687087 0.023750 0.004863 136363.000000 0 0 1
6.165411 -17.449643 22.253435 28.943353 -1.231162 0.693737 0.031893 0.004785 -287554.000000 0 0 1
6.898611 -18.468743 21.555435 29.211677 -1.213316 0.740836 0.029803 0.001102 425719.000000 0 0 1
8.173411 -18.006043 21.097335 28.915736 -1.144682 0.753039 0.036954 -0.002629 1247860.000000 0 0 1
9.347511 -17.903243 22.149535 29.975056 -1.089615 0.739312 0.034251 0.004823 73738.000000 0 0 1
9.224611 -16.892343 23.164135 30.116803 -1.070966 0.693297 0.032386 0.020457 -111887.000000 0 0 1
10.216111 -17.139743 24.131545 31.312476 -1.033288 0.690906 0.027140 0.020201 -39659.400000 0 0 1
10.106711 -16.243543 25.381505 31.783944 -1.014214 0.645891 0.036745 -0.000140 -157816.000000 0 0 1
10.540011 -14.915843 25.253925 31.166247 -0.955633 0.626137 0.039461 0.005444 177974.000000 0 0 1
10.362411 -14.300343 26.506125 31.850495 -0.943733 0.587725 0.034522 0.002316 97437.900000 0 0 1
10.839411 -12.810843 26.561555 31.418573 -0.868564 0.563465 0.033598 0.005446 55609.000000 0 0 1
10.010811 -12.020843 25.739185 30.120137 -0.876380 0.546111 0.032429 0.009127 345995.000000 0 0 1
10.414411 -10.640843 25.877335 29.855049 -0.796152 0.522116 0.033982 0.010323 -243794.000000 0 0 1
9.556911 -9.734343 25.003885 28.483087 -0.794595 0.499441 0.024537 0.013546 134906.000000 0 0 1
8.252511 -9.617043 25.585485 28.551856 -0.861611 0.459880 0.019868 0.020844 195995.000000 0 0 1
7.447811 -8.915943 24.641365 27.242628 -0.874877 0.440555 0.019656 0.019253 1515170.000000 0 0 1
5.907211 -8.838843 25.050915 27.213390 -0.981647 0.401345 0.023066 0.013157 678841.000000 0 0 1
5.556211 -8.035443 26.171435 27.935351 -0.965823 0.357264 0.028133 0.014550 1338070.000000 0 0 1
4.233811 -8.266943 26.740805 28.307917 -1.097486 0.334299 0.023730 0.013638 2712430.000000 0 0 1
2.934511 -8.023443 25.839725 27.215407 -1.220167 0.319311 0.020955 0.013409 623333.000000 0 0 1
2.843411 -6.736843 25.212305 26.251292 -1.171411 0.282285 0.032140 0.009585 -63796.500000 0 0 1
1.788611 -6.602843 24.274885 25.220363 -1.306260 0.274683 0.037540 -0.001884 225290.000000 0 0 1
1.946711 -5.264443 23.459135 24.121257 -1.216606 0.234846 0.033691 -0.008239 -169396.000000 0 1 0
1.600911 -4.094243 24.125325 24.522582 -1.198059 0.180242 0.032826 -0.001424 -56390.800000 0 1 0
1.879411 -2.923843 23.419335 23.675859 -0.999508 0.147339 0.034570 -0.011943 -55655.800000 0 1 0
0.706411 -2.380843 22.520035 22.656553 -1.282364 0.109833 0.009661 -0.011102 1334980.000000 0 1 0
-0.336789 -1.596843 23.137935 23.195417 1.362934 0.070416 0.012113 -0.010242 361641.000000 0 1 0
-1.249689 -2.205843 24.004605 24.138113 1.055346 0.105225 0.024643 -0.003946 -137112.000000 0 1 0
-2.255589 -1.136843 24.508125 24.637944 0.466852 0.102701 0.019099 0.003276 -99479.600000 0 1 0
-1.588289 -0.252843 25.348395 25.399364 0.157868 0.063362 0.024270 -0.007218 -207851.000000 0 0 1
-2.349989 0.823157 25.804395 25.924252 -0.336925 0.096197 0.024175 -0.008609 -433761.000000 0 0 1
-1.717689 1.492157 27.094535 27.189903 -0.715251 0.083780 0.035520 -0.017466 -189161.000000 0 0 1
-1.727989 0.776157 28.285185 28.348546 -0.422162 0.066872 0.040273 -0.018205 -14012.000000 0 0 1
-1.109889 -0.489843 28.396815 28.422718 0.415633 0.042696 0.051091 -0.020702 380813.000000 0 0 1
0.427211 -0.414843 28.695205 28.701383 -0.770711 0.020749 0.056739 -0.024568 423004.000000 0 0 1
1.303511 0.138157 27.700635 27.731632 0.105594 0.047285 0.051558 -0.027440 343664.000000 0 0 1
1.880111 -0.709843 26.740105 26.815516 -0.361008 0.075014 0.034855 -0.018524 -225542.000000 0 0 1
2.911511 -1.706843 27.244735 27.452974 -0.530240 0.123247 0.031778 -0.014296 -1128890.000000 0 0 1
2.352711 -2.775843 27.990015 28.225547 -0.867717 0.129277 0.039514 -0.011425 -396559.000000 0 0 1
3.269511 -3.645843 28.579135 28.995669 -0.839764 0.169705 0.034632 -0.003596 -234237.000000 0 0 1
4.130011 -4.533943 27.613015 28.285901 -0.831987 0.218557 0.027812 0.000940 479567.000000 0 0 1
5.119211 -3.826843 26.877545 27.627042 -0.641928 0.233464 0.022398 0.004788 -178880.000000 0 0 1
5.602011 -4.517443 25.751245 26.737921 -0.678629 0.272510 0.026404 0.004719 -611758.000000 0 0 1
6.652911 -3.688843 24.941735 26.076022 -0.506269 0.296035 0.039582 0.002491 -393696.000000 0 0 1
7.911911 -3.665843 25.561595 27.007996 -0.433886 0.328754 0.026738 0.008504 -31979.000000 0 0 1
8.705711 -4.876843 25.493975 27.377285 -0.510632 0.373080 0.022968 0.010811 -695427.000000 0 0 1
9.501911 -5.042743 24.286945 26.562591 -0.487911 0.416949 0.026523 0.003039 -1115400.000000 0 0 1
8.609911 -5.130443 23.200435 25.272756 -0.537382 0.407784 0.030317 0.001325 -100160.000000 0 0 1
9.319511 -5.043043 21.982435 24.403135 -0.496006 0.449179 0.034508 -0.001188 164906.000000 0 1 0
9.228011 -3.641843 21.226335 23.430247 -0.375887 0.437208 0.038463 -0.017832 108685.000000 0 1 0
7.896311 -3.251843 20.975635 22.647372 -0.390653 0.386633 0.034794 -0.022139 -358779.000000 0 1 0
7.796611 -2.184843 20.089535 21.659873 -0.273222 0.383127 0.022376 -0.028787 1174560.000000 0 1 0
6.304911 -1.636843 19.988035 21.022671 -0.254006 0.315038 0.032404 -0.022821 1187550.000000 0 1 0
6.020711 -0.959843 21.229635 22.087726 -0.158093 0.279655 0.042248 -0.023715 -146205.000000 0 1 0
4.664011 -0.579843 21.148535 21.664481 -0.123688 0.218680 0.018649 -0.013514 9960.610000 0 1 0
4.208811 0.033157 22.506935 22.897102 0.007878 0.184871 0.019708 -0.022532 -645317.000000 0 1 0
2.898611 0.488157 22.526435 22.717405 0.166845 0.129755 0.014596 -0.018230 -705055.000000 0 1 0
2.505711 1.128157 23.748235 23.906693 0.423049 0.115200 0.027120 -0.018434 -581139.000000 0 1 0
1.019411 1.431157 23.734135 23.799087 0.951864 0.073898 0.020921 -0.014138 -790836.000000 0 1 0
0.708811 2.541157 22.895235 23.046728 1.298778 0.114722 0.023920 -0.030426 -1080040.000000 0 1 0
-0.649089 2.735157 22.924635 23.096348 -1.337793 0.122015 0.015446 -0.026752 -1430250.000000 0 1 0
-1.069189 4.147157 22.542135 22.945368 -1.318478 0.187752 0.019989 -0.022083 -448611.000000 0 1 0
-0.835589 5.132157 23.528235 24.095956 -1.409398 0.217504 0.019022 -0.015518 -163145.000000 0 1 0
-1.751489 6.167157 23.275835 24.142618 -1.294080 0.268773 0.017085 -0.017684 -359960.000000 0 1 0
-1.522389 7.513157 23.940725 25.138089 -1.370873 0.309885 0.023999 -0.012445 -827345.000000 0 0 1
-0.562589 8.349157 23.454235 24.902330 -1.503515 0.342705 0.018846 -0.008585 -774666.000000 0 1 0
-0.460889 9.578157 24.119215 25.955539 -1.522715 0.378416 0.022255 -0.000325 -884625.000000 0 0 1
0.495811 10.554157 23.464835 25.733918 1.523853 0.423089 0.017360 -0.003292 22870.300000 0 0 1
1.894411 10.435157 23.644335 25.914009 1.391211 0.421649 0.015845 -0.005846 64582.200000 0 0 1
2.344211 10.787157 25.014225 27.341718 1.356808 0.415601 0.023488 -0.003219 160719.000000 0 0 1
3.627211 11.699157 25.012345 27.850392 1.270154 0.455374 0.021039 -0.003947 580130.000000 0 0 1
4.778411 11.188157 24.391065 27.256781 1.167152 0.462674 0.027178 -0.009497 -250457.000000 0 0 1
4.781011 11.235157 22.987935 26.029444 1.168468 0.488258 0.025849 -0.010347 -1464450.000000 0 0 1
5.940211 10.582157 22.280035 25.370615 1.059287 0.498747 0.036244 -0.012969 -50624.200000 0 0 1
7.063711 11.487157 22.228035 25.998775 1.019477 0.545314 0.030470 -0.013164 496989.000000 0 0 1
8.168511 10.847157 21.594535 25.509005 0.925343 0.561334 0.035887 -0.016941 360542.000000 0 0 1
9.143211 11.896157 21.003535 25.812116 0.915506 0.620293 0.038626 -0.022218 -432318.000000 0 0 1
8.603511 12.630157 19.916335 25.103818 0.972808 0.654489 0.025905 -0.010400 267123.000000 0 0 1
9.483011 13.571157 19.304235 25.431423 0.960902 0.708913 0.045009 -0.011017 383328.000000 0 0 1
10.836911 13.145157 18.683335 25.284398 0.881351 0.739319 0.046364 -0.013592 -394940.000000 0 0 1
11.896511 13.054157 19.567335 26.359412 0.831762 0.734258 0.047886 -0.020448 -682047.000000 0 0 1
13.074211 12.693157 18.877835 26.237833 0.770611 0.767730 0.033302 -0.018444 -46682.700000 0 0 1
14.266311 12.426157 19.809535 27.392603 0.716568 0.762414 0.029186 -0.012401 -132384.000000 0 0 1
14.778811 13.598157 20.390135 28.619586 0.743816 0.777807 0.030893 -0.015055 438489.000000 0 0 1
15.925911 13.259157 21.205235 29.649652 0.694277 0.773896 0.029619 -0.009590 816029.000000 0 0 1
16.717811 14.504157 21.601135 30.926765 0.714616 0.797552 0.039026 0.003045 -236190.000000 0 0 1
16.204411 15.150157 22.742335 31.769860 0.751787 0.772961 0.029706 0.000557 843331.000000 0 0 1
17.142211 16.184157 23.158935 33.047218 0.756658 0.794302 0.015149 0.005093 333465.000000 0 0 1
-20.469089 13.234979 -24.674799 34.684204 -0.573970 2.362303 0.033229 -0.000424 75880.600000 0 0 1
-20.445189 13.146079 -26.070359 35.643916 -0.571432 2.391185 0.030963 -0.004748 995270.000000 0 0 1
-21.447289 13.986579 -26.763839 37.039353 -0.577876 2.378321 0.036559 -0.014950 918236.000000 0 0 1
-21.287789 14.018579 -28.289099 38.078388 -0.582346 2.408215 0.030765 -0.001266 -944136.000000 0 0 1
-20.049889 14.484379 -28.652569 37.851882 -0.625613 2.429453 0.048910 -0.007618 -1087480.000000 0 0 1
-20.018189 14.616879 -30.096029 38.989127 -0.630695 2.452634 0.039129 -0.006802 745995.000000 0 0 1
-18.629289 15.184279 -30.548359 38.869203 -0.683866 2.474990 0.019057 -0.004180 1088970.000000 0 0 1
-17.514289 14.382779 -30.208999 37.765040 -0.687536 2.497958 0.017889 -0.009053 198478.000000 0 0 1
-16.214189 14.930079 -30.413779 37.560686 -0.744190 2.514478 0.021854 -0.005450 527659.000000 0 0 1
-15.237489 14.314079 -29.415749 36.088228 -0.754161 2.523709 0.042136 0.005942 -525524.000000 0 0 1
-15.390889 14.640079 -28.024649 35.165215 -0.760402 2.493013 0.039236 -0.003344 -675597.000000 0 0 1
-16.344689 13.821379 -27.443349 34.803977 -0.701945 2.479182 0.041320 0.005152 -461271.000000 0 0 1
-16.852389 14.261679 -26.060969 34.155126 -0.702325 2.438765 0.037070 0.005347 -139835.000000 0 0 1
-15.854689 14.276279 -25.080629 32.927515 -0.733061 2.436717 0.039085 -0.011453 -163278.000000 0 0 1
-16.508489 14.544179 -23.881199 32.471141 -0.722225 2.397140 0.044295 -0.013227 -223686.000000 0 0 1
-15.652489 15.159379 -22.763399 31.511578 -0.769396 2.378037 0.020108 -0.007632 -151425.000000 0 0 1
-15.136189 16.404279 -23.137499 32.148848 -0.825582 2.374165 0.001722 -0.009386 -194202.000000 0 0 1
-14.643689 17.070879 -21.997799 31.460383 -0.861782 2.345105 -0.007437 -0.002731 -302904.000000 0 0 1
-14.348389 18.590079 -22.317299 32.396437 -0.913469 2.330741 -0.007795 -0.003929 798878.000000 0 0 1
-15.501989 19.465479 -22.289599 33.407226 -0.898264 2.301252 -0.020201 -0.003746 1440070.000000 0 0 1
-16.420789 19.263479 -23.415699 34.482153 -0.864893 2.317287 -0.019773 -0.000572 974714.000000 0 0 1
-17.658889 20.233779 -23.468099 35.665023 -0.853246 2.288975 -0.016756 -0.002431 569889.000000 0 0 1
-17.396089 21.603079 -23.621599 36.432086 -0.892856 2.276242 -0.022721 -0.001436 -162978.000000 0 0 1
-18.646089 22.257279 -23.661499 37.455702 -0.873456 2.254566 0.006596 -0.010842 84119.700000 0 0 1
-18.463889 23.758379 -24.010599 38.495255 -0.910143 2.244300 -0.003820 -0.010759 95967.300000 0 0 1
-18.001889 24.592979 -22.921699 38.135114 -0.938920 2.215630 0.001905 -0.004489 -323720.000000 0 0 1
-17.201789 25.694679 -23.322599 38.730630 -0.980856 2.217018 -0.004969 0.004873 -234108.000000 0 0 1
-15.948089 25.783879 -22.423799 37.709107 -1.016864 2.207629 -0.000788 -0.002437 -64626.800000 0 0 1
-15.004489 24.729479 -22.495699 36.643394 -1.025432 2.231799 0.008443 -0.007807 74886.900000 0 0 1
-15.482689 23.487379 -21.967099 35.692073 -0.987986 2.233768 0.000965 0.000661 -1408550.000000 0 0 1
-14.394689 22.428479 -21.752499 34.400799 -1.000204 2.255348 0.012445 -0.004343 395292.000000 0 0 1
-13.471889 22.801779 -20.723199 33.628320 -1.037150 2.234759 0.024333 -0.010102 339648.000000 0 0 1
-12.464089 21.844279 -20.407599 32.388210 -1.052284 2.252470 0.015646 -0.009924 424045.000000 0 0 1
-11.481189 22.288479 -19.293099 31.635702 -1.095128 2.226670 0.016789 -0.011124 -9917.070000 0 0 1
-12.003689 22.426879 -17.966199 31.142218 -1.079358 2.185735 0.033480 -0.008202 -334379.000000 0 0 1
-12.827089 23.550579 -17.804699 32.189615 -1.072061 2.156900 0.040773 -0.016394 -100145.000000 0 0 1
-13.673089 23.413679 -16.515799 31.747840 -1.042241 2.117903 0.056025 -0.021818 565997.000000 0 0 1
-12.887189 23.594979 -15.321199 30.944172 -1.070888 2.088774 0.069978 -0.035637 795845.000000 0 0 1
-13.790989 23.330079 -14.226799 30.608590 -1.036928 2.054202 0.070741 -0.022689 947170.000000 0 0 1
-13.104789 23.539979 -12.815699 29.834682 -1.062821 2.014799 0.089005 -0.027260 376988.000000 0 0 1
-12.606989 24.889979 -12.649699 30.634329 -1.101955 1.996460 0.078899 -0.022343 495017.000000 0 0 1
-11.604189 25.128479 -11.679299 30.041699 -1.138178 1.970092 0.057943 -0.023919 -23317.700000 0 0 1
-11.271789 26.604679 -11.591399 31.132342 -1.170047 1.952311 0.068040 -0.023913 -504635.000000 0 0 1
-10.472089 26.931179 -12.670299 31.551379 -1.199942 1.984034 0.066042 -0.029813 -236719.000000 0 0 1
-10.537189 28.306579 -12.886199 32.838223 -1.214437 1.974052 0.040268 -0.001986 -650904.000000 0 0 1
-9.820789 28.739479 -14.213899 33.532678 -1.241519 2.008523 0.062547 -0.024723 94277.600000 0 0 1
-8.423689 28.802379 -14.272499 33.230104 -1.286267 2.014741 0.035210 -0.024262 -224026.000000 0 0 1
-7.678489 27.612179 -14.040199 31.914241 -1.299566 2.026323 0.041442 -0.026940 -691714.000000 0 0 1
-6.367289 27.621479 -14.857499 32.003652 -1.344235 2.053577 0.042002 -0.023698 371291.000000 0 0 1
-5.560189 28.708279 -14.373699 32.583496 -1.379486 2.027659 0.030971 -0.020657 605.464000 0 0 1
-4.237189 28.662579 -14.914499 32.587413 -1.424029 2.046177 0.032167 -0.020450 504702.000000 0 0 1
-3.295289 29.583979 -14.101099 32.937998 -1.459866 2.013197 0.012315 -0.013495 -210465.000000 0 0 1
-3.306689 30.971079 -14.398899 34.314286 -1.464432 2.003821 0.012586 -0.011091 160797.000000 0 0 1
-4.443689 31.667779 -13.895899 34.866755 -1.431385 1.980724 0.005411 -0.011414 63870.700000 0 0 1
-4.397789 33.174879 -14.119699 36.321881 -1.439001 1.970058 0.001434 -0.012249 -316079.000000 0 0 1
-3.464389 33.966279 -13.449099 36.695890 -1.469153 1.946042 -0.007446 -0.014834 -343022.000000 0 0 1
-3.641789 -33.669043 -13.777499 36.560725 1.463051 1.957177 -0.013439 -0.015966 292274.000000 0 0 1
-2.748189 -32.760343 -12.900099 35.315792 1.487105 1.944728 -0.013293 -0.007601 -140209.000000 0 0 1
-3.105689 -32.674143 -11.565899 34.799640 1.476031 1.909598 -0.009916 -0.008194 862444.000000 0 0 1
-2.098989 -31.931243 -10.799499 33.773351 1.505156 1.896277 -0.020636 -0.005679 816229.000000 0 0 1
-2.558489 -31.804143 -9.357999 33.250888 1.490524 1.856087 -0.020134 -0.000070 73240.900000 0 0 1
-1.567589 -31.212243 -8.509799 32.389476 1.520615 1.836650 -0.037507 0.002024 220646.000000 0 0 1
-1.997889 -31.221543 -7.148499 32.091702 1.506893 1.795433 -0.027104 -0.007086 442801.000000 0 0 1
-0.829889 -31.000643 -6.123899 31.610611 1.544033 1.765758 -0.016915 -0.005434 266412.000000 0 0 1
-1.164389 -31.022543 -4.774999 31.409467 1.533280 1.723412 -0.004796 -0.008723 -934530.000000 0 0 1
-0.090889 -30.578943 -4.038699 30.844629 1.567824 1.702110 0.000132 -0.006852 -704368.000000 0 0 1
-0.236589 -30.785043 -2.525699 30.889384 1.563111 1.652654 -0.000305 -0.002593 -331108.000000 0 0 1
-0.157889 -32.074443 -1.965599 32.135003 1.565874 1.632001 0.007910 -0.011866 285407.000000 0 0 1
0.994011 -32.863843 -2.225599 32.954113 -1.540559 1.638384 0.007106 -0.010939 645136.000000 0 0 1
2.400211 -32.502043 -1.648699 32.632224 -1.497082 1.621341 0.018714 -0.012954 -355839.000000 0 0 1
2.546611 -32.653643 -0.304599 32.754212 -1.492965 1.580096 0.009757 -0.013914 99550.300000 0 0 1
3.806711 -32.255043 0.208101 32.479565 -1.453321 1.564389 0.014820 -0.016231 247384.000000 0 0 1
4.069311 -30.750443 0.273001 31.019729 -1.439227 1.561995 0.011799 -0.015236 -610565.000000 0 0 1
4.022611 -30.164743 -1.022099 30.448938 -1.438224 1.604370 0.033806 -0.023570 7325.730000 0 0 1
3.871011 -28.798143 -1.026399 29.075269 -1.437178 1.606105 0.027217 -0.011637 -423118.000000 0 0 1
3.522111 -28.144643 -2.404799 28.465932 -1.446300 1.655377 0.027636 -0.002561 -103705.000000 0 0 1
2.185611 -28.387143 -2.817999 28.610276 -1.493955 1.669452 0.018178 -0.009082 101431.000000 0 0 1
1.813911 -27.327443 -3.713999 27.638256 -1.504517 1.705583 0.021104 -0.011052 -4823.180000 0 0 1
2.341111 -27.270443 -5.141199 27.849413 -1.485158 1.756468 0.014686 -0.005827 229374.000000 0 0 1
1.659911 -28.307243 -5.887699 28.960669 -1.512224 1.775523 0.013203 -0.005120 184767.000000 0 0 1
2.185511 -28.340143 -7.171299 29.314974 -1.493832 1.817934 0.023441 -0.016548 -327264.000000 0 0 1
1.378011 -29.057143 -8.270599 30.242673 -1.523408 1.847800 -0.000714 -0.010119 -390098.000000 0 0 1
0.203111 -28.323143 -8.530399 29.580558 -1.563625 1.863329 0.001003 -0.010270 -535719.000000 0 0 1
-0.153489 -28.431743 -9.896499 30.105287 1.565398 1.905754 0.015156 -0.009485 345610.000000 0 0 1
-1.591989 -27.859143 -10.074799 29.667623 1.513714 1.917276 -0.012260 -0.012693 -378765.000000 0 0 1
-1.646589 -26.482443 -9.759999 28.271693 1.508700 1.923271 -0.001771 -0.008093 -550653.000000 0 0 1
-2.904389 -25.916643 -9.537099 27.768042 1.459195 1.921391 -0.001025 -0.012963 -97126.900000 0 0 1
-3.857789 -26.513443 -8.474299 28.100871 1.426307 1.877132 -0.008145 -0.007335 -1000410.000000 0 0 1
-3.457389 -26.317243 -7.150199 27.489565 1.440171 1.833928 -0.001451 -0.012120 -132.963000 0 0 1
-2.460889 -27.289143 -6.758599 28.221126 1.480861 1.812634 0.003171 -0.010010 845867.000000 0 0 1
-2.003889 -26.952643 -5.263299 27.534757 1.496584 1.763131 0.007333 -0.007822 1016400.000000 0 0 1
-3.097889 -27.118443 -4.343699 27.638281 1.457054 1.728613 0.007297 -0.010389 743887.000000 0 0 1
-2.527089 -26.924543 -3.037599 27.212942 1.477212 1.682653 0.005208 -0.003479 104648.000000 0 0 1
-3.477889 -27.041643 -1.845499 27.326764 1.442886 1.638382 0.002883 -0.001423 332881.000000 0 0 1
-4.581489 -26.138243 -1.963499 26.609268 1.397280 1.644654 0.003212 0.002521 387601.000000 0 0 1
-5.550189 -26.262343 -0.919399 26.858156 1.362525 1.605035 0.018978 0.000535 361113.000000 0 0 1
-6.617489 -25.140443 -1.085599 26.019446 1.313414 1.612531 0.001941 0.002371 -26827.000000 0 0 1
-6.176489 -23.811443 -0.828999 24.613433 1.316998 1.604483 -0.001470 -0.003989 66334.400000 0 1 0
-6.757589 -23.322743 0.379501 24.284962 1.288776 1.555169 0.006992 0.005942 3573.670000 0 1 0
-6.220089 -21.945743 0.748301 22.822469 1.294610 1.538003 -0.002268 0.003183 -527550.000000 0 1 0
-4.944589 -21.903843 1.279001 22.491402 1.348777 1.513899 -0.011902 -0.003042 -705979.000000 0 1 0
-4.358289 -20.605443 1.397401 21.107622 1.362357 1.504544 -0.015583 0.000306 -179553.000000 0 1 0
-3.385789 -20.454543 2.540601 20.887952 1.406756 1.448864 -0.008589 0.007836 -444233.000000 0 1 0
-3.990189 -20.376643 3.841301 21.115984 1.377422 1.387863 -0.011886 0.013845 431764.000000 0 1 0
-3.045689 -20.202143 4.932801 21.017501 1.421163 1.333887 0.013694 0.005794 703677.000000 0 1 0
-2.126089 -21.385843 5.315001 22.138739 1.471706 1.328351 0.003268 0.003449 -68396.600000 0 1 0
-1.243589 -21.701643 4.281101 22.154811 1.513555 1.376337 0.020704 -0.003128 -713346.000000 0 1 0
-0.584089 -22.912543 4.500901 23.357738 1.545310 1.376889 0.022775 -0.001528 -951416.000000 0 1 0
0.424211 -23.302343 3.373801 23.549133 -1.552594 1.427035 0.020710 -0.009747 873267.000000 0 1 0
1.623611 -22.510843 3.329901 22.813645 -1.498795 1.424312 0.001865 -0.011208 29800.400000 0 1 0
2.493311 -23.057443 4.289801 23.585264 -1.463080 1.387893 0.026650 -0.011093 -1085560.000000 0 1 0
3.682111 -22.107543 4.617701 22.882844 -1.405757 1.367603 0.037233 -0.017889 485572.000000 0 1 0
4.561511 -21.835343 3.535901 22.585221 -1.364853 1.413591 0.023920 -0.012087 -839766.000000 0 1 0
5.722811 -21.213543 3.984201 22.330223 -1.307297 1.391414 0.034887 -0.004268 -207072.000000 0 1 0
6.550111 -20.753743 2.778001 21.939442 -1.265080 1.443834 0.042446 0.002817 -302455.000000 0 1 0
7.147211 -21.826343 2.100501 23.062610 -1.254343 1.479592 0.038917 -0.000473 -526024.000000 0 1 0
6.594411 -21.977343 0.804501 22.959466 -1.279289 1.535749 0.031312 -0.001245 -5226.200000 0 1 0
7.499511 -22.789543 -0.129199 23.992137 -1.252881 1.576181 0.033003 -0.000482 -774487.000000 0 1 0
8.673911 -22.123843 -0.388899 23.766624 -1.197152 1.587160 0.030113 0.000396 -733795.000000 0 1 0
9.532911 -22.968943 -1.232299 24.899143 -1.177396 1.620308 0.025166 -0.000583 883094.000000 0 1 0
10.892711 -22.287943 -1.547499 24.855549 -1.116208 1.633096 0.021735 -0.003285 245722.000000 0 1 0
10.849611 -21.147043 -2.374099 23.886143 -1.096759 1.670353 0.022455 -0.006027 -6941.630000 0 1 0
12.127211 -21.026443 -2.994499 24.457056 -1.047640 1.693543 0.019974 -0.013048 187093.000000 0 1 0
12.277111 -19.920043 -4.023699 23.742909 -1.018464 1.741088 0.019193 -0.014911 -229683.000000 0 1 0
12.444811 -18.594843 -3.535399 22.652606 -0.981000 1.727507 0.034740 -0.013380 128472.000000 0 1 0
12.486711 -17.646943 -4.528999 22.087200 -0.954998 1.777312 0.029935 -0.011803 -738663.000000 0 1 0
13.074111 -16.347543 -3.901199 21.293048 -0.896202 1.755052 0.057744 -0.008586 689568.000000 0 1 0
14.392811 -16.214943 -3.384699 21.943873 -0.844860 1.725658 0.046414 -0.011406 719520.000000 0 1 0
15.409411 -16.449643 -4.355699 22.956760 -0.818038 1.761688 0.049133 -0.006262 215707.000000 0 1 0
16.880311 -16.069343 -4.002499 23.647171 -0.760791 1.740874 0.041479 -0.002335 657610.000000 0 1 0
17.443411 -16.983143 -3.062799 24.537328 -0.772029 1.695945 0.046696 -0.013904 626567.000000 0 1 0
18.860611 -17.057743 -3.152799 25.624781 -0.735247 1.694146 0.036424 0.003439 138132.000000 0 0 1
19.595511 -17.896243 -2.113399 26.621909 -0.740105 1.650266 0.036887 -0.012036 -106663.000000 0 0 1
20.988811 -17.727643 -2.247999 27.565432 -0.701364 1.652438 0.039372 -0.011228 174813.000000 0 0 1
21.706411 -18.136943 -1.082099 28.307030 -0.696049 1.609033 0.037760 -0.012301 97664.300000 0 0 1
23.237611 -18.272343 -1.150999 29.583609 -0.666347 1.609713 0.037648 -0.014599 -196373.000000 0 0 1
23.839211 -16.985743 -0.995599 29.288473 -0.619075 1.604796 0.037514 -0.010554 579315.000000 0 0 1
25.210511 -17.213643 -0.638999 30.533387 -0.599086 1.591726 0.036518 -0.003532 201908.000000 0 0 1
25.909111 -15.941743 -0.219799 30.421531 -0.551590 1.578022 0.026542 -0.011527 -498314.000000 0 0 1
25.321411 -15.220943 0.821701 29.555476 -0.541235 1.542991 0.040850 -0.009371 336234.000000 0 0 1
26.045811 -14.054143 1.135401 29.617433 -0.494818 1.532451 0.031207 -0.017660 182671.000000 0 0 1
25.201311 -13.356643 2.216001 28.607982 -0.487357 1.493258 0.044003 -0.028567 -12271.100000 0 0 1
24.833511 -14.137243 3.362701 28.772777 -0.517526 1.453658 0.056237 -0.016123 539156.000000 0 0 1
25.832811 -14.325943 4.370701 29.860841 -0.506340 1.423900 0.042566 -0.001976 95639.600000 0 0 1
25.232611 -14.804043 5.706601 29.806202 -0.530585 1.378150 0.039405 0.003590 69291.600000 0 0 1
24.525911 -16.019943 5.527501 29.811276 -0.578611 1.384301 0.040981 0.002272 67074.500000 0 0 1
23.693311 -16.288543 6.624401 29.505462 -0.602270 1.344352 0.028516 0.002323 -388363.000000 0 0 1
22.874111 -17.568243 6.565301 29.579914 -0.654947 1.346981 0.031117 -0.004255 -73374.900000 0 0 1
23.680511 -18.759643 6.528801 30.908188 -0.669965 1.357961 0.035778 -0.000906 -13172.600000 0 0 1
22.906311 -19.910643 6.451001 31.028184 -0.715547 1.361361 0.016363 0.008510 -379077.000000 0 0 1
1.557211 23.373979 -3.184399 23.641239 1.504273 1.705904 0.015995 -0.011681 -273549.000000 0 1 0
2.424311 24.288779 -2.597899 24.547325 1.471314 1.676827 0.018926 -0.013408 -442776.000000 0 1 0
3.050411 25.023879 -3.658199 25.473161 1.449495 1.714905 0.024685 -0.009887 42895.000000 0 0 1
4.007411 26.054879 -3.014099 26.533014 1.418186 1.684640 0.018034 -0.005248 -586210.000000 0 0 1
5.015311 25.414979 -2.318399 26.008642 1.375963 1.660054 0.010362 -0.005963 -1100520.000000 0 0 1
5.787811 26.346879 -1.618999 27.023655 1.354554 1.630743 0.004222 -0.006373 -710931.000000 0 0 1
6.896811 25.681779 -0.828499 26.604627 1.308438 1.601943 0.002420 -0.016833 -950471.000000 0 0 1
7.944811 25.334279 -1.654299 26.602301 1.266910 1.633023 0.016071 -0.018588 -929391.000000 0 0 1
8.868911 24.466479 -1.024499 26.044496 1.223036 1.610143 0.013943 -0.025149 504829.000000 0 0 1
10.082011 24.134979 -1.966399 26.229961 1.175096 1.645834 0.016655 -0.019349 -277804.000000 0 0 1
10.831511 25.304479 -2.233099 27.615666 1.166348 1.651748 0.024057 -0.012145 420057.000000 0 0 1
11.823111 25.231979 -3.277899 28.056788 1.132602 1.687895 0.045360 -0.011292 705367.000000 0 0 1
13.035911 24.309779 -3.145999 27.763243 1.078578 1.684356 0.038463 -0.017166 -685476.000000 0 0 1
12.623511 22.966779 -3.335399 26.418759 1.068228 1.697385 0.035387 -0.020066 -27482.700000 0 0 1
12.635411 22.609979 -4.718899 26.327415 1.061190 1.751009 0.035313 -0.021749 -609962.000000 0 0 1
11.819711 21.343979 -5.002899 24.905823 1.065061 1.773045 0.030991 -0.021077 -236364.000000 0 1 0
10.451311 21.610479 -4.833499 24.486842 1.120336 1.769493 0.032478 -0.017374 -302783.000000 0 1 0
9.697811 20.398879 -4.649199 23.060287 1.127014 1.773798 0.016045 -0.014573 1867860.000000 0 1 0
8.131011 20.747579 -4.641999 22.762327 1.197291 1.776170 0.012481 -0.013649 1498590.000000 0 1 0
7.751611 21.322079 -3.424899 22.944465 1.222103 1.720625 0.015567 -0.009738 560654.000000 0 1 0
6.398711 21.775579 -3.597399 22.979570 1.284993 1.727991 0.012061 -0.002216 946177.000000 0 1 0
5.745211 22.457179 -2.372799 23.301556 1.320339 1.672803 0.016442 -0.008316 30598.800000 0 1 0
5.347011 21.615379 -1.333799 22.306818 1.328294 1.630625 0.011117 -0.009377 -188787.000000 0 1 0
4.979011 22.313979 -0.151499 22.863227 1.351259 1.577423 0.021346 -0.001223 217488.000000 0 1 0
4.340411 21.380979 0.908301 21.835989 1.370515 1.529188 0.006098 -0.007930 -105432.000000 0 1 0
3.899511 22.055479 2.037001 22.489991 1.395800 1.480098 0.014317 -0.006313 -305033.000000 0 1 0
3.272311 21.143579 2.882801 21.588643 1.417248 1.436863 0.010867 -0.006476 -105529.000000 0 1 0
2.257511 21.636179 3.944801 22.108416 1.466833 1.391406 0.010756 -0.010578 408662.000000 0 1 0
0.970611 21.911679 3.424401 22.198880 1.526529 1.415918 0.004548 -0.000647 99415.000000 0 1 0
-0.032189 22.060179 4.400301 22.494781 -1.569337 1.373913 0.009893 -0.019645 656303.000000 0 1 0
-1.449589 22.462279 3.892701 22.843126 -1.506351 1.399550 0.013971 -0.008278 389332.000000 0 1 0
-2.388389 22.552779 4.937601 23.210173 -1.465287 1.356424 0.025886 -0.020623 164719.000000 0 1 0
-3.677789 22.751079 4.364001 23.455964 -1.410529 1.383655 0.032025 -0.015957 745061.000000 0 1 0
-4.854289 23.123979 5.309901 24.217299 -1.363876 1.349740 0.036490 -0.021091 361113.000000 0 1 0
-4.884789 24.423179 5.795401 25.572241 -1.373395 1.342182 0.041403 -0.016387 707737.000000 0 0 1
-6.104689 24.600679 6.553701 26.180367 -1.327558 1.317776 0.041902 -0.018259 939768.000000 0 0 1
-6.401889 26.064079 6.905001 27.712803 -1.329943 1.318981 0.043646 -0.015283 -119652.000000 0 0 1
-5.633789 26.526879 8.041301 28.285639 -1.361525 1.282531 0.032991 -0.019838 -1696.760000 0 0 1
-5.825889 27.842479 8.583401 29.712277 -1.364528 1.277735 0.048137 -0.025793 -218437.000000 0 0 1
-5.802989 29.072079 7.664701 30.620387 -1.373779 1.317792 0.055163 -0.022699 -49916.600000 0 0 1
-7.012189 29.154479 6.960001 30.783048 -1.334761 1.342726 0.053424 -0.025395 -744192.000000 0 0 1
-7.067489 30.236879 6.057501 31.637186 -1.341181 1.378139 0.066939 -0.026539 -173656.000000 0 0 1
-8.516589 30.542879 5.608101 32.200164 -1.298863 1.395740 0.060602 -0.027356 663963.000000 0 0 1
-9.474889 31.026279 6.544601 33.094339 -1.274409 1.371728 0.060803 -0.025902 89283.000000 0 0 1
-9.939689 30.057379 7.440601 32.520855 -1.251426 1.339957 0.038411 -0.023672 -887824.000000 0 0 1
-10.975189 30.528479 8.466301 33.527914 -1.225678 1.315518 0.024418 -0.024217 -556526.000000 0 0 1
-10.385389 31.185279 9.604101 34.243491 -1.249326 1.286518 0.041301 -0.028850 124567.000000 0 0 1
-11.381289 31.360679 10.597501 35.004756 -1.222662 1.263225 0.040598 -0.021540 -187568.000000 0 0 1
-10.844189 31.778779 11.978301 35.650623 -1.241947 1.228139 0.042079 -0.025354 -122728.000000 0 0 1
-10.383789 33.124279 11.923901 36.704500 -1.267019 1.239930 0.046994 -0.023030 -340509.000000 0 0 1
-9.497289 33.381679 12.939901 37.040195 -1.293614 1.213922 0.052560 -0.029985 -221756.000000 0 0 1
-9.036789 -34.136743 13.128901 37.674246 1.312009 1.214842 0.053526 -0.031382 10739.100000 0 0 1
-9.952289 -33.328843 13.817001 37.426853 1.280616 1.192677 0.043472 -0.014247 -292170.000000 0 0 1
-9.479689 -31.974243 13.855901 36.113747 1.282573 1.177025 0.048317 -0.002164 230269.000000 0 0 1
-10.368189 -30.900043 14.538701 35.688735 1.247061 1.151218 0.051314 -0.005374 143530.000000 0 0 1
-10.694389 -31.109943 15.901601 36.538465 1.239690 1.120534 0.035363 -0.008269 247598.000000 0 0 1
-9.621389 -30.578843 16.657201 36.126156 1.265961 1.091580 0.039552 -0.000991 359554.000000 0 0 1
-9.701589 -30.886143 18.132901 37.106290 1.266447 1.060226 0.027222 -0.011179 -196905.000000 0 0 1
-10.396689 -29.867443 18.745001 36.763166 1.235820 1.035745 0.049661 -0.018203 165316.000000 0 0 1
-11.121889 -30.381343 19.898001 37.982270 1.219872 1.019401 0.045639 -0.023450 359576.000000 0 0 1
-11.298689 -29.302143 20.917701 37.733621 1.202772 0.983212 0.044396 -0.027095 -177410.000000 0 0 1
-10.127989 -29.113143 21.660101 37.673747 1.236008 0.958267 0.030984 -0.021510 95597.200000 0 0 1
-10.440789 -28.364243 22.851001 37.890746 1.218091 0.923445 0.019142 -0.017375 1089880.000000 0 0 1
-9.153289 -28.314543 23.770601 38.085923 1.258128 0.896778 0.027091 -0.022168 837484.000000 0 0 1
-9.052789 -29.469843 24.582301 39.429864 1.272758 0.897657 0.017656 -0.012017 927414.000000 0 0 1
-7.791989 -29.604743 25.293701 39.710543 1.313433 0.880259 0.025909 -0.012614 1037580.000000 0 0 1
-7.522489 -30.842043 26.164301 41.138669 1.331564 0.881489 0.029348 -0.010467 -151808.000000 0 0 1
-7.378389 -32.087643 25.542601 41.671116 1.344780 0.910999 0.042365 0.002820 121324.000000 0 0 1
-7.436889 -33.146443 26.501901 43.085320 1.350087 0.908280 0.043390 -0.001158 -200720.000000 0 0 1
-7.317489 34.432279 25.906901 43.706921 -1.361393 0.936338 0.041199 -0.006185 -588266.000000 0 0 1
-5.999689 34.053879 25.632801 43.043041 -1.396404 0.932889 0.038743 0.003210 -461009.000000 0 0 1
-5.698189 32.777579 25.036601 41.637368 -1.398672 0.925668 0.032563 0.006128 59525.100000 0 0 1
-6.425089 32.301979 23.723301 40.589341 -1.374452 0.946568 0.035879 0.003558 24229.200000 0 0 1
-7.443889 31.360979 23.925601 40.141710 -1.337748 0.932250 0.032951 0.000233 -81418.700000 0 0 1
-8.224889 31.181179 22.744801 39.461889 -1.312893 0.956512 0.029429 0.000613 392469.000000 0 0 1
-9.308089 30.083579 22.925601 38.951834 -1.270731 0.941516 0.032627 -0.012946 209858.000000 0 0 1
-8.792989 28.808279 22.600901 37.656796 -1.274553 0.927069 0.038459 -0.011583 -56246.400000 0 0 1
-9.571589 27.804279 23.175401 37.440519 -1.239254 0.903337 0.043904 -0.014307 -289235.000000 0 0 1
-8.981689 26.376279 22.967601 36.109410 -1.242590 0.881420 0.035594 -0.004149 -812758.000000 0 0 1
-7.801489 26.199179 23.649801 36.146553 -1.281381 0.857572 0.018458 -0.002684 -1027110.000000 0 0 1
-7.289789 24.948779 23.349101 34.939420 -1.286520 0.838910 0.014692 -0.002926 -1104770.000000 0 0 1
-5.946089 24.676679 23.966001 34.909363 -1.334344 0.814103 0.001066 0.005892 -740244.000000 0 0 1
-4.938289 25.413979 23.292901 34.825511 -1.378874 0.838141 0.000790 0.006686 -221024.000000 0 0 1
-3.664189 25.263179 23.872401 34.950622 -1.426760 0.818890 0.000525 0.010519 224309.000000 0 0 1
-2.531889 25.876579 23.003801 34.715741 -1.473262 0.846467 -0.004810 0.023587 29051.100000 0 0 1
-2.405989 25.200979 21.747001 33.373795 -1.475613 0.861079 0.002550 0.023389 382828.000000 0 0 1
-1.366589 25.667979 20.871001 33.110593 -1.517606 0.888803 0.005149 0.024285 670984.000000 0 0 1
-0.917989 24.642479 19.755301 31.596936 -1.533561 0.895372 0.007347 0.020157 252428.000000 0 0 1
-0.016989 23.591579 20.162201 31.033486 -1.570076 0.863617 0.019006 0.015624 323166.000000 0 0 1
0.147211 22.642979 19.121001 29.636782 1.564295 0.869540 0.019248 0.009266 -360126.000000 0 0 1
1.362011 21.725179 19.270801 29.072362 1.508186 0.846169 0.020995 0.012735 -369315.000000 0 0 1
2.602711 22.355279 19.148501 29.549918 1.454893 0.865834 0.026216 0.004695 -116821.000000 0 0 1
3.661911 21.494779 19.636501 29.343266 1.402054 0.837665 0.030595 0.005755 318643.000000 0 0 1
5.020411 22.070479 19.205301 29.684241 1.347130 0.867171 0.025454 0.007986 -634936.000000 0 0 1
5.947311 21.033779 19.320901 29.173405 1.295239 0.846941 0.027723 0.002238 106476.000000 0 0 1
7.262511 21.475679 18.929201 29.534107 1.244696 0.875091 0.031294 0.001503 725391.000000 0 0 1
8.199011 20.284879 18.553701 28.686929 1.186680 0.867461 0.027877 0.003973 83800.700000 0 0 1
8.685611 19.573479 19.695301 29.094085 1.153157 0.827183 0.037020 -0.003881 -502810.000000 0 0 1
9.545711 18.551979 19.335701 28.445841 1.095586 0.823392 0.025257 -0.004460 -155484.000000 0 0 1
10.114011 17.812279 20.570801 29.029784 1.054381 0.783270 0.049070 -0.010535 142864.000000 0 0 1
9.145911 16.894979 21.085001 28.524818 1.074627 0.738943 0.057254 -0.014153 217014.000000 0 0 1
9.602611 16.247279 22.220801 29.153871 1.036999 0.704106 0.055263 -0.013777 90827.400000 0 0 1
8.497311 15.305579 22.785201 28.733785 1.063987 0.655118 0.046552 -0.011189 -34351.700000 0 0 1
7.445811 15.990779 23.409401 29.311178 1.135020 0.645746 0.035094 -0.008948 -55917.300000 0 0 1
6.334111 15.260479 23.917101 29.069415 1.177370 0.604549 0.030881 -0.010449 479953.000000 0 0 1
6.545011 14.029179 24.772501 29.211844 1.134283 0.558541 0.029376 -0.004551 -892617.000000 0 0 1
7.101211 14.273679 26.056601 30.546875 1.109148 0.549082 0.032932 -0.006658 -245402.000000 0 0 1
7.342911 13.091879 26.796001 30.713862 1.059642 0.510623 0.034231 -0.008191 -684279.000000 0 0 1
8.377811 13.370079 27.894001 32.047184 1.011041 0.514774 0.017803 -0.000249 645227.000000 0 0 1
9.710911 13.757079 27.513801 32.257840 0.956132 0.549217 0.035514 0.001404 857172.000000 0 0 1
9.892811 14.953679 26.838301 32.276533 0.986335 0.588974 0.030730 0.003263 -264110.000000 0 0 1
11.272311 15.001679 26.081001 32.129954 0.926398 0.623680 0.041729 -0.004819 768041.000000 0 0 1
11.246011 14.044979 25.020001 30.817765 0.895620 0.623449 0.042211 -0.009024 634805.000000 0 0 1
12.558911 13.566979 24.680601 30.837011 0.823964 0.642907 0.056234 -0.011508 -32844.900000 0 0 1
12.586211 12.299779 23.735501 29.547779 0.773889 0.637994 0.051385 -0.022715 122511.000000 0 0 1
12.069211 11.086979 24.325201 29.330911 0.743006 0.592877 0.048424 -0.015578 -667609.000000 0 0 1
10.731511 11.171679 24.681601 29.140233 0.805492 0.560491 0.054875 -0.015765 -1238400.000000 0 0 1
10.342611 9.710579 25.165701 28.889054 0.753891 0.513327 0.039651 -0.007863 -56511.800000 0 0 1
10.378511 8.872479 24.076401 27.678646 0.707326 0.515889 0.043048 -0.006120 117080.000000 0 0 1
10.233311 7.557779 24.546701 27.647445 0.636131 0.478152 0.040149 -0.011964 -18195.400000 0 0 1
10.463411 6.488679 23.482701 26.514584 0.555090 0.482900 0.043022 -0.020982 565814.000000 0 0 1
11.859611 6.394379 23.158301 26.792636 0.494493 0.526934 0.043208 -0.019095 886840.000000 0 0 1
12.287111 5.256879 22.438801 26.117191 0.404271 0.537174 0.041866 -0.026800 -108940.000000 0 0 1
12.067611 3.823279 23.079301 26.322971 0.306817 0.501684 0.022046 -0.026971 -456035.000000 0 0 1
12.943611 3.423179 24.096401 27.566134 0.258549 0.507153 0.022141 -0.013306 89594.300000 0 0 1
12.484211 2.225479 24.685201 27.751890 0.176410 0.474555 0.021417 -0.017122 -548166.000000 0 0 1
13.622211 1.580679 25.459401 28.917888 0.115520 0.494085 0.005275 -0.003796 195386.000000 0 0 1
14.618111 1.107479 24.532001 28.578571 0.075616 0.538643 0.008094 -0.003653 20023.200000 0 0 1
15.949811 1.436379 24.786401 29.509750 0.089814 0.573625 0.007969 -0.002518 -926887.000000 0 0 1
16.852111 0.531979 24.001501 29.331701 0.031557 0.612387 0.007862 -0.007567 -784035.000000 0 0 1
16.805011 -0.835521 24.374401 29.617865 -0.049678 0.604190 0.008259 -0.009456 69923.600000 0 0 1
17.657511 -1.507421 23.493101 29.427637 -0.085163 0.646272 0.018151 -0.003535 -317178.000000 0 0 1
17.841511 -3.010121 23.843801 29.931709 -0.167140 0.649135 0.015869 0.000753 269018.000000 0 0 1
16.867411 -3.907321 23.308701 29.035706 -0.227634 0.638887 0.011701 -0.003304 465680.000000 0 0 1
17.168811 -5.229221 23.756401 29.773804 -0.295650 0.647000 0.026332 -0.003713 222477.000000 0 0 1
16.332011 -6.314321 23.005101 28.910896 -0.368921 0.650594 0.018300 -0.008184 -34488.700000 0 0 1
16.659311 -6.494521 21.621001 28.056713 -0.371720 0.690986 0.002617 -0.011796 15725.200000 0 0 1
16.019111 -7.584021 21.010701 27.487794 -0.442171 0.700741 0.016122 -0.022446 -247741.000000 0 0 1
16.543611 -8.984621 21.379601 28.486871 -0.497520 0.721967 0.024735 -0.020525 -650415.000000 0 0 1
16.201511 -9.447321 22.632001 29.392997 -0.527910 0.691988 0.015641 -0.010081 -452150.000000 0 0 1
16.915011 -10.572721 23.034301 30.470954 -0.558635 0.713703 0.005593 -0.017278 -367824.000000 0 0 1
16.237711 -11.471821 24.150801 31.281418 -0.615070 0.688737 0.023585 -0.026775 -177148.000000 0 0 1
15.217911 -12.258621 23.592001 30.633986 -0.678109 0.691759 0.029031 -0.021382 -147813.000000 0 0 1
14.810811 -13.285221 24.480001 31.545644 -0.731152 0.682468 0.033024 -0.008650 -307131.000000 0 0 1
13.728211 -14.194421 23.875601 30.983700 -0.802093 0.691036 0.037506 -0.012546 -166411.000000 0 0 1
14.140311 -15.011421 22.794401 30.738833 -0.815271 0.735418 0.038462 -0.006476 942102.000000 0 0 1
12.979411 -15.641021 22.190901 30.092237 -0.878128 0.741540 0.057254 0.006376 878288.000000 0 0 1
13.421711 -16.422521 20.982901 29.834940 -0.885610 0.790768 0.042150 -0.003127 389776.000000 0 0 1
14.379411 -17.463621 21.257501 31.042340 -0.881954 0.816480 0.044155 -0.006646 478406.000000 0 0 1
14.654811 -18.226021 20.073601 30.820460 -0.893585 0.861490 0.037361 -0.008144 -166797.000000 0 0 1
-23.175689 -32.387543 26.472875 47.821320 0.949694 0.984141 0.016903 -0.016523 -581982.000000 0 0 1
-23.599289 -33.531843 27.181385 49.194904 0.957533 0.985406 0.022970 -0.012816 75120.100000 0 0 1
-24.876489 -33.874443 26.676465 49.779025 0.937372 1.005226 0.024408 -0.017252 -237626.000000 0 0 1
-25.597279 34.254379 27.667805 50.932216 -0.929045 0.996519 0.027919 -0.015140 -321928.000000 0 0 1
-26.422449 -34.088743 28.627455 51.766006 0.911419 0.984816 0.054555 -0.015246 -210930.000000 0 0 1
-25.778229 -33.645043 29.772655 51.796882 0.917019 0.958441 0.037607 -0.012702 -923361.000000 0 0 1
-26.662279 -32.983143 30.781325 52.404721 0.890978 0.942982 0.031319 -0.012745 -506551.000000 0 0 1
-26.985639 -31.649343 30.416915 51.527607 0.864769 0.939362 0.020512 -0.012187 178064.000000 0 0 1
-27.879769 -31.078343 31.352175 52.212104 0.839597 0.926699 0.020836 -0.004250 96605.300000 0 0 1
-28.248739 -29.530643 31.220755 51.427480 0.807581 0.918412 0.014843 -0.007412 240146.000000 0 0 1
-28.940949 -29.193743 30.012385 50.897902 0.789747 0.940160 0.027879 -0.003320 370857.000000 0 0 1
-29.274099 -27.823443 29.966065 50.289978 0.759997 0.932453 0.016030 -0.001479 -36145.000000 0 0 1
-30.004779 -27.384643 28.647075 49.707749 0.739774 0.956590 0.011041 -0.002371 265388.000000 0 0 1
-29.203639 -27.346043 27.455115 48.522592 0.752561 0.969367 0.004793 -0.000947 114380.000000 0 0 1
-28.443609 -26.166243 27.328475 47.334519 0.743720 0.955320 0.003869 0.001133 -449965.000000 0 0 1
-27.516369 -26.251643 26.112955 46.132263 0.761881 0.969096 0.012746 -0.001230 -107173.000000 0 0 1
-28.168059 -26.340643 24.821875 45.862779 0.751886 0.998908 -0.001741 -0.002647 26762.600000 0 0 1
-27.206669 -26.347843 23.802965 44.732458 0.769363 1.009696 0.027839 0.001187 -366561.000000 0 0 1
-27.748949 -26.606543 22.377235 44.482052 0.764384 1.043658 0.002556 0.011595 -1969.370000 0 0 1
-28.410069 -25.440743 21.870935 43.962498 0.730314 1.050093 -0.008243 0.005968 427155.000000 0 0 1
-28.901499 -25.558543 20.549035 43.712682 0.724091 1.081400 -0.017669 0.019555 -191137.000000 0 0 1
-29.460309 -24.268543 19.985635 43.084772 0.689068 1.088440 -0.017692 0.010475 -1152600.000000 0 0 1
-30.710859 -23.992143 20.474635 44.022613 0.663189 1.087056 -0.010542 0.010144 -1233240.000000 0 0 1
-31.279379 -22.881343 19.837435 43.537102 0.631566 1.097700 -0.007255 0.007253 -622086.000000 0 0 1
-32.750249 -22.791743 20.245835 44.743002 0.607986 1.101239 -0.012095 0.015186 -411876.000000 0 0 1
-33.560029 -23.823343 19.692835 45.624938 0.617321 1.124504 -0.018888 0.014181 -226999.000000 0 0 1
-34.804515 -23.344743 19.256735 46.121070 0.590817 1.140076 -0.005035 0.005986 -255667.000000 0 0 1
35.428692 -24.431143 18.489535 46.839469 -0.603703 1.165009 0.008453 -0.002962 -350581.000000 0 0 1
35.102993 -25.552743 19.265735 47.500856 -0.629230 1.153175 0.004324 -0.006547 -432248.000000 0 0 1
34.454752 -26.448143 18.458435 47.194788 -0.654683 1.168957 0.014969 0.004712 -469104.000000 0 0 1
34.053972 -27.693343 19.234535 47.922454 -0.682750 1.157786 0.022000 0.006504 -1122940.000000 0 0 1
32.922892 -27.650243 19.989935 47.413608 -0.698571 1.135579 0.023034 -0.000646 -1021090.000000 0 0 1
33.045202 -26.893243 21.196135 47.586847 -0.683118 1.109153 0.027028 -0.010894 219450.000000 0 0 1
31.665492 -26.904843 21.949235 46.993009 -0.704296 1.084817 0.022661 -0.011592 332939.000000 0 0 1
30.607552 -26.314143 21.264535 45.622766 -0.710114 1.085925 0.023537 -0.007628 -561988.000000 0 0 1
29.488012 -26.214143 22.137835 45.241661 -0.726691 1.059482 0.029245 -0.012431 -170168.000000 0 0 1
28.643422 -25.010543 21.665935 43.765119 -0.717792 1.052904 0.035276 -0.004701 -236565.000000 0 0 1
29.349322 -23.814543 21.358535 43.413157 -0.681664 1.056430 0.042160 -0.004221 -21414.600000 0 0 1
30.227512 -23.272243 22.323435 44.199949 -0.656118 1.041350 0.049185 -0.010926 -84937.300000 0 0 1
30.869322 -21.936043 21.805235 43.698665 -0.617811 1.048362 0.036746 -0.013472 3414.800000 0 0 1
29.994712 -20.844843 21.657335 42.464460 -0.607329 1.035599 0.037962 -0.022820 -313017.000000 0 0 1
30.718992 -19.740143 21.171935 42.208773 -0.571158 1.045349 0.034144 -0.009198 -314745.000000 0 0 1
30.081282 -18.324443 21.282135 41.153347 -0.547131 1.027288 0.019251 0.001892 -155060.000000 0 0 1
29.996542 -17.774543 22.580035 41.540160 -0.534926 0.996110 0.030084 -0.010393 221034.000000 0 0 1
29.135222 -18.449143 23.485535 41.722924 -0.564492 0.972915 0.034102 -0.004951 -194785.000000 0 0 1
29.143502 -17.808843 24.859725 42.243396 -0.548523 0.941609 0.025326 0.000757 -187244.000000 0 0 1
28.591142 -16.538343 24.896535 41.361910 -0.524418 0.924894 0.028863 -0.011384 70678.400000 0 0 1
28.375162 -16.170143 26.280945 41.920298 -0.517970 0.893194 0.025702 -0.001971 -129500.000000 0 0 1
27.978252 -14.698943 26.475025 41.228248 -0.483737 0.873487 0.011254 -0.004107 -76713.400000 0 0 1
26.687612 -14.288843 26.076945 39.955059 -0.491574 0.859710 0.040549 -0.006917 230919.000000 0 0 1
26.402202 -12.923143 26.536725 39.601536 -0.455190 0.836462 0.028153 -0.006127 -140791.000000 0 0 1
27.143542 -11.860143 25.732095 39.237425 -0.411942 0.855548 0.037796 -0.016516 -379181.000000 0 0 1
26.727362 -11.771543 24.381695 38.044555 -0.414867 0.875162 0.031274 -0.007292 318631.000000 0 0 1
27.604682 -11.016043 23.540435 37.914690 -0.379699 0.900933 0.029979 -0.000796 -354449.000000 0 0 1
28.801002 -11.733143 22.965835 38.659978 -0.386858 0.934716 0.031398 -0.018196 -853216.000000 0 0 1
28.522082 -12.664643 21.904835 38.127734 -0.417878 0.958789 0.016158 -0.018419 -18290.400000 0 0 1
28.526402 -13.960243 22.464035 38.900859 -0.455115 0.955171 0.032688 -0.021146 -146114.000000 0 0 1
27.991492 -15.090343 21.546035 38.411895 -0.494440 0.975299 0.028712 -0.014687 -412533.000000 0 0 1
28.609192 -15.051243 20.257135 38.149407 -0.484307 1.011022 0.021440 -0.013424 -313251.000000 0 0 1
28.013562 -15.959343 19.330135 37.591414 -0.517843 1.030702 0.022775 -0.018155 -290758.000000 0 0 1
28.811702 -16.252643 18.049135 37.683336 -0.513603 1.071317 0.019997 -0.019903 208209.000000 0 0 1
28.190832 -17.220143 17.127935 37.210516 -0.548353 1.092465 0.019490 -0.017893 235211.000000 0 0 1
26.858972 -17.038043 16.699935 35.924742 -0.565296 1.087321 0.035048 -0.020110 -241524.000000 0 0 1
26.637242 -15.979443 15.551735 34.738188 -0.540339 1.106623 0.013039 -0.010908 -444342.000000 0 0 1
26.793942 -16.499443 14.216235 34.528948 -0.551949 1.146456 0.025151 -0.013507 -308047.000000 0 0 1
25.769962 -17.356243 13.811335 34.001222 -0.592723 1.152503 0.024184 -0.014681 -495168.000000 0 0 1
25.603762 -17.768743 12.353035 33.524295 -0.606681 1.193423 0.019249 0.001430 -148334.000000 0 0 1
25.306262 -16.730843 11.404835 32.409848 -0.584163 1.211202 0.026134 -0.012582 -4223.790000 0 0 1
24.986862 -17.324943 10.146235 32.053752 -0.606257 1.248719 0.022754 -0.010754 112526.000000 0 0 1
26.200522 -17.750643 9.269235 32.976831 -0.595460 1.285874 0.025987 -0.009501 386041.000000 0 0 1
26.873332 -18.938643 9.639735 34.260366 -0.613898 1.285578 0.027404 0.002868 178762.000000 0 0 1
28.249962 -18.863743 9.271035 35.211550 -0.588748 1.304360 0.033080 0.004062 875129.000000 0 0 1
29.212052 -19.699443 10.185235 36.676301 -0.593310 1.289391 0.047272 -0.008711 231439.000000 0 0 1
29.092902 -19.324043 11.568935 36.792062 -0.586306 1.250929 0.046068 -0.018841 67768.700000 0 0 1
29.497382 -20.278043 12.536835 37.927125 -0.602255 1.233909 0.043682 -0.016320 -121325.000000 0 0 1
29.379312 -19.698743 13.959835 38.027114 -0.590650 1.194905 0.045056 -0.012264 29719.400000 0 0 1
29.482332 -20.700143 14.973835 39.011787 -0.612148 1.176858 0.046928 -0.011042 64795.700000 0 0 1
29.437572 -20.192943 16.309735 39.247077 -0.601240 1.142232 0.045876 -0.016879 22527.900000 0 0 1
29.152962 -21.334843 17.262935 40.038477 -0.631767 1.125020 0.041065 -0.011910 784710.000000 0 0 1
27.794482 -21.792643 17.195735 39.282895 -0.664948 1.117712 0.022170 -0.007987 589519.000000 0 0 1
27.542662 -22.535943 18.351535 40.040552 -0.685752 1.094688 0.036998 -0.019015 -1038550.000000 0 0 1
26.222422 -23.221843 18.258435 39.499871 -0.724786 1.090276 0.034935 -0.008281 -1601860.000000 0 0 1
25.093462 -22.425143 18.435435 38.372309 -0.729304 1.069645 0.038866 -0.008056 55464.000000 0 0 1
23.954462 -23.305643 18.253935 38.081168 -0.771670 1.070891 0.010548 -0.002875 1312540.000000 0 0 1
22.631262 -22.833543 18.971235 37.328976 -0.789847 1.037683 0.003981 0.004749 440116.000000 0 0 1
21.954162 -21.756443 18.331135 35.935477 -0.780875 1.035481 0.010125 0.011925 604135.000000 0 0 1
20.761662 -21.346043 19.038035 35.343273 -0.799276 1.001950 0.008437 0.007508 885937.000000 0 0 1
21.036062 -20.556143 20.362035 35.772662 -0.773860 0.965256 0.007370 0.009582 -197361.000000 0 0 1
21.241862 -21.414543 21.477835 37.028323 -0.789446 0.952021 0.009201 0.010676 -161629.000000 0 0 1
21.841262 -20.821443 22.597535 37.699095 -0.761498 0.928022 0.018144 0.019660 46751.400000 0 0 1
22.211062 -21.836943 23.705435 39.142445 -0.776905 0.920252 0.025460 0.016523 202163.000000 0 0 1
21.138062 -22.439343 24.411925 39.322816 -0.815251 0.901023 0.026615 0.019885 -57402.000000 0 0 1
21.662962 -23.354943 25.363865 40.719319 -0.822965 0.898358 0.026063 0.013176 91152.900000 0 0 1
20.647362 -24.122143 26.244715 41.194373 -0.862858 0.880073 0.031437 0.009888 28264.600000 0 0 1
19.861562 -25.098543 25.604325 40.987803 -0.901356 0.896073 0.035234 0.015588 -108874.000000 0 0 1
18.757962 -25.450143 26.401805 41.190123 -0.935637 0.875030 0.038054 0.008261 -374061.000000 0 0 1
18.029762 -26.640843 25.790405 41.230472 -0.975831 0.895001 0.039922 0.002428 -416063.000000 0 0 1
17.255762 -26.171243 24.702045 39.910980 -0.987883 0.903418 0.037181 0.004614 159043.000000 0 0 1
16.667662 -27.228443 23.995755 39.937392 -1.021497 0.926252 0.043474 -0.011906 -425404.000000 0 0 1
15.796562 -26.934543 22.766135 38.643213 -1.040378 0.940806 0.044094 -0.012008 -619133.000000 0 0 1
14.534762 -26.486243 23.134435 38.052365 -1.068901 0.917304 0.042387 -0.011521 -633511.000000 0 0 1
13.915562 -25.665843 22.179435 36.664775 -1.073975 0.921125 0.038375 -0.005205 -98939.400000 0 0 1
12.496862 -25.179143 22.487935 35.998167 -1.110099 0.896053 0.033884 -0.002601 309762.000000 0 0 1
11.480262 -26.175743 22.595835 36.435391 -1.157476 0.901847 0.033129 -0.008860 41233.600000 0 0 1
10.190862 -25.621343 22.596635 35.649892 -1.192232 0.884277 0.033671 -0.002322 -47419.100000 0 0 1
9.047662 -26.634943 22.603035 36.085697 -1.243334 0.893907 0.026722 -0.011439 -122872.000000 0 0 1
8.955762 -27.414643 21.448635 35.941790 -1.255047 0.931339 0.019372 -0.012294 34931.900000 0 0 1
7.733862 -28.117843 21.456435 36.205032 -1.302382 0.936468 0.007397 -0.012053 -260339.000000 0 0 1
7.403862 -28.849743 20.122135 35.944751 -1.319583 0.976643 0.015009 -0.003509 -87349.400000 0 0 1
7.795762 -30.196543 20.155635 37.132933 -1.318146 0.997033 0.022762 -0.009927 127657.000000 0 0 1
7.536862 -30.824643 18.886135 36.927618 -1.330994 1.033941 0.011741 -0.009800 -338954.000000 0 0 1
8.326362 -32.085043 18.686835 38.052281 -1.316888 1.057464 0.017370 -0.012930 -208994.000000 0 0 1
7.852462 -33.145243 19.534735 39.266706 -1.338174 1.050095 0.023008 -0.017675 544204.000000 0 0 1
8.752662 -34.241143 19.449935 40.340612 -1.320537 1.067697 0.021916 -0.022051 156406.000000 0 0 1
8.390462 33.674779 20.539535 40.326952 1.326607 1.036396 0.031413 -0.031220 91385.400000 0 0 1
7.368062 32.761779 20.210735 39.193064 1.349579 1.029005 0.038084 -0.031540 -101999.000000 0 0 1
7.218062 31.749479 21.143335 38.822293 1.347252 0.994862 0.038513 -0.033174 12296.300000 0 0 1
6.248262 30.601679 20.817535 37.534961 1.369384 0.982893 0.044758 -0.027660 33039.100000 0 0 1
4.875562 30.866879 20.966435 37.631459 1.414136 0.979844 0.045580 -0.025078 -276213.000000 0 0 1
4.099762 29.712179 20.661535 36.421431 1.433680 0.967584 0.053574 -0.012653 -334565.000000 0 0 1
2.741662 29.741479 21.338835 36.707195 1.478873 0.950439 0.030706 -0.004303 -668125.000000 0 0 1
2.728862 29.581879 22.741835 37.412903 1.478809 0.917433 0.029388 -0.005769 454150.000000 0 0 1
1.457162 29.067279 23.178035 37.205528 1.520708 0.898259 0.010582 0.006628 554921.000000 0 0 1
1.340862 28.583679 24.649805 37.768207 1.523921 0.859706 0.023470 0.002140 -297951.000000 0 0 1
1.488362 29.580179 25.620085 39.161090 1.520523 0.857642 0.026568 -0.007096 38363.100000 0 0 1
1.447362 29.110479 26.955915 39.700582 1.521118 0.824423 0.026670 -0.006430 -349769.000000 0 0 1
2.585462 28.273979 27.569625 39.575077 1.479607 0.800091 0.024122 -0.002677 -448219.000000 0 0 1
2.872662 26.981979 27.025995 38.297307 1.464730 0.787401 0.032087 -0.001179 420389.000000 0 0 1
3.720562 26.267879 27.942805 38.531083 1.430093 0.759469 0.014886 0.009151 268386.000000 0 0 1
4.173462 24.930379 27.344175 37.237689 1.404930 0.746140 0.015571 0.018911 38976.900000 0 0 1
3.104462 24.047679 27.124395 36.382157 1.442410 0.729450 0.028030 0.016700 108523.000000 0 0 1
3.643162 22.740479 26.858515 35.380529 1.411940 0.708817 0.031783 0.019774 -77325.300000 0 0 1
2.527162 21.717779 26.835965 34.615278 1.454954 0.683664 0.021349 0.020272 -507747.000000 0 0 1
2.854662 20.357379 26.836525 33.804897 1.431477 0.653657 0.018808 0.019515 -126563.000000 0 0 1
3.515762 19.868779 25.672975 32.653186 1.395660 0.666109 0.015753 0.019620 -303141.000000 0 0 1
3.939562 18.380579 25.808055 31.928381 1.359658 0.629519 0.013451 0.012212 -731833.000000 0 0 1
5.092362 18.115379 26.519985 32.517821 1.296761 0.617113 0.019257 0.010867 -918765.000000 0 0 1
6.266862 18.163579 25.756555 32.133927 1.238562 0.640934 0.035946 0.001018 -667584.000000 0 0 1
7.537962 17.968379 26.646985 33.011291 1.173583 0.631389 0.020094 0.002135 344066.000000 0 0 1
8.010962 19.003079 27.542605 34.407668 1.171842 0.642703 0.011496 0.008324 329635.000000 0 0 1
8.382762 20.173779 26.807795 34.581930 1.176976 0.683770 0.009462 0.001416 -539207.000000 0 0 1
8.910162 21.338479 27.686085 36.072718 1.175242 0.695852 -0.004730 0.008650 757137.000000 0 0 1
10.232762 21.056279 28.178755 36.634936 1.118434 0.693244 0.007733 -0.010359 654828.000000 0 0 1
10.587062 21.974779 29.162345 38.018668 1.121829 0.696561 -0.004193 -0.010132 44904.400000 0 0 1
11.832362 21.645079 30.018095 38.853574 1.070526 0.687877 -0.006063 -0.011696 1499300.000000 0 0 1
13.081662 21.737379 29.261105 38.727971 1.029051 0.714296 -0.003925 -0.010167 495483.000000 0 0 1
14.176662 21.742879 30.117655 39.759322 0.993007 0.711322 -0.005282 0.001132 197049.000000 0 0 1
15.538562 22.001779 29.398185 39.872026 0.955894 0.741711 -0.001330 -0.005939 314815.000000 0 0 1
15.543962 23.334979 28.968985 40.315482 0.983170 0.769071 0.000097 -0.005336 239605.000000 0 0 1
16.696062 23.591379 28.175525 40.363001 0.954909 0.798121 0.030229 -0.006718 -220660.000000 0 0 1
-8.524089 16.786579 4.379101 19.329404 -1.100935 1.342261 0.005617 -0.003045 -271421.000000 0 1 0
-8.460689 18.131879 4.907401 20.601720 -1.134208 1.330281 0.008425 -0.004009 120334.000000 0 1 0
-7.150789 18.498579 5.293101 20.526766 -1.201931 1.309986 0.006125 0.004165 -55913.200000 0 1 0
-7.043389 20.013579 5.713001 21.972507 -1.232403 1.307767 0.010980 0.004317 -20164.900000 0 1 0
-7.307989 21.049079 4.794401 22.791593 -1.236629 1.358855 0.021016 -0.006274 -417739.000000 0 1 0
-8.622689 21.142779 4.334301 23.241214 -1.183557 1.383206 0.015273 -0.017277 -572533.000000 0 1 0
-8.827689 22.242879 3.274501 24.153594 -1.192985 1.434808 0.034099 -0.019791 82804.500000 0 1 0
-8.110989 22.233379 2.028401 23.753435 -1.220988 1.485298 0.026395 -0.017737 -102955.000000 0 1 0
-8.511189 21.238779 1.083601 22.906337 -1.189654 1.523473 0.032605 -0.020057 -888975.000000 0 1 0
-7.740389 21.208779 -0.285499 22.578916 -1.220855 1.583441 0.013896 -0.008600 850961.000000 0 1 0
-6.446589 20.595279 -0.251499 21.582105 -1.267444 1.582450 0.006981 -0.004604 684819.000000 0 1 0
-5.472089 21.475479 0.332701 22.164175 -1.321299 1.555785 0.015700 -0.010417 -84626.900000 0 1 0
-4.007189 21.299879 -0.148599 21.674051 -1.384838 1.577652 0.008589 -0.005825 76619.100000 0 1 0
-3.923689 21.556979 -1.564899 21.966966 -1.390753 1.642095 0.006275 -0.013442 -971401.000000 0 1 0
-2.642989 21.760879 -2.034199 22.014977 -1.449932 1.663329 0.007565 -0.002758 -870699.000000 0 1 0
-2.606889 21.741179 -3.586599 22.188700 -1.451460 1.733149 0.012090 -0.008669 965788.000000 0 1 0
-1.371589 22.252179 -4.141599 22.675837 -1.509236 1.754471 0.017277 -0.004421 931638.000000 0 1 0
-1.594689 22.520879 -5.547699 23.248871 -1.500105 1.811743 0.024606 -0.014684 316460.000000 0 1 0
-0.355389 23.209179 -6.170699 24.018114 -1.555485 1.830629 0.026687 -0.016542 768242.000000 0 1 0
0.823111 22.393979 -6.245499 23.263148 1.534057 1.842603 0.029273 -0.004335 -46200.400000 0 1 0
1.822311 22.995179 -7.015699 24.110560 1.491714 1.866048 0.037508 -0.005257 -132760.000000 0 1 0
3.016011 22.004179 -7.087999 23.313514 1.434580 1.879716 0.025065 -0.000030 -86271.800000 0 1 0
2.724111 20.878979 -7.848899 22.471265 1.441058 1.927605 0.026676 -0.013109 -20200.700000 0 1 0
3.659511 19.870779 -7.534599 21.564092 1.388672 1.927732 0.017858 -0.016219 147447.000000 0 1 0
3.776711 18.700479 -8.540299 20.902348 1.371519 1.991695 0.017543 -0.019804 310945.000000 0 1 0
4.335511 19.185179 -9.790299 21.970838 1.348547 2.032645 0.021315 -0.019719 526779.000000 0 1 0
3.350511 18.927679 -10.800999 22.048686 1.395595 2.082737 0.018551 -0.022169 386350.000000 0 1 0
3.642411 19.517779 -12.205999 23.306593 1.386298 2.122002 0.021973 -0.019429 40705.200000 0 1 0
3.869211 20.894179 -12.301099 24.553096 1.387689 2.095550 0.050565 -0.018859 39525.700000 0 1 0
4.074311 21.173479 -13.683899 25.537528 1.380695 2.136293 0.046046 -0.007313 28932.000000 0 0 1
4.301511 22.679879 -14.129799 27.065312 1.383361 2.120064 0.035626 -0.006816 -699903.000000 0 0 1
3.190511 23.519479 -14.161999 27.638876 1.435965 2.108767 0.039728 -0.005107 -747110.000000 0 0 1
3.382111 24.712279 -14.886299 29.047157 1.434782 2.108875 0.026226 -0.003725 693871.000000 0 0 1
2.023011 25.319579 -15.423099 29.716084 1.491067 2.116495 0.021675 0.005282 912969.000000 0 0 1
1.135011 25.751579 -14.422399 29.537056 1.526749 2.080916 0.026676 -0.002284 -255422.000000 0 0 1
1.286511 27.137779 -14.093599 30.606269 1.523425 2.049333 0.015154 0.001736 -606387.000000 0 0 1
0.428611 27.636479 -12.831599 30.473080 1.555289 2.005432 0.019255 -0.005752 1699320.000000 0 0 1
-1.017589 27.615279 -12.941399 30.514241 -1.533964 2.008775 0.007366 -0.012504 1252230.000000 0 0 1
-1.694089 26.400579 -13.282999 29.602341 -1.506716 2.036123 0.005710 -0.005896 -562841.000000 0 0 1
-1.593089 25.160279 -12.403099 28.096520 -1.507563 2.028006 0.040754 -0.013459 -523731.000000 0 0 1
-2.293789 25.460379 -11.232399 27.922377 -1.480946 1.984794 0.040153 -0.014369 -99200.400000 0 0 1
-2.232889 24.334779 -10.418199 26.565130 -1.479295 1.973792 0.049784 -0.012263 -367267.000000 0 0 1
-3.044889 24.470879 -9.136699 26.297805 -1.447004 1.925627 0.040554 -0.010416 -251402.000000 0 0 1
-2.454189 24.940979 -7.951499 26.292619 -1.472712 1.878030 0.029966 -0.015312 -376316.000000 0 0 1
-2.448189 26.363479 -7.915799 27.634879 -1.478199 1.861308 0.038015 -0.013063 -123407.000000 0 0 1
-2.490189 26.869579 -6.479999 27.751859 -1.478383 1.806470 0.033226 -0.010252 609633.000000 0 0 1
-1.255689 26.556779 -5.824899 27.217066 -1.523548 1.786481 0.029721 -0.009975 397450.000000 0 0 1
-1.301789 26.832179 -4.481699 27.235016 -1.522318 1.736105 0.027149 -0.010400 -233979.000000 0 0 1
-2.000689 25.890179 -3.488299 26.200617 -1.493674 1.704331 0.026678 -0.012176 -797283.000000 0 0 1
-3.364689 25.852379 -3.652499 26.325033 -1.441374 1.709992 0.019679 -0.009808 -761597.000000 0 0 1
-4.117489 25.085379 -2.680299 25.561963 -1.408108 1.675844 0.021961 -0.011436 1334730.000000 0 0 1
-5.500489 24.499979 -3.148999 25.306532 -1.349948 1.695554 0.018516 -0.008316 958854.000000 0 0 1
-6.410889 25.452779 -3.650299 26.500342 -1.324055 1.708981 0.016820 -0.003136 -570003.000000 0 0 1
-7.606289 24.882779 -4.080499 26.337403 -1.274132 1.726355 0.023838 -0.007359 276295.000000 0 0 1
-8.829789 25.843679 -4.216699 27.634063 -1.241569 1.723985 0.017670 -0.005732 427857.000000 0 0 1
-9.439589 26.195779 -2.991899 28.004930 -1.224933 1.677835 0.018927 -0.003393 -309150.000000 0 0 1
-10.716189 26.770479 -3.033899 28.994823 -1.190032 1.675624 0.023232 0.001905 167206.000000 0 0 1
-11.456489 26.795579 -1.639399 29.188042 -1.166767 1.626993 0.027425 0.001578 304756.000000 0 0 1
-11.868989 25.565779 -1.032999 28.205479 -1.136153 1.607429 0.032346 -0.004159 712427.000000 0 0 1
-10.781389 24.727179 -0.614499 26.982389 -1.159634 1.593572 0.033139 -0.007625 403820.000000 0 0 1
-11.343389 23.377379 -0.279799 25.985623 -1.119035 1.581564 0.033162 -0.011818 -258964.000000 0 0 1
-12.124589 23.406379 0.869501 26.374614 -1.092850 1.537823 0.038547 -0.011536 -380942.000000 0 0 1
-12.706089 22.165979 1.065201 25.571663 -1.050297 1.529129 0.041944 -0.020661 -279798.000000 0 0 1
-13.675889 22.034979 2.274601 26.033518 -1.015335 1.483313 0.044242 -0.020801 47749.700000 0 0 1
-13.062589 22.063879 3.530801 25.882669 -1.036254 1.433954 0.038974 -0.025621 71675.800000 0 0 1
-12.533089 23.321379 3.969301 26.771634 -1.077672 1.421983 0.032688 -0.019160 33240.700000 0 0 1
-12.335989 23.403379 5.486801 27.018508 -1.085702 1.366298 0.028461 -0.019659 -176526.000000 0 0 1
-11.154189 22.764179 5.914401 26.030826 -1.115190 1.341587 0.024465 -0.014240 154504.000000 0 0 1
-11.357789 22.537779 7.317601 26.277331 -1.103998 1.288590 0.018626 -0.011337 -241687.000000 0 0 1
-10.078489 22.103879 8.024301 25.584112 -1.142997 1.251768 0.010308 -0.013492 -273327.000000 0 0 1
-9.087089 23.086979 8.254701 26.148114 -1.195817 1.249612 0.014723 -0.014034 230396.000000 0 0 1
-8.038489 22.674479 9.125501 25.729828 -1.230103 1.208239 0.017917 -0.013521 58294.600000 0 0 1
-8.227689 22.630379 10.654101 26.331327 -1.222085 1.154236 0.009717 -0.016236 276163.000000 0 0 1
-9.140489 21.577079 11.066101 25.914812 -1.170095 1.129603 0.013444 -0.013819 430653.000000 0 0 1
-8.799189 21.195179 12.410801 26.090023 -1.177298 1.075046 0.006575 -0.003965 -76959.400000 0 0 1
-9.585589 20.024379 13.059101 25.756540 -1.124337 1.039072 0.003804 -0.001744 -198942.000000 0 0 1
-9.545189 18.809979 12.290701 24.412850 -1.101204 1.043207 0.015979 -0.007348 -271003.000000 0 1 0
-10.248289 17.771979 12.910101 24.239252 -1.047720 1.009113 0.009396 -0.005642 -398439.000000 0 1 0
-10.479089 16.620779 11.877801 22.959611 -1.008265 1.027063 0.007684 -0.007927 -358622.000000 0 1 0
-10.765889 15.323279 12.436001 22.480244 -0.958338 0.984599 -0.000167 -0.010874 -149049.000000 0 1 0
-11.240489 14.381379 11.512201 21.580163 -0.907376 1.008108 0.002568 -0.000732 -9846.360000 0 1 0
-11.700289 13.027279 12.127001 21.299552 -0.839011 0.965076 -0.002455 -0.008149 -40198.700000 0 1 0
-12.806789 13.017779 12.991701 22.411174 -0.793568 0.952439 0.005152 -0.006953 -118987.000000 0 1 0
-13.115289 11.703979 13.393401 22.099256 -0.728596 0.919703 0.001140 -0.003860 277142.000000 0 1 0
-13.992189 11.637079 14.693901 23.390461 -0.693764 0.891558 0.010203 -0.009806 190639.000000 0 1 0
-15.245289 12.244079 14.537801 24.365631 -0.676652 0.931474 0.018969 -0.012209 -434685.000000 0 1 0
-15.897089 12.431779 15.780701 25.618296 -0.663679 0.907150 0.025309 -0.010131 -15888.900000 0 0 1
-17.003389 13.519179 15.688301 26.795638 -0.671738 0.945325 0.029800 -0.006547 -295025.000000 0 0 1
-18.100789 13.057279 14.960601 26.869140 -0.624922 0.980274 0.032105 -0.006465 -708750.000000 0 0 1
-19.017989 14.113979 14.834901 27.945708 -0.638451 1.011196 0.044414 -0.007836 -694814.000000 0 0 1
-20.227989 13.788679 13.994401 28.198270 -0.598313 1.051481 0.036140 -0.011173 -820126.000000 0 0 1
-21.150889 12.934679 14.597701 28.770799 -0.548864 1.038656 0.036724 -0.003115 414974.000000 0 0 1
-22.343389 12.865979 13.795301 29.241593 -0.522457 1.079499 0.023787 -0.006577 537008.000000 0 0 1
-23.464889 11.978279 14.375401 30.012203 -0.471994 1.071298 0.033877 -0.006198 -177901.000000 0 0 1
-23.987689 12.614679 15.543201 31.243086 -0.484138 1.050091 0.032940 -0.009577 -44987.700000 0 0 1
-24.766689 11.706379 16.295101 31.874104 -0.441543 1.034177 0.026439 -0.004270 -334091.000000 0 0 1
-25.631039 12.406979 17.352501 33.346553 -0.450815 1.023514 0.023405 -0.009580 -364725.000000 0 0 1
-26.588509 13.231679 16.765501 34.104371 -0.461763 1.056877 0.020253 -0.006466 -172244.000000 0 0 1
-27.282089 14.001079 17.721901 35.417628 -0.474149 1.046771 0.020105 0.006223 194552.000000 0 0 1
-28.296479 15.033279 17.208701 36.370724 -0.488355 1.077937 0.018874 -0.000131 489013.000000 0 0 1
-27.614789 16.184579 16.669501 36.088633 -0.530124 1.090655 0.022319 -0.003723 1010060.000000 0 0 1
-28.632629 17.214979 16.574001 37.294509 -0.541328 1.110282 0.027315 0.005691 995232.000000 0 0 1
-28.025289 18.656979 16.746901 37.602638 -0.587347 1.109214 0.032008 0.002913 -125009.000000 0 0 1
-27.577849 18.896279 18.077401 38.005257 -0.600722 1.075088 0.025098 0.002262 698256.000000 0 0 1
-28.626359 19.112279 19.055801 39.342994 -0.588680 1.065176 0.024143 0.004515 290053.000000 0 0 1
-27.993249 19.112579 20.472901 39.598640 -0.599059 1.027442 0.014878 0.001122 401531.000000 0 0 1
-27.526229 17.931379 21.111101 39.050047 -0.577379 0.999627 0.019872 0.001433 685002.000000 0 0 1
-26.339279 17.394479 20.467801 37.619893 -0.583652 0.995518 0.030466 0.005016 331642.000000 0 0 1
-25.939429 16.094479 21.115801 37.118234 -0.555331 0.965654 0.024843 0.011317 -424165.000000 0 0 1
-26.981339 15.177679 21.237701 37.541904 -0.512408 0.969506 0.003856 0.011730 -183538.000000 0 0 1
-26.487609 13.904779 21.621301 36.910933 -0.483411 0.944967 0.003540 0.020193 -380995.000000 0 0 1
-27.616719 12.913479 21.871501 37.520710 -0.437390 0.948481 0.012731 0.011756 -316309.000000 0 0 1
-28.285589 12.527779 20.689301 37.216488 -0.416937 0.981330 0.018104 0.004822 -283047.000000 0 0 1
-29.431819 11.797379 21.033601 38.050262 -0.381228 0.985094 0.023019 0.000673 -545586.000000 0 0 1
-30.373379 11.637079 19.842501 38.101031 -0.365883 1.023024 0.036092 -0.002118 -752325.000000 0 0 1
-29.893779 10.912979 18.713201 36.917679 -0.350026 1.039223 0.041040 -0.008913 -1887.310000 0 0 1
-29.546089 9.569979 18.885301 36.348459 -0.313237 1.024457 0.036803 -0.005123 -23612.500000 0 0 1
-28.713769 8.992579 17.688901 34.903355 -0.303504 1.039332 0.030451 -0.014055 -49735.600000 0 0 1
-29.369299 8.732979 16.480101 34.791010 -0.289024 1.077322 0.034902 -0.010515 169045.000000 0 0 1
-30.054589 9.820079 15.834201 35.361479 -0.315806 1.106514 0.038329 -0.018252 265560.000000 0 0 1
-29.152839 10.902179 15.113601 34.600093 -0.357864 1.118749 0.034173 -0.014464 197329.000000 0 0 1
-28.449269 10.363079 14.022001 33.367212 -0.349326 1.137094 0.028952 -0.012925 611982.000000 0 0 1
-27.297669 11.195379 13.782601 32.564694 -0.389202 1.133781 0.025169 0.003010 346361.000000 0 0 1
-26.854169 11.378079 12.300101 31.652797 -0.400768 1.171691 0.032086 -0.007663 -443219.000000 0 0 1
-26.352039 10.219779 11.662001 30.575744 -0.369960 1.179471 0.039673 -0.004137 455279.000000 0 0 1
-27.399569 9.342679 11.307701 31.078709 -0.328616 1.198408 0.037994 -0.000744 -541218.000000 0 0 1
-26.896289 8.099779 10.520001 29.994786 -0.292510 1.212448 0.044176 -0.012582 -126109.000000 0 0 1
-26.528029 8.448879 9.201401 29.322102 -0.308331 1.251599 0.050735 -0.012225 192612.000000 0 0 1
-26.113519 7.267379 8.513001 28.411298 -0.271431 1.266487 0.062762 -0.022743 -268061.000000 0 0 1
-25.447469 7.633879 7.192901 27.524309 -0.291444 1.306398 0.065318 -0.011990 180224.000000 0 0 1
-26.297469 8.275779 6.227701 28.263575 -0.304887 1.348630 0.057490 -0.013101 480694.000000 0 0 1
-25.490599 8.616179 5.119301 27.390079 -0.325957 1.382787 0.057935 -0.011064 98851.900000 0 0 1
-26.257339 8.786179 3.810301 27.949297 -0.322906 1.434041 0.045322 -0.013732 -90582.800000 0 0 1
-26.806729 7.648679 3.091201 28.047433 -0.277941 1.460359 0.046243 -0.025362 802038.000000 0 0 1
-25.827639 6.673779 2.684001 26.810634 -0.252866 1.470519 0.043347 -0.022661 177839.000000 0 0 1
-25.007989 7.033579 1.416501 26.016864 -0.274170 1.516324 0.057247 -0.018355 -267166.000000 0 0 1
-23.969389 7.933679 1.755701 25.309234 -0.319642 1.501371 0.045640 -0.011394 -515310.000000 0 0 1
-23.029689 7.854079 0.744001 24.343514 -0.328672 1.540229 0.050572 -0.002357 -503728.000000 0 1 0
-21.726589 8.595779 1.171401 23.394535 -0.376737 1.520704 0.034132 0.000656 -4729.060000 0 1 0
-21.948689 9.951579 1.003801 24.120250 -0.425679 1.529168 0.030629 -0.002922 110193.000000 0 1 0
-21.047089 10.782679 1.689001 23.708624 -0.473449 1.499496 0.051302 -0.002477 -597693.000000 0 1 0
-21.404489 12.276079 2.067301 24.761421 -0.520728 1.487210 0.042603 -0.004983 -644889.000000 0 1 0
-20.360789 12.898279 2.746701 24.258435 -0.564678 1.457326 0.053943 -0.015656 -33989.100000 0 1 0
-20.644389 14.213579 3.107101 25.256102 -0.602963 1.447460 0.042707 -0.022106 -99554.300000 0 0 1
-19.470089 14.828679 3.905201 24.783556 -0.650892 1.412565 0.023413 -0.017134 82617.000000 0 1 0
-19.163689 13.923079 4.948301 24.198859 -0.628313 1.364859 0.024267 -0.014989 229716.000000 0 1 0
-18.379989 14.527979 5.997801 24.183874 -0.668874 1.320173 0.025475 -0.014085 152208.000000 0 1 0
-17.896089 13.513679 7.096701 23.521324 -0.646769 1.264307 0.010398 -0.010718 -448730.000000 0 1 0
-16.817589 12.756679 6.672901 22.138016 -0.648939 1.264612 0.015319 -0.003914 -575514.000000 0 1 0
-16.574289 11.779979 7.673901 21.733930 -0.617896 1.209931 0.010390 0.000166 -215031.000000 0 1 0
10.910811 -32.360143 -14.217699 36.991454 -1.245598 1.965301 0.051383 -0.005748 -304770.000000 0 0 1
12.143211 -32.545343 -13.584399 37.298698 -1.213678 1.943576 0.019475 -0.005404 -199982.000000 0 0 1
13.048311 -31.535243 -13.981299 36.880980 -1.178477 1.959612 0.007782 -0.011693 685915.000000 0 0 1
14.567511 -31.720943 -13.653299 37.481238 -1.140285 1.943645 0.045106 -0.009192 769711.000000 0 0 1
15.098411 -32.859543 -14.340499 38.901947 -1.140084 1.948333 0.020844 -0.006632 -130483.000000 0 0 1
16.495011 -32.908943 -14.127999 39.429485 -1.106164 1.937254 0.032137 -0.013626 26845.600000 0 0 1
17.136611 -34.212643 -14.519899 40.926713 -1.106441 1.933473 0.010470 -0.014169 -272588.000000 0 0 1
16.965111 33.805779 -13.539599 40.174201 1.105677 1.914549 0.007452 -0.003785 -184321.000000 0 0 1
17.662011 32.667379 -13.954699 39.671626 1.075151 1.930242 -0.001094 0.004615 -391478.000000 0 0 1
17.558811 31.533179 -12.965599 38.350489 1.062720 1.915674 -0.002772 0.000639 86833.200000 0 0 1
18.316111 31.893979 -11.806199 38.627609 1.049502 1.881408 0.002305 -0.007023 43113.600000 0 0 1
18.368311 30.791779 -10.922199 37.480968 1.032930 1.866493 0.001757 -0.010361 -4108.460000 0 0 1
19.382811 30.933479 -9.775799 37.790736 1.011050 1.832454 0.008209 -0.003371 254444.000000 0 0 1
20.717711 30.590579 -10.120199 38.306990 0.975497 1.838157 0.010025 -0.008280 2725.170000 0 0 1
21.450711 30.381479 -8.955399 38.253973 0.956024 1.807093 0.013854 -0.013290 519050.000000 0 0 1
22.766511 29.521479 -9.108799 38.377102 0.913874 1.810433 0.002661 -0.003424 859274.000000 0 0 1
23.758411 30.134979 -9.910099 39.633182 0.903169 1.823524 -0.004316 -0.005099 433757.000000 0 0 1
24.951311 29.342379 -9.941599 39.779122 0.866099 1.823394 -0.008064 0.007890 886445.000000 0 0 1
25.990111 29.866879 -11.005799 41.093113 0.854692 1.841932 -0.005015 0.004369 140298.000000 0 0 1
26.638211 31.052079 -10.626399 42.269921 0.861759 1.824916 -0.004586 -0.005503 137923.000000 0 0 1
27.444911 31.534779 -11.684899 43.407399 0.854631 1.843350 -0.009362 0.001624 185561.000000 0 0 1
27.946411 33.001779 -11.528199 44.755097 0.868154 1.831317 -0.003371 -0.002427 214106.000000 0 0 1
26.967211 33.964079 -11.944799 44.982967 0.899729 1.839561 0.014596 -0.001787 452522.000000 0 0 1
27.413411 -33.738143 -11.620299 44.997653 -0.888459 1.831999 0.036468 -0.000712 37650.100000 0 0 1
26.352511 -32.639843 -11.889499 43.602459 -0.891576 1.846973 0.033194 -0.000553 -339331.000000 0 0 1
25.228611 -32.863143 -11.062699 42.881841 -0.916071 1.831728 0.032335 -0.006565 -127702.000000 0 0 1
24.170811 -31.941143 -11.319899 41.624570 -0.923002 1.846218 0.033014 -0.004441 315050.000000 0 0 1
24.448111 -30.464943 -10.897299 40.553348 -0.894533 1.842855 0.046322 -0.012471 -410139.000000 0 0 1
25.273311 -29.810243 -11.877099 40.846742 -0.867577 1.865830 0.032761 -0.002476 263124.000000 0 0 1
25.641611 -28.502843 -11.425799 40.005664 -0.838193 1.860434 0.030109 -0.006401 -195037.000000 0 0 1
26.415711 -27.655043 -12.445599 40.217958 -0.808315 1.885415 0.008726 0.002748 127739.000000 0 0 1
27.716811 -28.132143 -12.742699 41.497174 -0.792835 1.882913 -0.000815 0.012352 153379.000000 0 0 1
27.742711 -29.074843 -13.819299 42.496795 -0.808840 1.902003 0.007209 0.006939 16182.600000 0 0 1
29.158811 -29.614643 -14.185999 43.914758 -0.793154 1.899731 0.018715 0.012443 281704.000000 0 0 1
29.737111 -30.453043 -13.200199 44.563762 -0.797292 1.871518 0.023688 0.001441 -166452.000000 0 0 1
30.678211 -31.285443 -13.829799 45.947741 -0.795198 1.876527 0.018952 0.001376 96774.000000 0 0 1
31.479111 -32.180343 -12.781899 46.796216 -0.796413 1.847452 0.010821 0.000520 682019.000000 0 0 1
32.313611 -33.196543 -13.369099 48.217349 -0.798875 1.851745 0.006340 -0.000039 78156.200000 0 0 1
33.013111 -33.956143 -12.418499 48.960232 -0.799479 1.827243 0.007731 -0.000441 -392551.000000 0 0 1
32.329111 33.927479 -11.681799 48.298133 0.809517 1.815087 -0.005356 -0.000908 -230586.000000 0 0 1
31.780711 34.278779 -10.406999 47.888975 0.823196 1.789859 -0.003714 -0.008491 -77767.500000 0 0 1
31.128511 33.155079 -9.842699 46.530873 0.816913 1.783937 -0.004205 -0.008438 -425435.000000 0 0 1
30.430211 33.452379 -8.496199 46.013528 0.832671 1.756508 -0.009303 -0.009785 351489.000000 0 0 1
29.388711 34.403479 -8.626899 46.062122 0.863848 1.759197 0.000032 -0.011062 -886830.000000 0 0 1
28.421611 34.378479 -7.655699 45.257900 0.879970 1.740771 -0.004192 -0.007961 -377303.000000 0 0 1
27.473111 -33.443243 -7.868199 43.990123 -0.883092 1.750627 0.009450 -0.012808 -628814.000000 0 0 1
28.100611 -32.213543 -7.747599 43.444010 -0.853485 1.750091 0.005288 -0.020993 -466840.000000 0 0 1
27.400411 -31.114643 -8.226599 42.267960 -0.848788 1.766676 0.011614 -0.010779 206761.000000 0 0 1
26.364711 -30.433843 -7.268099 40.916281 -0.856917 1.749377 0.025917 -0.015764 356547.000000 0 0 1
25.514511 -29.544843 -7.937199 39.835752 -0.858468 1.771387 0.025962 -0.023067 68904.700000 0 0 1
24.565611 -28.991543 -7.013499 38.641532 -0.867850 1.753310 0.029185 -0.029948 -254929.000000 0 0 1
23.575211 -28.055043 -7.665699 37.438469 -0.871949 1.777009 0.056012 -0.035575 -507954.000000 0 0 1
22.733411 -28.827043 -8.544399 37.693675 -0.903037 1.799464 0.064935 -0.035271 560902.000000 0 0 1
21.979511 -27.931243 -9.384299 36.760282 -0.904085 1.828937 0.074837 -0.032174 740545.000000 0 0 1
20.745711 -28.627843 -10.089199 36.765879 -0.943705 1.848780 0.052960 -0.014238 628796.000000 0 0 1
21.138311 -29.557143 -11.091299 37.993023 -0.949963 1.867040 0.048970 -0.011216 923363.000000 0 0 1
20.003611 -30.244243 -11.688699 38.098352 -0.986447 1.882629 0.031605 -0.007805 959378.000000 0 0 1
19.564011 -31.556143 -11.020999 38.729874 -1.015819 1.859344 0.023449 -0.014638 298756.000000 0 0 1
20.560711 -32.591543 -11.074099 40.094728 -1.007994 1.850633 0.021391 -0.011901 22354.000000 0 0 1
20.209811 -33.878843 -10.585799 40.844481 -1.032931 1.832962 0.018722 -0.012971 -509080.000000 0 0 1
21.270511 34.036079 -10.628899 41.519427 1.012240 1.829677 0.004395 -0.004457 -349191.000000 0 0 1
22.337511 34.282279 -9.751599 42.063437 0.993314 1.804756 0.006862 -0.007969 -371434.000000 0 0 1
23.368211 33.341279 -9.958999 41.915341 0.959480 1.810689 0.011173 -0.010042 381499.000000 0 0 1
24.738411 33.660479 -9.280499 42.791874 0.937004 1.789409 0.022633 -0.014576 68041.600000 0 0 1
24.809911 33.472279 -7.854199 42.398273 0.932946 1.757121 0.015208 -0.023075 190390.000000 0 0 1
25.221311 32.167579 -7.523999 41.562943 0.905851 1.752827 0.001882 -0.015059 -476925.000000 0 0 1
25.066411 31.887079 -6.030999 41.005899 0.904589 1.718408 -0.003674 -0.006928 -1147930.000000 0 0 1
26.022511 32.560979 -5.272899 42.014187 0.896548 1.696631 0.003033 -0.012880 1386630.000000 0 0 1
27.263911 31.807879 -4.979599 42.188368 0.862170 1.689105 -0.001399 -0.010027 1408330.000000 0 0 1
27.033711 30.541279 -4.054999 40.988221 0.846245 1.669889 0.001168 0.000986 -745469.000000 0 0 1
26.676111 30.754879 -2.705699 40.801940 0.856299 1.637158 0.005594 0.005402 51268.600000 0 0 1
26.548111 29.538479 -1.953299 39.763543 0.838665 1.619939 0.000956 0.006176 -758547.000000 0 0 1
25.148111 28.961379 -1.996599 38.408012 0.855755 1.622804 0.011201 0.016055 -1095740.000000 0 0 1
24.244511 29.746279 -1.288499 38.396584 0.886950 1.604360 0.011037 0.015174 -1002040.000000 0 0 1
22.929111 29.371679 -1.573999 37.295001 0.907964 1.613013 0.015861 0.017572 -556837.000000 0 0 1
21.888111 30.165779 -0.813899 37.279030 0.943099 1.592631 0.038689 0.016643 -332711.000000 0 0 1
21.670411 29.767779 0.488501 36.823444 0.941536 1.557530 0.041213 0.001173 -77941.100000 0 0 1
20.577111 30.508579 1.003001 36.812999 0.977411 1.543547 0.032362 -0.001579 104451.000000 0 0 1
19.853411 29.705579 2.149401 35.793844 0.981637 1.510711 0.044497 -0.014682 -78283.400000 0 0 1
18.986711 28.717579 1.643001 34.465838 0.986621 1.523108 0.065589 -0.012135 205827.000000 0 0 1
18.461511 27.854779 2.652901 33.522440 0.985491 1.491575 0.086152 -0.011746 -62361.800000 0 0 1
18.016311 26.459679 2.151501 32.083189 0.973007 1.503686 0.070313 0.007525 98488.100000 0 0 1
19.035011 25.600079 1.661801 31.944597 0.931434 1.518751 0.060481 0.001742 230641.000000 0 0 1
19.826711 25.041279 2.709301 32.054710 0.901099 1.486174 0.049559 0.008508 306593.000000 0 0 1
20.974611 24.111879 2.152101 32.030432 0.854870 1.503556 0.039933 0.009271 53586.000000 0 0 1
20.545011 23.030379 1.374601 30.893128 0.842372 1.526286 0.042804 0.009821 -49677.900000 0 0 1
21.593111 22.243379 0.836601 31.011776 0.800231 1.543816 0.019996 0.005190 -301791.000000 0 0 1
21.301111 21.128979 -0.210699 30.003591 0.781341 1.577819 0.041027 0.000571 -488698.000000 0 0 1
20.905111 21.606479 -1.504099 30.101925 0.801895 1.620784 0.034389 0.006744 424478.000000 0 0 1
21.242111 20.581179 -2.413799 29.675556 0.769597 1.652226 0.067385 -0.011565 4920.590000 0 0 1
21.121811 21.079779 -3.854499 30.088954 0.784402 1.699253 0.048246 -0.001996 -362571.000000 0 0 1
22.008111 22.120079 -4.097099 31.471274 0.787935 1.701352 0.038929 0.005613 20601.900000 0 0 1
21.705211 22.747779 -5.361799 31.895556 0.808847 1.739703 0.042060 -0.003538 -327868.000000 0 0 1
22.632311 23.915079 -5.718499 33.419362 0.812950 1.742756 0.033021 0.010524 -247156.000000 0 0 1
22.536911 25.103579 -4.924599 34.093309 0.839222 1.715748 0.017305 0.014509 174095.000000 0 0 1
23.160811 25.118179 -3.637099 34.359490 0.825919 1.676849 0.023801 0.008784 111953.000000 0 0 1
22.228511 24.717479 -2.429999 33.331147 0.838366 1.643766 0.022168 0.007410 -166320.000000 0 0 1
21.145211 25.621679 -2.298299 33.299738 0.880826 1.639870 0.036265 0.002895 894806.000000 0 0 1
20.086211 25.205779 -1.427599 32.261823 0.897955 1.615061 0.054979 0.012939 484191.000000 0 0 1
19.064511 24.153279 -1.908799 30.829855 0.902606 1.632750 0.068117 -0.000574 -843423.000000 0 0 1
18.163211 24.641279 -2.859499 30.745270 0.935599 1.663937 0.051507 -0.001113 -288820.000000 0 0 1
17.440911 23.546079 -3.384599 29.496758 0.933265 1.685794 0.049798 -0.007117 28409.800000 0 0 1
16.735311 23.983079 -4.673599 29.615895 0.961551 1.729266 0.044885 -0.013758 -98282.400000 0 0 1
16.116311 22.991079 -5.459199 28.602938 0.959412 1.762836 0.039593 -0.015183 123318.000000 0 0 1
15.693011 23.478579 -6.711999 29.026974 0.981597 1.804141 0.037256 -0.012075 -367111.000000 0 0 1
15.050411 22.286979 -7.451099 27.905970 0.976840 1.841083 0.031219 -0.008796 -195885.000000 0 0 1
15.932711 21.215579 -7.844699 27.667515 0.926661 1.858274 0.030137 -0.010587 536520.000000 0 0 1
15.208211 20.210079 -8.495899 26.681778 0.925693 1.894854 0.036299 -0.011004 -60779.900000 0 0 1
16.006711 18.880479 -8.667699 26.226252 0.867586 1.907627 0.029652 -0.008821 141376.000000 0 0 1
17.122411 19.020579 -9.515299 27.303851 0.837868 1.926763 0.023992 -0.010293 -21882.700000 0 0 1
17.797611 17.835279 -9.776899 27.026651 0.786455 1.940941 0.024021 -0.010957 582832.000000 0 0 1
19.212411 17.933479 -10.459699 28.286599 0.750982 1.949564 0.023261 -0.007574 580506.000000 0 0 1
19.185511 18.551579 -11.729499 29.151776 0.768601 1.984889 0.023401 -0.007030 -1166410.000000 0 0 1
20.429311 18.894079 -12.175199 30.373976 0.746377 1.983233 0.028897 0.001306 -1314790.000000 0 0 1
20.523511 19.153979 -13.684699 31.230761 0.750895 2.024369 0.028934 -0.007054 -292171.000000 0 0 1
20.464311 18.053679 -14.540499 30.921667 0.722895 2.060355 0.030972 0.000710 244653.000000 0 0 1
20.454811 18.543879 -15.895599 31.858199 0.736437 2.093181 0.030411 -0.004176 -63759.500000 0 0 1
20.606811 17.475379 -16.979999 31.911595 0.703354 2.131869 0.030351 -0.010417 -632593.000000 0 0 1
21.916911 17.072879 -17.204399 32.677600 0.661793 2.125262 0.039535 -0.014954 -653678.000000 0 0 1
22.051311 15.956079 -18.133999 32.706249 0.626382 2.158499 0.048681 -0.018411 -46008.400000 0 0 1
23.081511 16.176079 -19.275099 34.146027 0.611279 2.170612 0.054403 -0.012204 225197.000000 0 0 1
24.434511 16.281179 -18.832699 34.882555 0.587762 2.141101 0.058502 -0.009336 367518.000000 0 0 1
25.155411 16.668679 -20.003999 36.204966 0.585201 2.156182 0.065126 -0.010990 -43587.800000 0 0 1
26.628511 16.996779 -19.689999 37.224510 0.568101 2.128162 0.057548 -0.010390 -152094.000000 0 0 1
26.567611 18.185079 -18.964499 37.365590 0.600236 2.103123 0.051041 -0.012089 1093450.000000 0 0 1
27.853911 18.711779 -18.555199 38.344054 0.591536 2.075917 0.041569 -0.014795 882422.000000 0 0 1
27.654011 19.831979 -17.571499 38.298946 0.622141 2.047439 0.029218 -0.011414 37884.800000 0 0 1
27.064511 19.484579 -16.353799 37.142743 0.623978 2.026725 0.034610 -0.015535 -448083.000000 0 0 1
25.813311 20.070979 -16.169899 36.477896 0.660897 2.030050 0.041193 -0.010072 -429353.000000 0 0 1
24.925111 19.326179 -15.140399 34.985626 0.659541 2.018349 0.042709 -0.005157 163312.000000 0 0 1
25.334711 19.540179 -13.782599 34.837138 0.656982 1.977549 0.042091 -0.008611 54398.300000 0 0 1
24.215011 19.400879 -12.955699 33.624560 0.675467 1.966334 0.040749 -0.011257 -502637.000000 0 0 1
24.526611 19.596679 -11.498199 33.433412 0.674129 1.921878 0.051340 -0.010388 -183847.000000 0 0 1
24.811611 20.971979 -11.244699 34.378528 0.701729 1.904014 0.044523 -0.005274 -37365.500000 0 0 1
25.273811 21.330479 -9.990999 34.548154 0.700986 1.864177 0.034019 0.001365 346562.000000 0 0 1
24.304711 21.134479 -8.745499 33.374675 0.715742 1.835932 0.035448 0.002345 -4535.630000 0 0 1
24.226011 19.766079 -8.494899 32.400012 0.684363 1.836085 0.048007 -0.005837 367669.000000 0 0 1
23.374111 19.248479 -7.479999 31.189796 0.688904 1.812979 0.035943 -0.007188 181319.000000 0 0 1
21.846711 19.285579 -7.686999 30.138054 0.723213 1.828706 0.026510 -0.012307 -302120.000000 0 0 1
21.278311 20.548779 -7.706299 30.568053 0.767958 1.825649 0.049953 -0.001567 49786.300000 0 0 1
19.920611 20.539079 -8.113099 29.740660 0.800683 1.847093 0.068995 -0.005729 337248.000000 0 0 1
19.271611 21.994079 -8.154899 30.358473 0.851277 1.842757 0.032412 -0.004006 -442267.000000 0 0 1
19.683711 22.860479 -9.200199 31.538764 0.859930 1.866811 0.030925 -0.003103 -20439.600000 0 0 1
19.160811 22.540079 -10.453399 31.376191 0.866257 1.910453 0.026515 0.004637 -378020.000000 0 0 1
17.646011 22.705579 -10.618799 30.654264 0.910134 1.924533 0.023804 -0.002943 -691982.000000 0 0 1
17.282511 24.070779 -10.340199 31.384826 0.948100 1.906533 0.038067 -0.004231 1492180.000000 0 0 1
15.865011 24.350079 -10.539999 30.914665 0.993340 1.918711 0.037515 0.000311 1549610.000000 0 0 1
15.465311 25.764179 -9.941999 31.651416 1.030183 1.890314 0.050635 -0.000381 -878.862000 0 0 1
16.058811 26.861379 -10.592199 33.039579 1.031966 1.897150 0.036460 0.001785 107547.000000 0 0 1
16.481111 27.796679 -9.597199 33.710364 1.035602 1.859485 0.051433 -0.015624 43669.500000 0 0 1
19.660311 29.582179 33.883342 49.088838 0.984226 0.808968 0.010783 0.004381 -39890.600000 0 0 1
18.262511 29.737379 33.952362 48.688745 1.020054 0.799124 0.023382 -0.006087 -474282.000000 0 0 1
17.572911 28.520879 34.109494 47.809050 1.018592 0.776383 0.019850 -0.003853 -637091.000000 0 0 1
16.085711 28.825479 34.030130 47.410000 1.061803 0.770182 0.025510 -0.007185 -644464.000000 0 0 1
15.624711 29.256379 32.721785 46.591657 1.080272 0.792159 0.027278 -0.013132 405887.000000 0 0 1
14.338911 29.871079 32.812671 46.632146 1.123255 0.790276 0.032436 -0.009787 483649.000000 0 0 1
13.568611 29.805879 31.464205 45.414687 1.143599 0.805404 0.024116 -0.007981 79662.400000 0 0 1
12.959811 28.550279 31.208275 44.238349 1.144680 0.787728 0.012536 -0.011133 635469.000000 0 0 1
11.537611 28.496879 31.084845 43.720203 1.186096 0.779884 0.007202 0.001637 430059.000000 0 0 1
10.980311 27.060779 31.018255 42.602642 1.185330 0.755275 -0.012437 0.007336 -224323.000000 0 0 1
11.128311 26.288679 29.815355 41.278194 1.170356 0.763670 -0.007289 0.009196 361013.000000 0 0 1
12.489711 25.997579 29.525735 41.275126 1.122936 0.773686 -0.003727 0.004821 -48200.700000 0 0 1
12.833511 25.156579 28.319495 39.994328 1.099065 0.784010 0.020635 0.006219 -360519.000000 0 0 1
12.542411 25.800179 27.078635 39.448875 1.118301 0.814237 0.013039 0.006828 132851.000000 0 0 1
12.708911 24.988479 25.911345 38.175100 1.100300 0.824737 0.020799 0.005255 -214725.000000 0 0 1
11.603611 23.958479 25.638435 36.959191 1.119770 0.804189 0.027461 0.008856 -873040.000000 0 0 1
11.805511 23.393279 24.321115 35.750975 1.103432 0.822635 0.035381 -0.002942 -463470.000000 0 0 1
10.776111 22.537779 23.999215 34.641570 1.124793 0.805450 0.036625 -0.006909 -685379.000000 0 0 1
10.800711 22.039879 22.548235 33.329184 1.115138 0.827754 0.041361 -0.003620 -202071.000000 0 0 1
10.306011 23.005979 21.656135 33.233674 1.149631 0.861062 0.043466 -0.008337 -3397.740000 0 0 1
10.558511 22.552779 20.330235 32.146982 1.132936 0.886129 0.046994 -0.004236 -488790.000000 0 0 1
10.377111 23.710279 19.265435 32.264822 1.158249 0.930911 0.035072 -0.005126 945343.000000 0 0 1
9.003311 24.134379 19.153135 32.099384 1.213737 0.931436 0.046243 -0.009944 772370.000000 0 0 1
8.584011 25.019079 20.154935 33.254488 1.240283 0.919671 0.050319 -0.009978 -796916.000000 0 0 1
7.304911 25.782979 19.821435 33.331862 1.294709 0.933942 0.052412 -0.012710 -365790.000000 0 0 1
7.327611 26.892479 18.936735 33.697169 1.304776 0.974033 0.056198 -0.020563 499285.000000 0 0 1
6.046511 27.452279 18.610235 33.712442 1.354002 0.986001 0.048006 -0.022639 606834.000000 0 0 1
6.259511 28.508579 17.490335 34.026936 1.354660 1.030938 0.053070 -0.021998 130687.000000 0 0 1
6.398311 27.936979 16.220435 32.931986 1.345653 1.055786 0.049783 -0.017297 -198727.000000 0 0 1
6.988911 28.780779 15.280035 33.326530 1.332575 1.094496 0.045197 -0.015686 50661.800000 0 0 1
7.465511 28.022979 14.038035 32.219367 1.310437 1.119979 0.045089 -0.011419 252141.000000 0 0 1
6.377111 27.847079 13.151635 31.449846 1.345673 1.139358 0.024583 -0.012320 -99764.200000 0 0 1
6.466311 26.707879 12.331835 30.119730 1.333255 1.148970 0.013300 -0.017761 -305716.000000 0 0 1
5.848811 26.801079 10.912135 29.522552 1.355935 1.192196 0.006963 -0.016507 -343571.000000 0 0 1
6.469411 27.619679 9.963535 30.066127 1.340712 1.233023 0.010659 -0.012260 -91348.200000 0 0 1
6.467611 29.010279 10.208335 31.426682 1.351442 1.239964 0.017482 -0.011204 -57747.900000 0 0 1
6.793011 29.852179 8.915935 31.887168 1.347051 1.287410 0.016857 0.001826 221896.000000 0 0 1
5.781311 29.727479 7.898235 31.297423 1.378717 1.315677 0.003434 -0.006034 543667.000000 0 0 1
5.995311 28.641079 7.047635 30.098577 1.364450 1.334450 0.002972 0.002519 -988517.000000 0 0 1
4.617211 28.219679 6.674935 29.363645 1.408617 1.341472 -0.007356 0.001055 -944509.000000 0 0 1
3.797311 29.145379 6.003735 29.998625 1.441238 1.369302 -0.008649 -0.000573 -680952.000000 0 0 1
2.483811 28.665279 5.916635 29.374719 1.484363 1.367990 0.001786 -0.004773 -94052.300000 0 0 1
1.503711 29.663579 5.259535 30.163749 1.520148 1.395534 0.003051 -0.002605 -251603.000000 0 0 1
1.928211 29.971279 3.941935 30.290830 1.506550 1.440290 0.000253 -0.008403 -9771.310000 0 0 1
1.022311 30.706379 3.144835 30.883925 1.537516 1.468792 -0.001822 -0.011821 1133460.000000 0 0 1
-0.123989 29.830279 2.425335 29.928969 -1.566640 1.489671 0.016674 -0.007642 905133.000000 0 0 1
0.370411 28.956979 1.434635 28.994862 1.558005 1.521297 0.020107 -0.010910 -137204.000000 0 0 1
-0.562989 27.958679 1.020935 27.982977 -1.550663 1.534304 0.023410 -0.014716 -215588.000000 0 0 1
-1.075989 27.970779 -0.412465 27.994506 -1.532347 1.585531 0.013187 -0.014549 116854.000000 0 0 1
-2.075889 28.933579 -0.715065 29.016764 -1.499172 1.595442 0.026730 -0.012673 88830.300000 0 0 1
-1.653389 29.867879 -1.673165 29.960363 -1.515496 1.626671 0.018904 -0.010977 -86528.000000 0 0 1
-2.816989 30.845179 -2.074365 31.042930 -1.479722 1.637669 0.029708 -0.012260 1409520.000000 0 0 1
-3.959489 30.349879 -2.825365 30.737199 -1.441068 1.662846 0.015094 -0.011856 1099440.000000 0 0 1
-3.567289 29.782179 -4.053765 30.267751 -1.451585 1.705130 0.016291 -0.009121 -29926.300000 0 0 1
-4.825089 29.470879 -4.938565 30.268855 -1.408512 1.734686 0.026772 -0.008120 537872.000000 0 0 1
-5.461289 30.674579 -5.310265 31.606240 -1.394603 1.739610 0.021130 -0.004158 266502.000000 0 0 1
-6.580389 30.371279 -6.143965 31.677506 -1.357429 1.765987 0.023753 -0.005760 141190.000000 0 0 1
-7.245689 31.565379 -6.843165 33.101391 -1.345160 1.779031 0.022365 0.000293 -142602.000000 0 0 1
-8.085989 32.254979 -5.937765 33.779046 -1.325169 1.747497 0.014032 -0.001778 10243.200000 0 0 1
-8.709189 33.312479 -6.633865 35.065359 -1.315081 1.761129 0.017137 -0.002954 -491487.000000 0 0 1
-9.586789 34.241379 -5.807865 36.029292 -1.297809 1.732701 0.011566 -0.007213 60872.200000 0 0 1
-10.942289 33.908979 -6.037365 36.138654 -1.258650 1.738645 0.022322 -0.001093 -269879.000000 0 0 1
-11.867189 -34.145443 -5.553865 36.573035 1.236307 1.723243 0.024600 0.005573 -247734.000000 0 0 1
-13.295689 34.477879 -5.906665 37.421761 -1.202739 1.729300 0.024829 -0.000280 -613992.000000 0 0 1
-13.571189 -34.377043 -7.271465 37.667393 1.194803 1.765060 0.028074 0.000902 -789387.000000 0 0 1
-14.837789 34.129379 -7.505365 37.964523 -1.160695 1.769801 0.032391 -0.002431 -1443370.000000 0 0 1
-15.266689 34.354179 -8.959265 38.646472 -1.152617 1.804751 0.045189 -0.003563 363486.000000 0 0 1
-16.626089 33.977279 -9.164465 38.921328 -1.115721 1.808489 0.061887 -0.010844 766710.000000 0 0 1
-17.575889 -34.002743 -8.879765 39.293112 1.093723 1.798753 0.057151 -0.011890 -647004.000000 0 0 1
-19.047589 -34.398643 -9.169465 40.375195 1.065093 1.799902 0.060611 -0.010893 156444.000000 0 0 1
-19.494889 33.621079 -8.240865 39.728321 -1.045331 1.779744 0.057458 -0.013985 47587.200000 0 0 1
-19.826189 34.104879 -7.000765 40.065337 -1.044218 1.746432 0.048687 -0.013871 -1021950.000000 0 0 1
-19.994689 33.115179 -5.896365 39.130165 -1.027593 1.722058 0.038257 -0.016493 -496920.000000 0 0 1
-19.904289 33.484779 -4.510765 39.214259 -1.034484 1.686080 0.034104 -0.014084 112984.000000 0 0 1
-21.102489 33.716679 -3.802665 39.957349 -1.011567 1.666109 0.039380 -0.007330 55599.700000 0 0 1
-21.921689 -33.982143 -4.039265 40.640647 0.997877 1.670350 0.049325 -0.011459 -63579.700000 0 0 1
-22.411589 -33.999843 -5.362765 41.073445 0.988003 1.701735 0.050649 -0.012850 17512.800000 0 0 1
-23.081389 -32.767143 -5.645065 40.475955 0.957119 1.710720 0.051895 -0.016509 69326.800000 0 0 1
-23.513889 -32.713443 -7.114565 40.910749 0.947575 1.745590 0.050101 -0.021887 -322189.000000 0 0 1
-22.494089 -32.215443 -7.934865 40.084672 0.961253 1.770065 0.058165 -0.018878 -136283.000000 0 0 1
-22.733889 -32.369543 -9.323565 40.639216 0.958513 1.802281 0.059002 -0.012015 252645.000000 0 0 1
-23.999989 -31.727743 -9.974565 41.013914 0.923189 1.816459 0.039388 -0.009836 198623.000000 0 0 1
-25.204729 -32.425443 -9.678865 42.194409 0.910043 1.802245 0.024233 -0.005477 1585860.000000 0 0 1
-26.428349 -32.007343 -10.369665 42.783847 0.880582 1.815608 -0.000753 0.001841 1585920.000000 0 0 1
-26.992719 -30.603743 -10.156765 42.051823 0.848011 1.814738 -0.003367 0.010737 -514862.000000 0 0 1
-26.164479 -29.525943 -10.628065 40.857277 0.845685 1.833950 0.007741 0.013280 142011.000000 0 0 1
-26.372429 -29.312343 -11.985665 41.211341 0.838145 1.865895 0.010096 0.011196 -110478.000000 0 0 1
-25.240399 -28.500243 -12.652465 40.117658 0.845983 1.891658 0.017341 0.008823 307545.000000 0 0 1
-24.011089 -29.213243 -12.800365 39.922366 0.882829 1.897192 0.026229 -0.002173 349827.000000 0 0 1
-23.102689 -28.483343 -13.613365 39.119800 0.889327 1.926224 0.032198 -0.002669 166167.000000 0 0 1
-21.896789 -29.334843 -14.075665 39.218959 0.929576 1.937885 0.044186 -0.012701 -188730.000000 0 0 1
-22.186689 -30.411343 -14.947365 40.503366 0.940510 1.948772 0.053245 -0.019535 -65924.700000 0 0 1
-22.784689 -31.502143 -14.251765 41.408210 0.944620 1.922159 0.041583 -0.020395 18603.700000 0 0 1
-22.781689 -32.877143 -14.981265 42.712413 0.964828 1.929165 0.045201 -0.011224 -90367.000000 0 0 1
-23.430189 -33.841843 -14.169965 43.531965 0.965227 1.902344 0.035006 -0.015305 179821.000000 0 0 1
-23.436089 33.852279 -14.765465 43.740668 -0.965254 1.915129 0.036302 -0.016104 -122422.000000 0 0 1
-24.060189 32.818479 -13.788765 42.965978 -0.938180 1.897500 0.036781 -0.018886 -66834.200000 0 0 1
-23.263689 32.402679 -12.659365 41.849640 -0.948121 1.878107 0.030143 -0.013073 443291.000000 0 0 1
-22.979189 33.339279 -11.655365 42.135474 -0.967320 1.851068 0.053550 -0.016438 94230.100000 0 0 1
-22.135489 32.719879 -10.524365 40.881935 -0.976007 1.831161 0.051539 -0.014676 -27518.100000 0 0 1
-22.901289 31.773179 -9.839365 40.383376 -0.946264 1.816923 0.041507 -0.017116 331235.000000 0 0 1
-22.197989 31.296679 -8.706465 39.345080 -0.953872 1.793928 0.036598 -0.014750 192748.000000 0 0 1
-22.992589 30.163379 -7.979165 38.757653 -0.919490 1.778152 0.032850 -0.012700 105418.000000 0 0 1
-22.959989 28.922379 -8.667165 37.931317 -0.899818 1.801329 0.032309 -0.006656 -52072.900000 0 0 1
-23.689789 27.881579 -8.052865 37.462477 -0.866501 1.787445 0.024761 -0.002219 -190042.000000 0 0 1
-22.903689 27.044879 -7.010065 36.126797 -0.868118 1.766076 0.022200 -0.003637 -110987.000000 0 0 1
-22.640089 27.589779 -5.698865 36.142034 -0.883622 1.729137 0.027811 0.000547 260412.000000 0 0 1
-21.910389 26.650779 -4.871365 34.843355 -0.882707 1.711063 0.015765 0.005931 178679.000000 0 0 1
-20.461489 27.156179 -4.642365 34.317374 -0.925075 1.706490 0.008350 -0.009511 -373901.000000 0 0 1
-19.835189 27.298579 -5.871865 34.250926 -0.942439 1.743084 0.003784 -0.003271 -207093.000000 0 0 1
-18.675689 28.102579 -5.646165 34.211336 -0.984258 1.736593 0.030133 -0.002904 748870.000000 0 0 1
-17.715989 28.157379 -6.908965 33.976875 -1.009199 1.775568 0.036795 -0.009084 227746.000000 0 0 1
-18.248689 28.871079 -8.001865 35.079676 -1.007125 1.800928 0.054946 -0.006008 -55228.500000 0 0 1
-17.854889 30.203279 -8.035265 35.994452 -1.036904 1.795930 0.053567 -0.009926 -185863.000000 0 0 1
-17.811989 30.880179 -9.512065 36.896230 -1.047603 1.831547 0.054849 -0.016468 186305.000000 0 0 1
-16.635889 30.649679 -10.293265 36.360788 -1.073517 1.857808 0.057158 -0.011569 488858.000000 0 0 1
-16.562489 31.494279 -11.411565 37.368830 -1.086653 1.881130 0.069386 -0.017294 1243400.000000 0 0 1
-15.116189 31.431379 -12.087965 36.912730 -1.122523 1.904425 0.072279 -0.019121 1457840.000000 0 0 1
-14.886989 32.384479 -13.133265 37.984991 -1.139909 1.923833 0.072258 -0.021291 -7993.230000 0 0 1
-15.132189 31.814079 -14.439465 38.073835 -1.126822 1.959781 0.073229 -0.021210 116638.000000 0 0 1
-14.661289 32.762179 -15.590365 39.132764 -1.150018 1.980565 0.084870 -0.025819 368580.000000 0 0 1
-13.248989 32.890579 -15.682465 38.771969 -1.187861 1.987206 0.078828 -0.017708 188869.000000 0 0 1
-12.952789 33.128179 -17.051365 39.446166 -1.198081 2.017804 0.064763 -0.028982 1358340.000000 0 0 1
-11.396789 32.943479 -17.383165 38.952972 -1.237734 2.033378 0.076258 -0.026211 1483320.000000 0 0 1
-10.963489 31.548179 -17.260265 37.595245 -1.236336 2.047787 0.082014 -0.037491 1027160.000000 0 0 1
-9.619289 31.302879 -17.728565 37.238461 -1.272658 2.066990 0.067080 -0.031808 979714.000000 0 0 1
-9.377789 31.431879 -19.272265 38.043740 -1.280851 2.102012 0.054433 -0.032349 -415000.000000 0 0 1
-10.078989 30.412579 -19.988265 37.762968 -1.250779 2.128582 0.064556 -0.037083 159380.000000 0 0 1
-9.712489 30.356979 -21.326465 38.349664 -1.261146 2.160489 0.047868 -0.033797 -1219190.000000 0 0 1
-10.848289 29.782679 -22.171265 38.681499 -1.221485 2.181172 0.054238 -0.033509 14859.300000 0 0 1
-11.896089 30.686379 -22.430565 39.828395 -1.200967 2.169026 0.065308 -0.031707 71439.600000 0 0 1
-12.861489 30.860679 -21.403265 39.697596 -1.175926 2.140233 0.071324 -0.028447 -684355.000000 0 0 1
-13.618589 32.192379 -21.683965 41.134044 -1.170589 2.126044 0.073051 -0.026571 115392.000000 0 0 1
-14.219189 32.129279 -22.982965 41.984433 -1.154145 2.150070 0.054459 -0.020996 -63812.300000 0 0 1
-14.738889 33.395379 -23.325465 43.319320 -1.155163 2.139398 0.049458 -0.019407 -66113.500000 0 0 1
-15.359289 33.397579 -24.729365 44.304035 -1.139746 2.162980 0.051891 -0.015769 -189346.000000 0 0 1
-14.492589 33.395779 -25.832665 44.638994 -1.161357 2.187932 0.040703 -0.016778 9224.320000 0 0 1
-15.193489 33.300579 -27.093265 45.539166 -1.142755 2.207993 0.037833 0.003642 426849.000000 0 0 1
-15.565289 -34.374443 -27.804065 46.871597 1.145603 2.205820 0.027938 0.011560 -336676.000000 0 0 1
-16.624989 -33.727443 -27.179265 46.396585 1.112827 2.196667 0.027620 0.016064 -570758.000000 0 0 1
-16.985689 -32.561343 -27.911165 46.127951 1.089978 2.220664 0.027390 0.022040 -545879.000000 0 0 1
-18.424489 -32.190543 -27.603565 46.234724 1.050950 2.210591 0.034289 0.009238 -6716.920000 0 0 1
-19.468989 -33.065443 -28.082965 47.550163 1.038652 2.202594 0.021586 0.009966 259741.000000 0 0 1
-20.721189 -32.627543 -27.575165 47.479617 1.004979 2.190482 0.019043 0.007167 123283.000000 0 0 1
-21.803889 -33.684843 -27.795765 48.812732 0.996328 2.176617 0.001363 0.009589 -355513.000000 0 0 1
-21.646089 34.119379 -27.054065 48.627231 -1.005450 2.160791 0.034087 0.001928 -108972.000000 0 0 1
-22.817089 33.310479 -27.151365 48.655978 -0.970221 2.162803 0.018235 0.001388 529981.000000 0 0 1
-22.630989 31.804579 -27.199865 47.576523 -0.952351 2.179382 0.028201 -0.000027 -125462.000000 0 0 1
-22.157589 31.199279 -26.007965 46.268434 -0.953260 2.167732 0.031194 -0.010660 -173325.000000 0 0 1
-22.657089 29.890279 -25.927765 45.596288 -0.922189 2.175645 0.017752 -0.009935 -61473.600000 0 0 1
30.603572 10.108679 -26.924769 41.996514 0.319027 2.266752 -0.012858 0.001341 -23983.000000 0 0 1
30.210082 8.776279 -26.685189 41.252532 0.282726 2.274274 -0.019805 0.004196 -125140.000000 0 0 1
28.827172 8.587379 -26.521349 40.101507 0.289522 2.293421 -0.008210 0.000800 -143788.000000 0 0 1
28.469932 7.175379 -26.054749 39.253956 0.246892 2.296616 -0.011853 0.006684 -221114.000000 0 0 1
28.909222 6.874179 -24.730299 38.659865 0.233450 2.264890 -0.025576 0.008143 449601.000000 0 0 1
28.297712 5.645979 -24.245199 37.689087 0.196935 2.269590 -0.018305 0.009794 -387.483000 0 0 1
28.343492 5.406679 -22.716999 36.723940 0.188491 2.237741 -0.016701 0.008258 -255904.000000 0 0 1
29.581732 5.051579 -22.137599 37.291696 0.169135 2.206363 -0.017328 0.008304 1143.780000 0 0 1
29.625342 5.151079 -20.762899 36.541654 0.172153 2.175111 -0.012247 0.008738 -251153.000000 0 0 1
30.927772 4.815779 -20.002499 37.145912 0.154470 2.139434 -0.014954 0.010545 -332801.000000 0 0 1
31.248472 3.457379 -20.007999 37.265809 0.110193 2.137554 -0.008572 0.018713 130533.000000 0 0 1
32.320362 3.063079 -19.188499 37.711891 0.094490 2.104608 0.004348 0.014158 -210886.000000 0 0 1
32.751232 1.613279 -19.486799 38.144216 0.049219 2.106995 0.014998 0.006381 -29769.600000 0 0 1
31.833332 0.646279 -19.045399 37.101293 0.020299 2.109863 0.030224 0.000844 65611.900000 0 0 1
32.481882 -0.609721 -19.097199 37.684843 -0.018769 2.102219 0.047194 0.000137 249425.000000 0 0 1
31.623462 -1.828521 -18.623499 36.745361 -0.057757 2.102295 0.035807 -0.001813 245595.000000 0 0 1
31.352872 -1.888121 -17.181699 35.801932 -0.060149 2.071348 0.044458 -0.007669 -155896.000000 0 0 1
30.062322 -1.450421 -16.823699 34.480194 -0.048210 2.080506 0.032300 -0.009448 -222766.000000 0 0 1
29.700002 -2.015121 -15.445899 33.536944 -0.067745 2.049426 0.044666 -0.013046 -244049.000000 0 0 1
29.519782 -3.399021 -15.387499 33.462606 -0.114639 2.048613 0.044094 -0.026718 444484.000000 0 0 1
28.818292 -3.738221 -14.203699 32.345221 -0.128997 2.025424 0.048696 -0.016537 -112269.000000 0 0 1
28.548032 -5.234821 -14.010899 32.228850 -0.181354 2.020537 0.030390 -0.019132 123798.000000 0 0 1
27.466282 -5.828421 -14.718699 31.701849 -0.209101 2.053624 0.022447 -0.022439 656595.000000 0 0 1
27.342352 -7.177621 -14.339699 31.697783 -0.256717 2.040238 0.012858 -0.015855 -302412.000000 0 0 1
26.597172 -8.022421 -15.395399 31.761409 -0.292949 2.076840 0.005104 -0.010048 557150.000000 0 0 1
25.199162 -7.743221 -15.491199 30.576666 -0.298123 2.102073 0.010587 -0.009544 687496.000000 0 0 1
24.490962 -8.660421 -16.297599 30.666298 -0.339893 2.131108 -0.002679 0.000646 -256194.000000 0 0 1
23.204562 -8.157221 -16.936399 29.863583 -0.338042 2.173808 0.012940 -0.001222 -485235.000000 0 0 1
23.289662 -7.151221 -18.014399 30.299619 -0.297917 2.207492 0.004962 0.000319 -265035.000000 0 0 1
21.990362 -6.818421 -18.417499 29.483405 -0.300664 2.245510 0.004294 0.002364 -198418.000000 0 0 1
21.766862 -7.141421 -19.881599 30.332724 -0.317021 2.285575 0.001156 0.006783 -255014.000000 0 0 1
22.403962 -6.172021 -20.698299 31.119944 -0.268820 2.298442 -0.004984 0.002118 453195.000000 0 0 1
22.485862 -6.521621 -22.061399 32.169098 -0.282287 2.326491 0.006861 0.000085 -201518.000000 0 0 1
22.736762 -5.363721 -23.075799 32.836296 -0.231670 2.350056 0.006777 0.000708 -157962.000000 0 0 1
23.001262 -5.966221 -24.382499 34.046440 -0.253793 2.369073 0.007462 -0.001361 442809.000000 0 0 1
23.024762 -4.950121 -25.327569 34.585100 -0.211768 2.392528 0.009996 -0.021575 -326542.000000 0 0 1
23.224162 -5.573421 -26.737129 35.851064 -0.235530 2.412506 0.015257 -0.022378 31819.800000 0 0 1
22.061462 -6.271221 -27.166669 35.553681 -0.276956 2.440446 0.019180 -0.017206 287748.000000 0 0 1
21.980462 -6.205121 -28.569539 36.576807 -0.275142 2.467195 0.015908 -0.017460 266708.000000 0 0 1
20.645362 -6.883221 -28.982259 36.243359 -0.321813 2.497520 0.010737 -0.021813 175742.000000 0 0 1
20.490462 -8.233421 -28.589669 36.125025 -0.382072 2.483907 0.006084 -0.012611 373300.000000 0 0 1
19.450062 -8.750921 -29.412299 36.331348 -0.422785 2.514194 0.011398 -0.008355 -37282.000000 0 0 1
19.347262 -10.289421 -29.168749 36.482937 -0.488785 2.497288 0.021194 0.007130 84134.200000 0 0 1
18.554962 -10.633721 -27.981499 35.218276 -0.520400 2.489007 0.025484 0.005797 828935.000000 0 0 1
18.677062 -11.984621 -27.571639 35.392924 -0.570501 2.463891 0.027362 0.004105 -280493.000000 0 0 1
18.481262 -13.135321 -28.538899 36.449451 -0.617896 2.470226 0.032899 0.005493 349852.000000 0 0 1
17.153062 -13.424121 -28.971399 36.246055 -0.664046 2.496922 0.039518 0.004345 682710.000000 0 0 1
17.311862 -14.327421 -30.039799 37.514865 -0.691349 2.499332 0.034582 0.000022 330937.000000 0 0 1
16.088762 -14.657121 -30.953299 37.838951 -0.738868 2.528769 0.022433 -0.008419 269644.000000 0 0 1
15.013462 -15.375921 -30.390489 37.221027 -0.797325 2.526097 0.012288 -0.004284 929178.000000 0 0 1
13.995462 -15.700321 -31.367709 37.766469 -0.842746 2.550927 0.004010 -0.010781 483592.000000 0 0 1
12.720762 -16.269521 -30.706089 37.005121 -0.907204 2.549509 0.003659 -0.011964 -150007.000000 0 0 1
12.913262 -17.605321 -30.323349 37.365829 -0.937948 2.517556 0.001995 -0.016888 165279.000000 0 0 1
11.950562 -17.945421 -29.354889 36.422021 -0.983297 2.508101 -0.001125 -0.012296 -125675.000000 0 0 1
12.148662 -19.385021 -28.868909 36.834535 -1.010973 2.471470 0.000016 -0.000050 -346886.000000 0 0 1
13.316162 -19.546421 -28.105119 36.732553 -0.972760 2.442037 0.011667 0.003438 -118951.000000 0 0 1
13.047862 -20.554621 -27.171109 36.482987 -1.005188 2.410973 0.014103 0.008990 462137.000000 0 0 1
13.921962 -20.540721 -25.854489 35.835692 -0.975144 2.376724 0.004944 0.009103 1188250.000000 0 0 1
15.281862 -20.995321 -26.023829 36.763820 -0.941610 2.357268 0.011182 0.012314 862367.000000 0 0 1
15.992762 -20.763421 -24.853499 36.119033 -0.914469 2.329663 0.010187 0.020710 163780.000000 0 0 1
17.514762 -21.132821 -24.846099 37.022853 -0.878743 2.306490 0.016502 0.022187 517745.000000 0 0 1
17.895562 -22.461721 -25.152319 38.176160 -0.898062 2.290084 0.027994 0.011794 259506.000000 0 0 1
17.433162 -23.428121 -24.264199 37.967662 -0.931074 2.264092 0.037051 0.004247 -1138960.000000 0 0 1
18.466562 -24.525121 -24.176299 39.076706 -0.925400 2.237868 0.016384 0.006530 -564318.000000 0 0 1
19.634062 -24.242521 -23.443099 39.022751 -0.890047 2.215241 0.020787 0.008752 39301.100000 0 0 1
20.386862 -25.429771 -23.335499 40.085445 -0.895024 2.192159 0.031910 0.003921 -91458.700000 0 0 1
20.551862 -25.836961 -21.836999 39.582599 -0.898839 2.155176 0.041703 0.007309 -545174.000000 0 0 1
19.352362 -26.348191 -21.326699 39.032924 -0.937299 2.148829 0.026906 0.006655 -36110.400000 0 0 1
19.401762 -26.482421 -19.914299 38.396957 -0.938506 2.116059 0.015142 0.002105 -209207.000000 0 0 1
18.156562 -27.175391 -19.353599 37.983212 -0.981785 2.105435 0.007517 0.001228 -828718.000000 0 0 1
18.100462 -28.546691 -19.733199 39.139998 -1.005705 2.099217 0.012037 0.005590 1061110.000000 0 0 1
16.954462 -29.338801 -19.285299 38.988996 -1.046796 2.088210 -0.003933 0.016163 2236350.000000 0 0 1
15.510162 -28.862451 -19.738099 38.251781 -1.077692 2.112976 0.010607 0.007486 679774.000000 0 0 1
14.840962 -27.852061 -19.003499 36.839170 -1.081216 2.112796 0.014903 0.005878 445173.000000 0 0 1
13.645762 -27.364861 -19.608399 36.325360 -1.108221 2.140995 0.021233 0.008623 503786.000000 0 0 1
12.700262 -26.488951 -18.749399 34.849694 -1.123719 2.138868 0.011450 -0.004645 -375695.000000 0 0 1
12.090762 -27.126701 -17.659299 34.552790 -1.151512 2.107239 0.020397 0.000226 -152568.000000 0 0 1
11.178662 -26.235201 -17.067899 33.234943 -1.167999 2.110117 0.025862 -0.011349 -286169.000000 0 0 1
9.700562 -26.348781 -17.419599 33.042421 -1.218036 2.126085 0.039709 -0.011713 -554231.000000 0 0 1
8.885362 -27.267421 -16.633499 33.153208 -1.255787 2.096378 0.046424 -0.012749 1422760.000000 0 0 1
7.469962 -27.216981 -16.920599 32.907006 -1.302933 2.110864 0.042361 -0.002048 1369080.000000 0 0 1
7.061962 -27.931901 -18.246699 34.102851 -1.323158 2.135362 0.045693 -0.000887 -529968.000000 0 0 1
7.397362 -27.335701 -19.479999 34.371964 -1.306514 2.173341 0.034202 -0.003835 -159810.000000 0 0 1
6.880562 -28.050681 -20.578499 35.463467 -1.330255 2.189860 0.018537 0.001587 -5972.110000 0 0 1
6.931062 -27.236461 -21.904599 35.632512 -1.321608 2.232848 0.022308 -0.011422 -362087.000000 0 0 1
5.825162 -26.345901 -21.942299 34.777917 -1.353194 2.253543 0.031495 -0.017617 245888.000000 0 0 1
5.827162 -25.595001 -23.112599 34.975022 -1.346944 2.292723 0.027155 -0.021391 -679952.000000 0 0 1
4.533962 -24.776121 -23.273199 34.293655 -1.389802 2.316712 0.022251 -0.019560 -741155.000000 0 0 1
3.460062 -25.632581 -23.377299 34.864012 -1.436620 2.305717 0.012039 -0.012014 -833426.000000 0 0 1
2.336262 -25.061851 -24.014399 34.788588 -1.477845 2.332693 0.015711 -0.022662 543569.000000 0 0 1
1.251262 -26.072101 -24.460399 35.771934 -1.522841 2.323737 -0.003773 -0.017855 10043.700000 0 0 1
1.764262 -26.842671 -25.489329 37.058704 -1.505165 2.329263 -0.016798 -0.002774 -235125.000000 0 0 1
0.898562 -27.867581 -25.820649 38.001519 -1.538564 2.317828 -0.015197 -0.009471 -364607.000000 0 0 1
1.485462 -28.822231 -26.911939 39.461121 -1.519303 2.321271 -0.026380 0.002769 -398620.000000 0 0 1
1.393662 -28.282291 -28.193689 39.958909 -1.521559 2.354019 -0.025184 0.003875 183957.000000 0 0 1
1.776162 -29.203271 -29.250839 41.371456 -1.510051 2.356085 -0.018654 0.000427 16652.400000 0 0 1
3.284062 -29.491611 -29.441809 41.801439 -1.459897 2.352269 -0.025434 0.011092 26269.800000 0 0 1
3.875862 -30.269671 -28.389969 41.680519 -1.443445 2.320105 -0.034003 0.004490 577687.000000 0 0 1
5.009862 -31.011151 -28.898779 42.684068 -1.410630 2.314528 -0.007891 0.001945 735065.000000 0 0 1
5.584962 -32.061321 -27.957869 42.904109 -1.398331 2.280536 0.017501 -0.010524 207533.000000 0 0 1
4.705162 -33.187151 -27.774049 43.530717 -1.429958 2.262738 0.011249 -0.013882 364684.000000 0 0 1
5.264362 -34.270795 -27.038349 43.969003 -1.418377 2.233108 0.032716 -0.013950 163417.000000 0 0 1
4.157762 33.707167 -26.729239 43.219351 1.448067 2.237572 0.026123 -0.013113 165168.000000 0 0 1
3.617562 33.131302 -27.899299 43.464248 1.462039 2.267758 0.019147 -0.014662 293101.000000 0 0 1
2.350162 32.567401 -27.577789 42.739833 1.498758 2.272144 0.004516 -0.014269 836998.000000 0 0 1
1.260062 32.684051 -28.719069 43.527231 1.532263 2.291343 0.015395 -0.013245 305964.000000 0 0 1
1.351862 31.740081 -29.774939 43.540869 1.528230 2.323807 0.035192 -0.024377 -197013.000000 0 0 1
0.365162 32.102831 -30.687909 44.412531 1.559422 2.333632 0.032521 -0.027180 -239524.000000 0 0 1
0.207062 31.086091 -31.869539 44.520281 1.564136 2.368627 0.044733 -0.030111 -180688.000000 0 0 1
1.239362 31.060871 -32.841759 45.220514 1.530916 2.383659 0.046156 -0.029207 275826.000000 0 0 1
0.989362 30.034741 -33.793339 45.222276 1.537868 2.414744 0.052298 -0.032193 364770.000000 0 0 1
2.274462 29.813971 34.196848 45.425438 1.494655 0.718471 0.054647 -0.024043 563509.000000 0 0 1
2.423662 30.762611 33.164862 45.300336 1.492173 0.749381 0.047968 -0.023868 42357.000000 0 0 1
3.508262 30.430101 32.313285 44.524682 1.456014 0.758689 0.024925 -0.018552 37924.600000 0 0 1
3.106662 29.412101 31.161565 42.962381 1.465561 0.759294 0.030591 -0.011523 -89963.600000 0 0 1
2.739762 28.081521 31.462975 42.261056 1.473540 0.731024 0.036169 -0.016264 -388362.000000 0 0 1
3.851162 27.250221 31.435315 41.780199 1.430400 0.719102 0.033021 -0.009906 -637426.000000 0 0 1
3.641262 25.825251 31.933855 41.230734 1.430723 0.684847 0.045839 -0.012258 -446920.000000 0 0 1
2.804062 25.134491 31.071315 40.062851 1.459693 0.683188 0.046144 0.000076 -188905.000000 0 0 1
2.950162 23.754301 31.328555 39.426496 1.447234 0.652437 0.036791 0.003358 -87460.200000 0 0 1
2.049562 22.745801 30.543075 38.137273 1.480932 0.642046 0.034076 0.014546 496714.000000 0 0 1
0.683562 22.758001 30.948735 38.421583 1.540769 0.634271 0.021350 0.006422 649015.000000 0 0 1
-0.074438 22.106801 29.881045 37.169786 -1.567429 0.636961 0.024838 0.007200 133828.000000 0 0 1
-1.465238 21.541501 30.195205 37.120528 -1.502882 0.620760 0.018591 0.011893 310564.000000 0 0 1
-2.431938 22.603401 30.331545 37.905549 -1.463617 0.643189 0.031306 0.003044 651402.000000 0 0 1
-3.771338 22.159001 30.417065 37.821186 -1.402217 0.636412 0.013194 0.002285 567322.000000 0 0 1
-4.834338 23.238301 30.774095 38.864307 -1.365689 0.656990 -0.003204 -0.010197 111636.000000 0 0 1
-4.850238 23.531401 32.162275 40.145530 -1.367525 0.641595 -0.002529 -0.009261 268302.000000 0 0 1
-4.332938 24.851481 32.410685 41.070950 -1.398178 0.661391 0.014947 -0.014432 -91170.200000 0 0 1
-4.621538 25.355301 33.833926 42.532158 -1.390504 0.650980 0.014659 -0.006341 726487.000000 0 0 1
-5.965538 25.817321 34.050433 43.145726 -1.343715 0.661298 0.003905 -0.005030 715472.000000 0 0 1
-6.179338 26.133741 -33.437169 42.885906 -1.338610 2.464947 0.011899 -0.008488 -222543.000000 0 0 1
-7.669838 26.412511 -33.208779 43.119255 -1.288182 2.449890 0.013966 -0.001588 -672117.000000 0 0 1
-8.047838 27.714931 -33.643309 44.325583 -1.288189 2.432579 0.013601 -0.002329 806535.000000 0 0 1
-9.386238 28.065731 -33.230819 44.498023 -1.248052 2.414023 0.009073 -0.001733 935177.000000 0 0 1
-9.585438 28.252211 -31.654919 43.498298 -1.243702 2.385799 0.009816 -0.004291 -320726.000000 0 0 1
-8.970838 29.468951 -31.194899 43.840811 -1.275293 2.362497 0.007436 -0.003157 322130.000000 0 0 1
-8.899938 29.664741 -29.815719 42.990497 -1.279324 2.337191 0.013891 -0.007846 -213055.000000 0 0 1
-8.542338 31.131041 -29.418589 43.675698 -1.302989 2.309823 0.018694 -0.014582 -897845.000000 0 0 1
-7.179238 31.354831 -29.506229 43.649564 -1.345709 2.313090 0.019380 -0.013290 -1102280.000000 0 0 1
-6.781238 32.611221 -29.019619 44.177089 -1.365776 2.287487 0.026038 -0.009560 356855.000000 0 0 1
-5.230438 32.706241 -28.935609 43.980964 -1.412217 2.288839 0.018280 -0.012509 76145.900000 0 0 1
-4.647138 33.887708 -28.359559 44.432390 -1.434513 2.263036 0.019057 -0.019569 -87569.100000 0 0 1
-4.564738 -33.949351 -29.227069 45.029067 1.437141 2.277159 0.029518 -0.011831 -53162.400000 0 0 1
-3.554338 -34.055669 -30.429589 45.808098 1.466804 2.297332 0.035018 -0.017964 -6947.290000 0 0 1
-3.796638 33.935556 -31.400869 46.390204 -1.459382 2.314320 0.043654 -0.021226 -122279.000000 0 0 1
-4.589138 34.344889 -32.496269 47.504096 -1.437964 2.324128 0.049999 -0.022196 30727.200000 0 0 1
-3.922138 -33.725071 -33.546899 47.730054 1.455019 2.350187 0.029089 -0.021681 -99423.400000 0 0 1
-3.775738 -32.370681 -33.263829 46.568224 1.454680 2.366424 0.020331 -0.021048 -96705.500000 0 0 1
-2.906238 -31.748781 -34.156632 46.723729 1.479512 2.390632 0.011676 -0.018758 -94633.100000 0 0 1
32.128962 19.765479 12.605935 39.772527 0.551515 1.248284 0.014551 0.008723 10135.900000 0 0 1
32.981302 18.648179 12.784335 39.986999 0.514602 1.245371 0.031887 -0.004819 -120593.000000 0 0 1
32.298522 17.430879 12.832135 38.880506 0.494886 1.234450 0.040722 0.002546 -376037.000000 0 0 1
33.116502 16.312779 13.553835 39.325766 0.457700 1.218925 0.060861 -0.009405 545393.000000 0 0 1
34.205352 15.829679 12.757135 39.791071 0.433434 1.244430 0.067759 -0.017423 532156.000000 0 0 1
34.920458 14.830779 13.504335 40.271050 0.401618 1.228834 0.067919 -0.014492 616269.000000 0 0 1
-34.797163 14.260379 12.738035 39.704641 -0.388938 1.244201 0.070861 -0.020778 1697140.000000 0 0 1
-33.823939 13.474879 13.448935 38.813722 -0.379112 1.216960 0.057371 -0.021149 670502.000000 0 0 1
-34.481316 12.267279 13.861235 39.135420 -0.341802 1.208752 0.050510 -0.024042 12153.900000 0 0 1
-33.724969 11.579179 15.004235 38.685630 -0.330731 1.172498 0.044126 -0.032943 17369.100000 0 0 1
-33.915919 12.323579 16.190735 39.551233 -0.348524 1.149043 0.053069 -0.027169 21780.500000 0 0 1
-33.012709 12.067179 17.228235 39.144193 -0.350444 1.115061 0.038343 -0.017959 -363603.000000 0 0 1
-33.233429 13.075279 18.342535 40.148129 -0.374836 1.096321 0.040673 -0.018444 485150.000000 0 0 1
-34.490811 12.915179 19.024435 41.452949 -0.358291 1.093994 0.036785 -0.017572 529918.000000 0 0 1
-34.472352 13.756179 20.143335 42.229485 -0.379687 1.073562 0.044695 -0.016988 -758586.000000 0 0 1
35.233757 13.749679 20.938035 43.230459 0.372066 1.065193 0.046201 -0.015850 -766388.000000 0 0 1
34.980026 12.529379 21.545935 42.951308 0.343949 1.045307 0.041855 -0.005397 65015.400000 0 0 1
33.961292 12.526579 22.524435 42.633727 0.353367 1.014171 0.041732 -0.008633 -3246.500000 0 0 1
33.801592 11.142979 23.210635 42.490554 0.318439 0.992911 0.030723 -0.005492 -581340.000000 0 0 1
34.897862 10.822079 24.008265 43.719274 0.300703 0.989454 0.026860 0.004330 -284034.000000 0 0 1
34.692212 11.043579 25.349885 44.363576 0.308188 0.962571 0.027556 0.008785 -68748.400000 0 0 1
-34.936890 11.254779 26.103015 45.040245 -0.311648 0.952622 0.035988 0.000062 823188.000000 0 0 1
-34.224397 12.476079 25.804285 44.641046 -0.349567 0.954472 0.038310 -0.005635 276802.000000 0 0 1
-33.341829 12.306079 24.715075 43.289168 -0.353578 0.963158 0.031061 -0.009473 -711548.000000 0 0 1
-32.552469 13.562179 24.357695 42.858992 -0.394756 0.966332 0.032163 -0.007188 348857.000000 0 0 1
-31.581319 14.098179 25.272915 42.835249 -0.419863 0.939734 0.032376 -0.007298 454012.000000 0 0 1
-32.106659 14.524979 26.548665 44.120791 -0.424846 0.925135 0.023456 -0.008624 -946029.000000 0 0 1
-31.053899 15.026079 27.522195 44.131609 -0.450661 0.897407 0.022394 0.001129 -519816.000000 0 0 1
-30.536169 16.278879 27.100275 43.953207 -0.489777 0.906416 0.024201 0.005503 -268960.000000 0 0 1
-30.071859 17.065079 28.176665 44.603341 -0.516162 0.887031 0.024885 0.002170 -262776.000000 0 0 1
-29.275629 18.304879 27.695015 44.262229 -0.558786 0.894764 0.013454 0.007893 -669988.000000 0 0 1
-29.973149 19.203279 26.958595 44.653347 -0.569797 0.922624 0.014577 -0.011968 -152908.000000 0 0 1
-29.373179 20.474979 27.018355 44.855322 -0.608753 0.924361 0.006800 -0.012846 -171165.000000 0 0 1
-30.279899 21.363579 26.185385 45.375645 -0.614432 0.955647 0.003273 -0.006737 -70254.500000 0 0 1
-31.500479 21.759679 26.781085 46.722482 -0.604506 0.960397 0.001912 -0.008892 440148.000000 0 0 1
-32.260419 22.563779 25.873895 47.109629 -0.610341 0.989357 0.006571 -0.006588 -223825.000000 0 0 1
-32.245049 24.081579 26.048245 47.939302 -0.641469 0.996363 -0.001193 -0.001775 -268577.000000 0 0 1
-33.158229 24.781879 25.219095 48.472801 -0.641824 1.023626 0.009082 -0.005081 91619.000000 0 0 1
-32.870079 26.147379 24.991605 48.874409 -0.671977 1.034049 0.011486 -0.010892 646611.000000 0 0 1
-33.973229 26.734679 24.013645 49.452790 -0.666723 1.063762 0.020939 -0.010744 874928.000000 0 0 1
-33.719579 26.435679 22.647435 48.464022 -0.664900 1.084557 0.016286 -0.009737 374149.000000 0 0 1
-34.734812 27.036379 21.842035 49.138045 -0.661409 1.110176 0.018299 -0.017080 502325.000000 0 0 1
-34.521839 26.657479 20.333635 48.123126 -0.657553 1.134557 0.028520 -0.026679 194187.000000 0 0 1
-34.479092 25.301279 19.912435 47.174861 -0.633062 1.135038 0.023300 -0.022180 -21377.800000 0 0 1
-33.963009 25.225779 18.620535 46.222832 -0.638840 1.156176 0.028579 -0.018221 -413468.000000 0 0 1
-34.238151 23.957879 17.781735 45.413886 -0.610553 1.168483 0.027961 -0.006878 -627703.000000 0 0 1
35.428703 23.795379 17.390335 46.085104 0.591439 1.183860 0.017538 -0.012851 -1001920.000000 0 0 1
35.430872 23.232079 16.088835 45.320269 0.580373 1.207879 0.014023 -0.000566 210187.000000 0 0 1
34.031792 23.054579 15.451435 43.913817 0.595426 1.211241 0.012043 0.005937 395999.000000 0 0 1
33.153842 22.107379 16.063035 42.964340 0.588103 1.187619 0.019472 -0.004860 21583.700000 0 0 1
31.985612 22.001679 15.279235 41.720597 0.602533 1.195845 0.018759 0.003555 -284018.000000 0 0 1
30.940772 21.012179 15.913735 40.645910 0.596568 1.168512 0.003514 0.000277 663377.000000 0 0 1
30.186552 21.506879 17.020435 40.785646 0.619043 1.140308 0.005156 0.000998 644587.000000 0 0 1
29.198372 22.517979 16.706435 40.480974 0.656936 1.145382 0.018404 0.004835 -26837.600000 0 0 1
28.513722 23.027179 17.974835 40.821293 0.679347 1.114830 0.027907 0.009434 179273.000000 0 0 1
29.317162 23.890579 18.827735 42.246175 0.683761 1.108877 0.001967 0.008766 113581.000000 0 0 1
28.592112 24.477779 19.874735 42.563783 0.708026 1.084969 0.003214 0.013238 373092.000000 0 0 1
29.574552 25.216179 20.864935 44.111850 0.706019 1.078103 0.000675 0.010558 578750.000000 0 0 1
30.286542 26.306279 20.372535 44.992612 0.715182 1.100896 0.021148 -0.002367 -329642.000000 0 0 1
31.201612 26.755079 21.325635 46.305049 0.708827 1.092185 0.030781 -0.006542 -459421.000000 0 0 1
32.082362 27.903879 20.816135 47.341481 0.715853 1.115530 0.041070 -0.012454 -394699.000000 0 0 1
33.072862 28.321779 21.707635 48.653456 0.708166 1.108317 0.040186 -0.008795 -303338.000000 0 0 1
32.655732 29.211279 22.635535 49.315951 0.729780 1.093938 0.027227 -0.007133 -92150.600000 0 0 1
33.633782 29.480979 23.861895 50.692696 0.719695 1.080693 0.023016 -0.010714 995596.000000 0 0 1
34.885762 30.070979 23.511635 51.711480 0.711411 1.098795 0.031923 -0.010706 96297.800000 0 0 1
-35.465979 30.477979 24.685535 52.878337 -0.709902 1.085086 0.035013 -0.005403 -125218.000000 0 0 1
-34.150442 31.246779 24.465715 52.356328 -0.741027 1.084571 0.059437 -0.016267 -445567.000000 0 0 1
-33.026839 30.465879 24.228935 51.048831 -0.745085 1.076261 0.053694 -0.018163 -641054.000000 0 0 1
-31.930519 31.314279 24.015595 50.763086 -0.775655 1.078000 0.065709 -0.017227 354355.000000 0 0 1
-30.541719 30.659379 23.740835 49.360119 -0.787321 1.069033 0.056884 -0.015226 368385.000000 0 0 1
-30.158509 30.199279 22.407935 48.204228 -0.786074 1.087326 0.029299 -0.008286 229520.000000 0 0 1
-30.864909 29.043079 21.931435 47.719292 -0.754997 1.093260 0.035853 -0.005953 -98522.500000 0 0 1
-30.398999 27.721779 22.603735 46.941719 -0.739368 1.068399 0.025160 -0.003589 759353.000000 0 0 1
-28.989859 27.419279 22.396335 45.758328 -0.757563 1.059339 -0.014751 0.001370 1310920.000000 0 0 1
-28.569089 26.427979 23.319235 45.369787 -0.746486 1.030976 -0.005981 0.005228 38255.600000 0 0 1
-28.429479 26.901579 24.812565 46.342136 -0.757791 1.005790 0.013311 0.006346 -223188.000000 0 0 1
-29.674099 27.133379 25.461205 47.592492 -0.740703 1.006308 0.018025 -0.000745 -23062.800000 0 0 1
-29.501799 27.765879 26.740255 48.542161 -0.755095 0.987394 0.028533 -0.009641 -287301.000000 0 0 1
-30.740259 28.017979 27.630835 49.934294 -0.739101 0.984423 0.038626 -0.019293 -99223.600000 0 0 1
-31.339289 26.835379 28.063375 49.898312 -0.708132 0.973497 0.019809 -0.013885 199881.000000 0 0 1
-32.405229 27.101279 28.984185 51.231447 -0.696501 0.969454 0.024163 -0.011008 718201.000000 0 0 1
-33.060129 25.783379 29.592825 51.317541 -0.662360 0.956161 0.010866 -0.005194 -756731.000000 0 0 1
-32.300769 25.212779 30.594685 51.137644 -0.662776 0.929442 0.007734 -0.013731 -652072.000000 0 0 1
-32.797499 24.043179 31.211255 51.262977 -0.632584 0.916191 -0.010939 -0.013401 -314627.000000 0 0 1
-31.977009 23.344679 32.330585 51.115260 -0.630608 0.886015 -0.003856 -0.016369 396106.000000 0 0 1
-30.785639 22.657279 31.880445 49.774196 -0.634461 0.875645 0.008715 -0.018023 340644.000000 0 0 1
-30.286459 21.640579 32.740155 49.573198 -0.620411 0.849391 0.011267 -0.022472 368977.000000 0 0 1
-29.329149 22.164979 33.853711 49.975584 -0.647160 0.826567 0.020222 -0.026755 81265.200000 0 0 1
-30.063139 23.034079 -34.116974 50.973807 -0.653782 2.304068 0.038115 -0.029716 394408.000000 0 0 1
-29.928009 22.533479 -32.768879 49.771908 -0.645369 2.289462 0.024739 -0.016344 39226.900000 0 0 1
-28.572549 22.871279 -32.099169 48.681029 -0.675023 2.290787 0.045129 -0.023910 9573.630000 0 0 1
-28.452259 24.263279 -31.858669 49.124460 -0.706101 2.276448 0.037014 -0.019732 -161533.000000 0 0 1
-27.405769 24.603979 -30.999809 48.139590 -0.731580 2.270455 0.066826 -0.015629 -356224.000000 0 0 1
-27.785229 25.858479 -30.159229 48.479470 -0.749496 2.242222 0.041953 -0.008494 -137773.000000 0 0 1
-27.853789 27.121579 -30.846689 49.627934 -0.772080 2.241528 0.044134 -0.014503 -272629.000000 0 0 1
-29.010779 27.441779 -31.601589 50.924817 -0.757612 2.240245 0.011024 -0.004995 -487838.000000 0 0 1
-29.033939 28.819979 -32.302299 52.124844 -0.781700 2.239170 0.024497 -0.002557 -83134.300000 0 0 1
-29.294259 29.970379 -31.535819 52.448881 -0.796806 2.215883 0.011930 -0.012287 458837.000000 0 0 1
-28.232589 30.915479 -31.767789 52.555098 -0.830726 2.219892 0.030230 -0.021081 458575.000000 0 0 1
-28.322209 32.281979 -31.064489 53.002605 -0.850644 2.197025 0.024275 -0.013662 80888.000000 0 0 1
-27.841499 32.328079 -29.719669 51.995312 -0.859826 2.179231 0.018438 -0.011118 128361.000000 0 0 1
-28.112129 33.659479 -29.359269 52.775174 -0.874962 2.160733 0.015315 -0.016164 -207656.000000 0 0 1
-27.442129 34.137179 -28.038689 52.005630 -0.893695 2.140221 0.002519 -0.014224 -510650.000000 0 0 1
-26.087909 34.457379 -28.148439 51.577365 -0.922762 2.148082 0.013799 -0.014659 -485155.000000 0 0 1
-25.841449 -33.166043 -28.280359 50.670954 0.908896 2.162912 0.017280 0.005505 -662109.000000 0 0 1
-25.995319 -32.192143 -27.119759 49.472942 0.891496 2.150975 0.013850 0.009137 381506.000000 0 0 1
-27.378949 -31.976343 -26.830119 49.919422 0.862699 2.138229 0.009253 -0.007880 417022.000000 0 0 1
-27.662129 -30.932243 -25.918449 48.926098 0.841150 2.129098 0.003278 -0.004819 -477443.000000 0 0 1
-29.138629 -30.695543 -25.642069 49.485268 0.811413 2.115513 -0.008116 -0.007741 -368749.000000 0 0 1
-29.871659 -30.090243 -26.674439 50.092559 0.789044 2.132351 0.003552 -0.003331 505495.000000 0 0 1
-31.237949 -29.834843 -26.371169 50.609939 0.762428 2.118897 -0.001639 -0.002649 557958.000000 0 0 1
-32.030749 -29.030343 -27.451099 51.208325 0.736300 2.136568 0.008287 -0.004615 372182.000000 0 0 1
-33.428129 -29.220643 -27.592689 52.274681 0.718339 2.126852 0.002025 0.004203 242972.000000 0 0 1
-33.904369 -28.246743 -28.510049 52.537678 0.694618 2.144396 0.010927 -0.007504 11554.900000 0 0 1
-35.423552 -28.356043 -28.743829 53.713136 0.675037 2.135465 0.013809 -0.009161 243866.000000 0 0 1
34.783852 -28.128743 -27.557619 52.541078 -0.680007 2.122920 -0.001433 0.004770 1340100.000000 0 0 1
33.384742 -27.953543 -27.948249 51.740180 -0.697083 2.141430 0.001730 0.007593 1498720.000000 0 0 1
32.641652 -27.383043 -26.683719 50.272551 -0.698014 2.130318 0.008781 0.011565 -157400.000000 0 0 1
32.430932 -28.266343 -25.578439 50.050055 -0.716893 2.107211 0.011589 0.020853 371906.000000 0 0 1
31.704822 -27.593043 -24.548999 48.674687 -0.716168 2.099423 0.010502 0.019238 91944.300000 0 0 1
31.576502 -28.551943 -23.323999 48.541713 -0.735139 2.072014 0.006789 0.022382 37519.000000 0 0 1
30.751512 -29.705343 -23.487599 48.782479 -0.768096 2.073134 0.017590 0.022127 218008.000000 0 0 1
30.306342 -30.283043 -22.227099 48.265733 -0.785014 2.049372 0.020642 0.011649 373374.000000 0 0 1
31.338962 -30.565143 -21.031799 48.566399 -0.772899 2.018673 0.014546 0.014748 -124870.000000 0 0 1
32.427632 -31.412743 -21.383699 49.955724 -0.769502 2.013134 0.007235 0.013006 815910.000000 0 0 1
33.477222 -31.416443 -20.403699 50.239708 -0.753653 1.989008 -0.007601 0.011323 1115800.000000 0 0 1
34.448782 -30.158343 -20.461899 50.149113 -0.719087 1.991082 -0.008505 0.004695 -299239.000000 0 0 1
33.782022 -28.963643 -20.122499 48.836796 -0.708756 1.995483 -0.007267 0.011354 -92336.600000 0 0 1
34.386892 -27.828643 -20.695799 48.838589 -0.680374 2.008388 -0.010929 0.004009 -294082.000000 0 0 1
33.642112 -26.532143 -20.335599 47.426605 -0.667787 2.013939 -0.014129 0.009775 -257603.000000 0 0 1
32.402612 -26.478043 -20.975499 46.807986 -0.685116 2.035455 -0.002628 0.014151 -830131.000000 0 0 1
31.459232 -25.802543 -20.210099 45.430195 -0.686931 2.031815 0.013721 0.024913 -302420.000000 0 0 1
30.211262 -25.397143 -21.058699 44.734819 -0.699042 2.060932 0.015938 0.023535 242778.000000 0 0 1
29.456162 -26.566843 -21.354599 45.049767 -0.733870 2.064650 0.030732 0.021368 -561568.000000 0 0 1
28.426112 -26.314443 -22.234099 44.663732 -0.746841 2.091869 0.026811 0.014225 -600563.000000 0 0 1
27.763532 -27.559543 -22.818699 45.288356 -0.781711 2.098851 0.033575 0.018268 -147439.000000 0 0 1
27.050902 -28.259943 -21.814099 44.790966 -0.807254 2.079471 0.029240 0.018970 23222.200000 0 0 1
26.609472 -29.518143 -22.276899 45.559247 -0.837174 2.081700 0.029592 0.017470 -134944.000000 0 0 1
25.877962 -30.368943 -21.220199 45.191133 -0.865073 2.059595 0.038598 0.017874 760431.000000 0 0 1
26.764812 -30.917743 -20.165099 45.594882 -0.857270 2.028921 0.043842 0.008717 513013.000000 0 0 1
27.491222 -32.003043 -20.571399 46.937666 -0.861090 2.024470 0.049816 0.009073 -611536.000000 0 0 1
28.363872 -32.678043 -19.517699 47.468983 -0.855956 1.994531 0.033758 -0.000386 -54014.800000 0 0 1
27.669852 -33.118243 -18.345699 46.893533 -0.874789 1.972753 0.033754 0.003704 7849.990000 0 0 1
27.543142 -32.172743 -17.314999 45.754992 -0.862771 1.958894 0.021138 0.002331 -60239.800000 0 0 1
26.860622 -32.735643 -16.030899 45.278086 -0.883661 1.932699 0.023753 0.009027 849153.000000 0 0 1
25.483662 -33.047643 -16.298699 44.801912 -0.913916 1.943135 0.031273 0.012707 1067720.000000 0 0 1
24.809862 -33.871043 -15.299399 44.686110 -0.938603 1.920240 0.024687 0.012316 -158816.000000 0 0 1
23.304762 -34.072443 -15.420999 44.066433 -0.970905 1.928313 0.021876 0.020346 -542311.000000 0 0 1
22.594362 -32.918943 -15.045599 42.667693 -0.969281 1.931169 0.031630 0.020084 20584.700000 0 0 1
21.423562 -33.278443 -14.333899 42.093758 -0.998815 1.918270 0.013203 0.014443 -131286.000000 0 0 1
-0.459389 -7.361621 -28.927409 29.852965 1.508474 2.891931 0.021640 -0.005336 97076.800000 0 0 1
-0.094489 -8.699421 -28.863579 30.146228 1.559935 2.848838 0.022265 -0.002892 -135915.000000 0 0 1
-0.449689 -9.312421 -30.092679 31.503853 1.522545 2.841152 0.017543 -0.002889 -116610.000000 0 0 1
-0.221289 -10.793721 -30.000889 31.884271 1.550298 2.796165 0.026965 -0.003764 1165960.000000 0 0 1
1.135011 -11.186721 -29.664249 31.723787 -1.469682 2.779278 0.009487 -0.005795 906440.000000 0 0 1
1.426911 -12.540421 -29.534469 32.118267 -1.457499 2.737739 0.014305 -0.003498 -692061.000000 0 0 1
2.817211 -12.675121 -28.938469 31.717982 -1.352088 2.719828 0.010306 0.000226 -1773600.000000 0 0 1
3.774711 -12.524721 -29.966059 32.696816 -1.278073 2.729994 0.012605 0.002039 820938.000000 0 0 1
5.156011 -12.726321 -29.586219 32.617297 -1.185862 2.707071 0.030480 -0.001994 1355550.000000 0 0 1
5.438311 -14.173221 -29.054299 32.781210 -1.204417 2.660111 0.031723 -0.005947 -2076280.000000 0 0 1
4.966111 -14.435921 -27.777439 31.696123 -1.239467 2.639063 0.024544 -0.005596 -130851.000000 0 0 1
5.761511 -15.391321 -27.084059 31.680184 -1.212609 2.596195 0.029656 -0.004535 94603.700000 0 0 1
5.381311 -16.901921 -27.321469 32.574470 -1.262559 2.565759 0.026295 -0.011346 -237569.000000 0 0 1
5.815311 -17.313221 -28.603589 33.937159 -1.246748 2.573335 0.034232 -0.017189 228930.000000 0 0 1
5.209711 -18.529421 -28.947129 34.762290 -1.296713 2.554792 0.023256 -0.018241 -541487.000000 0 0 1
5.444011 -18.983321 -30.364539 36.221664 -1.291513 2.564950 0.016213 -0.019796 784187.000000 0 0 1
6.821011 -19.227521 -30.692539 36.854521 -1.229894 2.554948 0.008305 -0.022214 923158.000000 0 0 1
6.768411 -20.099621 -31.837789 38.255078 -1.245980 2.553950 0.005441 -0.023586 772397.000000 0 0 1
8.108911 -20.090221 -32.666499 39.197852 -1.187169 2.555982 0.003299 -0.018445 549615.000000 0 0 1
8.356011 -18.822321 -33.248969 39.110058 -1.152992 2.587045 0.007548 -0.022112 428873.000000 0 0 1
9.491911 -18.925221 -34.114779 40.150698 -1.105911 2.586152 0.001195 -0.024163 62.911500 0 0 1
9.951811 -17.583321 34.233629 39.751139 -1.055767 0.533173 0.006467 -0.019249 -140580.000000 0 0 1
9.032611 -17.207221 33.216238 38.483697 -1.087403 0.529371 0.013735 -0.013839 299682.000000 0 0 1
9.291111 -15.887221 32.847664 37.652325 -1.041616 0.510717 0.010354 -0.007027 -32917.900000 0 0 1
8.378311 -15.315121 31.744905 36.228276 -1.070212 0.502779 0.023051 -0.002251 -101308.000000 0 0 1
8.552011 -15.990621 30.501865 35.485217 -1.079687 0.536378 0.025484 0.001131 -85183.900000 0 0 1
7.490911 -15.708221 29.620215 34.354317 -1.125817 0.531204 0.025716 0.007050 -433275.000000 0 0 1
7.460611 -16.647921 28.356255 33.717817 -1.149490 0.571691 0.029240 0.016190 -277560.000000 0 0 1
6.967711 -17.937421 28.591515 34.464109 -1.200290 0.592401 0.031830 0.007438 172688.000000 0 0 1
7.148311 -18.777821 27.438655 34.008597 -1.207057 0.632055 0.023801 0.011921 96599.100000 0 0 1
6.823811 -20.304521 27.789635 35.087060 -1.246582 0.656686 0.027661 0.003001 -78709.100000 0 0 1
7.625011 -20.692121 28.875725 36.333348 -1.217738 0.652210 0.031769 0.004461 358610.000000 0 0 1
7.147111 -21.877621 29.437935 37.367145 -1.255040 0.663563 0.022130 0.003731 193903.000000 0 0 1
7.755011 -21.929021 30.909475 38.683560 -1.230881 0.645110 0.022563 -0.010515 232027.000000 0 0 1
7.079511 -21.123621 31.905965 38.914232 -1.247415 0.609552 0.038090 -0.018717 303538.000000 0 0 1
7.091711 -19.719521 31.737605 38.031927 -1.225569 0.583573 0.023623 -0.015097 -295802.000000 0 0 1
6.355311 -19.032921 32.886932 38.525217 -1.248526 0.547849 0.017498 -0.021035 43773.400000 0 0 1
4.960611 -19.252621 33.083534 38.597815 -1.318622 0.541115 0.024022 -0.022064 265353.000000 0 0 1
4.582711 -18.240621 33.990980 38.847242 -1.324654 0.505379 0.022059 -0.015075 -513878.000000 0 0 1
3.189611 -18.311921 -34.269817 38.986157 -1.398344 2.644610 0.025044 -0.013703 -605458.000000 0 0 1
2.989211 -19.425321 -33.422789 38.773204 -1.418112 2.610013 0.016528 -0.010165 460478.000000 0 0 1
1.892811 -19.182221 -32.526729 37.809105 -1.472439 2.606631 0.026209 -0.018060 375695.000000 0 0 1
1.408911 -20.439621 -31.778929 37.810891 -1.501975 2.568947 0.008911 -0.012115 -679429.000000 0 0 1
0.363311 -21.247221 -32.282429 38.648824 -1.553699 2.559431 0.003700 -0.005160 528461.000000 0 0 1
-0.375589 -22.024521 -31.311159 38.283277 1.553745 2.528515 0.007882 -0.000168 356526.000000 0 0 1
-1.042889 -21.275521 -30.147779 36.913737 1.521817 2.526481 0.016868 -0.003772 -1378780.000000 0 0 1
-2.166489 -20.604921 -30.625799 36.975614 1.466037 2.546810 0.031657 -0.017823 -705387.000000 0 0 1
-2.527389 -19.514121 -29.771709 35.686738 1.441997 2.557570 0.044926 -0.003524 -131161.000000 0 0 1
-1.908489 -18.154621 -30.011319 35.127082 1.466057 2.595122 0.034828 0.002991 188849.000000 0 0 1
-2.744289 -17.115921 -29.527669 34.239876 1.411814 2.610742 0.041579 -0.005614 -13721.700000 0 0 1
-2.106389 -15.877121 -29.778869 33.812733 1.438898 2.648134 0.049546 -0.007086 152624.000000 0 0 1
-2.977689 -14.669121 -29.429219 33.017097 1.370527 2.671073 0.043446 0.001505 182787.000000 0 0 1
-3.032289 -14.347621 -28.068579 31.668504 1.362517 2.660143 0.038410 -0.007617 -38416.400000 0 0 1
-4.051189 -13.375821 -27.890929 31.196613 1.276705 2.677074 0.032485 -0.009897 261959.000000 0 0 1
-4.198489 -12.901221 -26.381819 29.665960 1.256172 2.666600 0.028041 -0.009653 -228822.000000 0 0 1
-4.659189 -13.942121 -25.520659 29.451567 1.248283 2.619003 0.028591 -0.005655 239199.000000 0 0 1
-4.537589 -13.816821 -24.141899 28.183782 1.253483 2.599418 0.017123 -0.004455 -584323.000000 0 0 1
-5.412489 -12.795021 -23.459899 27.264894 1.170608 2.606936 0.023061 -0.014622 499510.000000 0 0 1
-6.837489 -12.979721 -23.601299 27.789310 1.085953 2.585443 0.025457 -0.013077 965323.000000 0 0 1
-7.513589 -11.930221 -22.925699 26.914158 1.008757 2.590224 0.012049 -0.010359 556791.000000 0 0 1
-9.053189 -11.979321 -23.177599 27.616399 0.923635 2.566734 0.034106 -0.014609 389112.000000 0 0 1
-9.737189 -13.043621 -22.583799 27.838407 0.929533 2.517076 0.032998 -0.007850 -191407.000000 0 0 1
-10.505389 -13.791621 -23.498399 29.201828 0.919835 2.505948 0.029872 -0.007342 -19984.600000 0 0 1
-11.331289 -14.922921 -22.836999 29.540146 0.921356 2.454484 0.029697 -0.012096 -513272.000000 0 0 1
-10.678289 -16.105121 -22.614999 29.746243 0.985311 2.434516 0.038955 -0.010787 -509034.000000 0 0 1
-11.448289 -17.171521 -22.063799 30.211516 0.982769 2.389573 0.025408 -0.001929 -143713.000000 0 0 1
-12.127089 -18.074321 -23.078599 31.723321 0.979830 2.385462 0.014281 0.007917 201439.000000 0 0 1
-13.183589 -17.390021 -23.755699 32.257605 0.922124 2.398585 0.018473 0.011919 -35532.600000 0 0 1
-13.584789 -18.198321 -24.857399 33.669210 0.929548 2.401317 0.014245 0.007277 575561.000000 0 0 1
-14.877089 -17.589621 -25.515829 34.377028 0.868753 2.407195 0.022946 0.006592 832904.000000 0 0 1
-16.039689 -17.637921 -24.677099 34.312201 0.832819 2.373437 0.019122 0.013327 -226667.000000 0 0 1
-17.135189 -17.197721 -25.417239 35.148433 0.787220 2.379134 0.003373 0.012759 -422050.000000 0 0 1
-17.837989 -15.968521 -24.899699 34.542474 0.730155 2.375814 0.017839 0.005947 -247764.000000 0 0 1
-18.474989 -16.116821 -23.636499 34.055267 0.717332 2.337914 0.008224 0.011246 562775.000000 0 0 1
-19.250889 -14.994821 -23.198499 33.669151 0.661752 2.330923 0.014995 0.005768 353303.000000 0 0 1
-19.860389 -15.077421 -21.785999 33.111832 0.649344 2.288892 0.005313 0.003668 309751.000000 0 0 1
-18.964989 -14.499221 -20.835499 31.686215 0.652733 2.288368 0.018550 0.008454 507512.000000 0 0 1
-19.505289 -14.483721 -19.527599 31.169883 0.638718 2.247837 0.019553 0.001844 -216342.000000 0 0 1
-20.343489 -13.264521 -19.131099 30.916080 0.577799 2.238020 0.017472 -0.003589 -1194060.000000 0 0 1
-21.593489 -13.144621 -19.692099 32.044322 0.546814 2.232582 0.022802 -0.007316 -1097430.000000 0 0 1
-22.289389 -12.374321 -18.751799 31.647601 0.506801 2.204978 0.030835 -0.005482 -374020.000000 0 0 1
-23.654689 -11.883221 -19.267099 32.741050 0.465536 2.199961 0.051428 -0.003080 -297955.000000 0 0 1
-23.682889 -10.854921 -20.174799 32.950433 0.429771 2.229734 0.033032 -0.003556 -1017600.000000 0 0 1
-24.969489 -10.756321 -20.656899 34.145004 0.406755 2.220532 0.025622 -0.005765 -866415.000000 0 0 1
-25.171739 -9.758621 -21.842799 34.726863 0.369842 2.251048 0.027844 -0.000080 -193944.000000 0 0 1
-25.097519 -10.357821 -23.113599 35.656814 0.391409 2.276046 0.008336 0.001960 289836.000000 0 0 1
-25.777289 -9.546621 -24.046499 36.521784 0.354688 2.289508 -0.001866 0.006123 -522233.000000 0 0 1
-25.955459 -9.916121 -25.520739 37.726959 0.364932 2.313740 -0.002344 0.010711 243212.000000 0 0 1
-24.833989 -9.586921 -26.323679 37.437577 0.368415 2.350594 -0.012856 0.000787 121776.000000 0 0 1
-23.792089 -10.551321 -26.267749 36.978217 0.417419 2.360802 -0.010355 0.014693 -533242.000000 0 0 1
-22.876889 -10.482921 -27.474659 37.257222 0.429678 2.400056 0.004444 0.007513 -551483.000000 0 0 1
-23.491889 -10.738621 -28.744599 38.645036 0.428759 2.409550 0.008170 0.012106 261902.000000 0 0 1
-22.572989 -10.880121 -29.810399 38.943251 0.449142 2.442588 0.007533 0.010764 408600.000000 0 0 1
-23.419189 -11.294521 -31.046899 40.496106 0.449368 2.444425 0.000734 0.009114 603988.000000 0 0 1
-24.239689 -10.278821 -31.622749 41.148693 0.401065 2.447289 -0.003162 0.011768 61179.900000 0 0 1
-23.573389 -9.306121 -32.379039 41.118253 0.375992 2.477476 -0.005507 0.011478 -602914.000000 0 0 1
-24.528289 -8.190121 -32.948559 41.884634 0.322265 2.476161 0.004800 0.008832 83814.800000 0 0 1
-25.450439 -8.498521 -34.018379 43.326664 0.322282 2.473751 0.015158 0.009431 1032880.000000 0 0 1
-26.532389 -9.332821 -33.673839 43.874784 0.338235 2.445726 0.016729 0.005618 -623129.000000 0 0 1
-27.688919 -8.642621 -32.923749 43.878746 0.302550 2.419365 0.001018 0.015506 -1175180.000000 0 0 1
-28.897249 -9.353721 -32.931539 44.799881 0.313046 2.396582 0.006836 0.013758 -67407.100000 0 0 1
-29.659879 -8.822021 -31.833499 44.394911 0.289106 2.370361 0.010589 0.019106 -433170.000000 0 0 1
-31.081199 -9.362621 -31.738839 45.398827 0.292586 2.344950 0.013961 0.017568 -566928.000000 0 0 1
-31.214809 -10.769321 -31.925289 45.930019 0.332220 2.339335 0.016389 0.011500 -907780.000000 0 0 1
-32.477119 -11.209321 -31.607539 46.684566 0.332343 2.314536 0.016268 0.004288 -1085900.000000 0 0 1
-32.740249 -12.709221 -31.608669 47.249933 0.370278 2.303615 0.026789 -0.006909 -841079.000000 0 0 1
-34.053659 -13.103921 -31.414189 48.147853 0.367337 2.281613 0.010155 -0.012520 -723414.000000 0 0 1
-34.274006 -14.519221 -31.612099 48.834824 0.400703 2.274869 0.007541 -0.007509 237572.000000 0 0 1
35.333289 -14.905021 -31.032669 49.331810 -0.399192 2.251140 0.021492 -0.018153 89607.200000 0 0 1
35.354523 -14.888021 -29.627029 48.470159 -0.398568 2.228426 0.017832 -0.015580 90554.600000 0 0 1
34.820102 -16.066221 -29.000979 48.079307 -0.432299 2.218292 0.019536 -0.015670 66273.000000 0 0 1
34.976678 -16.103721 -27.477369 47.304372 -0.431480 2.190585 0.025536 -0.018357 943136.000000 0 0 1
-34.616182 -16.206921 -27.107319 46.858842 0.437877 2.187671 0.024791 -0.021181 1070020.000000 0 0 1
-34.444846 -15.697821 -25.772239 45.793857 0.427615 2.168551 0.038628 -0.022482 653074.000000 0 0 1
-32.946839 -15.449221 -25.405989 44.380592 0.438471 2.180296 0.052293 -0.020140 1128690.000000 0 0 1
-32.004399 -16.553321 -25.368759 44.066631 0.477329 2.184245 0.051298 -0.018646 1076170.000000 0 0 1
-30.705929 -16.122821 -24.985399 42.744235 0.483503 2.195100 0.068038 -0.010738 651377.000000 0 0 1
-29.453409 -16.978921 -25.257879 42.352657 0.522936 2.209768 0.045395 -0.013560 202711.000000 0 0 1
-29.348089 -18.178821 -24.524899 42.346789 0.554577 2.188475 0.041821 -0.021376 -332481.000000 0 0 1
-30.333489 -19.132821 -24.795799 43.600654 0.562723 2.175724 0.042183 -0.023242 -313175.000000 0 0 1
-30.184579 -20.373421 -23.880399 43.548347 0.593723 2.151204 0.036999 -0.024727 38955.400000 0 0 1
-28.991099 -21.072521 -24.186699 43.238078 0.628527 2.164439 0.034625 -0.019758 105223.000000 0 0 1
-28.890529 -22.261221 -23.402699 43.334870 0.656516 2.141285 0.033566 -0.025833 -510156.000000 0 0 1
-27.592319 -23.096221 -23.696599 43.084804 0.696929 2.153159 0.031120 -0.022211 1150820.000000 0 0 1
-26.342309 -22.556221 -23.255399 41.755406 0.708125 2.161497 0.035313 -0.022832 510361.000000 0 0 1
-26.273129 -22.365821 -21.833199 40.831310 0.705237 2.134969 0.044654 -0.030368 -944667.000000 0 0 1
-26.070319 -23.624021 -20.913399 40.928305 0.736211 2.107117 0.042292 -0.025786 -232989.000000 0 0 1
-26.174279 -23.253421 -19.543999 40.097162 0.726373 2.079924 0.049520 -0.029889 125018.000000 0 0 1
-26.283299 -24.350521 -18.665799 40.400145 0.747245 2.051071 0.049171 -0.007230 42798.500000 0 0 1
-26.173429 -23.838521 -17.182199 39.351638 0.738745 2.022648 0.036643 -0.002913 858420.000000 0 0 1
-27.418109 -23.371921 -16.638199 39.684116 0.705901 2.003433 0.037460 -0.001305 595927.000000 0 0 1
-27.157829 -22.107521 -16.045999 38.519661 0.683243 2.000462 0.037177 0.000264 -37321.000000 0 0 1
-28.356999 -21.515021 -15.270999 38.732660 0.649059 1.976066 0.027262 0.010349 394536.000000 0 0 1
-29.383589 -21.204421 -16.227499 39.703331 0.625103 1.991846 0.024619 0.007085 733684.000000 0 0 1
-30.518369 -20.623221 -15.557599 39.984084 0.594274 1.970445 0.033422 0.007092 270167.000000 0 0 1
-31.505159 -19.886621 -16.449499 40.726389 0.563058 1.986575 0.030291 -0.006337 -222055.000000 0 0 1
-32.306179 -20.775121 -17.214899 42.090944 0.571488 1.992147 0.022235 -0.007701 -64080.300000 0 0 1
-32.992609 -20.102221 -18.287799 42.744065 0.547226 2.012903 0.020991 -0.009630 339968.000000 0 0 1
-34.050969 -21.027921 -18.972699 44.290013 0.553219 2.013489 0.005279 -0.009669 533297.000000 0 0 1
-35.206278 -21.404621 -18.237799 45.058375 0.546265 1.987512 -0.000236 0.001500 149605.000000 0 0 1
-34.981513 -22.272421 -17.164199 44.881809 0.566962 1.963222 0.027548 -0.006784 -515788.000000 0 0 1
35.127992 -23.544521 -17.268899 45.678607 -0.590479 1.958488 0.009695 0.011993 437398.000000 0 0 1
33.720432 -23.343021 -17.250899 44.492220 -0.605507 1.968962 0.008024 0.002144 330012.000000 0 0 1
33.079782 -24.631021 -17.196599 44.684250 -0.640033 1.965838 -0.005269 -0.002216 216695.000000 0 0 1
31.609302 -24.572921 -16.728499 43.391463 -0.660805 1.966573 -0.007142 -0.005319 -26794.900000 0 0 1
30.675582 -24.061421 -17.624699 42.785200 -0.665146 1.995372 -0.013882 0.001812 -487728.000000 0 0 1
29.369272 -24.337721 -17.160499 41.825369 -0.691986 1.993568 -0.001375 -0.004735 180045.000000 0 0 1
28.275952 -24.032121 -18.206599 41.334641 -0.704444 2.026917 0.019885 0.000507 -199934.000000 0 0 1
28.260942 -22.663621 -18.383699 40.623650 -0.675924 2.040404 0.016960 0.003896 681706.000000 0 0 1
26.942632 -22.217721 -18.715499 39.620733 -0.689580 2.062770 0.023094 -0.006197 468963.000000 0 0 1
34.091102 29.806779 -18.144299 48.783838 0.718449 1.951886 -0.000435 -0.001556 537502.000000 0 0 1
33.077622 29.651579 -19.160699 48.378483 0.730836 1.978016 0.012051 -0.011018 635004.000000 0 0 1
33.612372 29.064779 -20.324199 48.863340 0.712969 1.999772 0.008038 -0.013148 400350.000000 0 0 1
32.656392 29.258279 -21.543399 48.852890 0.730569 2.027492 0.019511 -0.017734 -159346.000000 0 0 1
31.445512 28.560379 -21.618399 47.664144 0.737354 2.041549 0.020820 -0.009334 313960.000000 0 0 1
30.748822 28.678679 -22.873299 47.865901 0.750577 2.069016 0.029561 -0.008397 490012.000000 0 0 1
29.839842 29.940979 -23.071199 48.157643 0.787090 2.070399 0.030320 0.001035 -210372.000000 0 0 1
30.564552 31.111179 -23.231099 49.414383 0.794261 2.060232 0.026117 -0.004437 -494892.000000 0 0 1
29.680492 32.161979 -23.322999 49.591196 0.825503 2.060433 0.035009 0.009134 -555129.000000 0 0 1
30.274372 33.522879 -22.815199 50.604884 0.836273 2.038513 0.032609 0.005978 -85643.100000 0 0 1
30.379202 33.374379 -21.410799 49.951651 0.832344 2.013773 0.041798 0.006150 -16530.900000 0 0 1
31.742422 33.180379 -21.097699 50.533472 0.807543 2.001488 0.043174 0.006520 -440907.000000 0 0 1
32.027192 33.244979 -19.579299 50.142981 0.804053 1.971938 0.023319 0.005307 -419007.000000 0 0 1
31.858322 -34.463043 -19.071999 50.659601 -0.824652 1.956783 0.027563 0.003204 200083.000000 0 0 1
31.794072 -34.358643 -17.661199 50.032962 -0.824146 1.931563 0.004121 -0.007095 -300638.000000 0 0 1
31.538502 -32.912643 -17.194099 48.719157 -0.806716 1.931489 0.005100 0.000092 335880.000000 0 0 1
32.664712 -32.055043 -17.367399 48.950340 -0.775978 1.933493 0.006501 -0.002379 717612.000000 0 0 1
33.652232 -32.147543 -16.332599 49.322318 -0.762534 1.908308 0.010086 0.003297 -319999.000000 0 0 1
34.874212 -31.256843 -16.503799 49.654570 -0.730753 1.909614 0.020423 0.010970 -406119.000000 0 0 1
-35.241288 -31.856443 -17.464399 50.614095 0.734994 1.923089 0.001431 0.004357 -791781.000000 0 0 1
-34.101001 -31.074543 -17.594799 49.376943 0.738996 1.935140 0.004489 0.009297 -543276.000000 0 0 1
-33.103269 -31.589343 -18.640999 49.408500 0.762001 1.957657 0.001757 0.001020 -361167.000000 0 0 1
-32.360589 -32.726043 -18.220999 49.499560 0.791013 1.947766 -0.000842 -0.001848 424265.000000 0 0 1
-31.531679 -33.261343 -19.243899 49.708062 0.812087 1.968322 0.003265 -0.005613 862824.000000 0 0 1
-30.146339 -32.673943 -19.679599 48.617640 0.825612 1.987538 0.005185 -0.002499 -910074.000000 0 0 1
-30.231749 -31.543143 -20.512499 48.266874 0.806624 2.009737 0.004756 -0.007216 -208345.000000 0 0 1
-29.084169 -30.994543 -21.119399 47.461349 0.817185 2.031949 0.011329 -0.005129 -457333.000000 0 0 1
-28.250399 -32.046743 -21.852499 47.985524 0.848276 2.043615 0.006058 0.000632 -1213100.000000 0 0 1
-29.001109 -32.793443 -22.774499 49.347260 0.846691 2.050498 0.002229 0.007191 -68163.600000 0 0 1
-28.273959 -33.910543 -23.294899 49.919876 0.875794 2.056291 -0.002628 0.007444 89900.100000 0 0 1
-28.945009 34.320979 -24.473299 51.133996 -0.870169 2.069869 -0.011559 0.003408 -490743.000000 0 0 1
-30.001039 33.465979 -24.051799 50.975711 -0.839938 2.062160 -0.018484 -0.001591 208604.000000 0 0 1
-30.634629 32.756179 -25.107039 51.398552 -0.818853 2.081140 -0.017929 0.002463 239461.000000 0 0 1
-31.443099 33.566079 -26.144759 52.904617 -0.818043 2.087695 -0.011196 -0.006692 -459485.000000 0 0 1
-30.665329 34.357279 -27.013279 53.390095 -0.842117 2.101291 -0.007178 -0.013618 436479.000000 0 0 1
-31.639839 -33.760843 -27.565449 53.858406 0.817818 2.108091 -0.007317 -0.019532 1056560.000000 0 0 1
-30.995519 -32.868943 -28.699639 53.523443 0.814724 2.136733 0.003827 -0.015735 301041.000000 0 0 1
-30.761169 -33.517443 -29.932429 54.457496 0.828252 2.152739 0.010947 -0.017798 640348.000000 0 0 1
-31.976479 -33.811943 -30.646029 55.721825 0.813290 2.153140 0.014043 -0.010783 419151.000000 0 0 1
-31.858739 34.262079 -31.897209 56.624211 -0.821730 2.169188 0.032316 -0.007546 -138126.000000 0 0 1
-31.152279 -34.145743 -32.953349 56.765478 0.831209 2.190160 0.043516 -0.016443 -45828.800000 0 0 1
-31.019529 33.948479 -34.026729 57.206020 -0.830451 2.207826 0.033393 -0.018683 -104484.000000 0 0 1
-30.392049 34.466179 33.461686 56.844336 -0.848132 0.941403 0.050139 -0.022612 956977.000000 0 0 1
-28.999189 34.295879 33.220469 55.863761 -0.868886 0.933942 0.038028 -0.021928 260445.000000 0 0 1
-28.585959 32.967279 33.066010 54.748146 -0.856458 0.922329 0.042938 -0.026279 1150450.000000 0 0 1
-27.030529 32.680879 33.287383 53.914184 -0.879745 0.905345 0.038212 -0.027319 1184520.000000 0 0 1
-26.634959 32.404479 -34.245960 54.150319 -0.882812 2.255475 0.038806 -0.028769 428079.000000 0 0 1
-25.315509 31.853679 -34.254035 53.187130 -0.899269 2.270549 0.045718 -0.024488 37763.700000 0 0 1
-25.138039 30.323679 34.375752 52.279430 -0.878627 0.853249 0.049287 -0.026324 -579923.000000 0 0 1
-25.421479 29.660779 -33.335859 51.354580 -0.862210 2.277238 0.040321 -0.024913 248552.000000 0 0 1
-25.279359 28.346779 -33.634669 50.733390 -0.842536 2.295574 0.037539 -0.022911 -440482.000000 0 0 1
-25.240839 27.371179 -32.416789 49.367293 -0.825868 2.287158 0.053864 -0.028265 -1068370.000000 0 0 1
-24.181189 27.298079 -31.522369 48.203473 -0.845871 2.283582 0.052074 -0.026020 -597737.000000 0 0 1
-23.935489 28.487479 -30.721769 48.252162 -0.872013 2.260997 0.036930 -0.019937 -947483.000000 0 0 1
-22.747689 28.398279 -29.814589 47.040720 -0.895432 2.257257 0.056078 -0.013168 -1012730.000000 0 0 1
-21.543789 28.464879 -30.543219 46.981618 -0.922922 2.278526 0.054085 -0.009265 414639.000000 0 0 1
-20.335289 28.444479 -29.772209 45.923815 -0.950133 2.276140 0.025138 -0.011862 887477.000000 0 0 1
-19.908589 29.782879 -29.124119 46.169103 -0.981555 2.253398 0.024089 -0.005301 -655060.000000 0 0 1
-19.759989 30.894779 -29.980569 47.368545 -1.001774 2.256117 0.021954 0.005399 298358.000000 0 0 1
-19.385389 32.111879 -29.349669 47.627399 -1.027673 2.234749 0.024641 0.003541 -25129.900000 0 0 1
-18.994889 33.316379 -30.260309 48.851543 -1.052625 2.238818 0.013524 0.017981 393361.000000 0 0 1
-17.692489 33.199379 -30.804229 48.622253 -1.081164 2.256919 0.013043 0.022349 -179792.000000 0 0 1
-17.313589 34.292579 -31.623019 49.756976 -1.103253 2.259516 0.007111 0.027211 1744190.000000 0 0 1
-15.728889 34.258279 -31.874409 49.366037 -1.140379 2.272703 0.011479 0.032177 1174670.000000 0 0 1
-15.012389 -34.203243 -30.798939 48.412894 1.157197 2.260323 0.020312 0.028317 825385.000000 0 0 1
-13.573789 -34.228943 -30.907639 48.074426 1.193260 2.269091 0.017173 0.032566 1618040.000000 0 0 1
-12.840889 33.395579 -30.981899 47.328968 -1.203715 2.284460 0.012348 0.023824 -705994.000000 0 0 1
-12.960289 32.678379 -29.737319 46.045127 -1.193223 2.272906 0.027784 0.009236 249075.000000 0 0 1
-12.446989 31.322879 -29.871819 45.037494 -1.192553 2.295970 0.021885 0.004191 -107685.000000 0 0 1
-12.450789 30.629979 -28.507389 43.656488 -1.184707 2.282326 0.021975 -0.008538 -534989.000000 0 0 1
-11.294589 30.796379 -27.743029 42.961149 -1.219278 2.272828 0.025111 -0.008456 -512551.000000 0 0 1
-11.447689 30.395579 -26.408099 41.860823 -1.210603 2.253451 0.027280 -0.018494 -443416.000000 0 0 1
-10.196489 30.753279 -25.617619 41.303692 -1.250645 2.239827 0.036359 -0.015906 -106377.000000 0 0 1
-9.073789 30.029979 -26.081769 40.796960 -1.277361 2.264393 0.029197 -0.013293 -552214.000000 0 0 1
-7.905489 30.638879 -25.611329 40.708449 -1.318282 2.251243 0.030124 -0.020096 564087.000000 0 0 1
-6.529989 30.112979 -26.164759 40.423098 -1.357253 2.274797 0.029698 -0.026725 881454.000000 0 0 1
-6.094489 28.927279 -25.494119 39.036910 -1.363150 2.282437 0.029756 -0.034925 -423693.000000 0 0 1
-4.904889 28.368379 -25.955009 38.761906 -1.399589 2.304468 0.040846 -0.041723 -373921.000000 0 0 1
-4.635589 27.047279 -25.279189 37.310607 -1.401057 2.315200 0.032470 -0.036162 667721.000000 0 0 1
-5.651889 25.977079 -25.427109 36.787095 -1.356563 2.333940 0.037416 -0.029348 788073.000000 0 0 1
-5.338289 24.860079 -24.546299 35.341783 -1.359275 2.338577 0.042051 -0.034321 -643616.000000 0 0 1
-6.214189 23.617079 -24.604199 34.666254 -1.313506 2.359932 0.031809 -0.031294 -340367.000000 0 0 1
-6.052789 22.941879 -25.853729 35.091044 -1.312843 2.399064 0.034683 -0.033447 201163.000000 0 0 1
-6.901889 21.800779 -25.841139 34.506152 -1.264191 2.417174 0.031736 -0.033138 -35055.100000 0 0 1
-6.906789 20.962079 -27.072369 34.928866 -1.252509 2.457625 0.026471 -0.027389 -167129.000000 0 0 1
-5.863289 20.007879 -27.125319 34.212225 -1.285729 2.486275 0.045170 -0.026471 -359515.000000 0 0 1
-5.746389 18.949879 -26.224389 32.860881 -1.276368 2.494837 0.045660 -0.021259 -808883.000000 0 0 1
-4.484089 18.120779 -26.486179 32.403509 -1.328214 2.527655 0.052893 -0.026166 -198984.000000 0 0 1
-4.414689 17.333079 -27.659309 32.938769 -1.321402 2.567562 0.038308 -0.021944 -21557.200000 0 0 1
-3.288489 16.460779 -27.752719 32.434315 -1.373615 2.597619 0.038537 -0.027232 69765.300000 0 0 1
-2.876089 16.221879 -29.202659 33.529339 -1.395323 2.627946 0.035272 -0.025485 -123892.000000 0 0 1
-2.213189 17.328179 -29.784859 34.529724 -1.443762 2.611156 0.041544 -0.030630 120735.000000 0 0 1
-1.962789 17.096679 -31.151319 35.588673 -1.456491 2.636884 0.036597 -0.036986 -33329.200000 0 0 1
-1.321489 18.330579 -31.828189 36.753096 -1.498829 2.617944 0.043939 -0.014575 59598.600000 0 0 1
0.010911 18.499879 -31.371459 36.419968 1.570207 2.608778 0.054298 -0.022208 245274.000000 0 0 1
0.711711 19.570379 -32.040399 37.551211 1.534446 2.592973 0.060338 -0.005502 407070.000000 0 0 1
0.591811 20.975279 -31.399249 37.765400 1.542589 2.552471 0.060661 -0.009282 -73213.500000 0 0 1
1.310211 21.213079 -30.207009 36.934737 1.509110 2.528458 0.069374 -0.025152 -310627.000000 0 0 1
0.998011 22.515679 -29.706839 37.288713 1.526500 2.492564 0.076135 -0.025978 123784.000000 0 0 1
1.842111 22.902879 -28.472579 36.587197 1.490538 2.462609 0.073390 -0.025648 1177280.000000 0 0 1
3.245911 23.007179 -28.806949 37.009547 1.430639 2.462854 0.056253 -0.027552 695563.000000 0 0 1
4.047711 23.194579 -27.669499 36.331441 1.398025 2.436552 0.045143 -0.027774 -24526.500000 0 0 1
4.564111 24.625879 -27.462619 37.168003 1.387538 2.402200 0.046240 -0.021844 -260965.000000 0 0 1
5.385911 25.116479 -28.492659 38.362445 1.359558 2.407924 0.042071 -0.022609 28275.100000 0 0 1
5.631711 26.466979 -28.291199 39.148552 1.361141 2.378443 0.035315 -0.021754 -488508.000000 0 0 1
6.458811 27.066579 -29.443419 40.512108 1.336550 2.384420 0.038794 -0.019763 -755410.000000 0 0 1
7.802811 26.694379 -29.374769 40.451833 1.286417 2.383526 0.026649 -0.013667 -543837.000000 0 0 1
8.512411 27.421679 -30.354179 41.782602 1.269802 2.383980 0.033045 -0.014847 1160030.000000 0 0 1
10.047211 27.664379 -30.055989 42.066932 1.222426 2.366677 0.032896 -0.013632 1368300.000000 0 0 1
10.759711 28.600579 -30.875079 43.440016 1.210969 2.361363 0.038411 -0.014432 590757.000000 0 0 1
12.035611 28.901679 -30.303129 43.571121 1.176204 2.339893 0.033108 -0.015610 324105.000000 0 0 1
12.877211 29.890379 -31.086219 45.006781 1.164011 2.333254 0.037813 -0.013426 -370564.000000 0 0 1
12.468211 31.226179 -31.022439 45.748467 1.190905 2.315983 0.033605 -0.010935 503599.000000 0 0 1
13.296911 31.941779 -31.959789 47.101096 1.176330 2.316564 0.049896 -0.020202 477139.000000 0 0 1
12.934311 33.446679 -32.030309 48.082403 1.201795 2.299837 0.048566 -0.026337 -103709.000000 0 0 1
11.900311 33.730679 -32.935009 48.621918 1.231626 2.314977 0.040022 -0.022271 -129279.000000 0 0 1
11.181411 -34.123143 -32.578619 48.484836 -1.254144 2.307614 0.043035 -0.021964 48484.100000 0 0 1
9.997211 -33.870243 -33.550839 48.711358 -1.283784 2.330585 0.029309 -0.018446 60367.800000 0 0 1
10.362811 -33.292743 34.115135 48.781523 -1.269038 0.796315 0.020188 -0.004287 -252162.000000 0 0 1
9.220311 -33.131343 33.308078 47.876174 -1.299369 0.801384 0.024845 -0.003558 -60567.300000 0 0 1
9.355411 -32.387243 31.957965 46.451790 -1.289590 0.812093 0.027038 -0.000628 -250954.000000 0 0 1
9.314711 -30.958643 32.088055 45.550463 -1.278536 0.789147 0.019550 -0.007125 -71614.600000 0 0 1
9.419511 -30.334843 30.788175 44.236202 -1.269718 0.800992 0.031064 -0.004662 -526591.000000 0 0 1
9.013211 -28.852143 30.599015 43.011439 -1.268009 0.779286 0.017907 -0.022738 -248943.000000 0 0 1
7.645111 -28.653943 30.817495 42.769313 -1.310062 0.766199 0.004170 -0.007174 -603270.000000 0 0 1
7.201611 -28.590443 32.191305 43.652683 -1.324041 0.741522 0.004223 0.006247 -871235.000000 0 0 1
5.682411 -28.313343 32.265915 43.301553 -1.372730 0.730045 -0.005251 0.003152 517469.000000 0 0 1
4.840211 -29.478743 32.094235 43.845910 -1.408055 0.749576 0.003131 -0.014185 245099.000000 0 0 1
4.919911 -30.140843 30.793365 43.369428 -1.408993 0.781263 0.003993 -0.008994 -972331.000000 0 0 1
4.435911 -29.515743 29.489295 41.958014 -1.421623 0.791430 -0.005198 -0.011489 -12886.600000 0 0 1
3.040011 -29.593843 29.263875 41.730224 -1.468431 0.793628 0.004376 -0.017044 255173.000000 0 0 1
2.713611 -29.073443 27.949165 40.420101 -1.477730 0.807279 0.006605 -0.016194 561776.000000 0 0 1
1.258011 -29.413243 27.472485 40.267343 -1.528052 0.819958 0.006983 -0.018458 655268.000000 0 0 1
1.096411 -30.680443 26.908555 40.823547 -1.535075 0.851118 0.008018 -0.025844 26077.200000 0 0 1
0.867311 -31.699743 27.897615 42.236274 -1.543443 0.849294 0.027292 -0.030018 -629724.000000 0 0 1
1.154911 -33.116943 27.468975 43.041960 -1.535937 0.878651 0.023912 -0.030812 278704.000000 0 0 1
2.545911 -33.293943 27.191335 43.062013 -1.494477 0.887380 0.013055 -0.021177 386314.000000 0 0 1
2.848111 -33.078243 25.840975 42.071818 -1.484906 0.909411 0.011613 -0.028511 -987418.000000 0 0 1
4.343511 -32.827643 25.866635 42.019079 -1.439248 0.907659 0.012015 -0.013933 -547474.000000 0 0 1
5.061211 -32.767343 24.635175 41.306252 -1.417548 0.931784 0.009564 -0.028579 1053380.000000 0 0 1
6.453511 -32.453743 24.851405 41.382189 -1.374504 0.926628 0.012221 -0.025940 340675.000000 0 0 1
7.214011 -32.414043 23.547135 40.708472 -1.351807 0.953990 0.012146 -0.023043 -595632.000000 0 0 1
8.435611 -31.752243 23.745735 40.536704 -1.311125 0.944950 0.017643 -0.014047 -339490.000000 0 0 1
9.154911 -31.620443 22.546135 39.899787 -1.288977 0.970279 0.012365 -0.021928 -395230.000000 0 0 1
10.191211 -30.514943 22.664035 39.353285 -1.248469 0.957077 0.010485 -0.011504 -346697.000000 0 0 1
11.414711 -30.895243 23.286735 40.337126 -1.216887 0.955375 0.018948 -0.016082 79798.300000 0 0 1
12.272911 -29.780743 23.168535 39.677424 -1.179895 0.947244 0.019912 -0.003133 291732.000000 0 0 1
13.608711 -29.910443 23.951005 40.663033 -1.143807 0.940961 0.048633 -0.009838 304696.000000 0 0 1
13.356011 -29.694543 25.325585 41.249657 -1.148125 0.909730 0.026313 -0.012698 -114333.000000 0 0 1
14.558311 -29.569443 26.013985 41.988377 -1.113293 0.902624 0.042463 -0.014768 -552891.000000 0 0 1
-10.729489 -13.915521 25.747815 31.172321 0.913962 0.598852 0.026866 -0.009489 1378880.000000 0 0 1
-9.290589 -13.746421 25.639445 30.539487 0.976459 0.574341 0.017897 -0.008302 1171910.000000 0 0 1
-8.644389 -14.181321 26.835955 31.559528 1.023376 0.554188 0.024881 -0.011793 20447.000000 0 0 1
-7.096689 -14.159521 26.763915 31.099231 1.106193 0.534355 0.045041 -0.007876 36050.700000 0 0 1
-6.560789 -15.170621 25.946765 30.764042 1.162618 0.567194 0.038501 -0.007168 25202.800000 0 0 1
-6.657489 -14.976021 24.501245 29.477353 1.152490 0.589554 0.031851 -0.009227 -910838.000000 0 0 1
-6.154889 -16.072821 23.614635 29.221041 1.205085 0.629812 0.029835 -0.011398 -93723.400000 0 0 1
-6.886189 -17.288321 23.383835 29.884936 1.191744 0.672186 0.037749 -0.010534 -175561.000000 0 0 1
-6.997989 -18.070221 24.551815 31.277729 1.201315 0.668162 0.043292 -0.009450 -304297.000000 0 0 1
-7.480889 -19.499121 24.332765 32.066538 1.204461 0.709295 0.032816 -0.010750 -65447.300000 0 0 1
-8.850389 -19.629921 24.009545 32.250914 1.147226 0.731069 0.016580 -0.008389 -219164.000000 0 0 1
-9.202189 -20.973321 23.743135 32.989346 1.157331 0.767396 0.011890 -0.012329 -705943.000000 0 0 1
-10.714589 -21.073821 23.742135 33.505183 1.100427 0.783269 -0.004051 -0.005948 -873121.000000 0 0 1
-11.258389 -21.299821 24.986525 34.709655 1.084557 0.767178 -0.003965 -0.009721 292060.000000 0 0 1
-12.668389 -21.100321 25.052485 35.118921 1.030091 0.776513 0.004370 -0.007260 346531.000000 0 0 1
-13.134989 -20.752321 26.497845 36.129248 1.006507 0.747460 0.014428 -0.011764 -553724.000000 0 0 1
-12.955989 -21.828121 27.406385 37.355514 1.035136 0.747098 0.009262 -0.010285 181530.000000 0 0 1
-11.909889 -21.588921 28.340725 37.564926 1.066674 0.715986 0.004101 -0.012033 331838.000000 0 0 1
-11.265789 -22.814321 29.013505 38.590086 1.112118 0.719951 0.001291 -0.003618 -651628.000000 0 0 1
-12.210589 -23.463521 29.770355 39.823477 1.090956 0.726419 0.019618 -0.008083 -609013.000000 0 0 1
-11.786489 -24.728121 30.257105 40.815361 1.126008 0.735766 0.003875 -0.002598 -219229.000000 0 0 1
-12.856789 -25.423061 31.158235 42.219245 1.102588 0.740679 0.025478 -0.011091 339107.000000 0 0 1
-12.923189 -24.944921 32.471375 42.937723 1.092798 0.713244 0.017703 -0.006578 -271525.000000 0 0 1
-13.880389 -25.498171 33.337330 44.206329 1.072287 0.716468 0.033953 -0.014351 -471231.000000 0 0 1
-13.857289 -24.858821 -34.152046 44.456132 1.062259 2.446851 0.031357 -0.014044 32092.800000 0 0 1
-14.076589 -23.454521 -34.103987 43.718953 1.030255 2.465579 0.031608 -0.015244 97912.400000 0 0 1
-15.324989 -23.005121 34.257926 44.019273 0.983148 0.678925 0.042960 -0.029831 -277293.000000 0 0 1
-15.685389 -21.525421 -34.201504 43.348795 0.941073 2.479950 0.038991 -0.030188 -73693.200000 0 0 1
-15.886189 -21.358121 -32.786989 42.231824 0.931274 2.459662 0.043674 -0.025886 177819.000000 0 0 1
-15.927589 -19.974821 -32.637109 41.447104 0.897653 2.477441 0.029702 -0.026191 -314862.000000 0 0 1
-15.772389 -19.540021 -31.187989 40.040871 0.891690 2.463712 0.034198 -0.011773 674332.000000 0 0 1
-16.978589 -19.548121 -30.397489 39.930050 0.855629 2.436063 0.037544 -0.010301 597452.000000 0 0 1
-16.734789 -19.330721 -29.020279 38.676951 0.857252 2.419350 0.019128 -0.003948 83953.600000 0 0 1
-15.945789 -20.406321 -28.210409 38.295082 0.907491 2.398913 0.023504 -0.001828 351662.000000 0 0 1
-14.538489 -20.317521 -28.355189 37.791349 0.949701 2.419326 0.019629 -0.000703 -209150.000000 0 0 1
-13.939189 -21.357421 -27.642659 37.610597 0.992552 2.396419 0.013977 -0.002432 -174616.000000 0 0 1
-12.416689 -21.453721 -27.811989 37.255108 1.046136 2.413625 0.020567 -0.008800 -865968.000000 0 0 1
-11.759089 -20.307821 -27.251799 35.963097 1.045929 2.430687 0.026548 -0.012322 1428430.000000 0 0 1
-10.312389 -20.424421 -27.240679 35.574667 1.103233 2.442976 0.022670 -0.020827 1455840.000000 0 0 1
-9.625489 -21.456921 -26.333959 35.306188 1.149111 2.412642 0.028266 -0.022383 -686450.000000 0 0 1
-9.848689 -22.788321 -26.845829 36.565049 1.162859 2.395275 0.033341 -0.024662 170753.000000 0 0 1
-9.309289 -23.673121 -25.857969 36.272773 1.196128 2.364386 0.042839 -0.026135 165700.000000 0 0 1
-9.493389 -25.151121 -26.193489 37.534014 1.209876 2.343202 0.051147 -0.025847 354457.000000 0 0 1
-8.497789 -25.579461 -27.147299 38.255681 1.250056 2.359766 0.040608 -0.018914 606879.000000 0 0 1
-8.692989 -26.900321 -27.673499 39.560307 1.258234 2.345532 0.042952 -0.013432 -137603.000000 0 0 1
-8.774389 -28.165431 -26.747709 39.821117 1.268795 2.307293 0.053884 -0.015948 -279212.000000 0 0 1
-9.800089 -28.191981 -25.788329 39.444486 1.236244 2.283376 0.043437 -0.016671 -68015.700000 0 0 1
-9.652889 -29.409521 -25.059999 39.825893 1.253652 2.251370 0.056570 -0.005089 -10119.700000 0 0 1
-10.684989 -29.535741 -23.916199 39.478014 1.223679 2.221581 0.051217 -0.004182 70583.400000 0 0 1
-10.583089 -28.441201 -22.996799 38.075668 1.214567 2.219277 0.040246 -0.013308 -294930.000000 0 0 1
-11.498989 -27.423781 -23.283399 37.767806 1.173757 2.235071 0.028940 -0.012768 -451251.000000 0 0 1
-11.297089 -26.188621 -22.408099 36.271077 1.163539 2.236732 0.033387 -0.022575 -104970.000000 0 0 1
-11.523689 -26.468001 -21.025999 35.713347 1.160165 2.200300 0.027932 -0.020619 195387.000000 0 0 1
-11.457589 -25.296771 -20.238399 34.362709 1.145511 2.200573 0.018432 -0.014364 -514485.000000 0 0 1
-11.966989 -25.547791 -18.817199 33.911435 1.132734 2.159030 0.021658 -0.014715 829552.000000 0 0 1
-13.356389 -25.930501 -18.858699 34.733767 1.095154 2.144742 0.029684 -0.014775 633596.000000 0 0 1
-13.795989 -26.208821 -17.543799 34.424069 1.086262 2.105560 0.042120 -0.017760 -199367.000000 0 0 1
-15.282889 -26.505231 -17.292799 35.144486 1.047761 2.085238 0.043913 -0.021313 -652991.000000 0 0 1
-16.078389 -25.334341 -17.449299 34.710538 1.005289 2.097526 0.045686 -0.011570 -595309.000000 0 0 1
-17.430889 -25.458351 -17.135699 35.292998 0.970425 2.077762 0.054441 -0.012837 -266835.000000 0 0 1
-18.263289 -26.093961 -18.307599 36.737048 0.960134 2.092481 0.060163 -0.012486 -894096.000000 0 0 1
-18.122289 -27.521171 -18.530799 37.805062 0.988479 2.083078 0.058341 -0.011042 23777.900000 0 0 1
-18.560589 -28.345811 -17.424299 38.099694 0.991060 2.045792 0.060146 -0.023265 -218621.000000 0 0 1
-20.052389 -28.775971 -17.428599 39.165174 0.962191 2.031973 0.067665 -0.016118 121220.000000 0 0 1
-20.415189 -29.674041 -18.433699 40.461462 0.968182 2.043827 0.054432 -0.016299 465820.000000 0 0 1
-21.664389 -30.214341 -17.952099 41.285954 0.948736 2.020638 0.047970 -0.008983 569508.000000 0 0 1
-22.289389 -31.217481 -18.876599 42.751304 0.950734 2.028116 0.038252 -0.009937 -374936.000000 0 0 1
-21.531789 -32.383391 -18.989899 43.277225 0.984016 2.025055 0.031789 -0.011174 -156235.000000 0 0 1
-21.991889 -33.227301 -20.049899 44.605999 0.986127 2.036989 0.032134 0.001404 79032.700000 0 0 1
-21.485089 34.362258 -19.985799 45.186347 -1.012015 2.028955 0.027172 0.004575 17233.200000 0 0 1
-22.204489 33.547594 -19.077799 44.524631 -0.986115 2.013603 0.027161 0.004779 21590.400000 0 0 1
-21.535989 32.331681 -18.847099 43.178114 -0.983189 2.022497 0.022233 -0.000662 308436.000000 0 0 1
-22.491089 31.224041 -18.248499 42.588702 -0.946567 2.013609 0.020010 -0.007620 297600.000000 0 0 1
-22.977789 31.371741 -16.959699 42.424006 -0.938631 1.982058 0.008207 -0.008882 -370530.000000 0 0 1
-23.655389 30.195761 -16.569499 41.784084 -0.906259 1.978553 0.009297 -0.005094 -531821.000000 0 0 1
-22.895189 28.911691 -16.201999 40.281265 -0.901014 1.984739 0.008378 -0.018156 -307148.000000 0 0 1
-22.094389 28.326081 -17.203299 39.830671 -0.908369 2.017407 -0.007819 -0.011674 9861.960000 0 0 1
-21.583189 27.058411 -16.864499 38.501987 -0.897489 2.024187 -0.010014 -0.012099 -143027.000000 0 0 1
-20.823489 26.475341 -18.068899 38.223638 -0.904327 2.063166 0.009431 -0.003424 -627196.000000 0 0 1
-20.359189 25.159401 -17.818799 36.945928 -0.890466 2.074068 0.026818 -0.014212 167565.000000 0 0 1
-19.757689 24.578851 -18.986999 36.810220 -0.893713 2.112747 0.033389 -0.002805 759282.000000 0 0 1
-18.290989 25.009061 -19.360199 36.535335 -0.939323 2.129283 0.027996 -0.006801 547313.000000 0 0 1
-17.344289 24.693631 -18.333199 35.308724 -0.958475 2.116741 0.040867 -0.008651 868403.000000 0 0 1
-16.243589 25.603801 -18.165399 35.346719 -1.005451 2.110545 0.055691 -0.013816 510673.000000 0 0 1
-16.569989 26.925041 -17.306699 36.042256 -1.019122 2.071654 0.059246 -0.025885 -138425.000000 0 0 1
-17.510189 27.736091 -18.000499 37.415444 -1.007669 2.072703 0.043368 -0.018509 112860.000000 0 0 1
-17.810489 28.899231 -17.249599 38.077917 -1.018480 2.040933 0.057684 -0.027808 -548813.000000 0 0 1
-18.936589 29.771431 -17.781099 39.510758 -1.004279 2.037597 0.045173 -0.024662 -820795.000000 0 0 1
-18.749789 30.433321 -18.999699 40.481232 -1.018627 2.059346 0.061203 -0.018994 -14509.200000 0 0 1
-18.809889 29.671751 -20.205799 40.527756 -1.005799 2.092741 0.025410 -0.007917 -268720.000000 0 0 1
-18.717389 30.424361 -21.545599 41.715647 -1.019268 2.113540 0.030417 -0.010567 -408791.000000 0 0 1
-19.704989 31.356021 -21.814299 42.980813 -1.009736 2.103119 0.029356 -0.004418 -370455.000000 0 0 1
-20.070789 31.307311 -23.209999 43.837066 -1.000711 2.128761 0.028065 -0.006957 126316.000000 0 0 1
-20.554889 32.674161 -23.660199 45.275924 -1.009263 2.120668 0.029040 -0.001740 363094.000000 0 0 1
-19.489189 33.621128 -23.530899 45.430298 -1.045459 2.115256 0.014581 0.006978 477128.000000 0 0 1
-19.804989 -34.255856 -24.277499 46.423036 1.046599 2.121119 0.010819 0.003969 -89645.200000 0 0 1
-18.641489 -33.223071 -24.327899 45.200932 1.059470 2.139116 0.026985 0.008136 152799.000000 0 0 1
-18.450189 -32.386591 -23.170399 43.888132 1.052965 2.126972 0.018228 0.002938 232975.000000 0 0 1
-18.085989 -33.091551 -21.994499 43.656749 1.070610 2.098795 0.024918 -0.008958 -515317.000000 0 0 1
-17.883589 -32.147801 -20.781799 42.251474 1.063135 2.085021 0.048143 -0.015422 163763.000000 0 0 1
-16.828889 -31.202041 -20.984699 41.196316 1.076165 2.105264 0.034911 -0.014675 264740.000000 0 0 1
-16.747789 -30.256431 -19.895099 39.896805 1.065248 2.092853 0.044705 -0.016492 -440822.000000 0 0 1
-15.534289 -29.343411 -19.925299 38.721666 1.083909 2.111311 0.041294 -0.015258 -73790.700000 0 0 1
-14.283589 -29.999801 -19.946099 38.753785 1.126432 2.111440 0.046019 -0.022001 104773.000000 0 0 1
-13.228189 -29.064431 -20.152899 37.760634 1.143682 2.133768 0.029887 -0.020346 370531.000000 0 0 1
-11.796089 -29.673281 -20.243599 37.808129 1.192419 2.135813 0.037501 -0.019019 189358.000000 0 0 1
-11.116389 -30.165151 -19.165499 37.427621 1.217721 2.108387 0.037984 -0.012028 -468781.000000 0 0 1
-10.529589 -29.167481 -18.412499 36.064308 1.224352 2.106616 0.029245 -0.014058 -1177500.000000 0 0 1
-9.829189 -29.878621 -17.287399 35.891491 1.252977 2.073341 0.014695 -0.001864 -974169.000000 0 0 1
-10.623389 -30.446571 -16.274599 36.120807 1.235085 2.038189 0.028345 -0.014856 -218999.000000 0 0 1
-10.985689 -31.785991 -16.408199 37.420096 1.238034 2.024710 0.034575 -0.017895 -47651.200000 0 0 1
-12.109589 -32.301711 -15.495899 37.817530 1.212122 1.992981 0.051331 -0.024946 -123560.000000 0 0 1
-11.671089 -32.522671 -14.190299 37.353755 1.226250 1.960473 0.052367 -0.018990 -265748.000000 0 0 1
-12.686089 -33.202251 -13.501699 38.021339 1.205828 1.933826 0.061033 -0.012733 -337680.000000 0 0 1
-12.315189 -33.848561 -12.141399 38.010558 1.221853 1.895916 0.044848 -0.006682 -156296.000000 0 0 1
-12.134589 -32.995971 -11.019099 36.842949 1.218388 1.874528 0.025433 -0.005183 57770.700000 0 0 1
-11.758289 -33.751971 -9.917499 37.091909 1.235571 1.841466 0.030623 -0.005023 -834733.000000 0 0 1
-10.498689 -33.176481 -9.300799 36.019526 1.264317 1.831971 0.023861 -0.007833 337809.000000 0 0 1
-9.280089 -33.581741 -9.949099 36.233106 1.301182 1.848955 0.015941 -0.003290 539584.000000 0 0 1
-8.142289 -32.872591 -9.457299 35.161693 1.327991 1.843116 0.004043 -0.007411 466883.000000 0 0 1
-6.861489 -33.379661 -10.151499 35.557485 1.368061 1.860320 0.003765 -0.014704 -63205.300000 0 0 1
-6.584789 34.305054 -9.817499 36.284700 -1.381155 1.844780 0.008157 -0.002592 897487.000000 0 0 1
-5.317589 33.889634 -10.402299 35.846783 -1.415156 1.865219 0.012716 0.000323 1072010.000000 0 0 1
-4.570489 32.843931 -9.594699 34.520594 -1.432526 1.852447 0.010122 -0.005086 -146210.000000 0 0 1
-4.025489 33.405978 -8.412399 34.683316 -1.450873 1.815789 0.020628 -0.007839 -466908.000000 0 0 1
-3.255089 32.527501 -7.701999 33.585037 -1.471056 1.802184 0.007868 -0.007051 -358363.000000 0 0 1
-3.016689 33.056506 -6.233399 33.774077 -1.479790 1.756422 0.010651 -0.004901 -1040980.000000 0 0 1
-2.175789 34.144782 -6.172299 34.766327 -1.507160 1.749279 -0.002744 -0.001711 -489659.000000 0 0 1
-1.926889 -34.398545 -4.886099 34.797224 1.514838 1.711678 0.004862 -0.002939 -63449.200000 0 0 1
-0.858389 33.816445 -4.141499 34.079918 -1.545418 1.692621 0.008691 -0.008038 -815390.000000 0 0 1
0.479211 33.915966 -4.556399 34.224014 1.556668 1.704327 0.002498 -0.006148 -311349.000000 0 0 1
1.254511 32.940261 -3.883399 33.192098 1.532730 1.688063 0.003170 -0.010226 3986.350000 0 0 1
2.712111 32.935581 -4.371699 33.334963 1.488636 1.702320 0.018369 -0.003832 66712.800000 0 0 1
3.479611 34.088933 -4.035499 34.502874 1.469074 1.688026 0.019708 -0.002275 -130267.000000 0 0 1
4.811611 34.064091 -4.513099 34.697002 1.430473 1.701238 0.038796 -0.005599 368071.000000 0 0 1
5.594411 -33.766161 -3.884099 34.446151 -1.406607 1.683795 0.041200 -0.000436 3661.060000 0 0 1
5.412911 -32.644211 -4.707799 33.423158 -1.406476 1.712121 0.036408 0.002003 -120185.000000 0 0 1
5.440511 -31.417531 -3.976199 32.132080 -1.399329 1.694860 0.043134 -0.008580 61865.000000 0 0 1
5.294311 -30.145381 -4.885399 30.994207 -1.396943 1.729079 0.026998 -0.005515 411410.000000 0 0 1
6.421111 -29.905241 -5.743199 31.121350 -1.359292 1.756402 0.040771 -0.003904 304383.000000 0 0 1
6.306511 -28.716341 -6.511099 30.113033 -1.354614 1.788740 0.034476 -0.007714 205386.000000 0 0 1
6.807411 -27.392141 -5.827199 28.820591 -1.327214 1.774389 0.037362 -0.011038 723190.000000 0 0 1
5.863111 -26.946311 -4.844099 27.999019 -1.356551 1.744681 0.032402 -0.013982 450343.000000 0 0 1
6.435511 -25.823441 -4.172599 26.938383 -1.326559 1.726317 0.026066 -0.016673 -351700.000000 0 0 1
5.501911 -25.304561 -3.076699 26.077920 -1.356701 1.689053 0.024032 -0.013975 -394216.000000 0 0 1
4.440511 -24.668121 -3.759599 25.344998 -1.392694 1.719683 0.023170 -0.015470 -897896.000000 0 0 1
3.577511 -24.138721 -2.798699 24.562353 -1.423661 1.684987 0.014047 -0.009427 -351495.000000 0 1 0
2.466411 -23.353121 -3.540199 23.748357 -1.465573 1.720425 0.025032 -0.015132 71973.000000 0 1 0
1.580811 -24.208721 -4.220999 24.624743 -1.505590 1.743060 0.026425 -0.019147 -206995.000000 0 1 0
0.537311 -23.459021 -4.836099 23.958344 -1.547896 1.774047 0.017644 -0.015735 279986.000000 0 1 0
-15.323289 23.361379 18.339235 33.419825 -0.990268 0.989924 0.004124 0.001000 -114596.000000 0 0 1
-15.561389 22.953079 19.651935 33.988221 -0.975012 0.954278 0.023536 0.006388 -26510.200000 0 0 1
-15.013289 23.873179 20.522435 34.878329 -1.009414 0.941717 0.019693 -0.003645 -901198.000000 0 0 1
-15.095489 23.383379 21.959735 35.452590 -0.997545 0.902804 0.024725 0.000686 -991963.000000 0 0 1
-14.190989 22.331779 22.221135 34.552443 -1.004709 0.872239 0.014708 0.001931 887409.000000 0 0 1
-12.824289 22.759279 22.389435 34.405435 -1.057666 0.862221 0.023101 -0.002912 279741.000000 0 0 1
-12.440289 23.832979 23.398135 35.640488 -1.089721 0.854621 0.028849 0.001891 -1279330.000000 0 0 1
-12.261189 23.384779 24.698485 36.155218 -1.087880 0.818765 0.029258 0.003254 111851.000000 0 0 1
-12.211689 24.485379 25.585645 37.460437 -1.108162 0.818928 0.036220 -0.000267 -103473.000000 0 0 1
-11.595089 24.072079 26.961225 37.958118 -1.121910 0.780888 0.032845 -0.005450 497627.000000 0 0 1
-10.180089 23.925879 26.983385 37.472456 -1.168515 0.766870 0.021833 -0.006331 -15426.100000 0 0 1
-9.808189 22.859879 27.849395 37.341176 -1.165494 0.729047 0.017451 -0.000577 -614083.000000 0 0 1
-8.335889 22.510579 27.549495 36.540223 -1.216144 0.716742 0.007721 -0.007629 184988.000000 0 0 1
-7.412289 23.413579 28.138345 37.348416 -1.264198 0.717577 0.010564 -0.002749 70585.500000 0 0 1
-7.176789 24.551779 27.294165 37.406785 -1.286407 0.752974 0.008326 -0.006568 -947256.000000 0 0 1
-6.099889 25.438479 27.932285 38.269275 -1.335450 0.752638 0.005590 -0.007148 1218670.000000 0 0 1
-4.750189 24.892379 27.858825 37.660443 -1.382234 0.738117 0.007221 -0.002973 606631.000000 0 0 1
-3.843589 25.723779 28.465625 38.558757 -1.422476 0.740339 0.016048 -0.001949 -495417.000000 0 0 1
-2.364389 25.334879 28.370785 38.109682 -1.477740 0.731084 0.018837 -0.004653 -124060.000000 0 0 1
-1.831289 25.239979 27.088595 37.070232 -1.498368 0.751395 0.013278 -0.000240 483786.000000 0 0 1
-0.467589 24.791679 27.033495 36.683182 -1.551938 0.742256 0.029419 0.005557 827478.000000 0 0 1
0.048111 24.586779 25.658305 35.536750 1.568840 0.764076 0.030581 0.005445 -289684.000000 0 0 1
-0.248289 23.322179 25.166585 34.312427 -1.560151 0.747407 0.022012 0.009671 -60064.600000 0 0 1
-0.040089 23.184279 23.770735 33.204822 -1.569067 0.772910 0.018133 0.016421 -62372.600000 0 0 1
-0.646789 21.924179 23.201735 31.928176 -1.541304 0.757312 0.021426 0.016614 678959.000000 0 0 1
0.187511 20.793579 23.614235 31.464904 1.561779 0.721986 0.022578 0.012996 743743.000000 0 0 1
-0.096789 19.694779 22.747735 30.089086 -1.565882 0.713596 0.015068 0.012298 138862.000000 0 0 1
1.060711 18.690179 22.964835 29.628222 1.514105 0.683923 0.019621 0.014090 -456490.000000 0 0 1
2.251511 19.133879 22.408635 29.552014 1.453664 0.710129 0.021997 0.006937 -717317.000000 0 0 1
3.126311 18.006079 22.308635 28.838653 1.398885 0.686345 0.013404 0.005394 362346.000000 0 0 1
4.445511 18.214679 21.502935 28.529166 1.331414 0.717096 0.020439 -0.001565 525247.000000 0 0 1
5.389311 18.808979 22.372835 29.721475 1.291744 0.718567 0.025361 0.004610 -1229380.000000 0 0 1
6.625811 19.054979 21.807635 29.708021 1.236153 0.746507 0.030867 -0.002777 -865983.000000 0 0 1
7.656311 19.587279 22.841535 31.048612 1.198175 0.744141 0.038616 -0.004640 -290245.000000 0 0 1
7.432311 20.831079 23.498735 32.270166 1.228086 0.755122 0.027630 0.001927 -68150.800000 0 0 1
7.182811 21.955379 22.702435 32.388763 1.254617 0.794088 0.031608 -0.000568 -198128.000000 0 0 1
5.940611 22.713479 23.264535 33.051952 1.314981 0.789954 0.022300 0.006250 294048.000000 0 0 1
5.666311 23.983279 22.643835 33.467118 1.338790 0.827662 0.020966 -0.000961 -6627.380000 0 0 1
4.344911 24.323079 22.996835 33.754182 1.394028 0.821255 0.014599 0.003512 -172099.000000 0 0 1
3.917811 25.779479 22.611035 34.513616 1.419976 0.856437 0.025304 0.002983 110209.000000 0 0 1
3.883811 26.171379 21.251935 33.936261 1.423472 0.894087 0.026167 0.001005 95173.700000 0 0 1
2.935711 25.390579 20.544235 32.792766 1.455685 0.893759 0.033566 0.004381 -247663.000000 0 0 1
2.565611 25.888479 19.099535 32.273641 1.472016 0.937507 0.024232 0.001938 -367399.000000 0 0 1
1.778211 27.032679 19.279135 33.250756 1.505111 0.952300 0.019260 -0.000361 293227.000000 0 0 1
1.130011 27.470079 18.052135 32.890146 1.529683 0.989795 0.016947 0.003859 -129698.000000 0 0 1
0.180111 28.636179 18.199835 33.930770 1.564507 1.004653 -0.002707 0.014526 -176453.000000 0 0 1
0.709911 29.954679 18.520435 35.224895 1.547101 1.017168 0.005659 0.014777 -317602.000000 0 0 1
-0.344289 30.836379 18.708835 36.069673 -1.559632 1.025483 -0.004908 0.014652 -234687.000000 0 0 1
0.129511 32.160579 19.362635 37.539729 1.566769 1.028866 -0.004220 0.023463 177390.000000 0 0 1
0.552711 32.085179 20.715735 38.195626 1.553572 0.997554 -0.000499 0.018546 -197030.000000 0 0 1
1.156611 33.263979 21.173235 39.447889 1.536040 1.004228 0.001525 0.008438 -209148.000000 0 0 1
1.619011 33.157479 22.667635 40.197777 1.522007 0.971692 0.009770 -0.009769 418039.000000 0 0 1
0.563611 32.741279 23.547035 40.333260 1.553584 0.947380 0.001045 0.004846 377471.000000 0 0 1
0.990611 32.885679 24.887075 41.253069 1.540683 0.923191 0.009476 -0.001776 -821910.000000 0 0 1
-0.010889 32.607179 25.965605 41.682621 -1.570462 0.898306 0.011749 -0.003075 -245005.000000 0 0 1
-1.037589 33.644279 26.080725 42.581901 -1.539966 0.911597 0.012185 -0.001997 640146.000000 0 0 1
-2.026789 33.362679 27.019855 42.979632 -1.510121 0.890959 0.014546 -0.006377 -197909.000000 0 0 1
-1.618989 33.753179 28.492855 44.201142 -1.522868 0.870273 0.033433 -0.025572 -291842.000000 0 0 1
-0.538989 32.946079 28.945595 43.858660 -1.554438 0.850012 0.035778 -0.025571 62417.900000 0 0 1
-0.103489 33.303779 30.242095 44.985961 -1.567689 0.833544 0.043267 -0.034399 -197803.000000 0 0 1
1.194311 32.566779 30.666005 44.748467 1.534140 0.815784 0.038273 -0.028743 626605.000000 0 0 1
2.437611 32.763379 29.993805 44.486057 1.496533 0.830876 0.022177 -0.033828 558474.000000 0 0 1
2.434911 32.305479 28.615925 43.225501 1.495567 0.847292 0.024343 -0.029481 -325973.000000 0 0 1
3.885311 31.978179 28.105895 42.750917 1.449890 0.853388 0.011704 -0.022104 765843.000000 0 0 1
4.459311 30.941379 28.880055 42.559511 1.427661 0.824968 0.014165 -0.024249 -330310.000000 0 0 1
5.841011 30.846379 28.657135 42.507033 1.383654 0.830951 0.002819 -0.025854 -196861.000000 0 0 1
6.506311 29.625379 29.338015 42.198510 1.354609 0.802045 -0.003294 -0.008312 -112303.000000 0 0 1
6.732511 29.890279 30.706995 43.378278 1.349253 0.784292 0.003240 -0.013843 187256.000000 0 0 1
7.333311 28.806279 31.389295 43.230394 1.321518 0.758173 -0.001949 -0.002013 -126934.000000 0 0 1
7.491011 28.957079 32.866041 44.438770 1.317652 0.738350 0.012386 -0.013729 -405077.000000 0 0 1
6.206411 28.901979 33.445107 44.636522 1.359269 0.723827 0.019466 -0.019441 6000.690000 0 0 1
6.228311 28.594179 -33.984669 44.848374 1.356329 2.430682 0.028931 -0.017658 7103.750000 0 0 1
6.292911 27.093479 -33.497829 43.540348 1.342576 2.448622 0.019992 -0.016003 504241.000000 0 0 1
7.576711 26.524079 -33.757879 43.595042 1.292552 2.456486 0.009441 -0.013327 393251.000000 0 0 1
7.652311 25.200279 -33.318889 42.470699 1.275985 2.472710 0.011639 -0.012288 -100201.000000 0 0 1
8.902011 24.384079 -33.689359 42.530013 1.220756 2.485090 -0.004355 0.001276 -527666.000000 0 0 1
9.200911 24.393479 33.745409 42.643302 1.210109 0.657796 -0.010238 0.003698 -63074.100000 0 0 1
10.315311 23.660979 33.301841 42.133836 1.159677 0.659363 0.003605 -0.003896 -196524.000000 0 0 1
10.399911 22.181379 33.695235 41.659820 1.132371 0.628656 -0.007881 -0.007190 -831744.000000 0 0 1
9.574411 21.456479 32.809295 40.354673 1.151086 0.621470 -0.014011 -0.001442 105630.000000 0 0 1
9.292711 20.124279 33.274064 39.981301 1.138201 0.587659 -0.016006 0.002155 -68462.400000 0 0 1
8.069411 19.976479 34.216409 40.434363 1.186893 0.561944 0.008753 -0.009567 -224307.000000 0 0 1
8.166711 20.529779 -33.347229 40.002558 1.192189 2.556439 0.013377 -0.013008 -98088.800000 0 0 1
6.900411 21.010479 -32.933899 39.669858 1.253468 2.550262 0.018658 -0.013956 -19326.500000 0 0 1
6.791811 21.482179 -31.482149 38.713543 1.264580 2.520439 0.019908 -0.028767 -195002.000000 0 0 1
7.248011 22.781379 -31.319679 39.401106 1.262768 2.489628 0.014133 -0.016900 -88140.200000 0 0 1
7.429011 23.155479 -29.957109 38.584904 1.260339 2.459721 0.006905 -0.017403 -385360.000000 0 0 1
8.891811 23.349479 -29.525269 38.678211 1.206938 2.439290 0.013967 -0.023513 -130377.000000 0 0 1
9.485911 22.068779 -29.399519 37.965053 1.164838 2.456537 0.012427 -0.030440 123888.000000 0 0 1
10.864711 22.208179 -29.039889 38.138698 1.115809 2.436310 0.022223 -0.027520 525508.000000 0 0 1
11.520711 20.831779 -28.855329 37.407483 1.065626 2.451801 0.025811 -0.032197 -247922.000000 0 0 1
11.649411 19.967179 -30.006809 37.878828 1.042651 2.485167 0.015755 -0.027993 505599.000000 0 0 1
10.395411 19.399279 -30.388449 37.521386 1.078869 2.514772 0.006318 -0.018246 172036.000000 0 0 1
10.503411 18.562579 -31.714139 38.218812 1.055875 2.549553 0.002482 -0.012813 -512072.000000 0 0 1
11.150811 17.342679 -31.462989 37.616868 0.999379 2.561490 0.021835 -0.011142 108702.000000 0 0 1
11.163411 16.408779 -32.530469 38.106446 0.973393 2.593795 0.012931 -0.002905 199412.000000 0 0 1
12.234111 16.606579 -33.678029 39.492551 0.935860 2.592061 0.007490 0.009022 281035.000000 0 0 1
12.038411 17.926579 -34.258762 40.496276 0.979428 2.579184 0.008724 0.003686 340663.000000 0 0 1
12.764011 18.218879 33.392976 40.124037 0.959673 0.587654 0.016156 0.003860 -12967.000000 0 0 1
12.163811 17.494579 32.185485 38.599534 0.963238 0.584785 0.020848 -0.002050 -587992.000000 0 0 1
12.565111 18.074779 30.932215 37.965531 0.963317 0.618508 0.012325 0.009152 -197865.000000 0 0 1
11.889811 17.630679 29.754745 36.572576 0.977471 0.620512 0.015404 0.003582 -487195.000000 0 0 1
10.370011 17.784879 29.627605 36.078165 1.042911 0.607275 0.000394 -0.002353 -191234.000000 0 0 1
9.653411 16.796679 30.395805 36.044718 1.049171 0.567439 0.008060 0.000030 230602.000000 0 0 1
8.304111 17.189579 30.566215 36.037943 1.120768 0.558280 0.013064 0.000902 212144.000000 0 0 1
7.561711 16.462679 31.739835 36.546086 1.140215 0.518652 0.014767 0.002672 39466.800000 0 0 1
8.050111 16.538279 33.074204 37.844708 1.117800 0.507535 0.022542 0.004193 288224.000000 0 0 1
7.416111 15.549979 33.903007 38.029126 1.125782 0.470148 0.025614 -0.004348 -143803.000000 0 0 1
7.582911 15.744379 -33.417809 37.711218 1.121955 2.659767 0.029056 -0.012819 -372739.000000 0 0 1
6.671011 16.709379 -32.957059 37.548282 1.190947 2.641889 0.023596 -0.016028 56166.700000 0 0 1
6.665311 16.863979 -31.545939 36.386350 1.194401 2.619890 0.032658 -0.024065 217613.000000 0 0 1
5.654211 17.991979 -31.093939 36.366392 1.266306 2.596383 0.028728 -0.027106 19171.800000 0 0 1
5.539011 18.154679 -29.672129 35.223689 1.274666 2.572502 0.026078 -0.034748 109875.000000 0 0 1
4.701111 19.209779 -29.225689 35.288199 1.330789 2.546685 0.033343 -0.036417 -744702.000000 0 0 1
3.218411 18.937579 -29.248559 34.992403 1.402456 2.560484 0.049862 -0.040745 -2149420.000000 0 0 1
2.807011 18.059479 -28.230549 33.630165 1.416599 2.567051 0.058791 -0.033588 206405.000000 0 0 1
1.398711 17.886979 -28.286169 33.496384 1.492758 2.576342 0.058829 -0.033169 664423.000000 0 0 1
0.409911 19.009179 -27.859849 33.729632 1.549236 2.542727 0.056578 -0.039895 -459746.000000 0 0 1
0.348111 19.328979 -26.450199 32.761924 1.552788 2.510436 0.071920 -0.042697 75911.200000 0 0 1
-0.603989 20.381779 -26.337339 33.308214 -1.541171 2.482774 0.080153 -0.043956 114800.000000 0 0 1
-1.194289 20.689379 -24.968399 32.448385 -1.513136 2.448824 0.061598 -0.041096 -208684.000000 0 0 1
-2.196889 19.836979 -24.496799 31.597867 -1.460499 2.457935 0.062737 -0.033764 -210008.000000 0 0 1
-2.646589 20.317579 -23.251599 30.991052 -1.441265 2.419264 0.063935 -0.027465 643634.000000 0 0 1
-3.924389 19.613679 -22.666399 30.230165 -1.373320 2.418547 0.055072 -0.026458 6366.160000 0 0 1
-5.165289 20.014479 -23.138999 31.026970 -1.318230 2.412487 0.045390 -0.025874 -685612.000000 0 0 1
-6.133489 19.154379 -22.556399 30.220871 -1.260900 2.413410 0.041017 -0.021939 708610.000000 0 0 1
-7.572389 19.756179 -22.376299 30.795234 -1.204776 2.384179 0.019313 -0.017601 642254.000000 0 0 1
-7.820589 20.766979 -21.353799 30.796327 -1.210634 2.336976 0.009015 -0.017248 -219647.000000 0 0 1
-7.201989 22.009679 -21.514899 31.609896 -1.254559 2.319430 0.014706 -0.018092 -294861.000000 0 0 1
-7.442689 23.039179 -20.395099 31.656871 -1.258334 2.270845 0.019744 -0.017433 -297428.000000 0 0 1
-6.827989 22.701279 -19.205899 30.509606 -1.278628 2.251710 0.038991 -0.014631 -88042.000000 0 0 1
-7.205789 23.644079 -18.175599 30.680910 -1.274978 2.204840 0.039338 -0.011759 -46952.600000 0 0 1
-6.170689 23.614579 -17.042399 29.768593 -1.315203 2.180343 0.039882 -0.010121 583038.000000 0 0 1
-4.923889 24.175579 -17.436399 30.211443 -1.369872 2.186025 0.041807 -0.009834 -89927.800000 0 0 1
-3.903689 24.040679 -16.460299 29.396164 -1.409823 2.165118 0.027710 -0.001914 209409.000000 0 0 1
-2.546889 24.534179 -16.966799 29.938017 -1.467357 2.173329 0.016778 0.004035 -175192.000000 0 0 1
-2.561489 25.911479 -17.042899 31.119550 -1.472261 2.150360 -0.000740 0.007846 60276.200000 0 0 1
-1.301889 26.447079 -17.419199 31.694974 -1.521610 2.152668 -0.005487 0.002995 366441.000000 0 0 1
-1.265089 27.948279 -17.060199 32.768234 -1.525562 2.118388 -0.015431 -0.012385 -119107.000000 0 0 1
-2.260289 28.739879 -17.695799 33.826482 -1.492311 2.121321 -0.010126 -0.016169 -2093.560000 0 0 1
-1.839489 29.378179 -18.863899 34.961519 -1.508264 2.140713 -0.010310 -0.013764 -1000190.000000 0 0 1
-3.024089 29.918679 -19.643099 35.918293 -1.470061 2.149433 0.014394 -0.020118 93657.400000 0 0 1
-3.842889 30.932479 -19.051899 36.531643 -1.447195 2.119425 0.010978 -0.014161 -63.568600 0 0 1
-4.826789 30.425679 -18.187199 35.774209 -1.413466 2.104109 0.009133 -0.020395 -789084.000000 0 0 1
-5.332989 31.606279 -17.366499 36.455355 -1.403639 2.067326 0.010939 -0.004951 -206269.000000 0 0 1
-5.984689 32.531479 -18.204799 37.756169 -1.388864 2.073923 0.028736 -0.007723 100533.000000 0 0 1
-6.344589 33.753579 -17.488799 38.541095 -1.384996 2.041788 0.024789 -0.014083 298654.000000 0 0 1
-7.161889 -34.144243 -18.258799 39.376462 1.364040 2.052961 0.023409 -0.003495 444430.000000 0 0 1
-8.366289 34.353379 -18.797099 40.043481 -1.331910 2.059427 0.038799 -0.017740 -346748.000000 0 0 1
-8.979389 -33.668743 -19.545699 39.953073 1.310165 2.081987 0.062729 -0.021602 25884.900000 0 0 1
28.637711 -20.279421 -26.649939 44.063507 -0.616166 2.220320 0.024037 0.003051 178471.000000 0 0 1
27.905611 -21.415321 -26.319269 43.932255 -0.654557 2.213157 0.041031 0.001679 -158144.000000 0 0 1
26.648011 -21.541721 -26.965839 43.604114 -0.679830 2.237532 0.039247 0.003928 162287.000000 0 0 1
26.068811 -22.910821 -26.625039 43.742215 -0.721012 2.225193 0.046678 0.005519 244586.000000 0 0 1
26.829411 -24.009621 -27.261549 45.160506 -0.729990 2.218879 0.030934 0.019065 389592.000000 0 0 1
27.972811 -24.439321 -26.574419 45.672293 -0.718083 2.191798 0.033366 0.017606 -69557.300000 0 0 1
28.445511 -25.807851 -27.150099 47.035308 -0.736819 2.186126 0.030271 0.017541 182389.000000 0 0 1
27.571111 -26.839071 -26.717069 46.843395 -0.771945 2.177727 0.036768 0.015034 311721.000000 0 0 1
28.088011 -28.154351 -27.052309 48.098142 -0.786578 2.168130 0.029262 0.015317 873252.000000 0 0 1
27.025611 -28.970961 -27.898379 48.456370 -0.820125 2.184308 0.042611 0.006413 276426.000000 0 0 1
26.865011 -28.432291 -29.217519 48.824046 -0.813733 2.212330 0.027419 0.003777 714620.000000 0 0 1
27.847711 -28.715991 -30.261369 50.158286 -0.800747 2.218451 0.014214 0.009783 -35364.300000 0 0 1
28.211911 -30.166861 -30.612949 51.411128 -0.818873 2.208627 0.019267 0.010277 -953163.000000 0 0 1
28.839511 -30.949231 -29.620019 51.642210 -0.820670 2.181644 0.022069 0.009476 133692.000000 0 0 1
30.150911 -30.559391 -29.264599 51.955467 -0.792126 2.169126 0.025493 0.014723 11444.300000 0 0 1
31.319611 -30.535631 -30.278909 53.199203 -0.772724 2.176281 0.020728 0.008421 -498043.000000 0 0 1
31.169511 -29.380301 -31.119069 52.944660 -0.755857 2.199091 0.025871 0.002379 107170.000000 0 0 1
32.436111 -28.940921 -31.598859 53.741661 -0.728513 2.199352 0.018538 -0.003865 291547.000000 0 0 1
32.300511 -27.574861 -32.343109 53.383262 -0.706637 2.221650 0.008847 0.001894 74545.400000 0 0 1
32.169611 -26.374161 -31.610949 52.246841 -0.686726 2.220601 0.000997 0.013596 647051.000000 0 0 1
30.987411 -26.280251 -30.773699 50.969518 -0.703387 2.219014 0.022348 0.010761 598269.000000 0 0 1
30.916911 -24.896221 -30.075209 49.801560 -0.677941 2.219183 0.017242 0.011438 -470697.000000 0 0 1
31.759311 -24.690521 -28.963059 49.569491 -0.660824 2.194804 0.014510 0.018318 21184.100000 0 0 1
31.650611 -23.361421 -28.386779 48.511096 -0.635844 2.195874 0.008346 0.016931 -411082.000000 0 0 1
32.638211 -23.095921 -27.267699 48.396300 -0.615831 2.169322 0.004668 0.019541 -577068.000000 0 0 1
32.468611 -23.862321 -26.079679 47.997612 -0.633790 2.145223 0.005739 0.015235 -357738.000000 0 0 1
31.586311 -23.448821 -25.094189 46.661125 -0.638602 2.138618 0.036503 0.013598 -355345.000000 0 0 1
32.078711 -22.189421 -24.235099 45.921173 -0.605146 2.126751 0.028150 0.011078 136484.000000 0 0 1
32.323911 -21.038221 -25.066579 45.997558 -0.576977 2.147131 0.029319 -0.000415 105828.000000 0 0 1
32.347811 -19.887221 -24.262799 45.061801 -0.551226 2.139374 0.016722 -0.009685 -192843.000000 0 0 1
32.560111 -18.625621 -25.130029 45.150780 -0.519605 2.161060 0.010275 -0.022918 384957.000000 0 0 1
31.392411 -18.334421 -25.903889 44.639063 -0.528601 2.189889 0.013981 -0.011891 489292.000000 0 0 1
31.408711 -17.054521 -26.430339 44.451397 -0.497443 2.207551 0.008369 -0.009745 -32225.000000 0 0 1
30.317111 -16.949421 -27.536679 44.324697 -0.509781 2.241132 0.001579 -0.003041 -997413.000000 0 0 1
29.066811 -17.060121 -27.019069 43.196728 -0.530752 2.246554 0.011100 0.003460 -667131.000000 0 0 1
28.001211 -16.705221 -27.939939 42.939171 -0.537908 2.279284 -0.007581 -0.000667 1057760.000000 0 0 1
26.660211 -16.466321 -27.187359 41.485649 -0.553287 2.285434 -0.004272 0.002249 216317.000000 0 0 1
26.067911 -17.611821 -26.598239 41.196827 -0.594171 2.272655 0.012440 0.011927 75118.200000 0 0 1
25.692311 -17.256621 -25.276629 39.959902 -0.591455 2.255637 0.011880 0.015125 -138813.000000 0 0 1
25.077411 -18.386621 -24.374599 39.510321 -0.632659 2.235616 0.030381 0.017249 -27475.400000 0 0 1
24.875111 -17.947221 -23.082099 38.388243 -0.625006 2.215899 0.024481 0.020854 -114903.000000 0 0 1
24.465711 -18.964921 -22.232099 38.111750 -0.659412 2.193631 0.040625 0.017733 -107000.000000 0 0 1
24.706311 -18.486921 -20.784299 37.204236 -0.642391 2.163559 0.030973 0.014970 180499.000000 0 0 1
23.778111 -17.523021 -20.309799 35.846099 -0.635090 2.173150 0.024725 0.013500 -107795.000000 0 0 1
23.670411 -16.260821 -20.958699 35.552352 -0.601926 2.201257 0.011655 0.016305 -250654.000000 0 0 1
24.853311 -15.279021 -20.812399 35.837013 -0.551208 2.190448 -0.001008 0.013623 2374.270000 0 0 1
24.976611 -14.737421 -19.510499 34.952572 -0.533070 2.163010 -0.004016 0.008189 1037920.000000 0 0 1
26.153511 -13.896821 -19.415999 35.413399 -0.488416 2.151087 -0.007627 0.010059 527329.000000 0 0 1
26.108111 -12.815721 -18.331799 34.379224 -0.456318 2.133202 0.003752 0.009376 -311597.000000 0 0 1
26.443211 -13.318321 -17.066399 34.174304 -0.466569 2.093694 -0.011521 0.008355 286585.000000 0 0 1
26.264711 -12.293421 -16.128699 33.182800 -0.437769 2.078367 -0.018307 0.005401 74995.000000 0 0 1
27.058311 -12.461721 -14.801899 33.264740 -0.431593 2.031940 -0.012779 0.007551 -32852.200000 0 0 1
26.436111 -13.482221 -14.016399 32.819167 -0.471610 2.012057 0.001847 0.001156 508757.000000 0 0 1
26.993911 -13.585121 -12.706299 32.782263 -0.466257 1.968819 0.005902 -0.001714 -236376.000000 0 0 1
26.639711 -14.917121 -12.038499 32.819509 -0.510456 1.946373 0.005453 -0.011394 1099710.000000 0 0 1
25.251511 -14.937621 -11.622099 31.557004 -0.534186 1.947964 0.002930 -0.014318 1220060.000000 0 0 1
24.817711 -16.262121 -11.405199 31.787638 -0.580066 1.937771 0.005175 -0.026636 -739128.000000 0 0 1
23.388211 -16.321821 -10.908099 30.535175 -0.609292 1.936098 0.022623 -0.033146 -783286.000000 0 0 1
23.291411 -15.866821 -9.591999 29.769990 -0.598018 1.898853 0.025199 -0.020232 1642430.000000 0 0 1
21.881811 -15.951521 -9.238899 28.611570 -0.629916 1.899597 0.027707 -0.020415 1084890.000000 0 0 1
21.549011 -15.863621 -7.723799 27.850878 -0.634588 1.851807 0.029445 -0.014949 -250662.000000 0 0 1
21.670111 -14.493321 -7.231599 27.054502 -0.589489 1.841384 0.017886 -0.002552 438581.000000 0 0 1
21.318711 -14.224421 -5.864699 26.290993 -0.588390 1.795758 0.015115 0.003693 -323462.000000 0 0 1
22.131111 -14.916321 -4.743699 27.106925 -0.593061 1.746702 0.022238 0.001319 -91167.600000 0 0 1
23.478711 -14.503621 -4.719799 27.997882 -0.553358 1.740182 0.023250 -0.001110 393846.000000 0 0 1
24.313411 -15.335521 -3.918799 29.011673 -0.562719 1.706287 0.018198 -0.008927 1409360.000000 0 0 1
25.861711 -15.013521 -4.062899 30.178487 -0.525981 1.705835 0.013924 -0.007429 1019500.000000 0 0 1
26.291211 -13.860821 -3.387199 29.913597 -0.485173 1.684272 0.016962 -0.013473 617049.000000 0 0 1
27.661911 -13.622421 -3.716699 31.057455 -0.457598 1.690756 0.019887 -0.030483 384950.000000 0 0 1
28.337111 -12.278421 -3.216199 31.049886 -0.408878 1.674564 0.035200 -0.032378 -1289490.000000 0 0 1
28.507511 -12.302221 -1.783699 31.099910 -0.407400 1.628182 0.038238 -0.047647 893859.000000 0 0 1
29.226411 -11.155521 -1.221699 31.306889 -0.364626 1.609830 0.034546 -0.036417 627990.000000 0 0 1
30.668211 -10.812621 -1.689799 32.562361 -0.338960 1.622714 0.035847 -0.034495 -393012.000000 0 0 1
30.638611 -10.317521 -2.987499 32.466920 -0.324821 1.662943 0.028509 -0.017674 -268432.000000 0 0 1
31.811511 -10.401121 -3.728499 33.675767 -0.316004 1.681741 0.050799 -0.026223 -719211.000000 0 0 1
31.466411 -10.313321 -5.191799 33.517971 -0.316723 1.726318 0.038387 -0.017365 493175.000000 0 0 1
30.546011 -11.341321 -5.647399 33.069283 -0.355511 1.742412 0.017984 -0.019112 627289.000000 0 0 1
30.290011 -11.339921 -7.058099 33.104310 -0.358225 1.785653 0.011789 -0.005232 736467.000000 0 0 1
29.014411 -12.174821 -7.508799 32.348793 -0.397299 1.805053 -0.007713 -0.000158 671373.000000 0 0 1
29.020211 -13.543921 -7.373599 32.863055 -0.436660 1.797096 -0.005770 -0.000842 46077.600000 0 0 1
27.789111 -14.068721 -7.829499 32.116424 -0.468649 1.817063 -0.007231 0.000451 7805.760000 0 0 1
27.752811 -15.586721 -7.962599 32.811086 -0.511726 1.815924 -0.002670 -0.004854 -554180.000000 0 0 1
28.542711 -15.974221 -8.996399 33.923403 -0.510230 1.839205 0.000081 -0.015093 -349452.000000 0 0 1
28.659911 -17.378621 -9.000199 34.704619 -0.545093 1.833132 0.006728 -0.015262 -32475.200000 0 0 1
28.876611 -17.887421 -10.458699 35.541566 -0.554593 1.869484 0.009899 -0.019497 409698.000000 0 0 1
30.173411 -17.503421 -10.924199 36.553285 -0.525654 1.874291 0.014539 -0.008239 587694.000000 0 0 1
30.479811 -17.855221 -12.270599 37.395125 -0.529916 1.905123 0.012387 0.001683 -204147.000000 0 0 1
29.677011 -17.177721 -13.406899 36.817714 -0.524702 1.943508 0.010962 0.002800 -288756.000000 0 0 1
30.003611 -15.868421 -13.807799 36.642582 -0.486487 1.957161 0.006234 0.005293 10231.100000 0 0 1
29.316211 -15.494021 -14.962799 36.378432 -0.486198 1.994687 -0.003981 0.008983 -688142.000000 0 0 1
30.150011 -14.480521 -15.817099 36.998504 -0.447750 2.012529 -0.002458 0.014927 363461.000000 0 0 1
31.132211 -15.097221 -16.629199 38.388422 -0.451526 2.018817 -0.006730 0.014131 27434.700000 0 0 1
32.440911 -15.001521 -16.117099 39.207388 -0.433139 1.994427 0.000137 0.012992 -393394.000000 0 0 1
33.440111 -15.464421 -17.219899 40.668345 -0.433160 2.008016 0.007548 0.014012 -212876.000000 0 0 1
34.776711 -15.485621 -16.744899 41.588649 -0.418928 1.985186 0.018646 0.009770 316062.000000 0 0 1
-35.463540 -16.196121 -17.762299 42.842459 0.428410 1.998295 0.026618 -0.000707 780687.000000 0 0 1
-33.916840 -16.271021 -17.475599 41.478846 0.447303 2.005690 0.034744 -0.002333 796561.000000 0 0 1
-33.389040 -17.109421 -16.484399 40.979210 0.473539 1.984783 0.030834 -0.004522 241241.000000 0 0 1
-33.696040 -16.629521 -15.165899 40.521211 0.458447 1.954406 0.030904 -0.004868 -434858.000000 0 0 1
-33.236440 -17.508221 -13.954899 40.074155 0.484840 1.926475 0.028039 -0.008094 27920.000000 0 0 1
-31.863940 -17.404421 -13.621199 38.778365 0.499929 1.929710 0.040603 -0.013531 228169.000000 0 0 1
-31.599140 -17.809621 -12.274399 38.292938 0.513233 1.897095 0.051946 -0.001358 474706.000000 0 0 1
-30.170840 -17.496221 -11.724699 36.794917 0.525513 1.895101 0.064285 -0.006408 316893.000000 0 0 1
-29.924040 -16.095221 -11.513199 35.875591 0.493482 1.897497 0.056113 -0.021400 238402.000000 0 0 1
-28.598340 -15.820921 -11.104099 34.517642 0.505305 1.898314 0.074155 -0.024748 155182.000000 0 0 1
-28.307240 -15.959121 -9.601099 33.884723 0.513363 1.858078 0.076220 -0.023940 -183972.000000 0 0 1
-28.401740 -17.256221 -9.033899 34.439038 0.545972 1.836217 0.068906 -0.016077 -198774.000000 0 0 1
-28.568940 -17.155921 -7.625199 34.185576 0.540794 1.795742 0.070001 -0.023382 -262955.000000 0 0 1
-29.052140 -18.501921 -7.035499 35.154604 0.567077 1.772287 0.051395 -0.019049 -176335.000000 0 0 1
-30.224240 -19.096921 -7.518399 36.533866 0.563504 1.778070 0.045554 -0.013555 -279593.000000 0 0 1
-30.073840 -19.624821 -8.816599 36.977045 0.578169 1.811550 0.038895 -0.007954 -364997.000000 0 0 1
-31.230940 -20.523121 -9.318599 38.515015 0.581379 1.815168 0.034055 -0.007781 960008.000000 0 0 1
-32.426340 -19.791021 -9.719899 39.212606 0.547986 1.821284 0.028244 -0.008634 403205.000000 0 0 1
-33.410540 -20.714021 -9.998799 40.562431 0.554985 1.819868 0.022193 -0.008776 -1097150.000000 0 0 1
-34.828040 -20.202421 -10.235799 41.543974 0.525630 1.819744 0.024433 -0.011882 -271124.000000 0 0 1
-34.921140 -19.641521 -11.549399 41.697290 0.512354 1.851448 0.023184 -0.016924 1358460.000000 0 0 1
34.654911 -19.382121 -11.779699 41.417277 -0.509947 1.859193 0.033794 -0.021598 1224290.000000 0 0 1
34.339711 -18.820421 -13.229999 41.333484 -0.501357 1.896610 0.029117 -0.009091 -298668.000000 0 0 1
34.607111 -19.721821 -14.284699 42.316132 -0.517976 1.915132 0.028873 -0.008526 -34714.000000 0 0 1
33.907511 -19.508221 -15.475199 42.068656 -0.522087 1.947498 0.018261 -0.003865 566781.000000 0 0 1
32.599611 -20.363821 -15.647099 41.500019 -0.558358 1.957393 0.018594 -0.012469 72292.100000 0 0 1
31.627011 -20.098921 -14.670899 40.242636 -0.566113 1.943958 0.023380 -0.006647 219891.000000 0 0 1
30.430011 -20.849821 -14.799499 39.745764 -0.600705 1.952341 0.020736 -0.006179 402551.000000 0 0 1
29.404611 -20.622821 -15.934299 39.291650 -0.611629 1.988365 0.020468 -0.004933 -538255.000000 0 0 1
28.716411 -19.406521 -15.688899 38.044538 -0.594298 1.995864 0.003448 0.005724 164341.000000 0 0 1
27.781311 -19.195121 -16.729299 37.684524 -0.604617 2.030776 0.010951 -0.001536 -15945.300000 0 0 1
27.042911 -17.847821 -16.731199 36.466379 -0.583360 2.047454 0.007454 -0.004634 -100679.000000 0 0 1
26.039611 -17.708521 -15.752299 35.210623 -0.597218 2.034623 0.008796 -0.005437 164009.000000 0 0 1
25.635311 -16.339021 -15.647999 34.190535 -0.567441 2.046170 0.003386 -0.006354 37060.300000 0 0 1
24.177511 -16.115821 -15.035299 32.715928 -0.587930 2.048309 0.006286 -0.025157 851792.000000 0 0 1
23.155411 -16.783121 -15.734999 32.641024 -0.627179 2.073803 0.011380 -0.024904 130615.000000 0 0 1
22.903711 -16.228021 -17.035799 32.835150 -0.616429 2.116276 0.010243 -0.007835 -1224760.000000 0 0 1
21.970011 -17.057521 -17.918999 33.086719 -0.660184 2.143108 0.004163 -0.004219 -383102.000000 0 0 1
20.640111 -17.153921 -17.465499 32.020538 -0.693417 2.147718 0.008168 0.002845 -136553.000000 0 0 1
19.953011 -17.982021 -18.427399 32.573682 -0.733488 2.172096 0.007905 0.003795 548497.000000 0 0 1
18.480511 -18.320721 -18.063299 31.677451 -0.781056 2.177577 -0.001563 0.009900 187859.000000 0 0 1
17.688911 -17.191021 -17.849099 30.446989 -0.771125 2.197200 0.003967 0.007210 1101050.000000 0 0 1
16.295411 -17.545421 -17.641299 29.742187 -0.822319 2.205751 0.011425 -0.006009 1128920.000000 0 0 1
15.332911 -16.409821 -17.313799 28.357504 -0.819311 2.227557 0.015609 0.001498 -372378.000000 0 0 1
14.965211 -15.600321 -18.385699 28.378892 -0.806174 2.275575 0.022311 0.010389 622926.000000 0 0 1
13.813711 -14.794721 -18.109299 27.159696 -0.819676 2.300664 0.021406 0.006928 1185380.000000 0 0 1
12.912311 -14.331221 -19.336399 27.313147 -0.837434 2.357391 0.024589 0.006596 742804.000000 0 0 1
13.467011 -13.213921 -20.037099 27.521872 -0.775913 2.386259 0.015297 0.005212 -42247.900000 0 0 1
12.608111 -12.802621 -21.067099 27.689244 -0.793053 2.435404 0.025685 0.013682 -22842.300000 0 0 1
12.924711 -11.429821 -21.623099 27.663105 -0.724095 2.468117 0.020564 0.016652 -438636.000000 0 0 1
14.155411 -11.160421 -22.269199 28.650443 -0.667640 2.461115 0.003395 0.027516 -109376.000000 0 0 1
14.256111 -9.748021 -22.554799 28.407386 -0.599756 2.488119 -0.004571 0.033463 248092.000000 0 0 1
15.457111 -9.457621 -23.488499 29.666117 -0.549096 2.484484 -0.018960 0.033822 202625.000000 0 0 1
15.268511 -9.904721 -24.799999 30.761516 -0.575463 2.508501 0.004811 0.029613 628492.000000 0 0 1
16.348711 -9.473821 -25.646479 31.855542 -0.525198 2.506618 0.007776 0.019045 376790.000000 0 0 1
22.338311 5.004579 -6.558099 23.812909 0.220396 1.849803 0.083083 0.007165 -316740.000000 0 1 0
22.169411 6.316379 -6.929699 24.070732 0.277560 1.862818 0.046535 0.007165 644443.000000 0 1 0
21.766311 7.118679 -5.831499 23.631637 0.316085 1.820139 0.039375 0.006724 -270279.000000 0 1 0
21.269911 8.561179 -6.093899 23.724218 0.382661 1.830572 0.026628 0.010313 170799.000000 0 1 0
20.068711 8.652479 -6.894499 22.916210 0.407062 1.876387 0.004435 0.002801 1302500.000000 0 1 0
19.600911 9.984879 -7.045599 23.098355 0.471146 1.880762 -0.001021 0.002876 861.129000 0 1 0
19.116011 10.858179 -5.859899 22.752150 0.516569 1.831286 0.014978 0.003030 162730.000000 0 1 0
20.229211 11.186279 -5.014699 23.653774 0.505126 1.784422 0.026680 0.002314 779887.000000 0 1 0
19.866011 12.371679 -4.334599 23.801378 0.556984 1.753934 0.048091 -0.001880 -72114.400000 0 1 0
20.797311 12.861879 -3.243499 24.667314 0.553868 1.702668 0.042183 -0.008276 918604.000000 0 1 0
22.184211 13.179079 -3.585299 26.051520 0.536051 1.708858 0.045770 -0.017441 1846650.000000 0 0 1
22.860611 13.484079 -2.370699 26.646728 0.532915 1.659882 0.035876 -0.022354 -355176.000000 0 0 1
23.660711 12.325779 -1.766999 26.737172 0.480258 1.636932 0.031855 -0.021748 -348132.000000 0 0 1
24.867611 12.083279 -2.530399 27.763405 0.452308 1.662065 0.023968 -0.019471 770917.000000 0 0 1
25.534911 11.078379 -1.799899 27.892684 0.409345 1.635371 0.029152 -0.020566 -286949.000000 0 0 1
26.977211 10.808579 -2.300799 29.152855 0.381072 1.649800 0.032079 -0.022106 -464066.000000 0 0 1
27.828311 11.832779 -1.973099 30.303839 0.402046 1.635953 0.025501 -0.029396 73999.500000 0 0 1
29.177611 11.451179 -2.303099 31.428757 0.373993 1.644142 0.024150 -0.022805 812439.000000 0 0 1
30.214011 12.488679 -1.810499 32.743419 0.391954 1.626118 0.009844 -0.013694 -811357.000000 0 0 1
30.112311 12.568279 -0.404499 32.632446 0.395399 1.583192 0.009569 -0.016122 320875.000000 0 0 1
31.004311 13.516479 0.139601 33.822803 0.411113 1.566669 0.017551 -0.011229 905436.000000 0 0 1
32.556211 13.176279 0.087001 35.121628 0.384572 1.568319 0.031543 -0.014986 540984.000000 0 0 1
33.376911 14.259079 0.412401 36.297515 0.403744 1.559434 0.031750 -0.011872 -291784.000000 0 0 1
34.002611 14.765979 -0.765999 37.078275 0.409688 1.591457 0.031761 0.000716 -417327.000000 0 0 1
33.245111 15.714379 -1.731999 36.812755 0.441556 1.617863 -0.005730 0.029434 -584419.000000 0 0 1
32.143811 15.184479 -2.388599 35.630021 0.441318 1.637886 0.007168 0.020568 -645806.000000 0 0 1
31.553911 16.130179 -3.238799 35.585415 0.472563 1.661937 0.001503 0.034234 609290.000000 0 0 1
30.207811 15.697379 -3.932799 34.269322 0.479241 1.685811 0.025090 0.011597 8980.370000 0 0 1
30.305911 14.814679 -5.060399 34.110564 0.454678 1.719699 0.005856 0.013636 306208.000000 0 0 1
29.092411 14.690479 -5.779699 33.099599 0.467607 1.746311 0.012878 0.001161 372854.000000 0 0 1
27.910911 13.952379 -5.088299 31.616113 0.463559 1.732439 0.016051 -0.012832 477317.000000 0 0 1
26.708811 13.917979 -5.900099 30.690094 0.480385 1.764248 0.027549 -0.020416 708012.000000 0 0 1
25.811711 13.041379 -5.298899 29.400686 0.467839 1.752017 0.029722 -0.015406 -8289.320000 0 0 1
24.616111 12.659379 -6.222499 28.371329 0.475000 1.791917 0.030269 -0.015215 109818.000000 0 0 1
25.054311 11.705979 -7.153499 28.564331 0.437085 1.823926 0.021986 -0.004935 790900.000000 0 0 1
24.087911 11.349379 -8.152799 27.847872 0.440315 1.867910 0.018521 -0.007219 109917.000000 0 0 1
23.833111 12.348979 -9.308299 28.410542 0.478057 1.904596 0.026045 -0.003161 -174873.000000 0 0 1
23.297911 13.543179 -8.849399 28.364101 0.526559 1.888086 0.027064 -0.016356 133291.000000 0 0 1
23.137111 14.494279 -9.931399 29.052413 0.559642 1.919675 0.022337 -0.016151 -587538.000000 0 0 1
22.429911 15.827179 -9.515999 29.054341 0.614493 1.904478 0.027204 -0.021469 -42843.500000 0 0 1
21.072411 15.598879 -9.235999 27.797036 0.637233 1.909501 0.035024 -0.014840 -74079.200000 0 0 1
20.784211 15.212479 -7.809499 26.914517 0.631832 1.865190 0.044780 -0.016419 1054400.000000 0 0 1
19.418611 14.431579 -7.508499 25.332400 0.639124 1.871716 0.066440 -0.016125 557530.000000 0 0 1
18.252611 15.128179 -7.783299 24.951941 0.692070 1.888022 0.068355 -0.024774 228333.000000 0 1 0
17.082811 14.346579 -7.484299 23.530013 0.698557 1.894494 0.069384 -0.044547 220623.000000 0 1 0
16.361011 14.642379 -6.195299 22.813673 0.730021 1.845811 0.074272 -0.028288 -865395.000000 0 1 0
17.056011 14.369179 -5.018599 22.859728 0.700106 1.792138 0.104356 -0.013762 487436.000000 0 1 0
16.317111 14.853979 -3.890299 22.405875 0.738494 1.745309 0.078977 -0.008124 101857.000000 0 1 0
15.841511 13.735879 -2.907099 21.167878 0.714327 1.708567 0.045420 -0.003224 -685430.000000 0 1 0
16.941211 13.251379 -2.209299 21.621394 0.663791 1.673156 0.044947 -0.007838 84040.400000 0 1 0
16.643911 12.469279 -1.102399 20.825897 0.642976 1.623755 0.034212 -0.005348 -199490.000000 0 1 0
16.593111 13.228479 0.205401 21.221833 0.673048 1.561117 0.035335 -0.010134 -296800.000000 0 1 0
15.497811 14.118079 0.239501 20.965678 0.738844 1.559373 0.037592 -0.013181 126885.000000 0 1 0
15.497811 14.958279 1.371301 21.582695 0.767685 1.507216 0.027290 -0.010444 -666208.000000 0 1 0
14.343311 15.936279 1.469101 21.490784 0.837958 1.502383 0.037366 -0.007705 -626435.000000 0 1 0
14.297411 16.996879 0.518301 22.216626 0.871446 1.547465 0.049455 -0.011945 -157336.000000 0 1 0
13.496711 17.992079 1.049701 22.516172 0.927201 1.524160 0.046918 -0.017119 -402064.000000 0 1 0
13.474811 19.350579 0.353901 23.582635 0.962523 1.555789 0.040082 -0.016540 -369940.000000 0 1 0
13.100611 19.285179 -1.004399 23.335658 0.974092 1.613851 0.045902 -0.023124 135965.000000 0 1 0
12.537711 20.527479 -1.362299 24.092062 1.022490 1.627372 0.040647 -0.027805 84828.900000 0 1 0
11.003911 20.609379 -1.252999 23.396636 1.080377 1.624377 0.025992 -0.030534 -116626.000000 0 1 0
10.385411 20.493279 0.036801 22.974608 1.101746 1.569195 0.026414 -0.038162 -164400.000000 0 1 0
8.997211 20.314879 -0.109999 22.218376 1.153873 1.575747 0.019251 -0.036775 337965.000000 0 1 0
8.200511 20.358779 1.248201 21.983773 1.187879 1.513987 0.017993 -0.035918 85697.500000 0 1 0
8.089811 21.594879 1.910101 23.139411 1.212361 1.488155 0.015006 -0.027503 269985.000000 0 1 0
7.366111 21.475179 3.150501 22.920920 1.240366 1.432909 0.015370 -0.025733 155061.000000 0 1 0
6.683511 22.785079 3.571901 24.012239 1.285471 1.421489 0.001382 -0.019582 -290701.000000 0 1 0
7.564611 23.559879 4.344401 25.122998 1.260114 1.396997 -0.001236 -0.015282 86618.400000 0 0 1
6.975011 24.692079 4.961501 26.133619 1.295490 1.379786 -0.000189 -0.012749 145634.000000 0 0 1
7.656311 24.962579 6.373601 26.876983 1.273194 1.331376 -0.004207 -0.005680 385253.000000 0 0 1
7.232311 23.976079 7.338101 26.096099 1.277829 1.285757 0.002550 -0.024783 187267.000000 0 0 1
7.922711 24.169179 8.556801 26.835376 1.254032 1.246267 0.003593 -0.025337 -132491.000000 0 0 1
7.428111 23.258779 9.742601 26.288132 1.261667 1.191132 0.008147 -0.026961 -360998.000000 0 0 1
6.291111 23.790079 10.353401 26.697169 1.312271 1.172543 0.005051 -0.024362 -95172.900000 0 0 1
5.708111 22.896379 11.330301 26.176371 1.326475 1.123150 0.004985 -0.021090 218262.000000 0 0 1
4.389311 23.383279 11.973901 26.634903 1.385244 1.104527 0.014084 -0.025737 55951.700000 0 0 1
3.360411 23.575879 11.030401 26.244698 1.429214 1.137031 0.010662 -0.020776 -142282.000000 0 0 1
2.129911 23.801579 11.699201 26.606822 1.481548 1.115524 0.012085 -0.021224 -331408.000000 0 0 1
0.959211 23.836379 10.738901 26.161365 1.530577 1.147808 0.026736 -0.020036 -651256.000000 0 0 1
0.998511 25.029479 9.915801 26.940582 1.530924 1.193873 0.019191 -0.018759 -313089.000000 0 0 1
0.183411 25.075579 8.785001 26.570558 1.563482 1.233826 0.015120 -0.020060 65005.800000 0 0 1
-1.247189 25.658879 8.909301 27.190241 -1.522228 1.236965 0.022244 -0.023555 602008.000000 0 0 1
-2.108689 24.838479 9.722101 26.756604 -1.486103 1.198932 0.024592 -0.021710 -128449.000000 0 0 1
-3.370289 25.466779 9.724201 27.467722 -1.439220 1.208927 0.033049 -0.021920 -183899.000000 0 0 1
-4.516589 24.621179 10.392401 27.103579 -1.389370 1.177286 0.030376 -0.024943 425694.000000 0 0 1
-4.777689 24.792879 11.794501 27.867964 -1.380426 1.133791 0.021951 -0.012054 345600.000000 0 0 1
-5.659089 25.887379 12.062001 29.114834 -1.355578 1.143633 0.022023 -0.010894 70618.500000 0 0 1
-6.106189 26.085979 13.537701 30.017215 -1.340857 1.102913 0.017076 0.000402 111930.000000 0 0 1
-7.072389 25.167079 14.016901 29.662671 -1.296844 1.078622 0.012558 -0.010892 98305.000000 0 0 1
-7.268889 25.284979 15.429701 30.499878 -1.290866 1.040378 0.009537 0.009536 206046.000000 0 0 1
-8.456989 24.388179 15.882201 30.307561 -1.237006 1.019215 0.013196 -0.003540 1310770.000000 0 0 1
-9.781789 24.870079 15.546401 30.917548 -1.196066 1.043922 0.017982 0.000763 436415.000000 0 0 1
-10.699789 23.838179 15.708701 30.487826 -1.148898 1.029503 0.014005 0.000112 -83219.400000 0 0 1
-12.150789 24.198479 15.297301 31.100088 -1.105446 1.056556 0.011613 -0.001059 159350.000000 0 0 1
-12.779589 25.008179 16.272501 32.457991 -1.098375 1.045649 0.020859 -0.004099 -228129.000000 0 0 1
-13.678189 25.887679 15.655601 33.201846 -1.084714 1.079774 0.017013 0.000369 -288482.000000 0 0 1
-14.242789 27.003279 16.561101 34.731890 -1.085433 1.073755 0.031242 -0.003462 -150173.000000 0 0 1
-15.277389 26.585679 17.401701 35.256434 -1.049227 1.054601 0.029949 -0.006221 -213652.000000 0 0 1
-15.694889 27.538679 18.399601 36.650425 -1.052787 1.044852 0.040653 -0.008315 1089390.000000 0 0 1
-16.976089 27.234379 19.314301 37.455857 -1.013397 1.029024 0.032485 -0.012508 790440.000000 0 0 1
-18.137089 27.635779 18.651401 37.954776 -0.990012 1.057087 0.029933 -0.011574 -880184.000000 0 0 1
-19.261489 26.999379 19.206501 38.325724 -0.951130 1.045882 0.031010 -0.009927 -463357.000000 0 0 1
-20.494289 27.198479 18.326601 38.673472 -0.925053 1.077104 0.025042 -0.017426 -626984.000000 0 0 1
-21.021789 28.475779 18.276601 39.834906 -0.934868 1.094142 0.021292 -0.016341 -37864.400000 0 0 1
-21.917989 28.611979 17.205501 39.938363 -0.917107 1.125416 0.015276 -0.022097 -448211.000000 0 0 1
-22.794889 29.883779 17.150501 41.313277 -0.919163 1.142707 0.010703 -0.023482 -937679.000000 0 0 1
-24.015889 29.621079 17.738901 42.057578 -0.889523 1.135393 0.001749 -0.014521 -706456.000000 0 0 1
-24.888789 30.720379 17.512301 43.242042 -0.889884 1.153836 -0.002911 -0.009341 12883.800000 0 0 1
-26.279139 30.535379 18.160401 44.190527 -0.860173 1.147293 -0.003437 -0.006278 305258.000000 0 0 1
-27.042659 29.468679 17.519101 43.664944 -0.828302 1.157952 0.009963 -0.004504 625388.000000 0 0 1
-28.390459 29.397679 17.968501 44.644246 -0.802826 1.156570 0.024730 -0.009631 396052.000000 0 0 1
-28.748369 28.203879 18.924801 44.498040 -0.775838 1.131508 0.019178 -0.000666 -436084.000000 0 0 1
-28.767329 26.938779 18.276201 43.442796 -0.752585 1.136584 0.025901 -0.000717 50088.400000 0 0 1
-29.094339 25.955079 19.230501 43.473657 -0.728434 1.112581 0.014960 0.002871 -52342.300000 0 0 1
-29.266909 24.552479 18.642101 42.507695 -0.698024 1.116803 0.030440 -0.001529 505966.000000 0 0 1
-30.341599 24.376879 17.688401 42.751893 -0.676819 1.144232 0.036660 -0.004359 556446.000000 0 0 1
-30.098309 23.438979 16.670701 41.631793 -0.661647 1.158808 0.042098 -0.006191 -275206.000000 0 0 1
-30.337559 21.991179 16.995901 41.144138 -0.627231 1.144961 0.044704 -0.004230 -230633.000000 0 0 1
-31.706879 21.674979 16.976801 41.992174 -0.599638 1.154599 0.041624 0.000278 -226555.000000 0 0 1
-31.997349 20.283679 16.931501 41.496189 -0.564986 1.150506 0.039582 0.000643 339924.000000 0 0 1
-33.432029 19.931379 16.463801 42.261296 -0.537603 1.170630 0.040574 -0.009841 191522.000000 0 0 1
-33.456019 20.102079 15.080601 41.842840 -0.541045 1.202088 0.038867 -0.007575 -427034.000000 0 0 1
-34.757568 19.958679 14.603301 42.657869 -0.521252 1.221395 0.044701 -0.009453 -360619.000000 0 0 1
-34.927561 20.277379 13.116401 42.463473 -0.525999 1.256774 0.046146 -0.003757 -119579.000000 0 0 1
-34.979622 21.684179 12.864601 43.119317 -0.554930 1.267834 0.031864 -0.003478 -130111.000000 0 0 1
-35.046382 21.984679 11.477101 42.933657 -0.560253 1.300184 0.023800 -0.001943 -239819.000000 0 0 1
-33.884739 21.743379 10.482701 41.603330 -0.570509 1.316083 0.044718 -0.009862 -115965.000000 0 0 1
-33.969329 20.432679 9.982601 40.878625 -0.541524 1.324101 0.061049 -0.010208 -295386.000000 0 0 1
-32.831199 20.124779 9.237801 39.600900 -0.549907 1.335355 0.076738 -0.009807 -118674.000000 0 0 1
-31.953069 18.989679 9.868401 38.457663 -0.536217 1.311289 0.079997 -0.019646 -50916.700000 0 0 1
-31.273799 19.351979 11.021801 38.393094 -0.554123 1.279622 0.081929 -0.021992 -124975.000000 0 0 1
-30.811939 18.245379 11.768901 37.693188 -0.534630 1.253258 0.079462 -0.025993 134769.000000 0 0 1
-30.132309 18.530879 13.145701 37.738031 -0.551364 1.214996 0.056576 -0.017933 652107.000000 0 0 1
-29.015069 19.410879 13.155301 37.305742 -0.589611 1.210411 0.055840 -0.011838 342460.000000 0 0 1
-29.449059 20.737379 13.095901 38.324778 -0.613524 1.222062 0.058863 -0.007778 61862.400000 0 0 1
-28.266669 21.639779 13.466501 38.060889 -0.653384 1.209150 0.054847 -0.017669 371699.000000 0 0 1
-27.689089 21.418279 14.759401 37.990370 -0.658390 1.171789 0.052089 -0.008318 1024490.000000 0 0 1
-26.617349 22.366079 15.079701 37.896202 -0.698825 1.161547 0.051620 -0.009423 664213.000000 0 0 1
-26.124369 22.221279 16.501801 38.060180 -0.704840 1.122344 0.046308 -0.008193 -412133.000000 0 0 1
-25.217359 21.144379 16.582501 36.850770 -0.697771 1.104041 0.049332 -0.016142 38241.000000 0 0 1
-25.081929 20.801779 17.923701 37.189733 -0.692385 1.067914 0.049326 -0.005382 130045.000000 0 0 1
-23.966689 19.725479 18.197901 35.981388 -0.688631 1.040535 0.051684 -0.002698 444311.000000 0 0 1
-23.678689 19.629579 19.566501 36.453376 -0.692174 1.004211 0.050564 -0.003209 -595004.000000 0 0 1
-22.659289 18.737579 19.795701 35.445874 -0.690946 0.978248 0.039095 0.005218 -730024.000000 0 0 1
-22.176389 18.807279 21.248501 36.013952 -0.703376 0.939728 0.030079 -0.003878 -13405.500000 0 0 1
-22.829389 17.922979 22.175301 36.526129 -0.665579 0.918380 0.033871 0.009526 284628.000000 0 0 1
-22.706689 18.273579 23.518801 37.451988 -0.677640 0.891852 0.036708 -0.000688 -201145.000000 0 0 1
-23.449089 17.373279 24.499901 38.104274 -0.637647 0.872427 0.025401 0.006691 -519403.000000 0 0 1
-22.721389 16.254279 24.888701 37.415378 -0.620969 0.843035 0.029626 0.002891 442410.000000 0 0 1
-23.567989 15.359079 25.663401 38.078361 -0.577564 0.831236 0.026532 -0.001223 561755.000000 0 0 1
20.052111 25.393279 33.496036 46.571345 0.902391 0.768087 0.042365 -0.001864 -363753.000000 0 0 1
20.851111 24.339179 33.056998 46.042693 0.862432 0.769923 0.040098 -0.016570 -223211.000000 0 0 1
20.686911 23.108479 33.733331 45.824531 0.840635 0.743445 0.047861 -0.016557 -199197.000000 0 0 1
19.653011 22.162479 33.104136 44.421843 0.845339 0.729929 0.037405 -0.014914 -232096.000000 0 0 1
20.107811 21.519379 31.915875 43.428456 0.819295 0.745267 0.035924 -0.014836 344765.000000 0 0 1
19.197611 20.507379 31.487715 42.196884 0.818374 0.728447 0.030416 -0.010685 -71382.400000 0 0 1
19.554611 19.839979 30.135335 41.038348 0.792642 0.746130 0.018163 0.007510 -454852.000000 0 0 1
20.634411 18.962779 30.075505 41.108416 0.743207 0.750109 0.031022 -0.001615 -453572.000000 0 0 1
20.852711 18.619379 28.733535 40.089061 0.728878 0.771677 0.020613 -0.002362 -36905.200000 0 0 1
21.977511 17.598279 28.405095 39.994497 0.675192 0.780978 0.036381 -0.001389 -69237.400000 0 0 1
23.278011 18.118179 28.577875 41.071025 0.661393 0.801241 0.052186 -0.006547 -598815.000000 0 0 1
24.070811 17.243279 29.305965 41.660223 0.621619 0.790554 0.042415 -0.001281 -617170.000000 0 0 1
25.443111 17.897779 29.419815 42.815977 0.613033 0.813275 0.035218 -0.016986 -482268.000000 0 0 1
26.315511 18.084279 28.316715 42.677671 0.602090 0.845307 0.030480 -0.010142 193596.000000 0 0 1
27.518011 18.676679 28.767065 43.972756 0.596292 0.857669 0.044013 -0.016596 121913.000000 0 0 1
28.764311 18.377779 27.906195 44.089500 0.568539 0.885446 0.045569 -0.001251 32935.100000 0 0 1
28.744211 19.174879 26.727565 43.683731 0.588293 0.912408 0.054675 -0.012326 -208351.000000 0 0 1
29.809611 18.880279 25.878065 43.757880 0.564590 0.938012 0.059142 -0.013039 -568643.000000 0 0 1
30.236111 20.078579 24.992965 44.068356 0.586196 0.967766 0.057503 -0.013097 156921.000000 0 0 1
29.248011 20.531379 24.056205 43.077658 0.612050 0.978295 0.052221 -0.013181 446647.000000 0 0 1
29.765311 21.474079 23.147835 43.392765 0.624975 1.008123 0.026971 -0.013454 12077.000000 0 0 1
30.467111 20.859679 21.951835 42.956421 0.600358 1.034419 0.028457 -0.006847 334186.000000 0 0 1
29.491811 20.114879 21.176335 41.506776 0.598577 1.035391 0.039871 -0.003145 809441.000000 0 0 1
29.925611 19.647879 19.893735 40.955366 0.580971 1.063585 0.021237 0.000656 -162292.000000 0 0 1
30.949611 18.496079 19.832635 41.149930 0.538667 1.067906 0.020585 -0.009833 -7312.700000 0 0 1
30.387211 17.284679 20.298435 40.424858 0.517173 1.044739 0.017910 -0.005352 153329.000000 0 0 1
31.397211 16.302079 20.280635 40.778018 0.478906 1.050264 0.017551 -0.000596 -335519.000000 0 0 1
30.978311 14.891479 20.757035 40.153037 0.448094 1.027515 0.022340 -0.004035 -515.378000 0 0 1
30.678011 14.723179 22.125435 40.588757 0.447460 0.994273 0.017214 0.001535 815234.000000 0 0 1
29.464611 15.365579 22.555735 40.162489 0.480694 0.974464 0.016258 0.004901 601934.000000 0 0 1
28.634811 14.639979 23.700335 39.949809 0.472619 0.935703 0.017198 -0.000553 548974.000000 0 0 1
28.047911 13.423279 23.268935 38.837006 0.446368 0.928366 0.013523 -0.002390 -420563.000000 0 0 1
27.349911 12.788079 24.254175 38.727478 0.437371 0.894026 0.012462 0.004696 -355514.000000 0 0 1
26.901711 11.360179 23.857065 37.708292 0.399568 0.885795 0.025265 0.000215 -524121.000000 0 0 1
25.788411 11.397079 23.028235 36.403779 0.416136 0.885919 0.034578 -0.004032 -464391.000000 0 0 1
25.427411 10.112579 22.693135 35.549906 0.378525 0.878449 0.035931 -0.000361 -434289.000000 0 0 1
24.165111 9.871579 21.864135 34.050566 0.387817 0.873552 0.039140 -0.011788 -535276.000000 0 0 1
22.940311 9.915079 22.548335 33.659977 0.407963 0.836742 0.032433 -0.011302 132200.000000 0 0 1
21.927111 9.329879 21.741835 32.257592 0.402290 0.831177 0.029297 -0.002704 -249857.000000 0 0 1
20.521811 9.339979 22.342335 31.742083 0.427107 0.789964 0.021603 -0.007350 -416500.000000 0 0 1
20.185311 8.553379 23.459735 32.108663 0.400805 0.751544 0.023949 -0.001805 -45880.500000 0 0 1
18.819011 8.721279 23.743735 31.527461 0.433965 0.718015 0.018744 -0.001676 -234477.000000 0 0 1
18.351411 8.079379 25.083685 32.112955 0.414724 0.674358 0.015354 0.008828 -393454.000000 0 0 1
18.391111 6.684879 24.956515 31.713533 0.348637 0.664969 0.007155 0.006422 172682.000000 0 0 1
18.054311 6.030379 26.122045 32.321585 0.322362 0.629721 0.008068 0.001879 -216710.000000 0 0 1
18.205211 4.476879 25.991165 32.047040 0.241127 0.624883 0.010262 -0.001590 -573931.000000 0 0 1
19.487711 4.089979 25.622375 32.450037 0.206872 0.660648 0.018955 0.000010 -740384.000000 0 0 1
19.764211 2.750979 25.730755 32.561690 0.138301 0.659636 0.023981 0.006192 -395985.000000 0 0 1
21.252511 2.472879 25.479915 33.271766 0.115836 0.698493 0.047568 -0.002336 -790628.000000 0 0 1
22.087711 2.980579 26.451325 34.589354 0.134133 0.700183 0.050250 -0.012905 469106.000000 0 0 1
23.430411 2.715279 25.998685 35.103967 0.115372 0.736804 0.065593 -0.022213 747125.000000 0 0 1
24.589911 3.099779 26.936085 36.603620 0.125398 0.743822 0.060795 -0.026256 -382320.000000 0 0 1
24.615011 2.322479 28.104535 37.432039 0.094074 0.721501 0.060509 -0.026762 207115.000000 0 0 1
25.279611 2.888879 29.236035 38.757581 0.113783 0.716162 0.063281 -0.015978 -286515.000000 0 0 1
26.804911 2.865179 29.199635 39.740800 0.106486 0.745495 0.067496 -0.019676 -1223240.000000 0 0 1
27.355311 4.070479 28.644715 39.817101 0.147716 0.767848 0.072011 -0.013606 943313.000000 0 0 1
28.782411 4.111879 28.520515 40.727810 0.141901 0.795019 0.060602 -0.006150 532044.000000 0 0 1
29.313111 3.220579 27.375135 40.237155 0.109429 0.822563 0.065258 -0.011793 -956341.000000 0 0 1
29.056711 3.589479 26.084765 39.212138 0.122911 0.843006 0.062830 -0.015552 -33985.400000 0 0 1
29.387811 2.468979 25.338595 38.881663 0.083817 0.860993 0.051152 0.005086 -272954.000000 0 0 1
29.009511 2.524479 23.839245 37.632889 0.086804 0.884769 0.075895 -0.020178 79565.600000 0 0 1
29.644511 3.471179 22.972935 37.664331 0.116563 0.914813 0.064297 -0.011694 250359.000000 0 0 1
30.982811 3.068279 22.662335 38.508835 0.098710 0.941598 0.057103 -0.007534 569114.000000 0 0 1
31.819911 4.163179 21.987535 38.901034 0.130097 0.970100 0.047118 -0.002265 -454130.000000 0 0 1
31.402111 4.345679 20.603135 37.808288 0.137515 0.994482 0.048472 -0.013956 131493.000000 0 0 1
31.831911 5.563479 19.895635 37.948111 0.173029 1.018921 0.038632 -0.000692 799055.000000 0 0 1
33.394311 5.681079 19.740735 39.206521 0.168508 1.043144 0.024353 -0.003480 676675.000000 0 0 1
34.214111 5.874079 20.868535 40.504394 0.170028 1.029536 0.027356 0.003441 67752.500000 0 0 1
34.046511 7.126379 21.543635 40.915503 0.206334 1.016271 0.025888 0.003121 -504868.000000 0 0 1
34.737411 7.100179 22.903435 42.209804 0.201619 0.997256 0.020742 -0.002711 456819.000000 0 0 1
34.037511 6.212179 23.818965 42.005790 0.180523 0.967888 0.021872 0.000059 706999.000000 0 0 1
34.934911 5.917279 24.869615 43.289259 0.167788 0.958805 0.029137 -0.009393 339714.000000 0 0 1
34.335211 4.831179 25.833395 43.239002 0.139789 0.930472 0.024377 -0.009945 168511.000000 0 0 1
34.132711 3.550679 25.242505 42.600861 0.103653 0.936594 0.021695 -0.007926 -6280.080000 0 0 1
33.676611 2.670879 26.242375 42.777447 0.079144 0.910358 0.031393 -0.005112 -180276.000000 0 0 1
33.542911 1.187679 25.820575 42.346659 0.035393 0.915060 0.016242 -0.003858 -912818.000000 0 0 1
32.521811 0.788479 25.001735 41.028973 0.024240 0.915533 0.025305 -0.003636 -613068.000000 0 0 1
32.509911 -0.620621 24.920125 40.966964 -0.019088 0.916882 0.028851 -0.010226 -159075.000000 0 0 1
31.516211 -1.101121 23.835545 39.529953 -0.034924 0.923572 0.040451 -0.004099 269641.000000 0 0 1
30.170011 -1.113321 24.290545 38.749189 -0.036885 0.893272 0.041103 -0.009022 -190229.000000 0 0 1
29.381011 -1.663521 23.257935 37.509234 -0.056559 0.901979 0.048323 -0.014043 -121836.000000 0 0 1
27.865011 -1.568921 23.491235 36.479562 -0.056245 0.871138 0.052194 -0.009702 -126976.000000 0 0 1
27.339211 -0.253821 23.200735 35.857649 -0.009284 0.867122 0.044098 -0.005561 -762609.000000 0 0 1
25.957911 -0.425121 23.261235 34.857982 -0.016376 0.840199 0.054409 -0.009724 -884214.000000 0 0 1
25.153111 0.855079 23.228535 34.248722 0.033982 0.825444 0.061935 -0.003277 -348032.000000 0 0 1
25.235411 1.555279 21.998735 33.514015 0.061553 0.854754 0.058282 -0.010305 -374333.000000 0 0 1
24.249711 2.512179 22.048835 32.871122 0.103228 0.835555 0.048215 -0.003374 -559326.000000 0 0 1
24.178211 3.557779 20.909735 32.163033 0.146100 0.863058 0.039807 -0.008349 -346392.000000 0 0 1
23.765811 2.966979 19.688135 31.003861 0.124200 0.882759 0.038683 -0.006364 207716.000000 0 0 1
23.453411 4.040379 18.791235 30.323220 0.170598 0.902439 0.044290 -0.006754 74199.100000 0 0 1
23.084311 3.629179 17.338035 29.097488 0.155938 0.932460 0.042994 -0.010323 391346.000000 0 0 1
24.238811 3.127679 16.662035 29.579144 0.128327 0.972418 0.045416 -0.015870 477635.000000 0 0 1
24.216511 3.277979 15.235735 28.797781 0.134544 1.013305 0.035149 -0.015593 -488148.000000 0 0 1
23.746111 2.072679 14.423535 27.860584 0.087064 1.026631 0.033465 -0.005055 -997816.000000 0 0 1
22.387011 1.839679 14.399535 26.681628 0.081992 1.000740 0.053166 -0.005446 -762111.000000 0 0 1
22.084611 0.747579 13.563435 25.927894 0.033838 1.020287 0.049800 -0.012376 -302511.000000 0 0 1
20.588111 0.315579 13.607935 24.680879 0.015327 0.986808 0.059885 -0.019946 -564225.000000 0 1 0
19.770411 0.897579 12.674835 23.501622 0.045369 1.001170 0.080615 -0.016406 -111684.000000 0 1 0
19.957611 0.654579 11.301635 22.944752 0.032787 1.055769 0.082667 -0.021644 -1328390.000000 0 1 0
19.669611 -0.816321 10.832335 22.469968 -0.041478 1.067768 0.078892 -0.018213 36894.300000 0 1 0
20.602111 -1.880021 11.043235 23.450682 -0.091002 1.080471 0.061051 -0.025764 891513.000000 0 1 0
21.927111 -1.709021 10.518035 24.379254 -0.077784 1.124715 0.074240 -0.017729 231268.000000 0 1 0
22.897911 -2.560621 11.336835 25.678686 -0.111365 1.113540 0.052791 -0.016282 -536780.000000 0 0 1
23.001711 -2.232021 12.714135 26.376312 -0.096734 1.067828 0.033527 -0.023640 251601.000000 0 0 1
23.814511 -3.119621 13.479235 27.541836 -0.130255 1.059384 0.023723 -0.012155 -70438.500000 0 0 1
24.123211 -2.507821 14.833335 28.429673 -0.103587 1.021889 0.041994 -0.018032 -152831.000000 0 0 1
25.076111 -1.470021 14.725935 29.117443 -0.058555 1.040554 0.019435 -0.014797 -44660.400000 0 0 1
25.375111 -0.976621 15.989035 30.008320 -0.038468 1.008867 0.018985 -0.025151 -183932.000000 0 0 1
26.677511 -0.159021 16.106135 31.162838 -0.005961 1.027643 0.033638 -0.014866 655861.000000 0 0 1
27.843711 -1.006921 15.920435 32.089662 -0.036148 1.051668 0.041225 -0.014167 957238.000000 0 0 1
28.981111 -0.211521 16.257435 33.230313 -0.007298 1.059584 0.038866 -0.009078 952411.000000 0 0 1
30.370511 -0.955221 16.300935 34.481892 -0.031442 1.078400 0.039745 -0.005646 801083.000000 0 0 1
30.658011 -1.459821 15.002735 34.163237 -0.047580 1.116146 0.053183 -0.004769 -51797.000000 0 0 1
31.804911 -2.272321 14.967835 35.224308 -0.071324 1.131913 0.054841 -0.005844 -245399.000000 0 0 1
32.091811 -2.744921 13.537435 34.938247 -0.085326 1.172913 0.056857 -0.002106 -338384.000000 0 0 1
32.322511 -1.732121 12.547935 34.715928 -0.053537 1.200978 0.054801 -0.000633 382626.000000 0 0 1
32.775411 -2.334021 11.345135 34.761866 -0.071093 1.238338 0.049345 -0.000880 -163285.000000 0 0 1
32.563811 -1.359721 10.168835 34.141702 -0.041731 1.268365 0.052167 -0.006683 -299041.000000 0 0 1
33.308511 -0.136221 10.245435 34.848879 -0.004090 1.272391 0.040610 0.000984 628692.000000 0 0 1
32.488011 0.980279 9.893135 33.975078 0.030164 1.275328 0.033735 -0.001796 -136245.000000 0 0 1
33.212311 2.214079 9.374035 34.580808 0.066566 1.296285 0.030701 0.002550 2876.390000 0 0 1
33.933111 1.984379 8.158835 34.956550 0.058413 1.335224 0.020633 0.002980 340505.000000 0 0 1
34.276511 3.254079 7.577435 35.254585 0.094652 1.354171 0.014273 0.002191 38513.300000 0 0 1
34.446811 3.406279 5.984235 35.128288 0.098565 1.399608 0.020674 0.001658 -209089.000000 0 0 1
34.598711 4.720579 5.530935 35.354574 0.135601 1.413709 0.004228 0.012973 141224.000000 0 0 1
34.769811 4.844079 4.098435 35.344052 0.138428 1.454577 0.036089 -0.007802 -39320.600000 0 0 1
35.311111 6.267479 3.755235 36.059085 0.175664 1.466466 0.059361 -0.016687 -8377.180000 0 0 1
34.290211 7.222979 3.906735 35.259787 0.207608 1.459770 0.041702 -0.014662 -67928.100000 0 0 1
34.624311 8.528779 3.466635 35.827371 0.241515 1.473885 0.048126 -0.028005 148290.000000 0 0 1
33.353011 9.468379 3.486735 34.845816 0.276606 1.470567 0.040193 -0.030495 945797.000000 0 0 1
32.402411 9.189879 2.457635 33.769958 0.276360 1.497956 0.042349 -0.030471 561127.000000 0 0 1
31.434111 8.191179 2.838835 32.607633 0.254914 1.483626 0.034261 -0.018720 97858.300000 0 0 1
30.268311 8.101079 1.798435 31.385227 0.261513 1.513463 0.034852 -0.030056 43878.100000 0 0 1
30.609011 7.793679 0.458635 31.588975 0.249323 1.556277 0.044544 -0.032113 -269117.000000 0 0 1
29.487611 7.785079 -0.364665 30.500158 0.258122 1.582753 0.042600 -0.022542 -172799.000000 0 0 1
29.970311 7.666679 -1.862165 30.991373 0.250439 1.630919 0.036514 -0.015514 480761.000000 0 0 1
28.940311 7.155279 -2.685365 29.932437 0.242382 1.660631 0.041352 -0.015048 854098.000000 0 0 1
29.572311 6.907479 -3.901965 30.617972 0.229465 1.698584 0.039414 -0.015787 171707.000000 0 0 1
28.634211 6.112679 -4.883065 29.683787 0.210318 1.736050 0.039190 -0.007554 -35722.600000 0 0 1
28.466811 4.753079 -4.517065 29.212240 0.165443 1.726048 0.046703 -0.012987 285394.000000 0 0 1
27.482611 4.234279 -5.359565 28.318686 0.152869 1.761204 0.043246 -0.016811 -568586.000000 0 0 1
27.318711 2.706679 -5.349365 27.968800 0.098756 1.763244 0.052292 -0.009868 -511798.000000 0 0 1
26.770711 2.244479 -4.121165 27.178901 0.083645 1.723015 0.047298 -0.020655 458298.000000 0 0 1
26.799011 0.783179 -4.061265 27.116309 0.029216 1.721134 0.049699 -0.021183 -150650.000000 0 0 1
26.708311 0.187179 -2.610065 26.836195 0.007008 1.668209 0.051513 -0.022611 313211.000000 0 0 1
27.971011 0.364579 -1.979865 28.043364 0.013033 1.641455 0.059417 -0.019932 589011.000000 0 0 1
27.857011 0.355579 -0.639365 27.866616 0.012764 1.593742 0.065016 -0.015564 -264726.000000 0 0 1
29.186311 0.706479 0.027835 29.194874 0.024201 1.569843 0.076388 -0.018791 -22071.000000 0 0 1
30.276411 -0.173321 -0.211365 30.277645 -0.005725 1.577777 0.065890 -0.011451 788843.000000 0 0 1
31.526311 0.355579 0.210035 31.529016 0.011278 1.564135 0.048603 -0.016569 -12570.900000 0 0 1
-3.350289 -21.442321 -8.821399 23.426794 1.415803 1.956868 0.005909 0.011582 26047.600000 0 1 0
-3.505789 -21.862321 -7.491999 23.374809 1.411792 1.897070 0.000148 -0.000818 -206476.000000 0 1 0
-2.635189 -22.922321 -7.084399 24.136399 1.456337 1.868698 -0.002653 -0.002339 153454.000000 0 1 0
-3.120589 -23.576021 -5.785299 24.475223 1.439198 1.809428 -0.008171 0.002151 -536835.000000 0 1 0
-3.028389 -22.807021 -4.653899 23.473179 1.438785 1.770383 -0.006212 -0.005073 -92490.200000 0 1 0
-3.475089 -23.525821 -3.513999 24.039316 1.424143 1.717499 -0.008847 -0.003232 -88269.900000 0 1 0
-3.035589 -22.814821 -2.247499 23.125357 1.438520 1.668138 -0.009875 -0.007494 993049.000000 0 1 0
-1.654389 -22.930621 -1.868599 23.066037 1.498774 1.651896 0.011028 -0.010830 339016.000000 0 1 0
-1.520389 -22.646921 -0.523399 22.703933 1.503762 1.593852 0.005595 -0.010267 956423.000000 0 1 0
-0.040289 -22.381421 -0.093899 22.381654 1.568996 1.574992 0.020687 -0.017965 1316130.000000 0 1 0
0.785711 -21.338621 -0.666099 21.363468 -1.533992 1.601981 0.012307 -0.015375 412986.000000 0 1 0
2.109711 -21.403221 -0.164699 21.507577 -1.472544 1.578454 0.008632 -0.009256 578511.000000 0 1 0
2.975411 -20.203621 -0.665599 20.432386 -1.424576 1.603378 0.014942 -0.008587 429330.000000 0 1 0
3.502011 -20.384521 -1.959399 20.775756 -1.400660 1.665249 0.009895 -0.013369 -1113590.000000 0 1 0
4.602611 -19.583221 -2.167999 20.233309 -1.339958 1.678152 0.019740 -0.008568 -741470.000000 0 1 0
5.489511 -20.181521 -3.296699 21.173019 -1.305215 1.727135 0.010663 -0.003595 -1065140.000000 0 1 0
6.189711 -21.398421 -2.917199 22.465863 -1.289221 1.701014 0.016795 -0.003312 213595.000000 0 1 0
6.872911 -22.119421 -3.961399 23.498902 -1.269535 1.740183 0.004587 0.000627 836486.000000 0 1 0
8.143411 -21.295521 -4.409199 23.221873 -1.205554 1.761829 0.011191 -0.000018 -246204.000000 0 1 0
7.841011 -20.125021 -5.184499 22.212090 -1.199274 1.806378 -0.003759 0.001249 -660688.000000 0 1 0
9.025411 -19.698021 -5.797699 22.429521 -1.141154 1.832250 0.008844 0.006220 -453286.000000 0 1 0
8.838711 -18.317721 -6.397899 21.321230 -1.121228 1.875564 0.001492 0.004421 -472245.000000 0 1 0
9.678911 -17.996621 -7.457499 21.752563 -1.077354 1.920727 0.006542 0.005726 -371665.000000 0 1 0
9.193711 -17.016921 -8.264199 21.033234 -1.075455 1.974592 0.002156 0.012441 -165548.000000 0 1 0
10.065011 -16.840021 -9.522999 21.807757 -1.032082 2.022701 0.009609 0.004176 -124638.000000 0 1 0
9.653811 -17.589721 -10.683899 22.731917 -1.068850 2.060082 0.014611 0.006574 60348.000000 0 1 0
8.984911 -16.711721 -11.579699 22.228353 -1.077491 2.118751 0.002708 -0.003961 159291.000000 0 1 0
8.420011 -17.247021 -12.903399 23.126911 -1.116632 2.162696 0.002088 -0.007624 956477.000000 0 1 0
7.227111 -18.048621 -12.684199 23.213633 -1.189924 2.148870 0.000130 0.000504 873982.000000 0 1 0
6.665211 -18.450121 -13.920199 24.054188 -1.224130 2.187932 0.002370 0.004594 -191079.000000 0 1 0
5.412811 -19.335021 -13.821099 24.375487 -1.297835 2.173665 0.005206 0.015939 -140397.000000 0 1 0
5.669811 -20.555621 -13.159299 25.056885 -1.301661 2.123719 0.007372 0.000775 -133193.000000 0 0 1
4.448511 -21.196821 -12.838199 25.177646 -1.363932 2.105870 0.011610 0.004052 179217.000000 0 0 1
4.595411 -22.703121 -12.569099 26.353971 -1.371081 2.067959 0.017068 -0.004825 -5832.280000 0 0 1
5.042811 -23.423921 -13.722999 27.612148 -1.358748 2.090924 0.020796 -0.013283 -30683.400000 0 0 1
4.657211 -24.800921 -13.692799 28.710069 -1.385174 2.067959 0.024014 -0.012934 762196.000000 0 0 1
3.260411 -25.145751 -14.325599 29.123219 -1.441855 2.085063 0.029088 -0.015494 458464.000000 0 0 1
2.181911 -24.560421 -13.629799 28.173506 -1.482190 2.075766 0.031310 -0.009322 807893.000000 0 0 1
0.865111 -24.840321 -14.177099 28.614334 -1.535984 2.089154 0.025769 -0.011611 1451900.000000 0 0 1
0.255411 -26.135481 -13.550499 29.440527 -1.561024 2.049092 0.013614 -0.014684 -1075870.000000 0 0 1
0.771711 -27.299821 -14.146399 30.757054 -1.542536 2.048724 0.016754 -0.011138 126169.000000 0 0 1
0.364211 -28.489341 -13.507599 31.531420 -1.558013 2.013501 0.003271 0.003700 -225306.000000 0 0 1
-1.023889 -29.009851 -13.918299 32.192217 1.535516 2.017893 -0.003645 -0.007333 197112.000000 0 0 1
-2.124689 -28.260571 -13.440399 31.365881 1.495755 2.013633 -0.003622 -0.010639 -502911.000000 0 0 1
-3.350789 -28.861431 -13.709899 32.127423 1.455215 2.011676 -0.009956 0.001683 -560134.000000 0 0 1
-4.558089 -28.104951 -13.083299 31.334281 1.410015 2.001532 -0.020625 -0.008151 177240.000000 0 0 1
-4.828189 -28.198961 -11.673699 30.899322 1.401222 1.958213 -0.028993 -0.004607 -206273.000000 0 0 1
-5.067589 -29.537451 -11.317999 32.034959 1.400886 1.931894 -0.028731 -0.007349 -694223.000000 0 0 1
-5.560989 -29.676681 -9.842499 31.756964 1.385559 1.885918 -0.016940 -0.007951 -24563.800000 0 0 1
-6.865089 -29.340721 -9.427099 31.573368 1.340953 1.873998 -0.009836 -0.004695 -410585.000000 0 0 1
-7.068789 -27.926431 -9.251699 30.256359 1.322882 1.881551 -0.007879 -0.003723 -2262570.000000 0 0 1
-8.443189 -27.639891 -8.733199 30.191386 1.274328 1.864251 -0.001679 -0.002210 -565971.000000 0 0 1
-9.555689 -27.770651 -9.621399 30.904556 1.239393 1.887385 -0.000310 -0.004025 273946.000000 0 0 1
-9.771589 -29.070521 -10.118899 32.295066 1.246527 1.889490 0.008271 -0.016963 -1822670.000000 0 0 1
-10.870289 -29.230871 -11.139399 33.116359 1.214766 1.913858 0.013412 -0.017229 -915164.000000 0 0 1
-10.683689 -28.490791 -12.315999 32.826060 1.212037 1.955398 0.017911 -0.022513 -135422.000000 0 0 1
-11.321689 -29.153281 -13.358299 34.007920 1.200373 1.974470 0.024587 -0.019949 -618010.000000 0 0 1
-11.647589 -28.245171 -14.543799 33.837525 1.179668 2.015082 0.028590 -0.017317 47533.800000 0 0 1
-12.801489 -27.406351 -14.552499 33.567267 1.133814 2.019205 0.019748 -0.028339 398798.000000 0 0 1
-12.713989 -26.378251 -13.543399 32.262692 1.121662 2.004005 0.025827 -0.019070 -341187.000000 0 0 1
-13.688589 -25.169471 -13.640399 31.732322 1.072682 2.015132 0.045808 -0.015894 -38823.600000 0 0 1
-13.387389 -24.350721 -14.764099 31.466783 1.068127 2.059177 0.033353 -0.006891 388237.000000 0 0 1
-14.359589 -23.323121 -14.926599 31.192453 1.018927 2.069779 0.043388 -0.005195 -284558.000000 0 0 1
-14.197189 -22.619221 -16.235599 31.253544 1.010286 2.117039 0.033491 -0.004997 -349601.000000 0 0 1
-13.145789 -21.707821 -16.342599 30.184794 1.026285 2.142919 0.025872 -0.002627 -290177.000000 0 0 1
-13.136189 -21.123921 -17.663899 30.508898 1.014456 2.188268 0.015688 0.007250 -102187.000000 0 0 1
-13.296689 -19.577221 -17.594299 29.489471 0.974173 2.210091 0.020770 0.013936 -387273.000000 0 0 1
-12.099589 -18.858721 -17.612599 28.500089 1.000355 2.236972 0.021024 0.016678 -542062.000000 0 0 1
-12.312389 -17.481121 -17.613399 27.702281 0.957174 2.259854 0.022057 0.015719 29979.100000 0 0 1
-11.084889 -16.547221 -17.658599 26.617878 0.980563 2.296165 0.038475 0.002519 -42828.500000 0 0 1
-10.338589 -16.359721 -16.485999 25.422727 1.007212 2.276376 0.034658 0.009171 -827345.000000 0 0 1
-9.175489 -15.712121 -16.848699 24.797964 1.042243 2.317794 0.037299 0.004643 -1329670.000000 0 1 0
-8.431889 -15.050321 -15.667499 23.304065 1.060120 2.308118 0.023423 0.003325 -142253.000000 0 1 0
-7.947389 -15.863521 -14.586599 22.969135 1.106361 2.258872 0.025242 0.007186 -301150.000000 0 1 0
-6.855289 -16.621621 -14.992899 23.410688 1.179619 2.265854 0.031169 0.010467 -1102750.000000 0 1 0
-6.346289 -17.407721 -13.773699 23.087203 1.221203 2.210047 0.022393 0.009176 -836105.000000 0 1 0
-5.898089 -16.654021 -12.684599 21.749550 1.230426 2.193474 0.022896 0.000123 84668.800000 0 1 0
-5.570689 -17.417421 -11.547699 21.627494 1.261244 2.134045 0.013151 -0.002657 -58395.400000 0 1 0
-4.448089 -18.480921 -11.661599 22.300736 1.334603 2.121075 0.021903 -0.002886 849444.000000 0 1 0
-3.133089 -17.889221 -11.837099 21.678501 1.397416 2.148414 0.026652 0.001344 444704.000000 0 1 0
-2.107389 -18.808621 -11.554299 22.174471 1.459218 2.118892 0.005847 0.003706 -402015.000000 0 1 0
-0.759489 -18.420221 -12.112199 22.058711 1.529588 2.152070 0.009722 0.009275 -1087620.000000 0 1 0
-0.679689 -18.412321 -13.506399 22.845095 1.533898 2.203363 0.011936 0.014773 329178.000000 0 1 0
0.542411 -17.782521 -13.937199 22.599951 -1.540303 2.235329 0.017672 0.014126 1304550.000000 0 1 0
1.832511 -18.648321 -14.006099 23.394204 -1.472844 2.212673 0.021029 0.009808 -262351.000000 0 1 0
1.828811 -19.578621 -15.038899 24.755513 -1.477658 2.223702 0.028742 0.007069 -179070.000000 0 1 0
1.141911 -20.768521 -14.758199 25.503723 -1.515869 2.187891 0.019362 0.006824 -931878.000000 0 0 1
0.936011 -21.726221 -15.983299 26.988343 -1.527741 2.204620 0.022567 -0.003794 -215729.000000 0 0 1
1.988911 -22.508521 -16.497399 27.977732 -1.482663 2.201436 0.018416 -0.003200 -542111.000000 0 0 1
3.083511 -21.721921 -16.896599 27.691966 -1.429785 2.227062 0.022215 -0.002935 -461210.000000 0 0 1
4.351311 -22.587121 -17.153699 28.694274 -1.380482 2.211562 0.027063 -0.012672 149617.000000 0 0 1
4.361411 -23.278921 -18.395799 29.988923 -1.385589 2.231180 0.030614 -0.022781 689172.000000 0 0 1
5.649211 -23.920121 -18.449599 30.732287 -1.338876 2.214713 0.039521 -0.019496 862677.000000 0 0 1
6.280011 -23.863521 -19.834699 31.659461 -1.313467 2.247853 0.035198 -0.019064 -103666.000000 0 0 1
6.563111 -22.516521 -20.187299 30.945035 -1.287174 2.281490 0.037761 -0.024427 -212928.000000 0 0 1
6.866311 -22.339121 -21.529799 31.776010 -1.272594 2.315221 0.029402 -0.021700 -138499.000000 0 0 1
7.049011 -20.863421 -21.950399 31.093262 -1.244973 2.354565 0.023569 -0.026252 -253858.000000 0 0 1
5.891111 -20.104021 -22.060699 30.422875 -1.285745 2.382027 0.028009 -0.020913 -438428.000000 0 0 1
6.275211 -18.868521 -22.537499 30.055586 -1.249728 2.418648 0.029272 -0.017429 923398.000000 0 0 1
5.021411 -17.950821 -22.807899 29.455845 -1.298037 2.456417 0.022857 -0.013864 -164574.000000 0 0 1
4.224711 -18.286421 -23.895099 30.384489 -1.343750 2.475795 0.031625 -0.012869 446868.000000 0 0 1
3.015611 -17.563021 -24.095699 29.969257 -1.400752 2.504812 0.036626 -0.005412 601429.000000 0 0 1
1.898211 -17.577021 -23.055499 29.053587 -1.463219 2.487419 0.026155 0.008483 -638885.000000 0 0 1
2.207511 -16.714721 -21.949699 27.677505 -1.439486 2.486599 0.023822 0.000347 213354.000000 0 0 1
1.337311 -15.587221 -22.141399 27.110725 -1.485211 2.526470 0.018309 -0.006966 406642.000000 0 0 1
1.297411 -14.562721 -21.023699 25.607656 -1.481940 2.533944 0.027479 -0.013172 35754.100000 0 0 1
2.493911 -13.820521 -20.879499 25.163066 -1.392268 2.549488 0.030201 -0.006729 -74193.100000 0 0 1
2.323411 -12.982521 -19.777999 23.772113 -1.393707 2.553469 0.032264 -0.013469 587774.000000 0 1 0
3.593111 -12.085821 -19.637799 23.337109 -1.281819 2.570820 0.042921 -0.017192 858138.000000 0 1 0
4.769411 -12.751121 -19.107499 23.461349 -1.212869 2.522533 0.036791 -0.022247 410860.000000 0 1 0
5.952511 -12.027421 -19.313999 23.518542 -1.111228 2.534350 0.033776 -0.007974 144460.000000 0 1 0
6.195011 -10.932421 -18.234499 22.144818 -1.055249 2.538209 0.035640 -0.013019 152631.000000 0 1 0
5.212411 -9.854621 -18.226699 21.365752 -1.084273 2.592657 0.021022 -0.004205 431228.000000 0 1 0
5.483311 -8.807821 -19.115099 21.749286 -1.013961 2.644314 0.033640 -0.009113 -363663.000000 0 1 0
4.948811 -8.919521 -20.556599 22.948254 -1.064253 2.680980 0.044671 -0.016235 511660.000000 0 1 0
3.526911 -8.746821 -20.571299 22.630164 -1.187515 2.711726 0.040733 -0.019783 232202.000000 0 1 0
3.108211 -8.886721 -21.896999 23.835129 -1.234336 2.735537 0.042575 -0.026509 96782.800000 0 1 0
1.590711 -8.736621 -22.123799 23.839492 -1.390695 2.759889 0.036875 -0.022343 -50496.100000 0 1 0
1.034211 -7.512421 -21.751999 23.035962 -1.433989 2.806144 0.031347 -0.022551 -429664.000000 0 1 0
-0.371689 -7.559521 -21.852499 23.126094 1.521668 2.808172 0.025684 -0.019097 57614.300000 0 1 0
-1.000789 -6.639721 -22.900599 23.864721 1.421195 2.856375 0.038890 -0.012433 -187704.000000 0 1 0
-0.829789 -6.998821 -24.244599 25.248220 1.452786 2.858692 0.038137 -0.008871 -172750.000000 0 0 1
-1.441889 -6.126621 -25.222409 25.995855 1.339654 2.897047 0.040785 -0.015762 -258917.000000 0 0 1
-0.640389 -4.885121 -25.631759 26.100988 1.440450 2.951690 0.041266 -0.017161 -162429.000000 0 0 1
-1.233489 -4.286721 -26.751629 27.120972 1.290619 2.976369 0.033786 -0.015708 94089.700000 0 0 1
-0.689789 -3.002321 -27.108159 27.282632 1.344964 3.028439 0.022505 -0.014596 -524144.000000 0 0 1
-1.194389 -1.764121 -26.251299 26.337604 0.975643 3.060615 0.034144 -0.013368 1375360.000000 0 0 1
-2.621889 -1.523821 -26.174259 26.349349 0.526475 3.026247 0.022951 -0.012247 1061690.000000 0 0 1
-3.239289 -1.137021 -27.395319 27.609588 0.337574 3.016927 0.029541 -0.008411 -497569.000000 0 0 1
-4.759589 -1.306921 -27.209369 27.653418 0.267982 2.962145 0.028101 -0.015306 -81578.200000 0 0 1
-5.256789 -0.179421 -26.483299 27.000577 0.034118 2.945534 0.030402 -0.016772 -438977.000000 0 0 1
-6.638789 -0.284821 -26.285849 27.112737 0.042876 2.893986 0.038707 -0.027414 -469132.000000 0 0 1
-7.322089 0.961679 -25.674509 26.715505 -0.130592 2.861515 0.040922 -0.020814 -853553.000000 0 0 1
-7.482889 2.148579 -26.483989 27.604559 -0.279610 2.855686 0.038556 -0.018909 1039820.000000 0 0 1
-8.573489 2.142779 -27.442869 28.830666 -0.244914 2.830057 0.050766 -0.025947 822426.000000 0 0 1
-10.012989 1.867179 -26.956479 28.816628 -0.184358 2.780323 0.051517 -0.025707 -1505310.000000 0 0 1
-11.020989 2.320679 -27.736409 29.935867 -0.207537 2.755872 0.056155 -0.030085 -1068750.000000 0 0 1
-12.280889 1.851679 -27.322789 30.013060 -0.149650 2.714958 0.040510 -0.015051 -56090.300000 0 0 1
-13.350989 2.589979 -28.188749 31.297963 -0.191612 2.692077 0.036619 -0.006876 -263208.000000 0 0 1
-14.629089 2.005279 -28.037889 31.688399 -0.136226 2.656861 0.030273 -0.005724 360075.000000 0 0 1
-15.748789 2.603679 -28.654849 32.800974 -0.163844 2.633343 0.025064 -0.006026 609266.000000 0 0 1
-16.323489 3.941979 -28.029649 32.675017 -0.236954 2.601831 0.016837 0.001947 -180529.000000 0 0 1
-15.543889 5.117879 -28.302969 32.693474 -0.318074 2.617357 0.036300 -0.000197 238113.000000 0 0 1
-15.504789 5.460079 -29.716479 33.959978 -0.338593 2.636323 0.023529 0.003258 316771.000000 0 0 1
-16.775089 6.022579 -30.462069 35.293239 -0.344687 2.612199 0.003334 0.014182 615621.000000 0 0 1
-17.220189 7.295379 -29.858209 35.231664 -0.400729 2.582020 0.006801 0.021629 937964.000000 0 0 1
-18.222589 8.034379 -30.604559 36.513738 -0.415262 2.564708 -0.006695 0.017712 226452.000000 0 0 1
-18.893389 9.078979 -29.670689 36.328196 -0.447957 2.526535 0.007751 0.017258 -577327.000000 0 0 1
-18.022989 10.062779 -29.205589 35.763866 -0.509216 2.526332 0.005706 0.020587 46587.100000 0 0 1
-18.609089 10.909179 -28.216179 35.517054 -0.530232 2.488882 0.030150 0.010601 1419.970000 0 0 1
-8.377289 24.962079 31.110595 40.757250 -1.247007 0.702368 0.006994 -0.010263 -371517.000000 0 0 1
-9.202389 26.149179 31.029735 41.608989 -1.232413 0.729143 0.007612 -0.011586 263023.000000 0 0 1
-8.872589 27.150679 31.931865 42.843041 -1.254946 0.729779 0.015450 -0.009861 35473.600000 0 0 1
-7.526889 27.886679 31.736675 42.913138 -1.307169 0.738386 0.013842 -0.011063 116513.000000 0 0 1
-7.642789 28.878779 30.786655 42.897718 -1.312077 0.770337 0.023618 -0.003322 748218.000000 0 0 1
-6.343589 29.123579 30.240935 42.461019 -1.356330 0.778162 0.019062 -0.000048 584884.000000 0 0 1
-6.366089 30.294979 29.172515 42.536437 -1.363673 0.815061 0.034698 -0.001836 -122258.000000 0 0 1
-6.618489 31.537679 29.823025 43.907202 -1.363938 0.824085 0.031269 -0.003752 367146.000000 0 0 1
-5.831289 32.514579 29.164195 44.065315 -1.393339 0.847526 0.038969 0.000285 23286.400000 0 0 1
-5.990989 33.932379 29.760475 45.530036 -1.396041 0.858406 0.040135 -0.008402 -347008.000000 0 0 1
-5.221689 34.176079 30.906055 46.372995 -1.419181 0.841337 0.050964 -0.017203 -131627.000000 0 0 1
-5.905689 -34.067143 31.882725 47.031431 1.399148 0.825891 0.051705 -0.020655 282017.000000 0 0 1
-7.167089 34.425779 32.620985 47.964884 -1.365539 0.822895 0.020020 -0.007649 163971.000000 0 0 1
-6.987389 33.412479 33.660915 47.940323 -1.364642 0.792395 0.023527 -0.007068 -51768.200000 0 0 1
-6.864489 32.028879 33.165917 46.614894 -1.359668 0.779183 0.033478 -0.001994 -100872.000000 0 0 1
-6.860789 31.034379 34.325673 46.780925 -1.353225 0.746966 0.025710 -0.000935 -264657.000000 0 0 1
-5.650089 31.077279 -33.832799 46.285841 -1.390953 2.390515 0.036061 -0.007711 -237704.000000 0 0 1
-5.787489 30.294979 -32.663099 44.923923 -1.382033 2.384849 0.031181 -0.011793 -463075.000000 0 0 1
-4.541989 30.205079 -31.729209 44.042243 -1.421543 2.375214 0.039195 -0.012922 1167040.000000 0 0 1
-3.524589 29.216879 -32.001869 43.476067 -1.450741 2.398057 0.041059 -0.008063 686538.000000 0 0 1
-2.948789 29.172279 -33.285199 44.357882 -1.470057 2.419431 0.046361 -0.014761 -890035.000000 0 0 1
-2.267989 27.832879 -33.525689 43.632382 -1.489490 2.447082 0.047003 -0.012360 -543387.000000 0 0 1
-1.101389 27.517679 -32.787139 42.818596 -1.530793 2.442959 0.064481 -0.012475 194327.000000 0 0 1
-0.648689 26.136879 -32.966809 42.075738 -1.545983 2.471093 0.068500 -0.012395 334558.000000 0 0 1
-0.082889 25.669179 -34.318085 42.856092 -1.567567 2.499384 0.061091 -0.004888 -1018100.000000 0 0 1
-1.080189 25.476779 33.615165 42.192563 -1.528423 0.648967 0.054328 -0.005566 -514766.000000 0 0 1
-0.644889 25.205579 32.277875 40.958495 -1.545217 0.663140 0.056292 -0.000616 -456557.000000 0 0 1
-0.259489 26.475979 31.465695 41.123409 -1.560996 0.699518 0.042913 -0.005302 -662688.000000 0 0 1
-1.309089 27.268179 31.076865 41.364705 -1.522825 0.720783 0.041715 -0.009866 -870114.000000 0 0 1
-0.821189 28.561479 30.812315 42.021794 -1.542053 0.747713 0.042669 -0.014520 -21200.100000 0 0 1
-1.909789 29.632979 30.638855 42.667319 -1.506437 0.769746 0.048944 -0.019253 -3527.680000 0 0 1
-2.591189 29.918079 31.840025 43.767487 -1.484402 0.756153 0.043565 -0.021380 -36342.600000 0 0 1
-3.178889 31.198079 31.926485 44.751826 -1.469253 0.776441 0.048677 -0.017167 36800.800000 0 0 1
-2.654189 31.965179 33.179609 46.148714 -1.487953 0.768475 0.063268 -0.018359 72215.800000 0 0 1
-1.374189 32.512379 32.968615 46.323566 -1.528555 0.778877 0.049209 -0.031095 -526065.000000 0 0 1
-1.016689 33.113179 34.187106 47.605404 -1.540103 0.769678 0.050385 -0.025641 -552214.000000 0 0 1
0.419811 33.642579 34.234628 48.000095 1.558318 0.776715 0.048276 -0.032397 -281212.000000 0 0 1
0.592811 -34.348443 33.257267 47.814357 -1.553539 0.801611 0.053336 -0.036975 -727605.000000 0 0 1
1.946011 -34.077343 33.208082 47.621728 -1.513753 0.799130 0.033773 -0.031341 -769865.000000 0 0 1
2.125011 -32.666843 32.685365 46.259825 -1.505837 0.786170 0.034714 -0.032888 -49009.200000 0 0 1
1.358911 -31.802043 33.468546 46.188312 -1.528092 0.760327 0.023840 -0.024064 429618.000000 0 0 1
1.887011 -30.502643 33.210742 45.132310 -1.509011 0.743871 0.008591 0.002713 91623.300000 0 0 1
1.574211 -29.518943 34.348827 45.317635 -1.517518 0.710621 0.006038 0.013697 302590.000000 0 0 1
0.194811 -29.187743 34.350657 45.076933 -1.564122 0.704331 0.008878 0.009771 123517.000000 0 0 1
-0.038989 -28.372143 -33.372589 43.803079 1.569422 2.437003 0.003105 0.013410 -399191.000000 0 0 1
-1.450889 -27.812343 -33.188139 43.325329 1.518676 2.443425 0.025981 0.022822 -241412.000000 0 0 1
-1.538489 -26.997343 -32.001459 41.896502 1.513871 2.440010 0.040330 0.016293 184251.000000 0 0 1
-2.788589 -26.332143 -31.953739 41.499391 1.465289 2.449608 0.035477 -0.002551 190375.000000 0 0 1
-3.272189 -26.129243 -30.493359 40.290067 1.446214 2.429270 0.031525 -0.010347 21836.700000 0 0 1
-3.720289 -27.326243 -29.808649 40.609355 1.435485 2.395040 0.021375 -0.004737 305972.000000 0 0 1
-4.339189 -26.892643 -28.556889 39.465665 1.410823 2.379783 0.029361 -0.012376 225633.000000 0 0 1
-3.407589 -26.507643 -27.367329 38.252288 1.442946 2.368054 0.023274 -0.024209 -37985.200000 0 0 1
-2.715189 -25.291643 -27.570929 37.512606 1.463851 2.396430 0.017153 -0.011429 -92817.700000 0 0 1
-1.808589 -25.032943 -26.529619 36.520404 1.498673 2.383913 0.015780 -0.013061 -1465250.000000 0 0 1
-1.049689 -23.752443 -26.859619 35.870873 1.526632 2.417025 0.021306 -0.012412 263018.000000 0 0 1
-0.188989 -23.731543 -28.001389 36.705581 1.562833 2.438529 0.000905 -0.007179 660859.000000 0 0 1
0.860311 -24.696843 -27.992199 37.339489 -1.535976 2.418356 0.006832 -0.010290 -494998.000000 0 0 1
1.691211 -24.942643 -29.281989 38.502345 -1.503096 2.434917 -0.013266 -0.006731 312074.000000 0 0 1
2.594511 -23.835943 -29.437599 37.966511 -1.462374 2.458077 -0.014647 -0.009124 181128.000000 0 0 1
3.209211 -24.031143 -30.683209 39.105680 -1.438038 2.472884 -0.013263 -0.003033 -1054880.000000 0 0 1
4.235011 -22.967143 -31.069969 38.868599 -1.388450 2.497024 -0.006967 -0.005179 640017.000000 0 0 1
5.510911 -22.908843 -30.378779 38.445487 -1.334724 2.481896 -0.002565 -0.010536 1727850.000000 0 0 1
6.400711 -24.029143 -30.509609 39.359943 -1.310468 2.457739 0.005752 -0.004674 -7279.230000 0 0 1
7.118111 -24.295343 -31.902709 40.727313 -1.285790 2.470793 0.001539 -0.000272 -240187.000000 0 0 1
6.281011 -24.906343 -32.864469 41.711514 -1.323762 2.478186 -0.012241 0.003795 -191562.000000 0 0 1
6.730011 -24.776443 -34.156096 42.729429 -1.305566 2.497022 0.000878 0.004396 -184299.000000 0 0 1
6.238511 -23.517143 33.985819 41.797260 -1.311494 0.621319 0.007628 0.004358 -1114400.000000 0 0 1
4.866011 -23.469243 33.888089 41.507662 -1.366357 0.615595 0.003079 0.004825 -1056060.000000 0 0 1
4.420011 -22.212043 33.275458 40.251304 -1.374371 0.597592 0.020150 -0.013269 532961.000000 0 0 1
2.906311 -21.927043 33.591522 40.219799 -1.439020 0.582302 0.006701 -0.011360 810355.000000 0 0 1
1.983011 -22.876143 33.096246 40.281655 -1.484328 0.606548 0.010412 -0.005342 -94227.600000 0 0 1
1.661111 -23.797843 34.109252 41.623763 -1.501108 0.610318 0.001952 0.002310 -321395.000000 0 0 1
0.349011 -24.559843 33.840533 41.814942 -1.556587 0.627849 0.014660 0.007533 6373.360000 0 0 1
0.436211 -25.422843 32.731325 41.446964 -1.553640 0.660451 0.018156 -0.001008 -614326.000000 0 0 1
-0.785989 -25.990743 32.377915 41.526689 1.540564 0.676627 0.018972 -0.008910 -384558.000000 0 0 1
-0.702489 -26.995843 31.224765 41.282623 1.544780 0.713057 0.026868 -0.024866 -826450.000000 0 0 1
-1.971589 -27.332443 30.818175 41.239659 1.498787 0.726815 0.034097 -0.026110 -879545.000000 0 0 1
-1.980789 -28.383843 29.879545 41.259584 1.501123 0.760945 0.035359 -0.031735 -166256.000000 0 0 1
-3.315089 -28.385043 29.120765 40.800973 1.454533 0.775991 0.042657 -0.026322 -250392.000000 0 0 1
-4.386789 -28.792943 29.930155 41.762323 1.419603 0.771769 0.046495 -0.023583 537784.000000 0 0 1
-5.620489 -28.905843 29.162085 41.443514 1.378751 0.790263 0.017192 -0.015583 957743.000000 0 0 1
-6.694789 -29.574343 30.038215 42.682037 1.348177 0.790110 0.010370 -0.009626 -918068.000000 0 0 1
-7.854389 -29.917343 29.361085 42.647534 1.314054 0.811434 0.020074 -0.008825 72321.300000 0 0 1
-9.029189 -30.245143 30.109265 43.621815 1.280685 0.808984 0.018688 -0.003282 470784.000000 0 0 1
-8.964489 -31.499443 31.051215 45.130421 1.293535 0.812021 -0.002678 0.006201 -784907.000000 0 0 1
-8.875189 -32.764043 30.428265 45.586520 1.306263 0.839972 0.012307 0.001777 386200.000000 0 0 1
-10.047989 -33.222943 29.753465 45.716460 1.277101 0.862124 0.018936 -0.000860 222128.000000 0 0 1
-9.951089 34.264879 29.298775 46.168434 -1.288155 0.883297 0.028530 -0.002647 -216019.000000 0 0 1
-10.237989 33.428179 30.421155 46.343351 -1.273599 0.854720 0.020385 0.004609 247605.000000 0 0 1
-9.888289 32.095979 30.021545 45.046901 -1.271939 0.841358 0.026988 -0.000133 -185387.000000 0 0 1
-10.397389 30.965179 30.909455 44.970461 -1.246848 0.812992 0.026801 0.009550 241103.000000 0 0 1
-11.812089 31.023879 31.071355 45.469062 -1.207001 0.818453 0.010085 0.013731 267165.000000 0 0 1
-12.357089 29.765779 31.443905 45.026863 -1.177303 0.797725 0.016055 0.011518 269.215000 0 0 1
-12.358189 29.415579 32.929111 45.851144 -1.173063 0.769621 0.014184 0.006531 40170.900000 0 0 1
-13.256689 30.263979 33.678706 47.179481 -1.157937 0.775827 0.011943 0.016546 659252.000000 0 0 1
-13.387689 29.711979 -33.898839 47.023007 -1.147458 2.375895 0.013633 0.014773 -88499.900000 0 0 1
-14.556189 30.385879 -33.155989 47.270539 -1.124053 2.348169 0.008846 0.014646 29081.200000 0 0 1
-14.843389 29.785679 -31.888419 46.091042 -1.108478 2.334854 0.009834 0.004956 452228.000000 0 0 1
-16.026989 30.200779 -31.185909 46.276477 -1.082906 2.310277 0.014472 0.012091 690240.000000 0 0 1
-16.051289 29.728879 -29.740879 45.010777 -1.075723 2.292614 0.026007 -0.002257 -156246.000000 0 0 1
-16.320089 28.320279 -29.587129 44.088340 -1.048009 2.306471 0.022558 -0.009118 82955.300000 0 0 1
-16.168189 27.924979 -28.239489 42.879873 -1.045971 2.289716 0.019530 -0.010475 -431769.000000 0 0 1
-16.721589 26.573879 -27.921129 42.016330 -1.009147 2.297662 0.000165 -0.016676 -133447.000000 0 0 1
-18.121689 26.528679 -28.095909 42.679580 -0.971504 2.289353 0.003838 -0.012837 -76342.400000 0 0 1
-18.621889 25.206379 -27.859399 41.931878 -0.934517 2.297483 -0.007264 -0.013888 -180447.000000 0 0 1
-20.099589 25.003679 -28.192999 42.708578 -0.893703 2.291781 0.015283 -0.015914 -499669.000000 0 0 1
-21.049789 25.511479 -27.275149 42.870304 -0.880931 2.260391 0.022240 -0.015700 1052690.000000 0 0 1
-22.356289 25.160979 -27.831579 43.674653 -0.844354 2.261718 0.033465 -0.018552 1419480.000000 0 0 1
-23.448889 25.159879 -26.715269 43.549690 -0.820583 2.231210 0.055309 -0.020256 312030.000000 0 0 1
-23.931889 26.466079 -26.355619 44.359974 -0.835639 2.206981 0.032939 -0.004947 221730.000000 0 0 1
-25.038789 26.555879 -25.468589 44.506232 -0.814794 2.180040 0.034645 0.003959 400625.000000 0 0 1
-24.699989 26.158679 -23.967199 43.229534 -0.814072 2.158459 0.018152 0.010120 -531514.000000 0 0 1
-24.411489 24.788679 -23.707299 42.100302 -0.793064 2.168946 0.024229 0.005612 209778.000000 0 0 1
-25.570609 23.974879 -23.504799 42.203394 -0.753202 2.161494 0.024530 0.003112 -50869.800000 0 0 1
-26.262749 24.057479 -22.135799 41.934328 -0.741601 2.126885 0.006880 0.008354 -296337.000000 0 0 1
-25.569699 23.570879 -21.004499 40.627390 -0.744745 2.114143 0.005637 0.003389 211063.000000 0 0 1
-24.633489 24.525779 -20.466599 40.338620 -0.783207 2.102926 0.006720 0.013995 230119.000000 0 0 1
-23.746789 24.041479 -19.299899 38.915149 -0.791565 2.089723 0.006434 0.001703 245127.000000 0 0 1
-24.436789 23.926879 -18.007499 38.651290 -0.774855 2.055444 0.002370 -0.006379 441790.000000 0 0 1
-23.492289 23.919479 -16.959299 37.571890 -0.794408 2.039111 0.005690 -0.008993 -53940.000000 0 0 1
-24.104789 24.085179 -15.551499 37.456452 -0.784991 1.998947 0.000304 -0.001445 -358498.000000 0 0 1
-24.822289 25.246279 -15.287599 38.564638 -0.793866 1.978405 0.011287 -0.007248 -99411.800000 0 0 1
-25.101889 25.345179 -13.888499 38.280195 -0.790221 1.942080 -0.015072 -0.005317 23706.800000 0 0 1
-25.203599 26.882379 -13.508399 39.247427 -0.817618 1.922168 -0.007683 -0.009047 -958459.000000 0 0 1
-24.010689 27.540079 -13.348299 38.899180 -0.853756 1.921066 -0.006091 -0.009807 -1130970.000000 0 0 1
-23.954889 28.523579 -12.326799 39.234949 -0.872238 1.890388 0.001187 -0.007388 -1246790.000000 0 0 1
-22.634889 29.141579 -11.954699 38.787687 -0.910412 1.884106 0.018515 -0.011953 -1137350.000000 0 0 1
-21.755289 28.114779 -11.573099 37.385425 -0.912235 1.885528 0.012261 -0.020196 348843.000000 0 0 1
-20.673189 28.619279 -10.769399 36.911026 -0.945226 1.866869 0.019891 -0.020559 16636.500000 0 0 1
-19.955589 27.505179 -9.994499 35.421045 -0.943147 1.856844 0.041799 -0.018455 248418.000000 0 0 1
-19.096189 26.670879 -10.829499 34.543860 -0.949417 1.889673 0.033276 -0.023016 747143.000000 0 0 1
-18.789789 25.434179 -10.168999 33.216896 -0.934527 1.881931 0.038645 -0.017741 -78145.600000 0 0 1
-18.268289 24.400779 -11.218799 32.480607 -0.928143 1.923461 0.036499 -0.018380 -314424.000000 0 0 1
-17.912589 23.129879 -10.728699 31.160185 -0.911839 1.922298 0.011627 -0.014754 168200.000000 0 0 1
-17.396589 22.396779 -11.811399 30.720777 -0.910397 1.965436 0.039902 -0.006990 -224620.000000 0 0 1
-16.849789 21.038879 -11.348999 29.246360 -0.895514 1.969309 0.022042 0.004764 -510288.000000 0 0 1
-17.820789 20.105079 -11.018799 29.038055 -0.845556 1.960010 0.010461 0.009043 -154094.000000 0 0 1
-17.266889 18.826779 -10.727499 27.706900 -0.828589 1.968365 0.034078 0.003621 -766789.000000 0 0 1
-18.364889 17.809179 -10.540899 27.668512 -0.770037 1.961643 0.017878 0.013857 -384016.000000 0 0 1
-18.871389 17.286279 -11.732599 28.153128 -0.741587 2.000655 0.007421 0.019831 128840.000000 0 0 1
-20.073889 17.868179 -12.206799 29.516754 -0.727330 1.997151 0.012293 0.018970 -502211.000000 0 0 1
-20.446589 17.418179 -13.602099 30.107691 -0.705588 2.039558 0.021988 0.007782 -176307.000000 0 0 1
-19.656289 17.732879 -14.744399 30.302178 -0.734000 2.078966 0.035744 0.002735 162673.000000 0 0 1
-20.281389 17.192379 -15.939099 30.999476 -0.703153 2.110840 0.047088 -0.000129 50524.600000 0 0 1
-19.309589 16.907279 -17.063399 30.820057 -0.719164 2.157532 0.060219 -0.005334 -300466.000000 0 0 1
-18.649089 18.015879 -17.680899 31.384305 -0.768130 2.169252 0.048408 -0.010220 140154.000000 0 0 1
-17.738289 17.592179 -18.677799 31.192817 -0.781263 2.212780 0.043963 -0.004800 -134692.000000 0 0 1
-16.713789 18.774979 -18.928399 31.466409 -0.843413 2.216228 0.027468 0.004912 565664.000000 0 0 1
-15.571489 18.718479 -18.065999 30.318856 -0.876918 2.209141 0.027289 -0.000182 475369.000000 0 0 1
-14.757589 19.854679 -18.295799 30.768994 -0.931610 2.207587 0.019202 0.002303 -34428.800000 0 0 1
31.820852 31.424879 2.405601 44.787013 0.779137 1.517058 0.018870 -0.002522 1051270.000000 0 0 1
33.181992 31.324879 1.925001 45.672730 0.756617 1.528636 0.013549 -0.007125 1131650.000000 0 0 1
33.236812 31.907079 0.637101 46.077687 0.764989 1.556969 -0.001028 0.005041 -171785.000000 0 0 1
34.575272 31.815279 -0.123399 46.985919 0.743850 1.573423 -0.014547 -0.000037 -117750.000000 0 0 1
-35.288497 32.352079 0.521501 47.876998 -0.742013 1.559904 -0.022175 -0.001523 -214833.000000 0 0 1
-34.232937 32.473479 -0.391099 47.186585 -0.759028 1.579085 -0.020346 -0.000896 267623.000000 0 0 1
-33.148329 33.547079 0.003701 47.161618 -0.791377 1.570718 -0.017039 -0.002706 443200.000000 0 0 1
-32.301899 33.268779 1.093401 46.383401 -0.800143 1.547221 -0.011167 0.006133 124815.000000 0 0 1
-31.888719 34.452879 1.724401 46.977280 -0.824030 1.534081 -0.015657 0.000475 -218441.000000 0 0 1
-31.126449 34.183079 3.083801 46.334097 -0.832166 1.504191 0.003109 0.009174 -102683.000000 0 0 1
-30.739729 -33.643043 3.685301 45.720529 0.830462 1.490104 0.001524 0.010737 -93622.400000 0 0 1
-30.177319 -33.871443 4.945301 45.633335 0.843011 1.462213 0.016932 -0.002581 -485698.000000 0 0 1
-30.083869 -32.591643 5.800301 44.731397 0.825389 1.440761 0.020301 -0.005217 457029.000000 0 0 1
-31.220329 -31.959743 6.430001 45.138443 0.797101 1.427859 0.015420 -0.008371 429810.000000 0 0 1
-31.748619 -32.656543 7.569801 46.170624 0.799494 1.406100 0.016581 -0.014855 -1160750.000000 0 0 1
-32.906049 -31.992443 8.326201 46.643865 0.771322 1.391329 0.033404 -0.018881 815258.000000 0 0 1
-34.195393 -31.970143 7.709601 47.443154 0.751779 1.407571 0.023468 -0.009156 250261.000000 0 0 1
-34.767674 -33.191043 7.362401 48.627579 0.762202 1.418808 0.012774 -0.012668 -389410.000000 0 0 1
34.698712 -33.221443 6.946301 48.537779 -0.763652 1.427192 0.012630 -0.009235 973520.000000 0 0 1
33.898592 -33.041243 8.097101 48.025007 -0.772591 1.401385 0.014081 -0.002612 1251140.000000 0 0 1
32.457072 -33.022543 7.942401 46.979055 -0.794034 1.400918 -0.001162 0.003299 1246430.000000 0 0 1
31.795412 -32.892943 9.304301 46.684729 -0.802363 1.370152 -0.002868 -0.007422 628986.000000 0 0 1
30.356472 -32.782143 9.221401 45.620374 -0.823797 1.367261 -0.001835 -0.007012 1650900.000000 0 0 1
29.651772 -32.695643 10.518201 45.374720 -0.834181 1.336861 0.001840 -0.005022 353269.000000 0 0 1
29.862392 -31.439243 11.380901 44.829827 -0.811115 1.314118 0.002380 -0.004385 -484696.000000 0 0 1
29.315502 -30.181443 10.965701 43.480625 -0.799952 1.315846 0.010328 -0.010989 -33188.800000 0 0 1
29.826752 -29.604143 9.800501 43.151944 -0.781653 1.341681 0.019757 -0.018106 -328800.000000 0 0 1
29.121562 -28.312043 9.368601 41.682224 -0.771304 1.344097 0.020422 -0.019864 -479428.000000 0 0 1
29.566532 -27.939843 8.106601 41.479291 -0.757119 1.374093 0.024554 -0.023312 -241308.000000 0 0 1
28.892292 -26.811043 7.593901 40.140552 -0.748052 1.380467 0.017160 -0.023795 -343273.000000 0 0 1
29.214852 -26.327143 6.153701 39.805704 -0.733453 1.415580 0.020493 -0.015639 577797.000000 0 0 1
30.567092 -25.876743 6.024901 40.500029 -0.702491 1.421479 0.030501 -0.013797 223126.000000 0 0 1
30.842402 -25.121943 4.852301 40.073814 -0.683536 1.449414 0.021230 -0.008666 -270867.000000 0 0 1
32.301802 -24.737443 4.552501 40.939868 -0.653551 1.459366 0.027028 -0.007563 -121700.000000 0 0 1
33.023022 -25.900443 4.235101 42.181619 -0.665103 1.470225 0.017295 -0.006127 -653836.000000 0 0 1
34.386442 -25.635243 4.031801 43.079560 -0.640618 1.477070 0.025656 -0.007950 206160.000000 0 0 1
35.253673 -26.944843 4.075201 44.558426 -0.652599 1.479211 0.025818 -0.011946 -37584.500000 0 0 1
35.337113 -27.451443 5.419501 45.073987 -0.660461 1.450269 0.017913 0.001679 -341895.000000 0 0 1
-35.348786 -28.815343 5.330401 45.915943 0.683924 1.454444 0.013989 -0.002771 -1941320.000000 0 0 1
34.850562 -29.742343 6.240301 46.239701 -0.706479 1.435428 0.013948 -0.005381 818890.000000 0 0 1
33.473812 -30.043443 5.972001 45.373664 -0.731444 1.438795 0.004667 -0.000712 570633.000000 0 0 1
32.645172 -28.921643 5.847201 44.004073 -0.724992 1.437524 0.005430 -0.009796 -1149500.000000 0 0 1
31.138162 -29.232443 5.596301 43.074812 -0.753842 1.440508 0.013682 -0.012027 -109303.000000 0 0 1
30.824602 -29.854743 4.354101 43.132586 -0.769416 1.469677 0.002709 -0.016413 -22686.400000 0 0 1
29.720412 -29.203143 3.748401 41.835116 -0.776620 1.481077 0.019008 -0.016357 -270671.000000 0 0 1
28.381422 -29.864943 4.054201 41.398750 -0.810862 1.472709 0.028711 -0.014304 -613631.000000 0 0 1
28.421872 -31.130143 3.496801 42.297946 -0.830844 1.488031 0.025961 -0.013399 -303054.000000 0 0 1
27.202952 -31.820343 3.641601 42.021377 -0.863469 1.484027 0.027507 -0.005590 4608.900000 0 0 1
27.285322 -33.174943 2.950201 43.055422 -0.882505 1.502222 0.022226 0.004947 -125597.000000 0 0 1
27.213782 -33.170443 1.563601 42.933822 -0.883726 1.534369 0.022877 0.015001 220887.000000 0 0 1
27.467112 -34.476143 1.141201 44.094773 -0.898071 1.544913 0.012027 0.013024 -121197.000000 0 0 1
27.150682 34.301579 -0.350199 43.747920 0.901242 1.578801 0.006624 0.005834 -26580.000000 0 0 1
28.205792 -34.278543 -1.185599 44.407104 -0.882282 1.597498 0.007582 0.002027 74339.100000 0 0 1
27.907182 -34.475943 -2.578199 44.430266 -0.890309 1.628857 0.018730 -0.004096 -401897.000000 0 0 1
28.899932 -33.933743 -3.596699 44.717348 -0.865341 1.651315 0.009273 0.000874 -285638.000000 0 0 1
28.776662 -32.542743 -3.793199 43.606361 -0.846739 1.657894 0.016359 -0.008851 7235.750000 0 0 1
29.671202 -32.088143 -4.774299 43.963884 -0.824513 1.679607 0.007914 -0.007356 -433614.000000 0 0 1
29.860972 -30.560543 -4.726199 42.987922 -0.796976 1.680962 0.018763 -0.009160 -504247.000000 0 0 1
28.757462 -29.773843 -5.090699 41.705978 -0.802761 1.693163 0.007043 -0.020660 -233201.000000 0 0 1
28.970132 -28.341943 -4.910499 40.824592 -0.774438 1.691371 0.013607 -0.024658 50428.800000 0 0 1
30.013322 -27.618443 -5.840299 41.202997 -0.743867 1.713020 0.026059 -0.019103 57205.700000 0 0 1
31.332402 -28.012043 -5.543699 42.392530 -0.729506 1.701943 0.030804 -0.020466 -418488.000000 0 0 1
32.259762 -27.338943 -6.370199 42.763179 -0.703019 1.720317 0.036462 -0.017870 -91687.700000 0 0 1
32.739372 -28.040843 -7.674999 43.784255 -0.708248 1.746998 0.038961 -0.000461 -636814.000000 0 0 1
31.735242 -28.245343 -8.629699 43.352009 -0.727280 1.771196 0.028482 -0.006441 -345068.000000 0 0 1
32.063402 -29.233043 -9.623299 44.443677 -0.739256 1.789053 0.012126 0.003851 278067.000000 0 0 1
31.813992 -30.736843 -9.309699 45.205687 -0.768179 1.778221 0.000637 0.004941 -24369.000000 0 0 1
32.854982 -31.181843 -8.496699 46.086344 -0.759276 1.756222 0.016727 0.002597 -643431.000000 0 0 1
32.530472 -32.407243 -7.848299 46.583869 -0.783501 1.740080 0.011400 -0.002336 479170.000000 0 0 1
33.691352 -33.040043 -7.020199 47.707807 -0.775638 1.718483 0.012569 -0.003401 324257.000000 0 0 1
33.383502 -34.281443 -6.390799 48.275437 -0.798668 1.703568 0.008323 -0.011029 -418640.000000 0 0 1
32.719572 -34.123743 -5.208199 47.561808 -0.806402 1.680520 0.013681 -0.006862 -536023.000000 0 0 1
32.657792 33.569279 -4.481699 47.047991 0.799160 1.666199 -0.010095 -0.003320 -224176.000000 0 0 1
31.914192 32.593979 -5.170399 45.908780 0.795936 1.683659 -0.011188 -0.012528 63043.500000 0 0 1
32.177422 31.301479 -4.752199 45.141472 0.771600 1.676265 -0.015785 -0.004531 584278.000000 0 0 1
30.961232 30.354279 -5.071299 43.654303 0.775500 1.687229 -0.010111 -0.012465 492840.000000 0 0 1
30.823252 30.110179 -6.432699 43.566907 0.773696 1.718989 -0.018641 -0.006127 -568331.000000 0 0 1
29.488322 29.795779 -6.676499 42.449090 0.790584 1.728735 -0.031773 -0.004653 -735641.000000 0 0 1
29.087532 29.499779 -8.165599 42.225567 0.792435 1.765403 -0.027266 -0.000055 -122280.000000 0 0 1
29.812212 28.389379 -8.652599 42.066522 0.760956 1.777964 -0.021114 -0.003764 537.392000 0 0 1
29.744162 28.210079 -10.070399 42.212992 0.758934 1.811681 -0.029198 -0.000273 -98658.100000 0 0 1
30.893012 28.963579 -10.778399 43.697151 0.753175 1.820030 -0.007539 0.000719 -628284.000000 0 0 1
32.151882 28.428879 -10.422699 44.165341 0.724020 1.809036 -0.022850 -0.005945 330118.000000 0 0 1
33.270462 29.061979 -11.033599 45.533093 0.717984 1.815553 -0.007399 -0.009156 291251.000000 0 0 1
33.649512 30.443879 -10.480599 46.572120 0.735425 1.797781 0.000351 -0.015957 -1005880.000000 0 0 1
34.371432 30.470579 -9.248999 46.855048 0.725311 1.769497 -0.009199 -0.012219 452770.000000 0 0 1
34.269402 31.758379 -8.682299 47.522298 0.747387 1.754528 -0.010437 -0.014361 -699661.000000 0 0 1
35.278053 32.014879 -7.519599 48.229015 0.736944 1.727349 0.004869 -0.009885 -191348.000000 0 0 1
-34.354650 32.134079 -7.802199 47.683491 -0.752013 1.735160 0.009221 -0.014252 -801849.000000 0 0 1
-33.698229 30.897579 -8.008999 46.415246 -0.742069 1.744215 0.008395 -0.015348 -68705.800000 0 0 1
-32.259999 31.175779 -8.604599 45.680147 -0.768308 1.760295 0.031405 -0.015604 632255.000000 0 0 1
-31.418509 31.710479 -7.575099 45.277581 -0.790023 1.738890 0.030678 -0.013489 259118.000000 0 0 1
-30.116279 32.049879 -8.034899 44.707321 -0.816492 1.751500 0.036691 -0.026384 79280.700000 0 0 1
-29.944399 33.373179 -8.937699 45.720002 -0.839497 1.767551 0.022949 -0.014764 -612289.000000 0 0 1
-29.816389 -34.336443 -8.295299 46.225754 0.855740 1.751226 0.016594 -0.012265 -83592.100000 0 0 1
-28.727699 -34.189143 -7.401899 45.265509 0.871985 1.735056 0.023340 -0.017199 -3889.790000 0 0 1
-28.730039 -32.859943 -6.603999 44.145258 0.852353 1.720957 0.015885 -0.010359 710744.000000 0 0 1
-29.794799 -32.771343 -5.617999 44.645861 0.832937 1.696966 0.013070 -0.013180 635986.000000 0 0 1
-29.581199 -33.490443 -4.381099 44.898231 0.847300 1.668530 0.018154 -0.011891 208200.000000 0 0 1
-30.768729 -33.315743 -3.384499 45.476458 0.825122 1.645288 0.015127 -0.008448 60766.100000 0 0 1
-31.023999 -31.984443 -3.039499 44.662419 0.800640 1.638904 0.016145 -0.008510 212990.000000 0 0 1
-31.785309 -32.021343 -1.805499 45.154536 0.789097 1.610792 0.014624 -0.008560 619026.000000 0 0 1
-32.820209 -30.833843 -1.797699 45.067990 0.754203 1.610696 0.020978 -0.005756 123870.000000 0 0 1
-33.742529 -30.788043 -0.746299 45.683901 0.739646 1.587133 0.021291 0.000529 -94918.100000 0 0 1
-34.440030 -29.519243 -0.657899 45.364460 0.708613 1.585299 0.035860 -0.005786 -184662.000000 0 0 1
-35.310180 -29.422843 0.601001 45.966006 0.694700 1.557721 0.025111 -0.005153 -742196.000000 0 0 1
34.532252 -30.220843 0.447601 45.890916 -0.718914 1.561043 0.011225 -0.003988 119889.000000 0 0 1
33.597782 -30.263543 1.542201 45.244573 -0.733235 1.536704 0.004113 -0.010954 627518.000000 0 0 1
32.671722 -29.003943 1.653201 43.719597 -0.725999 1.532974 0.000698 -0.000269 -986496.000000 0 0 1
31.686812 -29.071143 0.667201 43.007332 -0.742374 1.555282 -0.003871 -0.008172 -478163.000000 0 0 1
31.322562 -27.788543 0.227701 41.873116 -0.725683 1.565358 -0.005982 -0.009065 571958.000000 0 0 1
30.054072 -27.936843 -0.730699 41.039595 -0.748905 1.588602 -0.005208 -0.010219 1224960.000000 0 0 1
28.842822 -28.393843 -0.119799 40.473856 -0.777554 1.573756 0.004445 -0.006108 465552.000000 0 0 1
28.640052 -29.807943 0.002701 41.337224 -0.805377 1.570731 0.009747 -0.003287 -351237.000000 0 0 1
27.936742 -30.466343 -1.235799 41.354405 -0.828684 1.600684 0.005568 -0.016209 1167670.000000 0 0 1
26.640252 -29.884743 -1.576599 40.066027 -0.842734 1.610157 0.022209 -0.015283 1312230.000000 0 0 1
26.435442 -30.185043 -2.970399 40.234223 -0.851525 1.644691 0.021132 -0.013510 -58731.300000 0 0 1
24.952962 -30.492943 -3.278799 39.537582 -0.884985 1.653820 0.028714 -0.014350 695503.000000 0 0 1
23.991362 -29.428343 -3.242599 38.106788 -0.886827 1.655992 0.038660 -0.015256 1918220.000000 0 0 1
22.693162 -29.892643 -3.766799 37.719206 -0.921461 1.670827 0.035582 -0.013552 1556880.000000 0 0 1
21.561262 -28.874843 -3.542699 36.210431 -0.929401 1.668790 0.035976 -0.019943 -269470.000000 0 0 1
21.511662 -27.984543 -4.677899 35.605744 -0.915436 1.702558 0.039652 -0.025804 -90967.200000 0 0 1
20.741262 -26.817843 -4.583999 34.211251 -0.912479 1.705192 0.040733 -0.028872 -317687.000000 0 0 1
20.484062 -26.162543 -5.985599 33.762447 -0.906536 1.749024 0.055734 -0.046968 -350219.000000 0 0 1
19.408362 -26.843943 -6.566899 33.769897 -0.944796 1.766503 0.052476 -0.039625 -667891.000000 0 0 1
18.935162 -26.160743 -7.682399 33.195543 -0.944275 1.804342 0.060979 -0.035057 -60708.900000 0 0 1
17.394262 -26.173043 -7.685199 32.351983 -0.984235 1.810639 0.051616 -0.028260 -431367.000000 0 0 1
16.810762 -25.315843 -6.747399 31.129103 -0.984614 1.789286 0.041916 -0.025760 136560.000000 0 0 1
15.413662 -25.545643 -6.932099 30.630293 -1.027897 1.799089 0.029134 -0.020577 363816.000000 0 0 1
14.546662 -24.723543 -5.910299 29.288062 -1.038970 1.773991 0.008145 -0.009930 -150711.000000 0 0 1
14.620262 -25.153943 -4.558299 29.449126 -1.044292 1.726207 0.002489 -0.007014 214948.000000 0 0 1
14.023262 -24.264543 -3.635699 28.260188 -1.046761 1.699805 -0.002015 -0.005909 -152810.000000 0 0 1
14.021962 -24.850043 -2.207699 28.618421 -1.057069 1.648016 0.008958 -0.006469 157154.000000 0 0 1
13.147962 -25.979043 -2.052699 29.188922 -1.102282 1.641179 0.005880 -0.004257 135290.000000 0 0 1
13.888262 -27.169343 -1.980699 30.577446 -1.098250 1.635618 0.013139 -0.007784 -635739.000000 0 0 1
13.084262 -28.463843 -2.076199 31.395842 -1.139922 1.636974 0.007876 0.000417 -151037.000000 0 0 1
12.268462 -28.730843 -0.945499 31.254927 -1.167221 1.601052 0.030292 -0.013367 46674.800000 0 0 1
11.532262 -29.927143 -0.911399 32.085162 -1.202987 1.599206 0.026862 -0.012273 -227511.000000 0 0 1
12.365262 -31.211443 -0.710299 33.579137 -1.193590 1.591951 0.027132 -0.008975 -241210.000000 0 0 1
13.188562 -31.585743 -1.791899 34.275476 -1.175255 1.623100 0.026547 -0.006129 -257475.000000 0 0 1
13.984962 -32.678043 -1.345499 35.570269 -1.166419 1.608632 0.023989 -0.005616 -793750.000000 0 0 1
15.296662 -32.819543 -2.090899 36.269576 -1.134648 1.628477 0.022215 -0.000401 -383996.000000 0 0 1
16.233862 -31.821543 -1.704299 35.763858 -1.099059 1.618469 0.016530 0.005106 201843.000000 0 0 1
17.474162 -31.878843 -2.381999 36.431866 -1.069380 1.636225 0.017604 0.010401 294864.000000 0 0 1
18.488462 -30.832343 -1.848299 35.998234 -1.030638 1.622163 0.027215 0.002363 36966.500000 0 0 1
17.992962 -29.477743 -1.985499 34.592286 -1.022771 1.628225 0.022976 -0.009607 344989.000000 0 0 1
18.303462 -28.743043 -0.852899 34.086752 -1.003759 1.595820 0.023763 -0.002716 10020.200000 0 0 1
17.600362 -27.331343 -0.880699 32.520004 -0.998677 1.597881 0.011519 -0.003196 -106716.000000 0 0 1
17.993862 -26.379643 -1.857799 31.986185 -0.972177 1.628910 0.026486 -0.011980 102089.000000 0 0 1
17.367362 -26.472143 -3.112999 31.813368 -0.990172 1.668805 0.032496 -0.011687 -720576.000000 0 0 1
31.217552 -29.053043 13.921401 44.860007 -0.749500 1.255256 -0.006082 -0.008247 -253123.000000 0 0 1
32.176072 -29.475743 14.849201 46.093577 -0.741626 1.242793 0.015171 -0.000867 221959.000000 0 0 1
31.534882 -30.003543 16.048301 46.391910 -0.760519 1.217568 0.022064 0.001192 653140.000000 0 0 1
32.513012 -30.555543 17.140901 47.796942 -0.754371 1.204008 0.017875 0.003407 325006.000000 0 0 1
31.759312 -31.030343 18.298601 48.024732 -0.773789 1.179892 0.011361 0.004544 507550.000000 0 0 1
32.487012 -31.536143 19.394801 49.255381 -0.770547 1.166078 0.005400 0.012941 -367947.000000 0 0 1
33.000532 -32.982543 19.182701 50.446598 -0.785126 1.180722 0.012308 0.014277 -232476.000000 0 0 1
34.184742 -33.080043 18.417901 51.010831 -0.768977 1.201393 0.011160 0.018536 414369.000000 0 0 1
34.826672 -34.355243 18.534801 52.313656 -0.778584 1.208629 0.024557 0.002318 -426694.000000 0 0 1
-34.863847 34.475779 17.783101 52.156551 -0.779802 1.222862 0.018244 0.004865 -277027.000000 0 0 1
-33.754199 -33.778743 18.270201 51.128756 0.785762 1.205381 0.021381 0.007717 1084580.000000 0 0 1
-32.747719 -33.609543 17.236301 49.991045 0.798385 1.218784 0.026138 0.012707 273123.000000 0 0 1
-31.487199 -32.869043 17.799201 48.873605 0.806867 1.198035 0.013234 0.004588 346287.000000 0 0 1
-30.523779 -32.692643 16.768101 47.766926 0.819693 1.212115 0.014845 -0.000853 22971.500000 0 0 1
-30.792419 -31.645743 15.844201 46.911244 0.799064 1.226273 0.026897 -0.001410 -1021470.000000 0 0 1
-29.722649 -31.594843 14.768301 45.823277 0.815921 1.242651 0.021073 -0.010540 633654.000000 0 0 1
-28.432429 -31.276143 15.317501 44.958047 0.832989 1.223128 0.013195 -0.009139 548714.000000 0 0 1
-27.391589 -31.433543 14.387401 44.106282 0.854002 1.238517 0.013992 -0.007647 458194.000000 0 0 1
-26.067499 -30.726943 14.753201 42.910564 0.867255 1.219822 0.013251 -0.009879 798250.000000 0 0 1
-24.950589 -30.773943 13.860301 41.972317 0.889523 1.234255 0.014819 -0.004146 -876462.000000 0 0 1
-23.928989 -30.135243 14.465401 41.109332 0.899692 1.211221 0.011525 -0.007036 -1439220.000000 0 0 1
-22.580789 -30.221043 13.742201 40.150362 0.929098 1.221466 0.017196 -0.003860 -119368.000000 0 0 1
-22.240589 -31.574043 13.529501 40.922016 0.957127 1.233839 0.008458 -0.007452 -113904.000000 0 0 1
-21.000889 -31.694343 12.876201 40.141815 0.985610 1.244256 0.007414 -0.011983 16011.800000 0 0 1
-20.618289 -33.152343 12.483101 40.988041 1.014411 1.261325 0.002413 -0.003452 -156857.000000 0 0 1
-21.421689 -33.695243 11.481301 41.546100 1.004505 1.290801 -0.005879 0.000073 -9971.800000 0 0 1
-21.156889 33.961079 11.397801 41.603830 -1.013655 1.293288 0.003571 0.008435 30326.700000 0 0 1
-21.975689 33.229179 10.288201 41.145550 -0.986493 1.318071 -0.001313 0.008063 -171525.000000 0 0 1
-21.779789 33.516679 8.890301 40.948314 -0.994548 1.351943 0.001455 -0.000600 -345340.000000 0 0 1
-22.983189 33.446779 8.165301 41.395484 -0.968742 1.372243 0.016659 0.002798 -612686.000000 0 0 1
-22.877589 33.995979 6.748601 41.528957 -0.978456 1.407569 0.021927 0.003730 -138445.000000 0 0 1
-22.072989 33.279279 5.843401 40.359294 -0.985152 1.425501 0.016962 0.002929 829118.000000 0 0 1
-20.666789 33.071879 6.042901 39.463679 -1.012265 1.417066 0.007336 0.001143 989066.000000 0 0 1
-19.644189 34.237479 5.844501 39.903099 -1.049892 1.423800 -0.000437 0.005527 -108265.000000 0 0 1
-19.826389 -33.582243 6.642501 39.559772 1.037478 1.402087 -0.000045 -0.003716 -48974.900000 0 0 1
-19.291289 -33.742743 7.947401 39.672254 1.051433 1.369105 0.003868 -0.007352 -383053.000000 0 0 1
-19.291489 -32.525343 8.899901 38.849295 1.035450 1.339656 0.005669 -0.011371 -342604.000000 0 0 1
-18.594289 -31.379643 8.395101 37.428696 1.035866 1.344576 0.019105 -0.018089 -32066.700000 0 0 1
-18.535989 -30.239743 9.230101 36.649962 1.020896 1.316210 0.023812 -0.012564 34742.100000 0 0 1
-17.932889 -30.396943 10.628201 36.858124 1.037794 1.278289 0.018768 -0.010910 284870.000000 0 0 1
-16.684089 -31.081543 10.626001 36.842001 1.078156 1.278219 0.019848 -0.022298 192957.000000 0 0 1
-15.998789 -30.958943 11.878201 36.817239 1.093819 1.242294 0.035084 -0.022618 442028.000000 0 0 1
-14.704889 -31.807743 11.947501 37.023088 1.137757 1.242211 0.048447 -0.029144 225676.000000 0 0 1
-13.597389 -31.319843 11.237001 35.945678 1.161204 1.252856 0.040845 -0.022470 243602.000000 0 0 1
-12.514089 -32.267043 11.209301 36.378743 1.200826 1.257572 0.050241 -0.023093 878320.000000 0 0 1
-11.296789 -31.772643 10.375501 35.281288 1.229185 1.272304 0.064912 -0.020245 99886.700000 0 0 1
-10.512989 -30.791743 10.971101 34.336852 1.241783 1.245580 0.063397 -0.018519 -641294.000000 0 0 1
-9.902189 -29.969243 10.050601 33.124364 1.251678 1.262516 0.062548 -0.012196 -225562.000000 0 0 1
-8.879589 -29.008643 10.685701 32.164152 1.273751 1.232136 0.048885 -0.001237 -57955.000000 0 0 1
-9.410689 -28.005343 11.497101 31.702423 1.246619 1.199679 0.045535 -0.004075 -650080.000000 0 0 1
-8.512789 -27.608343 12.515401 31.485289 1.271705 1.162006 0.035452 0.001734 -371711.000000 0 0 1
-8.891289 -26.496043 13.446501 31.014573 1.247034 1.122363 0.035856 0.001949 -229822.000000 0 0 1
-8.740589 -25.167843 12.868901 29.587613 1.236536 1.120822 0.018111 0.003706 -555298.000000 0 0 1
-9.582389 -24.806643 11.859401 29.117643 1.202170 1.151309 0.022658 0.005737 -653458.000000 0 0 1
-9.240289 -23.366643 11.382901 27.585384 1.194220 1.145443 0.007156 0.009960 702685.000000 0 0 1
-8.093889 -23.356843 10.516701 26.863621 1.237215 1.168552 -0.003685 0.006488 327743.000000 0 0 1
-7.522289 -22.073943 10.444601 25.552563 1.242362 1.149713 -0.009880 0.014961 259924.000000 0 0 1
-6.299289 -21.991643 9.476101 24.761056 1.291826 1.178077 -0.012697 0.015435 1211210.000000 0 1 0
-5.083989 -22.522643 10.040601 25.177968 1.348789 1.160605 -0.009892 0.008884 514471.000000 0 0 1
-4.055489 -22.573543 9.067501 24.662348 1.393036 1.194299 -0.010099 0.011234 567847.000000 0 1 0
-2.704289 -23.233143 9.442401 25.224017 1.454920 1.187110 0.006441 0.006815 273319.000000 0 0 1
-2.091789 -22.581443 10.501601 24.991614 1.478427 1.137125 0.016490 0.004106 -572900.000000 0 1 0
-0.999189 -23.299843 11.009501 25.789342 1.527939 1.129733 0.016017 0.000616 -65974.200000 0 0 1
-0.172289 -22.581643 12.092301 25.616089 1.563167 1.079172 0.018060 -0.004421 -239568.000000 0 0 1
-0.862589 -22.290443 13.325301 25.984064 1.532118 1.032323 0.013897 -0.007592 475024.000000 0 0 1
0.015411 -22.048143 14.465201 26.369734 -1.570097 0.990164 0.015384 -0.008155 1097070.000000 0 0 1
0.992411 -20.790943 14.351601 25.282734 -1.523100 0.967155 0.015700 -0.015607 -95853.300000 0 0 1
1.959311 -20.935043 13.384901 24.925298 -1.477478 1.003919 0.030607 -0.019214 -1029440.000000 0 1 0
2.423011 -19.672943 12.974101 23.690145 -1.448249 0.991234 0.029155 -0.020853 124980.000000 0 1 0
3.899611 -19.658943 12.521901 23.632161 -1.374975 1.012353 0.041050 -0.017543 159710.000000 0 1 0
4.151111 -20.138443 11.242201 23.434498 -1.367515 1.070451 0.037007 -0.018086 -1496870.000000 0 1 0
5.499911 -20.310343 11.040801 23.762541 -1.306345 1.087579 0.053616 -0.018512 -833609.000000 0 1 0
5.825111 -21.153243 9.790001 24.025731 -1.302080 1.151104 0.048616 -0.026519 -444802.000000 0 1 0
5.765411 -20.456043 8.555201 22.910284 -1.296079 1.188101 0.048774 -0.023282 -510337.000000 0 1 0
5.981511 -21.409643 7.503001 23.461592 -1.298359 1.245279 0.045006 -0.022202 -138568.000000 0 1 0
7.394511 -22.057643 7.294101 24.380778 -1.247335 1.266969 0.046305 -0.015591 265752.000000 0 1 0
8.368411 -21.181543 6.731701 23.748766 -1.194538 1.283402 0.044963 -0.018543 -125116.000000 0 1 0
8.861611 -20.143943 7.538201 23.262224 -1.156361 1.240785 0.049027 -0.009393 -225923.000000 0 1 0
9.824911 -20.533343 8.721901 24.376600 -1.124508 1.204888 0.040291 -0.002308 97235.700000 0 1 0
9.123411 -20.778543 9.911401 24.763286 -1.157062 1.159011 0.056897 -0.008316 -275699.000000 0 1 0
9.964811 -20.511343 11.038601 25.335023 -1.118557 1.119975 0.057915 0.004978 421912.000000 0 0 1
9.239511 -20.534243 12.421501 25.716092 -1.147979 1.066691 0.057714 -0.000652 -111099.000000 0 0 1
8.873711 -21.797543 12.860601 26.819222 -1.184187 1.070678 0.044694 -0.015124 -425162.000000 0 0 1
7.910111 -21.624143 13.860301 26.875293 -1.220116 1.028941 0.051705 -0.023625 24317.800000 0 0 1
7.849911 -22.952743 14.672801 28.350319 -1.241263 1.026807 0.050782 -0.014807 46363.800000 0 0 1
7.618211 -24.027243 13.845801 28.758508 -1.263758 1.068487 0.039039 -0.012225 -312931.000000 0 0 1
7.871011 -25.160843 14.621901 30.146655 -1.267613 1.064404 0.036783 -0.011269 308323.000000 0 0 1
7.635511 -26.469643 13.834401 30.827483 -1.289957 1.105410 0.041338 -0.015621 755145.000000 0 0 1
8.701911 -26.717143 12.891901 30.914885 -1.255927 1.140640 0.033402 -0.016097 440597.000000 0 0 1
8.523611 -27.917943 12.130701 31.610400 -1.274476 1.176935 0.032629 -0.007545 -175769.000000 0 0 1
9.816911 -28.293043 11.373201 32.034633 -1.236821 1.207852 0.024590 -0.008082 -45462.900000 0 0 1
10.711311 -28.922843 12.254001 33.187702 -1.216117 1.192613 0.017514 -0.004875 -220298.000000 0 0 1
11.838111 -29.443643 11.572401 33.778535 -1.188515 1.221117 0.018463 -0.004448 343128.000000 0 0 1
12.850611 -30.216343 12.474401 35.125152 -1.168683 1.207731 0.018647 -0.010877 -78609.200000 0 0 1
13.421411 -29.347443 13.458901 34.964964 -1.141865 1.175669 0.022346 -0.005850 267240.000000 0 0 1
14.318011 -29.976443 14.369601 36.195000 -1.125194 1.162545 0.026308 -0.000333 500103.000000 0 0 1
15.782711 -30.261343 13.946501 36.869333 -1.090060 1.182871 0.022847 0.003955 -91974.700000 0 0 1
16.414311 -29.028243 13.721401 36.060302 -1.056161 1.180446 0.017717 -0.008098 1248680.000000 0 0 1
17.853011 -29.189543 13.598301 36.819468 -1.021874 1.192515 0.023684 -0.006233 1453700.000000 0 0 1
18.644911 -27.925043 13.148901 36.060149 -0.982095 1.197552 0.013960 -0.008344 190102.000000 0 0 1
20.015011 -28.086143 12.864801 36.809445 -0.951644 1.213762 0.005994 -0.010431 -196831.000000 0 0 1
20.638911 -26.909543 12.551901 36.161283 -0.916520 1.216310 -0.001885 -0.015265 734434.000000 0 0 1
22.053311 -27.111343 11.859601 36.905604 -0.887917 1.243642 -0.003599 -0.011437 1138020.000000 0 0 1
23.064811 -27.573443 12.733101 38.136756 -0.874200 1.230380 -0.003470 -0.014871 -651540.000000 0 0 1
24.130611 -28.055243 12.010101 38.905341 -0.860462 1.256970 -0.010331 -0.016225 -916812.000000 0 0 1
25.333711 -28.567943 12.840701 40.284090 -0.845329 1.246382 0.003166 -0.015855 88008.300000 0 0 1
26.263311 -27.656843 13.399601 40.425385 -0.811237 1.232940 -0.001942 -0.016801 -145883.000000 0 0 1
27.339111 -27.550243 12.500901 40.776408 -0.789245 1.259207 -0.010971 -0.014937 -1206880.000000 0 0 1
28.544811 -26.821143 13.072501 41.292496 -0.754276 1.248671 0.012900 -0.025922 -773452.000000 0 0 1
28.467311 -25.438143 13.301901 40.428053 -0.729263 1.235524 0.028711 -0.030829 -824908.000000 0 0 1
27.708411 -24.957243 14.316301 39.944668 -0.733207 1.204239 0.021394 -0.023142 -883963.000000 0 0 1
28.417111 -24.809943 15.686001 40.854817 -0.717732 1.176731 0.024382 -0.008325 -330877.000000 0 0 1
28.588811 -26.076543 16.371201 42.015740 -0.739473 1.170551 0.020706 -0.014990 -55096.900000 0 0 1
29.195011 -25.852043 17.597401 42.782535 -0.724743 1.146892 0.028675 0.006143 -561664.000000 0 0 1
29.563011 -27.123043 18.323501 44.106482 -0.742381 1.142372 0.016419 0.016738 13743.200000 0 0 1
28.515311 -28.013143 18.715601 44.137658 -0.776515 1.132908 -0.005019 0.012585 -208564.000000 0 0 1
28.990611 -29.083643 19.470401 45.446786 -0.787000 1.128051 0.008937 0.009787 -15123.900000 0 0 1
27.952911 -30.025743 20.135401 45.698412 -0.821135 1.114513 -0.004667 0.030586 -917054.000000 0 0 1
27.158711 -29.515943 21.204301 45.369691 -0.826967 1.084486 -0.012420 0.027359 1012380.000000 0 0 1
26.276911 -30.436243 21.929401 45.801087 -0.858607 1.071513 -0.021005 0.023189 1051120.000000 0 0 1
25.126711 -31.046843 21.096801 45.170046 -0.890401 1.084841 0.009350 0.015184 -803053.000000 0 0 1
25.669911 -31.910743 20.141801 45.639150 -0.893361 1.113719 -0.009892 0.015355 -302953.000000 0 0 1
24.807611 -32.210943 19.078501 44.910485 -0.914517 1.132042 0.012593 0.014363 -597589.000000 0 0 1
24.879411 -31.323543 17.793701 43.780878 -0.899558 1.152257 0.007496 0.016459 366301.000000 0 0 1
26.132611 -31.387143 17.106501 44.279775 -0.876497 1.174150 -0.006120 0.005865 547574.000000 0 0 1
26.145811 -30.471343 16.017601 43.228113 -0.861650 1.191210 -0.006106 -0.016868 -84174.500000 0 0 1
27.475911 -30.528743 15.223001 43.802621 -0.837980 1.215854 0.007739 -0.012504 -38686.300000 0 0 1
27.503511 -31.643643 14.287201 44.293198 -0.855281 1.242364 0.015140 -0.005324 367246.000000 0 0 1
27.702911 -32.916543 14.860501 45.516860 -0.871193 1.238216 0.000446 -0.010118 -461896.000000 0 0 1
26.836711 -34.038743 14.252401 45.628676 -0.903158 1.253124 0.018496 -0.012615 -268517.000000 0 0 1
27.284811 -34.297943 12.936001 45.696279 -0.898791 1.283786 0.029835 -0.011839 715072.000000 0 0 1
26.508911 33.656479 12.363901 44.590885 0.903643 1.289840 0.035890 -0.015037 5877.470000 0 0 1
26.981011 33.409079 10.895401 44.304077 0.891441 1.322324 0.034372 -0.017724 88962.600000 0 0 1
28.314611 32.939379 10.959601 44.797687 0.860757 1.323641 0.020190 -0.017613 184738.000000 0 0 1
28.703911 32.137979 9.866701 44.205384 0.841781 1.345699 0.022968 -0.014861 199268.000000 0 0 1
30.207711 31.750479 9.923001 44.934003 0.810293 1.348126 0.015292 -0.012159 256454.000000 0 0 1
30.452211 30.929679 11.101601 44.802095 0.793177 1.320396 0.018251 -0.003102 534609.000000 0 0 1
31.829911 30.631279 11.298801 45.596945 0.766210 1.320390 0.016775 -0.005864 440857.000000 0 0 1
32.154811 29.611579 12.442201 45.448717 0.744246 1.293492 0.006886 0.008922 -21218.700000 0 0 1
31.805011 28.287879 12.041601 44.235314 0.726937 1.295100 0.009558 0.002734 375713.000000 0 0 1
32.137111 27.367079 13.082701 44.191718 0.705406 1.270248 0.009332 0.000231 -74040.900000 0 0 1
31.947011 25.894979 12.625201 43.018103 0.681147 1.272925 0.003549 0.004587 418847.000000 0 0 1
32.965711 25.340779 11.766201 43.212691 0.655363 1.295029 0.002679 0.013561 202584.000000 0 0 1
32.943111 23.962179 11.574201 42.348515 0.628867 1.293966 0.003250 0.011345 -326152.000000 0 0 1
31.767211 23.357779 10.783301 40.878125 0.634013 1.303846 -0.001446 0.016099 592533.000000 0 0 1
30.529811 23.316779 11.469501 40.091034 0.652236 1.280656 -0.001980 0.010846 521072.000000 0 0 1
29.391511 22.831879 10.756601 38.740935 0.660445 1.289444 -0.003481 0.018403 610734.000000 0 0 1
28.258411 22.466879 11.750901 37.965539 0.671716 1.256113 -0.005823 0.020165 -13201.300000 0 0 1
27.793711 23.554279 12.531601 38.527074 0.703022 1.239502 0.008318 0.015005 -120177.000000 0 0 1
26.882911 23.102079 13.489101 37.925622 0.709903 1.207163 0.029713 0.008296 -580627.000000 0 0 1
23.648511 9.674279 25.688505 36.231796 0.388315 0.782711 0.032218 -0.005707 -268548.000000 0 0 1
23.406111 8.663879 26.563345 36.448870 0.354516 0.754252 0.039991 -0.009118 1019390.000000 0 0 1
21.981011 8.455479 26.515715 35.464674 0.367223 0.726257 0.038853 -0.006176 868721.000000 0 0 1
21.429111 7.303979 27.417645 35.556746 0.328495 0.690237 0.050898 -0.011315 -210683.000000 0 0 1
21.584511 7.490779 28.797785 36.760241 0.334039 0.670687 0.050183 -0.008833 1055910.000000 0 0 1
22.875611 7.089079 29.310545 37.850451 0.300512 0.685065 0.048324 -0.010665 685129.000000 0 0 1
22.950711 6.802879 30.790255 39.000693 0.288162 0.660836 0.037209 -0.001144 -281286.000000 0 0 1
22.792311 7.930979 31.625645 39.781544 0.334863 0.651817 0.051010 0.002765 312925.000000 0 0 1
23.127811 7.537079 32.949735 40.955930 0.315035 0.635935 0.039456 0.008794 -11728.800000 0 0 1
23.287111 8.740979 33.902372 42.048366 0.359084 0.632976 0.058976 0.002956 360585.000000 0 0 1
24.405411 9.560679 33.579298 42.598121 0.373369 0.662786 0.039597 -0.000491 100056.000000 0 0 1
24.738811 10.474479 -34.208789 43.496721 0.400517 2.475866 0.039578 -0.001231 606058.000000 0 0 1
25.929111 11.475179 -34.417720 44.593475 0.416649 2.452480 0.010833 -0.000349 336348.000000 0 0 1
25.559311 12.662079 33.798651 44.226185 0.459961 0.700961 0.002750 0.005157 362220.000000 0 0 1
25.315611 13.697779 -34.099535 44.623846 0.495969 2.440527 0.004879 0.002214 -460762.000000 0 0 1
25.078111 15.104979 34.162735 44.990716 0.542122 0.708516 0.013625 0.003259 -373486.000000 0 0 1
26.151511 15.714679 33.464458 45.284905 0.541088 0.739247 -0.003300 -0.001940 207751.000000 0 0 1
25.889611 17.119979 33.272371 45.501827 0.584256 0.750671 0.022666 -0.013787 -198926.000000 0 0 1
26.255911 17.979379 -34.401040 46.862165 0.600434 2.395122 0.013884 -0.012394 -233926.000000 0 0 1
25.616411 17.808679 -33.123489 45.502913 0.607501 2.386112 0.013845 -0.014265 510664.000000 0 0 1
26.553811 17.237779 -32.224959 45.174040 0.575787 2.365065 0.004890 -0.002871 -313589.000000 0 0 1
25.855711 16.769379 -30.952199 43.678009 0.575373 2.358372 0.002582 -0.002611 -485172.000000 0 0 1
25.137011 15.630579 -31.217119 43.019680 0.556306 2.382771 0.012992 0.004119 -419229.000000 0 0 1
24.480211 15.227379 -30.032179 41.630345 0.556459 2.376620 0.029870 -0.007119 -140935.000000 0 0 1
23.921911 13.805279 -30.158169 40.894483 0.523409 2.400103 0.039681 -0.011173 -671292.000000 0 0 1
22.777511 13.862979 -30.953889 40.855115 0.546738 2.430502 0.038175 -0.014155 -70989.600000 0 0 1
22.261011 12.567979 -31.377149 40.472610 0.513963 2.457937 0.046117 0.000999 112939.000000 0 0 1
21.315411 11.789479 -30.406739 38.960343 0.505217 2.466187 0.043984 -0.001404 -95731.900000 0 0 1
20.101011 12.533979 -30.333609 38.487389 0.557556 2.478584 0.051658 -0.000570 -47885.500000 0 0 1
19.280511 11.880279 -29.400139 37.111283 0.552232 2.485228 0.042584 0.004277 -151362.000000 0 0 1
18.000111 12.715379 -29.144219 36.538615 0.615012 2.494148 0.043012 -0.000688 479656.000000 0 0 1
17.001311 12.721979 -30.172519 36.895450 0.642408 2.528347 0.022193 0.006813 303075.000000 0 0 1
15.960311 13.614379 -29.882669 36.511050 0.706242 2.529514 0.027582 -0.000022 -522525.000000 0 0 1
14.819511 13.594279 -30.902979 36.870265 0.742304 2.564687 0.016957 -0.002487 -324898.000000 0 0 1
14.205211 12.355079 -31.034229 36.298201 0.715853 2.596308 0.005578 0.004121 672912.000000 0 0 1
12.882811 12.245379 -30.443689 35.252437 0.760036 2.613145 0.014296 0.002408 726852.000000 0 0 1
12.030811 11.311879 -31.319789 35.406613 0.754609 2.656377 0.016912 0.004099 -309254.000000 0 0 1
11.778511 11.995379 -32.495949 36.587008 0.794520 2.664171 0.022902 0.000858 120742.000000 0 0 1
10.658911 11.278679 -33.038829 36.501852 0.813642 2.702476 0.028126 0.005054 355717.000000 0 0 1
9.990111 12.183979 -34.089058 37.554168 0.884016 2.708639 0.027245 -0.001255 -410659.000000 0 0 1
10.869711 12.543079 33.736333 37.598133 0.856749 0.457210 0.015317 0.006575 -210507.000000 0 0 1
10.267611 13.223579 32.652165 36.694015 0.910573 0.473780 0.016928 0.007499 -1301960.000000 0 0 1
10.989311 13.272779 31.379635 35.799624 0.879238 0.502180 0.018969 0.011864 -833730.000000 0 0 1
11.153811 11.987479 30.822685 34.901935 0.821408 0.488319 0.013145 0.009441 294745.000000 0 0 1
11.541411 11.937279 29.417985 33.780477 0.802257 0.513852 0.016222 0.010429 -241010.000000 0 0 1
12.002811 10.531879 28.903085 33.020846 0.720217 0.504744 0.017901 0.012241 -102777.000000 0 0 1
11.112911 9.438679 28.943465 32.408480 0.704113 0.466644 0.018104 0.003556 -374401.000000 0 0 1
11.853411 8.300379 28.696515 32.138600 0.610895 0.467054 0.004979 -0.003578 -385399.000000 0 0 1
11.089111 6.971079 28.637185 31.490517 0.561214 0.428979 0.013148 -0.004854 388156.000000 0 0 1
10.046011 6.934279 27.643085 30.218317 0.604154 0.415836 0.020188 -0.011042 359942.000000 0 0 1
9.218711 5.782479 27.596785 29.664865 0.560219 0.375607 0.014839 -0.016094 16749.400000 0 0 1
9.855011 4.416979 27.169445 29.237128 0.421353 0.378341 0.007774 -0.014735 -570882.000000 0 0 1
10.622011 3.854879 28.183025 30.363960 0.348133 0.381322 0.005735 -0.012577 -39982.200000 0 0 1
10.760011 2.443879 28.013155 30.107926 0.223337 0.375227 -0.000816 -0.006702 5801.530000 0 0 1
11.537811 1.909179 29.289535 31.537960 0.163986 0.379885 -0.007767 -0.006218 -77846.500000 0 0 1
10.702711 1.694079 30.373455 32.248483 0.156983 0.342682 -0.002579 -0.015500 -369838.000000 0 0 1
10.408911 0.291279 30.472015 32.202080 0.027976 0.329282 -0.005298 -0.007246 -72387.000000 0 0 1
9.224111 0.065079 31.433565 32.759082 0.007055 0.285442 0.008239 0.003230 -253892.000000 0 0 1
9.381811 0.577079 32.734865 34.057639 0.061433 0.279619 0.005856 -0.004727 -591508.000000 0 0 1
8.174911 1.012579 33.268855 34.273476 0.123237 0.242719 0.019682 -0.010275 -933964.000000 0 0 1
8.347611 2.265179 34.210139 35.286644 0.264976 0.247644 0.021575 -0.011447 -350814.000000 0 0 1
8.485011 3.566479 33.619652 34.856795 0.397906 0.267223 0.016425 -0.007903 636104.000000 0 0 1
9.600111 3.706079 32.716285 34.296537 0.368419 0.304744 -0.002809 -0.002521 316953.000000 0 0 1
9.744211 5.068379 32.000045 33.832543 0.479631 0.330636 -0.002338 -0.004257 34314.300000 0 0 1
10.044311 6.195479 32.828409 34.885191 0.552692 0.345101 -0.000181 -0.004872 97721.900000 0 0 1
10.179711 7.424679 32.140705 34.522127 0.630160 0.373605 0.003694 -0.005299 -222067.000000 0 0 1
10.248211 8.713079 33.054120 35.686390 0.704613 0.386487 0.030687 -0.008651 43875.600000 0 0 1
9.019311 9.120379 33.621894 35.985567 0.790970 0.364461 0.029758 -0.011553 -44989.700000 0 0 1
8.501411 8.305779 -34.206744 36.212723 0.773759 2.807187 0.027838 -0.017898 -727785.000000 0 0 1
7.205011 8.867979 -33.641629 35.529037 0.888495 2.814178 0.027974 -0.014850 -455290.000000 0 0 1
6.715111 8.146779 -32.535139 34.205234 0.881433 2.827815 0.036662 -0.009229 -234343.000000 0 0 1
5.374511 8.524179 -32.306909 33.842036 1.008250 2.839240 0.028727 -0.007022 183872.000000 0 0 1
4.685811 7.773379 -31.140969 32.436742 1.028319 2.857985 0.030534 -0.006145 -395683.000000 0 0 1
5.345511 8.059279 -29.946879 31.469700 0.985146 2.829229 0.033130 -0.009270 -91281.200000 0 0 1
4.980011 7.328579 -28.794719 30.127138 0.973939 2.843075 0.026833 -0.004948 -708962.000000 0 0 1
3.557211 7.377079 -28.258789 29.421662 1.121492 2.859502 0.016789 0.001443 -212657.000000 0 0 1
2.605211 6.689179 -29.076769 29.949804 1.199403 2.899549 0.018698 0.002809 110103.000000 0 0 1
1.278811 6.965879 -28.674969 29.536633 1.389236 2.899454 0.034662 0.003854 315282.000000 0 0 1
0.235111 6.347079 -29.675259 30.347351 1.533771 2.930743 0.034623 -0.001509 163309.000000 0 0 1
0.190411 7.077079 -30.899439 31.700105 1.543897 2.916361 0.034716 -0.004897 187943.000000 0 0 1
-0.354589 6.367379 -32.015139 32.644117 -1.515165 2.944972 0.049848 -0.008427 -265894.000000 0 0 1
-0.185989 7.231579 -33.253049 34.030804 -1.545083 2.927387 0.061934 -0.011228 453522.000000 0 0 1
1.132611 7.445279 -33.754699 34.584602 1.419829 2.922080 0.053574 -0.013275 496267.000000 0 0 1
1.798711 6.425279 34.387839 35.029174 1.297841 0.191649 0.052280 -0.013312 -323510.000000 0 0 1
1.469511 6.361279 32.873880 33.515926 1.343770 0.196051 0.061317 -0.019744 -675088.000000 0 0 1
0.323311 5.620679 32.603775 33.086292 1.513338 0.170992 0.057851 -0.017611 -633081.000000 0 0 1
0.015911 5.611279 31.208045 31.708497 1.567961 0.177902 0.064426 -0.019426 37342.000000 0 0 1
0.932411 4.725779 30.342115 30.722082 1.375995 0.157439 0.077442 -0.023818 -84449.000000 0 0 1
0.480311 4.503479 29.034545 29.385657 1.464545 0.154740 0.062956 -0.024447 206901.000000 0 0 1
1.399511 3.655979 28.346995 28.616026 1.205204 0.137231 0.054055 -0.021295 203154.000000 0 0 1
1.339911 3.898179 26.851005 27.165559 1.239720 0.152326 0.046826 -0.022667 90414.600000 0 0 1
1.862711 5.179079 26.467815 27.034011 1.225541 0.205024 0.042705 -0.014790 149804.000000 0 0 1
1.935911 5.288979 25.087275 25.711717 1.219915 0.220840 0.034086 -0.020021 -477364.000000 0 0 1
2.332311 6.713679 24.589365 25.595898 1.236442 0.281370 0.035451 -0.011063 -160071.000000 0 0 1
3.675811 7.053579 24.773025 26.018596 1.090390 0.310674 0.040281 -0.005851 -726763.000000 0 0 1
4.520711 6.700379 23.732435 25.071106 0.977256 0.328259 0.041196 -0.018999 231675.000000 0 0 1
6.072811 6.937579 23.974335 25.686139 0.851768 0.367142 0.038544 -0.012298 1674930.000000 0 0 1
6.761911 5.992179 24.836315 26.428624 0.725119 0.348896 0.036662 -0.015574 327104.000000 0 0 1
6.661511 4.584579 24.496875 25.797112 0.602775 0.318847 0.046641 -0.016628 -830381.000000 0 0 1
7.018511 4.077179 23.034735 24.422979 0.526270 0.338788 0.048318 -0.022241 64656.000000 0 1 0
6.072711 4.405679 22.015635 23.258891 0.627628 0.328439 0.041068 -0.025834 -76261.700000 0 1 0
4.947711 3.529579 22.062535 22.884344 0.619647 0.268806 0.036148 -0.027849 16368.600000 0 1 0
3.868511 3.916279 21.043035 21.751136 0.791534 0.255863 0.022242 -0.025429 -99795.100000 0 1 0
3.240811 5.170679 21.343935 22.199151 1.010927 0.278477 0.013887 -0.019928 290443.000000 0 1 0
2.014211 5.337579 20.633435 21.407602 1.209955 0.269753 0.008927 -0.015660 271302.000000 0 1 0
1.579411 6.797979 20.736935 21.879843 1.342511 0.324644 0.010412 -0.011097 -40644.600000 0 1 0
2.467511 7.701679 20.097135 21.663317 1.260743 0.382583 0.008449 -0.009753 -268023.000000 0 1 0
2.209311 9.015179 20.506235 22.509113 1.330467 0.425047 0.014924 -0.002462 85138.000000 0 1 0
3.161511 10.041179 19.869435 22.485881 1.265768 0.487214 0.026251 -0.012568 -936291.000000 0 1 0
2.928511 10.413079 18.546535 21.470499 1.296644 0.528003 -0.000683 -0.001617 -366311.000000 0 1 0
3.722311 11.443479 18.008135 21.658756 1.256313 0.589087 -0.003204 -0.002250 1732970.000000 0 1 0
5.307611 11.191279 18.015435 21.862556 1.127949 0.602306 0.004107 -0.006342 1314230.000000 0 1 0
5.624611 10.139279 17.105435 20.664877 1.064325 0.595703 0.000830 -0.008755 -161864.000000 0 1 0
6.942011 9.681779 17.367935 21.061185 0.948740 0.601228 0.000108 -0.003999 -30686.200000 0 1 0
7.134111 8.318379 18.137435 21.190977 0.861888 0.543501 0.006862 0.000683 -285057.000000 0 1 0
6.793511 8.318779 19.501535 22.263507 0.885986 0.503412 0.013318 -0.000974 -131402.000000 0 1 0
6.683811 7.087079 20.173535 22.402489 0.814674 0.449869 0.016302 -0.004861 -51802.800000 0 1 0
7.963111 6.254479 20.353235 22.732879 0.665794 0.461644 0.036351 -0.013553 -198462.000000 0 1 0
8.566311 5.920479 19.106235 21.759641 0.604752 0.499007 0.020072 -0.014379 -1016790.000000 0 1 0
9.916811 5.635379 19.172035 22.308464 0.516758 0.536689 0.023187 -0.018573 -706348.000000 0 1 0
10.260211 4.146979 19.252235 22.206258 0.384105 0.521700 0.039322 -0.019084 -32642.400000 0 1 0
9.727111 3.477079 20.466635 22.925748 0.343308 0.467416 0.048122 -0.021426 321032.000000 0 1 0
10.009811 2.151279 20.356835 22.786510 0.211697 0.466001 0.048848 -0.031095 -358865.000000 0 1 0
9.091711 1.221379 21.134235 23.039246 0.133540 0.409514 0.061437 -0.036622 -332761.000000 0 1 0
9.123111 1.358979 22.565635 24.377979 0.147873 0.388029 0.049573 -0.028517 245812.000000 0 1 0
8.468011 0.278379 23.236035 24.732530 0.032862 0.349649 0.053336 -0.031066 -241712.000000 0 1 0
8.824511 0.340679 24.749925 26.278258 0.038587 0.342731 0.039750 -0.016992 -482707.000000 0 0 1
10.095311 0.065479 25.255505 27.198531 0.006486 0.380278 0.031080 -0.017595 -274456.000000 0 0 1
10.476211 -1.321221 25.131295 27.259468 -0.125454 0.397765 0.020733 -0.016695 235163.000000 0 0 1
11.980211 -1.702921 25.249545 27.999373 -0.141199 0.446904 0.013408 -0.012445 255101.000000 0 0 1
12.055011 -3.101321 25.002585 27.929746 -0.251804 0.461927 0.017679 -0.005771 661751.000000 0 0 1
13.390311 -3.624521 25.100445 28.678736 -0.264348 0.504889 0.011032 -0.001039 633482.000000 0 0 1
13.354811 -5.140821 25.318935 29.083113 -0.367458 0.514433 0.016497 -0.007134 -158650.000000 0 0 1
13.222511 -5.966521 24.144355 28.167074 -0.423884 0.541020 0.015507 -0.010547 271044.000000 0 0 1
12.811611 -7.306421 24.389815 28.502355 -0.518293 0.543871 0.017352 -0.001923 -74986.400000 0 0 1
12.838911 -8.190221 23.146035 27.706611 -0.567837 0.581941 0.037857 -0.004245 6669.590000 0 0 1
12.266011 -9.456921 23.378335 28.043447 -0.656797 0.585118 0.036548 0.001229 -228837.000000 0 0 1
12.526111 -10.278221 22.253535 27.527533 -0.687143 0.629350 0.032398 -0.005292 133112.000000 0 0 1
11.715011 -11.582021 22.260935 27.693572 -0.779690 0.637090 0.042054 -0.003332 1375330.000000 0 0 1
10.273511 -11.450521 22.211535 27.018729 -0.839525 0.605743 0.042460 -0.000334 919510.000000 0 0 1
9.652311 -12.696321 22.438235 27.528859 -0.920771 0.617928 0.037130 0.005403 972594.000000 0 0 1
8.086511 -12.677521 22.576935 27.126172 -1.003001 0.587564 0.022164 0.013685 1185190.000000 0 0 1
7.361611 -12.511721 21.353335 25.820561 -1.038967 0.597065 0.018742 0.005982 936469.000000 0 0 1
5.961211 -12.242221 21.588935 25.524304 -1.117652 0.562698 0.015506 0.005808 1164810.000000 0 0 1
5.450611 -10.882521 21.063735 24.327337 -1.106462 0.523957 0.015026 0.001728 74473.000000 0 1 0
5.815611 -9.701721 21.752835 24.517964 -1.030788 0.479512 0.022217 0.013298 -296785.000000 0 1 0
4.959511 -8.644121 21.380035 23.588630 -1.049907 0.436184 0.020524 0.013651 3061.830000 0 1 0
5.547811 -7.256421 21.607135 23.458519 -0.918056 0.399955 0.034658 -0.000355 -203432.000000 0 1 0
4.703811 -6.191021 21.283835 22.659572 -0.921066 0.350251 0.025705 0.001758 -609422.000000 0 1 0
5.233611 -4.999921 21.706935 22.881890 -0.762566 0.321852 0.045349 -0.017176 -125636.000000 0 1 0
-8.044289 -15.385621 -20.649299 26.978167 1.089041 2.442471 0.033600 0.002591 129209.000000 0 0 1
-7.738089 -14.660321 -19.430099 25.540787 1.085137 2.435261 0.033874 -0.006397 -81017.400000 0 0 1
-7.067289 -13.462321 -19.717399 24.898926 1.087374 2.484707 0.024992 -0.017886 133270.000000 0 1 0
-6.284489 -12.915121 -18.466499 23.394588 1.117927 2.480545 0.014302 -0.018237 -171028.000000 0 1 0
-5.295389 -13.823421 -18.122499 23.399852 1.204966 2.456674 0.023016 -0.009144 -196041.000000 0 1 0
-4.514589 -13.484321 -16.956599 22.129950 1.247724 2.443747 0.033022 -0.016880 218983.000000 0 1 0
-3.559389 -14.616421 -16.595399 22.399024 1.331926 2.405203 0.030550 0.001599 154640.000000 0 1 0
-2.411189 -14.648621 -17.444799 22.906701 1.407657 2.436511 0.016718 0.001529 -755700.000000 0 1 0
-1.412789 -15.342321 -16.832799 22.819420 1.478971 2.400383 0.017804 0.006817 -998417.000000 0 1 0
-0.087189 -15.459421 -17.586699 23.415663 1.565157 2.420471 0.013021 0.014668 -143081.000000 0 1 0
-0.004089 -16.353221 -18.751399 24.880571 1.570546 2.424404 0.022107 -0.003310 -297790.000000 0 1 0
0.107611 -17.757121 -18.462599 25.616294 -1.564736 2.375661 0.027029 0.007515 -112208.000000 0 0 1
-0.013589 -18.526121 -19.739099 27.071191 1.570063 2.387883 0.038217 -0.004492 762871.000000 0 0 1
-1.399589 -18.573521 -20.110899 27.411363 1.495584 2.394504 0.029196 0.003034 587729.000000 0 0 1
-1.577989 -18.733321 -21.519799 28.574974 1.486760 2.423557 0.045177 -0.002929 -694469.000000 0 0 1
-2.736289 -17.989321 -22.131799 28.651693 1.419847 2.453475 0.037927 0.001785 -499624.000000 0 0 1
-2.617689 -16.564121 -22.084899 27.730221 1.414059 2.492148 0.027216 0.004179 -167701.000000 0 0 1
-3.264889 -15.969521 -20.988599 26.574544 1.369130 2.481281 0.017642 0.001135 -289794.000000 0 0 1
-2.577989 -14.711921 -20.504399 25.367638 1.397326 2.512038 0.024845 -0.002466 -195606.000000 0 0 1
-2.549889 -13.610121 -21.432699 25.516621 1.385591 2.567988 0.018425 -0.016459 229652.000000 0 0 1
-1.777989 -12.535721 -20.905199 24.440395 1.429902 2.597031 0.020047 -0.016132 62080.900000 0 1 0
-1.548189 -11.454421 -22.013599 24.863612 1.436450 2.658095 0.029219 -0.020830 -533042.000000 0 1 0
-2.611789 -10.594821 -22.137799 24.681042 1.329100 2.683631 0.022041 -0.025945 -587171.000000 0 1 0
-2.692989 -10.289621 -23.506699 25.801035 1.314819 2.716683 0.026070 -0.014855 -323240.000000 0 0 1
-3.619589 -9.165821 -24.002599 25.946839 1.194694 2.752012 0.012503 -0.006808 -1199400.000000 0 0 1
-4.937389 -9.395321 -23.672899 25.943323 1.086945 2.720115 0.018138 -0.016918 -885702.000000 0 0 1
-5.624789 -8.203521 -23.888899 25.876930 0.969763 2.747053 0.013344 -0.015273 432406.000000 0 0 1
-7.166289 -8.136421 -23.511499 25.891073 0.848710 2.709504 0.006979 -0.021520 1794040.000000 0 0 1
-8.108789 -8.623221 -24.484599 27.195735 0.816134 2.691278 0.018146 -0.011482 658167.000000 0 0 1
-8.304989 -7.640321 -25.505849 27.890781 0.743738 2.725043 0.026874 -0.016902 -590814.000000 0 0 1
-9.115689 -8.126021 -26.706869 29.366390 0.728061 2.712723 0.035728 -0.018913 64115.900000 0 0 1
-9.627089 -6.996121 -27.410429 29.882406 0.628429 2.731983 0.053446 -0.026609 -29759.100000 0 0 1
-10.494689 -7.354521 -28.445199 31.198667 0.611253 2.718307 0.054663 -0.026021 -361434.000000 0 0 1
-11.178289 -6.148121 -29.110869 31.783584 0.502847 2.728563 0.058450 -0.031398 -39085.900000 0 0 1
-10.406689 -5.282021 -29.906289 32.102727 0.469677 2.769534 0.025866 -0.022861 504079.000000 0 0 1
-11.286389 -4.819421 -30.957779 33.301554 0.403573 2.764176 0.056690 -0.024284 629688.000000 0 0 1
-10.598589 -3.854121 -31.947139 33.879257 0.348778 2.802240 0.043344 -0.023969 -177720.000000 0 0 1
-9.497889 -4.381021 -32.627929 34.263465 0.432180 2.831371 0.031462 -0.020423 90762.800000 0 0 1
-9.017189 -3.486421 -33.660119 35.020972 0.368938 2.861905 0.026542 -0.020825 -1035.560000 0 0 1
-8.043289 -4.150721 34.193481 35.371134 0.476403 0.258769 0.026415 -0.015582 357039.000000 0 0 1
-6.719689 -4.179121 -34.141495 35.046554 0.556383 2.913837 0.027039 -0.017811 24753.700000 0 0 1
-5.783989 -4.412021 33.682980 34.459593 0.651642 0.212707 0.020145 -0.017170 1245880.000000 0 0 1
-4.298189 -4.137721 34.187288 34.703974 0.766378 0.172774 0.032106 -0.020036 1193140.000000 0 0 1
-4.072889 -2.734021 34.272933 34.622207 0.591185 0.142163 0.043054 -0.020625 -818228.000000 0 0 1
-2.775389 -2.305221 -34.351587 34.540532 0.693119 3.036948 0.044332 -0.023250 -561916.000000 0 0 1
-2.710089 -0.875921 -33.797779 33.917572 0.312610 3.057522 0.052904 -0.024835 -36564.300000 0 0 1
-3.002489 -0.858521 -32.408989 32.559094 0.278505 3.045533 0.039539 -0.030788 86914.000000 0 0 1
-3.349289 0.418879 -31.942129 32.119975 -0.124419 3.036312 0.039018 -0.033717 -764284.000000 0 0 1
-3.930689 0.407479 -30.512979 30.767812 -0.103297 3.012799 0.054223 -0.024290 857316.000000 0 0 1
-5.105289 -0.388521 -30.301729 30.731250 0.075955 2.974205 0.041807 -0.022208 386738.000000 0 0 1
-6.295789 0.158879 -30.824019 31.460807 -0.025230 2.940052 0.049380 -0.025484 -1367770.000000 0 0 1
-7.474789 -0.738321 -30.635579 31.542928 0.098455 2.901158 0.047450 -0.026388 -1015480.000000 0 0 1
-7.885689 -0.918321 -29.352539 30.407219 0.115932 2.877443 0.047231 -0.026100 -295803.000000 0 0 1
-8.846989 -1.940721 -29.318949 30.686094 0.215945 2.841968 0.049343 -0.027170 -190429.000000 0 0 1
-9.031289 -2.533721 -27.927729 29.460855 0.273518 2.817564 0.053819 -0.027582 -206629.000000 0 0 1
-9.800389 -1.728821 -27.071059 28.842307 0.174607 2.789313 0.046929 -0.024746 41019.300000 0 0 1
-10.175489 -2.377121 -25.897149 27.925859 0.229497 2.758074 0.039865 -0.021678 -483843.000000 0 0 1
-11.188089 -1.545521 -25.133929 27.554970 0.137271 2.719266 0.046476 -0.017530 -561391.000000 0 0 1
-10.750689 -0.275421 -24.632499 26.877745 0.025613 2.729949 0.054333 -0.019626 411600.000000 0 0 1
-11.659689 0.357079 -23.726299 26.438856 -0.030616 2.684643 0.057165 -0.019327 246185.000000 0 0 1
-10.855189 1.454979 -23.011299 25.484740 -0.133241 2.697368 0.059380 -0.024744 220729.000000 0 0 1
-10.525289 2.560679 -23.825199 26.172102 -0.238652 2.714872 0.036355 -0.022644 -121300.000000 0 0 1
-9.845089 3.500379 -23.062099 25.318745 -0.341607 2.716185 0.030979 -0.024874 -653997.000000 0 0 1
-9.623189 4.878679 -23.747799 26.083812 -0.469209 2.715148 0.039145 -0.035428 -21144.100000 0 0 1
-10.829889 5.533379 -24.094299 26.989628 -0.472358 2.674152 0.050015 -0.028257 271771.000000 0 0 1
-11.487589 5.057479 -25.269509 28.215083 -0.414721 2.680581 0.046930 -0.022603 -467393.000000 0 0 1
-12.798889 5.759479 -25.597509 29.192732 -0.422853 2.640057 0.049672 -0.008954 -477376.000000 0 0 1
-12.716489 7.068179 -26.100249 29.881286 -0.507307 2.633070 0.041496 -0.004299 -632516.000000 0 0 1
-13.909989 7.576379 -26.618579 30.974797 -0.498743 2.604818 0.042949 -0.001014 -442033.000000 0 0 1
-13.948189 9.128979 -26.761059 31.528472 -0.579527 2.584489 0.039253 0.005289 -152978.000000 0 0 1
-13.847689 9.834379 -25.561439 30.689749 -0.617527 2.555121 0.055165 -0.008593 61908.900000 0 0 1
-14.145289 11.205979 -25.698459 31.401815 -0.669970 2.529374 0.049813 -0.002627 -144184.000000 0 0 1
-13.905689 11.877279 -24.376999 30.474186 -0.706887 2.497963 0.026976 -0.003757 -440130.000000 0 0 1
-14.742789 11.393379 -23.385299 29.900353 -0.657941 2.468838 0.036827 -0.002164 -236390.000000 0 0 1
-14.230289 11.758779 -22.127499 28.816596 -0.690585 2.446311 0.022261 -0.000673 -305310.000000 0 0 1
-15.104589 11.572279 -20.862099 28.236385 -0.653753 2.402140 0.035624 0.000668 173145.000000 0 0 1
-16.323389 12.296479 -20.962899 29.276263 -0.645613 2.368905 0.042376 -0.004518 -858.988000 0 0 1
-16.798789 12.671279 -19.724999 28.841571 -0.646246 2.323903 0.044331 -0.002807 -622136.000000 0 0 1
-18.206589 13.248779 -19.820099 29.997439 -0.629070 2.292582 0.059232 -0.010441 -579095.000000 0 0 1
-18.312589 14.448979 -20.590599 31.114252 -0.668009 2.293979 0.062655 -0.011374 -1485780.000000 0 0 1
-19.591189 14.891779 -20.576799 32.077787 -0.649951 2.267204 0.047837 -0.018620 -1498450.000000 0 0 1
-19.788089 16.312179 -21.239599 33.298291 -0.689409 2.262511 0.043312 -0.013756 -133140.000000 0 0 1
-19.840189 16.344079 -22.642399 34.255514 -0.689078 2.292928 0.059410 -0.016600 108052.000000 0 0 1
-20.340189 17.552279 -23.153799 35.466945 -0.711956 2.282108 0.045125 -0.003088 32615.200000 0 0 1
-20.536589 17.545079 -24.681599 36.589105 -0.707004 2.311167 0.029218 -0.006413 314502.000000 0 0 1
-19.287189 17.712879 -25.330599 36.433240 -0.742875 2.339579 0.027059 -0.002127 357193.000000 0 0 1
-19.352389 17.166179 -26.583449 37.092754 -0.725604 2.369819 0.018154 -0.009158 33765.700000 0 0 1
-18.638889 17.893879 -27.749689 37.916281 -0.765008 2.391855 -0.004823 -0.000219 -77676.300000 0 0 1
-19.219789 19.169979 -27.920279 38.941371 -0.784101 2.370260 -0.000487 -0.017491 316689.000000 0 0 1
-18.413889 20.238779 -27.458109 38.763736 -0.832576 2.357948 -0.013617 -0.021966 -1386790.000000 0 0 1
-19.133489 21.586279 -27.454889 39.822466 -0.845561 2.331501 0.017360 -0.018819 -4335.020000 0 0 1
-20.014189 21.783279 -26.371959 39.630282 -0.827698 2.298892 0.032899 -0.013795 526450.000000 0 0 1
-21.297789 21.159079 -26.533189 40.066352 -0.782131 2.294589 0.070050 -0.022359 4985.700000 0 0 1
-22.305489 21.597879 -25.440169 40.139823 -0.769282 2.257238 0.065995 -0.014834 107115.000000 0 0 1
-22.082789 21.031479 -24.183299 38.920491 -0.761019 2.241263 0.033593 -0.004299 281428.000000 0 0 1
-23.055689 21.616479 -23.331399 39.283472 -0.753192 2.206724 0.034012 -0.009987 -83358.400000 0 0 1
-22.697189 21.351679 -21.850599 38.059234 -0.754862 2.182326 0.039542 -0.004125 476015.000000 0 0 1
-21.550189 21.971179 -21.233299 37.389789 -0.795071 2.174737 0.032999 -0.000992 542780.000000 0 0 1
-20.534889 21.072479 -20.822999 36.046197 -0.798318 2.186674 0.029941 -0.000695 -150543.000000 0 0 1
-20.748389 20.151179 -19.614899 34.947245 -0.770797 2.166718 0.042391 -0.012256 -1083560.000000 0 0 1
-21.671389 19.108279 -19.926699 35.097703 -0.722628 2.174566 0.063620 -0.016025 317786.000000 0 0 1
-22.421689 18.599279 -18.845599 34.696137 -0.692485 2.144994 0.057404 -0.015226 -102359.000000 0 0 1
-23.547689 19.558479 -18.412799 35.721967 -0.693117 2.112326 0.027563 -0.013236 -1343110.000000 0 0 1
-24.621789 19.644779 -19.298199 36.940091 -0.673436 2.120482 0.027693 -0.008109 -10835.100000 0 0 1
-25.468169 20.751279 -19.027199 37.964161 -0.683696 2.095768 0.015682 -0.009788 -1118300.000000 0 0 1
-26.896979 20.619179 -19.547099 39.123996 -0.654040 2.093955 -0.002694 -0.005378 -342116.000000 0 0 1
-27.821639 19.698979 -18.999599 39.026634 -0.616105 2.079261 0.000490 -0.006086 266272.000000 0 0 1
-27.852439 19.556679 -17.611099 38.319354 -0.612170 2.048327 -0.009419 -0.008212 -721721.000000 0 0 1
-28.872969 18.461379 -17.114999 38.306580 -0.568887 2.033970 -0.009038 -0.005061 79571.800000 0 0 1
-28.258389 17.233079 -16.878699 37.153816 -0.547623 2.042374 0.003694 -0.009609 4426.510000 0 0 1
-29.186679 16.267879 -16.430399 37.235254 -0.508487 2.027798 0.001326 -0.006658 174157.000000 0 0 1
-28.393179 15.152979 -15.739199 35.826077 -0.490230 2.025641 0.023450 -0.003805 -20801.200000 0 0 1
-27.840629 15.455079 -14.434799 34.961743 -0.506771 1.996404 0.024321 -0.001567 62665.300000 0 0 1
-28.773869 15.662179 -13.401199 35.395360 -0.498472 1.959095 0.001605 0.004916 194698.000000 0 0 1
-28.109019 16.378279 -12.154799 34.729010 -0.527579 1.928357 0.006928 0.004164 380392.000000 0 0 1
-27.580189 17.695879 -12.333499 35.013228 -0.570458 1.930773 0.009500 0.010039 -1468.470000 0 0 1
-28.525139 18.750879 -12.344199 36.299563 -0.581522 1.917782 -0.006146 0.005365 -341995.000000 0 0 1
-27.949829 20.202079 -12.397599 36.647202 -0.625863 1.915902 0.010206 -0.006520 81481.500000 0 0 1
-27.310699 20.589879 -11.170299 35.980453 -0.646000 1.886468 -0.013396 -0.008524 -696163.000000 0 0 1
-26.338249 21.497579 -11.408399 35.860854 -0.684548 1.894552 -0.017283 -0.004043 -585817.000000 0 0 1
-25.561989 21.859479 -10.100299 35.117918 -0.707480 1.862528 -0.008423 0.003780 24278.000000 0 0 1
-26.159919 22.966179 -9.415999 36.061722 -0.720478 1.834966 0.002330 -0.004071 350771.000000 0 0 1
-25.665519 24.239279 -9.828699 36.645120 -0.756827 1.842334 0.016228 -0.013806 57740.000000 0 0 1
-26.349959 25.358479 -8.982299 37.657064 -0.766226 1.811647 0.032431 0.002557 93286.200000 0 0 1
-25.828869 25.451479 -7.664099 37.062740 -0.778039 1.779086 0.018360 0.001817 -47433.300000 0 0 1
-26.802529 25.811679 -6.716199 37.811713 -0.766568 1.749366 0.036594 -0.011815 4196.710000 0 0 1
-26.491719 25.156779 -5.356999 36.923869 -0.759557 1.716392 0.037753 -0.006838 61898.800000 0 0 1
-26.819239 23.772079 -5.499999 36.257872 -0.725240 1.723075 0.038756 -0.006102 38206.700000 0 0 1
-26.702989 23.036079 -4.288499 35.526072 -0.711808 1.691806 0.035108 -0.007123 -3137.890000 0 0 1
-27.155979 21.575279 -4.537799 34.979015 -0.671375 1.700892 0.018782 -0.002269 118627.000000 0 0 1
-26.188169 20.801679 -5.230599 33.850985 -0.671265 1.725936 0.015287 -0.010084 128979.000000 0 0 1
-26.171689 20.980879 -6.653899 34.196914 -0.675754 1.766622 0.008845 -0.002015 -441986.000000 0 0 1
-27.047419 20.011679 -7.502999 34.472092 -0.636989 1.790207 0.004695 -0.006437 -281129.000000 0 0 1
-26.767699 18.648979 -7.369499 33.445532 -0.608506 1.792963 -0.005478 0.000655 109718.000000 0 0 1
-26.965539 18.013679 -8.591899 33.547782 -0.588943 1.829791 -0.018282 0.002557 -133957.000000 0 0 1
-26.580939 16.506179 -8.779299 32.497328 -0.555702 1.844350 0.002213 0.007644 233026.000000 0 0 1
-27.485239 15.607479 -8.142299 32.639375 -0.516444 1.822921 -0.011786 0.007878 204320.000000 0 0 1
-27.229699 14.336279 -8.652899 31.966515 -0.484618 1.844902 -0.001551 0.001530 -97786.900000 0 0 1
-27.928319 13.187079 -7.949399 31.891739 -0.441142 1.822714 -0.007413 -0.009085 -705857.000000 0 0 1
-29.325909 13.333279 -7.924899 33.175131 -0.426721 1.812009 0.009162 0.002100 -370591.000000 0 0 1
-29.855389 12.385579 -6.993399 33.070447 -0.393244 1.783875 0.027015 -0.009798 233956.000000 0 0 1
-30.421849 11.049379 -7.601699 33.247007 -0.348390 1.801480 0.031241 -0.002626 380004.000000 0 0 1
-29.316479 10.173679 -7.819799 32.001702 -0.334026 1.817652 0.032493 0.009655 576754.000000 0 0 1
-29.808259 8.899079 -8.091499 32.143402 -0.290121 1.825265 0.034152 0.016292 -626410.000000 0 0 1
-28.727999 7.861479 -8.377299 30.939940 -0.267113 1.844979 0.051397 0.007351 -606444.000000 0 0 1
-28.499549 7.845279 -9.818999 31.147800 -0.268624 1.891505 0.047627 0.007927 713178.000000 0 0 1
-27.407679 6.960279 -10.088399 30.023360 -0.248696 1.913483 0.054669 -0.009185 292412.000000 0 0 1
-26.977759 6.995679 -11.599599 30.187575 -0.253724 1.965192 0.045575 -0.008653 -49096.400000 0 0 1
-26.648639 8.293779 -12.113199 30.424765 -0.301725 1.980280 0.055487 -0.011307 387609.000000 0 0 1
-25.430499 8.246979 -12.823499 29.650718 -0.313594 2.018044 0.056695 -0.011489 -117480.000000 0 0 1
-30.962819 25.913279 -34.138760 52.873898 -0.696849 2.272689 -0.006304 0.012801 -299389.000000 0 0 1
-31.409279 27.177379 -34.424333 53.946153 -0.713290 2.262856 -0.007089 0.010500 278627.000000 0 0 1
-31.147109 27.437579 33.047530 53.057538 -0.722163 0.898401 0.004310 0.008712 -271026.000000 0 0 1
-31.624039 28.884779 32.754985 53.919378 -0.740159 0.917911 0.010834 -0.010729 -56914.900000 0 0 1
-31.696809 29.248779 31.422215 53.362293 -0.745252 0.941165 0.025378 -0.011207 206897.000000 0 0 1
-31.881499 30.669479 31.376195 54.235712 -0.766024 0.953889 0.033749 -0.018209 7537.140000 0 0 1
-31.813149 31.210979 29.952175 53.696689 -0.775844 0.979060 0.056845 -0.021422 1012160.000000 0 0 1
-30.455809 31.247279 29.450265 52.642823 -0.798225 0.977092 0.050469 -0.021130 1079940.000000 0 0 1
-30.388899 32.019379 28.274865 52.423218 -0.811518 1.001122 0.054006 -0.018029 501068.000000 0 0 1
-28.965939 32.044379 27.641765 51.282892 -0.835813 1.001540 0.052045 -0.017521 268149.000000 0 0 1
-28.468459 30.850379 27.091145 49.961277 -0.825531 0.997692 0.063502 -0.021527 499170.000000 0 0 1
-27.251319 30.820379 26.344055 48.852220 -0.846780 1.001238 0.035434 -0.006948 169685.000000 0 0 1
-27.084549 31.575179 24.986175 48.527040 -0.861803 1.029915 0.032117 -0.005122 -525814.000000 0 0 1
-27.143539 32.993279 25.130345 49.566747 -0.882367 1.039096 0.021091 -0.010227 633560.000000 0 0 1
-28.149229 33.613779 24.302445 50.128575 -0.873644 1.064659 0.020643 -0.003240 372702.000000 0 0 1
-28.589999 -34.034343 24.883175 50.940131 0.872117 1.060451 0.035176 -0.001422 -254673.000000 0 0 1
-29.084879 -34.150943 26.169465 51.933207 0.865341 1.042681 0.050863 -0.019223 140030.000000 0 0 1
-29.064199 -32.909043 26.885835 51.483793 0.847359 1.021345 0.039410 -0.021169 -207443.000000 0 0 1
-29.420129 -33.009643 28.411715 52.558596 0.842832 0.999679 0.066241 -0.018985 -927060.000000 0 0 1
-30.743789 -33.403443 28.550545 53.629322 0.826836 1.009401 0.071296 -0.020347 -773709.000000 0 0 1
-31.190499 -33.453943 29.882085 54.634719 0.820398 0.992088 0.062616 -0.022549 973242.000000 0 0 1
-32.725289 -33.776743 30.006665 55.787210 0.801208 1.002879 0.067787 -0.028697 1021560.000000 0 0 1
-33.160309 -33.796243 31.355775 56.788879 0.794896 0.985860 0.059131 -0.028956 -245538.000000 0 0 1
-34.539743 -33.961243 31.576585 57.822492 0.776953 0.993100 0.048383 -0.030811 -79519.100000 0 0 1
-34.850033 -34.257543 33.088528 59.016563 0.776825 0.975608 0.039645 -0.018392 -180229.000000 0 0 1
-34.459692 33.507979 33.553299 58.618076 -0.771397 0.961360 0.023698 -0.011850 -113156.000000 0 0 1
-35.227525 32.979579 -34.226269 59.161378 -0.752452 2.187714 0.012442 -0.003816 290354.000000 0 0 1
-34.642799 31.646179 -33.640089 57.734390 -0.740224 2.192806 -0.005779 0.001629 -247902.000000 0 0 1
-33.393909 31.724879 -33.046099 56.689203 -0.759773 2.193132 0.004543 0.000311 -993764.000000 0 0 1
-33.033469 30.467779 -32.504459 55.462018 -0.745016 2.196993 -0.011263 0.002776 404806.000000 0 0 1
-32.464909 30.459979 -30.997779 54.246133 -0.753547 2.179042 -0.013924 0.003170 53184.900000 0 0 1
-33.387439 30.665479 -29.963299 54.340519 -0.742928 2.154836 -0.020244 -0.000624 -593221.000000 0 0 1
-33.479529 32.050179 -29.644209 55.017015 -0.763589 2.139831 -0.017165 0.012939 370950.000000 0 0 1
-34.428466 32.262779 -28.430609 55.086348 -0.752936 2.113099 -0.018042 0.011676 448643.000000 0 0 1
-33.878259 31.637679 -27.276099 53.783499 -0.751212 2.102667 -0.029481 0.003797 250706.000000 0 0 1
-34.884187 31.450879 -26.276239 53.819188 -0.733687 2.080859 -0.007711 0.001592 -382559.000000 0 0 1
-34.458591 31.096479 -24.884599 52.665252 -0.734156 2.062927 -0.002756 0.001714 -296037.000000 0 0 1
-33.978309 32.287879 -24.203999 52.752878 -0.759894 2.047461 -0.005991 -0.001940 52119.800000 0 0 1
-33.677089 32.107279 -22.812699 51.821259 -0.761540 2.026639 -0.008133 -0.000235 470936.000000 0 0 1
-34.925469 31.802679 -21.898799 52.064923 -0.738634 2.004909 -0.014286 -0.000829 1579760.000000 0 0 1
35.040253 32.817579 -21.621699 52.652737 0.752655 1.993960 -0.008768 0.000829 874087.000000 0 0 1
-35.478924 34.028779 -21.024999 53.467396 -0.764538 1.974939 -0.002583 -0.001956 -232363.000000 0 0 1
-35.070034 33.856179 -19.473999 52.491759 -0.767789 1.950873 -0.009272 0.000686 186277.000000 0 0 1
-34.087878 32.886079 -19.187899 51.104335 -0.767456 1.955695 -0.004531 0.000889 -25997.400000 0 0 1
-34.026929 32.735379 -17.807799 50.463399 -0.766055 1.931449 0.009439 0.003750 -595220.000000 0 0 1
-33.014299 31.701279 -17.450899 48.984170 -0.765112 1.935054 0.008457 0.010327 -622971.000000 0 0 1
-32.912369 31.564779 -16.080099 48.354202 -0.764501 1.909801 0.010686 0.008295 685106.000000 0 0 1
-31.864959 30.602779 -15.778299 46.913329 -0.765196 1.913812 0.008685 0.011052 550502.000000 0 0 1
-31.594259 30.501379 -14.282599 46.179259 -0.767800 1.885238 0.008194 0.004101 -295717.000000 0 0 1
-32.645759 29.937679 -13.551899 46.321314 -0.742154 1.867702 0.017393 -0.004544 47047.500000 0 0 1
-32.149469 29.491979 -12.279699 45.322800 -0.742313 1.845164 0.030323 -0.010415 -752.547000 0 0 1
-33.063419 28.512379 -11.509499 45.151013 -0.711623 1.828552 0.037351 -0.009923 20956.900000 0 0 1
-32.383889 27.897979 -10.427699 43.997163 -0.711119 1.810082 0.046115 -0.008553 318354.000000 0 0 1
-33.280119 27.046679 -9.728599 43.974251 -0.682436 1.793876 0.049933 -0.011947 -253775.000000 0 0 1
-32.711859 26.295879 -8.530499 42.828826 -0.677092 1.771314 0.042347 -0.009691 -19735.000000 0 0 1
-32.354339 27.159979 -7.434399 42.892167 -0.698340 1.745004 0.049248 -0.016685 -674011.000000 0 0 1
-31.154519 27.833779 -7.426199 42.431966 -0.729163 1.746717 0.053088 -0.017772 -1155430.000000 0 0 1
-30.723549 28.434279 -6.022599 42.293219 -0.746720 1.713683 0.057928 -0.017058 -406675.000000 0 0 1
-30.118939 27.455079 -5.272399 41.094161 -0.739163 1.699451 0.065028 -0.019052 -22401.700000 0 0 1
-29.969289 27.726079 -3.918599 41.015231 -0.746537 1.666482 0.058520 -0.015992 -317232.000000 0 0 1
-29.083999 26.654679 -3.277799 39.586549 -0.741842 1.653692 0.057099 -0.019076 -271571.000000 0 0 1
-29.751079 25.476579 -2.911599 39.276713 -0.708154 1.644995 0.046718 -0.003626 -7922.850000 0 0 1
-28.907129 24.752879 -2.065799 38.112920 -0.708134 1.625025 0.019304 0.008339 -40906.000000 0 0 1
-29.586549 23.481979 -1.559499 37.804752 -0.670870 1.612059 0.025006 0.003106 -228526.000000 0 0 1
-29.776809 22.554779 -2.599499 37.445077 -0.648259 1.640274 0.006954 0.017528 139222.000000 0 0 1
-30.799199 21.649279 -2.222399 37.712345 -0.612681 1.629761 0.010077 0.017469 -109206.000000 0 0 1
-31.001759 20.612279 -3.377999 37.381626 -0.586761 1.661285 0.009584 0.018059 -610722.000000 0 0 1
-30.008069 19.700179 -3.717999 36.088845 -0.580928 1.674003 0.000350 0.011080 -775421.000000 0 0 1
-30.341929 18.975679 -4.875199 36.117539 -0.558883 1.706191 0.008603 0.011707 -308912.000000 0 0 1
-29.403239 17.934979 -5.504399 34.878537 -0.547715 1.729275 0.004429 0.008168 -448574.000000 0 0 1
-29.254259 16.826179 -4.638499 34.065344 -0.521962 1.707385 0.009121 0.005514 967763.000000 0 0 1
-28.409089 15.745379 -5.182199 32.891465 -0.506091 1.729010 0.010644 -0.003906 221535.000000 0 0 1
-28.059349 14.670279 -4.173399 31.936835 -0.481745 1.701848 0.018818 -0.010521 -744059.000000 0 0 1
-29.127229 13.869479 -3.724499 32.475064 -0.444402 1.685737 0.038512 -0.014102 109853.000000 0 0 1
-28.752799 12.577479 -3.226099 31.548758 -0.412356 1.673233 0.047517 -0.022200 248568.000000 0 0 1
-29.979459 11.837979 -2.594499 32.336313 -0.376076 1.651118 0.044623 -0.026296 495435.000000 0 0 1
-31.038569 11.593679 -3.512699 33.318842 -0.357477 1.676419 0.035847 -0.015360 768426.000000 0 0 1
-31.876329 10.537279 -2.996899 33.706320 -0.319259 1.659826 0.051319 -0.019431 -97138.200000 0 0 1
-32.985159 10.097879 -3.954199 34.722090 -0.297075 1.684925 0.039408 -0.011554 -504699.000000 0 0 1
-32.548679 9.324479 -5.039999 34.231038 -0.279006 1.718568 0.044162 -0.014749 79804.200000 0 0 1
-33.580259 8.831979 -5.851599 35.211913 -0.257186 1.737753 0.037154 -0.004269 -436088.000000 0 0 1
-33.079309 7.871879 -6.902299 34.696526 -0.233625 1.771066 0.039484 -0.003291 -408990.000000 0 0 1
-32.412929 6.759779 -6.316999 33.707522 -0.205605 1.759317 0.036612 -0.003941 559800.000000 0 0 1
-31.972899 5.847779 -7.333299 33.320265 -0.180899 1.792698 0.029347 0.008035 13892.100000 0 0 1
-30.991999 4.773179 -6.775799 32.081127 -0.152813 1.783607 0.042098 0.006269 68928.000000 0 0 1
-29.650499 5.151279 -6.643599 30.819234 -0.172016 1.788068 0.041258 0.003901 577369.000000 0 0 1
-28.713119 4.089079 -6.363099 29.692639 -0.141460 1.786770 0.033069 0.000739 1160310.000000 0 0 1
-27.214219 4.540279 -6.398599 28.322604 -0.165312 1.798682 0.041666 0.002098 353694.000000 0 0 1
-26.680309 4.716279 -7.679299 28.161211 -0.174963 1.846985 0.049268 0.001841 661478.000000 0 0 1
-25.279049 4.465579 -7.480699 26.738223 -0.174848 1.854357 0.055134 -0.006910 529529.000000 0 0 1
-24.347789 4.912679 -8.623899 26.292981 -0.199098 1.904974 0.046987 0.000595 55195.500000 0 0 1
-24.721289 4.437779 -9.916699 27.003276 -0.177621 1.946837 0.055732 -0.013623 840002.000000 0 0 1
-23.645989 4.843179 -10.782199 26.435676 -0.202026 1.990911 0.053955 -0.018114 296376.000000 0 0 1
-23.745589 4.126579 -12.140599 26.986585 -0.172065 2.037422 0.061849 -0.021182 -111181.000000 0 0 1
-24.698889 4.847579 -12.898099 28.282417 -0.193804 2.044344 0.071286 -0.012292 115041.000000 0 0 1
-25.259449 3.954879 -13.851699 29.078349 -0.155309 2.067304 0.058840 -0.016419 7375.260000 0 0 1
-26.229799 4.753179 -14.746399 30.463935 -0.179268 2.076086 0.046290 -0.016304 -252258.000000 0 0 1
-25.529489 5.590279 -15.619599 30.446312 -0.215571 2.109497 0.043334 -0.012454 296449.000000 0 0 1
-26.420139 6.496479 -16.213499 31.671841 -0.241108 2.108217 0.061797 -0.021451 274371.000000 0 0 1
-27.356979 5.944179 -17.359399 32.940648 -0.213956 2.125852 0.043029 -0.014366 -149454.000000 0 0 1
-28.580899 5.421879 -16.935899 33.661391 -0.187475 2.098008 0.047056 -0.020008 -552309.000000 0 0 1
-29.139729 4.736979 -18.010099 34.582169 -0.161151 2.118574 0.043180 -0.009648 343742.000000 0 0 1
-30.549329 4.135879 -17.652699 35.524425 -0.134565 2.090839 0.038028 -0.008824 456943.000000 0 0 1
-30.698199 2.923479 -16.881999 35.155768 -0.094947 2.071685 0.029463 -0.015553 324445.000000 0 0 1
-30.238169 1.747479 -17.582299 35.021961 -0.057726 2.096748 0.037206 -0.010480 -43013.300000 0 0 1
-30.332789 0.549979 -16.617099 34.590585 -0.018130 2.071900 0.034105 -0.012258 -438023.000000 0 0 1
-29.991769 -0.748821 -17.113599 34.538996 0.024962 2.089191 0.028239 0.001374 243774.000000 0 0 1
-30.125119 -1.735521 -16.110299 34.206382 0.057547 2.061190 0.024559 -0.008763 -282449.000000 0 0 1
-29.969099 -3.133621 -16.681999 34.442061 0.104183 2.076416 0.025687 0.000176 -29171.800000 0 0 1
-30.979889 -3.474221 -17.607699 35.803000 0.111678 2.084945 0.024258 -0.003497 192085.000000 0 0 1
-30.565529 -4.573221 -18.400299 35.968555 0.148519 2.107803 0.037939 0.000286 -1923.330000 0 0 1
-31.450529 -4.649921 -19.631299 37.365030 0.146785 2.123972 0.054353 -0.004717 -147394.000000 0 0 1
-31.412909 -5.911621 -20.273499 37.851458 0.186015 2.136022 0.055536 0.002281 -378698.000000 0 0 1
-32.267849 -5.886421 -21.353499 39.138676 0.180440 2.147884 0.053476 -0.007326 -998013.000000 0 0 1
-32.120509 -6.995921 -22.363299 39.759114 0.214453 2.168166 0.063140 -0.002978 57725.000000 0 0 1
-30.838529 -7.067121 -22.971899 39.098174 0.225275 2.198817 0.050222 -0.006684 210993.000000 0 0 1
-30.745579 -7.995421 -23.971199 39.797434 0.254416 2.217213 0.044399 -0.000620 404780.000000 0 0 1
-29.357699 -7.981921 -24.690599 39.181772 0.265468 2.252549 0.039365 0.005560 124115.000000 0 0 1
-29.121319 -6.849321 -25.565249 39.351574 0.231001 2.277937 0.036170 0.008927 126545.000000 0 0 1
-29.266889 -7.059521 -26.959389 40.412823 0.236691 2.301105 0.023067 0.010169 -266007.000000 0 0 1
-30.689219 -7.160521 -27.538869 41.850813 0.229223 2.288989 0.036352 0.009723 -13137.900000 0 0 1
-31.556719 -8.188821 -27.069499 42.375005 0.253895 2.263744 0.033737 0.006898 -717831.000000 0 0 1
-32.615209 -8.270921 -27.948679 43.741155 0.248355 2.263937 0.034885 0.008943 423498.000000 0 0 1
-33.746209 -9.322321 -27.512899 44.527204 0.269526 2.236852 0.049697 0.002737 537453.000000 0 0 1
-33.338249 -10.687921 -27.730389 44.661448 0.310238 2.240689 0.043952 0.005544 354412.000000 0 0 1
-34.270698 -11.727221 -27.377349 45.404049 0.329704 2.218017 0.032429 -0.000628 1117350.000000 0 0 1
35.467376 -11.848221 -28.379769 46.943864 -0.322404 2.219993 0.028495 0.004956 1132490.000000 0 0 1
34.544912 -10.760321 -28.218069 45.884582 -0.301963 2.233156 0.020111 -0.000085 -27413.100000 0 0 1
33.754042 -10.569221 -29.355469 45.965067 -0.303454 2.263536 0.015351 -0.008597 -729880.000000 0 0 1
32.722722 -9.479921 -29.138979 44.829962 -0.281985 2.278366 0.004578 -0.001978 111835.000000 0 0 1
31.691622 -9.952421 -28.234099 43.595572 -0.304287 2.275275 -0.011084 0.000166 366596.000000 0 0 1
30.968182 -8.901221 -27.631059 42.446854 -0.279886 2.279640 -0.016340 0.004992 33324.400000 0 0 1
29.763522 -9.411421 -26.833719 41.164190 -0.306258 2.280845 -0.007604 0.006520 -263613.000000 0 0 1
30.131182 -9.684021 -25.498269 40.642713 -0.310968 2.248976 -0.013301 0.012540 204976.000000 0 0 1
29.037942 -9.932821 -24.633899 39.353424 -0.329587 2.247166 -0.024827 0.014438 -140391.000000 0 0 1
29.437292 -9.910921 -23.171399 38.751700 -0.324759 2.211732 -0.029028 0.013536 60767.400000 0 0 1
30.240352 -11.014821 -22.786699 39.433981 -0.349306 2.186881 -0.037031 0.011077 252879.000000 0 0 1
30.499122 -11.033321 -21.383399 38.848171 -0.347112 2.153682 -0.022263 0.005526 -51946.500000 0 0 1
31.422732 -12.172621 -20.901399 39.653868 -0.369582 2.125976 0.002753 0.002881 735338.000000 0 0 1
32.806372 -11.968121 -21.240099 40.873412 -0.349808 2.117244 0.011046 -0.002614 762348.000000 0 0 1
33.616802 -12.903221 -20.541799 41.455374 -0.366492 2.089225 0.036989 -0.001606 -55655.300000 0 0 1
35.018184 -13.030121 -21.178399 42.948595 -0.356222 2.086458 0.046182 -0.017888 -94305.800000 0 0 1
-35.076077 -11.902921 -21.112899 42.635258 0.327152 2.088859 0.058621 -0.016942 771614.000000 0 0 1
-35.360820 -10.920521 -22.110399 43.110499 0.299539 2.109330 0.060764 -0.005990 -764711.000000 0 0 1
-34.922599 -11.247321 -23.574599 43.610227 0.311574 2.141917 0.048603 -0.004762 -127663.000000 0 0 1
-35.492739 -12.328921 -24.292399 44.742122 0.334325 2.144733 0.042862 -0.004567 813860.000000 0 0 1
34.103762 -12.077921 -24.573899 43.735789 -0.340369 2.167443 0.046384 -0.006268 89817.700000 0 0 1
33.455602 -13.172921 -25.407989 44.026913 -0.375101 2.185971 0.026134 -0.018604 -485376.000000 0 0 1
33.207882 -14.453721 -24.801499 43.895191 -0.410520 2.171249 0.021673 -0.026538 722637.000000 0 0 1
32.306352 -14.502821 -23.689599 42.605508 -0.421952 2.160388 0.001989 -0.017999 -303210.000000 0 0 1
-29.210359 9.189379 -19.177199 36.131077 -0.304791 2.130302 0.030341 -0.008399 779874.000000 0 0 1
-27.965939 8.456779 -19.181999 34.950822 -0.293653 2.151758 0.028974 -0.002589 789979.000000 0 0 1
-27.280699 8.576579 -20.404799 35.130472 -0.304599 2.190543 0.040029 -0.024076 202983.000000 0 0 1
-25.967499 7.776279 -20.520599 33.998184 -0.290963 2.218779 0.041124 -0.015671 -467590.000000 0 0 1
-24.854889 8.241979 -19.828399 32.846022 -0.320193 2.218902 0.051701 -0.020028 237796.000000 0 0 1
-23.850789 7.192679 -19.922199 31.898100 -0.292896 2.245361 0.057422 -0.020579 741702.000000 0 0 1
-22.404689 7.623179 -19.575999 30.713233 -0.327962 2.261890 0.055574 -0.018872 280804.000000 0 0 1
-21.830189 8.547779 -20.484899 31.132825 -0.373207 2.288935 0.061411 -0.023022 255053.000000 0 0 1
-20.587989 9.040379 -19.987799 30.084977 -0.413760 2.297458 0.056100 -0.012943 242293.000000 0 0 1
-19.859289 9.989079 -20.941099 30.540182 -0.466039 2.326348 0.062702 -0.008391 -158502.000000 0 0 1
-19.408189 9.339979 -22.114899 30.870403 -0.448527 2.369394 0.064458 -0.012770 407474.000000 0 0 1
-18.589189 10.232079 -22.912099 31.228475 -0.503175 2.394537 0.069564 -0.012728 567135.000000 0 0 1
-17.788989 9.407379 -23.989099 31.311720 -0.486446 2.443607 0.062563 -0.008421 28103.400000 0 0 1
-18.559489 8.799979 -25.024699 32.374833 -0.442754 2.454302 0.063820 -0.007647 -96677.600000 0 0 1
-17.841589 8.062279 -25.977659 32.529393 -0.424417 2.495746 0.053658 0.000303 -268320.000000 0 0 1
-18.752689 6.983279 -26.610739 33.295059 -0.356479 2.496826 0.023161 0.004452 87660.900000 0 0 1
-19.026289 5.884279 -25.743319 32.547548 -0.299940 2.483148 0.037878 -0.004065 296301.000000 0 0 1
-19.909889 4.960279 -26.363879 33.407517 -0.244166 2.480237 0.017876 -0.005086 -550530.000000 0 0 1
-20.167789 3.712079 -25.463729 32.694353 -0.182023 2.463613 0.017574 0.003712 15712.800000 0 0 1
-19.148789 2.740079 -25.215609 31.780672 -0.142129 2.487213 0.022320 0.005123 317989.000000 0 0 1
-17.983289 3.141479 -24.555299 30.597880 -0.172944 2.502297 0.029840 0.001536 -416916.000000 0 0 1
-17.038789 2.013179 -24.066699 29.556374 -0.117607 2.522257 0.027094 -0.003867 -69788.700000 0 0 1
-17.458389 1.184279 -22.983299 28.886500 -0.067731 2.490862 0.027348 -0.002973 420337.000000 0 0 1
-18.690689 0.483879 -23.188999 29.787677 -0.025883 2.463031 0.020916 0.002454 329251.000000 0 0 1
-19.132289 -0.371421 -22.005799 29.162264 0.019411 2.425838 0.047180 -0.007696 -118276.000000 0 0 1
-18.361789 -1.528821 -21.778099 28.526798 0.083069 2.439397 0.046115 -0.010397 293638.000000 0 0 1
-19.006889 -2.326621 -20.818399 28.285698 0.121803 2.397946 0.049084 -0.006515 -337910.000000 0 0 1
-18.277189 -3.666421 -20.664099 27.829899 0.197973 2.407613 0.044949 -0.013302 -126194.000000 0 0 1
-18.416389 -4.538421 -21.726899 28.841269 0.241619 2.423902 0.040548 -0.015665 337451.000000 0 0 1
-18.612089 -5.828421 -21.281599 28.866708 0.303479 2.399768 0.047358 -0.008831 -204851.000000 0 0 1
-18.619089 -6.924121 -22.375999 29.921552 0.356035 2.415572 0.019021 -0.008257 -1152130.000000 0 0 1
-17.370489 -6.911321 -22.933499 29.587930 0.378675 2.457664 0.029055 -0.003124 -912354.000000 0 0 1
-17.312389 -7.930421 -23.882999 30.545180 0.429551 2.468490 0.037203 -0.008691 235067.000000 0 0 1
-16.098389 -7.809421 -24.830999 30.605942 0.451661 2.517191 0.043260 -0.015620 -611011.000000 0 0 1
-16.099489 -8.665821 -26.021499 31.802648 0.493790 2.529101 0.048392 -0.032485 648974.000000 0 0 1
-14.851289 -8.896321 -26.705339 31.825783 0.539704 2.566442 0.062674 -0.032436 652020.000000 0 0 1
-13.810289 -9.719421 -25.905379 30.923776 0.613259 2.563886 0.072073 -0.031874 -652087.000000 0 0 1
-13.159189 -8.932321 -24.944399 29.583334 0.596349 2.573988 0.066228 -0.028978 31137.300000 0 0 1
-12.166789 -9.677021 -24.261099 28.814518 0.671907 2.571730 0.043003 -0.023089 200252.000000 0 0 1
-11.474089 -8.955621 -23.062499 27.271537 0.662742 2.578600 0.041931 -0.023573 80572.200000 0 0 1
-12.167789 -8.914921 -21.822599 26.528414 0.632315 2.536786 0.033197 -0.017825 -138881.000000 0 0 1
-11.363789 -8.342621 -20.814499 25.139181 0.633274 2.546275 0.027831 -0.020746 -974062.000000 0 0 1
-11.952389 -7.977121 -19.439599 24.174203 0.588516 2.505034 0.019526 -0.012512 95446.800000 0 1 0
-12.777489 -6.784521 -19.387399 24.190188 0.488119 2.500524 0.019307 -0.002611 673108.000000 0 1 0
-14.121889 -7.032221 -19.767399 25.290906 0.462019 2.468025 0.032241 -0.010642 -22705.500000 0 0 1
-15.079889 -5.850921 -19.418199 25.272570 0.370115 2.447057 0.035931 -0.009647 -64396.700000 0 0 1
-15.213989 -5.591221 -18.037799 24.250555 0.352184 2.409549 0.028784 -0.006990 312784.000000 0 1 0
-14.895289 -4.253821 -17.681799 23.507672 0.278177 2.422147 0.028719 -0.012300 -530711.000000 0 1 0
-14.859989 -4.075921 -16.137599 22.312654 0.267704 2.379291 0.038971 -0.011790 512733.000000 0 1 0
-16.112789 -3.889121 -15.471199 22.673889 0.236839 2.321749 0.048215 -0.015993 366635.000000 0 1 0
-16.725389 -2.648321 -15.760799 23.133418 0.157038 2.320334 0.032649 -0.015484 211087.000000 0 1 0
-17.901189 -2.317521 -14.762799 23.318742 0.128746 2.256331 0.035536 -0.016159 565349.000000 0 1 0
-17.486589 -2.310421 -13.409999 22.157322 0.131364 2.220835 0.038727 -0.026303 266285.000000 0 1 0
-18.480589 -1.658321 -12.666799 22.466197 0.089493 2.169795 0.039701 -0.021984 -240141.000000 0 1 0
-17.924589 -0.479221 -11.854799 21.495507 0.026729 2.154959 0.031997 -0.022366 -105128.000000 0 1 0
-17.517789 0.509379 -12.785099 21.693113 -0.029070 2.201065 0.038709 -0.022390 371430.000000 0 1 0
-16.552989 1.402479 -12.294599 20.667016 -0.084525 2.207925 0.032075 -0.015368 -811719.000000 0 1 0
-16.142889 2.389779 -13.408899 21.121138 -0.146972 2.258620 0.041789 -0.011054 -284368.000000 0 1 0
-15.483189 1.870379 -14.503499 21.297393 -0.120218 2.319922 0.041679 -0.017680 -517091.000000 0 1 0
-14.122089 1.690679 -14.238499 20.125274 -0.119152 2.356741 0.029944 -0.013982 -1391060.000000 0 1 0
-13.409089 0.640979 -15.072899 20.184321 -0.047765 2.413978 0.024064 -0.020702 -442624.000000 0 1 0
-13.041089 1.136479 -16.359899 20.952515 -0.086926 2.466755 0.020784 -0.021502 181789.000000 0 1 0
-12.524589 0.155279 -17.240599 21.310272 -0.012397 2.513292 0.001064 -0.014158 -264033.000000 0 1 0
-12.012389 0.810079 -18.506699 22.078307 -0.067335 2.564826 0.020261 -0.019278 -521377.000000 0 1 0
-10.816589 1.503279 -18.337199 21.342711 -0.138094 2.604458 0.007103 -0.015893 -738662.000000 0 1 0
-10.550589 2.367679 -19.429199 22.235436 -0.220755 2.633747 0.013561 -0.015284 576680.000000 0 1 0
-9.111789 2.971679 -19.351999 21.595264 -0.315259 2.681750 0.007192 -0.009721 9545.960000 0 1 0
-8.119689 1.963679 -19.478299 21.194092 -0.237286 2.736444 0.011567 -0.005273 465778.000000 0 1 0
-6.742989 2.329479 -19.404299 20.674167 -0.332631 2.789280 0.007013 -0.000340 850358.000000 0 1 0
-6.248289 3.361079 -20.439399 21.635781 -0.493521 2.807486 0.012745 0.004652 -1167160.000000 0 1 0
-6.064389 2.858279 -21.733499 22.744044 -0.440443 2.842380 0.006981 0.003054 206782.000000 0 1 0
-5.964589 3.915779 -22.611299 23.710346 -0.580934 2.835927 0.010978 0.001728 -257352.000000 0 1 0
-5.375589 3.418479 -23.976599 24.808472 -0.566418 2.881897 0.016202 -0.007602 1138900.000000 0 1 0
-4.040389 2.853179 -23.882799 24.389618 -0.614851 2.937375 0.023714 -0.010655 1045060.000000 0 1 0
-3.646389 2.206679 -25.061099 25.420942 -0.544211 2.973136 0.039652 -0.015743 -7161.040000 0 0 1
-2.226389 1.633279 -24.908599 25.061180 -0.632922 3.031189 0.026244 -0.012672 -224773.000000 0 0 1
-1.143989 2.517479 -24.697099 24.851421 -1.144274 3.030092 0.020004 -0.013181 1302320.000000 0 1 0
0.172211 1.925579 -24.841599 24.916712 1.481600 3.063926 0.028306 -0.012011 1240630.000000 0 1 0
0.689711 0.948279 -23.744699 23.773634 0.941963 3.092250 0.031500 -0.017698 -715467.000000 0 1 0
0.313711 -0.434421 -23.804399 23.810430 -0.945368 3.119086 0.032886 -0.018019 30400.500000 0 1 0
0.878511 -1.113121 -22.706599 22.750834 -0.902656 3.079223 0.027590 -0.015547 -891783.000000 0 1 0
0.412611 -2.564221 -22.546099 22.695199 -1.411253 3.026903 0.037687 -0.025809 170021.000000 0 1 0
-0.852389 -2.809421 -21.962699 22.158059 1.276220 3.008705 0.032787 -0.020421 446288.000000 0 1 0
-2.033789 -2.633621 -22.741699 22.983845 0.913213 2.996306 0.037209 -0.021123 193032.000000 0 1 0
-2.733589 -1.259821 -22.654799 22.853875 0.431854 3.009506 0.035640 -0.021059 -1804780.000000 0 1 0
-3.400489 -1.080921 -21.473199 21.767636 0.307772 2.976929 0.026219 -0.020022 -251370.000000 0 1 0
-4.225089 0.059479 -21.509899 21.921010 -0.014077 2.947618 0.009993 -0.015985 240952.000000 0 1 0
-5.575789 -0.094521 -22.247599 22.935868 0.016950 2.895993 0.009657 -0.009014 -538236.000000 0 1 0
-6.471289 -1.067721 -21.709599 22.678719 0.163520 2.848197 0.023234 -0.004096 118024.000000 0 1 0
-7.781489 -0.807321 -22.185399 23.524355 0.103379 2.802576 0.014296 -0.001229 507828.000000 0 1 0
-8.671689 -2.051121 -21.781699 23.533969 0.232262 2.753263 0.014807 -0.000999 147921.000000 0 1 0
-8.347589 -3.100721 -22.734699 24.416455 0.355656 2.768274 0.022284 -0.003133 90834.200000 0 1 0
-8.795389 -4.331121 -22.333399 24.390535 0.457574 2.727939 0.013557 -0.001705 -575553.000000 0 1 0
-9.757589 -5.005621 -23.332099 25.780877 0.473992 2.702213 0.024489 -0.009199 1783080.000000 0 0 1
-11.137689 -4.493021 -23.237999 26.157981 0.383440 2.664582 0.028163 -0.013431 1730160.000000 0 0 1
-11.997589 -5.297521 -24.024999 27.371636 0.415804 2.641907 0.032149 -0.026399 267041.000000 0 0 1
-13.514889 -5.179421 -23.757999 27.819438 0.365974 2.594436 0.041614 -0.022746 264390.000000 0 0 1
-14.048589 -3.907621 -24.090299 28.159809 0.271293 2.597283 0.033915 -0.024203 585816.000000 0 0 1
-15.473589 -3.797921 -24.031599 28.833555 0.240687 2.556135 0.045342 -0.023419 768271.000000 0 0 1
-16.082589 -2.463021 -24.493399 29.404808 0.151968 2.555255 0.036317 -0.018050 -120033.000000 0 0 1
-15.799089 -2.280221 -25.858899 30.389032 0.143336 2.588547 0.032224 -0.018532 145101.000000 0 0 1
-16.133789 -0.985321 -26.360469 30.921584 0.060996 2.591535 0.023289 -0.013831 357498.000000 0 0 1
-17.593989 -0.719621 -26.879369 32.133577 0.040879 2.561640 0.015973 -0.005071 544184.000000 0 0 1
-17.921389 -1.377921 -28.087799 33.346654 0.076736 2.572328 0.023977 -0.015155 114511.000000 0 0 1
-17.281989 -0.801321 -29.227229 33.963807 0.046334 2.607126 0.018513 -0.010926 -238487.000000 0 0 1
-17.352189 -1.631521 -30.542179 35.165111 0.093748 2.623038 0.013746 -0.009113 -630063.000000 0 0 1
-18.687889 -1.836321 -30.861739 36.125562 0.097948 2.594981 -0.005528 -0.009907 -520414.000000 0 0 1
-18.882989 -2.581021 -32.053389 37.291402 0.135843 2.605162 -0.004646 -0.015886 -683453.000000 0 0 1
-20.344389 -2.960021 -32.334199 38.316528 0.144482 2.575253 -0.020198 -0.012564 -394372.000000 0 0 1
-21.178089 -1.903021 -32.760619 39.056256 0.089617 2.565883 -0.018207 -0.010567 209463.000000 0 0 1
-21.842689 -1.236921 -31.714379 38.528365 0.056568 2.537722 -0.024270 0.001520 -389339.000000 0 0 1
-22.891289 -0.235421 -32.243469 39.543746 0.010284 2.524194 -0.016558 0.005144 -335776.000000 0 0 1
-22.364189 1.046979 -32.506129 39.470262 -0.046781 2.538455 -0.018075 -0.004937 957044.000000 0 0 1
-23.397189 1.933379 -32.990209 40.490990 -0.082446 2.523102 -0.019417 -0.001212 779871.000000 0 0 1
-22.740689 3.251679 -33.524079 40.639589 -0.142027 2.540843 -0.011615 -0.001651 -499805.000000 0 0 1
-22.320089 4.205879 -32.563549 39.702148 -0.186251 2.532550 -0.020792 -0.007685 612027.000000 0 0 1
-23.286489 4.809979 -31.667609 39.600933 -0.203692 2.497539 -0.024991 -0.010019 -330626.000000 0 0 1
-24.451189 5.608179 -32.280379 40.881967 -0.225463 2.480952 -0.022019 -0.011719 -912794.000000 0 0 1
-25.528359 4.811379 -32.640029 41.715920 -0.186287 2.469364 -0.013685 -0.007532 -604256.000000 0 0 1
-26.121949 5.353779 -33.776779 43.033591 -0.202154 2.473320 -0.004400 -0.011695 -109244.000000 0 0 1
-27.423589 4.612279 -34.212273 44.088615 -0.166627 2.459078 0.005496 -0.011374 114391.000000 0 0 1
-27.302089 3.257679 34.296937 43.957893 -0.118758 0.675775 0.005767 -0.011952 380279.000000 0 0 1
-28.551039 2.767579 33.841772 44.363125 -0.096633 0.703109 0.005182 -0.005703 61092.200000 0 0 1
-28.595169 1.244679 33.510491 44.070238 -0.043500 0.706886 0.012550 0.014952 -269649.000000 0 0 1
-28.806439 0.316279 -34.309099 44.799835 -0.010979 2.443129 0.004118 0.013812 -41112.800000 0 0 1
-28.905059 -0.973721 34.099547 44.712746 0.033674 0.703418 0.012832 0.014602 -728834.000000 0 0 1
-28.540299 -1.923921 -33.543859 44.084471 0.067309 2.435495 -0.014292 0.017213 323461.000000 0 0 1
-27.204849 -1.884921 -33.053569 42.850848 0.069176 2.451777 -0.010385 0.014228 679133.000000 0 0 1
-26.657359 -0.647121 -32.642909 42.149651 0.024271 2.456646 -0.016000 0.018746 -1259860.000000 0 0 1
-26.660949 -0.438621 -31.114269 40.976778 0.016450 2.433056 0.004121 0.020560 -1088080.000000 0 0 1
-25.750039 -1.180821 -30.440879 39.888670 0.045825 2.438964 -0.002526 0.010794 -326353.000000 0 0 1
-25.728659 -0.737921 -29.121939 38.866383 0.028673 2.417776 0.002788 0.006314 194199.000000 0 0 1
-24.771689 -1.430621 -28.084959 37.475968 0.057688 2.417971 0.003724 0.007392 309677.000000 0 0 1
-25.204659 -2.744821 -27.732729 37.575433 0.108474 2.400979 -0.006278 0.007069 -81590.100000 0 0 1
-24.284889 -3.296821 -26.846719 36.350670 0.134931 2.401711 0.005354 0.005413 -340194.000000 0 0 1
-24.679389 -4.573421 -26.117439 36.223046 0.183235 2.376066 0.006968 -0.000944 146534.000000 0 0 1
-25.593989 -4.358721 -25.051499 36.078087 0.168684 2.338339 0.014296 0.003581 -68656.800000 0 0 1
-25.927449 -5.543221 -24.454599 36.069202 0.210626 2.315823 0.007345 0.004409 29321.400000 0 0 1
-26.813389 -5.384021 -23.209199 35.869380 0.198161 2.274502 0.026220 0.005223 17258.500000 0 0 1
-26.948379 -6.588721 -22.421099 35.669764 0.239790 2.250515 0.022999 0.003228 115643.000000 0 0 1
-27.928749 -6.381421 -21.424399 35.773488 0.224633 2.212911 0.032936 0.008768 -105707.000000 0 0 1
-28.413909 -7.667121 -20.673799 35.965830 0.263560 2.183178 0.029265 0.005667 574982.000000 0 0 1
-27.553919 -8.228321 -19.624099 34.814207 0.290196 2.169632 0.022633 0.003761 884398.000000 0 0 1
-28.344399 -9.038821 -18.764799 35.174180 0.308698 2.133509 0.031300 -0.002832 331802.000000 0 0 1
-29.061519 -8.259721 -17.639699 34.985052 0.276913 2.099259 0.037972 -0.004320 120646.000000 0 0 1
-28.157979 -7.559821 -16.767399 33.632846 0.262293 2.092713 0.031949 -0.003979 306022.000000 0 0 1
-28.823369 -6.870921 -15.720599 33.543008 0.234013 2.058581 0.029613 -0.004865 109907.000000 0 0 1
-27.880089 -6.080621 -14.760399 32.126978 0.214736 2.048160 0.026943 -0.000469 103997.000000 0 0 1
-27.415089 -4.879321 -15.309099 31.776774 0.176135 2.073470 0.023025 0.001751 644042.000000 0 0 1
-26.338879 -4.405421 -14.475799 30.375863 0.165725 2.067529 0.037872 -0.010340 183377.000000 0 0 1
-13.937789 22.079679 -4.566299 26.507080 -1.007716 1.743927 0.034479 -0.015016 -268816.000000 0 0 1
-14.171189 21.487979 -5.815199 26.388868 -0.987776 1.792986 0.068126 -0.025001 276118.000000 0 0 1
-14.919989 20.283779 -5.623899 25.800504 -0.936599 1.790537 0.045361 -0.025509 144005.000000 0 0 1
-15.298289 19.417779 -6.840399 25.649149 -0.903508 1.840754 0.080053 -0.029705 -215075.000000 0 0 1
-14.122589 18.911579 -7.464699 24.755142 -0.929366 1.877105 0.072618 -0.027121 279943.000000 0 1 0
-14.357189 17.971579 -8.483999 24.517030 -0.896737 1.924149 0.059514 -0.027424 -404019.000000 0 1 0
-14.888889 16.538979 -8.005399 23.649593 -0.837854 1.916119 0.051898 -0.007589 1280950.000000 0 1 0
-16.296189 16.675179 -7.699799 24.554313 -0.796892 1.889760 0.059187 0.005252 1076230.000000 0 1 0
-16.804389 15.582479 -6.889899 23.930563 -0.747687 1.862842 0.077171 0.001899 300881.000000 0 1 0
-18.311789 15.788779 -6.549599 25.050038 -0.711545 1.835332 0.082201 0.005449 600674.000000 0 0 1
-19.039089 15.369079 -7.728999 25.659948 -0.679139 1.876756 0.079778 0.007302 -516617.000000 0 0 1
-20.408189 15.537579 -7.558399 26.740231 -0.650720 1.857363 0.046142 -0.004508 -396864.000000 0 0 1
-21.392889 14.823979 -8.517199 27.385192 -0.605972 1.887057 0.049395 0.006873 219197.000000 0 0 1
-21.542989 13.453879 -8.141099 26.671796 -0.558249 1.880979 0.073413 0.005247 497125.000000 0 0 1
-22.334689 12.673779 -9.071699 27.235248 -0.516140 1.910372 0.073685 0.005514 495432.000000 0 0 1
-22.706989 11.267279 -8.546699 26.750794 -0.460605 1.895991 0.047303 -0.003927 -538260.000000 0 0 1
-21.602589 10.393279 -8.506299 25.437162 -0.448424 1.911770 0.052354 -0.003439 -107786.000000 0 0 1
-21.844389 9.424379 -7.481499 24.939308 -0.407306 1.875477 0.047917 -0.004228 -180101.000000 0 1 0
-20.740589 8.442979 -7.018299 23.467263 -0.386591 1.874512 0.039518 0.002254 -438400.000000 0 1 0
-20.477789 7.407579 -8.019199 23.206025 -0.347093 1.923638 0.030091 -0.001722 327964.000000 0 1 0
-19.487589 6.536379 -7.538899 21.893501 -0.323621 1.922336 0.027785 0.003188 -319362.000000 0 1 0
-19.309189 5.324379 -8.551199 21.778815 -0.269057 1.974295 0.016761 -0.015487 -614641.000000 0 1 0
-20.371789 4.393079 -8.562799 22.530656 -0.212393 1.960648 0.029987 -0.012887 449765.000000 0 1 0
-20.165889 3.433979 -9.535199 22.569344 -0.168669 2.006981 0.021148 -0.013524 -189548.000000 0 1 0
-21.158089 2.258279 -9.406599 23.264751 -0.106331 1.987041 0.018813 -0.015256 22776.100000 0 1 0
-20.855489 1.421779 -8.280599 22.484243 -0.068068 1.947960 0.026463 -0.019696 126935.000000 0 1 0
-21.778789 0.389779 -8.006299 23.207077 -0.017895 1.923029 0.032410 -0.017461 -240586.000000 0 1 0
-21.778189 -0.825521 -8.934799 23.554228 0.037888 1.959867 0.029693 -0.022206 -148683.000000 0 1 0
-20.542289 -1.501221 -8.834699 22.411854 0.072950 1.975991 0.023091 -0.016417 329566.000000 0 1 0
-20.444089 -2.825821 -9.357799 22.660857 0.137352 1.996487 0.011263 -0.013048 878.668000 0 1 0
-21.379789 -3.932921 -8.710899 23.418860 0.181921 1.951917 0.011249 -0.011305 251186.000000 0 1 0
-21.035489 -4.235621 -7.384399 22.692766 0.198699 1.902239 0.001896 -0.009876 530933.000000 0 1 0
-22.048489 -4.891721 -6.618599 23.534457 0.218326 1.855872 0.015792 -0.009447 -717364.000000 0 1 0
-22.153989 -6.452421 -6.754699 24.042856 0.283413 1.855574 0.016142 -0.006368 -448261.000000 0 1 0
-21.087789 -7.248521 -6.308999 23.174110 0.331079 1.846520 0.007697 -0.006344 510076.000000 0 1 0
-21.429089 -8.614021 -6.457999 23.981513 0.382210 1.843453 0.025318 -0.003804 17220.700000 0 1 0
-20.339689 -9.565221 -5.881599 23.233373 0.439585 1.826734 0.021297 -0.009599 1144800.000000 0 1 0
-19.129889 -9.621521 -6.693599 22.435030 0.466011 1.873765 0.020449 -0.001783 1122150.000000 0 1 0
-18.038589 -10.046721 -5.907899 21.476279 0.508169 1.849479 0.015758 -0.002176 11140.400000 0 1 0
-17.285089 -11.303921 -6.451199 21.637257 0.579161 1.873553 0.003223 -0.007099 785737.000000 0 1 0
-16.212389 -11.163921 -7.434999 21.041718 0.603037 1.931941 0.000964 -0.010557 1475930.000000 0 1 0
-16.672289 -10.748221 -8.737599 21.675680 0.572623 1.985705 0.006322 -0.011404 -322853.000000 0 1 0
-15.549989 -11.058721 -9.740099 21.423515 0.618185 2.042770 0.001504 -0.011828 190479.000000 0 1 0
-15.447789 -12.437721 -10.076699 22.245695 0.677871 2.040894 -0.009346 -0.011587 16603.900000 0 1 0
-14.503189 -12.726421 -11.065899 22.243165 0.720239 2.091507 0.007583 -0.001452 -362956.000000 0 1 0
-14.825189 -14.134221 -11.759599 23.618861 0.761543 2.091961 0.015296 -0.002404 207126.000000 0 1 0
-15.990189 -14.185821 -12.555899 24.790608 0.725674 2.101892 0.014573 -0.002409 158937.000000 0 1 0
-16.036589 -15.507021 -13.250699 25.946501 0.768611 2.106787 0.004925 0.005334 -98943.900000 0 0 1
-16.772789 -15.455421 -14.590999 27.075704 0.744545 2.139923 0.036088 0.007359 -116690.000000 0 0 1
-16.496189 -16.532021 -15.431499 27.992198 0.786483 2.154692 0.019940 0.013717 307372.000000 0 0 1
-16.811889 -16.144921 -16.838599 28.754765 0.765163 2.196408 0.021768 0.008339 8405.440000 0 0 1
-16.816789 -17.449721 -17.728299 30.026484 0.803867 2.202378 0.018336 0.001091 1173370.000000 0 0 1
-18.044589 -18.228521 -17.549799 31.078636 0.790469 2.170854 0.024287 0.003187 1252050.000000 0 0 1
-18.855989 -18.212321 -18.726199 32.216572 0.768036 2.191072 0.020124 0.002987 377743.000000 0 0 1
-20.385089 -18.215621 -18.479499 32.997766 0.729254 2.165210 0.015511 0.001964 236621.000000 0 0 1
-20.863889 -16.964921 -17.908899 32.308499 0.682692 2.158329 0.019833 0.002969 284076.000000 0 0 1
-21.164389 -17.046221 -16.562999 31.825115 0.678037 2.118160 0.023799 -0.004846 -393835.000000 0 0 1
-20.902389 -15.744521 -15.804099 30.570727 0.645572 2.114102 0.028940 -0.009557 -136377.000000 0 0 1
-22.033289 -14.959821 -15.511699 30.820040 0.596468 2.098209 0.044884 -0.009389 305709.000000 0 0 1
-21.631389 -13.818221 -14.757599 29.608224 0.568464 2.092582 0.047135 -0.005407 130829.000000 0 0 1
-22.819889 -12.917621 -14.317299 29.876367 0.515096 2.070560 0.052898 -0.009672 293900.000000 0 0 1
-23.764089 -13.505621 -13.415699 30.448558 0.516800 2.027066 0.065863 -0.011697 -49568.300000 0 0 1
-24.708489 -12.521021 -13.192299 30.680974 0.469033 2.015270 0.089871 -0.013963 -959153.000000 0 0 1
-25.574029 -13.037321 -12.005699 31.114940 0.471447 1.966925 0.084518 -0.018139 -347818.000000 0 0 1
-26.505569 -12.069021 -11.609699 31.352696 0.427285 1.950121 0.071828 -0.025573 -19671.500000 0 0 1
-27.319419 -12.486021 -10.539199 31.832783 0.428692 1.908244 0.068608 -0.026553 408809.000000 0 0 1
-28.129519 -11.294921 -9.910599 31.891457 0.381827 1.886789 0.086539 -0.024221 626960.000000 0 0 1
-27.244559 -10.457221 -9.164799 30.587792 0.366488 1.875094 0.073179 -0.023547 356435.000000 0 0 1
-28.007029 -9.487121 -8.453799 30.754932 0.326609 1.849257 0.085036 -0.024386 187257.000000 0 0 1
-27.267449 -8.318221 -7.721899 29.535306 0.296093 1.835317 0.057690 -0.013498 67995.100000 0 0 1
-26.472999 -8.725321 -6.604299 28.645552 0.318381 1.803442 0.044660 -0.015357 122714.000000 0 0 1
-25.781179 -7.659821 -5.971599 27.549992 0.288802 1.789286 0.037769 -0.008709 -302480.000000 0 0 1
-26.568079 -6.495121 -5.311599 27.861488 0.239768 1.762614 0.039337 -0.012740 -35078.300000 0 0 1
-27.363739 -6.902621 -4.169099 28.527211 0.247099 1.717466 0.033553 -0.013327 993516.000000 0 0 1
-26.562039 -7.119421 -2.987099 27.661360 0.261875 1.678995 0.040096 -0.007632 66986.600000 0 0 1
-25.984969 -5.907221 -2.195999 26.738292 0.223533 1.653018 0.042770 0.000168 296025.000000 0 0 1
-26.930149 -5.011021 -1.586599 27.438304 0.183971 1.628653 0.037023 -0.004747 484956.000000 0 0 1
-26.294859 -4.024821 -0.762399 26.612028 0.151886 1.599449 0.026415 -0.010183 30924.600000 0 0 1
-27.317019 -3.002021 -0.115699 27.481722 0.109456 1.575006 0.022764 -0.016541 904579.000000 0 0 1
-28.219059 -3.474921 0.914301 28.446903 0.122524 1.538650 0.025009 -0.014502 295443.000000 0 0 1
-27.581729 -3.700821 2.119801 27.909522 0.133380 1.494771 0.017146 -0.004221 -657251.000000 0 0 1
-28.493429 -4.014021 3.291801 28.962455 0.139954 1.456893 0.014322 -0.003370 -200302.000000 0 0 1
-29.093869 -5.317321 3.202001 29.748612 0.180769 1.462952 0.021788 -0.003296 45209.100000 0 0 1
-29.922209 -5.554121 4.309701 30.736954 0.183530 1.430120 0.033221 -0.003329 111289.000000 0 0 1
-30.837759 -6.824121 4.120001 31.851380 0.217781 1.441082 0.031068 -0.002763 453513.000000 0 0 1
-30.071649 -8.040121 4.203801 31.410501 0.261255 1.436559 0.026891 0.000186 435149.000000 0 0 1
-30.836279 -9.130821 3.759801 32.378760 0.287881 1.454414 0.045657 -0.004206 -379201.000000 0 0 1
-30.288489 -10.466221 4.198701 32.319707 0.332706 1.440517 0.024454 0.005184 -91463.200000 0 0 1
-30.272469 -10.620121 5.603901 32.567055 0.337403 1.397863 0.023846 0.004911 239546.000000 0 0 1
-29.373549 -11.649021 5.930001 32.150738 0.377556 1.385291 0.027286 0.003362 -317904.000000 0 0 1
-29.453779 -12.029021 7.448601 32.675742 0.387730 1.340819 0.037298 -0.013814 -346068.000000 0 0 1
-28.771159 -11.141421 8.259701 31.939529 0.369461 1.309219 0.036267 -0.011233 124465.000000 0 0 1
-28.714929 -11.671121 9.537401 32.430298 0.386052 1.272294 0.038117 -0.016264 -210973.000000 0 0 1
-28.895819 -10.574521 10.643801 32.558860 0.350816 1.237765 0.037438 -0.014354 -550395.000000 0 0 1
-27.824329 -9.673821 10.716201 31.346659 0.334602 1.221900 0.036235 -0.003585 -182703.000000 0 0 1
-28.060259 -8.590621 11.580401 31.548100 0.297089 1.194938 0.036800 -0.003809 -877423.000000 0 0 1
-27.035909 -7.507121 11.516801 30.330413 0.270849 1.181312 0.035558 0.007416 -785552.000000 0 0 1
-27.186039 -6.676721 10.380401 29.856524 0.240827 1.215705 0.028963 0.009938 321364.000000 0 0 1
-26.644529 -5.374721 10.688201 29.207126 0.199048 1.196148 0.023432 0.003710 -225348.000000 0 0 1
-26.700159 -4.336521 9.548301 28.685780 0.161010 1.231463 0.025158 -0.003543 -666160.000000 0 0 1
-25.875859 -4.626121 8.500501 27.626429 0.176912 1.258027 0.026432 0.002228 -431683.000000 0 0 1
-26.145339 -3.792021 7.390001 27.433014 0.144032 1.298044 0.016096 -0.012625 -297187.000000 0 0 1
-25.602879 -4.309421 6.086901 26.667000 0.166755 1.340510 0.019687 -0.000831 -1725720.000000 0 0 1
-24.294189 -3.991221 5.917301 25.320978 0.162833 1.334924 0.038358 -0.016716 -993448.000000 0 0 1
-23.768289 -4.291621 4.624501 24.591372 0.178636 1.381616 0.051241 -0.010970 334145.000000 0 1 0
-22.265889 -3.907521 4.505301 23.050732 0.173725 1.374078 0.057411 -0.014519 344741.000000 0 1 0
-22.093589 -2.515321 4.365301 22.660745 0.113360 1.376947 0.043292 -0.014710 900793.000000 0 1 0
-20.725589 -2.098021 4.471701 21.306052 0.100885 1.359345 0.034044 -0.012491 241274.000000 0 1 0
-20.491289 -0.618421 4.881301 21.073739 0.030171 1.337044 0.027231 -0.023944 -487270.000000 0 1 0
-20.765489 0.375079 3.919701 21.135521 -0.018061 1.384261 0.035403 -0.020203 692506.000000 0 1 0
-22.115889 0.683579 3.623801 22.421234 -0.030899 1.408461 0.037648 -0.030176 -245312.000000 0 1 0
-22.390389 1.956779 2.756801 22.644170 -0.087172 1.448749 0.069310 -0.025042 -614742.000000 0 1 0
-21.974089 3.162079 3.288001 22.442600 -0.142919 1.423760 0.059467 -0.025588 29518.100000 0 1 0
-21.960789 4.210679 2.379101 22.487023 -0.189437 1.464799 0.057662 -0.008007 -295768.000000 0 1 0
-20.693289 4.239479 1.540501 21.179200 -0.202076 1.497996 0.042928 -0.003031 -886371.000000 0 1 0
-20.769089 5.118279 0.411901 21.394427 -0.241623 1.551542 0.042827 -0.004766 897896.000000 0 1 0
-21.675989 4.741579 -0.653699 22.198162 -0.215356 1.600249 0.055093 -0.010689 317685.000000 0 1 0
-21.084789 3.670379 -1.576499 21.459854 -0.172350 1.644325 0.044911 -0.009213 -201489.000000 0 1 0
-20.711689 2.420579 -1.002599 20.876745 -0.116342 1.618839 0.004991 -0.010010 465707.000000 0 1 0
-20.195789 1.479179 -1.889299 20.337830 -0.073111 1.663826 -0.000898 -0.011006 -857769.000000 0 1 0
-19.622489 0.413879 -0.993799 19.651997 -0.021089 1.621388 0.010098 -0.011875 -1252270.000000 0 1 0
-20.547789 -0.406421 -0.408299 20.555863 0.019777 1.590661 0.022672 -0.014321 -91734.800000 0 1 0
-20.059389 -1.222821 0.662801 20.107553 0.060885 1.537828 0.032626 -0.014607 -919566.000000 0 1 0
-19.082789 -2.348821 0.195301 19.227791 0.122470 1.560639 0.008848 -0.008464 -164194.000000 0 1 0
-18.391689 -2.880121 1.334201 18.663585 0.155337 1.499248 0.018039 -0.006864 859430.000000 0 1 0
-17.559389 -4.030021 1.147301 18.052410 0.225601 1.507200 0.003164 -0.003102 348096.000000 0 1 0
-18.337289 -5.350021 0.735301 19.115950 0.283877 1.532322 -0.005331 -0.000294 150236.000000 0 1 0
-19.209789 -5.824021 1.753501 20.149689 0.294372 1.483662 0.034277 -0.006994 308292.000000 0 1 0
-19.762189 -7.013621 1.276001 21.008645 0.341034 1.510022 -0.004000 -0.003650 -354533.000000 0 1 0
-20.713689 -7.686221 2.297101 22.212870 0.355320 1.467198 0.018414 0.001692 102593.000000 0 1 0
-20.021089 -8.021221 3.502801 21.850712 0.381057 1.409796 0.023120 -0.003605 815163.000000 0 1 0
-20.888589 -8.767221 4.357001 23.069044 0.397384 1.380787 0.039356 -0.008421 364121.000000 0 1 0
-20.140889 -9.590021 5.457601 22.965394 0.444384 1.330856 0.038738 -0.004797 -231414.000000 0 1 0
-19.542689 -10.720621 4.946801 22.832417 0.501748 1.352408 0.035996 0.000230 -123860.000000 0 1 0
-18.624589 -11.234921 5.857801 22.525821 0.542792 1.307724 0.040476 -0.006299 -331727.000000 0 1 0
-17.986389 -12.588221 5.438101 22.617392 0.610642 1.327978 0.034538 -0.003184 -206859.000000 0 1 0
-18.858389 -13.645321 5.531501 23.925533 0.626369 1.337489 0.044014 -0.002383 -77588.300000 0 1 0
-18.077889 -14.745421 5.080501 23.875699 0.684217 1.356367 0.032399 0.000510 200828.000000 0 1 0
-18.784889 -16.097321 5.261201 25.291818 0.708503 1.361246 0.040592 -0.000453 -137116.000000 0 0 1
-17.972889 -17.227921 5.099601 25.413224 0.764238 1.368757 0.036159 -0.002650 -41245.000000 0 0 1
-18.659289 -18.442221 5.468601 26.799070 0.779548 1.365294 0.047057 -0.000874 573364.000000 0 0 1
-17.790789 -19.777421 5.301101 27.124900 0.838230 1.374097 0.043901 -0.000977 -165383.000000 0 0 1
-17.834989 -20.296021 3.973501 27.309413 0.849850 1.424779 0.043150 0.002459 -11993.500000 0 0 1
-17.156189 -21.515521 3.847201 27.785849 0.897651 1.431891 0.033396 0.004999 1269380.000000 0 0 1
-15.571589 -21.369721 3.870601 26.723041 0.941083 1.425444 0.035396 0.009794 995677.000000 0 0 1
-14.862889 -22.608521 3.820801 27.324883 0.989235 1.430508 0.029074 0.014511 1575940.000000 0 0 1
-13.426489 -22.347121 3.991401 26.374148 1.029778 1.418875 0.017500 0.016010 1504490.000000 0 0 1
-12.719289 -23.657721 4.149801 27.178832 1.077494 1.417512 0.027138 0.016893 -533815.000000 0 0 1
-12.729789 -24.448721 2.944801 27.721099 1.090747 1.464366 0.028970 0.018655 141076.000000 0 0 1
-12.067289 -25.693191 3.143801 28.559465 1.131707 1.460494 0.036162 0.003628 144232.000000 0 0 1
18.230611 19.636079 -24.240699 36.132288 0.822497 2.306201 0.054515 -0.016078 -506802.000000 0 0 1
17.177111 19.963679 -25.106659 36.386068 0.860285 2.332296 0.040881 -0.019002 114533.000000 0 0 1
17.492111 19.486079 -26.454129 37.222334 0.839269 2.361297 0.045271 -0.018859 492323.000000 0 0 1
16.346811 19.810379 -27.467579 37.605016 0.880899 2.389738 0.039744 -0.020322 286911.000000 0 0 1
16.226511 21.185179 -27.781499 38.521723 0.917173 2.376316 0.041753 -0.013829 158288.000000 0 0 1
15.349811 21.378379 -28.863019 39.060538 0.948088 2.402278 0.034387 -0.016844 -317451.000000 0 0 1
15.107811 22.836179 -29.296789 40.100360 0.986328 2.389977 0.026039 -0.009395 -373841.000000 0 0 1
14.370211 23.575179 -28.366239 39.584537 1.023386 2.369710 0.032004 -0.018000 110548.000000 0 0 1
14.342011 24.911979 -28.738499 40.647279 1.048431 2.356074 0.028532 -0.003465 -184738.000000 0 0 1
13.284411 25.680679 -27.958709 40.220172 1.093411 2.339413 0.028672 -0.010071 -342523.000000 0 0 1
11.944311 25.280079 -28.054479 39.608115 1.129407 2.357885 0.026755 -0.014647 -112864.000000 0 0 1
11.203511 25.939679 -27.029779 39.102360 1.163091 2.334023 0.020811 -0.005198 149311.000000 0 0 1
9.724911 25.594879 -26.689739 38.236290 1.207688 2.343427 0.020818 -0.010277 1018930.000000 0 0 1
9.066011 26.509779 -25.765889 38.063657 1.241277 2.314361 0.029608 -0.002841 384892.000000 0 0 1
8.809411 27.805379 -26.243769 39.236211 1.263977 2.303479 0.031388 -0.005501 -555070.000000 0 0 1
8.336411 28.774279 -25.153969 39.117477 1.288800 2.269253 0.038050 -0.003185 182278.000000 0 0 1
9.442111 29.059879 -24.291699 39.034814 1.256638 2.242485 0.036622 0.001589 498345.000000 0 0 1
9.044611 29.830779 -23.165399 38.837045 1.276409 2.209901 0.057616 -0.009294 126955.000000 0 0 1
10.142211 30.151879 -22.081899 38.724805 1.246315 2.177578 0.046541 -0.006901 458670.000000 0 0 1
11.102411 31.086579 -22.591399 40.000128 1.227771 2.170967 0.033082 -0.006348 -41455.300000 0 0 1
11.771511 31.703579 -21.545899 40.098768 1.215274 2.138053 0.029325 -0.007599 149467.000000 0 0 1
13.011011 32.552979 -21.973199 41.373957 1.190560 2.130680 0.018569 0.006086 661480.000000 0 0 1
14.162011 31.832679 -22.391999 41.415983 1.152201 2.142019 0.014692 0.003947 312360.000000 0 0 1
15.157611 32.699779 -22.952199 42.729757 1.136741 2.137848 0.010075 0.003068 518242.000000 0 0 1
16.282511 31.788279 -23.548299 42.780103 1.097423 2.153699 0.003108 0.010623 -3245.640000 0 0 1
17.030611 31.123579 -22.580699 42.054808 1.070111 2.137596 0.002196 0.010848 -146681.000000 0 0 1
18.245511 30.704879 -23.185599 42.582394 1.034636 2.146575 0.006548 0.017963 -149267.000000 0 0 1
19.224111 30.004179 -22.263799 42.017781 1.000976 2.129239 0.010123 0.020202 -397679.000000 0 0 1
19.909311 30.868279 -21.395899 42.509009 0.997961 2.098240 0.013529 0.019964 -348122.000000 0 0 1
20.809211 30.176579 -20.608599 42.051915 0.967097 2.082972 0.016875 0.022941 -260654.000000 0 0 1
21.509211 30.956579 -19.476399 42.429778 0.963556 2.047696 0.020043 0.012889 551188.000000 0 0 1
22.506811 31.929079 -19.903199 43.842445 0.956789 2.042013 0.026171 0.015875 887831.000000 0 0 1
23.061311 32.487279 -18.698399 44.009970 0.953486 2.009612 0.026411 0.013574 -818590.000000 0 0 1
24.393111 33.186279 -18.866099 45.302127 0.936941 2.000334 0.039460 0.014180 -657422.000000 0 0 1
25.462111 32.319879 -19.141499 45.379408 0.903529 2.006237 0.046488 0.012139 -483298.000000 0 0 1
26.663511 33.044179 -19.165199 46.585035 0.891859 1.994789 0.040215 0.010505 381494.000000 0 0 1
27.945811 32.226579 -19.525499 46.912321 0.856420 2.000072 0.044917 0.002191 548519.000000 0 0 1
28.329611 31.240279 -18.576699 46.082704 0.834221 1.985716 0.041522 0.007261 316318.000000 0 0 1
29.590811 30.684979 -18.956299 46.653245 0.803549 1.989223 0.033085 0.002056 193564.000000 0 0 1
30.031111 29.449179 -18.105799 45.792376 0.775615 1.977288 0.022816 -0.009890 -229942.000000 0 0 1
30.640111 29.783379 -16.877299 45.942456 0.771220 1.946962 0.013953 -0.000586 112483.000000 0 0 1
30.697711 28.694579 -15.998399 44.963064 0.751684 1.934579 0.007220 -0.012108 -334917.000000 0 0 1
30.945711 29.118379 -14.493099 44.895066 0.754985 1.899506 -0.000315 -0.007826 -398809.000000 0 0 1
32.170011 29.679579 -14.129099 45.993678 0.745154 1.883042 -0.008571 -0.002284 -354099.000000 0 0 1
32.148211 31.059979 -14.402299 46.964412 0.768183 1.882483 -0.002134 -0.000098 410014.000000 0 0 1
33.614511 31.587379 -14.519499 48.358181 0.754318 1.875750 0.004182 -0.007675 938367.000000 0 0 1
34.338211 31.606879 -13.284099 48.523961 0.744004 1.848100 0.004643 -0.004024 320078.000000 0 0 1
-35.291040 31.976179 -13.491099 49.496901 -0.736159 1.846854 0.017771 -0.006469 187078.000000 0 0 1
-34.560140 32.275279 -12.167899 48.827806 -0.751225 1.822651 0.014381 -0.003217 -521927.000000 0 0 1
-34.918840 33.491279 -11.459799 49.722411 -0.764534 1.803363 0.013589 -0.008502 340695.000000 0 0 1
-33.912140 33.992879 -10.580799 49.168103 -0.786587 1.787689 0.000127 -0.006798 -18414.900000 0 0 1
-34.252940 -33.748243 -9.782699 49.070449 0.777976 1.771501 -0.000263 -0.001281 -487364.000000 0 0 1
-33.154040 -33.406243 -8.999699 47.918285 0.789187 1.759732 0.002748 -0.001095 -653101.000000 0 0 1
-33.148240 -33.894143 -7.685399 48.027951 0.796524 1.731507 0.008172 -0.005517 -124413.000000 0 0 1
-32.968640 -32.805743 -6.612799 46.977411 0.782922 1.712031 0.015073 -0.008674 -538503.000000 0 0 1
-34.066240 -31.966043 -6.522499 47.168629 0.753603 1.709521 0.012291 -0.002772 -844337.000000 0 0 1
-33.898840 -30.991043 -5.503699 46.258694 0.740617 1.690055 0.017652 -0.003166 -220489.000000 0 0 1
-35.149840 -30.170143 -5.131499 46.605590 0.709310 1.681125 0.023187 -0.006462 19727.800000 0 0 1
34.880211 -31.039743 -4.516599 46.909428 -0.727204 1.667229 0.016365 -0.007686 151826.000000 0 0 1
33.734411 -30.380143 -3.992199 45.573032 -0.733129 1.658509 0.015990 -0.002168 40387.400000 0 0 1
33.763111 -29.449843 -2.756199 44.886942 -0.717270 1.632238 0.008772 -0.007981 -820362.000000 0 0 1
34.386411 -28.227643 -3.031499 44.591648 -0.687353 1.638832 0.025752 -0.011791 139234.000000 0 0 1
33.808711 -27.278743 -2.196099 43.496915 -0.678907 1.621306 0.018792 -0.009273 -446894.000000 0 0 1
33.965811 -25.806143 -2.672599 42.740802 -0.649724 1.633368 0.034326 -0.011886 -258989.000000 0 0 1
33.304011 -25.621343 -3.890199 42.198863 -0.655750 1.663115 0.036850 -0.021102 269232.000000 0 0 1
33.355111 -24.259443 -4.151199 41.452581 -0.628819 1.671108 0.027361 -0.021555 -355132.000000 0 0 1
33.025511 -23.821043 -5.601599 41.103581 -0.624874 1.707502 0.033695 -0.020287 371817.000000 0 0 1
34.015211 -24.241243 -6.580199 42.284412 -0.619171 1.727049 0.038832 -0.024530 646424.000000 0 0 1
33.590211 -23.746443 -7.832199 41.875281 -0.615372 1.758941 0.026230 -0.027506 -257556.000000 0 0 1
34.723611 -23.604243 -8.853699 42.910109 -0.597023 1.778620 0.029039 -0.029180 56858.700000 0 0 1
35.404011 -24.787243 -9.257599 44.199034 -0.610810 1.781811 0.029536 -0.013211 787934.000000 0 0 1
-34.519240 -24.611743 -10.224099 43.610182 0.619389 1.807442 0.044533 -0.011633 653300.000000 0 0 1
-34.050840 -25.914643 -10.885099 44.153299 0.650540 1.819894 0.041555 -0.003651 207182.000000 0 0 1
-33.335740 -26.771343 -9.946399 43.896551 0.676618 1.799369 0.029157 -0.000128 781168.000000 0 0 1
-34.173740 -27.716543 -9.220099 44.956217 0.681441 1.777353 0.027661 -0.000866 388366.000000 0 0 1
-33.335940 -28.819643 -8.520799 44.882744 0.712864 1.761801 0.023757 -0.002513 513932.000000 0 0 1
-32.581440 -29.517543 -9.546799 44.988631 0.736099 1.784627 0.020667 0.000736 314990.000000 0 0 1
-31.725440 -30.533343 -9.080799 44.958308 0.766253 1.774178 0.003117 -0.005050 -202795.000000 0 0 1
-31.213440 -31.496043 -10.147499 45.489024 0.789905 1.795765 0.000868 -0.002183 -606893.000000 0 0 1
-30.339640 -30.819543 -11.007199 44.626185 0.793245 1.820022 -0.000520 0.014203 -7343.640000 0 0 1
-30.088840 -31.623143 -12.148099 45.309356 0.810255 1.842232 -0.007751 0.014141 -247001.000000 0 0 1
-30.287840 -30.944943 -13.506499 45.358222 0.796129 1.873156 -0.004493 0.016309 394429.000000 0 0 1
-29.290340 -29.941643 -13.795199 44.099133 0.796394 1.888960 -0.009877 0.016352 595743.000000 0 0 1
-29.612440 -29.359443 -15.062899 44.336942 0.781108 1.917434 -0.001297 0.015702 284343.000000 0 0 1
-28.656240 -28.231543 -15.524799 43.118668 0.777933 1.939116 0.001345 0.004843 183855.000000 0 0 1
-27.404340 -28.638243 -16.019599 42.752478 0.807412 1.954876 0.015338 -0.000162 -645826.000000 0 0 1
-26.632640 -27.594043 -16.482799 41.742201 0.803126 1.976724 0.038776 0.002583 -4139.290000 0 0 1
-25.323840 -28.200543 -17.078299 41.572055 0.839092 1.994141 0.048848 -0.010642 -158541.000000 0 0 1
-25.501340 -29.102043 -18.181599 42.752986 0.851246 2.010057 0.041131 -0.009713 -160102.000000 0 0 1
-25.571940 -28.626943 -19.515499 43.061359 0.841705 2.041151 0.035627 -0.006665 -379301.000000 0 0 1
-24.336140 -27.954843 -20.119599 42.172494 0.854491 2.068124 0.050474 -0.008266 -195583.000000 0 0 1
-23.948240 -26.749343 -19.471399 40.843371 0.840593 2.067731 0.047853 -0.005678 -481257.000000 0 0 1
-22.556940 -26.590043 -19.406499 39.905615 0.867277 2.078658 0.049860 -0.020088 -227914.000000 0 0 1
-22.200340 -25.400643 -18.465299 38.457964 0.852529 2.071613 0.046111 -0.015766 -40542.900000 0 0 1
-22.467240 -25.699743 -17.089299 38.174570 0.852408 2.034945 0.053691 -0.011946 131807.000000 0 0 1
-21.796240 -24.761843 -16.309699 36.799881 0.849009 2.029961 0.052879 -0.014384 -111191.000000 0 0 1
-22.301940 -24.737143 -14.851699 36.467461 0.837122 1.990247 0.037412 -0.008875 -615800.000000 0 0 1
-23.675240 -24.490443 -14.732899 37.112762 0.802322 1.979017 0.018425 0.006584 -449425.000000 0 0 1
-23.958740 -24.467043 -13.371499 36.762133 0.795894 1.943066 0.006877 0.008762 405588.000000 0 0 1
-25.461940 -24.283843 -12.999899 37.510169 0.761720 1.924708 -0.003927 0.023623 23747.500000 0 0 1
-26.168440 -25.485143 -13.077199 38.798104 0.772170 1.914586 0.011960 0.018847 703504.000000 0 0 1
-27.520940 -25.610943 -12.628699 39.658625 0.749465 1.894875 0.004517 0.021142 571958.000000 0 0 1
-28.644540 -24.824943 -13.344099 40.185227 0.714084 1.909288 0.008093 0.019958 -1038350.000000 0 0 1
-28.897340 -23.438543 -13.045799 39.428599 0.681471 1.908023 0.014550 0.022839 88666.600000 0 0 1
-29.266240 -23.140943 -11.701799 39.101766 0.669047 1.874719 0.017678 0.017713 -299761.000000 0 0 1
-30.646340 -23.761943 -11.278499 40.386045 0.659535 1.853827 0.009459 0.006954 506566.000000 0 0 1
-31.846940 -23.156443 -11.762999 41.095214 0.628694 1.861094 0.039734 -0.002286 576077.000000 0 0 1
-32.027240 -23.054743 -13.161499 41.599163 0.623923 1.892716 0.041524 0.006787 250918.000000 0 0 1
-33.493440 -22.519343 -13.516599 42.563244 0.591928 1.893957 0.019205 -0.006315 1797710.000000 0 0 1
-34.535840 -23.398043 -13.081999 43.718776 0.595465 1.874683 0.023155 -0.003210 -49352.900000 0 0 1
35.207811 -22.961743 -13.572699 44.170689 -0.577904 1.883128 0.030443 -0.014775 127067.000000 0 0 1
34.058811 -23.958243 -13.240699 43.695722 -0.613029 1.878657 0.021711 -0.005892 112639.000000 0 0 1
34.184311 -25.124143 -14.021099 44.680879 -0.633807 1.889995 0.003997 -0.000441 989831.000000 0 0 1
33.166611 -26.093443 -13.599999 44.337928 -0.666602 1.882557 0.003147 -0.009172 955361.000000 0 0 1
33.021811 -27.428943 -14.384699 45.273684 -0.693141 1.894128 0.001434 -0.012591 141958.000000 0 0 1
32.508511 -27.356143 -15.690199 45.291768 -0.699543 1.924554 -0.000989 -0.019431 -203491.000000 0 0 1
32.432511 -28.624743 -16.312299 46.231318 -0.723115 1.931402 -0.005913 -0.002598 -188060.000000 0 0 1
31.484911 -28.654243 -17.538099 46.042917 -0.738364 1.961574 -0.001079 -0.001766 189902.000000 0 0 1
30.134811 -28.387843 -17.190599 44.827371 -0.755556 1.964363 0.005790 -0.003396 -29890.200000 0 0 1
29.385311 -28.344743 -18.394699 44.780419 -0.767375 1.994101 0.016347 -0.001815 -156488.000000 0 0 1
27.868311 -28.296143 -18.151099 43.666656 -0.793016 1.999480 0.022355 -0.003842 -111317.000000 0 0 1
27.545811 -27.146743 -17.364699 42.393987 -0.778102 1.992815 0.018882 -0.008742 -123346.000000 0 0 1
26.178711 -27.162643 -17.009499 41.381846 -0.803842 1.994388 0.027260 -0.006257 -37250.000000 0 0 1
25.789011 -26.189743 -15.915199 40.053331 -0.793108 1.979424 0.027750 -0.008506 -200110.000000 0 0 1
25.647511 -24.857543 -16.377899 39.292847 -0.769758 2.000736 0.036492 -0.015698 -2540.460000 0 0 1
25.414011 -23.999843 -15.279299 38.148675 -0.756787 1.982880 0.043604 -0.012737 -79447.000000 0 0 1
24.993611 -22.518243 -15.546999 37.060236 -0.733345 2.003698 0.040267 -0.017333 -1462530.000000 0 0 1
23.655311 -22.256043 -15.548599 36.009223 -0.754930 2.017278 0.037093 -0.015938 -1502800.000000 0 0 1
23.415711 -20.923143 -15.958199 35.224105 -0.729241 2.040977 0.038498 -0.020903 -764197.000000 0 0 1
21.947011 -20.542943 -15.995999 34.052251 -0.752365 2.059802 0.028015 -0.025033 -956405.000000 0 0 1
21.380911 -20.678743 -14.730399 33.192446 -0.768705 2.030617 0.033141 -0.028721 694381.000000 0 0 1
20.069611 -20.070643 -14.702799 31.965486 -0.785424 2.048745 0.027230 -0.030428 877735.000000 0 0 1
20.018111 -18.674843 -13.958399 30.729651 -0.750696 2.042307 0.017789 -0.022184 -229087.000000 0 0 1
19.808611 -18.808243 -12.597599 30.080402 -0.759499 2.002917 0.028845 -0.030208 40217.900000 0 0 1
19.682311 -17.567043 -11.908499 28.944891 -0.728672 1.994808 0.028528 -0.032996 -413821.000000 0 0 1
18.849311 -17.599643 -10.629599 27.893231 -0.751126 1.961762 0.037842 -0.026599 -535744.000000 0 0 1
19.429611 -18.282143 -9.514999 28.324579 -0.754980 1.913386 0.043378 -0.034612 334935.000000 0 0 1
18.513011 -18.521943 -8.430899 27.511343 -0.785639 1.882260 0.044366 -0.046289 224651.000000 0 0 1
19.049911 -19.459943 -7.318399 28.198359 -0.796045 1.833335 0.048913 -0.042633 -137744.000000 0 0 1
20.052811 -18.886543 -6.526599 28.309243 -0.755456 1.803436 0.049461 -0.039576 -182062.000000 0 0 1
20.646711 -19.815243 -5.629999 29.165518 -0.764852 1.765052 0.044122 -0.025966 -568461.000000 0 0 1
21.972611 -19.209843 -5.170099 29.640237 -0.718412 1.746122 0.051466 -0.026002 -595610.000000 0 0 1
22.908311 -19.136943 -6.238299 30.494749 -0.695940 1.776820 0.035214 -0.029192 -560340.000000 0 0 1
23.966611 -18.379443 -5.774699 30.749789 -0.654215 1.759714 0.024244 -0.029533 -1012720.000000 0 0 1
24.972411 -17.960443 -6.843299 31.512372 -0.623504 1.789703 0.018938 -0.031843 21288.900000 0 0 1
25.946311 -18.887943 -7.314199 32.915999 -0.629247 1.794875 0.023681 -0.035009 693512.000000 0 0 1
25.400311 -19.890143 -8.152599 33.275494 -0.664330 1.818319 0.034782 -0.040480 -300376.000000 0 0 1
26.407511 -21.054043 -8.180499 34.749819 -0.673077 1.808438 0.036742 -0.042376 278842.000000 0 0 1
27.730911 -20.834243 -8.612599 35.738578 -0.644333 1.814181 0.016569 -0.026965 -256157.000000 0 0 1
28.437811 -22.029643 -8.445299 36.950472 -0.659098 1.801392 0.027883 -0.030564 -198824.000000 0 0 1
-29.917749 30.711279 4.060701 43.066735 -0.798486 1.476367 0.028185 0.009799 945268.000000 0 0 1
-28.798169 31.201979 3.291801 42.587956 -0.825440 1.493425 0.019980 0.011221 418924.000000 0 0 1
-27.810999 31.837579 4.069601 42.469339 -0.852801 1.474825 0.024062 0.013696 576630.000000 0 0 1
-26.994089 32.849579 3.138901 42.633653 -0.882934 1.497105 0.027946 0.015737 -145749.000000 0 0 1
-26.160119 32.346779 2.090001 41.653740 -0.890749 1.520600 0.035571 0.010790 288254.000000 0 0 1
-25.602919 33.504879 1.467001 42.192872 -0.918297 1.536020 0.036475 0.000298 224955.000000 0 0 1
-24.402789 34.219479 2.140601 42.083857 -0.951315 1.519909 0.048690 -0.000738 -142996.000000 0 0 1
-23.174589 33.507579 2.077901 40.793836 -0.965715 1.519838 0.044153 -0.004825 245522.000000 0 0 1
-22.092089 34.212079 2.691801 40.813877 -0.997422 1.504795 0.028460 0.000482 854084.000000 0 0 1
-20.721989 33.650379 2.208401 39.580625 -1.018838 1.514972 0.025520 -0.007528 324150.000000 0 0 1
-20.432789 33.990879 0.855201 39.668754 -1.029550 1.549236 0.033364 -0.009232 -265988.000000 0 0 1
-19.143489 33.595679 0.479401 38.670048 -1.052864 1.558399 0.024394 -0.006852 -427148.000000 0 0 1
-18.569489 34.443379 -0.740999 39.137212 -1.076336 1.589731 0.027343 -0.011607 68663.800000 0 0 1
-18.339289 -33.170743 -0.454999 37.905603 1.065748 1.582800 0.024629 -0.010842 253321.000000 0 0 1
-17.494589 -32.830943 0.621101 37.206414 1.081201 1.554102 0.025678 -0.007945 -414860.000000 0 0 1
-17.465689 -31.297843 0.858101 35.851661 1.061795 1.546859 0.027812 -0.003416 -120102.000000 0 0 1
-16.593589 -30.689243 -0.061599 34.888116 1.075123 1.572562 0.022432 0.004964 58506.600000 0 0 1
-16.844789 -29.347343 -0.175099 33.838501 1.049729 1.575971 0.011629 0.001279 -23171.300000 0 0 1
-15.943989 -28.691143 -1.253999 32.847603 1.063579 1.608982 0.016344 0.005844 137212.000000 0 0 1
-16.405989 -28.916443 -2.557099 33.344504 1.054724 1.647559 0.008887 -0.002048 554486.000000 0 0 1
-15.544189 -28.123743 -3.382999 32.311166 1.065877 1.675689 0.010139 0.005830 110303.000000 0 0 1
-15.846189 -28.370143 -4.893499 32.862031 1.061411 1.720263 0.022785 -0.000076 -99558.400000 0 0 1
-16.902689 -27.548743 -5.329099 32.757189 1.020469 1.734207 0.009163 0.005829 -718778.000000 0 0 1
-16.872789 -27.298643 -6.765099 32.797462 1.017188 1.778557 0.020835 0.000470 -3589.290000 0 0 1
-17.705489 -26.103943 -7.257099 32.366119 0.974804 1.796938 0.007499 -0.001337 127197.000000 0 0 1
-17.201289 -24.867443 -6.747599 30.980706 0.965650 1.790356 0.019073 0.006588 -43175.400000 0 0 1
-17.845989 -23.785843 -7.383299 30.639170 0.927117 1.814168 0.010674 0.012863 -386656.000000 0 0 1
-17.200189 -22.442143 -7.138199 29.162479 0.916867 1.818082 0.011874 0.009561 -55164.000000 0 0 1
-15.934689 -22.374843 -7.764899 28.545430 0.951949 1.846287 0.027318 0.001558 -261633.000000 0 0 1
-15.123389 -21.360643 -7.177099 27.138620 0.954720 1.838441 0.054487 -0.007357 726820.000000 0 0 1
-13.855389 -21.109743 -8.049499 26.502594 0.989970 1.879396 0.061538 -0.012671 465416.000000 0 0 1
-14.192789 -20.326843 -9.159599 26.429417 0.961260 1.924707 0.055058 -0.012396 150544.000000 0 0 1
-13.062789 -20.223043 -10.022099 26.077776 0.997283 1.965263 0.056690 -0.012954 496841.000000 0 0 1
-13.343689 -19.416843 -11.306199 26.132317 0.968698 2.018229 0.054764 -0.013143 1055340.000000 0 0 1
-14.419089 -19.898443 -12.196599 27.433833 0.943728 2.031504 0.040038 -0.002201 872543.000000 0 0 1
-14.546289 -19.061743 -13.329099 27.433728 0.918955 2.078149 0.033383 0.000068 -165335.000000 0 0 1
-15.638989 -19.589743 -14.281399 28.849513 0.897077 2.088667 0.037119 0.002831 -296488.000000 0 0 1
-16.928589 -19.403143 -13.793499 29.211637 0.853403 2.062572 0.030788 0.000932 -914116.000000 0 0 1
-17.907889 -19.660743 -14.757599 30.414208 0.832022 2.077412 0.021284 0.005931 101886.000000 0 0 1
-19.323589 -19.595943 -14.146399 30.943863 0.792396 2.045599 0.013496 0.004651 1469960.000000 0 0 1
-20.469589 -20.186143 -14.848499 32.356798 0.778426 2.047552 0.026357 -0.006024 1865220.000000 0 0 1
-21.745889 -19.942443 -14.225399 32.755865 0.742165 2.020041 0.018326 -0.003519 913459.000000 0 0 1
-22.808389 -20.714543 -15.060199 34.294672 0.737326 2.025439 0.027308 -0.005706 -261325.000000 0 0 1
-23.050889 -20.021343 -16.283999 34.602981 0.715177 2.060762 0.028825 -0.010412 198935.000000 0 0 1
-23.524289 -20.984243 -17.171999 35.897189 0.728391 2.069590 0.042288 -0.019739 -224705.000000 0 0 1
-23.872289 -20.489043 -18.568399 36.530433 0.709280 2.104005 0.048205 -0.019405 516125.000000 0 0 1
-22.705989 -20.203143 -19.339099 36.024015 0.727135 2.137482 0.029878 -0.013592 524319.000000 0 0 1
-23.122889 -19.982243 -20.652699 36.884848 0.712667 2.165090 0.028341 -0.015700 -268180.000000 0 0 1
-22.096889 -19.326843 -21.589199 36.440265 0.718627 2.204899 0.012716 -0.015312 -63477.600000 0 0 1
-20.911989 -20.082743 -21.780699 36.263297 0.765173 2.215081 0.005076 -0.006657 -236220.000000 0 0 1
-20.147089 -19.421643 -22.736699 36.056385 0.767066 2.253106 -0.000323 0.004379 441618.000000 0 0 1
-18.700689 -20.003343 -22.918799 35.708834 0.819042 2.267671 0.001174 0.007020 325586.000000 0 0 1
-18.580989 -21.179943 -23.734899 36.840040 0.850670 2.270864 -0.002197 0.007341 -872418.000000 0 0 1
-17.277489 -21.621443 -23.805399 36.506102 0.896610 2.281139 0.000768 0.012089 -910138.000000 0 0 1
-17.212089 -22.969743 -24.615099 37.812276 0.927719 2.279673 0.006829 0.009350 -299116.000000 0 0 1
-17.423589 -22.889843 -25.977839 38.760476 0.920170 2.305294 0.012325 0.007579 190067.000000 0 0 1
-17.574989 -24.144143 -26.601419 39.993192 0.941577 2.298489 0.019518 -0.001324 -117804.000000 0 0 1
-17.489289 -24.100443 -28.164749 40.987311 0.943040 2.328366 0.025956 0.005125 206926.000000 0 0 1
-16.150389 -23.876343 -28.584969 40.595755 0.976073 2.352003 0.023734 0.000805 219985.000000 0 0 1
-16.012089 -23.995743 -29.933549 41.571626 0.982363 2.374667 0.049316 -0.007919 -1041980.000000 0 0 1
-14.618989 -23.752443 -30.453489 41.295380 1.019077 2.400091 0.022076 -0.012815 -1143480.000000 0 0 1
-13.724089 -24.715143 -30.034979 41.246683 1.063900 2.386458 0.024938 -0.010179 91148.000000 0 0 1
-12.476189 -24.673743 -30.742039 41.346365 1.102642 2.409122 0.032428 -0.007072 494428.000000 0 0 1
-11.730489 -26.026143 -30.531239 41.798577 1.147344 2.389758 0.026805 -0.000848 -1338060.000000 0 0 1
-12.175789 -27.143243 -31.259259 43.152599 1.149128 2.380944 0.019738 0.011263 116210.000000 0 0 1
-11.487389 -28.367843 -31.028819 43.583050 1.186035 2.363063 0.020743 0.011412 -479254.000000 0 0 1
-10.046989 -28.474643 -31.513329 43.644441 1.231594 2.377553 0.032507 0.005809 -470346.000000 0 0 1
-9.223189 -27.544743 -30.789859 42.329606 1.247687 2.385298 0.039656 0.002819 705041.000000 0 0 1
-8.078389 -27.160343 -31.620659 42.459518 1.281696 2.410919 0.025749 0.002465 1115180.000000 0 0 1
-7.277689 -25.933743 -30.967849 41.043044 1.297207 2.425721 0.033006 -0.006308 95583.100000 0 0 1
-7.767289 -24.616743 -31.054949 40.382232 1.265155 2.448111 0.032858 -0.007807 105573.000000 0 0 1
-8.730789 -24.247243 -30.079179 39.609500 1.225176 2.433176 0.030279 -0.003816 -371419.000000 0 0 1
-8.931789 -22.728543 -29.922579 38.622847 1.196359 2.457097 0.031151 -0.012792 -167862.000000 0 0 1
-9.682489 -22.101843 -30.975839 39.265057 1.157895 2.479798 0.019928 -0.013918 253832.000000 0 0 1
-9.815489 -20.710543 -30.912209 38.481620 1.128216 2.503609 0.021465 -0.014515 133489.000000 0 0 1
-10.430989 -20.134643 -32.238599 39.414929 1.092804 2.528598 0.010955 -0.018908 -89556.500000 0 0 1
-11.198089 -19.006243 -31.937749 38.815645 1.038371 2.537127 0.008826 -0.017429 -30447.100000 0 0 1
-11.851489 -18.590943 -33.102079 39.772209 1.003268 2.554025 0.017056 -0.017048 -318134.000000 0 0 1
-12.739989 -17.323843 -33.033069 39.415816 0.936704 2.564526 0.016507 -0.014188 -302914.000000 0 0 1
-12.155789 -16.087243 -33.194839 38.838897 0.923710 2.595731 0.029352 -0.011576 -219505.000000 0 0 1
-11.520489 -15.526443 -32.038119 37.419690 0.932440 2.598633 0.018602 -0.003636 113349.000000 0 0 1
-11.244689 -13.976843 -32.069829 36.746008 0.893304 2.631590 0.016277 -0.004782 207891.000000 0 0 1
-10.363289 -13.500843 -33.129279 37.245398 0.916124 2.667017 0.020437 -0.006494 708711.000000 0 0 1
-10.929489 -13.481243 34.378931 38.511148 0.889554 0.467493 0.020800 -0.005499 -387288.000000 0 0 1
-11.447989 -12.187043 33.800251 37.709912 0.816657 0.459391 0.019956 0.000570 -198536.000000 0 0 1
-12.645989 -11.771143 34.407221 38.501139 0.749584 0.465343 0.012448 0.002737 -342683.000000 0 0 1
-13.439189 -10.967943 33.552576 37.771456 0.684491 0.477155 0.013878 -0.015373 298822.000000 0 0 1
-14.592089 -10.355243 34.357411 38.737473 0.617172 0.480141 0.036262 -0.010633 -176696.000000 0 0 1
-14.107689 -9.386143 -33.648869 37.674567 0.587070 2.675087 0.044488 -0.007203 -546985.000000 0 0 1
-15.077389 -8.790343 -32.850339 37.198690 0.527837 2.653235 0.050484 -0.014243 -405785.000000 0 0 1
-14.497689 -7.737043 -31.930679 35.911183 0.490223 2.666296 0.056098 -0.025778 -497127.000000 0 0 1
-14.191689 -6.519443 -32.537859 36.091820 0.430631 2.694089 0.046328 -0.030957 -141634.000000 0 0 1
-15.215489 -5.577343 -32.721359 36.514452 0.351348 2.681746 0.043059 -0.028940 -317627.000000 0 0 1
-15.727989 -4.833543 -31.454339 35.498003 0.298160 2.659631 0.046096 -0.031554 171611.000000 0 0 1
-16.569289 -5.706143 -30.680509 35.332634 0.331660 2.622629 0.069885 -0.035766 113358.000000 0 0 1
-16.941889 -5.259443 -29.372879 34.314070 0.301007 2.598280 0.068975 -0.040018 -44170.600000 0 0 1
-15.813089 -4.959043 -28.344349 32.833642 0.303890 2.612512 0.057846 -0.040832 173527.000000 0 0 1
-15.277989 -3.680843 -28.600719 32.633827 0.236419 2.639159 0.043459 -0.033814 -72272.200000 0 0 1
-13.984489 -3.403843 -28.108539 31.579140 0.238759 2.668357 0.045542 -0.030186 22563.800000 0 0 1
-13.494489 -2.015843 -28.580749 31.670555 0.148286 2.696194 0.035662 -0.008736 -202842.000000 0 0 1
-13.326189 -2.083843 -29.995979 32.889033 0.155116 2.719018 0.032739 -0.014378 150097.000000 0 0 1
-13.247389 -0.794843 -30.595959 33.350229 0.059928 2.732328 0.039858 -0.017796 -76009.800000 0 0 1
-13.242089 -0.902843 -32.127319 34.761080 0.068074 2.749817 0.021184 -0.019454 -99720.700000 0 0 1
-14.496189 -1.333843 -32.632669 35.732474 0.091755 2.721987 0.004563 -0.012440 409347.000000 0 0 1
-14.432289 -1.322843 -34.012559 36.971544 0.091403 2.738790 -0.003736 -0.008497 -594501.000000 0 0 1
-15.750289 -1.616843 34.151368 37.643083 0.102296 0.434118 -0.013598 -0.009199 -747001.000000 0 0 1
-15.703789 -1.490843 32.743205 36.344863 0.094652 0.448950 -0.015981 -0.003141 -43106.000000 0 0 1
-16.903689 -1.625843 32.008325 36.234113 0.095888 0.487780 -0.011077 -0.001936 -76572.100000 0 0 1
-16.711189 -1.675843 30.470355 34.792453 0.099949 0.503758 -0.009555 0.005007 42110.800000 0 0 1
-16.189489 -0.449843 29.958805 34.056305 0.027779 0.495598 -0.016076 0.011221 33058.300000 0 0 1
-16.311689 -0.329843 28.560155 32.891677 0.020219 0.519012 -0.019933 0.004620 -68077.900000 0 0 1
-15.743589 0.985157 27.982635 32.122562 -0.062494 0.513316 -0.014766 -0.000161 152268.000000 0 0 1
-16.476189 2.132157 28.398055 32.900766 -0.128693 0.529336 -0.005753 0.000778 744581.000000 0 0 1
-17.818889 2.376157 27.944765 33.227531 -0.132568 0.571645 0.008838 -0.010511 788531.000000 0 0 1
-17.937189 3.060157 26.558325 32.193973 -0.168977 0.600688 0.010309 -0.015285 -634789.000000 0 0 1
-17.668289 4.387157 26.517975 32.165487 -0.243384 0.601614 0.005265 -0.013845 136003.000000 0 0 1
-18.245489 5.030157 25.389665 31.667577 -0.269011 0.640569 0.013360 -0.010108 -698381.000000 0 0 1
-18.155389 6.542157 25.580715 32.043579 -0.345859 0.646312 0.016884 -0.008778 -254079.000000 0 0 1
-16.865489 7.085157 25.568855 31.438996 -0.397711 0.621021 0.005069 -0.006642 -464292.000000 0 0 1
-16.368289 7.186157 24.263445 30.137626 -0.413693 0.634972 0.009648 -0.003884 -736733.000000 0 0 1
-15.250389 8.223157 24.159535 29.730082 -0.494521 0.622147 0.016182 -0.007846 -76380.000000 0 0 1
-14.073289 7.879157 24.879705 29.650266 -0.510386 0.575159 -0.009776 0.000915 226327.000000 0 0 1
-12.959289 8.418157 24.189365 28.704249 -0.576083 0.568499 0.007447 0.005340 -582524.000000 0 0 1
-11.629889 8.324157 24.914535 28.727686 -0.621222 0.521113 0.001245 0.019517 -1389250.000000 0 0 1
-10.566789 8.624157 24.065345 27.661777 -0.684515 0.515623 0.000093 0.003955 208230.000000 0 0 1
-9.297789 8.550157 24.735405 27.773986 -0.743534 0.472142 0.000043 0.005103 627672.000000 0 0 1
-8.873489 9.785157 25.632765 28.836205 -0.834220 0.475838 0.012950 -0.003794 -998728.000000 0 0 1
-9.787789 10.038157 26.681265 30.140592 -0.798026 0.483815 0.013276 0.000657 100452.000000 0 0 1
-9.667689 11.318157 27.264915 31.063491 -0.863883 0.499722 0.007579 0.001660 -112114.000000 0 0 1
-10.321389 12.435157 26.397605 30.951538 -0.878019 0.549341 0.015018 -0.006789 724732.000000 0 0 1
-11.731989 12.336157 26.143565 31.197857 -0.810495 0.577203 0.022322 -0.011577 848511.000000 0 0 1
-12.004589 11.994157 24.818955 30.065769 -0.784963 0.599729 0.013736 -0.007837 219282.000000 0 0 1
-13.530589 11.872157 24.550965 30.442976 -0.720205 0.632660 0.026318 -0.011709 -113524.000000 0 0 1
-14.237989 13.073157 24.355815 31.093946 -0.742774 0.670843 0.015299 -0.011059 630467.000000 0 0 1
-15.581489 12.871157 23.879465 31.283835 -0.690427 0.702365 0.016614 0.006080 868061.000000 0 0 1
-15.813689 12.238157 22.466235 30.076186 -0.658620 0.727292 0.018129 0.006778 -712252.000000 0 0 1
-15.693889 10.840157 22.295235 29.340836 -0.604474 0.707682 0.018683 0.000027 49275.700000 0 0 1
-15.708689 10.472157 20.954735 28.205139 -0.587989 0.733344 0.017488 -0.003835 -261010.000000 0 0 1
-16.006189 8.987157 20.703235 27.669315 -0.511614 0.725394 0.005714 -0.005944 440410.000000 0 0 1
-17.375489 8.743157 20.978435 28.608480 -0.466196 0.747642 0.009440 0.002738 -159860.000000 0 0 1
-17.678889 7.383157 20.896935 28.350238 -0.395608 0.742029 0.004189 0.008007 -798448.000000 0 0 1
-19.145489 7.075157 21.095135 29.353233 -0.353981 0.768916 0.023517 0.004197 -842793.000000 0 0 1
-19.537389 7.510157 22.361035 30.628874 -0.366986 0.752381 0.011425 -0.001399 -73953.500000 0 0 1
-20.944289 7.648157 22.403135 31.607879 -0.350122 0.783024 -0.002772 0.000681 -35890.100000 0 0 1
-21.472389 8.492157 23.591435 33.011150 -0.376614 0.774672 -0.000536 -0.002174 -340291.000000 0 0 1
-21.183589 9.912157 23.586335 33.216118 -0.437653 0.781175 0.001619 0.002754 1187520.000000 0 0 1
-19.793289 10.325157 23.570035 32.464283 -0.480817 0.758266 0.007863 0.000595 1366340.000000 0 0 1
-18.907589 9.990157 24.831895 32.770767 -0.486083 0.710945 0.004800 -0.010866 -355046.000000 0 0 1
-19.138889 10.689157 26.056165 34.051121 -0.509349 0.699433 0.011571 -0.005596 145.645000 0 0 1
-18.660889 9.969157 27.163375 34.430536 -0.490653 0.661726 0.006173 -0.004563 -271605.000000 0 0 1
-29.917009 -14.419921 21.140135 39.368348 0.449142 1.003940 0.018988 -0.005852 158507.000000 0 0 1
-29.541699 -15.820821 21.264635 39.688727 0.491675 1.005359 0.025066 0.000283 -8823.590000 0 0 1
-30.261649 -16.613221 20.347835 40.072446 0.502064 1.038195 0.020049 0.000978 27237.300000 0 0 1
-29.898639 -16.621621 18.824735 39.045839 0.507386 1.067725 0.014343 -0.002833 -53905.300000 0 0 1
-30.302339 -15.403821 18.159435 38.539259 0.470295 1.080153 0.023037 -0.013350 -80868.800000 0 0 1
-29.736979 -15.288421 16.875735 37.454161 0.474881 1.103392 0.022260 -0.016613 -974559.000000 0 0 1
-30.494469 -14.229221 16.015435 37.267647 0.436586 1.126590 0.022430 -0.017934 143097.000000 0 0 1
-31.783159 -14.623421 15.557935 38.289202 0.431221 1.152366 0.037025 -0.021407 483634.000000 0 0 1
-32.815559 -14.529621 16.531035 39.512604 0.416822 1.139142 0.038287 -0.022958 -603732.000000 0 0 1
-33.388019 -13.125321 16.806235 39.616706 0.374557 1.132695 0.034659 -0.023503 -1047100.000000 0 0 1
-34.494920 -13.162721 17.653435 40.924326 0.364531 1.124788 0.022859 -0.020575 -306842.000000 0 0 1
-34.902903 -11.898021 18.081135 41.069490 0.328535 1.114911 0.022625 -0.009974 567555.000000 0 0 1
34.901562 -11.896921 19.108535 41.530613 -0.328519 1.092680 0.016811 0.005145 519803.000000 0 0 1
35.396776 -12.244521 20.409435 42.654485 -0.333037 1.071870 0.020294 -0.002566 623.920000 0 0 1
34.506922 -11.884021 21.419335 42.317201 -0.331673 1.040068 0.025025 -0.003146 -807668.000000 0 0 1
35.121843 -12.387521 22.743335 43.637757 -0.339079 1.022558 0.016896 -0.008379 612753.000000 0 0 1
-34.604245 -11.832121 23.100335 43.255963 0.329465 1.007427 0.014499 -0.004968 1058010.000000 0 0 1
-33.471419 -12.482621 22.457235 42.195724 0.356958 1.009581 0.008547 -0.003718 -283866.000000 0 0 1
-32.210379 -11.642121 22.521735 40.991170 0.346830 0.989116 0.021893 -0.005642 -572602.000000 0 0 1
-32.241989 -10.404121 21.845835 40.311687 0.312140 0.998073 0.034445 -0.008213 -153816.000000 0 0 1
-30.962259 -9.813021 21.762235 39.096697 0.306920 0.980478 0.045468 -0.012665 -159229.000000 0 0 1
-30.854669 -8.555821 20.899935 38.236369 0.270498 0.992500 0.056424 -0.007319 26410.400000 0 0 1
-31.154989 -8.687221 19.512335 37.773434 0.271932 1.027965 0.052870 -0.004743 -183291.000000 0 0 1
-32.523609 -8.607321 19.233935 38.753263 0.258717 1.051444 0.053420 -0.013957 -637037.000000 0 0 1
-32.938779 -8.842221 17.727335 38.437045 0.262261 1.091444 0.050099 -0.009952 -194431.000000 0 0 1
-34.341175 -8.773621 17.622335 39.583322 0.250133 1.109403 0.008560 -0.009447 -97130.400000 0 0 1
-34.680923 -8.615621 16.286535 39.271447 0.243496 1.143165 0.017612 -0.010974 467134.000000 0 0 1
34.784182 -8.460721 15.951835 39.191634 -0.238601 1.151606 0.027032 -0.009457 362175.000000 0 0 1
34.182772 -9.681621 15.959335 38.947350 -0.276002 1.148598 0.021376 -0.001797 -283108.000000 0 0 1
32.774302 -9.607321 15.842535 37.648923 -0.285148 1.136473 0.012779 -0.003801 -208217.000000 0 0 1
32.107752 -10.981721 15.822635 37.441444 -0.329554 1.134488 0.000619 -0.001193 -53416.100000 0 0 1
32.248782 -11.657321 17.094135 38.315617 -0.346866 1.108349 -0.012997 -0.004835 886834.000000 0 0 1
31.072982 -12.485421 17.130935 37.614955 -0.382065 1.097942 -0.011226 -0.002248 579504.000000 0 0 1
30.694902 -13.038321 18.526935 38.149995 -0.401677 1.063708 -0.012182 -0.002880 352352.000000 0 0 1
31.599462 -14.063821 19.010635 39.467978 -0.418743 1.068234 -0.002288 -0.004351 435476.000000 0 0 1
31.551792 -14.009921 20.408535 40.103638 -0.417878 1.036896 0.013879 -0.006429 -357508.000000 0 0 1
32.397042 -15.095021 21.114835 41.512218 -0.436029 1.037190 0.009694 0.001648 80802.600000 0 0 1
32.540542 -14.898021 22.515935 42.282446 -0.429346 1.009230 0.019295 -0.004195 -185160.000000 0 0 1
32.976692 -16.110421 23.135735 43.385137 -0.454437 1.008342 0.013861 0.010653 173908.000000 0 0 1
33.329962 -15.832421 24.643625 44.371840 -0.443465 0.981966 0.023083 0.008815 326448.000000 0 0 1
34.575012 -15.163321 24.717805 45.125687 -0.413302 0.991118 0.024634 0.002415 57082.800000 0 0 1
34.913862 -14.877121 26.087805 46.053013 -0.402810 0.968576 0.026030 0.000492 -363874.000000 0 0 1
-34.786767 -14.053521 26.170405 45.743969 0.383942 0.961725 0.015953 -0.005082 -860846.000000 0 0 1
-33.623059 -14.763821 25.871995 44.920381 0.413751 0.957028 -0.001907 0.002210 -1287610.000000 0 0 1
-32.589599 -13.939421 26.221295 44.090200 0.404177 0.933880 0.011143 -0.004444 -819458.000000 0 0 1
-31.162509 -14.525221 26.168635 43.207424 0.436172 0.920212 0.008400 0.001610 -398647.000000 0 0 1
-30.693789 -14.553521 24.849125 42.087916 0.442756 0.939230 0.013193 0.002240 843094.000000 0 0 1
-29.414089 -15.210521 24.670085 41.293603 0.477247 0.930502 0.018197 -0.007264 933848.000000 0 0 1
-29.278249 -16.724321 25.005025 41.978209 0.518989 0.932701 0.025537 0.001779 -755508.000000 0 0 1
-29.318399 -17.018621 26.407975 42.971887 0.525940 0.908993 0.020971 0.004618 49272.600000 0 0 1
-29.058809 -18.361321 26.713095 43.533228 0.563523 0.910152 0.034052 -0.004403 -203986.000000 0 0 1
-28.663699 -18.539921 28.178355 44.264613 0.574128 0.880729 0.037449 -0.017306 164224.000000 0 0 1
-27.549289 -17.710121 28.469905 43.395244 0.571334 0.855209 0.038657 -0.016330 101981.000000 0 0 1
-26.938359 -18.028421 29.721485 43.978015 0.589787 0.828712 0.052645 -0.016390 163395.000000 0 0 1
-25.797829 -17.099421 30.145925 43.205265 0.585338 0.798562 0.030097 -0.010094 -288390.000000 0 0 1
-26.211749 -15.789921 30.511015 43.212260 0.542181 0.786859 0.039305 -0.015893 74611.900000 0 0 1
-25.168369 -14.868621 30.229895 42.051982 0.533602 0.768621 0.023006 -0.012311 -444731.000000 0 0 1
-25.274129 -13.526821 31.075415 42.278102 0.491413 0.745094 0.026101 -0.000536 -56040.000000 0 0 1
-24.760689 -13.671021 32.397745 43.007004 0.504474 0.717711 0.025240 -0.001050 238292.000000 0 0 1
-24.505089 -12.389321 33.010789 42.938407 0.468103 0.693843 0.028765 0.002537 -148532.000000 0 0 1
-23.644989 -12.496321 34.303180 43.496571 0.486185 0.662201 0.028246 0.002497 699687.000000 0 0 1
-22.266989 -12.832021 34.125254 42.720165 0.522796 0.645483 0.004629 0.002195 581449.000000 0 0 1
-22.023089 -14.249821 34.155887 43.066210 0.574292 0.654912 0.005459 0.001260 -180558.000000 0 0 1
-22.089189 -15.099921 -33.389809 42.788074 0.599627 2.466027 0.002716 0.003840 -460276.000000 0 0 1
-21.039889 -14.731021 -32.513389 41.434290 0.610825 2.473005 -0.003567 0.008411 225880.000000 0 0 1
-21.082089 -15.485521 -31.347409 40.827881 0.633529 2.446187 0.008050 0.003567 438868.000000 0 0 1
-19.732289 -15.469621 -30.539199 39.513480 0.664893 2.454164 0.011802 0.004705 647238.000000 0 0 1
-19.508589 -14.233121 -29.770479 38.333382 0.630305 2.460079 0.005823 0.012073 223618.000000 0 0 1
-20.293889 -14.080921 -28.605369 37.793934 0.606587 2.429318 0.009166 0.018886 -109264.000000 0 0 1
-19.902889 -12.805721 -27.819289 36.524298 0.571729 2.436676 0.009601 0.009193 -493101.000000 0 0 1
-18.724689 -12.945121 -27.077939 35.375202 0.604890 2.442536 0.022434 0.009669 -288452.000000 0 0 1
-18.382789 -11.808421 -26.324619 34.210398 0.570988 2.448841 0.019026 0.003496 78797.600000 0 0 1
-17.018589 -11.847421 -25.615339 32.956628 0.608135 2.461070 0.033491 -0.005519 -812878.000000 0 0 1
-17.112489 -12.768821 -24.520399 32.513536 0.641045 2.425170 0.045731 -0.010790 452284.000000 0 0 1
-15.943089 -12.766921 -23.698399 31.285627 0.675217 2.430249 0.048700 -0.014761 -135824.000000 0 0 1
-14.799089 -13.597221 -24.240999 31.488466 0.743099 2.449383 0.034052 -0.006174 -1015850.000000 0 0 1
-14.202089 -12.948821 -25.357139 31.817539 0.739272 2.493033 0.053226 -0.016847 -269383.000000 0 0 1
-13.411289 -13.861221 -26.114309 32.464646 0.801894 2.505448 0.045841 -0.011039 -96871.600000 0 0 1
-12.386789 -13.063321 -26.961649 32.419337 0.811975 2.552875 0.040254 -0.007248 -81245.300000 0 0 1
-12.853989 -12.378521 -28.125339 33.308971 0.766557 2.576198 0.062641 -0.016919 -175041.000000 0 0 1
-11.879389 -11.440221 -28.455029 32.889014 0.766568 2.616312 0.069686 -0.012520 -241633.000000 0 0 1
-12.182589 -10.902421 -29.860439 34.042974 0.730000 2.640669 0.044174 -0.012399 -505.363000 0 0 1
-11.381289 -9.869321 -30.386009 33.915288 0.714368 2.681336 0.050535 -0.011160 -8796.690000 0 0 1
-11.246089 -9.947421 -31.795749 35.162414 0.724198 2.700425 0.042601 -0.002906 -161218.000000 0 0 1
-10.737889 -8.615621 -32.414499 35.216913 0.676177 2.739961 0.030438 -0.005614 -182740.000000 0 0 1
-9.364189 -8.595121 -32.106869 34.531365 0.742602 2.764634 0.023073 -0.005728 -370899.000000 0 0 1
-8.780689 -7.353121 -32.443489 34.405652 0.697145 2.802238 0.026831 -0.010869 -447525.000000 0 0 1
-7.262789 -7.380521 -32.191939 33.816285 0.793438 2.830389 0.027507 -0.007286 -649915.000000 0 0 1
-6.821289 -7.262621 -30.845299 32.414628 0.816724 2.829151 0.015970 -0.002103 -119186.000000 0 0 1
-7.014089 -6.035321 -30.137609 31.526148 0.710534 2.843696 0.027700 -0.009509 -534193.000000 0 0 1
-6.292889 -4.736521 -30.597499 31.594969 0.645213 2.889648 0.023471 -0.012815 282823.000000 0 0 1
-4.895889 -4.767221 -30.347159 31.107012 0.772084 2.920111 0.021098 -0.010796 195502.000000 0 0 1
-4.278789 -3.569121 -30.821139 31.320748 0.695216 2.962741 0.029711 -0.017354 140300.000000 0 0 1
-2.821689 -3.431621 -30.331199 30.654846 0.882628 2.996153 0.018270 -0.010681 -720103.000000 0 0 1
-1.910889 -4.151421 -31.103819 31.437770 1.139412 2.995706 0.019623 -0.011168 191860.000000 0 0 1
-0.523889 -3.948321 -30.873139 31.128996 1.438880 3.013292 0.018289 -0.013261 654108.000000 0 0 1
0.149611 -2.578821 -31.043909 31.151196 -1.512846 3.058574 0.020614 -0.011482 -928455.000000 0 0 1
0.068911 -1.632821 -30.009949 30.054416 -1.528618 3.087189 0.029042 -0.015029 -158108.000000 0 0 1
0.828111 -0.500221 -30.303079 30.318519 -0.543393 3.109677 0.027050 -0.013682 -58371.500000 0 0 1
0.745911 0.566179 -29.241619 29.256610 0.649264 3.109579 0.031395 -0.010726 -141461.000000 0 0 1
-0.497689 1.199579 -29.215419 29.244271 -1.177523 3.097169 0.034047 -0.011598 -297789.000000 0 0 1
-0.211289 2.474679 -28.739319 28.846441 -1.485623 3.055386 0.040936 -0.007017 969097.000000 0 0 1
-1.568389 3.143179 -28.296779 28.513981 -1.107964 3.018085 0.030999 -0.009537 601800.000000 0 0 1
-2.460689 3.313279 -29.385479 29.673881 -0.932000 3.002059 0.028065 -0.014283 -238906.000000 0 0 1
-3.611389 3.933379 -28.832839 29.323134 -0.828050 2.958468 0.045402 -0.017362 153353.000000 0 0 1
-4.760789 4.073379 -29.873409 30.523403 -0.707742 2.934852 0.051977 -0.019863 -10885.500000 0 0 1
-4.345189 4.896079 -30.954769 31.639374 -0.844940 2.933188 0.052974 -0.017658 1258310.000000 0 0 1
-5.446389 5.270079 -31.851399 32.740625 -0.768947 2.907997 0.055567 -0.011075 801886.000000 0 0 1
-4.899189 6.099979 -33.079149 33.991792 -0.894139 2.909343 0.059027 -0.001832 507660.000000 0 0 1
-4.342289 5.355279 -34.227035 34.914530 -0.889479 2.942818 0.061065 -0.003959 1522370.000000 0 0 1
-3.174989 4.522379 -33.920559 34.367671 -0.958688 2.980112 0.062039 -0.005648 705736.000000 0 0 1
-2.543589 3.858179 33.687126 34.002615 -0.987931 0.136329 0.061674 -0.016849 310327.000000 0 0 1
-3.374889 2.751979 33.252118 33.536049 -0.684078 0.130219 0.061682 -0.021120 237734.000000 0 0 1
-2.918489 1.957479 32.163075 32.354485 -0.590801 0.108829 0.061724 -0.021582 -129498.000000 0 0 1
-2.554889 2.652279 30.842265 31.061348 -0.804099 0.118841 0.059683 -0.019260 157071.000000 0 0 1
-3.713789 3.313379 30.362265 30.767480 -0.728479 0.162476 0.050853 -0.017625 45800.400000 0 0 1
-3.597889 4.023679 29.134665 29.630449 -0.841207 0.183189 0.039367 -0.023493 1047050.000000 0 0 1
-4.936889 4.842179 28.840675 29.658120 -0.775713 0.235329 0.035259 -0.009200 963271.000000 0 0 1
-4.863789 5.751979 27.799195 28.801683 -0.868871 0.264614 0.031448 0.001867 -884084.000000 0 0 1
-5.932089 6.632579 27.765415 29.156458 -0.841091 0.310142 0.014437 0.005997 -981035.000000 0 0 1
-6.048189 7.429479 26.459795 28.140691 -0.887529 0.347379 0.015096 0.007747 50849.400000 0 0 1
-4.936789 8.297379 26.269275 27.987375 -1.034075 0.352213 0.007930 0.009819 320459.000000 0 0 1
-5.126589 8.968679 25.055355 27.101474 -1.051513 0.391071 0.014906 0.006599 -256371.000000 0 0 1
-4.417089 10.283879 25.099765 27.482122 -1.165107 0.419451 0.017607 0.001388 -657219.000000 0 0 1
-4.603889 11.054279 23.904385 26.735977 -1.176164 0.464400 0.024651 -0.003196 122580.000000 0 0 1
-4.210189 12.391079 24.024905 27.358007 -1.243259 0.498779 0.020370 0.008569 -578892.000000 0 0 1
-2.688489 12.661279 23.925015 27.201880 -1.361565 0.495912 0.013086 0.008049 -111341.000000 0 0 1
-1.792989 12.262179 24.931885 27.841960 -1.425604 0.461291 0.014093 0.010243 37386.500000 0 0 1
-1.953589 12.940079 26.196675 29.283578 -1.420956 0.463293 0.017960 0.011959 -406977.000000 0 0 1
-1.132389 12.455479 27.468425 30.181710 -1.480131 0.427267 0.020572 0.015922 -14823.600000 0 0 1
0.224311 12.777579 27.433335 30.263917 1.553243 0.435948 0.018793 0.022251 -984174.000000 0 0 1
0.806411 12.404679 28.630525 31.212711 1.505879 0.409622 0.024922 0.007874 122333.000000 0 0 1
2.347111 12.575779 28.655945 31.381879 1.386282 0.419883 0.025404 0.009381 354475.000000 0 0 1
2.717211 13.939579 28.573675 31.908463 1.378283 0.461268 0.018793 0.005714 -1323500.000000 0 0 1
4.079211 14.103679 28.490735 32.051142 1.289249 0.475826 0.010888 0.005568 -1054470.000000 0 0 1
4.539511 15.582879 28.677015 32.951547 1.287327 0.515029 0.011912 0.005768 -114249.000000 0 0 1
4.363711 15.980579 30.031455 34.297364 1.304231 0.504079 0.015987 0.010589 703728.000000 0 0 1
3.317711 16.956879 30.263995 34.848993 1.377581 0.518765 0.011568 0.011604 486855.000000 0 0 1
3.445511 18.387479 29.665825 35.071813 1.385561 0.562622 0.018030 0.012588 196088.000000 0 0 1
4.557211 19.044479 30.263905 36.046696 1.335920 0.574296 0.045885 0.012637 233696.000000 0 0 1
5.062711 20.091879 29.498225 36.048022 1.323957 0.612343 0.032174 0.008489 -244925.000000 0 0 1
6.125911 20.937679 30.209535 37.262973 1.286162 0.625429 0.036161 0.012741 -406816.000000 0 0 1
5.739111 21.614579 31.415825 38.562695 1.311264 0.618638 0.028402 -0.004644 -61784.500000 0 0 1
6.719011 22.508979 31.907745 39.622007 1.280713 0.634609 0.007466 -0.000012 -392747.000000 0 0 1
6.899911 23.858679 31.100545 39.800618 1.289278 0.673876 -0.000123 0.009992 -201965.000000 0 0 1
7.510611 23.796179 29.818665 38.882132 1.265069 0.696801 -0.008506 0.010032 395748.000000 0 0 1
8.006811 25.098179 29.459405 39.520680 1.261983 0.729635 -0.007156 0.006757 -141231.000000 0 0 1
8.596611 25.054479 28.055815 38.584419 1.240267 0.756667 0.002170 0.002662 -9521.530000 0 0 1
7.654311 24.773779 27.029355 37.455502 1.271132 0.764629 0.001906 0.006025 564798.000000 0 0 1
8.340611 24.899579 25.812005 36.821385 1.247574 0.793989 0.017542 0.006198 -576032.000000 0 0 1
28.946762 1.786379 6.717101 29.769542 0.061634 1.343200 0.038199 -0.010132 10882.800000 0 0 1
29.208652 2.600479 7.821601 30.349387 0.088797 1.310136 0.028897 -0.006491 27685.400000 0 0 1
28.246892 2.348779 8.810901 29.682244 0.082961 1.269414 0.041918 -0.005037 -214331.000000 0 0 1
28.402912 3.223179 10.119001 30.323398 0.112997 1.230568 0.038656 -0.004819 -79800.400000 0 0 1
28.133322 4.632279 9.989301 30.211388 0.163190 1.233807 0.041656 -0.015012 252652.000000 0 0 1
29.199532 5.295279 9.338901 31.110572 0.179398 1.265911 0.029706 -0.014325 -214977.000000 0 0 1
28.988772 6.846179 9.192101 31.172324 0.231917 1.271466 0.017726 -0.016999 -425278.000000 0 0 1
28.063352 7.185379 8.209201 30.109340 0.250657 1.294654 0.043138 -0.018435 -298073.000000 0 0 1
28.195492 8.544079 7.954301 30.516519 0.294234 1.307095 0.036928 -0.021208 57986.600000 0 0 1
27.589612 9.141879 6.646601 29.815062 0.319966 1.345980 0.032253 -0.020705 -639164.000000 0 0 1
26.256682 9.531579 6.773601 28.742756 0.348222 1.332896 0.041039 -0.014441 -472173.000000 0 0 1
25.779762 9.892879 5.488501 28.152954 0.366416 1.374587 0.034985 -0.024019 203403.000000 0 0 1
24.240862 10.094779 5.474801 26.823448 0.394595 1.365247 0.023742 -0.019908 229627.000000 0 0 1
23.932762 11.371479 5.976101 27.162500 0.443565 1.348969 0.017632 -0.012999 -963482.000000 0 0 1
22.566562 11.573879 5.979301 26.056792 0.473896 1.339261 0.024540 -0.012904 -780848.000000 0 0 1
22.149062 12.988079 6.551701 26.498980 0.530355 1.320962 0.033950 -0.007893 -95622.700000 0 0 1
22.245262 14.152179 5.758001 26.986856 0.566605 1.355780 0.027196 0.002820 266981.000000 0 0 1
21.703262 15.364879 6.253701 27.317025 0.616043 1.339817 0.036032 -0.008046 -159085.000000 0 0 1
21.798462 16.505379 5.266301 27.844827 0.648081 1.380520 0.039284 -0.001435 -485785.000000 0 0 1
20.783162 16.391579 4.328801 26.820928 0.667810 1.408691 0.076648 -0.006533 -186266.000000 0 0 1
20.707062 17.495279 3.444001 27.326330 0.701522 1.444428 0.059778 -0.006086 -112822.000000 0 0 1
19.313962 17.573879 2.743701 26.256394 0.738261 1.466109 0.065401 -0.004548 342348.000000 0 0 1
18.424262 18.036379 3.775701 26.058018 0.774760 1.425389 0.061383 -0.010784 344741.000000 0 0 1
17.117462 18.167079 3.210601 25.166609 0.815137 1.442874 0.073557 -0.017505 726202.000000 0 0 1
16.162062 19.134279 3.999301 25.363897 0.869407 1.412459 0.059672 -0.028347 -146143.000000 0 0 1
14.786862 18.953679 3.865701 24.348242 0.908272 1.411354 0.057955 -0.032167 -326283.000000 0 1 0
14.099162 20.125079 4.355601 24.955489 0.959683 1.395363 0.053790 -0.036993 -167419.000000 0 1 0
12.649162 19.988679 3.895701 23.973424 1.006596 1.407572 0.043822 -0.031965 -330491.000000 0 1 0
11.781462 19.244479 4.746201 23.058171 1.021455 1.363478 0.033982 -0.033579 -183046.000000 0 1 0
10.431462 19.427579 4.432201 22.492012 1.078035 1.372442 0.028604 -0.021625 -778147.000000 0 1 0
9.506362 18.873479 5.468201 21.828430 1.104202 1.317591 0.022765 -0.025218 -844440.000000 0 1 0
9.316862 19.772279 6.516601 22.808179 1.130446 1.281046 0.023469 -0.018885 -406295.000000 0 1 0
8.931862 19.008979 7.571401 22.325894 1.131537 1.224803 0.030699 -0.021368 -51804.400000 0 1 0
7.927262 19.797379 8.540201 22.971999 1.189928 1.189886 0.013059 -0.023307 920076.000000 0 1 0
6.608762 19.853079 8.021901 22.409180 1.249451 1.204699 0.013677 -0.029324 32965.900000 0 1 0
6.345162 20.978379 7.114601 23.042808 1.277082 1.256912 0.012012 -0.028066 -1457180.000000 0 1 0
4.948962 21.003979 6.495901 22.535662 1.339397 1.278398 0.006641 -0.021937 219981.000000 0 1 0
3.913262 21.185879 7.507401 22.814823 1.388144 1.235490 0.010788 -0.015967 345150.000000 0 1 0
3.809762 22.408479 8.225601 24.172603 1.402392 1.223575 0.009378 -0.019766 -976739.000000 0 1 0
3.992562 23.715879 7.439801 25.174076 1.404011 1.270782 0.000863 -0.016556 -200074.000000 0 0 1
2.900662 23.927779 6.551301 24.977429 1.450159 1.305403 0.016759 -0.020879 157226.000000 0 1 0
3.080562 24.935679 5.581901 25.737823 1.447879 1.352184 0.015779 -0.014888 47226.900000 0 0 1
1.827262 25.182579 4.691801 25.681008 1.498363 1.387069 0.011002 -0.018287 1286190.000000 0 0 1
0.724162 25.877279 5.377301 26.439995 1.542819 1.365990 0.029352 -0.019018 716690.000000 0 0 1
-0.282638 26.129979 4.420701 26.502798 -1.559980 1.403212 0.030265 -0.013932 -842876.000000 0 0 1
-1.381638 26.924479 5.065501 27.431657 -1.519526 1.385071 0.026724 -0.013721 -1209210.000000 0 0 1
-2.354938 27.251479 4.143101 27.665034 -1.484595 1.420471 0.054548 -0.011207 -609709.000000 0 0 1
-3.479938 27.839579 4.762901 28.457641 -1.446442 1.402637 0.033251 -0.010247 -546879.000000 0 0 1
-4.493138 28.299379 3.752301 28.898493 -1.413339 1.440585 0.019353 -0.013416 -742990.000000 0 0 1
-4.131838 29.468679 3.037701 29.911582 -1.431493 1.469065 0.032417 -0.011861 -81783.100000 0 0 1
-4.991138 29.688179 1.938801 30.167174 -1.404235 1.506483 0.049190 -0.014876 -125791.000000 0 0 1
-4.555638 30.774779 0.909601 31.123435 -1.423832 1.541567 0.039139 -0.010019 -355226.000000 0 0 1
-4.309538 32.122779 1.308701 32.436981 -1.437434 1.530439 0.035848 -0.007619 1410600.000000 0 0 1
-3.069638 32.280279 2.080401 32.492571 -1.475988 1.506726 0.035800 -0.012519 1202680.000000 0 0 1
-2.375538 33.661479 1.856401 33.796221 -1.500342 1.515839 0.025108 -0.016199 -980922.000000 0 0 1
-1.726438 33.779179 0.602801 33.828640 -1.519731 1.552976 0.013329 -0.012966 223630.000000 0 0 1
-0.740738 -34.212743 0.686501 34.227646 1.549149 1.550738 0.015194 -0.010688 507794.000000 0 0 1
0.600162 -34.455943 1.415901 34.490245 -1.553380 1.529733 0.004993 -0.005504 -939896.000000 0 0 1
0.402362 34.433379 2.837101 34.552404 1.559112 1.488594 0.005329 -0.006744 94573.900000 0 0 1
1.532462 34.269379 3.696801 34.502248 1.526108 1.463444 -0.004269 -0.005403 182088.000000 0 0 1
1.138462 34.499779 5.145901 34.900016 1.537809 1.422810 -0.001234 -0.004368 512340.000000 0 0 1
0.131662 33.639679 5.690801 34.117892 1.566882 1.403215 -0.000645 -0.009663 92743.600000 0 0 1
-0.235138 33.907379 7.057101 34.634785 -1.563862 1.365602 0.017470 -0.014976 525157.000000 0 0 1
0.796662 33.670579 8.249501 34.675594 1.547140 1.330588 0.019709 -0.005040 459450.000000 0 0 1
1.019962 32.305079 8.444601 33.406133 1.539234 1.315238 0.017292 -0.012054 522402.000000 0 0 1
2.255062 32.074479 9.153701 33.431239 1.500605 1.293447 0.016933 0.000633 566119.000000 0 0 1
2.689262 30.590079 9.104301 32.029258 1.483109 1.282573 0.013881 -0.006363 135217.000000 0 0 1
1.899662 29.763879 9.959901 31.443550 1.507058 1.248490 0.019528 -0.025063 428441.000000 0 0 1
2.371962 28.383479 9.930501 30.163934 1.487422 1.235321 0.019877 -0.020103 168034.000000 0 0 1
2.044562 27.462479 11.137401 29.705381 1.496484 1.186476 0.015711 -0.027266 -240716.000000 0 0 1
2.683662 28.016579 12.277001 30.705952 1.475299 1.159471 0.027348 -0.013621 -91224.200000 0 0 1
2.663262 27.255879 13.519101 30.540825 1.473392 1.112237 0.027027 -0.012681 423050.000000 0 0 1
1.232362 27.014079 14.155601 30.523109 1.525209 1.088554 0.017580 -0.013151 700696.000000 0 0 1
0.698462 28.108079 14.823901 31.785216 1.545952 1.085605 0.016153 -0.009433 50655.100000 0 0 1
-0.008238 29.037079 13.971901 32.223687 -1.570513 1.122322 0.023463 -0.016922 -248291.000000 0 0 1
-0.550438 30.246779 14.752001 33.656978 -1.552600 1.117085 0.008843 -0.008734 46014.600000 0 0 1
-1.785438 29.920879 15.372501 33.686207 -1.511195 1.096914 -0.002818 -0.000060 -365335.000000 0 0 1
-2.375638 31.122279 15.722901 34.949242 -1.494612 1.104167 -0.006941 0.001974 116106.000000 0 0 1
-3.739938 30.840479 16.443001 35.149602 -1.450118 1.083996 -0.001486 0.006598 729759.000000 0 0 1
-4.750838 30.373479 15.558501 34.455560 -1.415639 1.102292 0.006994 -0.003140 791526.000000 0 0 1
-5.905538 29.842279 16.224201 34.476973 -1.375429 1.080847 0.010525 0.005470 75039.400000 0 0 1
-7.020638 29.326479 15.338701 33.832048 -1.335823 1.100245 0.013854 -0.009113 -144504.000000 0 0 1
-8.196538 28.973179 16.023801 34.108511 -1.295100 1.081745 0.021518 -0.002382 -624105.000000 0 0 1
-9.183238 28.406979 15.247301 33.522656 -1.258126 1.098609 0.021689 -0.005560 399.595000 0 0 1
-10.394438 27.831079 16.058701 33.771218 -1.213356 1.075248 0.030124 -0.000178 601804.000000 0 0 1
-11.263338 28.824679 16.628301 35.131543 -1.198287 1.077746 0.029870 -0.007901 685687.000000 0 0 1
-10.788238 29.369179 17.887101 36.040021 -1.218765 1.051451 0.034399 -0.013758 -349317.000000 0 0 1
-11.705138 30.514579 18.294601 37.454535 -1.204515 1.060486 0.046529 -0.016146 -21602.500000 0 0 1
-12.884138 30.144779 18.994001 37.887739 -1.166887 1.045669 0.057592 -0.015526 383125.000000 0 0 1
-13.670338 31.298879 19.278501 39.219365 -1.159001 1.056921 0.067276 -0.018272 176025.000000 0 0 1
-14.728438 31.085679 20.360401 39.972394 -1.128326 1.036354 0.065506 -0.023801 5440.080000 0 0 1
-14.180338 31.240779 21.647701 40.567120 -1.144700 1.007913 0.059391 -0.021995 374011.000000 0 0 1
-15.028038 30.679579 22.665901 40.997824 -1.115311 0.985008 0.048848 -0.018800 528629.000000 0 0 1
-14.265538 30.687379 24.041601 41.511678 -1.135648 0.953107 0.036834 -0.012260 -804602.000000 0 0 1
-13.056038 29.973379 24.050901 40.587060 -1.159992 0.936544 0.036519 -0.009298 321674.000000 0 0 1
-12.477438 29.842079 25.380601 41.114609 -1.174771 0.905473 0.032205 -0.007219 225204.000000 0 0 1
-11.948238 31.162879 25.997501 42.305502 -1.204671 0.909021 0.027781 -0.000331 -1376680.000000 0 0 1
-12.993238 31.995779 26.347001 43.436374 -1.185049 0.919063 0.020174 -0.001988 -325420.000000 0 0 1
-12.595538 33.237879 26.881001 44.564474 -1.208566 0.923297 0.020375 0.000109 -259882.000000 0 0 1
-13.815238 34.041379 27.392801 45.826213 -1.185269 0.930100 0.023284 0.000372 54819.900000 0 0 1
-14.567938 33.485179 28.447501 46.289765 -1.160439 0.908977 -0.000787 -0.003903 161902.000000 0 0 1
-13.914138 33.368379 29.735801 46.811001 -1.175733 0.882489 0.007071 0.012498 -356571.000000 0 0 1
-14.688538 32.593579 30.802001 47.189594 -1.147396 0.859616 -0.002179 0.008391 783900.000000 0 0 1
-15.898238 33.238279 31.293101 48.340411 -1.124650 0.866696 0.001163 0.012335 1022690.000000 0 0 1
-16.438838 32.600379 32.511801 48.888008 -1.103752 0.843268 -0.001809 0.014466 200947.000000 0 0 1
-17.773038 33.163779 33.004801 50.050315 -1.078830 0.850733 -0.003288 0.014687 -112319.000000 0 0 1
-17.828638 -34.475543 33.185301 51.065523 1.093532 0.863400 -0.001078 0.015074 953931.000000 0 0 1
-19.229538 -34.134043 33.368701 51.462396 1.057759 0.865303 0.004178 0.008776 1221540.000000 0 0 1
-19.459438 -32.603643 33.449001 50.601412 1.032697 0.848607 0.008400 0.007273 -239130.000000 0 0 1
-19.187038 -31.937943 -34.147333 50.539242 1.029818 2.312656 0.013340 0.013765 -134166.000000 0 0 1
-19.960138 -32.343643 -33.003033 50.336056 1.017878 2.285845 0.008826 0.009395 123630.000000 0 0 1
-19.585238 -31.546243 -31.726833 48.839932 1.015192 2.277866 0.023040 0.007702 -48657.600000 0 0 1
-20.038438 -30.224043 -31.894033 48.293490 0.985339 2.292176 0.030064 0.000851 -108412.000000 0 0 1
-19.654538 -29.386443 -30.847233 46.919247 0.981297 2.288231 0.030799 0.006781 -281301.000000 0 0 1
-20.076338 -27.883343 -31.124233 46.360091 0.946765 2.306836 0.042980 -0.005564 -42883.600000 0 0 1
-21.400638 -27.599943 -30.748833 46.532085 0.911245 2.292693 0.032377 -0.005133 -250659.000000 0 0 1
-21.799438 -26.253843 -30.766533 45.946266 0.877831 2.304493 0.043639 -0.010134 516853.000000 0 0 1
-23.031538 -25.847843 -29.888433 45.737088 0.842952 2.282974 0.041163 -0.015992 258516.000000 0 0 1
-22.892038 -26.017043 -28.481033 44.856451 0.849206 2.258724 0.040891 -0.012640 164526.000000 0 0 1
-22.084538 -25.051043 -27.824933 43.468477 0.848251 2.265448 0.057388 -0.013870 -170957.000000 0 0 1
-21.847838 -25.268243 -26.335833 42.536905 0.857866 2.238429 0.050070 -0.011935 194500.000000 0 0 1
-22.969438 -24.953543 -25.516633 42.442584 0.826776 2.215803 0.040021 -0.027011 214561.000000 0 0 1
-22.738938 -25.402243 -24.227133 41.824481 0.840665 2.188614 0.042078 -0.013152 -73158.200000 0 0 1
-23.996238 -25.420043 -23.328033 42.026125 0.814203 2.159260 0.037182 -0.015512 221901.000000 0 0 1
-25.075438 -26.299943 -23.633333 43.347423 0.809228 2.147433 0.034268 -0.010128 7840.680000 0 0 1
-24.897738 -27.719843 -23.706533 44.162051 0.838981 2.137445 0.044695 -0.006359 -1473850.000000 0 0 1
-26.167938 -28.558343 -23.592933 45.353792 0.829050 2.117879 0.026669 -0.006198 174215.000000 0 0 1
-26.983638 -28.379343 -22.412233 45.119974 0.810603 2.090618 0.020428 -0.001307 389093.000000 0 0 1
-27.983338 -27.398843 -22.630333 45.231580 0.774845 2.094766 0.017850 -0.003458 -333844.000000 0 0 1
-28.629038 -26.853343 -21.322133 44.669422 0.753404 2.068412 0.017785 -0.001275 235422.000000 0 0 1
-29.466038 -27.821043 -20.689333 45.500619 0.756691 2.042837 0.019733 0.002423 298061.000000 0 0 1
-29.855238 -27.362843 -19.424933 44.915348 0.741866 2.018036 0.021779 0.000635 -381050.000000 0 0 1
-30.822638 -28.391643 -18.712133 45.894056 0.744367 1.990757 0.019368 0.004590 385366.000000 0 0 1
-32.124438 -28.510843 -19.250333 47.068281 0.725873 1.992140 0.010810 0.005012 326914.000000 0 0 1
-33.065338 -27.485743 -19.305633 47.132686 0.693511 1.992814 0.011893 0.004364 -664078.000000 0 0 1
-33.711838 -27.075443 -17.947133 46.815246 0.676655 1.964229 0.022654 0.004886 -671337.000000 0 0 1
-32.868738 -26.483843 -17.001333 45.505969 0.678235 1.953691 0.018456 0.009748 200461.000000 0 0 1
-33.638038 -26.171043 -15.833133 45.465693 0.661194 1.926493 0.019334 0.004840 207903.000000 0 0 1
-33.197538 -26.762843 -14.488333 45.035965 0.678492 1.898327 0.046045 0.005968 -85725.700000 0 0 1
-33.618838 -28.125743 -14.338633 46.118110 0.696667 1.886948 0.032728 0.001264 309557.000000 0 0 1
-33.303838 -28.660443 -13.074833 45.842316 0.710601 1.860025 0.016710 0.005094 -356475.000000 0 0 1
-33.998338 -30.000043 -12.876333 47.134802 0.723004 1.847495 0.019951 0.013819 -310111.000000 0 0 1
-33.807038 -31.029143 -13.847733 47.932069 0.742580 1.863877 0.005776 0.011945 184847.000000 0 0 1
-34.203738 -32.322743 -13.402633 48.931442 0.757131 1.848249 -0.003392 -0.000178 -485525.000000 0 0 1
-33.773238 -33.462843 -14.253833 49.634315 0.780782 1.862075 -0.013905 0.017226 950148.000000 0 0 1
-32.337138 -33.645043 -14.252433 48.793558 0.805218 1.867215 -0.002469 0.015588 1161930.000000 0 0 1
-31.897538 34.487979 -15.280933 49.400208 -0.824400 1.885284 -0.007811 0.001473 -436071.000000 0 0 1
-30.379338 34.393079 -15.387133 48.399917 -0.847286 1.894328 -0.011155 0.007368 -575581.000000 0 0 1
-30.006238 33.832279 -16.599333 48.171935 -0.845260 1.922593 -0.005770 0.008298 1226750.000000 0 0 1
-28.585738 33.481979 -16.624433 47.059102 -0.864121 1.931857 0.000960 0.008582 1440310.000000 0 0 1
9.487111 20.155679 -8.988099 24.021711 1.130869 1.954293 0.015149 -0.014866 -302756.000000 0 1 0
8.066911 20.182679 -9.042399 23.541040 1.190553 1.965042 0.020865 -0.018902 208163.000000 0 1 0
7.457211 20.239779 -10.287499 23.897516 1.217786 2.015825 0.026173 -0.019727 70217.300000 0 1 0
7.489311 18.942279 -11.138199 23.215495 1.194283 2.071194 0.020415 -0.012758 432678.000000 0 1 0
8.816811 18.565379 -11.554399 23.577820 1.127425 2.082948 0.015085 -0.011893 870885.000000 0 1 0
8.601411 17.443679 -12.429799 23.081727 1.112687 2.139467 0.011972 -0.015113 -55385.600000 0 1 0
9.833211 17.027979 -13.244899 23.708046 1.047105 2.163574 0.015059 -0.005292 -247503.000000 0 1 0
9.652711 15.894179 -14.064799 23.315624 1.025018 2.218347 0.016560 -0.009759 441121.000000 0 1 0
10.793411 15.548879 -14.857699 24.062763 0.964001 2.236301 0.030754 -0.005159 117845.000000 0 1 0
10.534311 14.191879 -15.650399 23.607544 0.932256 2.295536 0.028021 -0.009634 -148322.000000 0 1 0
10.523811 12.990879 -14.911099 22.402107 0.889932 2.299109 0.029565 -0.012558 746074.000000 0 1 0
11.800411 12.595079 -14.396199 22.475237 0.817961 2.265992 0.042070 -0.007330 683021.000000 0 1 0
12.821411 11.880479 -15.332499 23.251234 0.747325 2.290853 0.044943 -0.007899 76759.700000 0 1 0
13.271911 12.629579 -16.427999 24.607500 0.760604 2.301779 0.028253 -0.004452 421146.000000 0 1 0
14.274611 11.959579 -17.206299 25.354542 0.697381 2.316689 0.031945 -0.005122 508729.000000 0 0 1
14.780411 12.888279 -18.366099 26.867860 0.717119 2.323441 0.020200 -0.003289 -394518.000000 0 0 1
15.731411 13.818979 -17.978399 27.598266 0.720771 2.280267 0.008926 -0.001170 -773078.000000 0 0 1
16.479911 14.303779 -19.040199 28.960572 0.714824 2.288229 0.008957 -0.004320 -69826.700000 0 0 1
17.676511 15.189179 -18.580099 29.805877 0.709860 2.243842 0.010464 0.007177 -203219.000000 0 0 1
17.396011 16.406979 -17.924299 29.884622 0.756148 2.214027 0.011139 0.002669 383782.000000 0 0 1
16.695011 17.365479 -18.767499 30.536900 0.805080 2.232655 0.019368 0.000661 101775.000000 0 0 1
16.554611 18.753979 -18.101399 30.877622 0.847608 2.197194 0.023295 0.009913 -993874.000000 0 0 1
17.667111 19.550979 -18.055599 31.943266 0.835972 2.171520 0.026104 0.007711 -987598.000000 0 0 1
17.393511 20.887479 -17.679599 32.425133 0.876418 2.147476 0.019112 0.008382 65478.200000 0 0 1
18.477411 21.962779 -18.078399 33.920597 0.871371 2.132894 0.026690 -0.000412 953554.000000 0 0 1
19.707211 22.022279 -17.361199 34.274862 0.840819 2.101950 0.028664 -0.001625 104440.000000 0 0 1
19.520111 22.584279 -16.077999 33.905552 0.858046 2.064851 0.034463 -0.000131 -824580.000000 0 0 1
20.772511 23.103479 -15.393199 34.673023 0.838475 2.030802 0.027915 0.001848 -483325.000000 0 0 1
21.393811 22.159479 -14.503899 34.045569 0.802976 2.010879 0.032040 -0.002544 388825.000000 0 0 1
22.348011 22.744879 -13.614799 34.671687 0.794199 1.974338 0.026315 -0.000358 1192040.000000 0 0 1
23.842011 22.863179 -14.079499 35.908199 0.764444 1.973706 0.033459 -0.000606 318069.000000 0 0 1
23.923411 23.812779 -15.151599 36.999311 0.783081 1.992714 0.024122 0.001213 -1165740.000000 0 0 1
25.197111 24.266779 -15.333999 38.195582 0.766592 1.983907 0.023803 0.003164 -1420760.000000 0 0 1
25.578311 24.738679 -16.709399 39.312291 0.768713 2.009805 0.020117 0.003168 -414552.000000 0 0 1
26.076611 23.684179 -17.501399 39.334831 0.737356 2.031897 0.028059 -0.004229 180144.000000 0 0 1
26.312211 24.228879 -18.795099 40.405777 0.744201 2.054610 0.024679 -0.003189 -947884.000000 0 0 1
26.774011 23.171079 -19.862599 40.598884 0.713385 2.082014 0.020224 -0.010531 -844532.000000 0 0 1
28.159311 23.074979 -19.832699 41.457658 0.686485 2.069610 0.009543 -0.005618 -878919.000000 0 0 1
28.592011 22.182279 -20.893199 41.786150 0.659823 2.094399 0.010469 -0.002891 -83489.300000 0 0 1
30.104811 22.300179 -21.107399 43.001394 0.637556 2.083866 0.030550 -0.008438 -445429.000000 0 0 1
30.351711 23.522979 -21.718199 44.116177 0.659318 2.085521 0.020821 -0.012742 336255.000000 0 0 1
31.752711 23.779079 -21.684799 45.209620 0.642786 2.071052 0.029495 -0.011669 341621.000000 0 0 1
32.142811 25.121979 -22.302299 46.493727 0.663404 2.071091 0.031817 -0.013874 -462458.000000 0 0 1
32.148011 25.266879 -23.733299 47.277683 0.666118 2.096704 0.025972 -0.009856 447066.000000 0 0 1
30.928711 25.221679 -24.480399 46.818887 0.684108 2.121016 0.019368 -0.007833 -47314.300000 0 0 1
31.147311 25.648479 -26.005709 48.003087 0.688881 2.143315 0.025922 -0.006754 -426188.000000 0 0 1
30.938411 27.055079 -26.142639 48.709344 0.718536 2.137326 0.028365 -0.007809 -314958.000000 0 0 1
29.668111 27.515579 -26.533779 48.387450 0.747774 2.151199 0.029566 0.000677 -12600.300000 0 0 1
29.225911 27.158079 -28.007159 48.745421 0.748740 2.182863 0.031219 0.004861 -254830.000000 0 0 1
28.974311 25.802079 -28.318299 48.033156 0.727550 2.201307 0.020346 -0.006830 27086.900000 0 0 1
28.604311 25.676979 -29.680429 48.563790 0.731521 2.228326 0.029515 -0.009898 -474812.000000 0 0 1
27.958111 24.325979 -29.967299 47.659713 0.716040 2.250775 0.026673 -0.007404 211906.000000 0 0 1
26.697211 24.209579 -29.330659 46.466465 0.736571 2.253924 0.027427 -0.005149 466883.000000 0 0 1
25.907111 23.054179 -29.629329 45.613273 0.727195 2.277824 0.040360 -0.012098 -104782.000000 0 0 1
24.474811 23.019479 -29.123439 44.464452 0.754765 2.284956 0.029080 -0.006839 -522820.000000 0 0 1
24.406411 22.615479 -27.842439 43.385876 0.747329 2.267561 0.016297 0.011074 -222813.000000 0 0 1
23.180811 22.868079 -27.221719 42.441972 0.778607 2.267101 0.021814 0.000641 -631774.000000 0 0 1
23.303611 23.227979 -25.706259 41.754150 0.783773 2.234017 0.021362 0.002779 -206224.000000 0 0 1
23.851711 22.196979 -24.903199 41.009503 0.749479 2.223397 0.016245 -0.005108 297676.000000 0 0 1
24.151211 22.647179 -23.558299 40.634581 0.753271 2.189230 0.017324 -0.002248 -106888.000000 0 0 1
24.577411 21.452979 -22.673399 39.728610 0.717625 2.178163 0.028854 -0.006205 -10576.800000 0 0 1
25.863511 21.032879 -23.068899 40.539824 0.682754 2.176138 0.006614 -0.002284 -81399.300000 0 0 1
26.036811 19.671379 -22.625099 39.708611 0.647026 2.177032 0.034293 -0.008021 -51267.000000 0 0 1
27.261011 18.946679 -23.214799 40.510076 0.607369 2.181034 0.041747 -0.010812 -397539.000000 0 0 1
28.478811 19.223879 -22.609499 41.131371 0.593766 2.152789 0.049040 -0.018875 -564736.000000 0 0 1
29.518911 18.474279 -23.213499 41.851304 0.559207 2.158758 0.030591 -0.007276 -38317.200000 0 0 1
30.797011 18.381279 -22.385299 42.277996 0.538102 2.128782 0.030248 -0.002176 -350067.000000 0 0 1
31.473911 19.615379 -22.218899 43.232507 0.557323 2.110567 0.024739 -0.004345 197804.000000 0 0 1
32.773411 19.332179 -21.704699 43.805520 0.532941 2.089182 0.023071 -0.007193 454320.000000 0 0 1
33.316911 20.218779 -20.566499 44.065820 0.545450 2.056377 0.026643 -0.014092 -136565.000000 0 0 1
32.549411 20.152479 -19.379499 42.908642 0.554371 2.039405 0.028288 -0.008428 116984.000000 0 0 1
32.701611 21.304479 -18.618599 43.242669 0.577416 2.015910 0.014647 -0.000038 -130639.000000 0 0 1
32.149411 21.068379 -17.185599 42.104703 0.580111 1.991238 0.026229 -0.013045 86887.900000 0 0 1
32.820111 20.069779 -16.445799 41.838021 0.548839 1.974778 0.028760 -0.023673 45037.100000 0 0 1
32.317011 20.033079 -15.160399 40.933497 0.554918 1.950200 0.046558 -0.022341 -420352.000000 0 0 1
32.680411 18.678079 -14.500499 40.337878 0.519228 1.938503 0.031601 -0.016883 172044.000000 0 0 1
34.093511 18.437479 -14.532099 41.394324 0.495746 1.929505 0.016779 -0.019593 608265.000000 0 0 1
34.513511 17.358179 -13.740399 41.003505 0.465996 1.912511 0.007087 -0.006094 -108893.000000 0 0 1
34.488211 17.640179 -12.170499 40.604602 0.472793 1.875208 0.013084 -0.014070 -314714.000000 0 0 1
35.449611 18.611079 -11.797199 41.739922 0.483448 1.857337 0.001789 -0.019265 202536.000000 0 0 1
35.195011 19.170779 -10.499999 41.430153 0.498766 1.827030 0.001327 -0.016073 -560595.000000 0 0 1
34.128611 20.269079 -10.420899 41.038918 0.535924 1.827535 0.004020 -0.013977 -792938.000000 0 0 1
32.854411 19.738279 -10.451999 39.727274 0.540993 1.837024 0.048531 -0.030228 -1049140.000000 0 0 1
31.815111 20.619679 -10.119499 39.239989 0.575045 1.831631 0.041293 -0.011841 632680.000000 0 0 1
30.377311 20.068779 -10.377299 37.857962 0.583826 1.848462 0.031462 -0.011040 498535.000000 0 0 1
30.079611 19.998679 -11.772299 37.991015 0.586750 1.885853 0.043312 -0.020822 329747.000000 0 0 1
28.782111 19.431779 -11.961199 36.729746 0.593842 1.902500 0.047670 -0.022308 635933.000000 0 0 1
28.504911 18.752579 -13.364499 36.644222 0.581889 1.944117 0.052303 -0.016930 -154286.000000 0 0 1
29.401911 17.690779 -13.616799 36.916842 0.541660 1.948568 0.048870 -0.015909 -100056.000000 0 0 1
29.023511 16.815979 -14.614599 36.588630 0.525128 1.981691 0.037980 -0.012451 311375.000000 0 0 1
30.266111 16.070979 -15.223399 37.497543 0.488131 1.988852 0.044234 -0.022292 457374.000000 0 0 1
30.977911 15.277679 -14.266999 37.370921 0.458177 1.962504 0.045281 -0.024774 -571443.000000 0 0 1
32.041811 14.759679 -14.990599 38.330717 0.431665 1.972607 0.039513 -0.018476 -852775.000000 0 0 1
32.677411 13.665579 -14.111199 38.127250 0.396094 1.949922 0.028080 -0.027951 -339427.000000 0 0 1
33.325211 14.306579 -13.001199 38.526343 0.405509 1.915016 0.028266 -0.016486 -52727.700000 0 0 1
34.028311 13.400579 -12.202999 38.554049 0.375156 1.892851 0.022145 -0.006947 77874.800000 0 0 1
35.158811 14.091679 -11.385799 39.551913 0.381197 1.862798 0.029710 -0.001330 -130886.000000 0 0 1
-34.677340 14.452879 -12.078699 39.462622 -0.394889 1.881868 0.007550 -0.004019 -583944.000000 0 0 1
-33.733440 15.023279 -11.200899 38.588910 -0.418983 1.865297 -0.009137 0.000823 -908413.000000 0 0 1
-32.370540 15.251979 -11.892699 37.708235 -0.440318 1.891661 0.008329 -0.012032 132556.000000 0 0 1
-31.642840 14.090679 -12.344199 36.772215 -0.418942 1.913138 0.006069 -0.005015 363393.000000 0 0 1
-31.465840 13.049879 -11.369299 35.911828 -0.393141 1.892928 0.017386 0.002605 -754087.000000 0 0 1
-30.345840 12.020279 -11.743799 34.688239 -0.377148 1.916175 0.019747 0.003755 -150515.000000 0 0 1
-30.528940 11.230879 -12.878599 34.985813 -0.352511 1.947771 0.015665 0.013231 175021.000000 0 0 1
-29.686040 10.083379 -13.004699 33.941975 -0.327440 1.963995 0.040225 -0.001015 24825.400000 0 0 1
-29.710640 9.489979 -14.384399 34.346656 -0.309171 2.002920 0.046376 -0.012690 86654.400000 0 0 1
-30.960640 8.942579 -14.744599 35.439161 -0.281184 1.999898 0.021999 0.000170 424234.000000 0 0 1
-30.707540 8.037979 -15.823899 35.467702 -0.256015 2.033255 0.044575 -0.018394 1120370.000000 0 0 1
-32.076840 7.461079 -16.355799 36.770960 -0.228537 2.031750 0.036179 -0.019392 861513.000000 0 0 1
-32.977240 6.868579 -15.470099 37.067502 -0.205347 2.001323 0.033491 -0.012981 118726.000000 0 0 1
-33.739440 5.790079 -15.944299 37.763679 -0.169956 2.006681 0.008489 -0.015177 461135.000000 0 0 1
-34.974740 5.345279 -15.091699 38.465098 -0.151659 1.973979 0.001161 -0.006505 544984.000000 0 0 1
35.335411 4.133779 -15.364999 38.752582 0.116458 1.978486 0.013933 -0.004857 476822.000000 0 0 1
34.260711 3.914679 -14.432499 37.382055 0.113768 1.967176 0.024909 -0.003668 186935.000000 0 0 1
33.407711 2.714079 -14.876999 36.671058 0.081063 1.988527 0.033530 0.000968 -220807.000000 0 0 1
34.173711 1.497779 -14.983999 37.344425 0.043800 1.983664 0.025746 -0.006333 272155.000000 0 0 1
33.479611 0.254479 -14.998999 36.686770 0.007601 1.991978 0.034147 -0.002692 380491.000000 0 0 1
32.820911 -0.288321 -13.659999 35.551243 -0.008784 1.965174 0.044674 -0.019787 -34200.900000 0 0 1
33.864911 -0.601521 -12.789599 36.204528 -0.017761 1.931849 0.047469 -0.017799 230312.000000 0 0 1
33.515011 -0.375521 -11.460799 35.422407 -0.011204 1.900272 0.050867 -0.014838 -431113.000000 0 0 1
33.720111 1.083179 -10.997499 35.484703 0.032112 1.885908 0.053952 -0.016878 -325834.000000 0 0 1
32.804211 2.054579 -11.471299 34.812760 0.062550 1.906585 0.048509 -0.011543 206689.000000 0 0 1
32.919111 3.272579 -10.873899 34.822684 0.099087 1.888372 0.052982 -0.010717 -423940.000000 0 0 1
31.870111 4.332979 -11.281499 34.084467 0.135129 1.908145 0.050997 -0.009823 -178927.000000 0 0 1
31.913311 4.794079 -12.640699 34.658764 0.149107 1.944127 0.043978 -0.001689 676697.000000 0 0 1
30.947911 5.849079 -12.843499 34.013827 0.186794 1.957996 0.043633 -0.001484 308530.000000 0 0 1
31.154611 6.512179 -14.190499 34.848078 0.206061 1.990194 0.025039 0.001694 -167473.000000 0 0 1
30.821611 5.619279 -15.258799 34.847941 0.180336 2.024022 0.014912 0.006681 239534.000000 0 0 1
31.207711 6.122079 -16.497699 35.827017 0.193712 2.049335 0.011320 0.010168 -866563.000000 0 0 1
30.268211 7.145679 -17.189799 35.534695 0.231834 2.075727 0.021333 0.006344 207741.000000 0 0 1
29.073211 6.697879 -17.796999 34.739694 0.226429 2.108652 0.009319 0.009670 650834.000000 0 0 1
28.051911 6.220479 -16.910199 33.340050 0.218218 2.102733 0.011950 0.012986 -192760.000000 0 0 1
26.718711 5.987379 -17.682599 32.594670 0.220448 2.144206 -0.004870 0.011178 1202.930000 0 0 1
26.695711 4.923179 -18.606499 32.910492 0.182369 2.171674 0.001843 0.005225 161553.000000 0 0 1
25.818211 5.227179 -19.678399 32.880736 0.199761 2.212396 -0.001187 0.003691 -158583.000000 0 0 1
25.407311 4.010779 -20.468899 32.872384 0.156567 2.242956 0.002749 0.009605 -703787.000000 0 0 1
24.445311 3.292579 -19.790399 31.623950 0.133886 2.246958 0.025077 0.003608 -391939.000000 0 0 1
24.212211 2.057479 -20.398599 31.726444 0.084773 2.269143 0.015068 0.001630 -369022.000000 0 0 1
23.172011 1.211779 -19.619699 30.386561 0.052247 2.272697 0.014079 -0.003381 -256280.000000 0 0 1
21.880911 1.749679 -19.693299 29.490027 0.079794 2.302039 0.014388 -0.008618 -558546.000000 0 0 1
20.961911 0.897179 -19.075399 28.356260 0.042774 2.308655 0.016672 -0.005620 -992393.000000 0 0 1
19.718311 1.678879 -18.710299 27.234275 0.084938 2.328167 0.019154 -0.012000 -1644200.000000 0 0 1
19.092411 2.104379 -19.903999 27.660762 0.109778 2.373987 0.018739 -0.011846 455723.000000 0 0 1
18.010611 3.020179 -19.684999 26.851495 0.166143 2.393674 0.008652 -0.009984 948425.000000 0 0 1
16.714611 2.621079 -18.922099 25.382949 0.155547 2.412028 0.018882 -0.016044 -1043910.000000 0 0 1
16.843611 2.587279 -17.525799 24.444936 0.152415 2.370214 0.015204 -0.014721 -381222.000000 0 1 0
15.696611 2.240379 -16.808999 23.107258 0.141773 2.385371 0.001662 -0.007416 21984.800000 0 1 0
14.667211 3.412179 -16.624799 22.431094 0.228574 2.405578 0.007918 -0.009230 -155.529000 0 1 0
14.230611 4.036579 -17.807899 23.150066 0.276394 2.448443 0.023925 -0.002424 275561.000000 0 1 0
13.231111 5.019679 -17.610199 22.591560 0.362609 2.464669 0.026594 -0.011083 -625325.000000 0 1 0
-18.846889 -21.927721 -17.412099 33.752205 0.860812 2.112831 0.034975 -0.014881 85278.800000 0 0 1
-18.815289 -22.448521 -18.722499 34.763245 0.873221 2.139537 0.028441 -0.008294 1421680.000000 0 0 1
-20.111589 -22.356821 -19.400099 35.786412 0.838217 2.143740 0.035914 -0.007462 1241810.000000 0 0 1
-20.158589 -23.047021 -20.784899 37.007377 0.852152 2.167165 0.030818 -0.004613 -71680.700000 0 0 1
-19.954389 -24.449221 -20.736799 37.761844 0.886281 2.152139 0.029373 -0.004722 152403.000000 0 0 1
-19.338689 -24.977521 -21.905099 38.440796 0.911959 2.177107 0.029500 -0.003395 -111121.000000 0 0 1
-19.081389 -26.512171 -21.821799 39.283400 0.946956 2.159757 0.026072 0.002565 -389926.000000 0 0 1
-20.279889 -27.264641 -21.735799 40.337074 0.931264 2.139873 0.043820 0.007561 30730.400000 0 0 1
-20.051889 -28.662951 -21.793299 41.213965 0.960356 2.127964 0.044881 -0.006368 318088.000000 0 0 1
-21.369889 -29.476601 -22.029499 42.553977 0.943503 2.114938 0.049353 -0.005117 642927.000000 0 0 1
-22.044989 -29.249591 -23.262999 43.389944 0.924941 2.136652 0.044176 -0.002338 63467.300000 0 0 1
-21.407589 -29.824801 -24.373799 44.066832 0.948238 2.156889 0.032937 -0.000576 -573136.000000 0 0 1
-21.946089 -29.331041 -25.737759 44.770225 0.928435 2.183261 0.024078 0.006819 472501.000000 0 0 1
-23.327389 -29.633581 -25.972379 45.791710 0.903913 2.173880 0.028760 0.009751 874334.000000 0 0 1
-23.807289 -28.985531 -27.158269 46.308958 0.883172 2.197476 0.024922 0.015918 -157762.000000 0 0 1
-23.251389 -29.418831 -28.535519 47.120808 0.901963 2.221294 0.020090 -0.000475 -345690.000000 0 0 1
-23.770289 -30.663481 -28.990619 48.432755 0.911362 2.212517 0.018509 0.008812 130833.000000 0 0 1
-23.145789 -31.023211 -30.195339 49.090994 0.929809 2.233295 0.025199 0.004075 -327583.000000 0 0 1
-23.675589 -32.245251 -30.920969 50.560816 0.937461 2.228827 0.021464 0.000492 -178195.000000 0 0 1
-23.210789 -33.493551 -30.427399 50.856517 0.964789 2.212173 0.019997 -0.010051 -258522.000000 0 0 1
-24.005689 -34.482330 -31.057509 52.248187 0.962643 2.207344 0.021064 -0.007710 -119591.000000 0 0 1
-23.534089 33.086411 -31.084869 51.135438 -0.952532 2.224200 0.035397 -0.011068 -174364.000000 0 0 1
-22.436089 32.868451 -31.938399 51.027194 -0.971842 2.247093 0.036487 -0.012135 -185280.000000 0 0 1
-22.300089 31.480471 -32.148279 50.217784 -0.954469 2.265525 0.040028 -0.000048 -811230.000000 0 0 1
-21.069689 31.053271 -32.916029 49.916955 -0.974645 2.290838 0.034531 0.010853 -609533.000000 0 0 1
-21.203289 31.090371 -34.334180 50.941403 -0.972261 2.310398 0.026666 0.008791 291160.000000 0 0 1
-20.456789 30.019211 33.947290 49.719732 -0.972624 0.819245 0.008266 0.011529 112927.000000 0 0 1
-20.665289 29.954081 32.383985 48.713690 -0.966882 0.843594 0.012388 0.005621 267277.000000 0 0 1
-19.977089 31.030631 31.683565 48.639823 -0.998802 0.861379 0.007057 0.007625 570601.000000 0 0 1
-19.843289 30.762091 30.319335 47.532351 -0.997904 0.879070 0.022789 0.008188 105962.000000 0 0 1
-19.116589 32.008311 29.654705 47.637983 -1.032410 0.898862 0.018839 -0.004776 207339.000000 0 0 1
-20.070189 33.010561 29.309135 48.492628 -1.024520 0.921779 0.019645 -0.005951 172759.000000 0 0 1
-19.476889 34.236673 29.027285 48.929360 -1.053566 0.935708 0.011328 -0.017440 -435496.000000 0 0 1
-20.443989 -33.591001 29.052055 48.891041 1.024066 0.934500 0.008634 -0.022994 -211332.000000 0 0 1
-20.785989 -33.328701 30.429305 49.687043 1.013157 0.911679 0.004743 -0.009893 109121.000000 0 0 1
-21.792289 -32.308891 30.561315 49.525370 0.977391 0.905765 0.021988 -0.013455 8925.940000 0 0 1
-21.387789 -30.872001 30.358005 48.292095 0.964926 0.891002 0.031623 -0.020770 -518857.000000 0 0 1
-21.426889 -30.514141 28.996585 47.233741 0.958598 0.909810 0.029934 -0.014757 -165988.000000 0 0 1
-21.266689 -29.147641 28.773985 46.149748 0.940467 0.897595 0.043100 -0.021898 -889253.000000 0 0 1
-22.528189 -28.462691 28.275295 46.012350 0.901261 0.909025 0.040052 -0.021987 -513927.000000 0 0 1
-23.592289 -28.456721 29.242065 47.132573 0.878586 0.901516 0.032955 -0.017003 889975.000000 0 0 1
-24.564089 -29.498891 29.143535 48.196729 0.876425 0.921434 0.016285 -0.005205 -453604.000000 0 0 1
-25.586229 -29.400201 28.019645 48.001327 0.854649 0.947486 0.005046 -0.005035 -1041890.000000 0 0 1
-25.172939 -29.653381 26.675085 47.165242 0.866938 0.969676 0.012764 -0.002875 -294596.000000 0 0 1
-26.227919 -30.051081 25.845415 47.528483 0.853226 0.995852 0.018586 -0.001278 -406152.000000 0 0 1
-25.751909 -30.439711 24.435415 46.763515 0.868631 1.020979 0.016209 -0.004226 -684153.000000 0 0 1
-25.393829 -29.248281 23.779635 45.450847 0.855821 1.020201 0.001464 -0.005110 240529.000000 0 0 1
-25.031089 -29.353781 22.391735 44.604817 0.864715 1.044884 0.015980 -0.007045 685668.000000 0 0 1
-23.681089 -30.135531 22.123535 44.253757 0.904762 1.047285 0.006952 -0.010153 276539.000000 0 0 1
-23.767089 -31.575341 22.219435 45.338504 0.925563 1.058616 0.007101 -0.017663 410474.000000 0 0 1
-22.533189 -32.155771 21.828035 44.924396 0.959567 1.063422 0.016551 -0.011962 -120187.000000 0 0 1
-21.817989 -32.995481 22.882535 45.698324 0.986559 1.046354 0.019472 -0.009395 -420368.000000 0 0 1
-21.200489 -32.148541 23.807925 45.274791 0.987804 1.017078 0.034228 -0.017097 -5953.030000 0 0 1
-20.246389 -32.913871 24.515285 45.762849 1.019324 1.005457 0.044025 -0.025017 -694197.000000 0 0 1
-19.409089 -32.106141 25.491535 45.357859 1.027053 0.973983 0.048091 -0.024714 -1304370.000000 0 0 1
-18.418089 -31.349761 24.816615 44.021562 1.039616 0.971892 0.048405 -0.024985 -33217.100000 0 0 1
-17.703489 -30.443821 25.602535 43.539976 1.044081 0.942183 0.054424 -0.028392 339559.000000 0 0 1
-16.771589 -31.092611 26.722665 44.296021 1.076122 0.923196 0.039965 -0.023580 -566813.000000 0 0 1
-17.441189 -31.872611 27.703335 45.689530 1.070093 0.919348 0.028612 -0.019865 -414780.000000 0 0 1
-16.555589 -32.454561 28.603935 46.320310 1.099089 0.905205 0.025645 -0.016877 -405264.000000 0 0 1
-16.916789 -32.082871 30.008995 47.074708 1.085560 0.879578 0.033048 -0.018351 120592.000000 0 0 1
-16.551989 -30.692451 30.200225 46.130776 1.076217 0.857056 0.037019 -0.011498 488856.000000 0 0 1
-17.321589 -30.095911 31.254975 46.719105 1.048552 0.837937 0.033116 -0.008764 186105.000000 0 0 1
-17.050689 -28.529351 31.322055 45.669694 1.032103 0.815040 0.039226 -0.016460 -45201.500000 0 0 1
-17.737789 -27.647461 30.454385 44.793759 1.000370 0.823197 0.058178 -0.021892 18519.000000 0 0 1
-17.568189 -27.860041 29.036585 43.908387 1.008189 0.848247 0.060760 -0.016384 5199.110000 0 0 1
-16.217989 -27.534861 28.336025 42.709742 1.038506 0.845368 0.055996 -0.010909 156123.000000 0 0 1
-15.972589 -26.137661 28.239945 41.662878 1.022259 0.826002 0.050478 -0.014449 531243.000000 0 0 1
-14.750489 -25.916721 27.528985 40.584460 1.053370 0.825331 0.035636 -0.006339 427601.000000 0 0 1
-14.774889 -24.513921 26.914445 39.288892 1.028383 0.816138 0.038028 0.000999 -160579.000000 0 0 1
-15.769489 -24.470621 25.893345 38.960921 0.998350 0.843841 0.061156 -0.012586 327254.000000 0 0 1
-15.693289 -23.363121 25.073595 37.693499 0.979309 0.843039 0.032324 -0.010724 32283.500000 0 0 1
-16.381889 -22.061821 25.680645 37.610979 0.932084 0.819213 0.042095 -0.012366 -537798.000000 0 0 1
-16.213289 -20.960921 24.887635 36.354165 0.912424 0.816758 0.022569 -0.005649 -45995.100000 0 0 1
-16.548989 -19.714321 25.498265 36.230995 0.872465 0.790107 0.038439 -0.006867 -251463.000000 0 0 1
-16.135089 -18.491821 24.593755 34.743939 0.853354 0.784336 0.005570 -0.007609 -258893.000000 0 0 1
-14.739589 -18.358321 24.585765 34.040318 0.894300 0.763740 0.002254 -0.004257 -547595.000000 0 0 1
-14.416689 -17.221221 23.729135 32.672362 0.873812 0.757908 0.010363 -0.001948 -58100.900000 0 0 1
-13.032189 -16.646321 24.050655 32.021430 0.906578 0.721100 0.010634 0.000352 -394791.000000 0 0 1
-11.938589 -17.489821 23.667635 31.758159 0.971842 0.729893 0.007956 0.003200 933259.000000 0 0 1
-10.728489 -16.702821 23.589535 30.831005 0.999842 0.699563 0.018281 -0.001124 359250.000000 0 0 1
-10.562889 -15.947421 22.260735 29.350216 0.985783 0.709861 0.013772 -0.001179 -714124.000000 0 0 1
-10.214589 -16.660621 21.111235 28.768009 1.020802 0.746833 0.026734 -0.003181 1293650.000000 0 0 1
-8.823089 -17.097621 21.109435 28.561929 1.094398 0.739099 0.027527 -0.001678 882717.000000 0 0 1
-8.639189 -18.448721 20.406135 28.834029 1.132844 0.784545 0.027615 -0.001906 -91684.000000 0 0 1
-8.504689 -18.363221 18.995935 27.755777 1.137071 0.817022 0.028115 -0.008185 -3395.690000 0 0 1
-7.810189 -19.494621 18.425835 27.938337 1.189744 0.850619 0.032320 -0.007495 409406.000000 0 0 1
-7.508889 -19.168521 16.937035 26.658559 1.197439 0.882358 0.021349 -0.010963 -646997.000000 0 0 1
-6.548389 -18.191321 16.901935 25.680361 1.225264 0.852416 0.019634 -0.010522 -946376.000000 0 0 1
-6.227089 -17.984121 15.549035 24.575958 1.237462 0.885771 0.019339 -0.016147 225291.000000 0 1 0
-5.320489 -16.747721 15.259735 23.273446 1.263195 0.855725 0.007482 -0.017785 519922.000000 0 1 0
-5.988889 -15.536921 15.593535 22.812738 1.202885 0.818188 0.010592 -0.021030 -265214.000000 0 1 0
-5.144389 -14.449521 15.456535 21.775166 1.228764 0.781548 0.007838 -0.024153 -712293.000000 0 1 0
-5.539189 -13.333921 16.418435 21.864150 1.177067 0.721328 -0.000827 -0.016242 68409.100000 0 1 0
-5.225289 -13.500721 17.853835 22.985485 1.201514 0.681317 0.007207 -0.012606 222495.000000 0 1 0
-5.953789 -14.566621 18.536835 24.315598 1.182788 0.703870 0.019087 -0.010390 6543.100000 0 1 0
-7.225989 -14.073721 19.217135 24.891420 1.096456 0.688754 0.024150 -0.012807 -718673.000000 0 1 0
-6.954089 -13.279021 20.381035 25.299769 1.088377 0.634139 0.023922 -0.013428 379028.000000 0 0 1
-8.084689 -12.702621 21.069835 25.897041 1.004000 0.620479 0.027932 -0.007206 750169.000000 0 0 1
-7.598389 -11.751221 22.202735 26.244774 0.996812 0.562383 0.022993 -0.003994 -519808.000000 0 0 1
-7.293189 -10.434121 21.799335 25.244256 0.960759 0.528555 0.020838 -0.005061 240767.000000 0 0 1
-6.743889 -9.633321 22.852135 25.700214 0.960031 0.475245 0.014773 -0.007203 657567.000000 0 0 1
-5.276989 -9.971821 23.269835 25.860569 1.084070 0.451442 0.032431 -0.009835 224296.000000 0 0 1
-5.314689 -10.959921 24.255215 27.141872 1.119285 0.465392 0.034492 -0.000935 -928565.000000 0 0 1
-4.027689 -11.394721 24.476105 27.297283 1.231034 0.458653 0.035141 -0.000605 -1234580.000000 0 0 1
-3.856089 -12.516221 25.489975 28.657704 1.271937 0.474627 0.035494 -0.000490 291363.000000 0 0 1
-2.469189 -12.810321 25.704785 28.825981 1.380382 0.469659 0.033737 0.000586 814829.000000 0 0 1
-2.219689 -13.848321 26.616265 30.085355 1.411862 0.484964 0.032313 0.004938 58296.700000 0 0 1
-2.473889 -15.259721 26.070075 30.308877 1.410076 0.535239 0.026167 -0.005882 -942778.000000 0 0 1
-1.336689 -15.690821 25.434165 29.914634 1.485812 0.554384 0.013127 0.001444 -689990.000000 0 0 1
-1.463989 -16.966221 24.831765 30.110006 1.484721 0.601122 0.011764 0.000692 -621849.000000 0 0 1
-0.114589 -17.708021 24.631985 30.336806 1.564325 0.623310 0.007549 0.000660 252957.000000 0 0 1
0.420111 -18.337921 25.781275 31.640638 -1.547891 0.618386 0.016498 -0.004589 166288.000000 0 0 1
0.873611 -17.445521 26.787735 31.979558 -1.520762 0.577826 0.015565 0.003429 -769035.000000 0 0 1
1.140211 -18.204821 28.127105 33.523866 -1.508246 0.575322 0.012036 0.007305 545668.000000 0 0 1
2.330811 -19.058421 28.086195 34.021911 -1.449102 0.599651 0.006273 -0.000678 1538190.000000 0 0 1
3.059811 -19.208421 29.318935 35.184170 -1.412828 0.585748 0.010291 -0.002300 416138.000000 0 0 1
3.960711 -18.038221 29.734485 35.002918 -1.354653 0.555786 0.020490 0.004893 -613005.000000 0 0 1
3.233011 -16.884521 30.091665 34.656135 -1.381608 0.519046 0.006728 0.003982 -71042.700000 0 0 1
4.100611 -15.994321 30.728535 34.883752 -1.319823 0.493070 0.008299 -0.007918 -199563.000000 0 0 1
3.342611 -14.894721 31.528805 35.029863 -1.350038 0.450901 0.015981 -0.005288 -32856.000000 0 0 1
2.630211 -15.328221 32.624885 36.142157 -1.400859 0.444834 0.015785 -0.009562 -144125.000000 0 0 1
1.805411 -14.328421 33.214881 36.218662 -1.445455 0.410139 0.015563 0.002270 462849.000000 0 0 1
0.994411 -14.870721 -34.400620 37.490397 -1.504025 2.732758 0.017762 0.003717 302291.000000 0 0 1
1.858011 -15.204721 -33.375379 36.722632 -1.449200 2.711316 0.022528 0.002360 -236526.000000 0 0 1
1.111511 -15.469321 -32.216899 35.755614 -1.499067 2.692936 0.028420 -0.005782 672319.000000 0 0 1
2.071711 -15.874921 -31.067099 34.949532 -1.441028 2.665763 0.017931 -0.005508 573066.000000 0 0 1
1.255311 -16.246221 -30.004739 34.143812 -1.493682 2.644086 0.035342 -0.008150 83271.000000 0 0 1
2.046211 -16.217421 -28.856349 33.164448 -1.445286 2.626199 0.024240 -0.010643 -18680.500000 0 0 1
1.641511 -17.380121 -27.938089 32.943892 -1.476628 2.583092 0.042172 -0.017225 -15022.900000 0 0 1
1.933911 -18.647021 -28.557389 34.161029 -1.467454 2.560683 0.045441 -0.014441 173416.000000 0 0 1
1.492711 -19.651821 -27.652629 33.957181 -1.494984 2.522384 0.056585 -0.025666 -579713.000000 0 0 1
2.236711 -21.032321 -27.771539 34.908735 -1.464848 2.490706 0.053931 -0.023814 449117.000000 0 0 1
3.598011 -21.024821 -27.368079 34.698711 -1.401307 2.479544 0.039483 -0.024589 204475.000000 0 0 1
3.720011 -20.986021 -25.938839 33.571937 -1.395357 2.453777 0.034434 -0.031853 -1025600.000000 0 0 1
5.150211 -21.323921 -25.472139 33.616427 -1.333812 2.430622 0.018198 -0.027666 -25287.200000 0 0 1
5.499411 -22.718321 -25.606209 34.670500 -1.333296 2.401727 0.024322 -0.030271 262085.000000 0 0 1
5.773711 -23.171321 -26.940569 36.000557 -1.326594 2.416349 0.023097 -0.021498 -432700.000000 0 0 1
5.085111 -24.545421 -27.195059 36.985231 -1.366515 2.396898 0.009497 -0.019477 54122.700000 0 0 1
5.648511 -25.598991 -26.481399 37.262294 -1.353623 2.361254 0.017470 -0.015871 -15572.800000 0 0 1
5.024911 -26.773141 -26.966939 38.331014 -1.385270 2.351146 0.011784 -0.011084 202106.000000 0 0 1
5.335911 -27.975831 -26.028369 38.582316 -1.382327 2.311245 0.016376 -0.011739 -205834.000000 0 0 1
6.685411 -28.317191 -25.879039 38.939475 -1.338951 2.297750 0.022272 -0.012013 -488597.000000 0 0 1
6.848311 -29.634251 -25.407999 39.631485 -1.343689 2.266735 0.022675 -0.004745 -49586.200000 0 0 1
8.290711 -30.147611 -25.572719 40.392800 -1.302426 2.256349 0.022527 -0.005534 41662.700000 0 0 1
8.659211 -30.175411 -26.951729 41.375513 -1.291343 2.280216 0.023725 -0.008941 -656428.000000 0 0 1
10.024711 -30.154981 -27.236799 41.852849 -1.249850 2.279401 0.043800 -0.011804 -292517.000000 0 0 1
10.212411 -30.135491 -28.775969 42.901021 -1.244059 2.306019 0.056398 -0.022519 -328921.000000 0 0 1
9.641911 -31.274711 -29.439409 44.019914 -1.271745 2.303356 0.045978 -0.020870 354774.000000 0 0 1
9.931511 -31.103621 -30.829259 44.905605 -1.261725 2.327509 0.050558 -0.017447 -212918.000000 0 0 1
-33.598559 -5.076221 -5.695899 34.453947 0.149950 1.736878 0.073753 -0.018998 -275533.000000 0 0 1
-33.844379 -4.340721 -4.503299 34.417489 0.127559 1.702016 0.068641 -0.025058 -140536.000000 0 0 1
-33.012789 -3.259521 -4.316999 33.453030 0.098416 1.700204 0.064401 -0.030155 -980613.000000 0 0 1
-33.322879 -1.930021 -5.039799 33.757056 0.057854 1.720653 0.086640 -0.016715 -246392.000000 0 0 1
-34.272345 -1.158621 -4.348399 34.566524 0.033793 1.696928 0.061060 -0.013015 275935.000000 0 0 1
-34.786186 -0.064021 -5.109499 35.159491 0.001840 1.716636 0.054808 -0.018215 -127023.000000 0 0 1
35.213490 0.759379 -4.287699 35.481698 0.021562 1.691935 0.064740 -0.015974 27901.600000 0 0 1
-35.099398 1.552179 -3.321999 35.290405 -0.044194 1.665069 0.064929 -0.009367 -50651.900000 0 0 1
34.957267 2.304679 -2.612899 35.130461 0.065833 1.645242 0.065376 -0.016044 -639513.000000 0 0 1
35.419376 3.631479 -1.964999 35.659235 0.102171 1.625929 0.054842 -0.021594 -195659.000000 0 0 1
-35.247609 4.730079 -2.812599 35.674617 -0.133399 1.649719 0.071013 -0.024646 626149.000000 0 0 1
-33.992239 4.649479 -3.494199 34.486220 -0.135937 1.672292 0.057145 -0.015170 -92547.900000 0 0 1
-33.067109 5.838579 -3.239099 33.734470 -0.174766 1.666962 0.051067 -0.020395 -546737.000000 0 0 1
-32.557269 5.740579 -1.922799 33.115361 -0.174529 1.628893 0.048369 -0.027585 264508.000000 0 0 1
-32.175139 7.073779 -1.547599 32.979887 -0.216409 1.617739 0.061245 -0.039439 -331366.000000 0 0 1
-31.416989 7.142579 -0.225299 32.219472 -0.223548 1.577789 0.056415 -0.043618 -173242.000000 0 0 1
-30.010079 6.947979 -0.321699 30.805563 -0.227513 1.581239 0.049232 -0.037383 487611.000000 0 0 1
-29.287489 7.356479 0.805601 30.208009 -0.246090 1.544125 0.053424 -0.037167 66015.800000 0 0 1
-29.046219 8.898679 1.017301 30.395793 -0.297284 1.537322 0.063748 -0.040458 -231673.000000 0 0 1
-30.306339 9.455779 1.358701 31.776280 -0.302435 1.528025 0.076518 -0.046455 628347.000000 0 0 1
-30.109429 10.831679 1.605501 32.038736 -0.345329 1.520664 0.077062 -0.031873 1116400.000000 0 0 1
-31.532029 11.515679 1.765001 33.615397 -0.350156 1.518266 0.071759 -0.033557 1314110.000000 0 0 1
-32.334409 11.466379 0.559601 34.311878 -0.340783 1.554486 0.069185 -0.023490 868877.000000 0 0 1
-33.547139 12.201679 0.593901 35.702160 -0.348843 1.554161 0.063477 0.000328 -371101.000000 0 0 1
-34.809534 11.412079 0.806001 36.641354 -0.316802 1.548798 0.067806 -0.025327 -815237.000000 0 0 1
-35.185126 10.733179 -0.423699 36.788228 -0.296082 1.582314 0.065593 -0.022411 192053.000000 0 0 1
34.775462 9.789679 -0.137199 36.127405 0.274409 1.574594 0.075560 -0.023838 308578.000000 0 0 1
34.648352 8.778879 -1.268699 35.765718 0.248149 1.606276 0.075210 -0.036674 -139108.000000 0 0 1
33.974482 9.159879 -2.404399 35.269674 0.263349 1.639021 0.062625 -0.025572 -77179.900000 0 0 1
33.844122 8.155579 -3.344499 34.973186 0.236466 1.666573 0.053734 -0.033868 38317.000000 0 0 1
33.153412 8.630679 -4.640499 34.571253 0.254673 1.705433 0.041323 -0.019654 1287470.000000 0 0 1
31.773382 9.088379 -4.598999 33.366109 0.278598 1.709071 0.042483 -0.026261 1460080.000000 0 0 1
31.451992 9.736579 -5.831899 33.437102 0.300213 1.746107 0.033049 -0.012847 -995708.000000 0 0 1
30.021342 10.136179 -6.056299 32.259911 0.325615 1.759651 0.037387 -0.008459 -939465.000000 0 0 1
29.037272 9.130279 -6.136899 31.051356 0.304645 1.769743 0.023487 -0.005708 -210111.000000 0 0 1
27.785082 9.683379 -6.354399 30.102442 0.335347 1.783489 0.033251 -0.002454 -921702.000000 0 0 1
26.628112 8.686579 -6.337999 28.717298 0.315333 1.793332 0.039497 0.001403 -546920.000000 0 0 1
26.578112 7.814079 -7.472799 28.693180 0.285947 1.834272 0.035496 0.000689 79865.200000 0 0 1
25.480762 6.944679 -7.423499 27.433668 0.266083 1.844811 0.038815 -0.009504 -458027.000000 0 0 1
25.603162 5.868379 -8.468699 27.598526 0.225313 1.882681 0.040245 -0.010875 -3909.050000 0 0 1
26.666872 4.941879 -8.289199 28.359391 0.183240 1.867418 0.036894 -0.011453 698791.000000 0 0 1
26.687792 4.040279 -9.374899 28.573604 0.150250 1.905084 0.031683 -0.007129 -747543.000000 0 0 1
27.653412 2.894879 -9.100499 29.255950 0.104304 1.887110 0.033225 -0.006312 549280.000000 0 0 1
29.041042 3.236679 -9.323299 30.672172 0.110994 1.879649 0.060010 -0.007173 1113690.000000 0 0 1
29.952172 2.906779 -8.326699 31.223643 0.096744 1.840742 0.048928 -0.015880 -103790.000000 0 0 1
30.321792 1.399279 -8.084499 31.412230 0.046115 1.831094 0.049931 -0.018277 720534.000000 0 0 1
29.146152 0.713379 -7.522399 30.109692 0.024471 1.823304 0.059897 -0.021809 1562460.000000 0 0 1
29.409292 -0.636121 -7.099699 30.260813 -0.021627 1.807621 0.061408 -0.020085 -210793.000000 0 0 1
29.143802 -1.720821 -8.146699 30.309918 -0.058977 1.842923 0.058391 -0.012606 35011.900000 0 0 1
30.075132 -1.618421 -9.245199 31.505659 -0.053761 1.868626 0.056102 -0.022285 735896.000000 0 0 1
29.937632 -2.805621 -10.005699 31.689862 -0.093443 1.892031 0.045161 -0.020154 -89088.500000 0 0 1
30.987732 -3.034521 -11.113799 33.060012 -0.097615 1.913644 0.048598 -0.024541 -472949.000000 0 0 1
32.310852 -3.287521 -10.740899 34.207687 -0.101398 1.890190 0.054216 -0.025637 -342721.000000 0 0 1
33.042992 -3.731621 -11.848399 35.300834 -0.112456 1.913082 0.050034 -0.036804 842123.000000 0 0 1
34.531472 -4.140721 -11.514199 36.635296 -0.119342 1.890508 0.041554 -0.022979 784807.000000 0 0 1
34.524392 -5.302121 -10.749799 36.545920 -0.152385 1.869357 0.039932 -0.022209 411368.000000 0 0 1
-35.168723 -5.709621 -10.346699 37.101119 0.160945 1.853422 0.045115 -0.011716 104397.000000 0 0 1
-35.310857 -7.039321 -9.590499 37.261057 0.196773 1.831113 0.050238 -0.018234 -68475.500000 0 0 1
35.405497 -6.900321 -8.183699 36.988330 -0.192481 1.793893 0.045067 -0.013603 421741.000000 0 0 1
35.004235 -8.119021 -7.649799 36.738731 -0.227914 1.780553 0.041889 -0.015711 -428475.000000 0 0 1
34.902482 -8.083621 -6.082499 36.339028 -0.227593 1.738970 0.060111 -0.014211 -139756.000000 0 0 1
-34.874508 -8.216821 -5.351799 36.226913 0.231391 1.719069 0.038348 -0.006937 468871.000000 0 0 1
-34.971766 -9.267721 -4.376899 36.442727 0.259051 1.691190 0.065603 -0.024383 -198353.000000 0 0 1
-34.900811 -10.761021 -4.744099 36.828965 0.299083 1.699970 0.061803 -0.020123 -706150.000000 0 0 1
35.016509 -11.129421 -5.530199 37.156467 -0.307736 1.720187 0.035287 -0.017817 -463916.000000 0 0 1
35.407596 -12.141021 -6.395399 37.973719 -0.330330 1.740019 0.040688 -0.017350 -41098.600000 0 0 1
34.560972 -12.303721 -7.675199 37.480008 -0.342010 1.777036 0.038013 -0.022966 -170728.000000 0 0 1
34.678372 -11.233921 -8.565299 37.445358 -0.313278 1.801581 0.066066 -0.026562 78529.100000 0 0 1
34.431812 -11.733021 -9.846599 37.685129 -0.328421 1.835151 0.054194 -0.016522 -112130.000000 0 0 1
34.720482 -10.858621 -11.089999 38.031692 -0.303107 1.866694 0.029665 -0.012469 79456.600000 0 0 1
33.857612 -9.724621 -11.187499 36.960334 -0.279692 1.878309 0.024838 -0.012875 581755.000000 0 0 1
34.157402 -9.084521 -12.380499 37.450412 -0.259943 1.907718 0.034016 -0.012602 -423981.000000 0 0 1
33.270212 -7.885821 -12.588999 36.435917 -0.232729 1.923579 0.034977 -0.013299 -500855.000000 0 0 1
33.608942 -7.327821 -13.849499 37.081890 -0.214672 1.953558 0.040722 -0.015705 767463.000000 0 0 1
32.643632 -6.407021 -14.355399 36.231673 -0.193808 1.978183 0.046104 -0.026814 -19545.700000 0 0 1
32.845662 -6.171921 -15.876099 36.999738 -0.185741 2.014278 0.051695 -0.024290 192433.000000 0 0 1
33.888232 -5.235021 -16.196899 37.923044 -0.153268 2.012078 0.050767 -0.032829 335491.000000 0 0 1
33.742672 -3.888821 -15.953899 37.526227 -0.114743 2.009913 0.057433 -0.023535 -1032890.000000 0 0 1
35.019674 -3.093821 -15.867499 38.571062 -0.088116 1.994768 0.047805 -0.021109 -1414460.000000 0 0 1
-35.328065 -2.866821 -17.028099 39.322347 0.080971 2.018658 0.044371 -0.018757 -542713.000000 0 0 1
-34.010739 -2.398021 -16.848899 38.031122 0.070391 2.029771 0.027677 -0.010350 -122444.000000 0 0 1
-33.797009 -0.873421 -16.490899 37.615827 0.025837 2.024618 0.017502 -0.006825 -771512.000000 0 0 1
-34.236557 0.005179 -17.511299 38.455006 -0.000151 2.043585 0.009076 0.003053 259164.000000 0 0 1
-34.167245 1.331679 -17.145699 38.251131 -0.038956 2.035592 0.012231 -0.002857 -293666.000000 0 0 1
-34.646360 2.393979 -18.148199 39.184927 -0.068988 2.052334 0.000086 0.002019 -114672.000000 0 0 1
-33.822459 2.549679 -19.288199 39.019152 -0.075242 2.087856 0.001350 0.009327 338834.000000 0 0 1
-34.043969 3.808379 -19.861699 39.597761 -0.111403 2.096228 0.000479 0.013379 -227781.000000 0 0 1
-33.241909 4.115179 -21.158399 39.618645 -0.123168 2.134182 0.006035 0.014834 -528037.000000 0 0 1
-31.898739 4.431179 -20.920299 38.403435 -0.138031 2.146888 0.009706 0.011024 -463787.000000 0 0 1
-31.369619 4.955579 -22.071699 38.675194 -0.156679 2.178147 0.008365 0.005900 -157619.000000 0 0 1
-29.856269 5.254879 -21.844399 37.365603 -0.174221 2.195199 0.033508 -0.001010 615108.000000 0 0 1
-29.039389 4.206179 -21.377599 36.303991 -0.143844 2.200431 0.032263 0.007054 203099.000000 0 0 1
-27.666579 4.323879 -21.694699 35.423093 -0.155031 2.229946 0.033060 -0.003798 -78653.400000 0 0 1
-26.868489 3.228079 -21.038999 34.277918 -0.119571 2.231632 0.051087 -0.001068 -382348.000000 0 0 1
-26.339639 3.633279 -19.776499 33.137399 -0.137075 2.210307 0.044207 0.007057 61418.500000 0 0 1
-25.827989 2.525479 -19.078599 32.209564 -0.097471 2.204740 0.050906 0.003288 -218331.000000 0 0 1
-24.948189 2.969379 -17.855899 30.823083 -0.118465 2.188669 0.049158 -0.006085 326204.000000 0 0 1
-23.679489 3.542379 -18.163499 30.052942 -0.148496 2.219788 0.045719 -0.007817 381644.000000 0 0 1
-23.041289 3.821779 -16.915199 28.838012 -0.164370 2.197600 0.054634 -0.014968 -124742.000000 0 0 1
-21.739889 4.610679 -17.155399 28.074701 -0.208987 2.228199 0.058065 -0.011204 -371332.000000 0 0 1
-20.626189 3.910679 -17.601599 27.396156 -0.187374 2.268532 0.058772 -0.013597 -543461.000000 0 0 1
-19.481589 4.724779 -17.599399 26.675732 -0.237931 2.291287 0.053570 -0.017415 -23207.600000 0 0 1
-18.229989 3.912879 -18.029699 25.936715 -0.211432 2.339414 0.061433 -0.021880 -167131.000000 0 0 1
-17.708089 3.089779 -17.033299 24.764015 -0.172745 2.329284 0.060737 -0.019870 393128.000000 0 1 0
-16.632089 2.305179 -17.577799 24.308831 -0.137721 2.379081 0.063413 -0.020695 -178410.000000 0 1 0
-16.766789 0.819479 -17.234099 24.058490 -0.048836 2.369341 0.055528 -0.023909 853321.000000 0 1 0
-17.790689 0.077579 -17.953199 25.275126 -0.004361 2.360736 0.057669 -0.018033 872928.000000 0 0 1
-19.126989 0.373179 -17.612999 26.003821 -0.019508 2.314915 0.052924 -0.023520 267232.000000 0 0 1
-20.221489 -0.695421 -18.041599 27.108883 0.034377 2.298991 0.055986 -0.019342 432910.000000 0 0 1
-20.212789 -1.931421 -17.289099 26.668337 0.095265 2.276147 0.039099 -0.015720 154678.000000 0 0 1
-21.313189 -2.730321 -17.646599 27.804840 0.127411 2.258364 0.057276 -0.000152 -199363.000000 0 0 1
-21.655689 -3.859721 -16.685899 27.609519 0.176379 2.219750 0.060221 -0.002604 -53394.000000 0 0 1
-22.148289 -3.401521 -15.438399 27.211417 0.152389 2.174081 0.054562 -0.007387 541945.000000 0 0 1
-22.601089 -4.494221 -14.607999 27.283711 0.196289 2.135791 0.067069 -0.017589 -72163.700000 0 0 1
-22.697789 -4.112021 -13.114899 26.534862 0.179220 2.087770 0.054984 -0.014512 -239513.000000 0 0 1
-23.618889 -3.061721 -12.941499 27.105506 0.128911 2.068546 0.042926 -0.013809 388919.000000 0 0 1
-23.854889 -2.728021 -11.587799 26.660362 0.113864 2.020441 0.039849 -0.020787 -310057.000000 0 0 1
-24.924089 -1.622621 -11.422399 27.464783 0.065011 1.999720 0.042571 -0.028474 -133658.000000 0 0 1
-25.354449 -1.417221 -10.046899 27.309280 0.055838 1.947539 0.039126 -0.032090 379084.000000 0 0 1
-26.059839 -0.235321 -9.949599 27.895611 0.009030 1.935500 0.041852 -0.030073 -817543.000000 0 0 1
-26.305029 0.132879 -8.491099 27.641834 -0.005051 1.883028 0.051164 -0.019195 -305330.000000 0 0 1
-25.192939 0.590379 -7.753999 26.365834 -0.023430 1.869302 0.050155 -0.022482 502328.000000 0 0 1
-25.587839 0.727979 -6.387199 26.383020 -0.028443 1.815321 0.052907 -0.021357 -440641.000000 0 0 1
-24.406289 0.906579 -5.452499 25.024360 -0.037128 1.790446 0.034454 -0.021058 -515914.000000 0 0 1
-23.715789 2.108979 -5.751699 24.494254 -0.088694 1.807828 0.036419 -0.017547 119462.000000 0 1 0
-22.612689 2.402479 -4.945199 23.271455 -0.105848 1.784930 0.032585 -0.015451 -229444.000000 0 1 0
-22.025589 3.851579 -5.107699 22.935776 -0.173118 1.795375 0.038689 -0.005935 102526.000000 0 1 0
-22.745989 4.882679 -4.413999 23.679188 -0.211452 1.758302 0.051168 -0.008066 768901.000000 0 1 0
-22.214989 6.125579 -4.789799 23.536581 -0.269055 1.775732 0.048052 -0.014617 -225933.000000 0 1 0
-22.778389 7.364579 -4.003799 24.271844 -0.312706 1.736510 0.045304 -0.008542 -243855.000000 0 1 0
-22.363589 7.410979 -2.665699 23.709885 -0.319997 1.683464 0.056815 -0.004619 1733940.000000 0 1 0
-20.992189 7.843779 -2.407399 22.538687 -0.357589 1.677812 0.061021 -0.008647 1199940.000000 0 1 0
-20.680189 9.360979 -2.581999 22.846550 -0.425059 1.684053 0.073357 -0.011899 -480142.000000 0 1 0
-20.472689 9.705579 -3.917599 22.992974 -0.442693 1.742014 0.053767 -0.005527 425044.000000 0 1 0
-19.900789 10.988179 -4.014399 23.084559 -0.504491 1.745585 0.068123 -0.005999 -319575.000000 0 1 0
-19.671389 11.593279 -5.437299 23.471938 -0.532550 1.804571 0.066972 -0.005600 -654710.000000 0 1 0
-18.513189 11.086579 -6.005099 22.398920 -0.539572 1.842214 0.047167 -0.000069 -458380.000000 0 1 0
-18.344789 11.723179 -7.255499 22.947908 -0.568637 1.892489 0.040089 0.003596 324082.000000 0 1 0
-17.055989 11.289179 -8.014399 21.967770 -0.584688 1.944242 0.040223 0.001030 -142638.000000 0 1 0
-16.872389 9.892679 -8.359399 21.270218 -0.530303 1.974699 0.034780 -0.001060 588285.000000 0 1 0
-17.866789 9.318179 -9.220099 22.159892 -0.480728 1.999917 0.043915 0.000732 -73304.800000 0 1 0
-17.910489 9.996179 -10.620199 23.097572 -0.509055 2.048563 0.045583 0.005185 8934.980000 0 1 0
-16.778289 9.901979 -11.463199 22.604537 -0.533157 2.102636 0.041873 0.002967 88523.600000 0 1 0
-17.023489 10.554979 -12.694799 23.714229 -0.555013 2.135688 0.045697 0.004216 363463.000000 0 1 0
-15.848189 10.354179 -13.704799 23.370829 -0.578716 2.197411 0.033286 0.002783 355593.000000 0 1 0
-15.658089 9.083679 -14.402999 23.132993 -0.525679 2.242879 0.022280 -0.002417 225377.000000 0 1 0
-15.281689 7.972579 -13.584099 21.945837 -0.480863 2.238243 0.011852 -0.003387 -722514.000000 0 1 0
-15.205889 6.577679 -14.330699 21.905567 -0.408269 2.283925 0.012375 -0.009465 -252244.000000 0 1 0
-14.222989 6.358579 -15.354299 21.874173 -0.420409 2.348910 0.022593 -0.014485 726574.000000 0 1 0
-14.540889 5.248879 -16.216599 22.404604 -0.346417 2.380100 0.031091 -0.009122 57621.500000 0 1 0
31.760552 -15.784621 28.506415 45.502776 -0.461235 0.893772 0.006798 0.004840 -60562.000000 0 0 1
30.903942 -14.626621 28.598655 44.574373 -0.442055 0.874222 0.015689 0.008593 531682.000000 0 0 1
29.922272 -14.710021 29.629675 44.605434 -0.456911 0.844291 0.016703 0.004777 210941.000000 0 0 1
30.402862 -14.939621 31.105325 45.989863 -0.456735 0.827998 0.014708 -0.005527 -122913.000000 0 0 1
30.943672 -13.762321 31.740425 46.415158 -0.418483 0.817787 0.008222 -0.004757 289804.000000 0 0 1
30.927812 -13.754821 33.121048 47.357454 -0.418471 0.796261 -0.009762 -0.007620 -548544.000000 0 0 1
31.422352 -12.424521 33.740809 47.751179 -0.376538 0.786120 -0.004100 -0.010273 27922.100000 0 0 1
30.751822 -12.157821 -33.899219 47.356565 -0.376494 2.368607 -0.004346 -0.016548 365131.000000 0 0 1
31.105072 -10.866521 -33.459769 46.959162 -0.336095 2.363892 0.003356 -0.008521 -123359.000000 0 0 1
30.463032 -10.528321 -32.094169 45.484916 -0.332758 2.354066 0.004221 -0.008549 -976965.000000 0 0 1
29.085882 -10.466221 -32.065399 44.538973 -0.345413 2.374513 0.027325 -0.014270 -1005980.000000 0 0 1
28.657132 -10.223521 -30.753419 43.261119 -0.342678 2.361543 0.029967 -0.007213 -961106.000000 0 0 1
27.262642 -9.627221 -30.660009 42.142273 -0.339459 2.385520 0.008622 0.014083 -478706.000000 0 0 1
26.772782 -9.378221 -29.362569 40.827605 -0.336933 2.373424 0.002052 0.002298 799959.000000 0 0 1
26.073292 -10.550821 -28.796299 40.253735 -0.384517 2.367949 0.010252 0.004002 -741093.000000 0 0 1
25.933342 -10.488621 -27.241529 39.046771 -0.384333 2.342928 0.017202 0.013335 -133529.000000 0 0 1
25.032662 -9.515721 -26.627279 37.764998 -0.363263 2.353330 0.008438 0.006902 1305500.000000 0 0 1
23.712862 -9.323321 -27.136389 37.223753 -0.374610 2.387667 0.005818 0.008108 288200.000000 0 0 1
22.733162 -10.492521 -26.997479 36.820559 -0.432418 2.393838 0.014541 0.024227 -1258390.000000 0 0 1
23.142662 -11.597621 -27.785399 37.975203 -0.464556 2.391568 0.019870 0.014676 -251789.000000 0 0 1
22.534462 -12.824721 -27.571649 37.848002 -0.517401 2.386902 0.019247 0.002597 -713697.000000 0 0 1
23.412062 -13.932521 -28.137949 39.166107 -0.536809 2.372333 0.020615 0.017012 -113456.000000 0 0 1
23.685962 -13.780921 -29.498559 40.262930 -0.526943 2.393001 0.024550 0.008313 207280.000000 0 0 1
24.453662 -14.843421 -30.009829 41.459602 -0.545552 2.380138 0.024415 0.003286 -98194.800000 0 0 1
24.585762 -14.748421 -31.570899 42.646187 -0.540329 2.404310 0.042970 -0.003376 279904.000000 0 0 1
23.330262 -15.030821 -32.182159 42.496095 -0.572332 2.429960 0.057946 0.002242 539715.000000 0 0 1
23.495462 -15.618521 -33.515139 43.809126 -0.586672 2.441879 0.071839 -0.004106 223262.000000 0 0 1
23.846662 -14.564821 34.171462 44.141659 -0.548301 0.685454 0.047878 -0.009251 -512615.000000 0 0 1
22.788362 -13.693321 33.955873 43.125605 -0.541074 0.664263 0.060217 -0.008685 -490867.000000 0 0 1
22.837162 -13.073321 32.685345 41.961643 -0.519922 0.677832 0.042598 -0.009432 -408025.000000 0 0 1
21.955862 -11.801121 32.496345 40.955326 -0.493190 0.654326 0.062636 -0.019898 394266.000000 0 0 1
20.559362 -11.990621 32.559425 40.330863 -0.527990 0.631220 0.047670 -0.010161 301730.000000 0 0 1
19.854362 -12.465921 31.441195 39.219174 -0.560659 0.640697 0.036176 -0.010822 -1392660.000000 0 0 1
18.362962 -12.466921 31.604575 38.619576 -0.596436 0.612251 0.047927 -0.006145 -960459.000000 0 0 1
17.731162 -11.194421 31.750115 38.049691 -0.563147 0.583684 0.053016 -0.015580 -200870.000000 0 0 1
16.548362 -11.266121 32.494805 38.166557 -0.597723 0.552158 0.044237 -0.003802 -340217.000000 0 0 1
15.907062 -9.898221 32.649835 37.643341 -0.556622 0.520950 0.045351 -0.006999 -851771.000000 0 0 1
15.193062 -9.455021 31.485375 36.215402 -0.556673 0.516826 0.051598 -0.017643 928640.000000 0 0 1
14.216662 -8.397821 31.692495 35.735852 -0.533555 0.480304 0.054304 -0.007866 882673.000000 0 0 1
13.070562 -8.670421 32.669605 36.239741 -0.585706 0.447607 0.055238 -0.009179 -1143510.000000 0 0 1
12.214362 -9.772121 32.381265 35.961525 -0.674772 0.450012 0.049399 -0.014008 503272.000000 0 0 1
11.117562 -9.987921 33.238741 36.444103 -0.731926 0.422548 0.040378 -0.006968 245469.000000 0 0 1
9.847262 -9.119121 33.019305 35.642691 -0.747026 0.386066 0.022708 0.001707 -486420.000000 0 0 1
9.968262 -7.719921 33.238507 35.549427 -0.658966 0.362554 0.050729 -0.001562 151100.000000 0 0 1
9.030162 -7.021021 32.447655 34.404780 -0.660875 0.338919 0.021921 0.008894 -297061.000000 0 0 1
9.449362 -5.560521 32.133735 33.952713 -0.531887 0.328814 0.016410 0.013994 -30835.700000 0 0 1
9.745162 -4.805321 33.310784 35.038088 -0.458111 0.315304 0.019203 0.004264 399547.000000 0 0 1
10.231962 -3.504121 33.040888 34.765963 -0.329949 0.316340 0.008652 -0.000033 -148622.000000 0 0 1
10.414862 -2.711621 34.350553 35.996982 -0.254706 0.303615 0.015599 -0.005300 462408.000000 0 0 1
9.090362 -2.398621 -34.055979 35.329843 -0.257984 2.872241 0.016674 0.004059 727599.000000 0 0 1
9.060062 -1.748721 -32.850709 34.122014 -0.190670 2.867763 0.027479 -0.007742 1254300.000000 0 0 1
7.605962 -1.359521 -32.319719 33.230456 -0.176876 2.906932 0.031288 -0.006570 1586320.000000 0 0 1
6.973162 -0.307621 -33.108149 33.835915 -0.044086 2.933813 0.027238 -0.001776 -218084.000000 0 0 1
5.595962 -0.234121 -32.855299 33.329271 -0.041813 2.972745 0.021754 -0.001008 -403284.000000 0 0 1
4.846562 0.694179 -33.778669 34.131650 0.142264 2.997651 0.034423 -0.000922 -488318.000000 0 0 1
5.165862 2.038579 -33.610969 34.066687 0.375864 2.977842 0.033505 -0.010173 -213471.000000 0 0 1
4.636062 2.817579 34.181810 34.609651 0.546100 0.157400 0.035674 -0.010748 28258.400000 0 0 1
5.164262 4.286779 34.229623 34.881415 0.692818 0.193620 0.035415 -0.008906 224336.000000 0 0 1
4.808262 5.102379 33.126357 33.860141 0.815066 0.208565 0.050925 -0.017952 298336.000000 0 0 1
5.657562 6.245379 33.306656 34.356165 0.834742 0.247809 0.039503 -0.020714 237349.000000 0 0 1
5.490862 7.375279 32.323385 33.605736 0.930827 0.277142 0.054114 -0.018079 380419.000000 0 0 1
4.254862 8.025279 32.665695 33.905111 1.083295 0.271221 0.054400 -0.018100 426494.000000 0 0 1
3.995362 9.245079 32.101925 33.644732 1.162876 0.304009 0.046712 -0.020517 -35346.700000 0 0 1
3.634262 9.368179 30.546285 32.156588 1.200732 0.317807 0.049619 -0.018636 471081.000000 0 0 1
2.490062 8.598179 30.180385 31.479910 1.288905 0.288334 0.065160 -0.014790 33202.700000 0 0 1
2.187862 8.778979 28.830685 30.216975 1.326556 0.304082 0.046372 -0.004529 292309.000000 0 0 1
0.949362 7.960479 28.363445 29.474659 1.452098 0.275463 0.044160 -0.007901 1548410.000000 0 0 1
-0.310138 8.440979 28.891725 30.101131 -1.534071 0.284429 0.044822 0.002718 579110.000000 0 0 1
-1.417438 8.230379 28.063055 29.279401 -1.400249 0.289253 0.042928 -0.000788 858476.000000 0 0 1
-2.826738 8.608679 28.627375 30.027094 -1.253529 0.306535 0.029161 0.002094 568600.000000 0 0 1
-3.134638 9.973279 28.793355 30.632491 -1.266269 0.348280 0.035131 0.008969 -496627.000000 0 0 1
-4.417238 10.216579 29.280445 31.324670 -1.162708 0.363268 0.026097 0.015852 -430696.000000 0 0 1
-4.726938 11.687479 29.863245 32.415343 -1.186464 0.399466 0.021641 0.012761 9681.210000 0 0 1
-4.698138 12.768079 28.919255 31.959656 -1.218212 0.439728 0.020333 0.010603 -274057.000000 0 0 1
-5.695838 12.789179 27.943215 31.254262 -1.151804 0.464466 0.017094 0.006432 -344124.000000 0 0 1
-5.905538 14.208879 27.326395 31.360795 -1.176895 0.512839 0.013390 0.006989 278026.000000 0 0 1
-4.867038 14.576879 26.428985 30.572286 -1.248547 0.526691 0.000004 0.008663 5441.130000 0 0 1
-4.904038 15.963979 26.113495 30.996981 -1.272753 0.568977 0.007676 0.009120 -323862.000000 0 0 1
-3.683438 16.500279 25.380075 30.495493 -1.351163 0.587631 0.005512 0.008452 -500801.000000 0 0 1
-3.549938 16.078779 24.076545 29.168634 -1.353498 0.599840 0.000027 0.008338 -160960.000000 0 0 1
-2.509238 16.753479 23.397235 28.886085 -1.422127 0.626673 0.000334 0.006233 48749.000000 0 0 1
-2.402438 16.537779 21.889235 27.539216 -1.426536 0.652055 0.005221 0.005787 -32544.900000 0 0 1
-1.857538 15.256579 21.612135 26.519766 -1.449639 0.618163 0.015362 0.001537 -75612.800000 0 0 1
-1.981238 15.014579 20.251535 25.288091 -1.439600 0.642112 0.014176 -0.006006 -277905.000000 0 0 1
-1.077438 13.868379 19.795235 24.193886 -1.493262 0.612538 0.017855 -0.010027 -567052.000000 0 1 0
-1.565538 12.585679 20.078935 23.748976 -1.447042 0.563360 0.025524 -0.009367 -266798.000000 0 1 0
-1.043038 11.613479 19.250235 22.506274 -1.481224 0.544614 0.021147 -0.014389 -113124.000000 0 1 0
-2.067738 10.444979 19.050935 21.824556 -1.375358 0.509655 0.013006 -0.013600 -7582.660000 0 1 0
-2.264738 9.607479 20.170235 22.455980 -1.339296 0.455111 0.021719 -0.019382 158762.000000 0 1 0
-3.074838 10.116679 21.250735 23.735955 -1.275731 0.461698 0.024971 -0.006519 155118.000000 0 1 0
-4.605538 10.152879 21.046535 23.816980 -1.144937 0.487135 0.026910 -0.006439 -42061.700000 0 1 0
-5.235138 8.891179 20.905435 23.313021 -1.038652 0.458476 0.013740 -0.010142 -837246.000000 0 1 0
-6.612538 8.979279 21.041135 23.813493 -0.936042 0.487343 0.008235 -0.003147 -256750.000000 0 1 0
-7.366938 7.594279 20.983035 23.499630 -0.800592 0.467031 0.007981 -0.006211 145313.000000 0 1 0
-7.175238 6.818879 22.183135 24.291410 -0.759939 0.419705 -0.003552 -0.006871 127631.000000 0 1 0
-7.918438 5.611879 22.337435 24.354791 -0.616548 0.409882 0.000231 -0.004583 141970.000000 0 1 0
-7.619238 4.986779 23.695935 25.385391 -0.579531 0.366889 0.000923 -0.007617 -141730.000000 0 0 1
-8.392938 5.477279 24.756635 26.708294 -0.578205 0.384658 -0.001762 0.000111 -129173.000000 0 0 1
-8.535138 4.596779 25.898115 27.653052 -0.494026 0.358177 0.006640 0.010009 -580390.000000 0 0 1
-9.488738 5.098379 26.944905 29.018227 -0.493047 0.380306 0.001740 0.010711 -453278.000000 0 0 1
-8.971138 6.181779 27.730145 29.793567 -0.603355 0.374358 -0.000407 0.019759 273333.000000 0 0 1
-10.053938 6.775179 28.457345 30.932268 -0.592982 0.402744 0.005219 0.017109 608724.000000 0 0 1
-9.601638 7.946079 29.333715 31.871593 -0.691330 0.401766 0.014428 0.013771 -289965.000000 0 0 1
-8.710338 7.586679 30.321885 32.447564 -0.716558 0.363976 0.015696 0.013273 -423269.000000 0 0 1
-8.258938 8.697379 31.063075 33.298184 -0.811249 0.368480 0.021658 0.006621 418579.000000 0 0 1
-7.136038 8.385379 32.117505 33.952492 -0.865716 0.330272 0.033073 0.006451 -324788.000000 0 0 1
-5.866138 8.244679 31.565055 33.147232 -0.952390 0.310214 0.032989 0.004094 -1338580.000000 0 0 1
-5.119438 7.702779 32.606635 33.892980 -0.984210 0.276390 0.054679 0.001699 -881.319000 0 0 1
-3.580338 7.714479 32.388695 33.486707 -1.136274 0.256789 0.043128 0.004758 439597.000000 0 0 1
-3.078438 9.053779 32.410975 33.792292 -1.243043 0.286909 0.033964 0.002471 141078.000000 0 0 1
-1.665838 8.991279 32.211015 33.483841 -1.387601 0.276610 0.046383 -0.001968 557266.000000 0 0 1
-1.049038 10.278579 31.680625 33.322840 -1.469088 0.315253 0.043818 0.003336 -128678.000000 0 0 1
-0.987938 11.282579 32.693595 34.599765 -1.483456 0.333483 0.042194 -0.007516 -162470.000000 0 0 1
-1.435338 12.548479 32.266275 34.650209 -1.456908 0.373105 0.034438 -0.001950 -144614.000000 0 0 1
-1.401238 13.680579 33.334268 36.059605 -1.468727 0.391281 0.024992 -0.007276 170624.000000 0 0 1
-0.110738 14.169679 33.663556 36.524335 -1.562981 0.398421 0.042574 -0.011176 -124279.000000 0 0 1
-0.058938 14.898379 -33.978779 37.101517 -1.566840 2.728373 0.037525 -0.014170 -580327.000000 0 0 1
1.352462 15.206579 -33.509309 36.823131 1.482090 2.714097 0.038732 -0.012808 -891945.000000 0 0 1
1.941262 16.212079 -34.301476 37.989357 1.451622 2.697320 0.033180 -0.009994 688278.000000 0 0 1
3.327662 16.296279 -33.920839 37.779166 1.369368 2.685707 0.025385 -0.007819 819476.000000 0 0 1
4.070362 17.359679 34.077568 38.460459 1.340485 0.482060 0.032371 -0.005659 -66151.000000 0 0 1
3.500962 18.655579 34.270794 39.176200 1.385291 0.505802 0.033376 -0.004669 295713.000000 0 0 1
4.175062 19.635279 33.489793 39.045378 1.361286 0.539988 0.029865 0.005754 -189008.000000 0 0 1
3.539062 20.998379 33.562846 39.748226 1.403826 0.565378 0.043801 -0.005989 -442180.000000 0 0 1
3.822162 21.593079 -34.004789 40.462275 1.395602 2.568831 0.044404 -0.011564 349427.000000 0 0 1
3.204962 22.889679 -33.829399 40.971178 1.431683 2.542217 0.045634 -0.012206 178826.000000 0 0 1
3.533762 23.582979 -32.481869 40.295362 1.422059 2.508319 0.051980 -0.014908 183939.000000 0 0 1
2.922862 24.878579 -32.334049 40.902048 1.453847 2.482460 0.053324 -0.021718 307990.000000 0 0 1
3.332362 25.369679 -31.091279 40.266523 1.440192 2.452994 0.067387 -0.015423 -125135.000000 0 0 1
2.739262 26.719779 -30.678149 40.774980 1.468635 2.422459 0.064930 -0.018146 35138.900000 0 0 1
3.546462 27.805279 -31.159519 41.912129 1.443935 2.409009 0.049899 -0.018652 266828.000000 0 0 1
3.069362 29.072679 -30.801189 42.465926 1.465611 2.382289 0.041017 -0.022097 -471898.000000 0 0 1
4.141862 30.177479 -31.003969 43.463564 1.434398 2.365038 0.038700 -0.025902 -351621.000000 0 0 1
5.101262 30.068479 -30.002969 42.782174 1.402742 2.348010 0.034611 -0.024428 -694585.000000 0 0 1
5.629962 31.314879 -29.640199 43.484014 1.392911 2.320790 0.048687 -0.031724 22266.000000 0 0 1
6.847862 31.172979 -28.671069 42.903124 1.354558 2.302683 0.045845 -0.018294 88477.400000 0 0 1
8.042062 30.703079 -29.239799 43.154602 1.314621 2.315235 0.038577 -0.019117 -602802.000000 0 0 1
9.124662 31.560279 -29.314179 44.029896 1.289352 2.299334 0.050377 -0.016631 -453767.000000 0 0 1
9.058662 32.782279 -30.218729 45.496250 1.301196 2.297223 0.067944 -0.022288 -1176830.000000 0 0 1
8.266062 33.750279 -29.578899 45.632449 1.330606 2.276013 0.060929 -0.027609 120852.000000 0 0 1
7.758562 -34.183643 -30.338399 46.358766 -1.347610 2.284220 0.049778 -0.028296 45643.800000 0 0 1
6.525262 -34.470143 -31.215789 46.959507 -1.383708 2.297940 0.026844 -0.022454 -572120.000000 0 0 1
6.848362 33.840379 -32.356529 47.318245 1.371121 2.323763 0.026923 -0.024051 -522284.000000 0 0 1
5.704862 33.378179 -32.980389 47.268957 1.401516 2.343003 0.035927 -0.025047 -665162.000000 0 0 1
5.919562 32.685579 -34.382163 47.807127 1.391632 2.373425 0.036144 -0.018901 115471.000000 0 0 1
6.461762 33.655579 33.575755 47.976908 1.381108 0.795635 0.029570 -0.024691 289304.000000 0 0 1
6.720962 33.108979 32.288325 46.732341 1.370522 0.808035 0.025051 -0.021517 562131.000000 0 0 1
5.606262 33.470979 31.216355 46.110708 1.404841 0.827135 0.021935 -0.026292 783056.000000 0 0 1
5.673262 -34.183943 30.847885 46.393101 -1.406333 0.843404 0.024636 -0.023924 -293116.000000 0 0 1
4.654462 -33.861443 29.957265 45.449962 -1.434196 0.851140 0.017091 -0.027973 -359131.000000 0 0 1
17.632911 -21.586721 29.729465 40.752266 -0.885871 0.753181 0.050907 0.001466 207828.000000 0 0 1
16.541611 -20.660821 29.822435 39.873200 -0.895673 0.725856 0.049902 0.006516 1473650.000000 0 0 1
15.208611 -21.220321 29.857785 39.662214 -0.948950 0.718488 0.047410 0.008774 1116380.000000 0 0 1
14.768911 -21.715721 31.295705 40.854797 -0.973550 0.698165 0.037186 -0.002193 -541302.000000 0 0 1
15.454511 -22.849821 31.822565 42.114509 -0.976119 0.714196 0.047656 -0.011126 262560.000000 0 0 1
15.018411 -23.139721 33.138984 43.118344 -0.995102 0.694211 0.039688 -0.003376 -43215.000000 0 0 1
15.832811 -24.208321 33.939846 44.594101 -0.991598 0.705814 0.044654 -0.013563 -235147.000000 0 0 1
15.544311 -25.546241 33.643772 45.012658 -1.024167 0.726613 0.045510 -0.017557 -193160.000000 0 0 1
16.323211 -26.434041 -34.425075 46.371236 -1.017603 2.407412 0.049260 -0.020890 -6514.420000 0 0 1
16.198811 -27.921121 34.167690 47.004484 -1.045090 0.756995 0.033370 -0.010490 85625.000000 0 0 1
16.661011 -28.352891 32.873110 46.498571 -1.039522 0.785591 0.023663 -0.016356 217573.000000 0 0 1
16.115711 -29.625781 32.481055 46.823306 -1.072590 0.804191 0.024897 -0.010726 34185.600000 0 0 1
16.738411 -30.216301 31.145595 46.510723 -1.064923 0.837068 0.031565 -0.009127 -170821.000000 0 0 1
17.951011 -30.816581 31.518255 47.595177 -1.043335 0.847025 0.031717 -0.020446 -504249.000000 0 0 1
18.562611 -31.372771 30.382375 47.454294 -1.036518 0.875979 0.021411 -0.008835 -219193.000000 0 0 1
19.634111 -32.481501 30.556965 48.726526 -1.027096 0.892957 0.000050 -0.006594 1057000.000000 0 0 1
20.879311 -31.914141 31.061495 49.186121 -0.991451 0.887298 -0.003317 -0.007753 1073790.000000 0 0 1
21.876811 -32.916621 31.172765 50.337263 -0.984217 0.902973 0.003432 -0.008441 20744.100000 0 0 1
23.201811 -32.340321 31.735335 50.905323 -0.948470 0.897689 -0.001037 -0.022557 -187359.000000 0 0 1
23.869711 -31.504341 30.857205 50.144329 -0.922408 0.907944 -0.007890 -0.010567 -813062.000000 0 0 1
24.787211 -30.695621 31.492705 50.481853 -0.891489 0.897147 -0.007573 0.000885 -478483.000000 0 0 1
25.860211 -30.150771 30.526095 50.096527 -0.861851 0.915561 -0.006312 0.004100 -683201.000000 0 0 1
26.820811 -31.103401 30.296125 51.035602 -0.859198 0.935238 -0.004133 0.007108 -1134000.000000 0 0 1
27.792811 -30.636771 29.400975 50.749083 -0.834033 0.952878 -0.007957 -0.015453 -831618.000000 0 0 1
28.929011 -31.623361 29.340195 51.940078 -0.829865 0.970502 -0.003511 -0.014494 -909164.000000 0 0 1
28.609011 -32.892951 28.785245 52.239947 -0.854941 0.987211 -0.016754 -0.011709 -54196.600000 0 0 1
29.642911 -33.834231 29.070675 53.558954 -0.851331 0.997054 -0.008617 -0.017519 -698085.000000 0 0 1
29.261411 33.823735 29.679315 53.676223 0.857593 0.984917 -0.021853 -0.017294 -714060.000000 0 0 1
28.755511 33.789070 31.044675 54.151200 0.865705 0.960273 -0.007984 -0.010114 -117220.000000 0 0 1
27.684611 -34.443552 31.438675 54.232705 -0.893762 0.952436 -0.010790 -0.005689 -301021.000000 0 0 1
26.338211 34.446658 30.658585 53.105766 0.918011 0.955364 -0.006717 -0.006112 -421287.000000 0 0 1
25.730611 33.202009 30.999345 52.205336 0.911504 0.935027 -0.001960 -0.010303 763408.000000 0 0 1
24.348311 33.210629 30.586585 51.296445 0.938168 0.931948 -0.002058 -0.013296 782516.000000 0 0 1
23.743311 31.843571 30.555465 50.113813 0.930102 0.915087 0.014687 -0.024685 -460565.000000 0 0 1
24.107111 31.061761 29.439435 49.118898 0.910798 0.928107 0.014889 -0.026604 213405.000000 0 0 1
23.540411 29.757381 29.543265 48.088015 0.901519 0.909224 0.039497 -0.037994 -363644.000000 0 0 1
22.948011 29.388531 28.198695 46.748940 0.907842 0.923296 0.029848 -0.030760 -349097.000000 0 0 1
21.731911 30.024701 27.865725 46.370866 0.944274 0.926130 0.041096 -0.034749 11536.000000 0 0 1
21.202811 29.500771 26.655915 45.059877 0.947616 0.937796 0.035082 -0.024802 485542.000000 0 0 1
19.794211 30.126121 26.379415 44.668417 0.989485 0.939043 0.064220 -0.026982 560701.000000 0 0 1
19.848711 31.359351 25.744775 45.168281 1.006505 0.964321 0.054910 -0.025091 -1014840.000000 0 0 1
18.562711 31.754261 25.456825 44.732061 1.041797 0.965391 0.053272 -0.018294 -1109360.000000 0 0 1
18.480711 33.171558 24.809925 45.358806 1.062499 0.992055 0.058096 -0.017090 -45405.200000 0 0 1
19.176311 33.308284 23.553335 45.076959 1.048420 1.021000 0.058500 -0.014175 523488.000000 0 0 1
20.519611 33.749606 23.715735 46.070885 1.024518 1.030061 0.057288 -0.017441 240889.000000 0 0 1
21.225511 34.127473 22.389335 46.005316 1.014395 1.062524 0.060290 -0.016230 -16273.100000 0 0 1
20.923411 -33.596541 21.992435 45.278956 -1.013792 1.063621 0.070437 -0.010796 315996.000000 0 0 1
21.410111 -33.427551 20.661135 44.751274 -1.001133 1.090899 0.075419 -0.014791 -49636.500000 0 0 1
21.045711 -32.047841 20.148735 43.312326 -0.989728 1.086940 0.053594 -0.011884 -87606.100000 0 0 1
21.784711 -30.990251 20.718035 43.176455 -0.958091 1.070318 0.044801 -0.004021 542558.000000 0 0 1
21.185811 -29.748711 20.255435 41.762508 -0.951957 1.064416 0.051011 -0.010214 214647.000000 0 0 1
21.844111 -29.098271 19.022535 41.057659 -0.926847 1.089067 0.033087 -0.003998 -246055.000000 0 0 1
21.590911 -29.765361 17.819835 40.861849 -0.943245 1.119537 0.017647 -0.021041 136520.000000 0 0 1
21.926111 -28.981701 16.652935 39.975162 -0.923116 1.141114 0.014632 -0.017510 -296110.000000 0 0 1
21.527211 -29.604841 15.231335 39.646702 -0.942079 1.176481 0.005424 -0.012912 -95905.000000 0 0 1
22.167611 -30.848781 14.985535 40.836461 -0.947703 1.195052 0.025923 -0.011276 63654.900000 0 0 1
22.369611 -31.161691 13.606635 40.701241 -0.948187 1.229928 0.019839 -0.008702 122724.000000 0 0 1
21.178911 -31.384691 12.617735 39.909301 -0.977173 1.249117 0.008338 -0.012737 285166.000000 0 0 1
20.351711 -32.530451 12.817235 40.456197 -1.011751 1.248424 0.015820 -0.002273 71313.600000 0 0 1
19.308011 -32.594551 11.871535 39.700597 -1.036007 1.267124 0.018880 0.007788 374205.000000 0 0 1
18.203711 -33.650691 12.242235 40.169845 -1.074919 1.261108 0.024120 0.010509 480770.000000 0 0 1
17.623311 -33.382571 13.555535 40.108972 -1.085063 1.226040 0.025807 0.006790 522071.000000 0 0 1
18.448211 -33.805611 14.640835 41.200848 -1.071249 1.207505 0.017772 0.004925 -1596050.000000 0 0 1
18.523211 -32.777611 15.803235 40.831647 -1.056421 1.173384 0.035298 -0.007338 186460.000000 0 0 1
17.242411 -32.360211 16.234035 40.100223 -1.081233 1.153996 0.029688 -0.021132 -48335.000000 0 0 1
16.207211 -33.251491 16.522135 40.513162 -1.117269 1.150730 0.022060 -0.016430 -1174230.000000 0 0 1
16.172911 -33.991544 17.865735 41.667405 -1.126702 1.127665 0.025367 -0.017914 -636032.000000 0 0 1
17.100311 33.981965 18.083235 42.121230 1.104578 1.127063 0.013813 -0.009452 -6350.860000 0 0 1
17.067011 33.521019 19.452735 42.347969 1.099861 1.093528 0.020085 -0.005778 -65076.100000 0 0 1
18.050111 32.362051 19.565235 41.903547 1.062018 1.085002 0.018778 -0.002644 -149097.000000 0 0 1
17.515311 31.131821 19.063135 40.489252 1.058318 1.080577 -0.008292 -0.002230 -203040.000000 0 0 1
18.514511 30.124851 18.971735 40.127553 1.019716 1.078347 -0.001333 -0.010435 -363004.000000 0 0 1
18.025411 28.708721 18.734335 38.730884 1.010134 1.065913 0.000251 -0.001775 -130674.000000 0 0 1
17.395811 28.112461 19.872935 38.572765 1.016672 1.029548 0.008644 -0.015562 121870.000000 0 0 1
17.211911 26.739011 19.599635 37.354655 0.998862 1.018445 0.010227 -0.010225 -614988.000000 0 0 1
17.093711 25.969261 20.962335 37.496893 0.988658 0.977566 0.025911 0.001016 581167.000000 0 0 1
15.793311 25.967951 21.574535 37.272291 1.024380 0.953496 0.025721 0.004507 632893.000000 0 0 1
14.900011 24.981991 21.107035 35.939075 1.033006 0.943077 0.018644 0.002760 -1009680.000000 0 0 1
13.555311 25.114561 21.768735 35.893808 1.075865 0.919175 0.024216 -0.004865 -909300.000000 0 0 1
12.869611 26.248011 21.330435 36.188015 1.114932 0.940439 0.027428 -0.005305 -351888.000000 0 0 1
11.657011 26.512201 21.997335 36.368468 1.156554 0.921223 0.027816 -0.008218 177445.000000 0 0 1
10.778211 27.586881 21.319035 36.492562 1.198332 0.946900 0.023012 -0.018757 20582.300000 0 0 1
11.291211 28.896631 21.594635 37.799934 1.198294 0.962722 0.014376 -0.015208 70939.600000 0 0 1
10.915011 29.753801 20.525735 37.758865 1.219195 0.996076 0.017516 -0.016803 44654.000000 0 0 1
11.558511 31.166951 20.557235 39.084241 1.215662 1.016938 0.018755 -0.027251 -197717.000000 0 0 1
10.972311 32.066521 21.469635 40.119803 1.241111 1.006125 0.014001 -0.026030 -276560.000000 0 0 1
11.534611 31.969121 22.786435 40.918132 1.224528 0.980173 -0.002014 -0.018669 -706320.000000 0 0 1
10.887111 32.840411 23.892135 42.045878 1.250683 0.966431 0.006732 -0.019743 -1061570.000000 0 0 1
9.639711 32.321631 24.184455 41.503008 1.280952 0.948730 0.012861 -0.022893 -831538.000000 0 0 1
9.091911 33.165886 25.235055 42.654974 1.303235 0.937744 0.010924 -0.015204 510083.000000 0 0 1
7.709211 32.761821 25.854315 42.440717 1.339690 0.915762 0.035059 -0.026044 872467.000000 0 0 1
6.544611 33.448552 25.380605 42.494854 1.377575 0.930712 0.028919 -0.024331 785446.000000 0 0 1
5.877111 32.821121 24.264825 41.237703 1.393609 0.941701 0.026283 -0.028794 356986.000000 0 0 1
5.051911 31.496441 24.419605 40.172935 1.411755 0.917431 0.029333 -0.030031 284283.000000 0 0 1
5.884311 30.405761 24.908015 39.743485 1.379633 0.893460 0.023698 -0.024962 -10800.200000 0 0 1
5.298711 29.144051 24.756575 38.604922 1.390950 0.874631 0.026506 -0.016826 -472422.000000 0 0 1
6.382811 28.028581 24.861285 38.005593 1.346890 0.857741 0.010587 -0.009803 44991.600000 0 0 1
7.408611 27.945611 23.858845 37.484519 1.311649 0.880846 0.003632 -0.001313 994079.000000 0 0 1
8.408711 28.980161 23.956305 38.528700 1.288397 0.899785 0.009741 0.001274 -687552.000000 0 0 1
9.494111 28.759261 24.997675 39.269797 1.251937 0.880764 0.009996 -0.001175 -1810540.000000 0 0 1
9.109811 28.680781 26.345865 39.996005 1.263247 0.851690 0.006445 0.004150 -97616.100000 0 0 1
10.178611 28.438771 27.259935 40.687490 1.227089 0.836610 0.015813 0.008485 99803.400000 0 0 1
11.219811 29.561581 27.333935 41.796115 1.208051 0.857959 0.006359 0.005094 -564084.000000 0 0 1
10.761611 30.733711 27.974115 42.929295 1.233982 0.861062 0.007669 -0.001050 -33923.600000 0 0 1
11.790311 31.664011 27.920865 43.831447 1.214345 0.880189 0.021173 0.004361 -104019.000000 0 0 1
11.284311 32.935181 28.659115 45.093311 1.240710 0.882074 0.012034 -0.003832 125028.000000 0 0 1
11.265011 32.998031 30.075415 46.046727 1.241817 0.859060 0.013181 -0.010664 68410.700000 0 0 1
10.347311 32.145961 30.735175 45.662683 1.259384 0.832415 0.015360 -0.007019 -303910.000000 0 0 1
10.504211 32.116611 32.283025 46.733380 1.254698 0.808213 0.033825 -0.017844 -164422.000000 0 0 1
10.015011 30.961251 32.963287 46.319302 1.257950 0.778947 0.037048 -0.023137 35654.400000 0 0 1
10.273411 31.093171 34.348222 47.456597 1.251681 0.761529 0.052949 -0.016343 -153514.000000 0 0 1
10.298511 29.707761 -33.903169 46.238893 1.237100 2.393838 0.039132 -0.012768 74608.000000 0 0 1
11.500111 28.984391 -34.187905 46.272674 1.193078 2.402137 0.034559 0.003043 492642.000000 0 0 1
11.411311 27.630231 -33.846409 45.157802 1.179133 2.418124 0.031701 -0.001361 -36340.500000 0 0 1
12.640311 26.808961 -34.305990 45.336506 1.130211 2.429042 0.018064 -0.001653 169410.000000 0 0 1
12.561511 25.452051 -33.950849 44.252216 1.112333 2.445280 0.012919 -0.003013 -208031.000000 0 0 1
12.845211 25.132741 -32.615569 43.132696 1.098312 2.428234 0.023034 -0.001322 -165345.000000 0 0 1
12.628011 23.626101 -32.388809 42.032062 1.079936 2.450537 0.018427 -0.016040 -443150.000000 0 0 1
13.503611 22.826101 -33.098189 42.413070 1.036586 2.466065 0.007981 -0.009648 -327706.000000 0 0 1
13.458011 21.498001 -32.744769 41.418619 1.011469 2.482553 0.006480 -0.004257 196652.000000 0 0 1
14.686011 20.760701 -33.387209 41.968933 0.955125 2.490665 0.014271 -0.008779 49272.800000 0 0 1
15.865811 21.241401 -32.809719 42.182920 0.929264 2.461948 0.030870 -0.016486 -28184.400000 0 0 1
16.988611 20.552901 -33.405519 42.742992 0.880057 2.467933 0.029110 -0.010749 1034930.000000 0 0 1
18.270411 20.615901 -32.497259 42.601586 0.845642 2.438456 0.030533 -0.015514 126971.000000 0 0 1
18.949711 21.835401 -32.575879 43.555300 0.856034 2.415719 0.031285 -0.012469 -72181.800000 0 0 1
20.111211 21.909701 -31.785079 43.529152 0.828172 2.389414 0.031008 -0.009694 241969.000000 0 0 1
19.722211 22.208701 -30.279009 42.414743 0.844628 2.365819 0.029721 -0.010699 204328.000000 0 0 1
19.065311 23.483601 -30.158769 42.714365 0.888868 2.354711 0.026964 -0.005530 8621.820000 0 0 1
18.750911 23.800901 -28.845169 41.834475 0.903524 2.331605 0.033900 0.001636 195346.000000 0 0 1
19.868211 24.419641 -27.912559 42.073455 0.887808 2.296183 0.026397 0.008152 426418.000000 0 0 1
20.544711 25.552021 -28.454509 43.412556 0.893600 2.285567 0.028188 0.012170 -31462.400000 0 0 1
19.776611 26.749401 -28.550619 43.838142 0.934160 2.280058 0.021251 0.013603 -465964.000000 0 0 1
20.519311 27.840011 -29.321459 45.341552 0.935639 2.274020 0.018394 0.016521 -460251.000000 0 0 1
20.644111 27.688491 -30.750159 46.242882 0.930127 2.298251 0.017845 0.014724 213792.000000 0 0 1
21.369511 26.577691 -31.298359 46.288410 0.893597 2.313334 0.018292 0.009174 -440152.000000 0 0 1
22.810711 26.316321 -30.875489 46.542165 0.856635 2.296133 0.028139 0.006217 -893152.000000 0 0 1
23.712211 27.266851 -31.360689 47.846034 0.855013 2.285575 0.029935 0.006849 -243306.000000 0 0 1
25.045311 26.856881 -31.167199 48.165900 0.820288 2.274545 0.040668 -0.002857 573029.000000 0 0 1
26.226811 27.817161 -31.561489 49.575878 0.814817 2.260917 0.033000 0.003863 568963.000000 0 0 1
26.303411 28.934631 -30.702289 49.716324 0.832996 2.236420 0.025700 0.009023 -576620.000000 0 0 1
27.485011 29.605211 -30.964949 50.899140 0.822519 2.224788 0.028961 -0.000497 -467337.000000 0 0 1
27.545911 30.945141 -30.253799 51.299818 0.843448 2.201539 0.020783 0.011506 -161178.000000 0 0 1
28.021411 30.824611 -28.930279 50.718016 0.832998 2.177806 0.034019 0.008898 -235946.000000 0 0 1
27.301211 31.574861 -28.015479 50.271215 0.857858 2.161911 0.033130 0.013044 -781651.000000 0 0 1
27.755511 31.494011 -26.559479 49.675417 0.848412 2.134902 0.041382 0.013517 -224248.000000 0 0 1
27.575611 30.278191 -25.847239 48.427915 0.832078 2.133797 0.037420 0.021364 469569.000000 0 0 1
26.210411 29.910361 -25.668959 47.334034 0.851231 2.143961 0.041242 0.018960 397798.000000 0 0 1
25.717911 29.907871 -24.171699 46.261893 0.860580 2.120573 0.044862 0.024690 19743.300000 0 0 1
25.356811 31.201091 -23.710099 46.675955 0.888365 2.103626 0.066534 0.019528 514374.000000 0 0 1
24.686911 31.124731 -22.411899 45.612341 0.900240 2.084442 0.044163 0.024145 536191.000000 0 0 1
2.836011 -26.512811 -20.278999 33.499402 -1.464234 2.221007 0.032296 -0.021673 10126.000000 0 0 1
2.533711 -27.393171 -19.187999 33.540794 -1.478564 2.179835 0.021747 -0.006726 132136.000000 0 0 1
2.880911 -26.777931 -17.975499 32.380176 -1.463623 2.159326 0.035399 -0.006457 -94099.700000 0 0 1
2.742511 -27.652811 -16.678899 32.409644 -1.471943 2.111370 0.037890 -0.012235 60044.600000 0 0 1
3.721611 -28.669261 -16.605399 33.339409 -1.441706 2.092169 0.049255 -0.009451 -89763.800000 0 0 1
3.768811 -29.038201 -15.252499 33.016054 -1.441730 2.051014 0.048971 -0.020891 -102189.000000 0 0 1
4.975211 -29.938711 -14.889899 33.805151 -1.406121 2.026910 0.084531 -0.009863 -107481.000000 0 0 1
6.120811 -29.115231 -14.705099 33.187361 -1.363587 2.029843 0.061554 -0.007975 -49387.700000 0 0 1
7.329411 -29.860921 -14.559199 34.020070 -1.330103 2.013030 0.068928 -0.001795 526685.000000 0 0 1
7.618411 -30.553031 -13.207399 34.146205 -1.326429 1.967944 0.070148 -0.002752 -992318.000000 0 0 1
7.819411 -29.622531 -12.099699 32.939949 -1.312715 1.946929 0.062372 -0.006185 -19996.900000 0 0 1
8.036611 -30.299651 -10.851999 33.172607 -1.311528 1.904069 0.068446 -0.007794 228838.000000 0 0 1
9.214611 -31.285411 -10.693399 34.322511 -1.284362 1.887627 0.064104 0.000339 62323.300000 0 0 1
10.519111 -30.762231 -10.609399 34.198332 -1.241312 1.886233 0.063094 -0.009986 255564.000000 0 0 1
11.522011 -31.749221 -10.409199 35.342909 -1.222670 1.869750 0.049954 -0.004175 310808.000000 0 0 1
12.621711 -31.344051 -9.407499 35.075036 -1.187979 1.842331 0.038200 0.001711 -332379.000000 0 0 1
13.694111 -30.628341 -9.946599 34.993696 -1.150352 1.859010 0.028605 -0.012325 45589.900000 0 0 1
14.718311 -30.525661 -8.973399 35.056619 -1.121521 1.829646 0.020905 -0.008955 1008700.000000 0 0 1
15.977511 -29.592981 -9.320699 34.898436 -1.075734 1.841159 0.012659 -0.012116 1007090.000000 0 0 1
15.788711 -28.172301 -9.548999 33.677074 -1.059978 1.858286 0.023517 -0.014461 496055.000000 0 0 1
14.815811 -27.903691 -10.586799 33.319732 -1.082687 1.894135 0.018012 -0.016158 242249.000000 0 0 1
14.563111 -26.402071 -10.825999 32.036789 -1.066733 1.915507 0.027776 -0.016046 -499524.000000 0 0 1
13.816311 -25.727051 -9.784099 30.797731 -1.077962 1.894088 0.023575 -0.015043 838730.000000 0 0 1
13.196311 -24.448421 -10.070299 29.551292 -1.075848 1.918536 0.008564 -0.005533 977344.000000 0 0 1
12.401211 -24.239921 -11.448099 29.536804 -1.097910 1.968810 -0.005468 -0.006101 183690.000000 0 0 1
13.339411 -23.834221 -12.380099 29.987945 -1.060556 1.996362 -0.002274 -0.004937 -384332.000000 0 0 1
12.708511 -23.818221 -13.601199 30.229233 -1.080661 2.037489 0.002984 -0.007234 116495.000000 0 0 1
13.614311 -23.379421 -14.769999 30.823687 -1.043478 2.070513 -0.003260 -0.006328 -244410.000000 0 0 1
14.619711 -24.237721 -15.216099 32.136160 -1.028042 2.064043 0.001802 -0.002695 -155174.000000 0 0 1
15.082711 -23.700521 -16.463799 32.561627 -1.004050 2.100896 0.002932 -0.013045 -1511140.000000 0 0 1
16.017211 -24.632921 -17.221999 34.057732 -0.994255 2.100956 0.005730 -0.011874 77056.400000 0 0 1
17.282811 -24.860521 -16.633499 34.545830 -0.963305 2.073151 0.021566 -0.010209 346318.000000 0 0 1
18.159711 -23.725621 -16.577699 34.168704 -0.917509 2.077356 0.021315 -0.015503 -760295.000000 0 0 1
19.600611 -24.090821 -16.181599 35.019934 -0.887810 2.051122 0.019960 -0.008396 -233204.000000 0 0 1
20.415611 -24.594521 -17.169399 36.283273 -0.877977 2.063721 0.032689 0.000532 -637426.000000 0 0 1
21.715711 -24.850021 -16.703799 36.988006 -0.852606 2.039355 0.047227 0.015188 -134177.000000 0 0 1
22.428411 -25.886231 -17.587299 38.502515 -0.856845 2.045172 0.029352 0.015627 -309132.000000 0 0 1
22.970511 -25.418571 -18.848399 39.102561 -0.835946 2.073760 0.040962 0.015698 138337.000000 0 0 1
23.429911 -26.539561 -19.611599 40.471272 -0.847549 2.076680 0.029866 0.009569 214441.000000 0 0 1
24.448911 -26.065911 -20.743099 41.321388 -0.817398 2.096699 0.024431 0.013041 382806.000000 0 0 1
24.102811 -24.999171 -21.684599 40.940517 -0.803651 2.128997 0.035846 0.007993 -220594.000000 0 0 1
24.505511 -23.736421 -21.193299 40.163338 -0.769457 2.126661 0.045166 0.011073 -505387.000000 0 0 1
23.553111 -22.647421 -21.637299 39.189634 -0.765797 2.155699 0.064141 0.006084 -674952.000000 0 0 1
23.788011 -22.046221 -22.907999 39.707452 -0.747414 2.185748 0.061925 0.006567 -46167.500000 0 0 1
23.515611 -22.944921 -23.997699 40.685906 -0.773115 2.201643 0.043308 -0.000715 -631443.000000 0 0 1
22.688211 -22.305321 -25.063699 40.502732 -0.776888 2.238030 0.040688 -0.009959 -405908.000000 0 0 1
23.314311 -21.245421 -25.802109 40.751366 -0.739002 2.256425 0.043599 -0.000260 -217763.000000 0 0 1
22.380411 -20.664221 -26.643649 40.469456 -0.745549 2.289440 0.033630 0.006156 -295262.000000 0 0 1
23.068511 -19.919321 -27.800819 41.253134 -0.712271 2.310282 0.035885 0.010241 -7032.770000 0 0 1
22.109511 -19.179321 -28.498589 40.851517 -0.714549 2.342858 0.036288 0.013363 273465.000000 0 0 1
22.650711 -18.733921 -29.721869 41.801962 -0.691036 2.361739 0.047187 0.002068 68637.300000 0 0 1
21.744911 -17.661921 -30.364699 41.313431 -0.682155 2.396439 0.062026 0.002908 201021.000000 0 0 1
20.448411 -18.091821 -30.737399 41.112519 -0.724328 2.415299 0.059938 0.001829 94936.400000 0 0 1
19.674711 -17.075621 -31.281489 40.708754 -0.714793 2.447167 0.064356 -0.006766 -480519.000000 0 0 1
18.415411 -17.718521 -31.872499 40.852534 -0.766114 2.465756 0.058534 -0.010380 -341750.000000 0 0 1
18.726311 -18.482421 -33.023149 42.223252 -0.778844 2.468838 0.060031 -0.004297 782663.000000 0 0 1
17.543311 -19.161521 -33.423209 42.332524 -0.829457 2.480855 0.057503 -0.013967 128609.000000 0 0 1
17.780111 -20.075221 34.249896 43.499451 -0.845952 0.664275 0.070068 -0.013154 -209737.000000 0 0 1
18.537511 -21.211421 -34.311492 44.394169 -0.852567 2.454168 0.082065 -0.017974 126653.000000 0 0 1
18.785511 -22.038621 33.420463 44.221302 -0.864916 0.713990 0.068970 -0.020399 -74233.200000 0 0 1
19.684111 -23.267221 33.768216 45.487583 -0.868628 0.734209 0.053352 -0.017958 204683.000000 0 0 1
19.048311 -24.249021 -34.226108 46.068207 -0.904942 2.408255 0.062204 -0.022619 218721.000000 0 0 1
19.255211 -23.965021 -32.862949 45.000654 -0.893942 2.389524 0.072079 -0.021415 133290.000000 0 0 1
18.309911 -24.817321 -31.948409 44.405553 -0.935157 2.373833 0.070574 -0.017861 104662.000000 0 0 1
18.561411 -26.230761 -31.905559 45.282927 -0.954975 2.352631 0.068170 -0.024711 389834.000000 0 0 1
19.808311 -26.712941 -31.396939 45.735306 -0.932741 2.327450 0.058425 -0.023164 446093.000000 0 0 1
19.827911 -28.200561 -31.538759 46.723774 -0.957991 2.311767 0.046930 -0.022556 -34418.900000 0 0 1
18.833011 -28.778561 -30.726559 46.119511 -0.991326 2.299949 0.050699 -0.024591 -53364.500000 0 0 1
19.040111 -30.171481 -30.663049 47.043243 -1.007849 2.280759 0.040028 -0.018403 293737.000000 0 0 1
17.699511 -30.858361 -30.245599 46.693762 -1.050035 2.275416 0.053623 -0.017865 132968.000000 0 0 1
16.581711 -30.814471 -31.065569 46.792674 -1.077124 2.296816 0.051288 -0.021710 -394656.000000 0 0 1
16.700511 -31.346381 -32.368759 48.054545 -1.081275 2.309843 0.045469 -0.017426 -1317910.000000 0 0 1
15.351611 -31.816471 -32.856099 48.243995 -1.121242 2.319979 0.045150 -0.024440 -576776.000000 0 0 1
14.523211 -30.828481 -33.415249 47.727327 -1.130537 2.346373 0.050659 -0.023599 875171.000000 0 0 1
13.276011 -31.433201 -33.875359 48.081582 -1.171167 2.352570 0.027536 -0.016926 1287910.000000 0 0 1
12.300411 -30.419341 34.306898 47.472093 -1.186536 0.763132 0.033905 -0.003675 -40444.400000 0 0 1
11.568811 -29.670111 -33.671189 46.345462 -1.199014 2.384049 0.044939 -0.011951 -414592.000000 0 0 1
10.671111 -28.802131 -34.320920 46.058234 -1.215979 2.411576 0.022567 -0.003553 250546.000000 0 0 1
9.796811 -27.906401 -33.404969 44.616552 -1.233178 2.416914 0.027844 -0.003331 714546.000000 0 0 1
8.865511 -28.644571 -32.606589 44.297837 -1.270646 2.398052 0.027689 -0.000874 -294376.000000 0 0 1
7.853511 -27.898451 -32.031549 43.197469 -1.296394 2.406121 -0.010214 0.004523 -788560.000000 0 0 1
6.885611 -28.706301 -31.215739 42.963772 -1.335380 2.384098 -0.012484 0.009372 -367104.000000 0 0 1
5.875111 -29.348211 -31.992909 43.810737 -1.373222 2.389488 -0.001889 0.010801 118782.000000 0 0 1
6.191611 -30.623281 -32.502389 45.083552 -1.371299 2.375949 0.007502 0.005710 49980.200000 0 0 1
4.925211 -31.394341 -33.006639 45.818125 -1.415183 2.375152 0.022287 -0.004848 363378.000000 0 0 1
4.206911 -31.837161 -31.894519 45.261057 -1.439419 2.352767 0.012777 -0.011705 86773.600000 0 0 1
3.153011 -32.747141 -32.174579 46.016522 -1.474809 2.345069 0.027845 -0.034046 -451014.000000 0 0 1
2.225411 -33.137481 -31.031459 45.453235 -1.503740 2.322264 0.022372 -0.039080 10726.700000 0 0 1
1.328011 -32.145601 -30.564319 44.376580 -1.529507 2.330558 0.002375 -0.024361 1305240.000000 0 0 1
0.035611 -32.194871 -31.242399 44.861994 -1.569690 2.341181 0.002006 0.003077 1201940.000000 0 0 1
-0.970189 -31.110491 -30.702599 43.720173 1.539621 2.349353 -0.010772 0.004174 69726.800000 0 0 1
-1.406889 -31.402791 -29.403489 43.042767 1.526025 2.322826 -0.006069 -0.001732 -105698.000000 0 0 1
-2.153289 -30.332221 -28.871619 41.931500 1.499925 2.330274 0.004905 -0.000861 71896.700000 0 0 1
-2.735789 -30.548451 -27.432519 41.148943 1.481479 2.300520 0.010331 -0.009552 446863.000000 0 0 1
-1.731389 -30.442791 -26.415659 40.342884 1.513984 2.284686 -0.003964 0.000919 157222.000000 0 0 1
-2.304289 -30.680091 -25.181979 39.758141 1.495830 2.256709 -0.000350 -0.005440 -327938.000000 0 0 1
-1.335289 -30.821671 -24.045699 39.114627 1.527500 2.232865 -0.009057 0.003516 -395694.000000 0 0 1
-2.024589 -30.649511 -22.858499 38.288412 1.504836 2.210563 0.006398 -0.008398 447503.000000 0 0 1
-1.120689 -30.951531 -21.776399 37.861125 1.534604 2.183602 0.003739 -0.000015 904383.000000 0 0 1
-1.879389 -30.676281 -20.443799 36.912264 1.509608 2.157776 -0.004303 0.010541 438615.000000 0 0 1
-1.950289 -29.293141 -20.031299 35.540747 1.504316 2.169552 0.004325 -0.010980 -451521.000000 0 0 1
-0.738389 -28.886771 -19.466199 34.841407 1.545240 2.163624 0.023202 -0.016011 -230011.000000 0 0 1
-0.814989 -27.450931 -18.886499 33.330432 1.541116 2.173224 0.024065 -0.026029 50680.000000 0 0 1
-1.697789 -27.286911 -17.769699 32.607058 1.508657 2.147143 0.014007 -0.018038 122783.000000 0 0 1
-1.565689 -26.024631 -17.207199 31.238126 1.510707 2.154166 0.017922 -0.022758 413643.000000 0 0 1
-2.559789 -25.918001 -15.986399 30.559127 1.472351 2.121316 0.008903 -0.014109 115212.000000 0 0 1
-2.587389 -24.588821 -15.482199 29.171959 1.465956 2.130248 0.013811 -0.010775 526159.000000 0 0 1
-3.460089 -24.572421 -14.337999 28.659280 1.430904 2.094732 0.000115 -0.008088 136758.000000 0 0 1
-3.155889 -23.433321 -13.378799 27.167489 1.436927 2.085706 0.006874 -0.006481 -538990.000000 0 0 1
-1.934989 -23.609821 -12.724199 26.890018 1.489022 2.063709 0.015556 -0.011289 -499782.000000 0 0 1
-1.684389 -22.584021 -11.826599 25.548848 1.496351 2.052062 0.019010 -0.005594 -259084.000000 0 0 1
-0.335389 -22.686421 -11.118499 25.266721 1.556014 2.026445 0.015644 -0.006212 -157543.000000 0 0 1
-0.009189 -21.483121 -10.348599 23.845714 1.570369 2.019704 0.011672 -0.001840 402988.000000 0 1 0
1.291611 -21.670821 -9.771599 23.807077 -1.511265 1.993743 0.012927 -0.003749 1065750.000000 0 1 0
2.023611 -20.326821 -9.422399 22.495694 -1.471570 2.002979 0.015874 0.005743 -437061.000000 0 1 0
2.489011 -19.545821 -10.523499 22.337823 -1.444136 2.061341 0.010639 0.015490 207354.000000 0 1 0
3.224711 -18.344421 -10.204999 21.238139 -1.396787 2.072025 0.005639 0.010149 239686.000000 0 1 0
4.650111 -18.562021 -9.684399 21.446672 -1.325331 2.039306 0.005184 -0.006091 -534037.000000 0 1 0
4.599911 -19.049821 -8.375899 21.312216 -1.333864 1.974698 0.006996 -0.011121 -646793.000000 0 1 0
5.749511 -19.767921 -8.065099 22.110482 -1.287754 1.944175 -0.000173 -0.009744 -599031.000000 0 1 0
5.492611 -20.860721 -7.039099 22.691130 -1.313340 1.886214 0.004490 -0.014535 271364.000000 0 1 0
4.586611 -21.900221 -7.505799 23.600714 -1.364348 1.894450 0.017616 -0.014304 484099.000000 0 1 0
4.620011 -23.094321 -6.737199 24.496572 -1.373353 1.849413 0.026270 -0.016313 33926.100000 0 1 0
3.526711 -24.104621 -7.171199 25.394813 -1.425519 1.857079 0.035942 -0.018858 276327.000000 0 0 1
3.689911 -24.562021 -8.491399 26.249042 -1.421683 1.900216 0.026572 -0.016294 253283.000000 0 0 1
2.449411 -25.143261 -8.847399 26.766764 -1.473685 1.907669 0.020966 -0.006698 546451.000000 0 0 1
2.677011 -25.804271 -10.181699 27.869227 -1.467423 1.944793 0.024739 -0.007266 167547.000000 0 0 1
3.387611 -27.014941 -10.088399 29.035474 -1.446050 1.925648 0.017552 -0.006857 -189162.000000 0 0 1
3.780411 -27.483011 -11.349899 29.973782 -1.434100 1.959145 0.028403 -0.003328 155306.000000 0 0 1
4.190411 -28.962381 -11.234699 31.346412 -1.427109 1.937355 0.038210 0.001207 -539271.000000 0 0 1
3.099511 -29.809631 -11.278999 32.022444 -1.467192 1.930740 0.035445 0.005434 -779496.000000 0 0 1
3.381911 -31.178391 -11.310099 33.338382 -1.462749 1.916918 0.035249 0.002334 -483125.000000 0 0 1
2.209811 -32.150831 -11.516999 34.222806 -1.502172 1.914026 0.022254 0.000360 -255243.000000 0 0 1
1.741711 -31.960191 -12.852099 34.491504 -1.516354 1.952623 0.024059 -0.010636 -42990.500000 0 0 1
1.029311 -33.076331 -13.243799 35.644093 -1.539687 1.951481 0.009568 -0.007808 -514052.000000 0 0 1
0.638111 -33.073101 -14.761799 36.223582 -1.551505 1.990532 0.013383 -0.007023 -95686.500000 0 0 1
-0.248589 -32.041571 -15.107899 35.425594 1.563038 2.011381 0.017609 -0.008750 -84720.600000 0 0 1
-0.747489 -32.174091 -16.403699 36.122185 1.547568 2.042177 0.004025 -0.004770 -409716.000000 0 0 1
-1.913589 -31.295151 -16.822899 35.581712 1.509726 2.063258 0.002460 -0.001077 -264978.000000 0 0 1
-3.145089 -31.639911 -16.230899 35.698987 1.471719 2.042787 -0.007160 -0.000563 449350.000000 0 0 1
-4.208989 -30.866921 -16.860999 35.422813 1.435273 2.066889 -0.007675 0.006862 1622640.000000 0 0 1
-5.656389 -31.105981 -16.312099 35.576135 1.390919 2.047117 -0.015667 0.002658 467790.000000 0 0 1
-5.919189 -30.156921 -15.277999 34.320460 1.376981 2.032146 -0.031633 0.008783 372933.000000 0 0 1
-7.289289 -30.036721 -14.878499 34.303179 1.332720 2.019431 -0.019392 0.007083 566679.000000 0 0 1
-7.807789 -31.183301 -13.911999 35.027183 1.325457 1.979235 -0.008937 -0.004371 -69570.800000 0 0 1
-7.977089 -32.469871 -14.505899 36.446503 1.329891 1.980138 0.000675 -0.004569 -163817.000000 0 0 1
-8.443889 -33.362761 -13.540299 36.982601 1.322909 1.945639 0.013128 -0.002248 -94701.900000 0 0 1
-8.776989 34.228113 -14.043799 38.024039 -1.319779 1.949095 0.032701 -0.004209 -125419.000000 0 0 1
-7.670089 33.374396 -14.220299 37.079610 -1.344899 1.964387 0.021502 -0.003821 -22408.200000 0 0 1
-8.090889 32.032511 -14.494199 36.078055 -1.323387 1.984219 0.039127 -0.020913 -221602.000000 0 0 1
-7.629289 -22.147721 -3.410999 23.671977 1.239054 1.715394 0.017118 0.001173 199225.000000 0 1 0
-7.356089 -21.033421 -4.265799 22.687307 1.234359 1.759948 0.014179 -0.010782 159296.000000 0 1 0
-6.164689 -21.200221 -5.021199 22.642111 1.287816 1.794419 0.001194 -0.005868 371926.000000 0 1 0
-5.832789 -20.201821 -6.117199 21.898747 1.289715 1.853903 -0.003128 -0.006278 339627.000000 0 1 0
-6.624689 -20.504021 -7.289399 22.747236 1.258291 1.897003 0.005805 -0.002694 -52826.800000 0 1 0
-6.776589 -19.373221 -8.066999 22.052672 1.234307 1.945295 0.009380 -0.009639 -27839.900000 0 1 0
-7.830389 -19.575521 -9.199399 23.003151 1.190282 1.982225 0.013816 -0.012172 480825.000000 0 1 0
-7.260789 -19.977621 -10.433799 23.678863 1.222193 2.027105 0.003180 -0.009720 86919.200000 0 1 0
-8.297889 -20.425921 -11.275999 24.763307 1.184920 2.043563 0.027398 -0.006598 271872.000000 0 1 0
-7.642989 -21.262721 -12.358499 25.753662 1.225723 2.071307 0.011651 -0.005266 -32889.500000 0 0 1
-7.006689 -20.561421 -13.380399 25.512758 1.242369 2.122876 0.020019 -0.002923 -408931.000000 0 0 1
-6.414189 -21.480021 -14.260999 26.568952 1.280614 2.137382 0.015810 0.000367 -387487.000000 0 0 1
-5.375289 -20.845021 -15.182899 26.342533 1.318425 2.185069 0.018866 0.009062 -157329.000000 0 0 1
-4.146289 -20.620221 -14.511199 25.553085 1.372364 2.174730 0.018891 0.004393 -245271.000000 0 0 1
-3.130289 -19.965421 -15.218599 25.298666 1.415277 2.216246 0.024816 0.010004 40615.000000 0 0 1
-3.299689 -18.409021 -15.412499 24.234792 1.393437 2.260056 0.034682 0.011095 -1135940.000000 0 1 0
-4.210689 -18.030521 -16.388799 24.726956 1.341377 2.295336 0.032116 0.013047 -574428.000000 0 1 0
-4.008389 -18.370421 -17.787699 25.883234 1.355965 2.328463 0.044421 0.001884 283212.000000 0 0 1
-5.326589 -17.952721 -18.538799 26.350708 1.282369 2.351164 0.035100 0.016120 608685.000000 0 0 1
-6.393289 -18.681021 -17.987799 26.709841 1.241056 2.309665 0.027832 0.012548 -1230190.000000 0 0 1
-7.536789 -18.628421 -18.772899 27.499873 1.186343 2.322185 0.029463 0.013331 -743513.000000 0 0 1
-8.513189 -19.598321 -18.105599 28.006808 1.161005 2.273747 0.036478 0.006188 -569776.000000 0 0 1
-8.121889 -20.940721 -18.252799 28.942072 1.200807 2.253208 0.025399 0.006689 224917.000000 0 0 1
-9.064189 -21.906621 -17.822599 29.659815 1.178480 2.215424 0.024581 0.009206 36897.100000 0 0 1
-8.635789 -23.258521 -18.310999 30.835505 1.215277 2.206605 0.016997 -0.005912 -664423.000000 0 0 1
-8.716789 -23.440221 -19.762199 31.874298 1.214770 2.239544 0.010837 -0.011892 327705.000000 0 0 1
-7.908089 -24.508321 -20.237199 32.752708 1.258674 2.236838 0.011421 -0.025537 210317.000000 0 0 1
-6.358389 -24.427521 -20.129499 32.285130 1.316151 2.243997 0.031483 -0.019390 -371370.000000 0 0 1
-5.815489 -23.324121 -20.852199 31.822142 1.326445 2.285341 0.035232 -0.022627 -48968.400000 0 0 1
-5.479489 -22.177621 -20.130899 30.448724 1.328574 2.293135 0.035419 -0.016192 -82750.700000 0 0 1
-4.407789 -22.296321 -18.997399 29.621879 1.375622 2.267027 0.031125 -0.002067 -470858.000000 0 0 1
-3.151889 -22.664821 -19.506899 30.069048 1.432617 2.276720 0.022940 -0.015444 -570068.000000 0 0 1
-2.177289 -22.293721 -18.551899 29.084765 1.473441 2.262508 0.014624 -0.006826 134347.000000 0 0 1
-0.780689 -22.889121 -18.857499 29.666928 1.536702 2.259634 0.024350 -0.011362 174692.000000 0 0 1
-0.105889 -22.273821 -19.941799 29.896650 1.566042 2.301004 0.032608 -0.018438 -815964.000000 0 0 1
1.228411 -22.683421 -19.974799 30.249615 -1.516695 2.292058 0.031220 -0.022571 -422201.000000 0 0 1
2.005911 -21.940621 -21.055799 30.475584 -1.479625 2.333539 0.044772 -0.024008 -70196.500000 0 0 1
1.547811 -22.330421 -22.299599 31.596132 -1.501593 2.354306 0.031639 -0.031512 -759169.000000 0 0 1
0.705811 -21.391221 -22.825399 31.290276 -1.537813 2.388347 0.035494 -0.024432 -947298.000000 0 0 1
0.442311 -21.637121 -24.316599 32.552383 -1.550357 2.414333 0.042813 -0.030655 -127787.000000 0 0 1
-0.037889 -20.552321 -25.084589 32.428937 1.568953 2.455181 0.046235 -0.029198 784207.000000 0 0 1
-1.396089 -20.118421 -24.872799 32.021182 1.501514 2.460302 0.035551 -0.026206 645522.000000 0 0 1
-1.851389 -18.878321 -25.671559 31.919392 1.473039 2.505229 0.032085 -0.005935 -10077.000000 0 0 1
-1.206589 -17.687921 -25.255189 30.856814 1.502686 2.529529 0.034003 -0.007502 24226.700000 0 0 1
-1.692589 -16.505921 -25.909539 30.767101 1.468609 2.571996 0.039987 -0.002524 20394.800000 0 0 1
-1.131589 -15.192321 -25.310219 29.541400 1.496449 2.599772 0.029702 -0.007276 1311350.000000 0 0 1
0.255611 -14.928821 -25.674899 29.700766 -1.553676 2.614856 0.036499 -0.019686 1218560.000000 0 0 1
0.854711 -13.739421 -25.162099 28.681587 -1.508668 2.640985 0.036583 -0.017618 497584.000000 0 0 1
0.257011 -12.429821 -25.717629 28.565065 -1.550122 2.691295 0.032204 -0.011288 163979.000000 0 0 1
1.088911 -11.366321 -25.311809 27.768087 -1.475286 2.717818 0.019150 -0.008793 439920.000000 0 0 1
0.582011 -10.212521 -25.995339 27.935497 -1.513868 2.766705 0.020601 -0.007236 128549.000000 0 0 1
1.470511 -8.906621 -25.772729 27.307945 -1.407169 2.804685 0.025161 -0.011612 1095390.000000 0 0 1
2.803311 -8.915621 -26.291439 27.903165 -1.266157 2.800049 0.044717 -0.015157 304330.000000 0 0 1
3.004311 -9.198221 -27.654949 29.298965 -1.255101 2.805008 0.038497 -0.009680 215179.000000 0 0 1
4.425111 -8.831421 -28.238789 29.916631 -1.106298 2.805093 0.053067 -0.008086 370271.000000 0 0 1
4.586811 -7.455721 -28.424999 29.742347 -1.019270 2.842852 0.043639 -0.011330 1199320.000000 0 0 1
5.915011 -6.980521 -28.765959 30.186014 -0.867837 2.833641 0.052796 -0.008287 1359320.000000 0 0 1
7.129811 -7.103421 -27.767239 29.534935 -0.783544 2.793864 0.063145 -0.010684 447372.000000 0 0 1
7.533911 -8.433021 -27.473319 29.709576 -0.841650 2.751120 0.039274 -0.005706 355828.000000 0 0 1
8.320911 -9.091321 -28.459999 31.013888 -0.829615 2.732931 0.033810 -0.006166 -278014.000000 0 0 1
8.953111 -10.428221 -28.023659 31.212681 -0.861362 2.685611 0.045284 -0.000461 397266.000000 0 0 1
7.952211 -11.430921 -27.879069 31.163217 -0.962979 2.678364 0.040274 -0.001802 660277.000000 0 0 1
8.515511 -12.596321 -27.286069 31.236370 -0.976338 2.633215 0.031896 -0.001774 -203039.000000 0 0 1
9.241711 -13.605521 -28.175749 32.625025 -0.974125 2.613211 0.028044 -0.009870 -532581.000000 0 0 1
8.432611 -14.400221 -28.993359 33.452805 -1.041041 2.619333 0.029477 -0.011984 -642715.000000 0 0 1
9.144511 -15.416721 -29.664779 34.659724 -1.035425 2.598058 0.016013 -0.015268 -333054.000000 0 0 1
8.383411 -16.019821 -30.856079 35.763303 -1.088671 2.611551 0.021127 -0.019257 -249674.000000 0 0 1
8.026811 -15.120921 -31.860899 36.168893 -1.082781 2.648540 0.025312 -0.018046 387771.000000 0 0 1
7.237011 -15.815721 -32.836339 37.158263 -1.141654 2.654482 0.027548 -0.015878 -174226.000000 0 0 1
6.108411 -14.964321 -33.433239 37.135227 -1.183242 2.691279 0.024315 -0.007029 -150463.000000 0 0 1
6.631011 -13.953821 -34.278615 37.599241 -1.127176 2.718160 0.026944 -0.001623 -398400.000000 0 0 1
5.695111 -13.054721 34.122691 36.975912 -1.159436 0.395418 0.016252 0.000160 -611895.000000 0 0 1
6.283211 -12.046721 33.123233 35.801547 -1.090042 0.389260 0.031308 0.001789 -331398.000000 0 0 1
6.765411 -12.536121 31.937265 34.970187 -1.075916 0.419553 0.024823 0.002333 26414.800000 0 0 1
7.181111 -11.440221 31.170645 33.971401 -1.010253 0.408908 0.028657 0.001539 -57967.300000 0 0 1
7.668711 -11.750221 29.737095 32.881174 -0.992565 0.440870 0.013462 0.010177 533952.000000 0 0 1
6.556611 -11.963121 28.867785 31.928896 -1.069437 0.441464 0.020133 0.014366 546764.000000 0 0 1
7.004911 -12.005821 27.528265 30.838513 -1.042628 0.467587 0.017118 0.016810 448801.000000 0 0 1
6.032511 -12.744421 26.510495 30.026951 -1.128699 0.488815 0.014924 0.012288 330943.000000 0 0 1
6.145311 -14.120221 26.649895 30.779252 -1.160307 0.523970 0.017144 0.012928 108740.000000 0 0 1
5.652111 -14.734221 25.473955 29.966081 -1.204504 0.554635 0.003850 0.013954 -432935.000000 0 0 1
4.173011 -15.054521 25.291955 29.727691 -1.300392 0.553314 -0.000191 0.004234 -541761.000000 0 0 1
3.389211 -13.909121 25.052585 28.854504 -1.331786 0.519156 -0.007488 0.007813 -1065530.000000 0 0 1
2.059311 -14.202421 24.849945 28.696154 -1.426803 0.523714 -0.008769 0.006402 -741338.000000 0 0 1
1.117111 -12.999121 24.643775 27.884417 -1.485070 0.486910 0.010101 0.007641 -519752.000000 0 0 1
1.351911 -12.249321 23.435235 26.477986 -1.460875 0.484122 0.003781 0.003392 -384290.000000 0 0 1
0.382711 -11.296121 23.141235 25.753943 -1.536929 0.454339 0.019693 0.010800 -937772.000000 0 0 1
-0.952889 -11.814321 22.680635 25.590963 1.490315 0.481556 0.022188 0.004758 -1571870.000000 0 0 1
-0.961189 -12.404921 21.388135 24.743853 1.493466 0.526877 0.020600 -0.001731 -502810.000000 0 1 0
-2.160089 -13.061521 21.088235 24.899457 1.406902 0.560601 0.025693 -0.011789 -140710.000000 0 1 0
-2.198089 -13.732421 19.660835 24.082346 1.412077 0.615646 0.023531 -0.015033 -315895.000000 0 1 0
-1.245489 -14.746721 19.551135 24.520683 1.486538 0.647934 0.029635 -0.019312 -498130.000000 0 1 0
-1.433689 -15.522921 18.373935 24.096017 1.478698 0.703582 0.032961 -0.016002 417487.000000 0 1 0
-2.604789 -16.558421 18.442335 24.921596 1.414766 0.737705 0.017260 -0.022072 535891.000000 0 1 0
-2.318889 -17.723921 17.663835 25.130175 1.440701 0.791339 0.005487 -0.013899 -405298.000000 0 0 1
-3.224589 -18.761521 17.955535 26.168567 1.400587 0.814614 0.007058 -0.003734 25241.900000 0 0 1
-2.833289 -20.052421 17.197035 26.568122 1.430431 0.866785 0.003883 -0.002273 570251.000000 0 0 1
-1.662089 -20.697121 17.689835 27.277530 1.490663 0.865167 -0.000884 -0.005953 100208.000000 0 0 1
-1.913089 -22.081721 17.877635 28.475817 1.484375 0.892049 -0.001573 -0.009647 -15117.100000 0 0 1
-0.700889 -22.891621 18.427835 29.395623 1.540188 0.893241 -0.000571 -0.003952 215711.000000 0 0 1
0.287811 -23.056821 17.456635 28.921168 -1.558314 0.922795 0.010038 -0.011366 -314594.000000 0 0 1
1.318811 -23.955821 17.896235 29.931519 -1.515800 0.929910 0.004059 -0.008197 -103779.000000 0 0 1
2.595311 -23.821921 17.091235 29.433482 -1.462278 0.951241 0.012328 -0.018220 -598072.000000 0 0 1
3.252311 -22.596621 17.362635 28.681804 -1.427849 0.920586 0.012194 -0.012300 -59777.000000 0 0 1
4.233511 -22.341621 16.348435 28.006106 -1.383527 0.947462 0.018549 -0.015005 226068.000000 0 0 1
4.881711 -20.990621 16.623135 27.217015 -1.342292 0.913773 0.028414 -0.017560 -362769.000000 0 0 1
5.647511 -21.008621 17.879135 28.158835 -1.308186 0.882867 0.027267 -0.012862 235665.000000 0 0 1
6.248811 -19.787921 18.221935 27.616089 -1.264918 0.850203 0.043450 -0.016016 77710.000000 0 0 1
7.356311 -19.248921 17.319035 26.918121 -1.205757 0.871869 0.050501 -0.012476 -1160460.000000 0 0 1
6.845611 -18.660821 16.177835 25.628324 -1.219195 0.887635 0.034904 -0.008911 -37955.700000 0 0 1
7.771111 -18.034221 15.267935 24.874347 -1.163931 0.909928 0.046013 -0.010504 171741.000000 0 1 0
7.165911 -16.829821 14.473835 23.325631 -1.168260 0.901401 0.030685 -0.001641 496229.000000 0 1 0
5.999511 -17.255321 13.744835 22.861774 -1.236180 0.925776 0.025341 -0.004113 373593.000000 0 1 0
5.650911 -16.315821 12.778035 21.480619 -1.237381 0.933701 0.024663 -0.014154 -37082.600000 0 1 0
6.253011 -16.561221 11.364335 21.036214 -1.209775 1.000089 0.026147 -0.010531 -165553.000000 0 1 0
7.611611 -16.233921 11.217135 21.149490 -1.132361 1.011755 0.029116 -0.000833 -581223.000000 0 1 0
8.063911 -16.636521 10.011435 21.024493 -1.119454 1.074491 0.024885 0.002795 -31704.400000 0 1 0
9.588011 -16.389421 9.966035 21.444462 -1.041470 1.087459 0.022245 0.012553 160974.000000 0 1 0
10.206311 -16.889021 8.803835 21.608224 -1.027209 1.151158 0.021224 0.013800 -538168.000000 0 1 0
11.497711 -16.359221 8.645235 21.784434 -0.958175 1.162710 0.016656 0.011394 102305.000000 0 1 0
12.507911 -17.161321 7.791935 22.620191 -0.940974 1.219124 0.027450 0.000332 53595.100000 0 1 0
12.815911 -18.377721 8.418235 23.934387 -0.961844 1.211387 0.032456 -0.003506 -147017.000000 0 1 0
13.428911 -19.289021 7.526035 24.678800 -0.962629 1.260900 0.027756 -0.004254 -34591.100000 0 1 0
13.989211 -20.570821 8.146135 26.176635 -0.973585 1.254342 0.032111 -0.006168 -694282.000000 0 0 1
13.034711 -21.397321 8.740535 26.535749 -1.023658 1.235142 0.031357 -0.004653 -683451.000000 0 0 1
13.529311 -22.602221 9.301135 27.935887 -1.031419 1.231370 0.025221 -0.005430 82675.300000 0 0 1
12.449011 -23.582421 9.843335 28.425336 -1.085084 1.217186 0.034288 -0.013562 274570.000000 0 0 1
12.243111 -23.183521 11.230135 28.521665 -1.084926 1.166099 0.045745 -0.018923 -212261.000000 0 0 1
11.270711 -23.853421 12.039435 28.999355 -1.129391 1.142675 0.057511 -0.014494 139050.000000 0 0 1
11.671411 -25.268841 12.586035 30.547413 -1.138099 1.146130 0.032593 -0.013838 -312063.000000 0 0 1
12.811911 -25.175061 13.385435 31.258577 -1.100044 1.128278 0.016558 -0.012770 -504311.000000 0 0 1
12.935511 -26.415181 14.044635 32.593573 -1.115423 1.125304 0.013731 -0.015456 -159320.000000 0 0 1
13.976311 -26.375031 15.157735 33.477402 -1.083510 1.100921 0.030786 -0.009240 -224748.000000 0 0 1
13.551611 -25.724091 16.368835 33.366357 -1.085934 1.058042 0.031516 -0.008627 -231201.000000 0 0 1
14.506411 -25.819851 17.361235 34.329479 -1.058915 1.040576 0.039920 -0.009177 -762292.000000 0 0 1
14.227811 -24.950621 18.582935 34.209495 -1.052548 0.996541 0.040945 -0.002336 77656.800000 0 0 1
14.784611 -23.612221 18.573735 33.482911 -1.011376 0.982767 0.025711 -0.016759 -94812.200000 0 0 1
16.117711 -23.612121 19.018735 34.336936 -0.971842 0.983772 0.027759 -0.007081 -347389.000000 0 0 1
16.572611 -22.150621 19.197735 33.672756 -0.928462 0.964136 0.017045 -0.009932 -200309.000000 0 0 1
16.850111 -21.419521 18.018335 32.670821 -0.904236 0.986621 0.011019 -0.002775 382485.000000 0 0 1
15.746111 -20.696021 17.465935 31.326094 -0.920401 0.979362 0.011179 0.005923 -151601.000000 0 0 1
16.087711 -19.781921 16.290235 30.257406 -0.888026 1.002273 0.000858 0.007096 925437.000000 0 0 1
16.964211 -18.650921 16.675635 30.227771 -0.832722 0.986436 -0.012458 0.011829 982732.000000 0 0 1
18.367911 -18.805621 16.534435 31.055097 -0.797172 1.009336 0.004868 0.008499 341619.000000 0 0 1
19.138411 -17.503121 16.886435 30.948178 -0.740798 0.993649 0.014356 0.015435 -413536.000000 0 0 1
19.254811 -17.360221 18.274835 31.718995 -0.733701 0.956788 0.000838 0.010041 149576.000000 0 0 1
19.435911 -15.990521 18.630735 31.313826 -0.688448 0.933570 -0.002646 0.008117 -358447.000000 0 0 1
19.426711 -15.960421 20.137835 32.212801 -0.687756 0.895473 0.010524 0.004218 -1051620.000000 0 0 1
20.629111 -16.386321 20.617535 33.453766 -0.671274 0.906761 0.008975 0.004038 -1213640.000000 0 0 1
20.712311 -16.195821 22.038135 34.307198 -0.663632 0.873201 0.008514 0.005586 93137.100000 0 0 1
33.208392 -1.366321 -7.490299 34.070056 -0.041121 1.792457 0.070401 -0.017633 -696203.000000 0 0 1
34.390702 -1.168121 -8.198399 35.373700 -0.033953 1.804688 0.059817 -0.018970 -123872.000000 0 0 1
35.184502 -2.374121 -8.033699 36.168024 -0.067374 1.794786 0.058558 -0.030390 -65226.200000 0 0 1
-34.486632 -2.257121 -8.798999 35.662933 0.065356 1.820097 0.037541 -0.021225 -395634.000000 0 0 1
-33.506159 -3.199121 -8.426499 34.697305 0.095190 1.816107 0.042364 -0.023357 19323.300000 0 0 1
-32.258999 -2.888321 -9.012299 33.618551 0.089297 1.842191 0.056367 -0.019593 -286081.000000 0 0 1
-31.131749 -3.780621 -8.500299 32.492060 0.120848 1.835488 0.053588 -0.018901 -556736.000000 0 0 1
-30.934139 -3.679721 -7.079299 31.946483 0.118397 1.794250 0.053533 -0.023513 66421.900000 0 0 1
-29.852909 -4.485421 -6.692899 30.921030 0.149135 1.788975 0.050606 -0.025792 -291501.000000 0 0 1
-29.689519 -4.321621 -5.163499 30.443483 0.144545 1.741230 0.041416 -0.028949 -554099.000000 0 0 1
-29.210059 -3.045721 -4.819299 29.761210 0.103894 1.733445 0.041778 -0.029133 515352.000000 0 0 1
-29.139179 -2.845021 -3.389499 29.473286 0.097327 1.686054 0.042682 -0.028743 -315729.000000 0 0 1
-28.772629 -1.403021 -3.025399 28.965250 0.048724 1.675436 0.055075 -0.026526 137163.000000 0 0 1
-27.392469 -1.045621 -3.073099 27.584137 0.038153 1.682436 0.040640 -0.019420 837967.000000 0 0 1
-27.224529 0.258279 -2.570199 27.346802 -0.009487 1.664921 0.050757 -0.025620 20199.500000 0 0 1
-25.739269 0.514979 -2.205799 25.838744 -0.020005 1.656268 0.036561 -0.019764 49473.000000 0 0 1
-25.384849 -0.206721 -1.036699 25.406850 0.008143 1.611612 0.029951 -0.022291 88298.900000 0 0 1
-23.997589 -0.179621 -0.811599 24.011981 0.007485 1.604603 0.021326 -0.022844 -214585.000000 0 1 0
-23.663189 -1.135021 0.394901 23.693685 0.047929 1.554129 0.017144 -0.020531 -546766.000000 0 1 0
-23.687289 -2.495621 0.074501 23.818508 0.104970 1.567668 0.018695 -0.011068 126484.000000 0 1 0
-22.797389 -3.139121 0.920201 23.030888 0.136836 1.530831 0.009883 -0.004594 -1060320.000000 0 1 0
-23.053989 -4.716321 0.891901 23.548367 0.201793 1.532912 0.011821 0.002740 326695.000000 0 1 0
-24.228589 -5.151921 1.592501 24.821420 0.209518 1.506594 0.009859 0.003456 757588.000000 0 1 0
-24.565489 -6.548521 1.368601 25.460154 0.260516 1.517016 0.011871 0.006994 722862.000000 0 0 1
-25.840579 -7.219421 2.001601 26.904683 0.272437 1.496332 0.013334 0.008527 712148.000000 0 0 1
-25.647859 -7.488521 3.360601 26.929245 0.284078 1.445676 0.013231 0.006862 -298440.000000 0 0 1
-26.807449 -8.034821 3.919101 28.258751 0.291203 1.431662 0.016758 0.010666 -429041.000000 0 0 1
-26.858329 -8.195621 5.451001 28.605095 0.296168 1.379063 0.026784 0.005273 -593970.000000 0 0 1
-25.941709 -9.097821 5.967601 28.131030 0.337300 1.357036 0.023019 0.014098 -418503.000000 0 0 1
-26.039739 -9.218421 7.400401 28.597434 0.340246 1.309039 0.018662 0.007058 -225851.000000 0 0 1
-25.567649 -8.022221 8.218001 28.028490 0.304036 1.273222 0.030607 0.006393 -37402.300000 0 0 1
-24.158589 -7.891421 8.061201 26.662612 0.315724 1.263649 0.034607 0.006901 353705.000000 0 0 1
-23.716389 -6.627521 8.500301 26.050840 0.272498 1.238413 0.035728 -0.004820 342488.000000 0 0 1
-22.333089 -6.192521 7.861301 24.472724 0.270485 1.243771 0.042105 -0.005290 891747.000000 0 1 0
-21.227789 -6.797421 8.489101 23.851390 0.309896 1.206902 0.035941 -0.013465 -632542.000000 0 1 0
-20.046689 -6.516521 7.810901 22.479879 0.314293 1.215933 0.035459 -0.017578 -485086.000000 0 1 0
-18.798389 -6.670921 8.698701 21.761158 0.341004 1.159568 0.035979 -0.017244 -318331.000000 0 1 0
-18.646589 -5.731721 9.764801 21.815115 0.298220 1.106698 0.030031 -0.012336 16435.100000 0 1 0
-17.743689 -6.107021 10.773801 21.638137 0.331480 1.049612 0.028105 -0.012794 -217820.000000 0 1 0
-17.453889 -4.903721 11.674701 21.563473 0.273892 0.998682 0.017264 -0.010321 -650774.000000 0 1 0
-18.475589 -4.761021 12.578401 22.852371 0.252205 0.987929 0.022870 -0.007774 -444148.000000 0 1 0
-18.584989 -3.443321 13.173001 23.038798 0.183197 0.962129 0.023720 -0.004297 79612.300000 0 1 0
-19.843989 -3.265921 14.049701 24.532514 0.163118 0.961004 0.028768 -0.009894 -240542.000000 0 1 0
-19.649989 -3.917521 15.323701 25.224687 0.196785 0.917902 0.019257 -0.005399 166035.000000 0 0 1
-20.808689 -3.719221 16.085601 26.562769 0.176866 0.920315 0.017171 -0.004301 -180605.000000 0 0 1
-20.742589 -4.737121 17.247601 27.389324 0.224526 0.889604 0.008146 0.006538 227205.000000 0 0 1
-21.768189 -4.514621 18.209301 28.736988 0.204496 0.884529 0.009424 0.002928 484544.000000 0 0 1
-21.440589 -5.390721 19.267101 29.325414 0.246320 0.853950 0.009409 0.004380 -586126.000000 0 0 1
-22.125889 -5.060621 20.557501 30.623123 0.224852 0.834826 0.000991 0.007526 -752783.000000 0 0 1
-21.901789 -3.723321 21.003101 30.572565 0.168391 0.813455 0.004476 0.013581 234781.000000 0 0 1
-22.402289 -3.490521 22.281001 31.788194 0.154568 0.794109 0.013239 0.003535 -164784.000000 0 0 1
-22.250389 -1.968421 22.544601 31.736627 0.088237 0.780779 0.016804 0.003763 212353.000000 0 0 1
-23.228689 -1.196021 21.865101 31.923112 0.051444 0.816289 0.034024 -0.006276 269466.000000 0 0 1
-23.004889 0.204079 22.104101 31.903884 -0.008871 0.805384 0.031972 -0.007920 638332.000000 0 0 1
-24.274389 1.077379 21.727601 32.595941 -0.044354 0.841193 0.042853 -0.012826 621024.000000 0 0 1
-25.297299 0.804379 22.655101 33.968426 -0.031786 0.840694 0.045604 -0.014397 -1086050.000000 0 0 1
-26.464169 1.440679 22.300301 34.637136 -0.054385 0.871308 0.046394 -0.012629 -595033.000000 0 0 1
-27.571809 1.286879 23.373201 36.168594 -0.046640 0.868163 0.035357 -0.013030 -394944.000000 0 0 1
-27.339189 2.019979 24.556101 36.803718 -0.073752 0.840329 0.026813 -0.012167 -81535.500000 0 0 1
-28.354179 1.918479 25.519901 38.195620 -0.067558 0.839094 0.018073 -0.006537 -401703.000000 0 0 1
-27.969739 2.830479 26.706201 38.775496 -0.100855 0.811048 0.024722 -0.006781 742902.000000 0 0 1
-26.874319 2.372679 27.534501 38.548766 -0.088060 0.775206 0.016731 -0.008511 715583.000000 0 0 1
-26.557609 3.362679 28.424001 39.045333 -0.125948 0.755434 0.014202 -0.009093 354037.000000 0 0 1
-25.371379 2.982879 29.393801 38.943548 -0.117031 0.715478 0.025995 -0.011271 362629.000000 0 0 1
-25.742239 2.057379 30.409201 39.895052 -0.079753 0.704045 0.026905 -0.007061 -87411.700000 0 0 1
-24.708689 1.783879 31.312301 39.926955 -0.072071 0.669327 0.025975 -0.012597 -151914.000000 0 0 1
-24.868289 0.484179 32.133901 40.635622 -0.019467 0.658712 0.010439 -0.015927 -83751.600000 0 0 1
-24.797089 -0.663521 31.282401 39.923984 0.026752 0.670439 0.019636 -0.008377 -433.462000 0 0 1
-25.176879 -1.883021 31.906301 40.687013 0.074653 0.669409 0.016986 0.001826 -485761.000000 0 0 1
-26.047619 -2.729421 30.925701 40.525636 0.104405 0.702678 0.020746 0.010887 -202589.000000 0 0 1
-27.385779 -2.323621 30.868701 41.331063 0.084645 0.727462 0.012840 0.005933 -496116.000000 0 0 1
-27.577889 -1.368421 29.843201 40.657461 0.049580 0.746581 0.021846 0.005080 -362677.000000 0 0 1
-29.030749 -0.929621 29.520301 41.413726 0.032011 0.777293 0.020629 -0.006257 344047.000000 0 0 1
-29.647839 -0.352921 30.642401 42.638898 0.011903 0.768939 0.016872 -0.004503 -1084670.000000 0 0 1
-30.921049 0.097779 30.334401 43.316241 -0.003162 0.794977 0.003780 -0.006680 -889076.000000 0 0 1
-31.830859 0.307979 31.521801 44.798687 -0.009675 0.790300 0.003055 0.009146 -818664.000000 0 0 1
-32.201579 -0.966221 32.030001 45.429024 0.029996 0.788294 0.004441 0.007839 142971.000000 0 0 1
-32.776959 -0.820621 33.359201 46.774338 0.025031 0.776751 0.026443 0.013088 34890.800000 0 0 1
-32.877899 -2.145121 34.070501 47.395747 0.065153 0.768648 0.028036 0.006436 -107937.000000 0 0 1
-33.917389 -2.904021 33.506001 47.764785 0.085412 0.793325 0.020671 0.003467 -217551.000000 0 0 1
-33.835839 -4.226621 34.028001 48.172951 0.124272 0.786437 0.016338 0.004167 139817.000000 0 0 1
-35.060700 -5.148621 33.728201 48.921902 0.145807 0.810095 0.015606 0.009116 421918.000000 0 0 1
34.818212 -4.689821 -34.376233 49.153105 -0.133889 2.345313 0.030643 -0.000020 -473526.000000 0 0 1
33.596562 -5.182321 34.006501 48.083547 -0.153045 0.785213 0.028305 -0.003710 -597995.000000 0 0 1
32.379792 -4.668021 -34.028033 47.203267 -0.143178 2.375872 0.046445 -0.006392 -154857.000000 0 0 1
32.002322 -5.415321 -32.884333 46.204477 -0.167629 2.362730 0.036440 -0.000723 317048.000000 0 0 1
31.668312 -6.808621 -33.157633 46.353726 -0.211774 2.367875 0.045842 -0.002474 -716882.000000 0 0 1
30.295872 -7.168821 -33.791033 45.946336 -0.232353 2.397120 0.027996 0.003828 69215.700000 0 0 1
29.218052 -6.846221 -32.913533 44.540610 -0.230162 2.402315 0.022825 -0.004538 339953.000000 0 0 1
28.011352 -7.077921 -33.642633 44.345908 -0.247500 2.432021 0.019937 -0.004968 342281.000000 0 0 1
26.759032 -6.634221 -32.809133 42.854380 -0.243024 2.442763 0.023587 -0.008718 -166841.000000 0 0 1
25.575362 -7.090921 -33.365933 42.634092 -0.270462 2.469646 0.014883 -0.007564 -195817.000000 0 0 1
24.420062 -6.818221 -32.581433 41.284105 -0.272272 2.480302 0.014976 -0.010044 362284.000000 0 0 1
23.170162 -7.593121 -33.088733 41.102021 -0.316682 2.506538 0.014766 -0.015671 -136400.000000 0 0 1
23.011262 -8.927321 -32.736233 40.998490 -0.370079 2.495553 0.026016 -0.023295 311985.000000 0 0 1
22.817062 -9.244621 -31.299733 39.821535 -0.384949 2.475109 0.028817 -0.019122 -446570.000000 0 0 1
22.506262 -10.754821 -31.047033 39.826075 -0.445778 2.464768 0.033786 -0.007857 -39409.900000 0 0 1
21.247762 -11.135221 -31.585333 39.662247 -0.482714 2.492045 0.041372 -0.015125 465711.000000 0 0 1
21.236862 -12.516321 -32.072933 40.451646 -0.532565 2.486302 0.041959 -0.006231 255931.000000 0 0 1
20.121662 -12.653621 -33.182033 40.817187 -0.561367 2.519984 0.041690 -0.004929 1912900.000000 0 0 1
18.730062 -12.572721 -32.792933 39.802826 -0.591175 2.539028 0.025734 0.004905 901406.000000 0 0 1
18.222062 -11.278021 -32.833733 39.208307 -0.554216 2.563338 0.030223 -0.007135 -180416.000000 0 0 1
16.771662 -11.221021 -32.284433 38.072097 -0.589648 2.582962 0.036536 -0.006974 -55539.600000 0 0 1
15.850062 -11.835221 -33.135933 38.591281 -0.641385 2.603403 0.025192 -0.002812 -234340.000000 0 0 1
14.543762 -11.473321 -32.711533 37.592586 -0.667925 2.626322 0.028195 -0.007699 -167078.000000 0 0 1
13.389062 -11.921821 -33.571633 38.058525 -0.727494 2.651110 0.027841 -0.014591 -1218220.000000 0 0 1
13.244062 -13.303621 -33.418533 38.330013 -0.787642 2.629791 0.028686 -0.007166 660562.000000 0 0 1
12.035362 -13.833621 -33.990533 38.620919 -0.854801 2.646883 0.014527 -0.010560 1082260.000000 0 0 1
10.770662 -13.703821 -33.063133 37.376097 -0.904675 2.656446 0.003291 -0.007727 -34090.400000 0 0 1
10.378662 -12.372721 -32.905833 36.655077 -0.872820 2.685353 0.035843 -0.004708 -501152.000000 0 0 1
9.497262 -12.285721 -31.805433 35.393820 -0.912717 2.687400 0.034092 -0.003452 -244149.000000 0 0 1
8.347162 -11.331821 -32.105633 35.055056 -0.935918 2.728449 0.040543 -0.002601 -303824.000000 0 0 1
8.772262 -9.962121 -32.086533 34.723796 -0.848825 2.749340 0.044169 -0.002724 962452.000000 0 0 1
7.657062 -9.128221 -32.445733 34.564152 -0.872821 2.789667 0.045355 -0.003989 596979.000000 0 0 1
8.106362 -7.709321 -32.676833 34.538705 -0.760299 2.811750 0.054046 -0.000657 -90187.900000 0 0 1
8.437862 -6.941021 -31.550533 33.388792 -0.688373 2.808219 0.049442 -0.007500 178174.000000 0 0 1
8.924762 -5.687621 -31.910433 33.619580 -0.567385 2.821360 0.048109 -0.005401 -269886.000000 0 0 1
9.145362 -4.795221 -30.691633 32.382219 -0.482925 2.817038 0.046516 -0.004542 -1171570.000000 0 0 1
8.006462 -4.493821 -30.018633 31.391339 -0.511458 2.844772 0.044722 -0.007102 -1119740.000000 0 0 1
8.243062 -3.422721 -29.096133 30.434324 -0.393562 2.843949 0.059443 -0.009264 504348.000000 0 0 1
6.921762 -2.789021 -28.566233 29.524889 -0.383034 2.886067 0.049431 -0.014060 -832562.000000 0 0 1
6.187462 -2.132521 -29.546333 30.262487 -0.331903 2.923608 0.041501 -0.005790 -543924.000000 0 0 1
4.962862 -1.594821 -29.153533 29.615907 -0.310928 2.964657 0.040859 -0.011704 -27688.600000 0 0 1
3.816062 -2.631221 -28.971033 29.339503 -0.603652 2.982941 0.034145 -0.014600 -836902.000000 0 0 1
3.884562 -3.482621 -27.854233 28.338609 -0.730894 2.956437 0.038741 -0.022153 -348812.000000 0 0 1
2.901362 -4.486221 -27.779933 28.289022 -0.996725 2.951591 0.041470 -0.022069 -79108.500000 0 0 1
3.127862 -5.466421 -26.610833 27.345963 -1.051072 2.909197 0.041469 -0.027607 -121578.000000 0 0 1
2.990262 -4.962421 -25.283933 25.939248 -1.028481 2.916335 0.043818 -0.029485 110321.000000 0 0 1
3.395562 -5.977121 -24.390333 25.340564 -1.054168 2.866874 0.051481 -0.030085 -81386.500000 0 0 1
3.257462 -5.498921 -22.935233 23.809118 -1.035997 2.869819 0.057257 -0.036635 -274916.000000 0 1 0
4.088162 -4.399421 -22.774733 23.553268 -0.822054 2.883763 0.054155 -0.030961 -357884.000000 0 1 0
3.858162 -3.773921 -21.506833 22.173673 -0.774361 2.895725 0.048114 -0.030666 232446.000000 0 1 0
4.815162 -2.575821 -21.201233 21.893216 -0.491207 2.889501 0.048170 -0.029105 -401681.000000 0 1 0
6.173762 -2.839821 -21.085933 22.153927 -0.431124 2.829823 0.045915 -0.022217 -1005560.000000 0 1 0
6.814662 -1.689021 -20.592233 21.756205 -0.242955 2.813006 0.043776 -0.016203 -427363.000000 0 1 0
8.268462 -2.039921 -20.282733 21.998136 -0.241881 2.744064 0.046589 -0.021299 -684013.000000 0 1 0
9.074962 -2.347421 -21.442033 23.401412 -0.253122 2.729466 0.054900 -0.028051 1022070.000000 0 1 0
10.318062 -3.025221 -21.216933 23.785975 -0.285204 2.672532 0.040384 -0.026272 1205790.000000 0 1 0
11.460062 -2.351221 -20.410133 23.525195 -0.202358 2.621124 0.025812 -0.019219 -431193.000000 0 1 0
11.159462 -2.218621 -19.011033 22.155705 -0.196252 2.602286 0.022906 -0.017667 470747.000000 0 1 0
12.280262 -1.687621 -18.313733 22.114378 -0.136570 2.546572 0.018440 -0.022866 22267.400000 0 1 0
12.430762 -0.104621 -18.370533 22.181327 -0.008416 2.546681 0.010999 -0.021483 -231757.000000 0 1 0
12.916562 0.364379 -19.627633 23.499241 0.028203 2.559375 0.015874 -0.021911 257377.000000 0 1 0
12.907862 1.769879 -19.584933 23.522648 0.136267 2.554580 0.031328 -0.030064 -231583.000000 0 1 0
13.245662 2.492279 -20.906733 24.874696 0.185984 2.568968 0.034766 -0.025757 -208495.000000 0 1 0
14.599462 2.650079 -21.277933 25.940656 0.179564 2.532652 0.025455 -0.027071 44540.200000 0 0 1
14.669362 3.655579 -22.296833 26.938860 0.244224 2.545762 0.029953 -0.029383 -128263.000000 0 0 1
16.095062 3.957379 -22.831533 28.213308 0.241093 2.513665 0.023118 -0.019125 288262.000000 0 0 1
16.624362 3.046379 -23.759033 29.157186 0.181237 2.523284 0.013112 -0.018832 -186917.000000 0 0 1
17.431862 2.096679 -23.146133 29.051839 0.119704 2.492642 0.006159 -0.021343 -1316230.000000 0 0 1
9.595111 26.760679 3.261401 28.615325 1.226523 1.456574 -0.001633 0.002058 17636.900000 0 0 1
9.354911 27.266879 4.559501 29.185375 1.240293 1.413928 -0.001707 0.004051 -751119.000000 0 0 1
10.291711 28.137379 4.985001 30.372383 1.220145 1.405921 0.016330 0.003702 -1285880.000000 0 0 1
10.010811 28.632179 6.357201 30.990837 1.234447 1.364198 0.006641 0.003518 -49522.500000 0 0 1
10.078711 27.629979 7.365101 30.318985 1.221020 1.325421 0.001714 -0.003567 65744.800000 0 0 1
10.058911 28.201479 8.707401 31.182109 1.228183 1.287790 0.004690 -0.001569 -825053.000000 0 0 1
10.062711 27.097779 9.818401 30.527836 1.215231 1.243355 0.005799 0.000238 1792740.000000 0 0 1
11.376711 26.513079 10.136901 30.579890 1.165460 1.232915 0.011216 -0.000200 1736860.000000 0 0 1
12.066611 25.939679 9.020401 29.997294 1.135391 1.265362 0.011137 -0.007573 -1731510.000000 0 0 1
13.205811 25.107379 9.440901 29.898236 1.086587 1.249531 0.019920 -0.009373 -434406.000000 0 0 1
14.243411 25.909979 10.058801 31.231094 1.068163 1.242874 0.022252 -0.006967 341543.000000 0 0 1
15.371411 25.192179 10.483601 31.318238 1.022935 1.229462 0.025650 -0.005679 -281756.000000 0 0 1
16.471511 26.126679 10.941301 32.766234 1.008289 1.230337 0.022418 -0.005642 -489336.000000 0 0 1
17.098011 27.045679 9.999101 33.523018 1.007043 1.267911 0.026005 -0.008308 2765940.000000 0 0 1
18.577811 27.013679 10.091001 34.303093 0.968361 1.272208 0.037939 -0.017258 2468670.000000 0 0 1
19.271411 27.828779 11.216401 35.660004 0.965122 1.250827 0.030838 -0.006956 -469885.000000 0 0 1
19.293011 29.242779 11.095601 36.748779 0.987595 1.264079 0.029050 -0.018552 295224.000000 0 0 1
18.082011 29.911579 11.427901 36.773069 1.027063 1.254795 0.011591 -0.006455 13265.400000 0 0 1
18.128811 31.452279 11.414801 38.055188 1.047917 1.266152 0.000841 0.002292 -598842.000000 0 0 1
18.551111 32.144479 10.249701 38.502826 1.047373 1.301341 0.018738 -0.014679 329084.000000 0 0 1
17.664411 32.066079 9.133001 37.731638 1.067281 1.326317 0.032674 -0.014464 836865.000000 0 0 1
16.250011 32.728279 9.264401 37.696581 1.109942 1.322490 0.028927 -0.013079 325150.000000 0 0 1
16.239011 34.100879 9.412501 38.925192 1.126365 1.326566 0.030547 -0.014460 -1270550.000000 0 0 1
14.952411 -34.470143 9.504201 38.756873 -1.161514 1.323043 0.028262 -0.001915 -1091980.000000 0 0 1
14.914611 -33.035143 9.753701 37.535330 -1.146715 1.307925 0.021190 -0.002669 145838.000000 0 0 1
15.487011 -32.318543 8.635401 36.863341 -1.123928 1.334345 0.030527 -0.006657 231459.000000 0 0 1
15.361311 -30.897543 8.825901 35.616353 -1.109416 1.320383 0.047434 -0.008549 -26871.700000 0 0 1
16.140811 -30.147143 7.746601 35.062599 -1.079231 1.348022 0.028976 -0.004829 -271718.000000 0 0 1
15.595611 -30.294143 6.478401 34.683251 -1.095374 1.382905 0.039155 -0.001695 -77555.700000 0 0 1
16.356311 -29.635843 5.470201 34.288995 -1.066488 1.410580 0.023807 0.003164 -117104.000000 0 0 1
15.856011 -29.976843 4.106301 34.159712 -1.084264 1.450296 0.026878 -0.009363 -55076.400000 0 0 1
16.264311 -31.266643 3.631401 35.430465 -1.091135 1.468122 0.021178 -0.011073 -42783.800000 0 0 1
16.341411 -31.296443 2.212001 35.375161 -1.089587 1.508226 0.018153 -0.012131 -204011.000000 0 0 1
16.525811 -32.665843 1.638201 36.644828 -1.102436 1.526077 0.036912 -0.016478 -488110.000000 0 0 1
17.763911 -33.188443 2.014701 37.697325 -1.079353 1.517327 0.035505 -0.004707 -252835.000000 0 0 1
18.047111 -34.460843 1.382201 38.925036 -1.088370 1.535280 0.052188 -0.008014 568757.000000 0 0 1
19.484211 33.970979 1.659601 39.197145 1.050049 1.528444 0.056079 -0.004724 767448.000000 0 0 1
19.651511 33.632079 2.987201 39.066891 1.041995 1.494258 0.047766 -0.024839 -115777.000000 0 0 1
21.005211 33.324679 3.222901 39.523919 1.008381 1.489163 0.029843 -0.011002 -157289.000000 0 0 1
21.482111 33.330079 4.690301 39.929615 0.998279 1.453060 0.021107 -0.005559 -140868.000000 0 0 1
20.960011 32.272079 5.534201 38.877198 0.994788 1.427960 0.039080 -0.017074 -8136.560000 0 0 1
21.840611 31.196279 5.669301 38.501443 0.960001 1.423010 0.028661 -0.018006 -201950.000000 0 0 1
21.185511 30.151679 6.608301 37.438206 0.958307 1.393354 0.042182 -0.025376 374470.000000 0 0 1
20.040911 29.623079 5.969601 36.260186 0.975996 1.405411 0.048373 -0.024539 -529858.000000 0 0 1
19.142011 29.018179 6.860501 35.433568 0.987663 1.375950 0.048978 -0.034379 691059.000000 0 0 1
17.672111 29.248679 6.346501 34.757255 1.027293 1.387171 0.065332 -0.035144 415663.000000 0 0 1
17.183911 30.567279 6.266501 35.621824 1.058660 1.393959 0.059559 -0.039855 -20417.100000 0 0 1
17.517211 31.267079 5.035301 36.191673 1.060122 1.431215 0.067007 -0.042150 -198123.000000 0 0 1
17.384311 32.790979 5.098401 37.462732 1.083317 1.434280 0.057503 -0.032749 362231.000000 0 0 1
16.070711 33.340679 5.026101 37.351443 1.121640 1.435824 0.056405 -0.029125 167551.000000 0 0 1
16.088311 -34.270243 5.326801 38.231638 -1.131883 1.431012 0.046623 -0.028432 -680459.000000 0 0 1
14.641411 -33.853043 5.597801 37.305962 -1.162591 1.420176 0.041029 -0.023376 -148840.000000 0 0 1
13.791011 -34.012443 4.480801 36.974530 -1.185584 1.449312 0.041729 -0.020064 -746819.000000 0 0 1
12.794611 -33.052643 4.556901 35.734362 -1.201462 1.442927 0.035857 -0.019043 -99422.500000 0 0 1
11.901411 -32.949343 3.275801 35.185703 -1.224176 1.477561 0.034222 -0.016964 936412.000000 0 0 1
10.849211 -31.960943 3.337101 33.916714 -1.243549 1.472246 0.034286 -0.021530 550662.000000 0 0 1
10.119711 -31.909243 2.116901 33.542356 -1.263689 1.507643 0.035074 -0.013190 -916267.000000 0 0 1
9.134611 -30.720143 2.177101 32.123326 -1.281773 1.502971 0.038646 -0.015412 -322931.000000 0 0 1
8.784411 -30.256243 0.885901 31.518105 -1.288231 1.542685 0.043871 -0.010198 -1213140.000000 0 0 1
7.761011 -30.977543 0.393101 31.937376 -1.325313 1.558488 0.029429 -0.015674 -2067460.000000 0 0 1
8.073711 -31.499343 -1.052099 32.534602 -1.319884 1.603140 0.039555 -0.013817 593159.000000 0 0 1
9.182611 -32.429343 -1.078399 33.721589 -1.294862 1.602781 0.037621 -0.015979 472297.000000 0 0 1
9.314011 -33.191743 -2.288699 34.549685 -1.297220 1.637089 0.033306 0.001845 -549100.000000 0 0 1
10.564611 -34.051443 -2.273099 35.725044 -1.269959 1.634467 0.034318 -0.002191 -709861.000000 0 0 1
10.703211 34.064579 -1.198699 35.726617 1.266360 1.604355 0.032429 -0.007264 -153367.000000 0 0 1
11.813611 33.206979 -1.323499 35.270618 1.229002 1.608329 0.042724 -0.011640 -393070.000000 0 0 1
12.041911 32.242079 -0.107599 34.417595 1.213355 1.573923 0.040367 -0.015428 -297536.000000 0 0 1
12.335511 32.804979 1.154801 35.066580 1.211127 1.537859 0.041390 -0.017266 240486.000000 0 0 1
13.530011 33.569579 1.236501 36.214731 1.187669 1.536646 0.049781 -0.015765 -923810.000000 0 0 1
14.805611 32.842579 1.551801 36.058968 1.147273 1.527748 0.062962 -0.019661 -1621390.000000 0 0 1
15.285811 32.169479 0.483601 35.619731 1.127213 1.557219 0.071403 -0.022774 -1076930.000000 0 0 1
16.141411 31.196679 0.941501 35.137791 1.093320 1.543999 0.090975 -0.018756 -947846.000000 0 0 1
16.958411 30.661279 -0.242699 35.039415 1.065585 1.577723 0.077240 -0.008597 -302456.000000 0 0 1
17.946111 31.572979 -0.654699 36.322783 1.053936 1.588822 0.062357 0.002879 -85658.600000 0 0 1
17.452111 32.398179 -1.673799 36.837749 1.076689 1.616249 0.048750 -0.002161 61869.800000 0 0 1
18.615111 33.062579 -2.466299 38.022876 1.058007 1.635705 0.038540 -0.001242 413222.000000 0 0 1
19.442811 33.904179 -1.684799 39.119749 1.050117 1.613877 0.030816 0.001259 175687.000000 0 0 1
20.394911 -34.435143 -2.496499 40.099426 -1.036080 1.633094 0.033801 0.005046 -462631.000000 0 0 1
21.594111 -33.787843 -1.736399 40.136505 -1.002116 1.614072 0.029049 0.008447 25968.900000 0 0 1
22.647611 34.369779 -1.293699 41.180938 0.988162 1.602216 0.023393 0.009580 970164.000000 0 0 1
23.455711 33.636879 -2.239599 41.068550 0.961870 1.625357 0.033043 0.011968 -100745.000000 0 0 1
24.093511 34.444479 -3.383899 42.170727 0.960414 1.651126 0.011992 0.005423 -1023050.000000 0 0 1
23.159911 -34.024143 -4.321699 41.384791 -0.973148 1.675414 0.012079 -0.010444 -141041.000000 0 0 1
23.757811 -33.400143 -5.420699 41.344735 -0.952521 1.702285 0.012496 -0.015604 -267714.000000 0 0 1
22.780011 -33.018143 -6.557599 40.646387 -0.966865 1.732837 0.015734 -0.022778 -227956.000000 0 0 1
21.878811 -31.997743 -6.192399 39.254092 -0.971052 1.729210 0.028462 -0.020615 410941.000000 0 0 1
21.120411 -31.387043 -7.259999 38.521758 -0.978489 1.760395 0.027987 -0.025228 844964.000000 0 0 1
20.123011 -30.286043 -6.731699 36.979667 -0.984343 1.753855 0.048199 -0.030619 206920.000000 0 0 1
18.951311 -30.669243 -6.070899 36.559684 -1.017300 1.737624 0.034770 -0.016398 -303992.000000 0 0 1
18.081411 -29.527143 -6.098499 35.156526 -1.021334 1.745145 0.046557 -0.031166 176823.000000 0 0 1
16.915611 -29.678943 -5.096199 34.539091 -1.052763 1.718886 0.035192 -0.012286 206899.000000 0 0 1
15.845411 -30.430843 -5.617699 34.765958 -1.090724 1.733094 0.028733 -0.013198 -26427.600000 0 0 1
14.713811 -30.541043 -4.765799 34.233966 -1.121837 1.710463 0.013600 -0.005774 586080.000000 0 0 1
13.696311 -31.613443 -5.273299 34.854073 -1.161964 1.722676 0.012902 0.000139 -124134.000000 0 0 1
14.089611 -32.956043 -5.229099 36.221008 -1.166787 1.715669 0.018941 0.006485 -440290.000000 0 0 1
13.039211 -33.845243 -5.521299 36.687958 -1.203061 1.721864 0.027881 0.006601 -213146.000000 0 0 1
13.404111 33.655679 -5.368599 36.622353 1.191781 1.717920 0.026097 0.010683 -133611.000000 0 0 1
13.571611 33.047379 -4.111099 35.961354 1.181125 1.685367 0.032575 0.001177 -15778.300000 0 0 1
13.989711 31.690079 -4.110499 34.883654 1.155072 1.688905 0.047275 -0.001805 130592.000000 0 0 1
12.898611 30.650379 -4.532899 33.561393 1.172463 1.706273 0.038784 -0.001680 647882.000000 0 0 1
11.914511 30.254379 -3.565799 32.710823 1.195637 1.680023 0.038373 -0.009321 231432.000000 0 0 1
12.405411 29.432879 -2.569399 32.043570 1.171910 1.651067 0.046693 -0.014675 115883.000000 0 0 1
11.311011 28.599679 -1.745599 30.804670 1.194180 1.627493 0.039880 -0.010082 886929.000000 0 0 1
10.411611 29.515979 -1.096899 31.317692 1.231678 1.605828 0.029112 -0.008057 -666246.000000 0 0 1
9.634911 28.759579 -0.265499 30.331755 1.247532 1.579550 0.015689 -0.000019 -988829.000000 0 0 1
8.365911 29.554679 0.039901 30.715942 1.294947 1.569497 0.013389 0.004757 -716779.000000 0 0 1
7.384111 28.803679 0.681101 29.742914 1.319841 1.547895 -0.000542 0.003144 -576678.000000 0 0 1
6.205111 29.576879 0.724201 30.229450 1.364000 1.546837 0.003236 0.003149 -47726.600000 0 0 1
5.080811 28.901979 1.544501 29.385787 1.396780 1.518213 -0.004020 0.001967 181734.000000 0 0 1
4.556711 27.737679 0.887601 28.123483 1.407972 1.539230 -0.007585 -0.005447 -37847.800000 0 0 1
3.419311 27.228179 1.561401 27.486422 1.445870 1.513959 0.000239 -0.007134 99913.300000 0 0 1
2.710311 26.226179 0.633801 26.373471 1.467818 1.546762 0.008067 -0.005926 -186979.000000 0 0 1
1.434211 25.802679 1.081801 25.865140 1.515270 1.528959 0.002438 -0.009707 -263019.000000 0 0 1
1.138711 24.630179 0.357701 24.659082 1.524597 1.556290 0.000344 -0.008726 -443631.000000 0 1 0
-0.179789 24.008579 0.813601 24.023033 -1.563308 1.536922 0.005967 -0.006164 -579842.000000 0 1 0
-1.231389 24.913479 0.665201 24.952760 -1.521410 1.544135 0.017616 -0.012068 -1642650.000000 0 1 0
-2.413689 24.250679 0.872301 24.386107 -1.471592 1.535018 0.024789 -0.007595 -809695.000000 0 1 0
-3.673889 25.148179 1.075901 25.437884 -1.425733 1.528488 0.042652 -0.015212 -106006.000000 0 0 1
-4.778589 24.345079 1.462801 24.852717 -1.376975 1.511904 0.032853 -0.014726 157140.000000 0 1 0
-5.792189 25.034279 2.187701 25.788575 -1.343427 1.485862 0.035004 -0.015449 137693.000000 0 0 1
-6.887089 25.639879 1.311801 26.581125 -1.308382 1.521425 0.043058 -0.012375 -863391.000000 0 0 1
-6.420789 26.721979 0.516901 27.487413 -1.334985 1.551990 0.037664 -0.011911 -226060.000000 0 0 1
-7.189789 26.868579 -0.635999 27.821181 -1.309331 1.593659 0.031172 -0.005926 -216319.000000 0 0 1
-6.865089 28.132979 -1.479399 28.996251 -1.331451 1.621839 0.035928 -0.000661 111654.000000 0 0 1
-7.139889 29.358179 -0.831899 30.225366 -1.332228 1.598323 0.041963 -0.010772 -14728.000000 0 0 1
-7.198789 30.372179 -1.784199 31.264599 -1.338072 1.627895 0.038407 -0.005361 -98778.700000 0 0 1
-7.302189 31.836279 -1.208299 32.685327 -1.345329 1.607772 0.036573 -0.005374 -615061.000000 0 0 1
-7.504089 32.824779 -2.186299 33.742516 -1.346048 1.635635 0.031835 0.001128 319324.000000 0 0 1
-6.493189 32.974779 -3.190799 33.759128 -1.376370 1.665454 0.026602 0.001665 51429.300000 0 0 1
-5.113289 33.481679 -2.753999 33.981658 -1.419248 1.651929 0.032409 -0.001286 -833115.000000 0 0 1
-5.078789 -34.154543 -2.446899 34.616676 1.423178 1.641541 0.030481 -0.005304 -431382.000000 0 0 1
-4.254389 -33.902643 -1.378499 34.196335 1.445960 1.611119 0.029940 -0.009584 -287914.000000 0 0 1
-3.958889 -32.382243 -1.175899 32.644528 1.449145 1.606825 0.021138 -0.006995 686976.000000 0 0 1
-5.175189 -31.726543 -0.803399 32.155895 1.409102 1.595783 0.023817 -0.008360 460818.000000 0 0 1
-5.260689 -30.469743 -1.399099 30.952182 1.399829 1.616014 0.025937 -0.004385 -465115.000000 0 0 1
-6.659389 -29.908843 -1.208599 30.665079 1.351714 1.610219 0.035057 -0.003957 -463840.000000 0 0 1
-6.885389 -29.626243 0.147101 30.416188 1.342442 1.565960 0.023728 0.000785 62295.900000 0 0 1
-8.112589 -28.975843 0.453801 30.093513 1.297808 1.555716 0.021942 0.007486 412910.000000 0 0 1
-8.077889 -28.408143 1.912101 29.596132 1.293757 1.506145 0.026257 0.000132 280386.000000 0 0 1
-7.324689 -27.200443 1.958801 28.237423 1.307750 1.501372 0.024854 0.003798 -190991.000000 0 0 1
-7.282889 -26.585543 3.278001 27.759266 1.303414 1.452433 0.024485 0.004961 -697698.000000 0 0 1
-8.234889 -25.441743 3.488201 26.967819 1.257762 1.441086 0.009692 0.015558 -623984.000000 0 0 1
-7.898189 -24.075743 3.251501 25.545940 1.253803 1.443170 0.010789 0.013485 -498082.000000 0 0 1
-8.898089 -23.206843 3.748101 25.135270 1.204660 1.421121 0.007972 0.013712 129563.000000 0 0 1
-8.302389 -21.793743 3.946701 23.653189 1.206817 1.403155 -0.006461 0.012783 315874.000000 0 1 0
-7.492589 -21.737843 5.104701 23.552721 1.238869 1.352328 -0.011888 0.014800 -437468.000000 0 1 0
-7.058789 -20.387243 5.320501 22.221024 1.237479 1.329012 -0.020551 0.005915 218745.000000 0 1 0
-7.988289 -19.344143 6.042401 21.783463 1.179171 1.289725 -0.013524 0.004257 68070.100000 0 1 0
-7.953189 -19.589243 7.416401 22.405237 1.185130 1.233421 -0.013589 0.006909 -129282.000000 0 1 0
-8.901989 -18.847343 8.129701 22.373193 1.129536 1.198916 -0.013566 0.000024 -571670.000000 0 1 0
-26.901089 29.235579 -5.869599 40.160177 -0.826960 1.717476 0.060732 -0.011459 -757340.000000 0 0 1
-25.955119 30.096779 -5.416199 40.110092 -0.859154 1.706243 0.060711 -0.017831 -1052910.000000 0 0 1
-25.147509 29.463179 -4.477599 38.993910 -0.864260 1.685878 0.046021 -0.006813 53241.000000 0 0 1
-24.197789 30.393979 -3.689799 39.024884 -0.898415 1.665488 0.038369 -0.002990 -363978.000000 0 0 1
-24.803989 30.954879 -2.534199 39.747510 -0.895266 1.634597 0.039456 -0.006497 55066.400000 0 0 1
-23.970589 31.789979 -1.770099 39.853797 -0.924721 1.615226 0.042047 -0.001061 623729.000000 0 0 1
-22.694789 31.149879 -1.106599 38.556361 -0.941154 1.599501 0.036967 0.007633 558841.000000 0 0 1
-21.665189 30.731979 -1.992299 37.653741 -0.956741 1.623732 0.032800 -0.002637 -952177.000000 0 0 1
-20.536289 30.577079 -1.238799 36.854193 -0.979370 1.604416 0.017811 0.005232 -1420480.000000 0 0 1
-19.273489 30.180779 -1.999199 35.865632 -1.002476 1.626567 0.016462 0.001494 -25196.000000 0 0 1
-18.134989 30.166679 -1.139999 35.216558 -1.029525 1.603173 0.017040 0.005675 146482.000000 0 0 1
-16.955889 29.905379 -1.889499 34.429697 -1.055007 1.625704 0.018428 0.005864 218556.000000 0 0 1
-15.713789 30.351079 -1.065299 34.194239 -1.093062 1.601956 0.014471 -0.003889 40491.900000 0 0 1
-15.497089 29.644179 0.207901 33.451163 -1.089099 1.564581 0.014592 -0.002498 -854187.000000 0 0 1
-14.478489 30.257379 0.876901 33.554502 -1.124487 1.544660 0.016253 -0.005221 -587943.000000 0 0 1
-13.849689 29.451579 2.076501 32.611673 -1.131228 1.507080 0.019235 -0.009670 135275.000000 0 0 1
-14.666589 29.411579 3.261301 33.027048 -1.108216 1.471889 0.014723 -0.008650 188742.000000 0 0 1
-14.066589 28.685479 4.349901 32.243562 -1.114880 1.435476 0.012539 -0.016823 1219970.000000 0 0 1
-12.775189 29.317179 5.013401 32.370305 -1.159849 1.415294 0.021680 -0.015616 899489.000000 0 0 1
-13.037289 30.406379 5.905601 33.606471 -1.165738 1.394151 0.017508 -0.019175 -358352.000000 0 0 1
-13.345789 31.652679 5.303001 34.758078 -1.171782 1.417629 0.015367 -0.016334 -57801.500000 0 0 1
-13.311589 32.897379 6.185101 36.023484 -1.186297 1.398245 0.026795 -0.024846 744304.000000 0 0 1
-14.456289 33.138379 7.036401 36.832694 -1.159444 1.378578 0.031844 -0.026067 768603.000000 0 0 1
-14.204589 34.407379 7.658801 38.003885 -1.179274 1.367880 0.049034 -0.026527 737032.000000 0 0 1
-15.397089 -34.203943 8.592001 38.481197 1.147813 1.345620 0.037093 -0.020612 512305.000000 0 0 1
-15.508889 34.024679 9.738801 38.639988 -1.143119 1.316009 0.021104 -0.022853 37633.400000 0 0 1
-16.721389 34.312979 10.412201 39.565127 -1.117344 1.304494 0.037862 -0.024973 -573691.000000 0 0 1
-16.883989 33.746079 11.835701 39.546817 -1.106889 1.266855 0.045232 -0.019901 262752.000000 0 0 1
-15.914589 34.151879 12.800801 39.793033 -1.134721 1.243288 0.049679 -0.029007 -248425.000000 0 0 1
-14.676989 33.532579 12.660001 38.731427 -1.158224 1.237810 0.052685 -0.024025 -339893.000000 0 0 1
-13.635989 33.617279 13.827101 38.823322 -1.185451 1.206647 0.062655 -0.023728 262068.000000 0 0 1
-13.891389 32.783479 14.976601 38.626749 -1.170001 1.172633 0.056520 -0.019496 -131787.000000 0 0 1
-13.492889 31.394479 14.873701 37.267926 -1.164879 1.160259 0.039735 -0.015163 224044.000000 0 0 1
-14.393489 30.429679 14.002201 36.458188 -1.128974 1.176605 0.042821 -0.020103 274682.000000 0 0 1
-14.074289 30.502279 12.609001 35.881214 -1.138488 1.211720 0.035956 -0.016924 -94190.900000 0 0 1
-15.107389 30.142879 11.720201 35.695790 -1.106195 1.236255 0.028873 -0.010807 -349402.000000 0 0 1
-14.710189 29.981879 10.274401 34.940893 -1.114668 1.272334 0.011748 -0.004102 -462593.000000 0 0 1
-13.972289 28.809279 9.975501 33.536697 -1.119227 1.268775 0.003144 -0.000757 110306.000000 0 0 1
-13.718689 28.659479 8.630401 32.924945 -1.124351 1.305574 0.005739 -0.003108 -1085310.000000 0 0 1
-13.106089 27.318679 8.178301 31.384142 -1.123481 1.307166 0.017262 -0.006303 438202.000000 0 0 1
-11.687689 27.298679 8.360301 30.849871 -1.166268 1.296365 0.008756 -0.007127 435575.000000 0 0 1
-11.163889 26.032579 8.068901 29.452245 -1.165675 1.293282 0.020549 -0.009012 309102.000000 0 0 1
-10.100689 26.205479 6.913101 28.923036 -1.202903 1.329443 0.033590 -0.015365 -110548.000000 0 0 1
-10.648389 26.489979 5.626701 29.099260 -1.188586 1.376208 0.031960 -0.018072 63479.500000 0 0 1
-9.679289 26.315879 4.623801 28.418192 -1.218343 1.407364 0.048313 -0.009393 -256491.000000 0 0 1
-9.996489 26.810079 3.184901 28.789820 -1.213900 1.459943 0.046651 -0.011129 -194510.000000 0 0 1
-9.813489 28.197679 3.005001 30.007394 -1.235882 1.470486 0.051048 -0.009780 56102.100000 0 0 1
-10.219289 28.628579 1.709301 30.445872 -1.227934 1.514625 0.046667 -0.008952 66903.800000 0 0 1
-9.807289 30.085379 1.395101 31.674268 -1.255677 1.526737 0.056693 -0.014304 404108.000000 0 0 1
-10.504489 30.960579 2.291501 32.774269 -1.243698 1.500822 0.040696 -0.020443 351572.000000 0 0 1
-10.045989 32.325379 2.129801 33.917371 -1.269482 1.507961 0.045808 -0.017172 259016.000000 0 0 1
-11.063989 33.196779 2.909701 35.112738 -1.249089 1.487834 0.049786 -0.013432 777029.000000 0 0 1
-12.371189 33.425079 2.403301 35.721955 -1.216314 1.503467 0.034768 -0.014149 113029.000000 0 0 1
-12.420789 34.346779 1.275401 36.545914 -1.223799 1.535891 0.026905 -0.013109 -1096590.000000 0 0 1
-13.812589 -34.356043 0.784301 37.037015 1.188530 1.549619 0.020633 -0.011475 -728970.000000 0 0 1
-14.460989 33.655579 0.053201 36.630875 -1.164972 1.569344 0.012678 -0.008472 -201982.000000 0 0 1
-14.421589 33.983079 -1.369299 36.941939 -1.169455 1.607871 0.017471 -0.005917 199063.000000 0 0 1
-13.121689 33.624779 -2.154099 36.158604 -1.198733 1.630405 0.025925 -0.006198 207980.000000 0 0 1
-12.991289 32.215579 -2.189799 34.805349 -1.187482 1.633754 0.022443 -0.002715 1077480.000000 0 0 1
-11.597189 31.936779 -2.476599 34.067377 -1.222473 1.643558 0.019763 -0.002788 1191570.000000 0 0 1
-11.317189 30.457379 -2.773299 32.610150 -1.215032 1.655943 0.011993 -0.005929 -12077.500000 0 0 1
-11.517889 29.814979 -4.045099 32.217349 -1.202145 1.696685 0.019353 -0.002143 79330.400000 0 0 1
-10.378489 29.959079 -4.918799 32.085106 -1.237312 1.724708 0.015579 -0.001434 514048.000000 0 0 1
-10.458989 29.273079 -6.298899 31.717183 -1.227642 1.770721 0.020044 0.000578 -204104.000000 0 0 1
-10.584089 27.874879 -6.192699 30.452936 -1.207912 1.775578 0.026074 0.003781 95204.700000 0 0 1
-10.570689 27.277979 -7.439699 30.185704 -1.201097 1.819827 0.028462 0.004143 214784.000000 0 0 1
-11.274289 25.907179 -7.378199 29.201530 -1.160335 1.826230 0.042285 -0.014645 537967.000000 0 0 1
-10.426689 25.000479 -6.674599 27.897850 -1.175670 1.812391 0.020466 -0.007979 288500.000000 0 0 1
-11.041789 23.710879 -6.642299 26.986052 -1.134976 1.819490 0.048207 -0.020766 23573.800000 0 0 1
-10.422189 22.597479 -5.758499 25.542678 -1.138659 1.798197 0.038629 -0.020221 442297.000000 0 0 1
-9.056389 22.301679 -6.112299 24.834316 -1.185055 1.819475 0.041986 -0.021221 1001750.000000 0 1 0
-8.394289 21.157879 -5.521799 23.422429 -1.193099 1.808785 0.044898 -0.020277 24681.300000 0 1 0
-8.204689 21.197179 -3.967899 23.073395 -1.201490 1.743624 0.030313 -0.019959 705701.000000 0 1 0
-9.353089 21.037279 -3.074899 23.227191 -1.152445 1.703570 0.030156 -0.020971 1323950.000000 0 1 0
-10.132889 19.799979 -3.173999 22.467507 -1.097783 1.712541 0.032594 -0.020732 740786.000000 0 1 0
-11.440889 19.835579 -2.321299 23.015920 -1.047621 1.671824 0.034254 -0.019627 186286.000000 0 1 0
-11.382289 19.674379 -0.953999 22.749677 -1.046311 1.612743 0.031952 -0.024928 34520.800000 0 1 0
-10.965489 18.402179 -0.513299 21.427683 -1.033412 1.594754 0.029611 -0.025973 -328699.000000 0 1 0
-10.712489 18.244979 1.016301 21.181821 -1.039881 1.522798 0.025415 -0.021908 -32898.800000 0 1 0
-11.829289 18.285479 1.882501 21.859429 -0.996588 1.484571 0.039022 -0.025930 81400.800000 0 1 0
-11.412489 18.512079 3.230501 21.985861 -1.018341 1.423327 0.029227 -0.016566 46663.500000 0 1 0
-12.581089 18.569579 4.257201 22.830611 -0.975324 1.383229 0.036606 -0.019678 159715.000000 0 1 0
-13.221889 17.364079 4.444001 22.272825 -0.920007 1.369922 0.011535 -0.014748 -895937.000000 0 1 0
-14.530289 17.545479 4.863501 23.294350 -0.879125 1.360464 0.028890 -0.019293 -405617.000000 0 1 0
-15.172789 16.103979 5.183801 22.724952 -0.815162 1.340660 0.023012 -0.017504 -74148.600000 0 1 0
-14.610089 15.518379 6.346801 22.238630 -0.815536 1.281377 0.022502 -0.013618 117911.000000 0 1 0
-14.978489 16.140779 7.570901 23.285154 -0.822730 1.239638 0.015331 -0.009508 -1133470.000000 0 1 0
-13.972389 15.881679 8.667501 22.860029 -0.849265 1.181913 0.006166 0.000373 405949.000000 0 1 0
-12.792289 16.669679 8.648701 22.722695 -0.916253 1.180330 0.005846 -0.012326 -119384.000000 0 1 0
-11.789689 16.323279 7.738401 21.571487 -0.945285 1.203886 0.003438 -0.004451 -609001.000000 0 1 0
-10.653989 17.356079 7.615601 21.742547 -1.020257 1.212945 0.018878 -0.006329 -76203.500000 0 1 0
-9.848589 17.457279 8.734501 21.864190 -1.057152 1.159837 0.019757 0.001670 -191812.000000 0 1 0
-9.007989 18.620279 8.755201 22.461349 -1.120214 1.170393 0.014768 0.000294 180210.000000 0 1 0
-7.798189 18.583379 9.706601 22.368992 -1.173481 1.121945 0.019774 0.000519 194276.000000 0 1 0
-6.777789 17.747779 9.125101 21.075805 -1.205994 1.123016 0.016231 0.000307 456218.000000 0 1 0
-5.472889 17.895779 9.663801 21.061825 -1.274009 1.094118 0.012966 -0.005850 911824.000000 0 1 0
-4.547389 19.025879 9.098701 21.574271 -1.336187 1.135434 0.011837 -0.005774 -1120240.000000 0 1 0
-4.983689 20.357479 9.273101 22.918431 -1.330709 1.154240 0.017855 -0.009536 -92437.700000 0 1 0
-4.357189 21.285179 8.385501 23.288636 -1.368881 1.202455 0.028013 -0.017286 138809.000000 0 1 0
-2.890289 21.674979 8.665901 23.521401 -1.438232 1.193481 0.036404 -0.017784 -11162.300000 0 1 0
-1.928789 20.706579 8.266401 22.378919 -1.477916 1.192451 0.026676 -0.010959 -387661.000000 0 1 0
-0.736489 21.387879 7.954801 22.831177 -1.536375 1.214913 0.021338 -0.018371 336929.000000 0 1 0
0.545011 20.507179 8.007801 22.021950 1.544226 1.198637 0.016424 -0.010978 431243.000000 0 1 0
0.772611 20.008779 9.287201 22.072613 1.532202 1.136517 0.019182 -0.008726 -506654.000000 0 1 0
2.081411 19.485179 9.247401 21.668385 1.464380 1.129879 0.005311 -0.013076 31949.500000 0 1 0
2.713211 19.003479 10.588401 21.922773 1.428980 1.066734 -0.002414 -0.021737 429343.000000 0 1 0
4.074411 18.592179 10.506001 21.740423 1.355060 1.066436 0.013589 -0.008369 -16534.200000 0 1 0
4.610611 18.568479 11.783101 22.469704 1.327415 1.018787 0.008585 -0.002851 -633420.000000 0 1 0
6.097011 18.915279 11.720601 23.072360 1.258979 1.037943 0.014019 -0.004310 -396423.000000 0 1 0
6.933611 17.954979 11.105201 22.221200 1.202272 1.047478 0.016230 -0.001585 281290.000000 0 1 0
7.593911 17.079179 12.090901 22.261081 1.152417 0.996623 0.014906 0.005716 -391694.000000 0 1 0
8.801011 16.395079 11.450501 21.848807 1.078138 1.019163 0.013843 0.003727 -869159.000000 0 1 0
9.800811 17.301879 11.131701 22.788718 1.055404 1.060456 0.021317 -0.005057 -794553.000000 0 1 0
10.655511 16.667079 10.224001 22.267951 1.001969 1.093775 0.018587 -0.013042 -17435.600000 0 1 0
11.735311 17.589379 9.609701 23.226066 0.982437 1.144231 0.026668 -0.011757 1051450.000000 0 1 0
12.762611 17.009879 8.742401 22.992386 0.927100 1.180751 0.031336 -0.008877 876932.000000 0 1 0
13.434811 18.048879 8.005501 23.881881 0.930916 1.228966 0.044146 -0.011397 502218.000000 0 1 0
14.576911 17.444779 7.115501 23.820936 0.874720 1.267458 0.048915 -0.023820 -385641.000000 0 1 0
15.600411 16.891279 7.841501 24.293564 0.825106 1.242130 0.054148 -0.016602 -303143.000000 0 1 0
16.676711 16.523379 6.986701 24.493851 0.780780 1.281536 0.063259 -0.013748 645157.000000 0 1 0
18.118311 16.529179 7.571001 25.667236 0.739565 1.271375 0.053804 -0.008338 361803.000000 0 0 1
18.333311 15.408279 8.341701 25.359600 0.698925 1.235619 0.057641 -0.008611 -245434.000000 0 0 1
19.390811 15.631479 9.220201 26.558592 0.678466 1.216250 0.055206 -0.003543 -470879.000000 0 0 1
19.561511 14.480379 10.198401 26.388283 0.637231 1.173990 0.036916 -0.007225 -47239.200000 0 0 1
20.122211 13.307379 9.611301 25.968574 0.584297 1.191666 0.039140 -0.009858 382336.000000 0 0 1
20.066211 12.336279 10.587701 25.825104 0.551215 1.148367 0.035596 -0.017186 -113731.000000 0 0 1
20.960811 11.132479 10.181701 25.825466 0.488224 1.165544 0.035148 -0.014025 634190.000000 0 0 1
22.363211 11.433679 10.014901 27.039609 0.472624 1.191379 0.034750 -0.017714 1452520.000000 0 0 1
23.128911 10.457879 9.313501 27.038030 0.424646 1.219134 0.046135 -0.020224 -62658.100000 0 0 1
23.244411 8.975179 9.830701 26.786175 0.368486 1.195007 0.057729 -0.026360 -1010810.000000 0 0 1
22.211911 8.115579 9.463501 25.471346 0.350302 1.190134 0.066464 -0.027058 101113.000000 0 0 1
22.414311 6.779779 9.900201 25.424019 0.293726 1.170812 0.076686 -0.028579 -1040670.000000 0 0 1
23.543611 6.015779 9.263401 26.005803 0.250164 1.206593 0.071496 -0.023542 -475999.000000 0 0 1
23.396511 5.848179 7.857701 25.364175 0.244940 1.255819 0.070879 -0.020064 -56502.800000 0 0 1
24.517511 5.175479 7.376301 26.120945 0.208039 1.284511 0.064045 -0.018212 -330262.000000 0 0 1
24.368611 4.806779 5.900301 25.529353 0.194753 1.337569 0.072790 -0.023032 23639.900000 0 0 1
23.315011 3.861979 5.670301 24.303435 0.164153 1.335313 0.067280 -0.018947 860566.000000 0 1 0
23.092411 3.705579 4.287001 23.777492 0.159111 1.389508 0.067393 -0.017514 302151.000000 0 1 0
22.040411 2.567279 4.065801 22.558843 0.115958 1.389575 0.045251 -0.012606 8469.940000 0 1 0
22.629011 1.352079 4.454001 23.102779 0.059679 1.376791 0.054506 -0.014117 713954.000000 0 1 0
21.875711 0.199279 4.032801 22.245223 0.009109 1.388500 0.053421 -0.018350 -312757.000000 0 1 0
22.496111 -1.166521 4.323101 22.937415 -0.051808 1.381189 0.058766 -0.021582 -579941.000000 0 1 0
22.404311 -1.532621 5.653901 23.157476 -0.068301 1.324153 0.057143 -0.019730 514055.000000 0 1 0
22.527211 -2.936421 5.836601 23.455569 -0.129619 1.319318 0.045089 -0.020795 -556743.000000 0 1 0
22.186311 -3.411421 7.258801 23.591532 -0.152568 1.258035 0.051391 -0.018629 -211378.000000 0 1 0
22.198911 -4.791221 7.355601 23.871580 -0.212571 1.257567 0.040656 -0.021331 607986.000000 0 1 0
22.001511 -5.127221 8.695401 24.206712 -0.228953 1.203370 0.048082 -0.019612 -89903.700000 0 1 0
21.933211 -6.656921 8.995501 24.623147 -0.294673 1.196812 0.056112 -0.022126 385629.000000 0 1 0
20.662911 -7.199621 8.658601 23.532144 -0.335277 1.193995 0.055421 -0.024370 673165.000000 0 1 0
20.550911 -8.413121 9.344801 24.092444 -0.388566 1.172474 0.060656 -0.020263 -192601.000000 0 1 0
-26.139019 -32.875143 5.311101 42.334751 0.899050 1.445010 0.015165 -0.018039 132733.000000 0 0 1
-26.489319 -34.144843 5.960401 43.624313 0.910991 1.433737 0.020506 -0.007913 208930.000000 0 0 1
-26.764619 -33.978243 7.343501 43.872461 0.903601 1.402622 0.024789 -0.003849 -424554.000000 0 0 1
-27.418069 33.788979 7.915301 44.227792 -0.889113 1.390860 0.035084 -0.002700 -95653.900000 0 0 1
-28.812929 33.777279 7.698401 45.059459 -0.864548 1.399104 0.032950 -0.007893 -211154.000000 0 0 1
-29.407349 32.533079 8.045601 44.586153 -0.835819 1.389352 0.034972 -0.006988 104977.000000 0 0 1
-30.946399 32.588779 8.066201 45.659300 -0.811242 1.393204 0.026986 -0.006499 -157366.000000 0 0 1
-31.439129 32.724879 6.729601 45.876182 -0.805434 1.423575 0.016631 -0.003312 53331.700000 0 0 1
-32.856939 32.799879 6.755801 46.915364 -0.784529 1.426294 0.003834 -0.004947 264812.000000 0 0 1
-33.467189 32.788379 5.343301 47.155926 -0.775153 1.457241 0.001615 -0.004709 -282003.000000 0 0 1
-33.261259 31.587979 4.663301 46.107029 -0.759601 1.469482 -0.005555 -0.001469 69832.500000 0 0 1
-34.045919 31.498879 3.497001 46.513793 -0.746558 1.495543 -0.008078 0.004214 -29841.200000 0 0 1
-33.749759 30.174379 2.640801 45.348795 -0.729525 1.512530 -0.011404 0.005373 -81415.300000 0 0 1
-33.944309 28.882179 3.286801 44.690037 -0.704999 1.497183 -0.000745 -0.000149 411733.000000 0 0 1
-33.316089 27.793679 2.616401 43.466032 -0.695274 1.510566 -0.008427 0.005420 -45150.000000 0 0 1
-33.796749 26.532279 3.398101 43.101382 -0.665561 1.491875 0.003686 0.005570 -567454.000000 0 0 1
-35.084568 26.115379 3.053501 43.843629 -0.639879 1.501095 0.005427 0.004029 -701290.000000 0 0 1
-35.335043 25.130379 3.991801 43.543492 -0.618205 1.478994 0.006384 0.004383 377190.000000 0 0 1
34.181932 24.609579 4.013701 42.310113 0.623996 1.475790 0.029783 -0.001618 -102740.000000 0 0 1
33.786422 23.759779 2.949201 41.409506 0.612894 1.499516 0.024901 -0.007477 -19938.200000 0 0 1
34.368582 22.474879 2.906101 41.167524 0.579138 1.500145 0.024858 -0.006480 -525799.000000 0 0 1
33.488662 21.488879 2.101801 39.845702 0.570501 1.518023 0.030470 -0.008274 449276.000000 0 0 1
32.179072 21.228179 2.613601 38.638830 0.583156 1.503103 0.024120 -0.024786 753351.000000 0 0 1
32.056892 20.338079 3.722501 38.146281 0.565357 1.473056 0.015437 -0.009506 -471698.000000 0 0 1
32.291272 18.913179 3.254101 37.563596 0.529843 1.484058 0.010786 -0.009977 -1050090.000000 0 0 1
31.456772 18.520679 2.231501 36.572170 0.532118 1.509742 0.004019 -0.018214 -69664.000000 0 0 1
31.607882 17.208479 1.820301 36.034753 0.498562 1.520260 -0.003803 -0.011518 -600785.000000 0 0 1
31.071022 16.192079 2.804301 35.149053 0.480409 1.490928 0.000145 -0.017348 -408740.000000 0 0 1
29.673202 15.990579 2.793301 33.823070 0.494273 1.488116 -0.016756 -0.015528 163404.000000 0 0 1
29.347972 15.020679 3.776101 33.184080 0.473053 1.456757 -0.013418 -0.019020 617524.000000 0 0 1
27.809052 14.844879 4.056001 31.783092 0.490332 1.442832 -0.021777 -0.009368 866986.000000 0 0 1
27.159252 14.374579 2.872801 30.862703 0.486789 1.477578 -0.009610 -0.022582 -52151.600000 0 0 1
25.818662 14.810279 2.867201 29.902650 0.520802 1.474764 -0.020269 -0.014501 -251936.000000 0 0 1
24.952962 14.240779 1.723501 28.782296 0.518600 1.510880 0.011739 -0.019635 -745084.000000 0 0 1
25.237162 14.665079 0.366001 29.190972 0.526400 1.558258 0.020219 -0.022187 518294.000000 0 0 1
26.465582 14.153979 -0.133299 30.012996 0.491104 1.575238 0.021119 -0.024086 -263323.000000 0 0 1
27.025452 14.831179 -1.424099 30.860443 0.501910 1.616959 0.039452 -0.025322 27877.700000 0 0 1
27.377552 16.207379 -1.380999 31.845198 0.534513 1.614176 0.027988 -0.022724 673389.000000 0 0 1
28.323872 16.640679 -0.398899 32.852900 0.531188 1.582939 0.022227 -0.026688 -269574.000000 0 0 1
28.802222 18.074579 -0.540499 34.008095 0.560425 1.586690 0.036506 -0.019239 -21880.700000 0 0 1
29.824072 18.175279 -1.533199 34.959501 0.547315 1.614667 0.025072 -0.007703 242179.000000 0 0 1
30.581582 19.350879 -1.515299 36.221344 0.564162 1.612643 0.022526 0.004931 -213207.000000 0 0 1
29.926012 20.649279 -2.051699 36.416595 0.603990 1.627166 0.036692 0.007487 -589397.000000 0 0 1
30.855862 21.650879 -2.393899 37.770035 0.611851 1.634220 0.001427 0.013735 302336.000000 0 0 1
30.204092 22.710379 -3.032299 37.910992 0.644714 1.650867 0.024970 0.012110 -572112.000000 0 0 1
31.173482 23.864379 -3.314099 39.398957 0.653369 1.655012 -0.001331 0.008527 -254656.000000 0 0 1
31.516162 24.573679 -2.147699 40.021829 0.662250 1.624485 -0.009644 0.005067 -322816.000000 0 0 1
32.712332 24.222979 -1.537399 40.733438 0.637383 1.608548 0.003968 0.014717 -780902.000000 0 0 1
33.073992 24.837079 -0.155899 41.361742 0.644112 1.574565 0.003629 -0.004361 29861.800000 0 0 1
33.284502 26.224779 -0.338199 42.375836 0.667318 1.578777 0.013665 -0.001473 35967.700000 0 0 1
34.332102 26.774179 0.442301 43.540160 0.662338 1.560638 0.012741 0.000035 113645.000000 0 0 1
34.737182 28.152179 -0.119599 44.712764 0.681071 1.573471 -0.004231 -0.004073 -2076.510000 0 0 1
35.322291 28.180479 -1.412799 45.208402 0.673404 1.602052 -0.015623 -0.005554 376164.000000 0 0 1
34.320992 28.353179 -2.401899 44.582534 0.690465 1.624698 -0.017465 -0.002309 27770.700000 0 0 1
34.734232 27.731679 -3.756399 44.605195 0.673762 1.655111 -0.007407 0.000624 685971.000000 0 0 1
-35.347628 28.736879 -4.345499 45.761844 -0.682605 1.665899 -0.009794 0.001592 880471.000000 0 0 1
-34.904490 28.400679 -5.686999 45.357071 -0.683020 1.696510 -0.003454 -0.000200 79876.300000 0 0 1
34.986209 28.381479 -6.780299 45.557827 0.681544 1.720180 -0.024343 0.003644 491128.000000 0 0 1
33.884132 27.542279 -6.500699 44.147147 0.682520 1.718584 -0.018738 0.013449 -46451.100000 0 0 1
32.724212 27.599579 -7.306599 43.428069 0.700650 1.739846 -0.026533 0.008446 187504.000000 0 0 1
31.724452 26.514479 -6.769499 41.896116 0.696177 1.733086 -0.019235 0.010112 -349084.000000 0 0 1
32.036392 25.122779 -6.877099 41.288968 0.665029 1.738136 -0.019722 0.010809 540403.000000 0 0 1
33.258312 24.651779 -6.275899 41.871379 0.637859 1.721248 -0.015725 0.013270 609473.000000 0 0 1
33.558552 23.166279 -6.651199 41.316962 0.604203 1.732480 -0.005369 0.014172 458529.000000 0 0 1
32.584012 22.267979 -6.076599 39.931263 0.599499 1.723566 0.002313 0.023393 831770.000000 0 0 1
32.931162 20.885379 -6.328999 39.505907 0.565197 1.731694 0.021144 0.021847 -11851.700000 0 0 1
31.838132 19.906779 -5.900599 38.010045 0.558779 1.726665 0.037366 0.010959 1541530.000000 0 0 1
30.570382 19.786379 -6.644599 37.016209 0.574433 1.751280 0.023797 0.006294 1967060.000000 0 0 1
29.679752 18.890779 -5.944399 35.680318 0.566817 1.738178 0.070855 -0.006126 938226.000000 0 0 1
28.348762 18.691279 -6.761299 34.622700 0.582908 1.767345 0.047832 -0.006790 467144.000000 0 0 1
28.437262 17.824279 -7.898499 34.478531 0.559888 1.801933 0.037304 -0.010166 1469110.000000 0 0 1
27.177072 17.854079 -8.667499 33.652443 0.581248 1.831292 0.044288 -0.016768 1530950.000000 0 0 1
27.050162 16.662479 -9.608299 33.191398 0.552090 1.864482 0.052017 -0.020282 -244997.000000 0 0 1
26.102772 16.771979 -10.649799 32.803539 0.571110 1.901442 0.049024 -0.018882 168986.000000 0 0 1
26.182642 15.711079 -11.558199 32.649054 0.540461 1.932655 0.042336 -0.018618 -184081.000000 0 0 1
25.329762 15.937979 -12.827299 32.560031 0.561628 1.975731 0.039458 -0.013498 359309.000000 0 0 1
23.911462 15.887779 -12.669099 31.379700 0.586461 1.986393 0.032529 -0.011988 868618.000000 0 0 1
23.149562 15.770279 -13.875199 31.259000 0.598020 2.030719 0.031087 -0.009791 -64613.100000 0 0 1
23.057262 14.401979 -14.595799 30.855983 0.558325 2.063523 0.031732 -0.008989 -158108.000000 0 0 1
24.270562 13.893479 -15.132799 31.797650 0.519909 2.066794 0.037267 -0.013665 531143.000000 0 0 1
24.859562 14.543779 -16.242099 33.065467 0.529345 2.084275 0.039440 -0.016697 -384935.000000 0 0 1
26.170822 13.918879 -16.765999 34.055041 0.488800 2.085550 0.056341 -0.013385 65822.500000 0 0 1
26.062912 12.629679 -17.241299 33.705290 0.451239 2.107762 0.054573 -0.011653 82379.900000 0 0 1
27.375062 12.190379 -17.508599 34.706633 0.418947 2.099569 0.042429 -0.000163 105623.000000 0 0 1
27.425332 10.740279 -18.037899 34.537924 0.373260 2.120299 0.032364 0.004171 -184518.000000 0 0 1
27.030922 10.537679 -19.374199 34.886573 0.371715 2.159578 0.025780 -0.003950 -108465.000000 0 0 1
27.299952 9.278379 -19.962499 35.069603 0.327620 2.176359 0.007420 0.001286 104704.000000 0 0 1
28.731572 8.952679 -20.466799 36.394279 0.302062 2.168037 0.002290 0.001849 -154434.000000 0 0 1
29.057862 9.952679 -21.433499 37.454106 0.329989 2.180056 0.001724 -0.003044 131499.000000 0 0 1
29.431352 9.530079 -22.798499 38.429135 0.313153 2.205900 -0.013104 0.007892 -2199.280000 0 0 1
30.830812 8.862979 -22.949699 39.443378 0.279923 2.191784 -0.018065 0.015470 875295.000000 0 0 1
31.857782 9.884179 -22.787599 40.396657 0.300842 2.170135 -0.016420 0.015663 900746.000000 0 0 1
33.201802 9.446779 -22.882099 41.414873 0.277201 2.156168 -0.031806 0.017371 632517.000000 0 0 1
34.231182 10.606079 -22.688199 42.414822 0.300457 2.135200 -0.010757 0.011065 47237.500000 0 0 1
34.214992 11.112779 -21.394299 41.855413 0.314044 2.107316 -0.010335 0.009937 516283.000000 0 0 1
35.069640 12.250679 -21.170499 42.756857 0.336073 2.088789 -0.023543 0.009752 287485.000000 0 0 1
34.705862 12.797579 -19.728099 41.922223 0.353275 2.060753 -0.032581 0.021168 -224028.000000 0 0 1
35.129475 12.089279 -18.624299 41.558335 0.331440 2.035489 -0.023863 0.014974 184280.000000 0 0 1
34.999920 12.816179 -17.418199 41.141737 0.351013 2.007959 -0.008148 0.006660 -225273.000000 0 0 1
-35.268861 12.032079 -16.276299 40.664252 -0.328772 1.982598 -0.008069 0.011426 -523702.000000 0 0 1
35.078121 10.842779 -15.823999 39.980487 0.299788 1.977728 -0.002278 0.007525 541465.000000 0 0 1
-35.079809 10.101579 -14.925499 39.438629 -0.280375 1.958916 0.019877 0.000792 312903.000000 0 0 1
35.283478 8.717079 -14.623599 39.176025 0.242208 1.953338 0.023934 0.001530 1108020.000000 0 0 1
34.054552 8.720479 -13.842199 37.780494 0.250687 1.945917 0.032754 0.007842 1342330.000000 0 0 1
34.195572 8.672979 -12.423599 37.401919 0.248391 1.909394 0.032213 -0.004030 -645192.000000 0 0 1
32.938872 9.115379 -11.665899 36.113053 0.269980 1.899734 0.041895 -0.005468 -442222.000000 0 0 1
32.755092 10.517179 -11.671999 36.328263 0.310687 1.897890 0.038705 -0.012651 687336.000000 0 0 1
31.614202 10.906879 -10.887099 35.170253 0.332213 1.885520 0.033994 -0.007685 122461.000000 0 0 1
31.696942 10.681579 -9.317799 34.721947 0.325039 1.842481 0.040269 -0.005771 -501966.000000 0 0 1
32.752022 11.345279 -8.627399 35.718935 0.333464 1.814744 0.040808 -0.003412 194695.000000 0 0 1
32.749442 12.755579 -8.449699 36.147312 0.371413 1.806737 0.036676 -0.007905 -761473.000000 0 0 1
32.748562 13.127179 -6.952299 35.960055 0.381237 1.765355 0.028030 -0.002130 20713.500000 0 0 1
33.835132 12.678379 -6.143599 36.651074 0.358517 1.739215 0.040511 -0.002290 309852.000000 0 0 1
33.485562 12.710179 -4.791799 36.135756 0.362773 1.703794 0.042180 -0.000498 -462273.000000 0 0 1
34.652112 12.423779 -3.845999 37.012307 0.344253 1.674896 0.055106 0.009227 -75474.100000 0 0 1
-35.393434 13.491979 -3.890299 38.077068 -0.364195 1.673144 0.044464 0.024489 414388.000000 0 0 1
-34.256239 13.264579 -3.055899 36.861599 -0.369438 1.653794 0.035108 0.003934 -326460.000000 0 0 1
-33.228509 14.350779 -3.138399 36.330816 -0.407685 1.657288 0.026042 0.003682 -438283.000000 0 0 1
-33.561859 15.529679 -2.437899 37.060932 -0.433380 1.636625 0.038420 0.003487 136045.000000 0 0 1
-32.565509 16.466779 -2.759299 36.596187 -0.468158 1.646266 0.035693 0.009890 84749.600000 0 0 1
-32.539649 17.690279 -1.789299 37.080673 -0.497957 1.619069 0.035998 0.020906 273435.000000 0 0 1
-33.676599 18.536479 -1.966099 38.491297 -0.503170 1.621898 0.017328 0.021760 423623.000000 0 0 1
-33.898719 19.291379 -0.809999 39.012005 -0.517380 1.591561 -0.000556 0.023975 869716.000000 0 0 1
-35.212950 20.202679 -0.798599 40.604653 -0.520878 1.590465 -0.007895 0.029441 1005310.000000 0 0 1
-35.231598 21.471179 -1.515899 41.286499 -0.547324 1.607521 0.003586 0.029870 7220.540000 0 0 1
35.375851 21.323479 -2.880799 41.405804 0.542453 1.640427 -0.021424 0.039439 -37849.100000 0 0 1
-35.234473 22.607379 -3.613799 42.019296 -0.570466 1.656906 0.010767 0.000072 677990.000000 0 0 1
-33.825249 22.787479 -3.795299 40.961213 -0.592844 1.663585 0.019441 0.016519 447532.000000 0 0 1
-33.569719 23.989679 -4.440699 41.498802 -0.620473 1.678009 0.026003 -0.002493 240512.000000 0 0 1
-32.108889 24.214979 -4.900399 40.513700 -0.646153 1.692050 0.032572 -0.008131 266274.000000 0 0 1
-31.706049 23.294179 -5.935999 39.788546 -0.633632 1.720544 0.018261 0.001031 772248.000000 0 0 1
-30.453499 23.694279 -6.540199 39.135772 -0.661211 1.738700 0.025066 0.006187 944469.000000 0 0 1
-29.983389 22.944579 -7.836399 38.559907 -0.653185 1.775449 0.019708 -0.008408 141004.000000 0 0 1
-30.753069 23.224879 -9.011399 39.577160 -0.646824 1.800503 0.024234 -0.013957 -67040.100000 0 0 1
-30.084599 22.855179 -10.175299 39.127727 -0.649678 1.833874 -0.001231 -0.009204 -439996.000000 0 0 1
-30.943789 22.814379 -11.432499 40.108802 -0.635313 1.859842 -0.005212 -0.007202 -537808.000000 0 0 1
-31.599049 24.035779 -11.696099 41.388613 -0.650282 1.857292 0.016213 -0.012581 203639.000000 0 0 1
-32.128599 24.087879 -13.043599 42.220946 -0.643330 1.884871 0.007673 -0.012240 -458845.000000 0 0 1
-32.540399 25.490479 -13.541699 43.497353 -0.664505 1.887381 0.031002 -0.018659 662959.000000 0 0 1
-31.507859 26.495479 -13.741499 43.400281 -0.699197 1.892963 0.018461 -0.010421 754837.000000 0 0 1
-30.421069 26.191679 -14.610099 42.718854 -0.710829 1.919847 0.010802 -0.009811 66897.700000 0 0 1
-29.058309 26.759079 -14.178699 41.969860 -0.744229 1.915407 -0.000358 -0.000479 -180574.000000 0 0 1
-28.440859 26.027979 -13.060899 40.705346 -0.741129 1.897438 0.009505 -0.010592 163051.000000 0 0 1
-29.057239 25.950379 -11.781399 40.700696 -0.728978 1.864463 0.017655 -0.011167 -766659.000000 0 0 1
-29.175629 27.291779 -11.051899 41.451212 -0.752049 1.840685 0.029680 0.000063 -218077.000000 0 0 1
-27.920879 27.775079 -10.669899 40.802907 -0.782780 1.835371 0.031279 0.004030 -465910.000000 0 0 1
-28.133129 29.013579 -10.119099 41.661215 -0.800804 1.816140 0.023219 -0.007195 508787.000000 0 0 1
-26.882449 29.848279 -9.713299 41.327158 -0.837630 1.808050 0.034444 -0.009580 502548.000000 0 0 1
-27.313269 30.993179 -8.968799 42.273291 -0.848428 1.784583 0.023317 -0.014596 -21750.400000 0 0 1
-26.224829 31.870579 -8.799299 42.200748 -0.882275 1.780848 0.042558 -0.011252 -192607.000000 0 0 1
33.617782 -25.088971 33.846444 53.899847 -0.641129 0.891879 0.013529 -0.005435 -132055.000000 0 0 1
33.154892 -23.778621 34.061810 53.149568 -0.622175 0.875169 0.012116 -0.011833 363792.000000 0 0 1
32.265692 -23.708021 -33.671729 52.315681 -0.633686 2.270023 -0.008077 0.001735 345975.000000 0 0 1
31.861752 -22.232721 -33.368009 51.214150 -0.609239 2.280408 -0.011216 0.001419 135624.000000 0 0 1
31.068142 -21.680821 -34.405152 51.176185 -0.609280 2.308092 -0.022999 -0.001198 99905.200000 0 0 1
30.728972 -20.344821 -34.073913 50.191762 -0.584816 2.317025 -0.031678 0.009693 55487.600000 0 0 1
30.575932 -19.486421 33.491881 49.359035 -0.567404 0.825029 -0.032250 0.005462 27478.400000 0 0 1
31.802582 -19.249721 32.838798 49.601841 -0.544299 0.847248 -0.014134 -0.006474 167171.000000 0 0 1
31.499452 -18.691921 31.550075 48.342637 -0.535556 0.859740 -0.008972 -0.000223 -600974.000000 0 0 1
32.710592 -18.545221 30.648455 48.510162 -0.515762 0.886930 -0.009735 0.007460 -1009260.000000 0 0 1
33.538892 -17.545421 31.115875 48.998946 -0.481985 0.882747 -0.006945 -0.008680 150663.000000 0 0 1
34.580492 -17.324621 30.140645 49.034798 -0.464443 0.908818 0.025591 -0.011618 -141937.000000 0 0 1
-35.402413 -16.258521 30.573045 49.521525 0.430519 0.905403 0.026780 -0.013463 -2142260.000000 0 0 1
-34.621713 -15.798221 29.523115 48.164936 0.428089 0.910997 0.036888 -0.012712 683097.000000 0 0 1
-33.543439 -14.912421 29.917565 47.356132 0.418330 0.886979 0.024318 -0.018730 438678.000000 0 0 1
-32.453889 -15.671421 30.673795 47.325786 0.449860 0.865655 0.050678 -0.019026 -2192150.000000 0 0 1
-31.351409 -14.905221 31.043425 46.570062 0.443794 0.841163 0.040389 -0.015930 1086480.000000 0 0 1
-30.255279 -15.760321 31.520815 46.447082 0.480236 0.824888 0.044190 -0.017795 1371950.000000 0 0 1
-29.020749 -15.179121 32.244005 45.959606 0.481912 0.793194 0.032319 -0.013175 88757.200000 0 0 1
-29.257339 -14.679921 33.502722 46.839346 0.465048 0.773788 0.041276 -0.020682 818409.000000 0 0 1
-28.317189 -13.627421 33.868342 46.202104 0.448529 0.748005 0.030950 -0.014937 702348.000000 0 0 1
-28.819049 -12.940621 -33.652969 46.157552 0.422047 2.387786 0.030975 -0.000985 151692.000000 0 0 1
-28.565309 -13.812021 -32.551149 45.456860 0.450380 2.368979 0.038412 0.000864 166486.000000 0 0 1
-28.759279 -13.098021 -31.309889 44.485542 0.427366 2.351559 0.042259 0.007414 -209660.000000 0 0 1
-29.033769 -14.066521 -30.119469 44.136257 0.451161 2.321865 0.049747 0.004451 -153761.000000 0 0 1
-30.313249 -14.642821 -30.171979 45.206787 0.449996 2.301537 0.047783 -0.001203 -208719.000000 0 0 1
-30.543619 -15.435721 -29.017089 44.868314 0.467932 2.274068 0.058138 -0.003505 -289113.000000 0 0 1
-31.756679 -16.328021 -29.020459 46.013889 0.474912 2.253237 0.052596 -0.011369 -505355.000000 0 0 1
-31.472599 -17.425621 -29.790189 46.707945 0.505661 2.262431 0.052862 -0.006864 147610.000000 0 0 1
-32.574009 -18.307421 -29.850569 47.825560 0.512029 2.244846 0.032230 -0.006236 -113301.000000 0 0 1
-32.294739 -19.616821 -30.579119 48.609180 0.545865 2.251167 0.029725 -0.008695 567719.000000 0 0 1
-33.420729 -20.521721 -30.572229 49.726727 0.550680 2.232935 0.009750 -0.006574 614896.000000 0 0 1
-33.089839 -21.748321 -31.211269 50.418947 0.581456 2.238314 0.008733 -0.008030 -130255.000000 0 0 1
-34.305524 -22.589821 -31.671089 51.867397 0.582320 2.227635 0.011130 -0.011527 192626.000000 0 0 1
-35.185869 -22.966421 -30.601789 51.980490 0.578283 2.200267 -0.013967 0.004306 607030.000000 0 0 1
34.884672 -24.037121 -30.968579 52.476437 -0.603336 2.202032 -0.006038 0.002483 437815.000000 0 0 1
35.465436 -25.461151 -31.186239 53.653042 -0.622648 2.191070 -0.007807 0.006890 -97780.200000 0 0 1
-35.025933 -25.726321 -32.482239 54.256386 0.633503 2.212649 0.005408 -0.001567 -292928.000000 0 0 1
-34.292024 -26.914531 -32.587379 54.426760 0.665442 2.212721 0.003849 -0.003563 -188535.000000 0 0 1
-34.518604 -27.550271 -33.961349 55.712877 0.673599 2.226325 0.016321 -0.015640 690062.000000 0 0 1
35.073114 -27.876911 -34.029639 56.260660 -0.671576 2.220382 0.024759 -0.007768 202648.000000 0 0 1
34.763022 -28.978421 34.000621 56.606173 -0.694895 0.926480 0.022191 -0.007041 296124.000000 0 0 1
35.314824 -30.405751 -34.321874 57.876053 -0.710840 2.205605 0.019860 -0.008990 353657.000000 0 0 1
34.941579 -30.692051 -33.022969 57.038868 -0.720742 2.188243 0.017039 -0.011840 -329901.000000 0 0 1
-35.218326 -31.732091 -32.548939 57.503822 0.733373 2.172480 0.020839 -0.016835 -41777.600000 0 0 1
-35.313387 -32.238801 -31.067209 57.022338 0.739915 2.146977 0.019378 -0.019841 -587055.000000 0 0 1
34.641812 -33.144571 -30.884449 57.030404 -0.763314 2.143068 0.016351 -0.014287 -364718.000000 0 0 1
34.231352 -33.236671 -29.522639 56.107468 -0.770656 2.124899 0.019958 -0.012935 447734.000000 0 0 1
33.182422 -34.405727 -29.321579 56.076574 -0.803496 2.121028 0.011522 -0.009293 452666.000000 0 0 1
31.957562 -34.115157 -29.957729 55.521124 -0.818041 2.140727 0.016675 -0.010199 -389281.000000 0 0 1
30.900432 34.171511 -29.378739 54.641003 0.835625 2.138466 0.028479 -0.006943 -740253.000000 0 0 1
29.573362 -34.479240 -29.987649 54.430330 -0.861840 2.154282 0.028300 -0.000212 -804126.000000 0 0 1
29.417012 34.078130 -31.272189 54.814499 0.858676 2.177922 0.025839 0.002286 -611464.000000 0 0 1
28.089912 34.316483 -31.652189 54.484174 0.884844 2.190683 0.025137 -0.002361 -266515.000000 0 0 1
27.863902 33.896923 -33.129939 54.981736 0.882773 2.217505 0.020493 -0.012674 -61719.000000 0 0 1
27.731532 32.523801 -33.348909 54.212408 0.864764 2.233376 0.013797 -0.004231 -52245.900000 0 0 1
27.574462 32.275071 34.123116 54.464834 0.863778 0.893721 0.017860 -0.012462 4564.130000 0 0 1
27.389212 30.800901 33.693034 53.236124 0.843961 0.885506 0.012767 -0.008095 -545994.000000 0 0 1
28.515832 30.094171 34.080506 53.668358 0.812321 0.882761 0.018690 -0.004655 -933574.000000 0 0 1
28.422892 28.691671 34.206865 52.926197 0.790104 0.868054 0.020095 -0.009250 673511.000000 0 0 1
29.805962 27.956881 34.320473 53.365508 0.753397 0.872229 0.032708 -0.010232 712329.000000 0 0 1
30.407822 28.047131 -33.298299 53.104180 0.745035 2.248540 0.033448 -0.004807 236145.000000 0 0 1
31.715852 27.457431 -33.233519 53.518899 0.713557 2.240773 0.039614 -0.002610 1127650.000000 0 0 1
32.407932 27.738551 -31.823959 53.220913 0.707920 2.211749 0.027516 -0.001819 -210942.000000 0 0 1
32.938612 29.053991 -31.554189 54.080989 0.722817 2.193781 0.008571 0.000008 197373.000000 0 0 1
32.072682 30.178671 -31.503299 54.146717 0.754982 2.191753 0.019983 -0.000697 -54038.700000 0 0 1
31.277832 30.267201 -30.183519 52.966509 0.768979 2.177132 0.028692 -0.002828 212732.000000 0 0 1
32.076032 30.740101 -29.087769 53.102956 0.764134 2.150483 0.011256 0.003525 290027.000000 0 0 1
31.266652 30.768191 -27.933889 52.005646 0.777363 2.137829 0.025678 0.004387 -40242.100000 0 0 1
32.059272 31.106631 -26.638059 52.009668 0.770318 2.108512 0.023036 0.002090 -64906.300000 0 0 1
32.365222 32.507411 -26.637159 53.045053 0.787590 2.096892 0.023848 0.003255 58031.500000 0 0 1
32.906542 32.754741 -25.369819 52.908801 0.783086 2.070882 0.013601 -0.000007 -632666.000000 0 0 1
33.167892 34.256884 -25.259229 53.959909 0.801548 2.057948 0.016605 0.000010 441948.000000 0 0 1
31.934782 -34.072377 -25.037499 52.987107 -0.817771 2.062945 0.035869 0.005822 780868.000000 0 0 1
32.220872 -32.727541 -24.660799 52.128989 -0.793199 2.063571 0.021124 0.000443 -449015.000000 0 0 1
32.485222 -31.728551 -25.883109 52.267829 -0.773615 2.088863 0.012257 0.003081 140948.000000 0 0 1
33.711752 -31.988161 -26.554239 53.524315 -0.759170 2.089915 0.016104 -0.000362 -81078.400000 0 0 1
34.717162 -31.211751 -25.931569 53.403193 -0.732279 2.077824 0.020515 0.004406 267328.000000 0 0 1
-34.804674 -31.692111 -26.249599 53.896166 0.738625 2.079494 -0.004818 0.003409 234010.000000 0 0 1
-34.375848 -32.999501 -25.854939 54.213872 0.764973 2.067928 -0.002119 -0.003178 -114965.000000 0 0 1
-33.999409 -33.217431 -24.517999 53.483547 0.773765 2.047014 0.005649 -0.004542 -742713.000000 0 0 1
-32.670549 -32.645731 -24.080399 52.086218 0.785018 2.051404 0.000880 0.000305 -823659.000000 0 0 1
-32.734789 -31.203111 -24.056099 51.223983 0.761447 2.059663 0.002504 -0.008933 -155528.000000 0 0 1
-32.807909 -30.720661 -22.720599 50.362124 0.752555 2.038844 0.003179 -0.018469 -274327.000000 0 0 1
-32.473569 -29.222161 -22.723699 49.242602 0.732746 2.050441 0.014093 -0.009688 479519.000000 0 0 1
-33.578739 -28.320851 -22.893699 49.535076 0.700659 2.051239 0.002662 -0.004006 262836.000000 0 0 1
-34.059529 -28.265631 -24.230399 50.458990 0.692702 2.071679 0.009158 0.000793 435145.000000 0 0 1
-35.250170 -27.273871 -24.470199 50.845149 0.658512 2.072898 0.000006 0.002448 406998.000000 0 0 1
-34.844852 -25.973131 -24.058999 49.674970 0.640547 2.076392 -0.013476 0.010491 -55729.300000 0 0 1
35.315604 -24.938921 -24.514099 49.699927 -0.614857 2.086609 -0.008598 0.016893 -254977.000000 0 0 1
-35.236188 -24.498521 -25.947259 50.150042 0.607542 2.114598 -0.009386 0.018976 481793.000000 0 0 1
-34.055889 -23.680521 -25.974709 48.941354 0.607594 2.130260 -0.015462 0.010081 360973.000000 0 0 1
-33.889069 -23.055521 -27.224839 49.205873 0.597398 2.157098 -0.014902 0.001308 -451869.000000 0 0 1
-32.721579 -22.116421 -27.024249 47.855489 0.594366 2.170872 -0.003167 -0.013128 -981132.000000 0 0 1
-32.931539 -21.088021 -26.063209 46.994487 0.569568 2.158680 0.002714 -0.009237 404584.000000 0 0 1
-33.950779 -20.108221 -26.383279 47.466550 0.534721 2.160156 0.004139 -0.008458 565288.000000 0 0 1
-35.037733 -20.065421 -25.280899 47.638091 0.520089 2.130207 0.012475 -0.011549 -326334.000000 0 0 1
-34.571601 -19.650321 -24.009999 46.452242 0.516856 2.113993 0.011444 -0.014619 296417.000000 0 0 1
-33.861679 -20.616821 -23.159899 45.913479 0.546904 2.099512 -0.006094 -0.010387 350870.000000 0 0 1
-34.680685 -21.842921 -22.638299 46.822598 0.562065 2.075435 0.009283 -0.005633 301714.000000 0 0 1
35.248806 -21.492521 -21.750799 46.663734 -0.547549 2.055694 0.004777 -0.003020 -148097.000000 0 0 1
34.649892 -22.720621 -21.404499 46.636833 -0.580386 2.047622 0.003067 0.007265 10790.600000 0 0 1
33.419612 -22.519621 -20.480199 45.204451 -0.592955 2.040988 -0.003570 0.009134 493663.000000 0 0 1
32.381632 -21.660321 -20.963599 44.240390 -0.589552 2.064461 0.013248 0.017263 241451.000000 0 0 1
31.291592 -21.614821 -20.037599 42.986854 -0.604494 2.055711 0.020127 0.014930 -101281.000000 0 0 1
30.087552 -20.978321 -20.693399 42.113745 -0.608873 2.084458 0.020775 0.017284 -1081950.000000 0 0 1
29.679252 -21.682921 -21.814899 42.742214 -0.630953 2.106426 0.017771 0.024771 264501.000000 0 0 1
28.382462 -21.296221 -22.254399 41.884979 -0.643712 2.130956 0.039684 0.016703 412516.000000 0 0 1
28.436052 -20.119321 -23.244399 41.877180 -0.615761 2.159233 0.026855 0.005526 -319093.000000 0 0 1
28.552002 -18.864121 -22.569099 40.993123 -0.583856 2.153829 0.025802 0.013735 9866.650000 0 0 1
28.696282 -17.779521 -23.407999 41.079464 -0.554689 2.177086 0.018419 0.007688 -543967.000000 0 0 1
29.294182 -16.574421 -22.667199 40.579089 -0.514887 2.163485 0.013037 0.003843 -1185920.000000 0 0 1
28.620752 -16.152221 -21.589599 39.321145 -0.513796 2.152033 -0.006082 0.002264 -455230.000000 0 0 1
29.344132 -15.339421 -20.665299 39.031148 -0.481676 2.128756 -0.010280 0.002641 -337115.000000 0 0 1
30.391152 -15.990721 -19.749399 39.615200 -0.484359 2.092700 -0.002089 -0.001349 -286825.000000 0 0 1
31.458412 -16.479121 -20.521199 41.016006 -0.482536 2.094767 0.003851 -0.002664 -339661.000000 0 0 1
32.142432 -17.558621 -19.841699 41.654941 -0.499979 2.067278 0.003004 0.011647 69515.900000 0 0 1
33.317312 -17.995921 -20.739999 43.174576 -0.495240 2.071879 0.006914 -0.004605 432307.000000 0 0 1
34.340282 -16.990421 -20.894799 43.640829 -0.459452 2.070072 0.010206 -0.011743 472453.000000 0 0 1
35.388476 -17.489521 -21.715999 45.053437 -0.459009 2.073738 0.016317 -0.014886 -227876.000000 0 0 1
-34.771110 -16.301421 -22.149899 44.332657 0.438395 2.093967 0.032354 -0.021307 -539664.000000 0 0 1
-33.859079 -15.897021 -21.153799 42.972500 0.438956 2.085485 0.049187 -0.025031 398961.000000 0 0 1
-32.980789 -14.868821 -21.682599 42.177593 0.423546 2.110729 0.052201 -0.022554 -109926.000000 0 0 1
-31.788849 -14.581721 -20.733299 40.657437 0.430070 2.105924 0.051232 -0.022590 677108.000000 0 0 1
-30.682199 -15.483321 -20.947099 40.248125 0.467349 2.118173 0.058387 -0.028125 816029.000000 0 0 1
-30.822819 -16.632221 -20.103799 40.383656 0.494829 2.091880 0.047256 -0.028665 -668804.000000 0 0 1
-29.863089 -17.704821 -20.516099 40.325861 0.535158 2.104538 0.034795 -0.032652 -422547.000000 0 0 1
-29.809619 -18.779021 -19.527799 40.281509 0.562162 2.076912 0.043584 -0.040019 620108.000000 0 0 1
-28.871539 -19.826821 -19.866499 40.265946 0.601761 2.086770 0.051318 -0.038353 367698.000000 0 0 1
-29.322219 -21.195221 -19.319199 41.015380 0.625890 2.061247 0.039600 -0.020126 87891.000000 0 0 1
-30.365549 -21.758521 -20.113199 42.426885 0.621749 2.064701 0.032271 -0.017150 440870.000000 0 0 1
-30.548069 -23.053821 -19.554899 42.977404 0.646486 2.043173 0.027269 -0.000027 -134744.000000 0 0 1
-31.541969 -23.851121 -20.419399 44.505322 0.647439 2.047450 0.012545 -0.006835 -309790.000000 0 0 1
-31.098429 -24.160621 -21.755499 44.990551 0.660501 2.075510 0.012060 -0.015522 236345.000000 0 0 1
-31.998529 -24.867821 -22.590699 46.396703 0.660655 2.079337 0.006556 -0.008078 -245336.000000 0 0 1
-31.481379 -24.991151 -24.033799 46.832236 0.670973 2.109693 0.003819 0.000856 647792.000000 0 0 1
-30.187129 -25.595721 -24.188199 46.383970 0.703275 2.119378 0.007430 -0.010049 553574.000000 0 0 1
-30.088179 -26.030881 -25.521349 47.267796 0.713226 2.141151 0.006354 -0.000799 -762681.000000 0 0 1
-28.693239 -26.240981 -26.058829 46.807624 0.740788 2.161231 0.017925 -0.009663 -506807.000000 0 0 1
-28.006909 -25.064961 -26.518519 45.998599 0.730022 2.185244 0.018952 -0.010477 732192.000000 0 0 1
-26.609879 -25.328661 -26.666559 45.395287 0.760735 2.198676 0.021171 -0.009650 850666.000000 0 0 1
-25.703419 -24.101121 -26.941999 44.355395 0.753238 2.223595 0.032168 -0.009098 -108044.000000 0 0 1
-25.966609 -23.401221 -28.142989 44.876606 0.733480 2.248646 0.026542 -0.014444 -110211.000000 0 0 1
-24.908789 -22.521821 -28.414879 43.989607 0.735115 2.273057 0.033196 -0.024220 36489.700000 0 0 1
-24.872589 -22.026121 -29.919359 44.709772 0.724779 2.303915 0.032531 -0.024166 -13248.800000 0 0 1
-24.613389 -23.079921 -30.830549 45.705847 0.753257 2.311142 0.038609 -0.021754 14278.200000 0 0 1
-24.399489 -22.576721 -32.143209 46.240991 0.746616 2.339388 0.035085 -0.019803 -416021.000000 0 0 1
-23.764289 -23.567621 -33.148269 47.106071 0.781243 2.351380 0.029629 -0.021702 162463.000000 0 0 1
-24.638589 -24.614521 -33.520759 48.338142 0.784910 2.337082 0.005344 -0.016710 104780.000000 0 0 1
-23.924989 -25.485201 -34.374016 49.025234 0.816964 2.347805 0.026542 -0.016136 238385.000000 0 0 1
-19.498989 -14.694921 -11.775499 27.107447 0.645817 2.020169 0.013945 0.007291 -112268.000000 0 0 1
-19.902589 -14.210021 -10.554599 26.635264 0.620046 1.978241 0.018284 0.002332 -342933.000000 0 0 1
-19.037389 -14.582721 -9.537299 25.807712 0.653665 1.949323 -0.000949 -0.006398 -386884.000000 0 0 1
-19.537189 -14.124421 -8.124199 25.440197 0.625964 1.895835 0.014954 -0.020373 -400000.000000 0 0 1
-20.695489 -14.753021 -7.645199 26.540610 0.619306 1.862993 0.036815 -0.018323 -61172.000000 0 0 1
-21.031089 -14.086421 -6.441299 26.119424 0.590162 1.819977 0.040707 -0.024011 -114870.000000 0 0 1
-22.169689 -14.756021 -5.624999 27.219035 0.587260 1.778953 0.044132 -0.023272 -411829.000000 0 0 1
-21.999989 -16.104521 -5.175299 27.751375 0.631897 1.758383 0.037342 -0.021496 311187.000000 0 0 1
-21.276089 -16.184921 -3.952199 27.023018 0.650320 1.717576 0.037824 -0.018200 -196838.000000 0 0 1
-21.115489 -17.615321 -3.379299 27.705290 0.695271 1.693074 0.019878 -0.005325 -48325.700000 0 0 1
-22.306289 -18.204721 -2.903999 28.938134 0.684496 1.671318 0.030446 -0.009092 93623.500000 0 0 1
-22.039289 -19.461421 -2.231499 29.486552 0.723362 1.646547 0.015465 0.005460 -799188.000000 0 0 1
-23.219989 -20.362221 -2.076999 30.953221 0.719920 1.637948 0.007656 -0.007285 -837350.000000 0 0 1
-23.494689 -21.164621 -3.209699 31.784332 0.733271 1.671952 -0.005489 -0.014525 39124.200000 0 0 1
-24.478189 -22.136621 -2.946799 33.134504 0.735208 1.659848 0.011665 -0.013596 6612.230000 0 0 1
-24.369289 -23.221721 -4.068699 33.906709 0.761290 1.691083 0.010310 -0.005067 -405795.000000 0 0 1
-23.310789 -24.112421 -3.845199 33.757774 0.802300 1.684950 0.007108 -0.000786 -397600.000000 0 0 1
-22.987989 -24.798421 -5.071699 34.192564 0.823266 1.719673 0.010911 -0.003031 1288200.000000 0 0 1
-21.483489 -24.641421 -5.575699 33.163660 0.853756 1.739725 0.001056 0.001307 1364140.000000 0 0 1
-21.180889 -23.413021 -6.302199 32.194989 0.835411 1.767819 0.000017 0.005957 40396.500000 0 0 1
-21.173189 -22.251621 -5.523499 31.208134 0.810228 1.748723 -0.005431 0.007150 -687330.000000 0 0 1
-21.080989 -20.981621 -6.361299 30.415500 0.783036 1.781499 0.002086 -0.000525 -856564.000000 0 0 1
-19.913389 -20.688021 -7.013199 29.558793 0.804475 1.810343 -0.016883 0.004575 -954195.000000 0 0 1
-20.089389 -19.412921 -7.573299 28.944774 0.768275 1.835524 -0.017361 0.010167 -149178.000000 0 0 1
-18.849389 -19.067721 -8.370999 28.088273 0.791156 1.873419 -0.000343 -0.000008 -547116.000000 0 0 1
-18.765689 -19.696521 -9.650299 28.865763 0.809595 1.911676 -0.008094 0.002636 302161.000000 0 0 1
-17.595889 -19.459721 -10.449399 28.239795 0.835654 1.949831 0.014317 -0.002273 387635.000000 0 0 1
-17.411889 -17.997521 -10.945199 27.329142 0.801936 1.982854 0.015382 0.005889 -188521.000000 0 0 1
-16.951189 -17.010021 -10.029799 26.024613 0.787130 1.966434 0.006271 -0.006331 72766.800000 0 0 1
-15.611589 -17.044321 -9.589899 25.023924 0.829244 1.964086 0.028402 -0.009079 -335413.000000 0 0 1
-15.368089 -15.983021 -8.576099 23.773611 0.805010 1.939858 0.014644 -0.012296 -318821.000000 0 1 0
-15.992689 -16.261221 -7.366599 23.967899 0.793724 1.883206 -0.006229 -0.009745 138502.000000 0 1 0
-16.339489 -15.043821 -6.662799 23.188108 0.744136 1.862242 0.010223 -0.008272 -387133.000000 0 1 0
-16.870989 -15.327221 -5.315399 23.405287 0.737489 1.799898 0.005453 -0.009035 -315062.000000 0 1 0
-17.325189 -14.203221 -4.630499 22.876520 0.686699 1.774617 0.014181 -0.001205 100786.000000 0 1 0
-17.651789 -14.650821 -3.332699 23.180576 0.692762 1.715067 0.017005 0.005687 71503.900000 0 1 0
-18.440889 -13.506221 -2.592599 23.004477 0.632146 1.683736 0.017170 0.004946 795803.000000 0 1 0
-19.737689 -13.257921 -3.156799 23.985709 0.591483 1.702791 0.028456 -0.009708 933597.000000 0 1 0
-20.434289 -12.228321 -2.445599 23.938942 0.539258 1.673135 0.031449 0.001421 304031.000000 0 1 0
-21.967489 -12.303721 -2.657599 25.318273 0.510555 1.675958 0.032828 -0.000420 151792.000000 0 0 1
-22.486689 -11.605521 -3.759199 25.582628 0.476449 1.718274 0.038170 -0.013657 -854417.000000 0 0 1
-23.840889 -11.792821 -3.926899 26.886412 0.459356 1.717376 0.033655 -0.005599 -1039620.000000 0 0 1
-24.301989 -11.184721 -5.235899 27.259848 0.431336 1.764071 0.045023 -0.014184 -336590.000000 0 0 1
-23.699889 -11.754321 -6.367099 27.210085 0.460415 1.806984 0.047069 -0.024012 114776.000000 0 0 1
-24.314189 -11.380521 -7.583599 27.896362 0.437771 1.846110 0.057912 -0.026370 192829.000000 0 0 1
-23.463189 -11.758921 -8.887599 27.708895 0.464579 1.897316 0.065642 -0.028756 289262.000000 0 0 1
-22.348989 -10.898921 -8.962499 26.430857 0.453735 1.916748 0.055096 -0.022894 -108878.000000 0 0 1
-21.395089 -11.406921 -9.876499 26.180392 0.489819 1.957619 0.032410 -0.018886 -321424.000000 0 0 1
-20.111189 -10.553621 -9.868699 24.763482 0.483262 1.980697 0.018539 -0.015165 -605298.000000 0 1 0
-20.311189 -9.284121 -10.410699 24.639845 0.428738 2.007014 0.023930 -0.014053 800487.000000 0 1 0
-19.277489 -8.387321 -9.993599 23.277473 0.410381 2.014541 0.018245 -0.008859 75523.000000 0 1 0
-19.166289 -7.074221 -10.773299 23.096649 0.353585 2.056063 0.009161 -0.011166 -125790.000000 0 1 0
-18.836589 -7.224021 -12.169499 23.560566 0.366211 2.113578 0.031393 -0.008961 506642.000000 0 1 0
-18.778689 -5.963621 -12.779899 23.484671 0.307501 2.146208 0.040939 -0.018000 -191053.000000 0 1 0
-18.026589 -6.104621 -14.098499 23.685269 0.326524 2.208365 0.043589 -0.011347 -219527.000000 0 1 0
-18.770889 -6.837121 -15.022299 24.995239 0.349305 2.215556 0.046918 -0.010970 380884.000000 0 1 0
-18.221389 -6.534721 -16.303999 25.308931 0.344341 2.270772 0.055722 -0.018180 169695.000000 0 0 1
-18.807989 -7.444821 -17.429399 26.701119 0.376909 2.282017 0.053500 -0.013519 322264.000000 0 0 1
-20.136089 -7.106021 -17.804799 27.802311 0.339256 2.265825 0.059644 -0.018004 689627.000000 0 0 1
-20.687689 -7.866121 -18.877999 29.090122 0.363350 2.276998 0.057619 -0.016959 -871618.000000 0 0 1
-22.010689 -7.372421 -19.390099 30.245644 0.323202 2.266711 0.052552 -0.012730 -1565120.000000 0 0 1
-21.944889 -6.129421 -20.079199 30.369758 0.272369 2.293157 0.060179 -0.013688 958225.000000 0 0 1
-23.165989 -5.875721 -20.798999 31.682574 0.248398 2.286940 0.035440 -0.009863 1928760.000000 0 0 1
-24.476389 -5.564721 -19.939799 32.057064 0.223551 2.242103 0.043327 -0.004670 314328.000000 0 0 1
-24.622789 -4.202121 -19.569399 31.731702 0.169031 2.235358 0.043428 -0.004968 453494.000000 0 0 1
-25.621729 -3.972421 -18.570199 31.892090 0.153816 2.192329 0.056471 0.003846 -132655.000000 0 0 1
-25.664769 -2.502921 -18.099599 31.504610 0.097216 2.182797 0.039442 0.004960 68852.700000 0 0 1
-26.102059 -1.445021 -18.939199 32.281556 0.055304 2.197759 0.049492 0.002918 -354334.000000 0 0 1
-27.391449 -1.607821 -19.450899 33.633526 0.058631 2.187463 0.050841 0.008581 -661076.000000 0 0 1
-27.895499 -0.472621 -20.335699 34.524236 0.016941 2.200650 0.042520 0.010104 -133650.000000 0 0 1
-27.277889 -0.379321 -21.636599 34.819097 0.013905 2.241325 0.047173 0.007765 59037.600000 0 0 1
-27.742479 -1.326921 -22.578199 35.793588 0.047794 2.253366 0.047133 0.010281 -212280.000000 0 0 1
-26.997489 -1.395321 -23.923599 36.099168 0.051637 2.295240 0.042768 0.010062 -440861.000000 0 0 1
-27.273009 -0.373221 -24.968599 36.978200 0.013684 2.312066 0.037030 0.018150 118913.000000 0 0 1
-27.057909 1.002779 -24.597399 36.580979 -0.037044 2.308256 0.040986 0.019040 428441.000000 0 0 1
-25.586409 1.316579 -24.169199 35.221412 -0.051411 2.327059 0.037625 0.011335 694705.000000 0 0 1
-24.607589 1.034979 -25.183119 35.224907 -0.042035 2.367311 0.025854 0.006302 -98675.900000 0 0 1
-23.307289 1.336979 -24.773999 34.040685 -0.057300 2.385870 0.022082 0.000794 -654347.000000 0 0 1
-22.224989 0.655179 -25.586749 33.897804 -0.029471 2.426176 0.016294 -0.000487 -510185.000000 0 0 1
-22.163489 1.206879 -26.859199 34.843843 -0.054400 2.450963 -0.007248 0.004556 476949.000000 0 0 1
-21.259289 0.406779 -27.654629 34.884113 -0.019132 2.486115 -0.023478 0.000790 309357.000000 0 0 1
-21.004289 1.152879 -28.982609 35.812022 -0.054833 2.513753 -0.018618 0.009515 -442492.000000 0 0 1
-20.447589 2.411279 -28.823209 35.421682 -0.117383 2.521314 -0.016120 0.003648 209359.000000 0 0 1
-20.440889 3.179379 -30.057869 36.488545 -0.154304 2.538811 -0.020201 0.004663 42665.900000 0 0 1
-19.691989 2.600379 -31.338889 37.103401 -0.131293 2.576682 -0.016863 0.005621 -149531.000000 0 0 1
-18.286889 2.681379 -31.327279 36.373047 -0.145591 2.608574 -0.019667 0.008729 -232307.000000 0 0 1
-17.695689 1.886279 -32.279809 36.860298 -0.106194 2.637750 -0.013441 0.008789 -89676.600000 0 0 1
-16.162389 1.878579 -32.348129 36.209851 -0.115712 2.675546 -0.004614 -0.001584 -225939.000000 0 0 1
-15.528589 3.010279 -32.805139 36.419445 -0.191479 2.692310 0.003593 0.005210 1340730.000000 0 0 1
-14.066389 2.990879 -32.795069 35.809569 -0.209506 2.728338 0.002260 0.004157 1974120.000000 0 0 1
-13.408089 4.343379 -33.282629 36.143813 -0.313270 2.741023 0.012997 0.013453 -124954.000000 0 0 1
-13.188889 5.229679 -32.207019 35.193585 -0.377504 2.726649 0.029960 0.000817 102560.000000 0 0 1
-12.549189 6.372279 -32.712089 35.611359 -0.469855 2.735284 0.024857 0.009530 -191229.000000 0 0 1
-12.052389 7.286079 -31.570529 34.569428 -0.543747 2.721988 0.038871 -0.000920 352990.000000 0 0 1
-10.910289 6.814979 -30.825679 33.402108 -0.558339 2.746254 0.051176 -0.012758 818227.000000 0 0 1
-11.181889 5.849279 -29.827229 32.386916 -0.481959 2.741347 0.051231 -0.012010 -189524.000000 0 0 1
-9.901389 5.054879 -29.478549 31.505145 -0.472030 2.780961 0.054726 -0.025662 -179529.000000 0 0 1
-9.351189 4.268579 -30.487489 32.173786 -0.428225 2.816396 0.047678 -0.023592 130277.000000 0 0 1
-10.121789 3.127679 -30.809629 32.580151 -0.299697 2.810404 0.048876 -0.017217 -404173.000000 0 0 1
-9.703489 2.383979 -32.038279 33.560280 -0.240911 2.839274 0.039581 -0.015840 -234459.000000 0 0 1
-10.433289 1.176179 -32.171969 33.841875 -0.112259 2.826139 0.044103 -0.017038 317262.000000 0 0 1
-10.122389 0.436479 -33.381849 34.885543 -0.043093 2.846917 0.036249 -0.006671 -406327.000000 0 0 1
-10.577989 0.966279 34.049592 35.667944 -0.091095 0.302391 0.029099 -0.004974 387267.000000 0 0 1
-11.972889 0.844479 33.796243 35.864318 -0.070416 0.341253 -0.006064 -0.000510 82539.800000 0 0 1
-12.231489 1.261379 32.458115 34.709215 -0.102762 0.362131 -0.010178 0.006253 -340082.000000 0 0 1
-13.703089 1.126279 32.044975 34.870095 -0.082007 0.405307 -0.013292 0.015684 -380296.000000 0 0 1
-14.377889 2.340479 32.272015 35.407407 -0.161368 0.424006 -0.014746 0.020712 -924309.000000 0 0 1
-15.555389 2.286379 31.559815 35.259319 -0.145938 0.462192 -0.021509 0.013212 -916875.000000 0 0 1
-16.315589 3.587079 31.333045 35.508101 -0.216413 0.489816 -0.011123 0.007325 112365.000000 0 0 1
-17.126089 4.083779 32.419605 36.891882 -0.234082 0.497510 -0.012656 0.006829 410817.000000 0 0 1
-16.408489 4.753379 33.408461 37.522771 -0.281972 0.472679 -0.012094 0.021354 -554807.000000 0 0 1
-17.294889 4.965979 -34.218832 38.661384 -0.279613 2.657485 -0.002556 0.023854 264608.000000 0 0 1
-18.419889 5.817779 34.382203 39.436972 -0.305927 0.511877 -0.020295 0.014540 92018.700000 0 0 1
-19.281689 5.678479 -33.375219 38.960671 -0.286404 2.599515 -0.020487 0.019252 -317235.000000 0 0 1
-20.432489 6.707879 -33.274619 39.619219 -0.317209 2.567823 -0.022370 0.007721 -492533.000000 0 0 1
-20.229789 8.118479 -33.168169 39.689816 -0.381638 2.560174 -0.025701 0.008555 -89312.400000 0 0 1
-19.609489 8.722079 -34.286289 40.449429 -0.418512 2.582305 -0.034667 0.006703 -178082.000000 0 0 1
-19.498889 10.240179 -34.169000 40.652042 -0.483578 2.569045 -0.020478 0.012429 -659494.000000 0 0 1
-18.476389 10.676479 -33.329989 39.575906 -0.523969 2.572108 -0.010050 0.021023 -277945.000000 0 0 1
-18.605089 12.055079 -33.075039 39.817490 -0.574929 2.551099 -0.001637 0.014562 -68430.400000 0 0 1
-18.012289 12.988479 -34.193525 40.771808 -0.624740 2.565607 -0.009401 0.011048 -563541.000000 0 0 1
-18.706389 12.978279 33.448832 40.462193 -0.606545 0.597635 -0.008630 0.008378 -620353.000000 0 0 1
-17.948489 13.171779 32.313175 39.240098 -0.633095 0.603290 -0.009192 0.009201 -316722.000000 0 0 1
-18.610289 12.428479 31.092005 38.308259 -0.588806 0.623865 -0.007462 0.004210 -49144.900000 0 0 1
-18.694689 11.001179 31.246225 38.037401 -0.531895 0.606829 -0.010697 0.003822 -483826.000000 0 0 1
-17.555589 10.332979 30.820735 36.944375 -0.531985 0.584031 -0.011177 -0.006330 -417455.000000 0 0 1
-17.656989 8.727179 30.902455 36.645527 -0.459047 0.567439 -0.009448 0.004267 -230531.000000 0 0 1
-18.513489 8.160079 29.964355 36.155203 -0.415147 0.593890 -0.003239 -0.005976 -53100.700000 0 0 1
-18.664889 6.762679 30.263835 36.194082 -0.347609 0.580563 -0.003603 -0.002833 -184083.000000 0 0 1
-19.281489 5.956979 29.069965 35.388194 -0.299646 0.606831 0.002004 -0.007658 -607098.000000 0 0 1
-20.662789 6.120679 29.030075 36.154651 -0.287983 0.638582 0.017388 -0.012530 -802570.000000 0 0 1
-21.215089 5.158679 28.188975 35.655438 -0.238532 0.659018 0.013977 -0.014111 723196.000000 0 0 1
-22.749989 5.238479 27.864735 36.351714 -0.226318 0.697374 0.003609 -0.002174 661584.000000 0 0 1
-23.125889 6.052879 26.789745 35.904519 -0.255993 0.728553 0.005291 -0.009105 273581.000000 0 0 1
-24.541089 6.069779 26.720075 36.784095 -0.242465 0.757723 0.009802 -0.006363 -110398.000000 0 0 1
-25.093789 6.879879 25.525975 36.450053 -0.267591 0.794979 0.011747 -0.007359 -389900.000000 0 0 1
-24.949289 6.326079 24.197245 35.326944 -0.248324 0.816259 0.014512 -0.005552 119736.000000 0 0 1
-25.709329 5.218079 23.916325 35.499134 -0.200244 0.831571 0.018409 -0.003444 -630040.000000 0 0 1
-25.504789 4.801779 22.405435 34.286365 -0.186091 0.858624 0.030391 0.000162 218906.000000 0 0 1
-26.325779 5.506379 21.460635 34.408221 -0.206190 0.897321 0.030332 0.004285 309751.000000 0 0 1
-26.468429 4.691679 20.304435 33.687678 -0.175433 0.923884 0.034249 0.001928 -259013.000000 0 0 1
-27.454729 5.204179 19.249735 33.932255 -0.187332 0.967574 0.031732 0.000975 415246.000000 0 0 1
-28.813249 5.216979 19.687635 35.284885 -0.179121 0.978868 0.033929 0.001661 60788.500000 0 0 1
-29.648399 5.482679 18.595435 35.424250 -0.182858 1.018157 0.030768 -0.001902 426921.000000 0 0 1
-31.141369 5.623079 19.044335 36.933597 -0.178641 1.029045 0.021877 0.002441 534279.000000 0 0 1
-31.420359 6.830579 19.704135 37.711387 -0.214063 1.021018 0.024059 -0.003790 463168.000000 0 0 1
-32.703989 6.730579 20.335435 39.094520 -0.202969 1.023757 0.020981 -0.003058 613431.000000 0 0 1
-33.112939 7.963579 21.173435 40.102365 -0.236015 1.014571 0.023456 -0.003228 -96701.000000 0 0 1
-32.497819 8.135879 22.468835 40.337939 -0.245309 0.980009 0.018539 0.000424 238867.000000 0 0 1
-32.936599 9.300079 23.127335 41.305988 -0.275199 0.976528 0.027359 0.006231 -81474.000000 0 0 1
-0.324889 32.422079 11.605301 34.438057 -1.560776 1.227078 0.024962 0.001080 -182297.000000 0 0 1
-0.234489 32.657279 12.975501 35.141378 -1.563616 1.192608 0.014667 -0.000375 53195.300000 0 0 1
-0.080889 34.036779 13.200001 36.506833 -1.568420 1.200838 0.013430 -0.007139 -412133.000000 0 0 1
-0.058989 34.426479 14.711401 37.438099 -1.569083 1.166956 0.004327 0.002459 252905.000000 0 0 1
-1.365389 -34.491743 15.261101 37.741831 1.531231 1.154523 -0.003870 0.017933 192174.000000 0 0 1
-1.199889 -34.185043 16.652001 38.044001 1.535711 1.117753 -0.012524 0.010479 583612.000000 0 0 1
-2.546189 -34.018843 17.406801 38.298322 1.496089 1.098979 -0.012712 0.016792 168597.000000 0 0 1
-3.284189 33.852579 17.833701 38.403436 -1.474085 1.087864 -0.010132 0.018514 -26807.700000 0 0 1
-3.933789 34.254679 19.016701 39.376295 -1.456458 1.066778 -0.004650 0.015642 -712233.000000 0 0 1
-4.932289 33.219679 19.475501 38.822283 -1.423398 1.045282 -0.002780 0.009902 -595619.000000 0 0 1
-6.008089 33.056979 18.592901 38.399960 -1.391009 1.065358 0.009438 -0.001529 -492085.000000 0 0 1
-6.893589 32.081079 19.060301 37.947493 -1.359135 1.044562 0.022752 -0.015670 -322669.000000 0 0 1
-8.105089 31.836779 18.152801 37.533946 -1.321509 1.065991 0.018505 -0.019557 -716200.000000 0 0 1
-8.907389 32.968279 18.063401 38.633346 -1.306916 1.084268 0.028268 -0.019737 -441072.000000 0 0 1
-9.477889 33.134679 16.759701 38.322642 -1.292194 1.118167 0.034151 -0.017090 -501860.000000 0 0 1
-10.448889 34.284079 16.725601 39.551524 -1.274966 1.134174 0.071969 -0.026248 -477956.000000 0 0 1
-11.714989 33.956779 17.257401 39.851244 -1.238585 1.122928 0.062641 -0.023066 -294832.000000 0 0 1
-12.549189 -33.946543 17.146401 40.048084 1.216702 1.128357 0.050226 -0.026331 -756762.000000 0 0 1
-13.836589 -34.030743 17.937101 40.881319 1.184621 1.116578 0.069235 -0.027717 -698383.000000 0 0 1
-13.806389 -33.538843 19.276701 41.073855 1.180284 1.082278 0.065818 -0.022581 -12824.700000 0 0 1
-15.009689 -33.816743 19.951301 42.034715 1.153065 1.076243 0.057882 -0.030733 99606.500000 0 0 1
-14.792589 -33.427843 21.428801 42.372572 1.154178 1.040576 0.052214 -0.038137 -56734.100000 0 0 1
-14.749589 -31.988543 21.568201 41.303808 1.138759 1.021386 0.068955 -0.035046 116863.000000 0 0 1
-14.479389 -31.595443 22.901801 41.622316 1.141083 0.988158 0.044891 -0.027346 107998.000000 0 0 1
-14.434589 -30.023743 23.075801 40.524993 1.122649 0.964994 0.060464 -0.028962 -198067.000000 0 0 1
-14.498989 -29.631543 24.424301 41.046261 1.115738 0.933477 0.053843 -0.032194 -109207.000000 0 0 1
-14.465689 -28.195943 24.551001 40.087642 1.096770 0.911661 0.034061 -0.019079 416228.000000 0 0 1
-15.732589 -27.369243 24.130801 39.735191 1.049092 0.918151 0.048382 -0.015278 692041.000000 0 0 1
-16.862089 -27.526143 24.974901 40.813776 1.021175 0.912306 0.072163 -0.014815 614326.000000 0 0 1
-17.958689 -26.688443 24.634201 40.517050 0.978490 0.917262 0.077619 -0.015173 234444.000000 0 0 1
-19.042989 -26.426043 25.738101 41.514106 0.946369 0.902073 0.067882 -0.012284 490063.000000 0 0 1
-19.872689 -27.510643 26.111801 42.820385 0.945218 0.914990 0.071675 -0.016147 279275.000000 0 0 1
-20.751489 -28.070343 25.171801 43.037054 0.934200 0.946056 0.066885 -0.021297 359184.000000 0 0 1
-22.168789 -27.408743 24.935701 43.179666 0.890699 0.955149 0.064693 -0.014184 715787.000000 0 0 1
-22.093389 -26.128343 24.364701 42.005319 0.868879 0.952020 0.069519 -0.012106 -275512.000000 0 0 1
-23.229989 -25.933443 23.601501 42.061939 0.840332 0.975067 0.050221 -0.008839 -629510.000000 0 0 1
-23.752789 -24.471843 23.512901 41.423696 0.800308 0.967185 0.056957 -0.004188 -19300.700000 0 0 1
-24.410589 -23.985243 24.657601 42.180161 0.776609 0.946436 0.057516 -0.007102 -59090.000000 0 0 1
-24.887189 -22.720143 24.399901 41.604474 0.739910 0.944099 0.042146 -0.005432 -192310.000000 0 0 1
-25.266719 -21.924943 25.671001 42.167648 0.714703 0.916269 0.047093 -0.003885 382712.000000 0 0 1
-26.513069 -22.472043 26.109301 43.469888 0.703090 0.926508 0.042663 0.000012 535776.000000 0 0 1
-26.794299 -21.935343 27.370501 44.138850 0.686014 0.901926 0.034939 -0.006308 -615243.000000 0 0 1
-28.163869 -22.330943 27.959801 45.537073 0.670393 0.909677 0.027781 -0.002994 -422152.000000 0 0 1
-29.281749 -21.789543 27.303301 45.581523 0.639736 0.928545 0.025405 -0.005333 296043.000000 0 0 1
-29.870259 -22.611343 26.291601 45.768477 0.647957 0.958867 0.030252 -0.000533 -456839.000000 0 0 1
-31.145329 -23.353143 26.752301 47.234377 0.643381 0.968697 -0.001914 -0.007239 115902.000000 0 0 1
-31.974889 -23.878443 25.698501 47.465635 0.641442 0.998680 -0.016423 0.015218 208488.000000 0 0 1
-31.329579 -24.869843 24.958001 47.148207 0.670957 1.012960 -0.017328 0.011010 -683916.000000 0 0 1
-31.813819 -24.902943 23.460101 46.718861 0.664147 1.044708 -0.023146 0.012915 -672114.000000 0 0 1
-33.116239 -25.340843 23.351101 47.792442 0.653164 1.060319 -0.018220 0.013326 -879627.000000 0 0 1
-33.288269 -25.883343 22.046101 47.582422 0.660902 1.089053 -0.008378 0.010341 176578.000000 0 0 1
-34.437531 -26.923543 22.148101 49.003664 0.663550 1.101826 0.014763 0.006155 -377329.000000 0 0 1
-34.225087 -28.037443 23.007101 49.867640 0.686344 1.091265 0.021723 0.005959 -425903.000000 0 0 1
-33.235229 -28.945343 22.710001 49.579809 0.716517 1.094997 0.009244 0.011259 -912007.000000 0 0 1
-33.642779 -30.103343 21.712101 50.094542 0.729931 1.122509 0.018563 0.012566 -167305.000000 0 0 1
-33.915079 -29.686143 20.408301 49.477252 0.719004 1.145623 0.002666 0.020941 588697.000000 0 0 1
-34.420427 -30.753343 19.556501 50.129738 0.729191 1.170037 0.004046 0.018395 -60277.400000 0 0 1
-34.791001 -30.368743 18.094301 49.599174 0.717634 1.197367 0.001605 0.015724 -503551.000000 0 0 1
-33.719099 -30.006743 17.259501 48.324659 0.727209 1.205574 0.015279 0.010620 201410.000000 0 0 1
-34.191514 -29.591043 15.975801 47.957436 0.713395 1.231181 0.008821 0.010805 -124629.000000 0 0 1
-34.688750 -30.613143 14.953401 48.621786 0.723067 1.258184 0.004867 0.006868 -992.118000 0 0 1
-33.793459 -31.552843 14.352201 48.410386 0.751123 1.269803 0.022254 0.001157 -70559.200000 0 0 1
-34.400052 -32.373443 13.360401 49.090770 0.755057 1.295162 0.028027 -0.001868 -44639.600000 0 0 1
-34.641223 -31.699943 11.982201 48.461055 0.741092 1.320951 0.031300 -0.009053 338564.000000 0 0 1
35.190545 -30.882143 11.865201 48.299733 -0.720283 1.322598 0.028731 -0.008805 126759.000000 0 0 1
35.187114 -30.038943 10.802101 47.509541 -0.706633 1.341423 0.022436 -0.000754 551721.000000 0 0 1
33.979612 -29.026643 10.758301 45.966304 -0.706949 1.334558 0.039331 0.006833 520435.000000 0 0 1
34.086282 -27.985343 9.775801 45.173226 -0.687424 1.352664 0.040417 -0.028270 -12259.300000 0 0 1
32.874042 -27.310843 9.564701 43.795756 -0.693225 1.350629 0.035292 -0.023467 -299540.000000 0 0 1
33.058092 -26.205543 8.515801 43.035878 -0.670281 1.371605 0.045043 -0.016627 262896.000000 0 0 1
33.899012 -25.106143 8.862101 43.104504 -0.637468 1.363724 0.049023 -0.020030 199420.000000 0 0 1
34.177362 -24.425843 7.660501 42.701255 -0.620510 1.390422 0.050601 -0.019220 -83202.000000 0 0 1
34.955452 -23.096243 7.790501 42.614692 -0.583884 1.386950 0.064575 -0.018041 -274981.000000 0 0 1
34.209372 -22.145043 8.472801 41.622979 -0.574502 1.365803 0.057064 -0.014262 -294343.000000 0 0 1
34.726352 -20.885943 8.203301 41.345330 -0.541480 1.371062 0.068227 -0.012938 152782.000000 0 0 1
33.923082 -19.729343 8.895701 40.238737 -0.526773 1.347882 0.065166 -0.008318 184268.000000 0 0 1
34.206192 -19.516343 10.300101 40.706797 -0.518484 1.314984 0.058822 -0.013859 -183786.000000 0 0 1
33.360112 -18.552643 10.887301 39.694218 -0.507539 1.292956 0.063117 -0.006540 -130353.000000 0 0 1
33.556692 -18.483243 12.409801 40.270150 -0.503462 1.257534 0.043107 -0.018921 -183705.000000 0 0 1
34.679002 -17.744543 12.808401 41.006793 -0.472948 1.253132 0.015781 -0.017215 -43457.500000 0 0 1
35.172339 -18.266943 14.003501 42.034185 -0.479012 1.231159 0.010372 -0.009758 135783.000000 0 0 1
-34.533557 -17.608843 14.611701 41.426317 0.471540 1.210325 0.026530 -0.019263 346288.000000 0 0 1
-33.341879 -18.040143 14.021201 40.419324 0.495958 1.216539 0.020456 -0.016166 -401922.000000 0 0 1
-32.180009 -17.480743 14.561401 39.410199 0.497621 1.192344 0.014171 -0.020240 670852.000000 0 0 1
-30.858739 -17.670843 13.727601 38.117811 0.520056 1.202383 0.026132 -0.021153 537115.000000 0 0 1
-30.387569 -19.033243 13.670901 38.373978 0.559569 1.206540 0.015696 -0.015025 165869.000000 0 0 1
-29.330329 -19.042543 12.728401 37.214229 0.575844 1.221719 -0.008674 -0.005841 -103241.000000 0 0 1
-28.490819 -20.314043 12.536601 37.169254 0.619400 1.226766 -0.031259 -0.006889 -200961.000000 0 0 1
-29.164449 -21.269743 11.759101 37.963713 0.630123 1.255871 -0.026171 -0.003668 190306.000000 0 0 1
-28.220919 -22.009343 10.985801 37.436870 0.662361 1.272964 -0.023922 -0.002033 -17061.200000 0 0 1
-28.924409 -22.939443 9.967701 38.238652 0.670509 1.307079 -0.015198 -0.006512 229948.000000 0 0 1
-29.565659 -24.078443 10.475101 39.542728 0.683463 1.302690 -0.006915 -0.000356 172207.000000 0 0 1
-30.928799 -23.793543 10.779801 40.483668 0.655739 1.301270 0.009281 -0.010317 367004.000000 0 0 1
-31.896039 -25.034943 10.848901 41.973853 0.665461 1.309360 0.025035 -0.018419 315212.000000 0 0 1
-32.207699 -25.491843 9.554701 42.171818 0.669526 1.342246 0.025994 -0.014371 149744.000000 0 0 1
-33.048219 -26.665543 9.560301 43.527409 0.678915 1.349352 0.041716 -0.013915 681861.000000 0 0 1
-33.221349 -27.359443 8.180101 43.807661 0.688937 1.382966 0.037889 -0.015425 1297160.000000 0 0 1
-31.927929 -27.852843 7.742101 43.071030 0.717336 1.390062 0.025439 -0.015131 720447.000000 0 0 1
-31.971059 -28.630043 6.577801 43.417686 0.730323 1.418710 0.023622 -0.014003 -211035.000000 0 0 1
-30.592079 -28.932543 5.950101 42.524946 0.757526 1.430415 0.030431 -0.013906 234626.000000 0 0 1
-29.997639 -27.810543 5.315701 41.249743 0.747583 1.441571 0.036162 -0.009568 -17130.100000 0 0 1
-28.913989 -28.256443 4.490601 40.676908 0.773897 1.460174 0.030846 -0.015316 394769.000000 0 0 1
-28.092009 -27.207943 3.735001 39.285918 0.769413 1.475580 0.028475 -0.012092 113536.000000 0 0 1
-28.545489 -26.884843 2.456001 39.289587 0.755448 1.508245 0.032489 -0.006421 169563.000000 0 0 1
-27.695019 -25.821943 2.012601 37.918826 0.750413 1.517695 0.034992 -0.008428 95931.700000 0 0 1
-27.926539 -25.210643 0.600301 37.627496 0.734332 1.554842 0.037140 -0.008855 -210286.000000 0 0 1
-27.556389 -26.080643 -0.482799 37.944533 0.757892 1.583520 0.041810 -0.011491 69829.900000 0 0 1
-27.761249 -25.394043 -1.766199 37.665154 0.740894 1.617706 0.043145 -0.016937 -332650.000000 0 0 1
-29.175489 -25.291743 -2.357699 38.683849 0.714214 1.631782 0.055716 -0.014931 -496541.000000 0 0 1
-29.901009 -24.225443 -1.814799 38.525783 0.680922 1.617920 0.053978 -0.007718 -32354.300000 0 0 1
-31.278069 -24.420943 -2.102299 39.738139 0.662904 1.623725 0.058702 -0.011624 470614.000000 0 0 1
-32.167879 -23.132743 -2.113199 39.678229 0.623447 1.624080 0.049256 -0.012575 198037.000000 0 0 1
-32.394659 -22.501343 -0.879399 39.452474 0.607093 1.593088 0.050485 -0.019244 328403.000000 0 0 1
-33.283369 -21.377643 -0.912199 39.567896 0.570938 1.593852 0.049353 -0.006354 208710.000000 0 0 1
-33.559619 -20.760743 0.459001 39.464758 0.554000 1.559165 0.052369 -0.010872 133167.000000 0 0 1
-34.486171 -21.454443 1.279801 40.635293 0.556524 1.539296 0.047562 -0.005199 254646.000000 0 0 1
-34.377325 -21.018443 2.603901 40.377664 0.548763 1.506263 0.043827 -0.004014 -1110330.000000 0 0 1
-35.158386 -21.883743 3.589901 41.567989 0.556751 1.484326 0.055764 0.003681 1071750.000000 0 0 1
34.411452 -21.939843 3.352101 40.948032 -0.567590 1.488842 0.043535 0.001432 855618.000000 0 0 1
33.690772 -20.717643 3.619301 39.716347 -0.551329 1.479541 0.042607 -0.000226 163706.000000 0 0 1
32.361572 -20.549043 2.784601 38.435511 -0.565746 1.498284 0.024171 0.004058 497226.000000 0 0 1
31.456302 -21.541343 3.088401 38.250054 -0.600453 1.489966 0.023715 0.005719 -1135590.000000 0 0 1
30.208832 -21.328343 2.493901 37.063342 -0.614762 1.503458 0.010558 0.009933 123856.000000 0 0 1
29.129502 -22.392643 2.843901 36.851677 -0.655379 1.493548 0.004446 0.024929 157554.000000 0 0 1
29.204332 -23.601643 2.130901 37.609458 -0.679694 1.514107 -0.002937 0.006253 580535.000000 0 0 1
28.066452 -24.439543 2.460101 37.297039 -0.716432 1.504789 0.002584 0.009467 942518.000000 0 0 1
27.755892 -25.559543 1.434801 37.758952 -0.744226 1.532788 0.002740 0.011227 47473.600000 0 0 1
27.495902 -25.070643 0.088201 37.209804 -0.739294 1.568426 0.005478 0.002001 454073.000000 0 0 1
26.832852 -26.063743 -0.746499 37.414942 -0.770859 1.590750 0.006154 -0.010677 481875.000000 0 0 1
25.771962 -25.448643 -1.735299 36.260705 -0.779086 1.618671 0.035070 -0.019624 232813.000000 0 0 1
26.331172 -24.819043 -2.869599 36.298073 -0.755844 1.649935 0.008074 -0.022633 149400.000000 0 0 1
26.742952 -25.547443 -4.058799 37.206601 -0.762539 1.680102 0.008610 -0.025361 -606518.000000 0 0 1
25.623662 -26.176043 -4.952799 36.963326 -0.796062 1.705193 0.019473 -0.035516 404086.000000 0 0 1
24.890562 -25.426543 -5.936899 36.073480 -0.796050 1.736126 0.020245 -0.046308 203410.000000 0 0 1
24.104662 -24.500143 -5.308799 34.777508 -0.793535 1.724046 0.050800 -0.044232 -1616040.000000 0 0 1
23.684162 -23.323043 -6.142299 33.802836 -0.777716 1.753521 0.059762 -0.048969 -318371.000000 0 0 1
22.842562 -23.774043 -7.173699 33.740921 -0.805377 1.785043 0.049813 -0.044436 436372.000000 0 0 1
21.807862 -22.970743 -7.712999 32.599513 -0.811362 1.809660 0.051303 -0.042614 97755.100000 0 0 1
22.161562 -21.585643 -8.329799 32.038420 -0.772234 1.833812 0.048288 -0.041223 -1043920.000000 0 0 1
22.696962 -21.604743 -9.583699 32.768343 -0.760749 1.867603 0.052245 -0.035906 128410.000000 0 0 1
22.336862 -20.435143 -10.322299 31.985627 -0.740966 1.899395 0.048879 -0.038908 -130986.000000 0 0 1
23.145062 -20.308043 -11.615099 32.909285 -0.720201 1.931511 0.035868 -0.031212 -626587.000000 0 0 1
24.520762 -20.136943 -11.556299 33.768510 -0.687547 1.920076 0.033269 -0.028821 -489934.000000 0 0 1
25.017262 -19.856443 -12.871999 34.435884 -0.670894 1.953895 0.027718 -0.026661 63814.800000 0 0 1
26.499472 -20.209643 -13.111699 35.812963 -0.651544 1.945628 0.017573 -0.019290 -44846.700000 0 0 1
26.807842 -21.583243 -13.345599 36.913436 -0.677849 1.940713 0.015340 -0.018419 109553.000000 0 0 1
27.751762 -22.046943 -12.395499 37.548321 -0.671338 1.907228 0.021844 -0.039896 -104126.000000 0 0 1
28.090812 -23.591943 -12.454699 38.740070 -0.698569 1.898103 0.010615 -0.021593 -493286.000000 0 0 1
28.844122 -23.939043 -13.558099 39.860798 -0.692735 1.917858 0.020769 -0.027885 -47379.300000 0 0 1
29.211542 -25.299243 -13.448099 40.917200 -0.713750 1.905687 0.018999 -0.015555 -145268.000000 0 0 1
-3.613689 -9.438221 -27.783139 29.564194 1.205137 2.792713 0.013620 -0.000742 31458.700000 0 0 1
-3.720089 -8.159021 -27.064959 28.511764 1.143007 2.821658 0.012394 0.003452 -22197.300000 0 0 1
-4.353489 -7.162821 -27.810909 29.046610 1.024669 2.848857 0.002954 0.002820 -264517.000000 0 0 1
-4.374289 -5.783521 -27.192639 28.142906 0.923252 2.880988 0.007018 -0.004380 -403933.000000 0 0 1
-5.077189 -5.689421 -25.982609 27.078466 0.842201 2.856126 0.003533 -0.009653 167129.000000 0 0 1
-4.783289 -4.464121 -25.355509 26.186066 0.750898 2.889059 0.011898 -0.007163 -261119.000000 0 0 1
-5.350889 -4.292421 -23.947799 24.910921 0.676074 2.862615 0.002934 -0.007612 -21544.600000 0 1 0
-4.594889 -4.932221 -22.902099 23.873541 0.820791 2.855341 -0.001170 -0.021392 530435.000000 0 1 0
-5.205489 -4.769921 -21.653699 22.775688 0.741762 2.826402 -0.003056 -0.013297 -148968.000000 0 1 0
-4.595989 -5.784221 -20.646199 21.928198 0.899373 2.797959 -0.001858 -0.017007 -687809.000000 0 1 0
-5.192089 -7.037021 -20.770399 22.536347 0.935133 2.743082 -0.004633 -0.017726 538867.000000 0 1 0
-4.305889 -8.032321 -20.241799 22.198858 1.078711 2.718539 0.005440 -0.018801 -550092.000000 0 1 0
-4.956089 -9.429121 -20.146199 22.789043 1.086867 2.655211 0.009751 -0.017760 759500.000000 0 1 0
-6.032089 -9.485521 -19.170699 22.223342 1.004379 2.611258 0.004287 -0.019277 990231.000000 0 1 0
-7.280289 -8.972821 -19.645499 22.791660 0.889160 2.609919 -0.003981 -0.012831 -557419.000000 0 1 0
-8.378089 -9.240121 -18.605099 22.399150 0.834288 2.551010 -0.006509 -0.008546 -754068.000000 0 1 0
-8.893289 -10.526621 -18.730499 23.253644 0.869307 2.507293 0.003800 -0.004649 414921.000000 0 1 0
-9.698489 -10.813021 -17.555199 22.785239 0.839682 2.450365 0.002751 0.000656 302587.000000 0 1 0
-10.509989 -12.135721 -17.571699 23.801265 0.857065 2.401294 0.018201 0.005895 233259.000000 0 1 0
-11.615589 -12.147521 -18.486899 24.984988 0.807779 2.403748 0.023985 -0.003784 257819.000000 0 1 0
-11.352489 -12.263621 -19.849899 25.947908 0.823960 2.441823 0.033209 -0.003624 -1247160.000000 0 0 1
-12.586389 -11.921821 -20.730999 27.024458 0.758289 2.445136 0.034724 -0.005777 556844.000000 0 0 1
-13.578089 -12.939421 -20.774699 27.988949 0.761318 2.407213 0.030556 -0.001295 158472.000000 0 0 1
-14.306989 -13.195021 -19.594299 27.617659 0.744988 2.359563 0.028269 0.003037 -1238310.000000 0 0 1
-15.549989 -14.065821 -19.812299 28.847473 0.735326 2.327867 0.026802 0.008902 20765.200000 0 0 1
-15.241389 -15.477421 -19.879599 29.445695 0.793082 2.311934 0.022625 0.009839 94170.200000 0 0 1
-16.029189 -15.953821 -20.953599 30.830385 0.783042 2.318070 0.028387 0.010372 70408.700000 0 0 1
-15.588989 -17.345221 -21.506599 31.723920 0.838673 2.315740 0.021307 0.014256 -44498.600000 0 0 1
-15.876689 -18.388421 -20.600099 31.852274 0.858570 2.274097 0.019106 0.019938 154333.000000 0 0 1
-15.556189 -19.614821 -21.210199 32.811717 0.900287 2.273681 0.020113 0.016893 -256805.000000 0 0 1
-15.873589 -20.844021 -20.319599 33.156148 0.919949 2.230453 0.012345 0.007787 -10389.800000 0 0 1
-15.369289 -22.050621 -20.863899 34.025685 0.962086 2.230877 0.008750 0.008336 55203.800000 0 0 1
-15.867189 -23.163421 -20.163899 34.567247 0.970201 2.193611 0.017037 0.007975 183142.000000 0 0 1
-15.359389 -24.566921 -20.684699 35.599174 1.012049 2.190808 0.021408 0.000243 435454.000000 0 0 1
-16.047689 -24.854121 -21.931999 36.827547 0.997467 2.208725 0.008247 0.005621 658045.000000 0 0 1
-15.493789 -26.097751 -22.378399 37.708658 1.035035 2.206141 0.006983 -0.000931 -156889.000000 0 0 1
-15.844589 -26.365171 -23.851699 38.923987 1.029666 2.230365 0.017821 -0.002947 -421910.000000 0 0 1
-17.020389 -27.062251 -24.174499 40.080737 1.009373 2.218235 0.031213 0.000221 -389757.000000 0 0 1
-16.861189 -28.455481 -24.074599 40.909662 1.035876 2.199976 0.037606 0.006339 -415999.000000 0 0 1
-17.654489 -29.323251 -25.068679 42.426085 1.028860 2.202944 0.039715 0.003120 -470263.000000 0 0 1
-17.566489 -29.157191 -26.508169 43.144019 1.028559 2.232436 0.035060 0.008739 -8416.120000 0 0 1
-17.703289 -27.801091 -26.943389 42.570569 1.003768 2.256104 0.048004 -0.004431 -58110.400000 0 0 1
-16.772989 -27.406191 -28.121759 42.699717 1.021589 2.289745 0.047462 -0.003207 -114419.000000 0 0 1
-17.005489 -28.015331 -29.421779 44.041872 1.025241 2.302369 0.044419 0.001885 -383614.000000 0 0 1
-15.968889 -27.793781 -30.327489 44.127727 1.049301 2.328515 0.027770 0.009579 -347792.000000 0 0 1
-16.350689 -28.116901 -31.780239 45.474045 1.044072 2.344606 0.030767 0.002751 -250315.000000 0 0 1
-16.057389 -29.480391 -32.110189 46.454251 1.072046 2.333975 0.017215 0.011307 37820.000000 0 0 1
-16.445289 -29.756611 -33.395499 47.656718 1.065913 2.347246 0.023477 0.010571 -191258.000000 0 0 1
-16.260489 -31.187821 -33.857439 48.820179 1.090197 2.337150 0.012757 0.014230 -107213.000000 0 0 1
-14.979189 -31.640211 -34.289097 49.002258 1.128636 2.345837 0.005102 0.017237 -89281.700000 0 0 1
-15.057089 -32.870341 33.880606 49.548670 1.141247 0.817860 -0.001530 0.014409 -133629.000000 0 0 1
-13.827889 -33.527721 33.213655 49.177896 1.179619 0.829320 -0.012387 0.010217 293123.000000 0 0 1
-12.956889 -34.216813 34.122353 50.030053 1.208812 0.820252 -0.000912 0.014426 104370.000000 0 0 1
-11.905389 34.185887 33.396030 49.251477 -1.235677 0.825661 0.001544 0.011385 -37878.200000 0 0 1
-11.029489 33.248276 34.251304 48.992339 -1.250488 0.796637 0.005773 0.011569 -51417.200000 0 0 1
-10.291489 34.037743 -33.702469 48.993256 -1.277180 2.329388 0.005137 0.014462 -359018.000000 0 0 1
-9.600089 33.205201 -32.789189 47.643237 -1.289356 2.329834 0.010108 0.004451 -19958.500000 0 0 1
-8.866489 34.137759 -31.749459 47.455551 -1.316684 2.303707 -0.000868 0.002429 474968.000000 0 0 1
-9.736289 -34.106681 -30.862099 47.016276 1.292726 2.286851 0.005847 0.008049 355399.000000 0 0 1
-9.064389 -33.049231 -30.168509 45.656914 1.303110 2.292634 0.006562 0.005144 -60862.000000 0 0 1
-9.888889 -32.314331 -29.067189 44.574742 1.273824 2.281147 0.017412 0.014904 -51161.200000 0 0 1
-9.937389 -32.850051 -27.733219 44.124925 1.277041 2.250440 0.032455 0.008467 -2373.730000 0 0 1
-10.603089 -34.136444 -27.566079 45.139905 1.269635 2.227717 0.036774 0.005800 137992.000000 0 0 1
-10.648589 -34.486869 -26.033549 44.502610 1.271311 2.195663 0.030414 -0.003644 212700.000000 0 0 1
-9.420489 34.490495 -25.346139 43.826552 -1.304167 2.187474 0.042692 -0.007025 -323695.000000 0 0 1
-9.746089 34.287660 -23.963899 42.952280 -1.293856 2.162673 0.040725 -0.010945 663516.000000 0 0 1
-8.519089 34.197744 -22.998799 42.083314 -1.326653 2.148983 0.053875 -0.007216 525153.000000 0 0 1
-7.689389 33.057692 -23.164399 41.091691 -1.342255 2.169685 0.042279 -0.017693 -249041.000000 0 0 1
-6.887389 32.809211 -22.061199 40.131994 -1.363878 2.152821 0.039867 -0.016393 -569057.000000 0 0 1
-6.006289 31.563541 -22.196099 39.051241 -1.382753 2.175337 0.038454 -0.026177 49756.400000 0 0 1
-4.815589 31.819911 -22.937099 39.519706 -1.420597 2.190012 0.029117 -0.033105 121720.000000 0 0 1
-4.032189 30.628741 -22.957499 38.489285 -1.439902 2.209886 0.026296 -0.024646 77461.600000 0 0 1
-2.548889 30.865441 -23.307899 38.761198 -1.488403 2.215949 0.023596 -0.028896 -326301.000000 0 0 1
-2.141989 31.196921 -24.657799 39.822645 -1.502244 2.238508 0.026638 -0.029761 -253715.000000 0 0 1
-2.865989 32.155551 -25.377439 41.063460 -1.481902 2.236999 0.018520 -0.033206 -449225.000000 0 0 1
-2.299889 32.559141 -26.821779 42.246834 -1.500276 2.258653 0.025693 -0.026071 -233928.000000 0 0 1
-1.158389 33.392726 -26.781709 42.821443 -1.536120 2.246476 0.022889 -0.026242 -308844.000000 0 0 1
-1.400189 -34.225673 -26.769639 43.473795 1.529909 2.234153 -0.001843 -0.011826 -680572.000000 0 0 1
-0.254489 -33.329221 -27.252349 43.053366 1.563161 2.256206 -0.013331 -0.004243 468.569000 0 0 1
0.776311 -33.361711 -26.223669 42.441575 -1.547531 2.236836 -0.015775 0.000086 117032.000000 0 0 1
1.589411 -32.274881 -26.561539 41.829530 -1.521590 2.258798 -0.011618 0.004823 -536139.000000 0 0 1
2.610311 -31.880451 -25.481549 40.896042 -1.489100 2.243472 -0.006419 -0.000584 -363305.000000 0 0 1
2.135111 -31.074511 -24.399499 39.566646 -1.502195 2.235300 -0.005290 -0.001721 -38403.400000 0 0 1
3.173911 -30.335461 -23.840599 38.712893 -1.466549 2.234237 -0.008198 0.002294 -549278.000000 0 0 1
2.834911 -29.641331 -22.492299 37.316870 -1.475446 2.217724 -0.000833 0.004228 -91927.900000 0 0 1
2.922011 -30.655401 -21.498099 37.556092 -1.475765 2.180258 0.003460 0.004545 355829.000000 0 0 1
3.018411 -30.092791 -20.158399 36.346223 -1.470827 2.158704 0.012523 -0.003731 -388732.000000 0 0 1
2.807611 -31.084201 -19.017599 36.548315 -1.480718 2.118047 0.018056 -0.000355 -729219.000000 0 0 1
1.534211 -31.644111 -18.959499 36.921080 -1.522351 2.110072 0.029514 -0.005004 -393263.000000 0 0 1
1.460911 -32.945011 -19.489399 38.305936 -1.526481 2.104567 0.028681 0.003041 -412701.000000 0 0 1
2.066311 -34.082623 -18.666999 38.914672 -1.510244 2.071098 0.012771 -0.011354 198854.000000 0 0 1
3.468711 -34.258543 -18.755299 39.210215 -1.469889 2.069545 0.024529 -0.003128 -20321.500000 0 0 1
3.801811 33.528406 -18.084399 38.283851 1.457888 2.062782 0.036296 -0.016354 118125.000000 0 0 1
4.961611 32.701591 -18.662199 37.977484 1.420221 2.084495 0.037151 -0.011456 -934744.000000 0 0 1
6.137511 33.403408 -18.764299 38.801490 1.389084 2.075556 0.056759 -0.014332 -1573690.000000 0 0 1
7.063511 32.580951 -19.388299 38.565758 1.357301 2.097554 0.055560 -0.028120 -174092.000000 0 0 1
8.440211 33.219213 -19.701399 39.533510 1.321985 2.092487 0.055924 -0.023472 583400.000000 0 0 1
9.216711 33.534898 -18.523999 39.404006 1.302579 2.060205 0.061217 -0.020074 313472.000000 0 0 1
10.511511 34.045521 -18.796099 40.285019 1.271333 2.056214 0.061674 -0.006716 224239.000000 0 0 1
11.383811 34.180253 -17.540199 40.069183 1.249299 2.023889 0.044391 -0.009885 -360669.000000 0 0 1
11.994911 32.967471 -17.213599 39.077360 1.221845 2.026953 0.034762 -0.020900 -203381.000000 0 0 1
12.727111 33.201379 -16.016299 38.997856 1.204742 1.994015 0.023945 -0.018426 82250.500000 0 0 1
14.081511 32.497431 -15.899299 38.822155 1.161907 1.992748 0.015401 -0.016269 -91633.300000 0 0 1
13.858911 31.149321 -15.544299 37.469652 1.152176 1.998575 0.026642 -0.012069 8894.220000 0 0 1
15.053511 30.388991 -15.557999 37.311530 1.110867 2.000912 0.011868 -0.007772 -442574.000000 0 0 1
14.975111 29.163131 -14.607199 35.890283 1.096411 1.989959 0.028288 -0.007950 -562113.000000 0 0 1
15.104711 29.422841 -13.207499 35.613114 1.096513 1.950732 0.035974 -0.016631 722116.000000 0 0 1
13.849211 29.563641 -12.509399 34.961330 1.132702 1.936714 0.029150 -0.017983 1094620.000000 0 0 1
13.130911 28.275981 -11.933899 33.382179 1.136045 1.936379 0.025163 -0.015262 -360378.000000 0 0 1
12.398511 27.584701 -12.889499 32.875188 1.148383 1.973681 0.020864 -0.007028 -259417.000000 0 0 1
12.027211 26.260571 -12.514799 31.478431 1.141314 1.979661 0.031748 -0.006507 475201.000000 0 0 1
11.109811 26.064351 -11.232299 30.478564 1.167871 1.948225 0.022971 -0.003695 -44404.400000 0 0 1
9.844011 26.665631 -11.334399 30.601128 1.217151 1.950227 0.031889 -0.000845 -168684.000000 0 0 1
9.215111 26.843041 -10.114299 30.129158 1.240106 1.913142 0.019644 0.004859 -6318.500000 0 0 1
8.086011 27.889571 -10.094899 30.742783 1.288604 1.905370 0.024689 0.007870 139336.000000 0 0 1
8.589511 29.235171 -10.252799 32.149569 1.285030 1.895375 0.031185 0.005217 -185334.000000 0 0 1
7.596811 30.232711 -10.245499 32.813086 1.324615 1.888344 0.034704 0.010091 -91763.800000 0 0 1
8.044311 31.600841 -10.868999 34.372361 1.321530 1.892532 0.065364 0.003770 -141278.000000 0 0 1
8.899711 32.282501 -9.954299 34.934980 1.301796 1.859738 0.049090 0.002725 -55469.600000 0 0 1
9.285011 33.598964 -10.354499 36.363683 1.301177 1.859540 0.068187 0.001935 -50252.800000 0 0 1
10.390011 33.597396 -11.431399 36.978564 1.270875 1.885081 0.061036 -0.002007 -655758.000000 0 0 1
11.663511 33.187012 -11.001399 36.857103 1.232832 1.873904 0.038021 -0.001429 -31807.200000 0 0 1
12.575311 33.476221 -12.069199 37.742037 1.211457 1.896295 0.040974 -0.004703 1088940.000000 0 0 1
14.098111 33.380769 -11.696099 38.076649 1.171179 1.883017 0.022450 -0.001528 913350.000000 0 0 1
14.578911 34.413537 -10.848399 38.916885 1.170079 1.853297 0.030950 0.001524 -1212920.000000 0 0 1
15.915711 34.296202 -10.583999 39.262710 1.136307 1.843741 0.010314 -0.004446 -995585.000000 0 0 1
16.467511 -33.749781 -9.467799 38.728102 -1.116852 1.817768 0.019194 -0.002917 -25665.700000 0 0 1
16.176511 -34.072413 -8.109299 38.579393 -1.127537 1.782573 0.016278 -0.005143 306168.000000 0 0 1
16.826411 -33.171811 -7.198199 37.885502 -1.101365 1.761957 0.019599 -0.005677 -1313810.000000 0 0 1
17.109111 -33.962771 -5.891899 38.482541 -1.104145 1.724507 0.027485 -0.004779 367336.000000 0 0 1
18.106011 34.027959 -6.005799 39.010245 1.081806 1.725365 0.025849 -0.015186 18001.300000 0 0 1
19.375211 -34.465240 -6.335499 40.042354 -1.058660 1.729684 0.030668 -0.020939 -1637500.000000 0 0 1
20.198311 33.491184 -7.106499 39.750893 1.028105 1.750538 0.025568 -0.015957 -65727.100000 0 0 1
20.451511 32.249731 -6.467799 38.731665 1.005637 1.738572 0.033624 -0.004589 69687.100000 0 0 1
21.398211 32.288861 -5.403599 39.110777 0.985537 1.709401 0.021901 0.001358 -395401.000000 0 0 1
21.694411 30.916721 -4.774599 38.069514 0.958927 1.696545 0.007166 0.003127 -115895.000000 0 0 1
22.524911 30.151521 -5.650399 38.058019 0.929181 1.719815 0.002106 0.001678 99378.100000 0 0 1
22.828211 28.837961 -5.165699 37.140809 0.901197 1.710333 0.006746 0.009741 -877604.000000 0 0 1
23.678011 28.033791 -6.084999 37.196355 0.869432 1.735126 -0.002788 0.014935 -187413.000000 0 0 1
24.967211 28.667001 -6.248399 38.525330 0.854271 1.733705 -0.008628 0.007928 964051.000000 0 0 1
25.937911 27.771261 -6.800999 38.604038 0.819520 1.747894 -0.024989 0.013710 349014.000000 0 0 1
26.633611 26.841531 -5.771999 38.250922 0.789286 1.722273 -0.017799 0.018626 -460353.000000 0 0 1
27.642311 27.462211 -4.984499 39.282510 0.782130 1.698028 -0.013874 0.005860 333746.000000 0 0 1
28.327611 26.469921 -4.225799 38.999585 0.751510 1.679364 -0.011383 0.008363 292427.000000 0 0 1
29.571711 26.961211 -3.418699 40.163173 0.739254 1.656020 -0.017677 0.005823 -57632.000000 0 0 1
29.348011 27.780581 -2.279499 40.475456 0.757968 1.627144 -0.005142 -0.001078 -38279.100000 0 0 1
30.527811 27.930131 -1.513799 41.404481 0.740991 1.607366 -0.000297 -0.004277 105533.000000 0 0 1
30.491211 29.260501 -0.741399 42.266305 0.764804 1.588338 0.004870 -0.009188 72709.100000 0 0 1
30.445711 30.341971 -1.660899 43.015522 0.783692 1.609418 -0.009471 0.004580 84641.900000 0 0 1
29.988411 31.554271 -1.074599 43.544593 0.810836 1.595477 0.010760 -0.002812 -102600.000000 0 0 1
32.650512 22.836479 19.117135 44.193048 0.610338 1.123441 0.019467 -0.002356 15968.000000 0 0 1
33.103482 22.375379 20.379035 44.853129 0.594383 1.099154 0.016710 -0.002083 140701.000000 0 0 1
33.857052 23.494179 20.889835 46.202398 0.606636 1.101636 0.020089 -0.007422 188710.000000 0 0 1
33.874902 23.673479 22.429235 47.021412 0.609954 1.073558 0.027685 -0.004794 724691.000000 0 0 1
32.649812 24.234879 22.948935 46.690397 0.638534 1.056970 0.010584 0.002072 812554.000000 0 0 1
32.580852 24.375979 24.361605 47.425605 0.642328 1.031327 0.007036 0.000574 364789.000000 0 0 1
31.244722 25.025579 24.875685 47.130796 0.675322 1.014787 0.029602 -0.001870 576595.000000 0 0 1
31.146022 26.424979 24.836105 47.803622 0.703577 1.024479 0.016201 -0.001578 -284859.000000 0 0 1
30.014992 26.846279 25.525655 47.677893 0.729729 1.005842 0.017542 -0.005681 -408407.000000 0 0 1
29.828892 28.369079 25.759865 48.560664 0.760320 1.011644 0.002038 -0.004949 -200696.000000 0 0 1
29.841082 29.116879 24.526655 48.371888 0.773115 1.039045 -0.002588 -0.006010 410432.000000 0 0 1
29.302222 30.404579 24.826565 48.983844 0.803859 1.039291 -0.012477 -0.001735 -52563.800000 0 0 1
29.335372 31.342879 23.657935 49.016711 0.818471 1.067118 -0.003298 -0.001735 -128995.000000 0 0 1
30.634782 31.837279 23.436335 50.013638 0.804644 1.083092 -0.014737 -0.005495 -243317.000000 0 0 1
30.737052 32.660779 22.290235 50.083404 0.815733 1.109553 -0.010008 -0.004649 556468.000000 0 0 1
32.227242 33.007079 21.970035 51.095448 0.797352 1.126325 -0.004394 -0.017796 679544.000000 0 0 1
32.699592 34.044779 22.802535 52.423905 0.805550 1.120798 0.004543 -0.002249 871252.000000 0 0 1
34.102062 34.311979 22.595335 53.392993 0.788466 1.133834 0.010074 0.000456 1058510.000000 0 0 1
34.510952 -33.376343 23.317335 53.373066 -0.768687 1.118675 0.025071 0.004792 -61086.500000 0 0 1
33.792922 -32.221643 22.866735 51.991186 -0.761601 1.115399 0.007755 0.014457 338029.000000 0 0 1
34.156322 -31.081843 23.641635 51.881232 -0.738306 1.097652 0.028943 0.014404 -953540.000000 0 0 1
33.100942 -29.968043 23.596235 50.502854 -0.735765 1.084646 0.009529 0.002857 118595.000000 0 0 1
31.816582 -30.393943 24.018465 50.129565 -0.762534 1.071136 -0.001380 0.011168 19034.800000 0 0 1
31.031252 -30.760943 22.926935 49.343881 -0.781024 1.087573 0.002898 0.019232 -716502.000000 0 0 1
30.287182 -32.143043 23.158135 49.867703 -0.815116 1.087849 0.000888 0.023902 229037.000000 0 0 1
29.263432 -32.164143 24.129825 49.730564 -0.832585 1.064192 -0.014042 0.013999 58988.900000 0 0 1
28.733942 -33.443843 24.231495 50.311981 -0.861003 1.068289 -0.013490 0.012799 -302203.000000 0 0 1
27.743312 -33.575843 25.412885 50.426613 -0.880230 1.042621 -0.021219 0.007177 -101477.000000 0 0 1
27.475742 34.056979 25.591595 50.692444 0.891948 1.041599 -0.022460 -0.005250 -280788.000000 0 0 1
26.819852 33.837679 26.767185 50.801330 0.900582 1.015848 -0.020044 -0.009575 -1115270.000000 0 0 1
26.563002 32.320479 26.870175 49.721351 0.882866 0.999866 -0.016505 -0.010841 57934.800000 0 0 1
25.732562 31.690579 25.958285 48.376545 0.888785 1.004408 -0.017950 -0.002436 1085860.000000 0 0 1
24.344662 32.115379 25.863445 47.885049 0.922171 1.000222 -0.004134 -0.008688 762262.000000 0 0 1
23.828862 31.820379 24.426095 46.658175 0.928028 1.019829 0.012799 -0.019446 75815.500000 0 0 1
24.341962 32.718979 23.430635 47.032514 0.931165 1.049298 0.019068 -0.019515 -134465.000000 0 0 1
25.675162 32.678779 23.006935 47.501953 0.904846 1.065192 -0.001905 -0.012017 -491390.000000 0 0 1
25.951852 33.641879 21.753835 47.733677 0.913730 1.097600 0.004358 -0.005414 232741.000000 0 0 1
27.274262 33.523179 21.243835 48.155886 0.887821 1.113920 0.002201 0.001758 423547.000000 0 0 1
27.483352 34.478479 20.196435 48.497382 0.897816 1.141266 -0.010351 -0.005656 73578.200000 0 0 1
28.980552 -34.332543 19.820835 49.106633 -0.869730 1.155317 0.003011 -0.008703 208269.000000 0 0 1
29.390162 33.597479 19.030135 48.525439 0.852095 1.167809 0.024458 -0.013893 100820.000000 0 0 1
30.419512 33.956279 18.116235 49.056840 0.840282 1.192551 0.029699 -0.002030 274778.000000 0 0 1
31.308842 32.758379 17.607935 48.614754 0.808020 1.200177 0.021001 -0.017186 411294.000000 0 0 1
32.123262 32.026179 18.537635 49.002286 0.783885 1.182836 0.019283 -0.005263 186740.000000 0 0 1
32.923362 31.158379 17.756335 48.683465 0.757862 1.197453 0.023025 -0.016517 295616.000000 0 0 1
34.030042 30.493779 18.642635 49.350401 0.730647 1.183420 0.029011 -0.020403 -74222.800000 0 0 1
34.989157 31.364879 19.158635 50.744951 0.730832 1.183650 0.047956 -0.015445 -705803.000000 0 0 1
-35.174931 30.645079 19.990035 50.754292 -0.716685 1.165970 0.039467 -0.016509 -824044.000000 0 0 1
-34.142967 31.472079 20.716635 50.846956 -0.744715 1.151157 0.040608 -0.015267 -512262.000000 0 0 1
-33.138799 31.982279 19.877135 50.161207 -0.767640 1.163351 0.037881 -0.015954 516168.000000 0 0 1
-32.023639 32.708679 20.437135 50.130306 -0.795980 1.150884 0.034688 -0.009953 831080.000000 0 0 1
-32.267989 34.072579 21.132935 51.466151 -0.812593 1.147664 0.028997 0.001090 -386173.000000 0 0 1
-32.558479 33.893379 22.473235 52.094740 -0.805484 1.124762 0.050034 -0.000838 155523.000000 0 0 1
-32.486649 -33.933043 23.172435 52.381252 0.807171 1.112545 0.043522 0.005410 -140699.000000 0 0 1
-32.725779 -34.046043 24.693265 53.290402 0.805168 1.089000 0.053550 -0.008793 502815.000000 0 0 1
-34.002059 34.441979 25.072715 54.507164 -0.791826 1.092813 0.053742 -0.016636 294662.000000 0 0 1
-34.046689 34.270779 26.458175 55.079019 -0.788678 1.069723 0.059456 -0.007469 687989.000000 0 0 1
-35.451709 33.913079 27.039285 56.018243 -0.763220 1.067076 0.048343 -0.018277 392317.000000 0 0 1
-35.369171 33.532479 28.401665 56.409750 -0.758748 1.043165 0.056802 -0.020754 -293724.000000 0 0 1
34.336692 33.352579 28.954245 55.944179 0.770861 1.026804 0.052979 -0.027224 -456223.000000 0 0 1
34.356132 32.287079 30.100405 55.935978 0.754361 1.002588 0.045991 -0.014075 -212590.000000 0 0 1
34.359262 30.901679 29.583595 54.869497 0.732467 1.001354 0.020518 -0.013798 770868.000000 0 0 1
-35.443849 30.480279 28.870105 54.943578 -0.710248 1.017552 0.027410 -0.015377 255767.000000 0 0 1
35.372664 29.014179 28.407495 53.851961 0.686963 1.015128 0.023409 -0.010918 -161570.000000 0 0 1
34.306322 28.888779 27.469265 52.593210 0.699880 1.021254 0.017709 -0.012518 311740.000000 0 0 1
34.154172 27.634579 26.769935 51.447126 0.680273 1.023549 0.021648 -0.011566 -40158.300000 0 0 1
33.823682 26.361279 27.596215 50.995191 0.662037 0.998988 0.004367 -0.006885 -192792.000000 0 0 1
34.888972 26.002479 28.457085 51.992066 0.640481 0.991620 0.001426 -0.007324 82826.500000 0 0 1
34.691902 24.663579 28.969685 51.488473 0.618025 0.973216 0.000044 -0.007520 -208188.000000 0 0 1
35.260747 23.506879 28.129625 50.864225 0.587997 0.984795 0.004121 -0.008396 -221501.000000 0 0 1
34.456892 23.344479 26.985125 49.602813 0.595464 0.995571 0.001575 -0.003178 348439.000000 0 0 1
34.998307 22.312379 26.074715 49.016472 0.567557 1.009885 -0.000088 -0.008218 -14264.700000 0 0 1
34.896762 20.827879 26.696075 48.623707 0.538095 0.989588 0.002410 -0.014041 -1110550.000000 0 0 1
33.595832 20.372079 26.609455 47.452762 0.545103 0.975497 0.045542 -0.020175 -630945.000000 0 0 1
33.265402 19.123279 27.261135 47.068633 0.521737 0.953076 0.039538 -0.019827 -358231.000000 0 0 1
32.992112 19.236879 28.804795 47.835689 0.527882 0.924591 0.025711 -0.020345 -564760.000000 0 0 1
31.870492 19.947679 29.221475 47.618617 0.559245 0.910113 0.032074 -0.020059 -163064.000000 0 0 1
31.977462 21.365979 29.024695 48.181906 0.589034 0.924294 0.035969 -0.027781 -192945.000000 0 0 1
30.962452 22.319779 29.786375 48.415639 0.624593 0.908129 0.056698 -0.031923 541104.000000 0 0 1
29.587432 22.084679 29.532465 47.279125 0.641207 0.896125 0.067062 -0.039563 626398.000000 0 0 1
28.943742 22.708679 28.405675 46.479099 0.665267 0.913284 0.065653 -0.032691 157070.000000 0 0 1
28.723772 24.261979 28.489215 47.173446 0.701389 0.922380 0.062222 -0.022197 -459765.000000 0 0 1
29.937832 24.963479 28.302125 48.171146 0.695040 0.942790 0.053620 -0.020629 147387.000000 0 0 1
30.002312 26.137179 29.116905 49.306034 0.716658 0.939076 0.032990 -0.015410 19187.500000 0 0 1
30.206082 25.948079 30.632985 50.240322 0.709716 0.915078 0.030425 -0.021168 719531.000000 0 0 1
31.513512 25.410379 30.928945 50.944955 0.678591 0.918384 0.002411 -0.005183 778121.000000 0 0 1
31.952972 25.451279 32.269385 52.058363 0.672617 0.902220 0.012531 -0.003604 -32434.200000 0 0 1
31.352972 24.465279 33.327161 51.886977 0.662624 0.873297 0.025237 -0.003099 -349230.000000 0 0 1
31.875322 24.676679 -34.228431 52.882512 0.658787 2.274773 0.022450 -0.017581 310752.000000 0 0 1
31.432832 23.581179 -33.446319 51.601852 0.643635 2.275964 0.014096 -0.019500 -264366.000000 0 0 1
32.043722 23.392479 -32.049509 51.001757 0.630589 2.250291 0.002231 -0.016205 -318771.000000 0 0 1
31.566722 24.418179 -31.163219 50.634490 0.658398 2.233759 -0.000246 -0.014380 349401.000000 0 0 1
31.862612 24.120379 -29.815669 49.859732 0.647974 2.211789 0.001943 -0.013295 -160060.000000 0 0 1
33.230822 24.682679 -29.351579 50.744826 0.638854 2.187581 0.005806 0.007197 178539.000000 0 0 1
33.545242 24.075279 -28.104329 49.947529 0.622504 2.168417 0.001661 0.000796 651714.000000 0 0 1
34.787742 24.449779 -27.464949 50.619187 0.612621 2.144302 0.014860 0.006459 752057.000000 0 0 1
35.247192 23.526179 -26.326279 49.889063 0.588553 2.126683 0.007699 0.002354 -495303.000000 0 0 1
-34.991248 22.446079 -26.865739 49.497291 -0.570360 2.144530 -0.006672 0.005053 -17155.400000 0 0 1
-35.127742 21.239579 -26.141619 48.666850 -0.543823 2.137856 -0.020585 0.015654 -603008.000000 0 0 1
-34.072145 20.168279 -26.369529 47.571237 -0.534464 2.158338 -0.009724 0.023670 -765129.000000 0 0 1
-32.814569 20.575979 -25.936379 46.613974 -0.560063 2.160853 -0.002811 0.018016 -1179410.000000 0 0 1
-31.861289 19.569579 -26.101049 45.600164 -0.550804 2.180213 -0.019398 0.012034 -570068.000000 0 0 1
-30.536869 19.873979 -25.431059 44.432130 -0.576951 2.180174 -0.000531 0.004845 -736988.000000 0 0 1
-30.624199 19.663079 -24.000899 43.594970 -0.570785 2.153811 0.003377 -0.005059 -60829.800000 0 0 1
-29.352649 19.563679 -23.424699 42.344209 -0.587890 2.156994 0.009585 -0.001595 -143698.000000 0 0 1
-29.489179 19.876079 -21.923399 41.776855 -0.593071 2.123246 -0.007090 0.003574 -523412.000000 0 0 1
-30.516599 19.108179 -21.400799 41.885314 -0.559431 2.107072 -0.018822 -0.000321 -399608.000000 0 0 1
-30.890159 19.593179 -20.131999 41.753946 -0.565249 2.073913 -0.016640 0.001873 -497369.000000 0 0 1
-32.117509 18.929179 -19.450299 42.049522 -0.532569 2.051673 -0.024094 -0.004667 155801.000000 0 0 1
-32.537819 19.502779 -18.222199 42.084636 -0.539969 2.018603 -0.018032 -0.011128 614904.000000 0 0 1
-33.398699 20.675179 -18.501599 43.419411 -0.554303 2.010989 -0.021385 -0.013181 441970.000000 0 0 1
-34.566626 20.632379 -17.469399 43.883101 -0.538128 1.980230 -0.002758 -0.018065 171383.000000 0 0 1
-34.114136 21.169479 -16.259199 43.316079 -0.555392 1.955583 -0.001861 -0.029996 509011.000000 0 0 1
-35.164782 20.974879 -15.318699 43.716930 -0.537823 1.928801 0.004898 -0.020487 -517269.000000 0 0 1
-35.083740 21.862479 -14.051099 43.660854 -0.557269 1.898451 0.006362 -0.020050 -282590.000000 0 0 1
-35.387957 23.207679 -14.353299 44.686923 -0.580447 1.897789 0.013517 -0.024556 1354580.000000 0 0 1
34.179512 23.484679 -14.363499 43.887120 0.602014 1.904223 0.029562 -0.017144 903026.000000 0 0 1
33.929182 25.004179 -14.565499 44.593185 0.635098 1.903533 0.017865 -0.023989 -73343.900000 0 0 1
34.575372 25.791479 -13.592499 45.226240 0.640904 1.876060 0.010967 -0.015573 87164.500000 0 0 1
34.622642 27.192779 -13.906299 46.168817 0.665778 1.876753 0.015203 -0.008928 -367413.000000 0 0 1
-35.164836 27.720979 -14.710799 47.132006 -0.667575 1.888219 0.023927 -0.006248 -324807.000000 0 0 1
-34.935857 27.284579 -16.041599 47.141227 -0.663042 1.918020 0.025860 -0.007273 -284349.000000 0 0 1
-33.802429 27.881979 -16.593499 46.854596 -0.689712 1.932800 0.029444 -0.006003 -1032370.000000 0 0 1
-33.588059 27.565979 -18.104499 47.072431 -0.687241 1.965581 0.022630 -0.008134 -198650.000000 0 0 1
-33.116869 26.244779 -18.403099 46.088930 -0.670145 1.981545 0.027482 -0.010294 78842.300000 0 0 1
-31.756269 26.009379 -18.115399 44.867762 -0.686238 1.986409 0.015330 -0.007649 -208659.000000 0 0 1
-31.409459 24.615379 -18.678499 44.060837 -0.664718 2.008571 0.017090 -0.009055 -428144.000000 0 0 1
-31.405489 24.687579 -20.083999 44.711836 -0.666202 2.036652 0.011593 -0.010179 140046.000000 0 0 1
-31.185879 23.524879 -20.789199 44.251212 -0.646275 2.059860 0.010776 -0.010376 -246737.000000 0 0 1
-30.918349 23.563679 -22.292999 44.812599 -0.651217 2.091478 0.004647 -0.000267 -582542.000000 0 0 1
-32.014619 23.997379 -23.006499 46.153104 -0.643229 2.092643 0.009317 -0.002009 -311563.000000 0 0 1
-31.780189 23.718979 -24.374599 46.547733 -0.641158 2.121923 0.012626 0.006581 -121282.000000 0 0 1
-32.569159 24.557179 -25.378069 48.040103 -0.646057 2.127356 -0.006961 0.018350 -804774.000000 0 0 1
-32.285649 25.893679 -25.312239 48.513454 -0.675970 2.119706 -0.015234 0.026314 -354141.000000 0 0 1
-32.931779 26.660879 -26.268399 49.853117 -0.680555 2.125764 -0.014633 0.018580 -491729.000000 0 0 1
-32.476509 28.109879 -26.325359 50.377708 -0.713450 2.120647 -0.014993 0.019418 -785586.000000 0 0 1
-31.174059 28.176279 -26.769069 49.822763 -0.734931 2.138012 -0.022797 0.010149 -1240430.000000 0 0 1
-30.645969 29.485079 -26.718449 50.223708 -0.766095 2.131744 -0.016622 0.002717 452815.000000 0 0 1
-29.423799 29.678279 -27.668649 50.120997 -0.789704 2.155602 -0.000746 0.006143 420563.000000 0 0 1
-28.237269 29.039079 -27.153669 48.764056 -0.799396 2.161370 -0.005546 0.007996 424836.000000 0 0 1
-27.161039 29.049179 -28.070839 48.678012 -0.818976 2.185435 0.010033 0.004936 463761.000000 0 0 1
-26.289509 30.347079 -28.009509 48.955246 -0.856918 2.179915 0.009656 -0.004855 -486086.000000 0 0 1
-25.722669 30.702679 -26.701239 48.137993 -0.873428 2.158776 0.006030 0.001047 402067.000000 0 0 1
-26.656439 31.063079 -25.677319 48.319823 -0.861596 2.131053 -0.004088 0.015635 -271154.000000 0 0 1
-26.002509 31.737179 -24.460999 47.767347 -0.884393 2.108408 -0.023918 0.014968 30216.400000 0 0 1
-25.634819 33.083679 -24.494999 48.494110 -0.911581 2.100309 -0.004450 0.007806 -244443.000000 0 0 1
-24.683789 33.424879 -23.544999 47.758548 -0.934705 2.086332 0.013086 0.010462 -344764.000000 0 0 1
-24.110589 -34.177443 -23.705299 48.076599 0.956420 2.086415 0.013829 0.014893 -36382.500000 0 0 1
-24.836589 -33.154943 -23.043799 47.403830 0.927867 2.078437 0.010205 0.000742 264110.000000 0 0 1
-24.269889 -31.880743 -23.317599 46.358599 0.920121 2.097843 0.024338 -0.004592 -45894.400000 0 0 1
16.415811 8.299179 -24.976599 31.019119 0.468086 2.506809 0.038382 -0.018107 29041.900000 0 0 1
15.047111 7.928779 -24.967699 30.210380 0.484959 2.543589 0.039753 -0.016876 300174.000000 0 0 1
15.022511 6.584979 -25.291089 30.144269 0.413116 2.566242 0.034134 -0.016731 240621.000000 0 0 1
13.538311 6.143379 -25.385599 29.418627 0.425991 2.611794 0.036098 -0.023339 150666.000000 0 0 1
12.942911 6.105079 -24.132999 28.056953 0.440747 2.606347 0.051096 -0.039819 -147472.000000 0 0 1
11.655711 5.530179 -24.196899 27.421313 0.443008 2.651761 0.058981 -0.037558 39805.800000 0 0 1
10.890311 5.709779 -22.831499 25.932177 0.482897 2.647567 0.059553 -0.039957 132382.000000 0 0 1
11.379311 4.837879 -21.800299 25.062858 0.401995 2.625644 0.039448 -0.033708 169828.000000 0 0 1
10.919811 5.220379 -20.488099 23.796152 0.445946 2.607997 0.040010 -0.027434 -145943.000000 0 1 0
11.256611 6.608879 -19.947399 23.838777 0.530888 2.562140 0.032729 -0.030137 -430660.000000 0 1 0
10.850711 6.773679 -18.593499 22.568537 0.558068 2.538999 0.020186 -0.017322 -448676.000000 0 1 0
10.982311 8.144379 -18.171999 22.741232 0.638097 2.496555 0.013882 -0.010288 756182.000000 0 1 0
12.473411 8.497879 -17.811199 23.346065 0.598051 2.438615 0.007928 -0.010520 801410.000000 0 1 0
12.895911 7.926779 -16.572799 22.445401 0.551139 2.401433 0.005592 -0.008051 209209.000000 0 1 0
14.224311 8.314679 -16.281799 23.163806 0.528974 2.350260 0.004926 -0.006743 -296595.000000 0 1 0
14.902211 7.618379 -15.116899 22.552965 0.472587 2.305388 0.018451 -0.009166 -1118070.000000 0 1 0
16.225911 8.012479 -15.065499 23.546747 0.458681 2.265050 0.009180 -0.008148 -545590.000000 0 1 0
16.778911 8.159879 -13.781099 23.195564 0.452642 2.206976 0.005791 -0.004864 -70556.400000 0 1 0
17.148011 9.643479 -13.440199 23.826244 0.512289 2.170130 0.017656 -0.011177 -1084250.000000 0 1 0
16.050811 10.422779 -13.135099 23.211930 0.575926 2.172293 0.017945 -0.007659 -744559.000000 0 1 0
16.363511 11.780379 -13.075999 24.031720 0.623969 2.146129 0.030126 -0.011281 8052.730000 0 1 0
15.182911 12.667279 -12.610299 23.452087 0.695315 2.138509 0.034960 -0.014153 151477.000000 0 1 0
14.814911 12.687279 -11.192199 22.488085 0.708190 2.091735 0.057413 -0.012958 170257.000000 0 1 0
15.249511 13.814179 -10.428099 23.067821 0.736053 2.039873 0.053185 -0.006981 648.973000 0 1 0
14.755511 15.252179 -10.903899 23.858941 0.801948 2.045433 0.042519 -0.006216 1598940.000000 0 1 0
13.325911 15.480679 -10.743199 23.079161 0.860060 2.054988 0.046783 -0.010682 1357150.000000 0 1 0
13.017111 16.857879 -10.727499 23.847694 0.913258 2.037376 0.044220 -0.008599 891996.000000 0 1 0
11.832411 17.223679 -9.738899 23.054440 0.968859 2.006921 0.037731 -0.012175 750580.000000 0 1 0
12.207211 16.984679 -8.385799 22.534794 0.947617 1.952096 0.036948 -0.013746 128502.000000 0 1 0
11.319911 17.610879 -7.476199 22.230092 0.999514 1.913792 0.036680 -0.001532 -142362.000000 0 1 0
11.555811 17.315879 -5.985999 21.661224 0.982318 1.850787 0.026568 -0.003708 595553.000000 0 1 0
12.746411 17.923679 -5.477099 22.665566 0.952627 1.814861 0.037350 -0.012494 134844.000000 0 1 0
13.425411 17.128379 -4.603599 22.244463 0.906005 1.779258 0.053061 -0.024757 -127863.000000 0 1 0
14.548411 17.982679 -3.904799 23.458057 0.890577 1.738034 0.050461 -0.026492 352739.000000 0 1 0
15.685811 18.226679 -4.717699 24.505370 0.860183 1.764523 0.045376 -0.025512 147980.000000 0 1 0
16.189711 19.519579 -4.485599 25.753472 0.878379 1.745864 0.039157 -0.018991 -201831.000000 0 0 1
17.545111 19.790379 -5.172399 26.948910 0.845463 1.763928 0.033632 -0.012420 838257.000000 0 0 1
18.704611 19.079479 -4.685999 27.126511 0.795319 1.744413 0.035702 -0.025995 857915.000000 0 0 1
18.881411 17.810579 -5.277499 26.487288 0.756222 1.771385 0.039615 -0.024806 -594923.000000 0 0 1
19.920911 16.936279 -4.553399 26.540793 0.704596 1.743212 0.050499 -0.023817 613725.000000 0 0 1
21.255811 17.351579 -4.886399 27.870481 0.684614 1.747032 0.044497 -0.028216 834206.000000 0 0 1
22.212411 16.551079 -4.186199 28.015240 0.640375 1.720784 0.043416 -0.031310 636504.000000 0 0 1
23.707711 16.813879 -4.527899 29.415369 0.616884 1.725340 0.043801 -0.026581 537361.000000 0 0 1
24.307111 17.982679 -3.937599 30.491262 0.636948 1.700297 0.047839 -0.022371 730446.000000 0 0 1
25.708511 17.935879 -4.191899 31.625865 0.609156 1.703734 0.045352 -0.014205 166362.000000 0 0 1
26.499111 19.091479 -3.544199 32.851922 0.624324 1.678891 0.061162 -0.016986 -378072.000000 0 0 1
26.422811 20.323179 -4.247399 33.604121 0.655647 1.697530 0.056454 -0.011439 132164.000000 0 0 1
26.629011 21.437479 -3.439799 34.358433 0.677808 1.671079 0.078699 0.001854 -423651.000000 0 0 1
26.252411 22.746879 -4.197499 34.988978 0.713977 1.691052 0.041123 -0.000987 432543.000000 0 0 1
27.276911 23.173979 -5.112099 36.155176 0.704251 1.712665 0.033224 0.008956 549830.000000 0 0 1
27.497311 22.387979 -6.249399 36.005259 0.683332 1.745249 0.043946 0.007673 293531.000000 0 0 1
28.584911 22.928479 -7.230099 37.350858 0.676031 1.765599 0.016962 0.016962 110687.000000 0 0 1
28.112111 23.980279 -8.047399 37.816732 0.706246 1.785236 0.002572 0.017850 -52179.200000 0 0 1
29.089811 24.849379 -8.562599 39.204934 0.706944 1.790977 -0.017849 0.016653 -506385.000000 0 0 1
30.067711 24.328879 -9.626499 39.857635 0.680287 1.814730 -0.008312 0.010377 56475.200000 0 0 1
29.429511 24.018379 -10.878999 39.513685 0.684501 1.849721 -0.001259 0.011755 31766.900000 0 0 1
30.395311 23.702779 -11.827599 40.318591 0.662312 1.868529 0.000132 0.009391 -303114.000000 0 0 1
29.791411 23.136779 -13.102999 39.931533 0.660325 1.905127 0.006172 0.007138 -106565.000000 0 0 1
29.480911 24.060679 -14.072199 40.571753 0.684508 1.925004 0.006681 0.001651 126438.000000 0 0 1
29.233111 23.460179 -15.338699 40.499759 0.676276 1.959226 0.016076 -0.003609 -50442.300000 0 0 1
29.282611 24.454379 -16.561799 41.590638 0.695789 1.980361 0.017028 -0.007391 239436.000000 0 0 1
30.592111 24.931079 -16.891899 42.927523 0.683791 1.975230 0.016511 -0.007498 430864.000000 0 0 1
30.642311 25.458679 -18.151399 43.778635 0.693262 1.998319 0.022686 -0.014776 -653261.000000 0 0 1
32.036911 25.957479 -18.467899 45.179837 0.680952 1.991896 0.013882 -0.017238 -712579.000000 0 0 1
32.960011 24.897379 -18.374899 45.209277 0.646936 1.989352 0.013745 -0.012765 710311.000000 0 0 1
34.330911 25.369779 -18.523499 46.533398 0.636409 1.980207 0.014484 -0.015999 887661.000000 0 0 1
35.349311 24.261879 -18.286399 46.611211 0.601504 1.973946 0.016064 -0.022305 -554794.000000 0 0 1
35.305111 23.286779 -19.306399 46.491526 0.583085 1.999033 0.013804 -0.020379 208907.000000 0 0 1
-34.914640 23.644579 -20.460599 46.869332 -0.595267 2.022552 0.012797 -0.012647 -489076.000000 0 0 1
-35.032640 22.691379 -21.659699 47.024750 -0.574771 2.049470 0.013907 -0.012424 4212.700000 0 0 1
-34.403840 21.435079 -21.398599 45.836523 -0.557191 2.056517 0.004775 -0.011334 411952.000000 0 0 1
-34.185140 20.781179 -22.650599 45.973153 -0.546209 2.085977 -0.006139 0.001464 57943.100000 0 0 1
-33.781140 19.308079 -22.670299 45.032319 -0.519248 2.098352 -0.014433 0.003654 -17849.200000 0 0 1
-34.881640 18.450179 -22.475999 45.412646 -0.486528 2.088549 -0.011240 0.003342 110933.000000 0 0 1
-34.510540 17.116479 -22.673699 44.699528 -0.460425 2.102784 -0.020636 0.002195 -446.904000 0 0 1
35.290111 16.169179 -22.341699 44.788233 0.429635 2.093044 -0.025018 0.003399 191023.000000 0 0 1
34.197811 16.398079 -23.232999 44.476505 0.447119 2.120419 0.013397 0.009365 722256.000000 0 0 1
33.119011 15.481779 -23.009799 43.197283 0.437278 2.132546 0.022381 0.012706 199849.000000 0 0 1
33.346011 14.107879 -23.690699 43.269365 0.400239 2.150190 -0.010259 0.009822 -847320.000000 0 0 1
33.282311 14.167079 -25.149149 44.055625 0.402433 2.178337 -0.004416 0.022439 262480.000000 0 0 1
33.488711 12.860579 -25.646179 44.097786 0.366661 2.191460 -0.010275 0.014992 -257375.000000 0 0 1
33.625511 12.719679 -27.176099 45.066679 0.361639 2.218078 -0.001114 0.017239 384092.000000 0 0 1
32.343511 12.775879 -27.803679 44.523818 0.376194 2.245246 -0.007408 0.020615 486116.000000 0 0 1
32.046611 13.983079 -28.411929 45.052741 0.411433 2.253170 0.000008 0.019227 -265173.000000 0 0 1
32.339211 14.152979 -29.880409 46.249003 0.412529 2.273230 -0.003060 0.013817 381643.000000 0 0 1
33.733011 14.301779 -30.159629 47.455876 0.400998 2.259491 -0.002444 0.015997 292466.000000 0 0 1
33.911611 14.272379 -31.576929 48.485056 0.398367 2.280055 0.005549 0.003776 735379.000000 0 0 1
35.462811 14.361879 -31.861979 49.790162 0.384796 2.265197 0.020537 -0.000929 1224890.000000 0 0 1
-34.658140 13.287779 -31.473579 48.665572 -0.366111 2.274088 0.019584 -0.004119 237527.000000 0 0 1
-34.446640 13.134279 -30.088889 47.585938 -0.364277 2.255323 0.004658 0.004432 -928800.000000 0 0 1
-33.351040 12.166879 -29.639759 46.247596 -0.349809 2.266457 0.008917 -0.012136 -440265.000000 0 0 1
-33.622040 10.897179 -30.076509 46.408905 -0.313425 2.275852 0.008933 -0.010973 -21205.900000 0 0 1
-32.645340 9.927279 -29.831479 45.323131 -0.295209 2.289216 0.009855 -0.014188 -419052.000000 0 0 1
-33.099340 8.517079 -30.283049 45.663662 -0.251855 2.295851 0.009032 -0.008059 -422818.000000 0 0 1
-33.383540 8.403879 -31.707919 46.802543 -0.246613 2.315131 0.016603 -0.011836 146192.000000 0 0 1
-33.665340 7.099779 -32.273069 47.173223 -0.207847 2.324220 0.009712 -0.007404 -21248.700000 0 0 1
-34.865540 6.256079 -31.778659 47.588103 -0.177545 2.302026 0.020864 -0.006293 -178886.000000 0 0 1
-34.682440 5.921079 -30.429569 46.517625 -0.169092 2.283856 0.019847 -0.006908 365680.000000 0 0 1
35.230711 5.151179 -29.911159 46.501775 0.145184 2.269501 0.013951 0.000651 -153513.000000 0 0 1
35.401211 4.718279 -28.406719 45.633865 0.132499 2.242719 0.007489 0.013241 52088.900000 0 0 1
-34.668940 3.639579 -28.197319 44.836043 -0.104598 2.250932 0.004518 0.021399 726772.000000 0 0 1
-35.302540 2.361179 -28.387899 45.362069 -0.066785 2.246962 0.000676 0.021104 224229.000000 0 0 1
-34.315440 1.168179 -28.292799 44.490409 -0.034029 2.260010 0.027262 0.022245 186611.000000 0 0 1
-33.698740 0.969379 -27.036839 43.214991 -0.028758 2.246742 0.050360 0.012128 311372.000000 0 0 1
-32.548240 0.127679 -27.021759 42.303424 -0.003923 2.263683 0.046741 0.016384 -357668.000000 0 0 1
-31.613240 0.593579 -25.955099 40.907413 -0.018774 2.258137 0.041713 0.021041 -897137.000000 0 0 1
-32.014940 0.411579 -24.604399 40.379478 -0.012855 2.226011 0.034949 0.015926 -336380.000000 0 0 1
-31.073340 0.889579 -23.681099 39.078616 -0.028621 2.221801 0.051592 0.017397 -352437.000000 0 0 1
-31.383940 0.704379 -22.198999 38.447931 -0.022440 2.186310 0.031676 0.020992 -595184.000000 0 0 1
-31.275840 -0.619721 -21.785799 38.120641 0.019812 2.179124 0.040174 0.007148 186354.000000 0 0 1
-31.763240 -0.856321 -20.479299 37.802624 0.026953 2.143305 0.021101 0.006340 598187.000000 0 0 1
-33.322440 -0.975021 -20.369799 39.067434 0.029252 2.119288 0.018247 0.007136 291343.000000 0 0 1
-33.864840 -2.234121 -20.705099 39.755752 0.065876 2.118593 0.029779 0.000198 1063630.000000 0 0 1
-35.301440 -2.129021 -20.609199 40.932426 0.060237 2.098433 0.023091 -0.001786 1368160.000000 0 0 1
34.932511 -3.532621 -20.449799 40.631934 -0.100784 2.098203 0.031551 -0.002143 240720.000000 0 0 1
34.477611 -4.258221 -21.586499 40.900062 -0.122885 2.126789 0.031663 0.000469 -58042.000000 0 0 1
-35.481840 -4.852121 -22.294099 42.184486 0.135906 2.127618 0.032192 -0.006460 -902599.000000 0 0 1
34.882811 -5.785621 -23.325999 42.360195 -0.164363 2.153949 0.037482 -0.012796 -533458.000000 0 0 1
34.325011 -6.997721 -22.798599 41.796538 -0.201111 2.147742 0.051787 -0.011533 615116.000000 0 0 1
33.678611 -7.800221 -23.807399 41.974809 -0.227595 2.173878 0.050131 -0.004962 -237718.000000 0 0 1
32.286711 -7.366921 -24.234899 41.036978 -0.224331 2.202552 0.025959 -0.002535 -1047580.000000 0 0 1
32.358611 -6.214121 -25.059599 41.396600 -0.189729 2.221007 0.017142 -0.002116 -430580.000000 0 0 1
31.060711 -5.880921 -25.449639 40.583705 -0.187121 2.248608 0.003359 -0.003553 -301214.000000 0 0 1
30.847411 -4.535721 -26.263879 40.766738 -0.145991 2.270836 0.006452 -0.021353 2614.390000 0 0 1
31.103011 -4.760721 -27.613219 41.863488 -0.151884 2.291085 0.020599 -0.017862 432094.000000 0 0 1
30.520511 -3.681921 -28.345049 41.815068 -0.120057 2.315654 0.015953 -0.013450 -81029.500000 0 0 1
30.331211 -4.044921 -29.816239 42.724137 -0.132576 2.343227 0.019682 -0.007899 -235289.000000 0 0 1
30.090411 -2.876921 -30.639139 43.040288 -0.095319 2.362955 0.012745 -0.008302 -18508.700000 0 0 1
29.572011 -3.264721 -31.869669 43.598602 -0.109954 2.390552 0.020833 -0.014795 -992482.000000 0 0 1
29.276411 -2.148721 -32.915839 44.104169 -0.073263 2.413313 0.036812 -0.010049 -789540.000000 0 0 1
28.296711 -1.228821 -32.493689 43.105147 -0.043399 2.424659 0.032144 -0.008473 173868.000000 0 0 1
26.967011 -1.706021 -32.420769 42.204697 -0.063179 2.446789 0.027465 -0.011923 -481088.000000 0 0 1
26.230711 -1.990421 -33.742199 42.784904 -0.075736 2.479402 0.040201 -0.018285 -989957.000000 0 0 1
26.809211 -3.021221 34.323061 43.657005 -0.112220 0.666164 0.038798 -0.014839 81768.200000 0 0 1
25.926511 -3.404321 33.290513 42.332394 -0.130560 0.665825 0.031348 -0.017655 -387181.000000 0 0 1
26.377411 -4.651321 32.505385 42.118911 -0.174543 0.689204 0.010623 -0.017007 678271.000000 0 0 1
27.620911 -4.739521 31.777355 42.369542 -0.169937 0.722727 0.023180 -0.014992 762392.000000 0 0 1
27.768611 -3.918921 30.631895 41.530310 -0.140202 0.741318 0.037202 -0.014373 -407808.000000 0 0 1
28.235311 -2.466521 30.998145 42.002399 -0.087135 0.740681 0.033809 -0.015323 1123310.000000 0 0 1
29.567011 -2.447321 31.623125 43.361498 -0.082584 0.753512 0.038565 -0.012475 1705250.000000 0 0 1
30.056011 -1.151921 31.922825 43.860660 -0.038307 0.755653 0.045417 -0.008287 -178469.000000 0 0 1
31.343111 -1.077321 32.753965 45.347254 -0.034358 0.763685 0.040282 -0.009256 566675.000000 0 0 1
32.463311 -1.625921 32.051745 45.648927 -0.050043 0.792404 0.042088 -0.010292 -706297.000000 0 0 1
33.707911 -1.426121 32.608415 46.920846 -0.042283 0.802423 0.038007 -0.005507 -920329.000000 0 0 1
34.718011 -2.094721 31.685955 47.050270 -0.060262 0.831932 0.026525 0.002201 -704790.000000 0 0 1
34.913211 -1.520821 30.440285 46.344969 -0.043533 0.854203 0.018716 0.003315 -250411.000000 0 0 1
-34.959840 -2.201821 29.925475 46.071384 0.062898 0.863809 0.012318 -0.000396 37180.600000 0 0 1
-34.485640 -1.761221 28.518015 44.784354 0.051027 0.880475 0.009296 -0.002687 -150470.000000 0 0 1
-35.406440 -2.057621 27.520815 44.891480 0.058049 0.910878 0.017759 -0.013732 -365328.000000 0 0 1
-35.015740 -1.387721 26.270345 43.796790 0.039611 0.927516 0.016261 -0.007457 -280339.000000 0 0 1
-25.908359 15.269579 12.583601 32.599848 -0.532566 1.174503 0.032522 -0.015526 -396834.000000 0 0 1
-27.053619 14.527479 12.882901 33.300376 -0.492799 1.173562 0.020568 -0.008144 -61375.500000 0 0 1
-28.040769 15.375579 13.432601 34.686134 -0.501560 1.173137 0.031771 -0.013380 201697.000000 0 0 1
-29.380539 14.676679 13.813101 35.628959 -0.463277 1.172669 0.043578 -0.010536 464718.000000 0 0 1
-30.320139 15.616479 14.308401 36.985343 -0.475617 1.173565 0.054433 -0.016081 -1109270.000000 0 0 1
-31.505489 14.980779 14.620001 37.825441 -0.443854 1.173949 0.058374 -0.020045 -1006920.000000 0 0 1
-32.356319 15.772079 15.611301 39.235221 -0.453557 1.161581 0.053123 -0.012614 125387.000000 0 0 1
-31.699269 15.848879 16.892201 39.260375 -0.463629 1.126015 0.036987 -0.006742 95153.800000 0 0 1
-32.574779 16.359379 17.846901 40.586418 -0.465414 1.115503 0.033874 -0.010444 -105866.000000 0 0 1
-31.878539 16.595579 19.185101 40.739693 -0.479982 1.080464 0.029631 -0.003406 113615.000000 0 0 1
-31.512389 15.414879 19.914501 40.339019 -0.454945 1.054482 0.027677 -0.006262 937153.000000 0 0 1
-30.355119 15.621079 20.794901 39.973482 -0.475268 1.023691 0.028218 0.002312 1210720.000000 0 0 1
-30.542179 16.280679 22.167501 41.100892 -0.489741 1.001139 0.031478 -0.007032 -50532.200000 0 0 1
-31.111799 17.618879 22.169401 42.069600 -0.515278 1.015765 0.018839 -0.005341 373958.000000 0 0 1
-31.407659 18.231979 23.513501 43.263504 -0.525954 0.996201 0.012397 -0.005844 -244004.000000 0 0 1
-32.360219 17.501379 24.520601 44.212463 -0.495776 0.982904 0.003028 -0.010445 852079.000000 0 0 1
-33.704009 17.207179 24.144901 44.889013 -0.472042 1.002876 0.021361 -0.010015 259344.000000 0 0 1
-34.581059 18.277179 23.961601 45.870069 -0.486211 1.021157 0.018121 -0.011583 -1454230.000000 0 0 1
35.018252 17.715379 23.743901 45.868131 0.468348 1.026688 0.003641 -0.018919 -744499.000000 0 0 1
34.385742 17.225179 24.911501 45.822144 0.464399 0.996009 0.016996 -0.016857 -131101.000000 0 0 1
33.369092 16.296279 24.593401 44.540996 0.454296 0.985853 0.024469 -0.012536 131397.000000 0 0 1
33.022812 15.360479 25.823101 44.646197 0.435379 0.954038 0.026853 -0.016710 -1014170.000000 0 0 1
31.967512 15.894879 26.504001 44.463817 0.461421 0.932186 0.029410 -0.020098 -715163.000000 0 0 1
31.899122 15.384079 27.823201 45.037255 0.449366 0.904878 0.025352 -0.011578 218997.000000 0 0 1
30.998512 14.122079 27.990801 44.088840 0.427479 0.882953 0.024821 0.004262 -137167.000000 0 0 1
31.617702 12.953879 27.533101 43.881131 0.388843 0.892526 0.022916 0.000727 -165386.000000 0 0 1
30.669662 11.941979 27.580001 42.940604 0.371313 0.873324 0.026809 0.003422 -87294.500000 0 0 1
31.251892 10.542479 27.039501 42.649258 0.325351 0.884086 0.034604 -0.001452 267415.000000 0 0 1
32.333132 10.106479 27.847301 43.852531 0.302952 0.882760 0.038325 -0.006769 92278.300000 0 0 1
32.756912 8.791279 27.542301 43.690733 0.262201 0.888738 0.032874 -0.003170 -167191.000000 0 0 1
33.930752 8.259579 28.368401 44.992030 0.238781 0.888573 0.035201 -0.009058 454194.000000 0 0 1
35.170777 8.959179 28.264101 46.001194 0.249429 0.909144 0.032024 -0.004139 423079.000000 0 0 1
-34.739703 8.199379 28.746001 45.830223 -0.231781 0.892807 0.034290 -0.003440 457551.000000 0 0 1
-33.359629 8.890379 28.958201 45.060860 -0.260448 0.872849 0.049011 -0.005612 277475.000000 0 0 1
-32.841549 9.339179 27.774401 44.013690 -0.277057 0.887903 0.037322 -0.005160 -606290.000000 0 0 1
-31.632739 9.980279 28.068301 43.451877 -0.305620 0.868512 0.037773 -0.000179 -312255.000000 0 0 1
-30.850739 10.416879 26.802801 42.174276 -0.325634 0.882108 0.024861 0.001116 -132114.000000 0 0 1
-30.439139 9.309679 26.010201 41.106470 -0.296811 0.885694 0.021120 -0.004439 467470.000000 0 0 1
-29.674239 9.755079 24.874101 39.930476 -0.317610 0.898307 0.029856 -0.004640 96748.300000 0 0 1
-28.782009 8.813779 24.072501 38.543119 -0.297158 0.896228 0.020168 0.003101 505710.000000 0 0 1
-28.001439 9.505379 23.059101 37.498732 -0.327255 0.908499 0.022693 0.007330 975124.000000 0 0 1
-27.169339 8.583979 22.272201 36.165019 -0.306019 0.907333 0.008485 0.008744 517260.000000 0 0 1
-26.194509 9.212479 21.264701 34.974413 -0.338184 0.917248 0.008572 0.013971 53711.100000 0 0 1
-24.923289 9.527579 21.916001 34.529063 -0.365134 0.883161 0.016479 0.005097 1791870.000000 0 0 1
-23.945989 10.137179 21.031301 33.443810 -0.400460 0.890717 0.018676 0.007635 828954.000000 0 0 1
-23.414989 9.245979 19.896301 32.087577 -0.376080 0.901974 0.021347 0.003371 -584316.000000 0 0 1
-24.449689 9.052579 18.915401 32.210695 -0.354603 0.943152 0.017337 0.006410 430498.000000 0 0 1
-24.078789 8.244379 17.856701 31.090507 -0.329881 0.958992 0.026186 0.001890 -325260.000000 0 0 1
-23.756689 6.724879 18.138001 30.636438 -0.275856 0.937208 0.032969 -0.000143 -349084.000000 0 0 1
-22.537589 6.540179 18.833601 30.090221 -0.282433 0.894506 0.024943 0.002046 324018.000000 0 0 1
-22.417689 5.350179 19.671201 30.300715 -0.234276 0.864265 0.023734 0.001002 -264160.000000 0 0 1
-22.601989 3.954479 18.981001 29.778620 -0.173208 0.879672 0.034472 -0.002755 -666269.000000 0 0 1
-23.901889 3.637379 18.544801 30.470321 -0.151021 0.916478 0.046241 -0.009788 92439.900000 0 0 1
-23.966489 2.713579 17.443901 29.766521 -0.112744 0.944653 0.058647 -0.009529 -107417.000000 0 0 1
-23.668189 1.218579 17.799701 29.639458 -0.051441 0.926619 0.049310 -0.005273 -754161.000000 0 0 1
-22.322589 0.899279 17.940501 28.652543 -0.040264 0.894204 0.020230 -0.000317 -343273.000000 0 0 1
-22.126789 -0.460721 18.279801 28.704672 0.020819 0.880425 0.025878 0.000414 -1419150.000000 0 0 1
-20.739189 -0.870321 18.626001 27.889054 0.041940 0.839466 0.028834 0.002135 -978440.000000 0 0 1
-20.075289 -0.318221 19.793601 28.194062 0.015850 0.792526 0.005865 0.005209 127705.000000 0 0 1
-19.006189 -1.148421 20.177801 27.743427 0.060350 0.756416 -0.023605 0.007517 -537670.000000 0 0 1
-18.206089 -0.636521 21.364901 28.077141 0.034948 0.706042 -0.010536 0.007387 20146.800000 0 0 1
-18.867389 -0.620921 22.625601 29.466620 0.032898 0.695336 -0.003738 0.004036 323253.000000 0 0 1
-17.883189 -0.681121 23.668901 29.673039 0.038069 0.647396 -0.002571 0.003648 -292045.000000 0 0 1
-18.410089 -0.684721 25.087501 31.125278 0.037176 0.633405 -0.000119 0.014074 -221919.000000 0 0 1
-19.178189 0.368279 25.592101 31.982717 -0.019201 0.643192 0.008709 -0.005019 347681.000000 0 0 1
-20.573889 0.196579 25.301601 32.611264 -0.009554 0.682728 0.029296 -0.010214 490890.000000 0 0 1
-21.373989 1.399779 25.894801 33.605766 -0.065396 0.691098 0.036550 -0.017950 -200901.000000 0 0 1
-20.885789 2.621279 25.359601 32.957497 -0.124853 0.692795 0.025027 -0.015097 397186.000000 0 0 1
-22.009489 3.291279 24.819701 33.335682 -0.148439 0.730953 0.021078 -0.011652 -290727.000000 0 0 1
-21.626789 4.372579 23.769501 32.431877 -0.199494 0.748213 0.021238 -0.004088 -79269.500000 0 0 1
-21.141889 3.839579 22.545601 31.145240 -0.179652 0.761378 0.025994 -0.004350 1481980.000000 0 0 1
-19.786189 3.325379 22.559701 30.190918 -0.166510 0.726905 0.010013 0.002781 530918.000000 0 0 1
-19.289789 2.697079 21.234401 28.814406 -0.138918 0.742269 -0.000053 0.003534 -260038.000000 0 0 1
-19.093089 3.676879 20.202201 28.039158 -0.190247 0.766274 0.003490 0.004142 310311.000000 0 0 1
-18.868989 3.015479 18.974901 26.929143 -0.158471 0.788904 0.016014 0.002213 -344346.000000 0 0 1
-18.421089 3.793979 17.738301 25.853010 -0.203118 0.814652 0.009807 -0.003247 90451.500000 0 0 1
-17.050789 4.152779 17.773901 24.977721 -0.238902 0.779037 0.010177 -0.008266 136785.000000 0 1 0
-16.774089 4.874479 16.600101 24.097592 -0.282807 0.810868 0.016945 -0.007986 578711.000000 0 1 0
-15.274789 5.310079 16.434601 23.056717 -0.334568 0.777328 0.022345 -0.010285 551923.000000 0 1 0
-14.632289 6.176279 17.325701 23.503834 -0.399411 0.741963 0.008887 -0.014355 -93463.200000 0 1 0
-15.179289 7.479979 17.376801 24.255187 -0.457851 0.772145 0.010084 -0.018945 -616170.000000 0 1 0
-14.802589 8.455779 16.253401 23.553978 -0.519001 0.809239 0.005400 -0.017320 -125469.000000 0 1 0
-15.244989 8.261179 14.907801 22.866991 -0.496599 0.860662 0.008989 -0.011845 198595.000000 0 1 0
-16.611489 8.539079 14.665401 23.747240 -0.474822 0.905157 0.017716 -0.006888 41738.700000 0 1 0
-17.236189 7.884079 13.459501 23.246571 -0.429003 0.953309 0.020887 -0.008634 -136892.000000 0 1 0
-17.015789 6.447679 13.490601 22.651842 -0.362206 0.932830 0.018906 -0.010691 499301.000000 0 1 0
-17.493389 5.862679 12.224901 22.132281 -0.323373 0.985608 0.017036 -0.011107 187920.000000 0 1 0
-17.265489 4.317479 12.202601 21.578721 -0.245039 0.969766 0.021079 -0.013795 -58059.700000 0 1 0
-17.904889 3.597979 13.227301 22.549767 -0.198308 0.943964 0.016547 -0.005919 185590.000000 0 1 0
-17.470389 2.238379 13.289501 22.064353 -0.127430 0.924409 0.008221 -0.011522 -61439.200000 0 1 0
-18.316189 1.430079 14.336501 23.303716 -0.077919 0.908154 0.014615 -0.011810 941549.000000 0 1 0
-19.656889 1.229579 13.864401 24.085821 -0.062471 0.957428 0.032273 -0.009887 777495.000000 0 1 0
-20.468089 0.779279 14.943901 25.354883 -0.038054 0.940493 0.021958 -0.008134 -441658.000000 0 0 1
-21.881889 0.355579 14.590101 26.302368 -0.016248 0.982786 0.037807 -0.013494 -713214.000000 0 0 1
-21.893889 -0.924021 13.994901 26.001028 0.042179 1.002444 0.032694 -0.009710 424581.000000 0 0 1
-23.225189 -1.278021 13.668701 26.979179 0.054972 1.039515 0.065683 -0.018676 3009.140000 0 0 1
-23.375989 -2.416321 12.603401 26.666855 0.103002 1.078530 0.055057 -0.015914 -122129.000000 0 0 1
-22.863389 -3.653221 13.133301 26.618869 0.158445 1.054821 0.047086 -0.015898 302334.000000 0 0 1
-22.866089 -4.656721 12.142301 26.305485 0.200904 1.091012 0.046468 -0.013850 -32531.000000 0 0 1
-22.562889 -6.045021 12.760701 26.616944 0.261771 1.070802 0.040168 -0.007109 449044.000000 0 0 1
-23.684989 -6.455021 13.543901 28.037176 0.266074 1.066639 0.038361 -0.003864 789010.000000 0 0 1
-23.676089 -7.869021 13.738001 28.481772 0.320876 1.067468 0.041873 -0.009768 -155418.000000 0 0 1
-24.603789 -8.263121 14.886801 29.920602 0.324012 1.050032 0.048992 -0.005705 -122576.000000 0 0 1
-25.989709 -8.164921 14.631501 30.922673 0.304396 1.077917 0.043346 -0.011439 84150.000000 0 0 1
-26.712469 -8.654721 15.760201 32.200064 0.313323 1.059342 0.047947 -0.006904 -785053.000000 0 0 1
-28.118769 -8.061221 15.691501 33.194452 0.279197 1.078428 0.048016 -0.012642 -726819.000000 0 0 1
-29.105759 -8.427021 14.776801 33.712219 0.281825 1.117066 0.042395 -0.007871 323768.000000 0 0 1
-29.479959 -9.805021 14.590301 34.323218 0.321090 1.131740 0.045775 -0.012716 -172230.000000 0 0 1
-29.998649 -10.690121 15.815501 35.557386 0.342324 1.109859 0.050146 -0.010044 -800478.000000 0 0 1
-28.961989 -10.844421 16.700001 35.146668 0.358276 1.075660 0.055833 -0.008508 -635712.000000 0 0 1
-29.354249 -11.316421 17.938801 36.215106 0.367955 1.052570 0.057004 -0.004157 -111252.000000 0 0 1
-28.214999 -11.316221 18.999201 35.848468 0.381429 1.012212 0.053788 0.006944 -9978.700000 0 0 1
-27.266229 -12.275921 18.650401 35.241778 0.423041 1.013124 0.051964 0.004092 -554158.000000 0 0 1
-26.056929 -12.049721 19.333601 34.611377 0.433149 0.978110 0.035200 0.005465 722458.000000 0 0 1
-24.863489 -12.992521 18.904201 33.828501 0.481528 0.977828 0.046759 0.007879 708960.000000 0 0 1
-24.407189 -12.826521 17.561401 32.689957 0.483856 1.003670 0.036928 0.003642 -34806.000000 0 0 1
-23.181389 -13.490021 17.373401 31.956103 0.527029 0.995999 0.032294 -0.001412 -96664.800000 0 0 1
-22.574089 -13.370921 15.932901 30.695738 0.534748 1.025047 0.043913 -0.004124 99001.400000 0 0 1
-22.070789 -12.122221 15.504701 29.571333 0.502262 1.018886 0.035819 -0.007350 -284391.000000 0 0 1
-21.805289 -12.144421 14.145701 28.688995 0.508162 1.055181 0.043285 -0.008617 238862.000000 0 0 1
-20.510489 -11.394221 13.765001 27.202641 0.507080 1.040236 0.035006 -0.007358 -136812.000000 0 0 1
-20.673789 -9.964321 13.908901 26.835625 0.449127 1.025935 0.026590 -0.006424 402114.000000 0 0 1
-19.537789 -9.120821 13.639901 25.513947 0.436761 1.006755 0.026311 -0.005629 142488.000000 0 0 1
-19.127789 -9.076821 12.172001 24.421683 0.443070 1.049033 0.027945 0.001354 128417.000000 0 1 0
-18.235389 -10.149321 11.784601 23.966955 0.507875 1.056753 0.008502 -0.006307 638427.000000 0 1 0
-18.073789 -10.179021 10.395601 23.202216 0.512915 1.106221 0.018920 -0.001868 -894870.000000 0 1 0
-17.477989 -11.472421 9.809001 23.093571 0.580856 1.132110 0.007352 -0.008363 -41143.300000 0 1 0
-16.096989 -11.706621 9.756801 22.166488 0.628785 1.115019 0.009571 -0.013500 316390.000000 0 1 0
-15.460089 -11.698121 11.052501 22.316321 0.647754 1.052656 0.012164 -0.012506 -400994.000000 0 1 0
-13.952089 -12.051321 11.097301 21.518485 0.712431 1.028960 0.007238 -0.014742 150362.000000 0 1 0
-13.700889 -13.447421 10.758301 22.006556 0.776062 1.060005 0.010136 -0.019298 381882.000000 0 1 0
-12.358589 -13.891221 10.885701 21.545283 0.843718 1.041128 0.009679 -0.016379 268317.000000 0 1 0
-12.216189 -15.453821 10.789101 22.460199 0.901877 1.069725 0.023924 -0.017064 -51165.900000 0 1 0
-12.349789 -16.059221 9.456101 22.356961 0.915236 1.134087 0.008019 -0.015508 -98171.500000 0 1 0
-12.343389 -17.455421 9.488201 23.389676 0.955296 1.153098 0.008014 -0.010852 48064.900000 0 1 0
-12.733089 -18.134121 8.171201 23.616656 0.958621 1.217499 0.000157 -0.003291 229210.000000 0 1 0
-11.790289 -17.875721 7.127401 22.568832 0.987723 1.249489 0.002379 -0.010778 84808.100000 0 1 0
-12.066189 -18.719821 6.025401 23.072279 0.998250 1.306580 -0.006885 0.004535 -264715.000000 0 1 0
-11.321789 -18.314521 4.802101 22.060480 1.017112 1.351361 0.004417 -0.004083 -343604.000000 0 1 0
-11.532789 -19.236421 3.696001 22.731158 1.030723 1.407475 0.003933 0.005835 579110.000000 0 1 0
-10.570189 -18.972521 2.661401 21.880779 1.062494 1.448862 0.013386 -0.012709 150525.000000 0 1 0
-10.764189 -19.806721 1.360701 22.583744 1.072987 1.510508 0.017342 -0.004739 71615.900000 0 1 0
-10.809989 -21.202621 1.667301 23.857638 1.099306 1.500854 0.010351 0.000816 61383.400000 0 1 0
-11.359389 -22.198921 0.750701 24.947773 1.097825 1.540701 0.023594 0.004154 450756.000000 0 1 0
-10.509389 -22.364021 -0.554399 24.716473 1.131498 1.593229 0.033065 0.004095 105807.000000 0 1 0
-10.538889 -21.312021 -1.462199 23.820337 1.111555 1.632219 0.037454 -0.012970 -141751.000000 0 1 0
-11.596589 -21.328421 -2.399599 24.395502 1.072791 1.669318 0.055371 -0.010968 -123405.000000 0 1 0
-12.568489 -20.171821 -2.238099 23.872125 1.013585 1.664688 0.051546 -0.011160 -320959.000000 0 1 0
-13.494889 -20.269921 -1.191699 24.380358 0.983422 1.619695 0.052087 -0.002906 -256065.000000 0 1 0
-14.544289 -19.362821 -1.372199 24.255682 0.926563 1.627399 0.061608 0.004371 -159918.000000 0 1 0
26.191111 -21.044221 -4.272399 33.868672 -0.676864 1.697279 0.036953 -0.009845 -424717.000000 0 0 1
24.993411 -20.899021 -3.573999 32.775191 -0.696417 1.680059 0.072854 -0.019266 -347553.000000 0 0 1
24.826011 -21.982021 -2.732899 33.271742 -0.724714 1.653028 0.051678 -0.016543 -573412.000000 0 0 1
23.432411 -22.138121 -2.143499 32.307412 -0.757004 1.637192 0.050232 -0.020599 -589994.000000 0 0 1
22.427511 -22.579821 -3.013899 31.967564 -0.788782 1.665216 0.057219 -0.029958 -875546.000000 0 0 1
21.322111 -22.966021 -2.301999 31.422440 -0.822500 1.644122 0.057106 -0.026820 -465124.000000 0 0 1
20.148811 -23.584421 -3.111199 31.174975 -0.863795 1.670761 0.063769 -0.035200 347459.000000 0 0 1
19.503511 -22.712221 -4.012999 30.204902 -0.861260 1.704050 0.054000 -0.037129 -148072.000000 0 0 1
18.433711 -23.401021 -4.632399 30.147448 -0.903581 1.725066 0.053486 -0.036603 574973.000000 0 0 1
17.336311 -22.452321 -5.255099 28.849098 -0.913276 1.753977 0.033722 -0.015362 402375.000000 0 0 1
16.445111 -21.665521 -4.464599 27.563910 -0.921531 1.733486 0.028647 -0.014725 772766.000000 0 0 1
17.054511 -20.629221 -3.701399 27.020760 -0.879976 1.708212 0.035609 -0.017637 -224788.000000 0 0 1
16.060111 -20.095521 -2.654899 25.861277 -0.896550 1.673637 0.051350 -0.014687 -63939.700000 0 0 1
15.757811 -21.068521 -1.654599 26.361504 -0.928620 1.633603 0.047346 -0.016792 -139831.000000 0 0 1
14.852911 -20.540921 -0.748899 25.359402 -0.944742 1.600332 0.040252 -0.007301 -712249.000000 0 0 1
14.482511 -21.320421 0.540101 25.779744 -0.974113 1.549844 0.028110 -0.011576 -81121.800000 0 0 1
13.689411 -22.478121 0.366501 26.321099 -1.023778 1.556872 0.031005 -0.008023 405739.000000 0 0 1
12.919911 -22.771021 1.580401 26.228633 -1.054705 1.510505 0.025056 -0.008595 404161.000000 0 0 1
11.966911 -23.974421 1.552401 26.840078 -1.107826 1.512925 0.023759 -0.012150 -251633.000000 0 0 1
12.569711 -25.248761 1.580101 28.248793 -1.108882 1.514832 0.014549 -0.009045 -969606.000000 0 0 1
11.756411 -26.273741 1.181301 28.808300 -1.150058 1.529779 0.018721 -0.015094 -632460.000000 0 0 1
12.017511 -27.581991 1.955701 30.149819 -1.159897 1.505885 0.021876 -0.009932 -595.267000 0 0 1
11.725811 -27.576561 3.384401 30.156517 -1.168748 1.458332 0.039158 -0.017547 194119.000000 0 0 1
11.666311 -28.882091 3.933601 31.396675 -1.186908 1.445179 0.033272 -0.018151 -91327.300000 0 0 1
11.524011 -28.830401 5.488501 31.529645 -1.190534 1.395831 0.037893 -0.016992 -111335.000000 0 0 1
11.473411 -30.166281 5.998801 32.827264 -1.207353 1.387025 0.023466 -0.015506 -53836.900000 0 0 1
11.576011 -30.157681 7.393901 33.138490 -1.204290 1.345781 0.024110 -0.009980 30627.900000 0 0 1
11.444311 -31.590471 7.947801 34.526767 -1.223232 1.338521 0.016491 -0.005284 -83991.700000 0 0 1
11.528211 -31.697881 9.351401 35.001486 -1.221978 1.300340 0.005181 0.001630 -84074.500000 0 0 1
10.936511 -32.904141 9.760301 36.021566 -1.249909 1.296409 0.007622 0.004409 -14782.100000 0 0 1
10.824511 -33.186351 11.224001 36.667181 -1.255503 1.259698 0.001282 0.006546 1349510.000000 0 0 1
12.090811 -33.755551 11.720201 37.722514 -1.226846 1.254872 0.009054 0.002854 1361960.000000 0 0 1
12.231711 -34.033313 13.096201 38.462860 -1.225768 1.223359 0.006900 0.002250 203641.000000 0 0 1
11.233011 33.928845 13.668501 38.264539 1.251079 1.205517 0.003490 -0.000178 222620.000000 0 0 1
11.400511 32.666221 13.085801 36.990429 1.235013 1.209206 0.006665 -0.000432 470459.000000 0 0 1
10.276411 31.831261 13.413401 36.038217 1.258519 1.189419 0.014532 0.003153 510589.000000 0 0 1
10.127711 30.723751 12.323201 34.617635 1.252375 1.206833 0.022317 0.004867 -197279.000000 0 0 1
9.718211 31.161931 11.010101 34.448975 1.268493 1.245483 0.016872 0.002545 886150.000000 0 0 1
10.617111 32.042871 10.219901 35.269179 1.250840 1.276811 0.000377 0.000873 745369.000000 0 0 1
10.170311 32.025141 8.742301 34.719918 1.263297 1.316262 0.003225 0.001651 1195740.000000 0 0 1
8.886011 32.705021 8.654901 34.978378 1.305499 1.320764 0.006392 0.001194 856534.000000 0 0 1
8.436911 32.782021 7.295401 34.627521 1.318899 1.358524 0.005821 0.002444 -96916.700000 0 0 1
8.845011 33.974401 6.449701 35.694437 1.316107 1.389106 0.010062 0.000746 -115560.000000 0 0 1
8.210111 -33.842391 6.866001 35.494441 -1.332796 1.376130 0.007736 0.000461 -181505.000000 0 0 1
8.642511 -32.707361 6.167701 34.387570 -1.312463 1.390462 0.025358 -0.011178 -98372.500000 0 0 1
7.731111 -31.429001 6.323601 32.977873 -1.329599 1.377849 0.012881 -0.007001 107757.000000 0 0 1
7.624711 -30.953881 7.677601 32.790617 -1.329280 1.334462 0.024388 -0.004374 -227050.000000 0 0 1
7.065011 -29.666691 7.756501 31.467289 -1.337005 1.321735 0.019998 -0.001727 28880.000000 0 0 1
7.990911 -28.464621 7.422201 30.482427 -1.297110 1.324833 0.045557 -0.013644 55858.600000 0 0 1
8.853211 -27.999901 8.472801 30.564067 -1.264556 1.289903 0.035488 -0.010444 461942.000000 0 0 1
9.906511 -27.119861 8.157201 30.002762 -1.220569 1.295449 0.034310 -0.013750 19026.700000 0 0 1
9.459511 -25.793311 7.462001 28.468556 -1.219284 1.305584 0.038633 -0.016628 -289879.000000 0 0 1
9.103011 -26.033071 6.105401 28.246443 -1.234415 1.352929 0.045156 -0.020284 -233402.000000 0 0 1
8.567011 -24.907121 5.428701 26.892920 -1.239514 1.367536 0.044593 -0.017449 363154.000000 0 0 1
7.956611 -25.248501 4.019901 26.775998 -1.265515 1.420096 0.043076 -0.014674 166395.000000 0 0 1
7.037811 -26.296441 3.874401 27.496265 -1.309291 1.429419 0.035566 -0.016412 -369849.000000 0 0 1
7.539011 -27.625771 3.878701 28.897478 -1.304386 1.436167 0.033932 -0.015270 801970.000000 0 0 1
6.372211 -28.608361 3.407301 29.506831 -1.351635 1.455063 0.030284 -0.014142 1006600.000000 0 0 1
5.397611 -28.915791 4.395401 29.741835 -1.386254 1.422468 0.014797 -0.001154 -421373.000000 0 0 1
4.427211 -29.755651 3.824101 30.325282 -1.423094 1.444357 0.012347 0.001121 -142446.000000 0 0 1
4.564211 -31.294751 4.080201 31.887952 -1.425972 1.442490 0.014500 -0.003130 -27713.200000 0 0 1
5.683111 -31.890891 3.443301 32.575804 -1.394443 1.464897 0.018754 -0.002985 27273.800000 0 0 1
5.712311 -33.285711 3.704001 33.974824 -1.400837 1.461557 0.011633 0.000764 664600.000000 0 0 1
6.923811 -33.988767 2.960501 34.812929 -1.369837 1.485653 0.009929 -0.002196 665814.000000 0 0 1
6.839511 -34.018590 1.556801 34.734234 -1.372389 1.525961 0.019386 -0.006561 132548.000000 0 0 1
7.800611 34.063815 1.034401 34.960879 1.345678 1.541205 0.019724 -0.009666 -36645.500000 0 0 1
7.331811 33.483786 -0.364799 34.279038 1.355232 1.581439 0.027776 -0.004842 -208743.000000 0 0 1
6.219711 32.640661 -0.319599 33.229500 1.382503 1.580414 0.014985 0.001702 -864838.000000 0 0 1
5.046711 33.410838 -0.431599 33.792598 1.420880 1.583569 0.018185 -0.004878 -549753.000000 0 0 1
3.764411 32.638381 -0.031399 32.854767 1.455967 1.571752 0.013462 -0.009676 144029.000000 0 0 1
3.485911 31.572111 -0.929899 31.777578 1.460831 1.600063 0.018453 -0.003198 3100.680000 0 0 1
2.304311 30.858111 -0.627299 30.950386 1.496260 1.591066 0.011110 -0.009865 159800.000000 0 0 1
2.119511 29.666401 -1.500799 29.779860 1.499473 1.621214 0.010256 -0.009392 -194288.000000 0 0 1
1.976111 30.014081 -2.880499 30.216673 1.505052 1.666269 0.020870 -0.008754 11962.900000 0 0 1
1.843711 28.861801 -3.699399 29.156275 1.507002 1.698021 0.025136 -0.008602 -103835.000000 0 0 1
1.662711 29.341301 -5.184999 29.842265 1.514189 1.745429 0.022182 -0.014265 -183523.000000 0 0 1
0.418411 29.985511 -5.301399 30.453420 1.556843 1.745770 0.020556 -0.008788 -99594.700000 0 0 1
0.292811 30.786111 -6.470399 31.460077 1.561285 1.777945 0.014308 -0.001833 -87317.300000 0 0 1
0.215711 30.250441 -7.872499 31.258790 1.563666 1.825387 0.018351 -0.004185 -317075.000000 0 0 1
-1.008089 29.579051 -8.105099 30.685976 -1.536728 1.838099 0.027739 -0.004193 220870.000000 0 0 1
-1.148989 29.191951 -9.454899 30.706437 -1.531457 1.883795 0.023514 -0.006072 -114180.000000 0 0 1
-1.369489 30.222781 -10.594099 32.055061 -1.525514 1.907626 0.011225 -0.013923 -96331.300000 0 0 1
-0.220389 30.979721 -10.979699 32.868609 -1.563682 1.911392 0.014614 -0.015941 59108.300000 0 0 1
-0.428689 32.143831 -11.736099 34.222006 -1.557461 1.920841 0.000682 -0.015015 -354946.000000 0 0 1
-0.800889 33.320086 -10.854399 35.052639 -1.546765 1.885632 -0.001335 -0.005645 -265543.000000 0 0 1
0.194611 33.797423 -9.975999 35.239527 1.565038 1.857812 0.002379 -0.013668 -232282.000000 0 0 1
-0.269889 -34.380677 -8.927199 35.521806 1.562946 1.824836 -0.001472 -0.000746 -382929.000000 0 0 1
0.834011 -34.024285 -7.904899 34.940449 -1.546289 1.799011 0.012872 -0.004915 149914.000000 0 0 1
1.864011 -33.160681 -8.343299 34.244941 -1.514644 1.816909 0.014139 0.000835 -327339.000000 0 0 1
2.708511 -32.909191 -7.250199 33.807045 -1.488679 1.786933 0.026308 -0.005303 -495456.000000 0 0 1
4.007411 -32.177001 -7.676999 33.321991 -1.446892 1.803273 0.012740 -0.001584 383789.000000 0 0 1
4.839911 -32.958781 -8.515999 34.383546 -1.424991 1.821078 0.025397 0.004781 194822.000000 0 0 1
5.749911 -33.859421 -7.911399 35.243611 -1.402584 1.797203 0.045474 0.014042 -683002.000000 0 0 1
6.007011 33.891924 -8.764899 35.518589 1.395378 1.820141 0.042727 0.013567 -218437.000000 0 0 1
5.033211 32.879771 -8.897399 34.432198 1.418896 1.832165 0.032068 0.011767 -805012.000000 0 0 1
3.945811 33.149540 -9.715299 34.768498 1.452323 1.853995 0.023683 0.002940 -214205.000000 0 0 1
3.112811 31.849201 -9.944999 33.510658 1.473370 1.872106 0.026809 -0.005454 1939.340000 0 0 1
3.625611 31.005261 -10.952999 33.082313 1.454390 1.908248 0.041566 0.000023 -77077.600000 0 0 1
3.113111 29.717091 -10.802699 31.772555 1.466419 1.917714 0.028271 -0.009361 -21077.500000 0 0 1
3.876111 28.817501 -11.769899 31.368824 1.437093 1.955420 0.027268 -0.007749 -25773.600000 0 0 1
3.569711 29.032651 -13.120799 32.059211 1.448455 1.992448 0.022650 -0.002303 -70017.200000 0 0 1
4.754511 28.933461 -13.887399 32.443958 1.407926 2.013122 0.027164 -0.010676 -13366.900000 0 0 1
4.610111 29.376121 -15.363899 33.470270 1.415132 2.047701 0.035522 -0.008300 198651.000000 0 0 1
3.759611 28.472771 -16.081799 32.915917 1.439513 2.081249 0.015783 -0.001976 246106.000000 0 0 1
3.447711 29.078831 -17.333899 34.028358 1.452783 2.105279 0.048457 -0.008143 -256060.000000 0 0 1
2.386111 28.394511 -18.196699 33.809195 1.486959 2.139117 0.035549 -0.008892 -329943.000000 0 0 1
2.896911 27.304701 -18.911099 33.340193 1.465096 2.173918 0.047339 0.007727 -233221.000000 0 0 1
2.065411 26.870251 -19.941799 33.525388 1.494081 2.207846 0.011753 0.008559 -138570.000000 0 0 1
2.627611 25.541181 -20.489299 32.849165 1.468280 2.244313 0.027641 0.004373 321573.000000 0 0 1
2.758011 24.486561 -19.536099 31.446104 1.458635 2.241142 0.027300 -0.002500 149269.000000 0 0 1
3.897911 23.737001 -19.924899 31.235245 1.408036 2.262562 0.030578 -0.004503 241094.000000 0 0 1
4.423111 22.716401 -18.905199 29.883195 1.378492 2.255749 0.029440 0.001780 -35129.500000 0 0 1
3.578311 21.583201 -18.637199 28.739939 1.406499 2.276379 0.049381 0.001069 -366734.000000 0 0 1
4.283611 20.584801 -17.972099 27.660074 1.365629 2.278050 0.040348 0.003141 -6044.840000 0 0 1
3.488911 19.245201 -17.793799 26.441814 1.391457 2.308975 0.032306 -0.005879 275193.000000 0 0 1
2.584911 19.244801 -16.704299 25.614014 1.437278 2.281220 0.032897 -0.008929 -276953.000000 0 0 1
1.766211 18.097901 -16.599099 24.620796 1.473512 2.310664 0.025336 -0.006585 -105049.000000 0 1 0
2.072011 16.958401 -15.567099 23.113095 1.449217 2.309755 0.026602 -0.004588 -697217.000000 0 1 0
3.188911 16.149301 -15.701399 22.748692 1.375840 2.332577 0.020923 -0.016382 -819661.000000 0 1 0
3.228211 15.067201 -16.725299 22.741537 1.359733 2.397129 0.019813 -0.020428 -213107.000000 0 1 0
2.921911 15.403601 -18.230899 24.045253 1.383333 2.431331 0.016156 -0.014837 386110.000000 0 1 0
4.047211 16.068501 -18.884299 25.123563 1.324056 2.421367 0.013966 -0.008479 675420.000000 0 0 1
3.771611 16.384701 -20.284599 26.346697 1.344547 2.449497 0.005924 -0.007652 -214293.000000 0 0 1
4.201511 15.256401 -21.267899 26.509131 1.302064 2.501911 0.006141 -0.012214 173731.000000 0 0 1
3.352611 14.127301 -21.490199 25.935483 1.337792 2.547403 0.013199 -0.013591 -583631.000000 0 0 1
2.299511 14.449001 -22.334399 26.699939 1.412973 2.561654 0.026825 -0.013151 -440394.000000 0 0 1
1.477411 13.213001 -22.795399 26.389323 1.459444 2.613583 0.035820 -0.013378 -66326.100000 0 0 1
0.781111 12.666401 -21.712099 25.148819 1.509206 2.612657 0.030749 -0.007107 -188730.000000 0 0 1
-0.004589 11.586001 -22.160499 25.006462 -1.570400 2.659854 0.026351 -0.007604 -186433.000000 0 0 1
-0.648389 10.878501 -20.961099 23.624772 -1.511264 2.662147 0.017682 -0.007762 -960082.000000 0 1 0
-1.804789 11.504801 -20.451699 23.534862 -1.415192 2.623966 0.018937 -0.000738 44117.500000 0 1 0
-2.394789 10.644801 -19.426899 22.281185 -1.349508 2.629859 0.015866 0.001833 164782.000000 0 1 0
-3.336689 9.597201 -20.038499 22.467336 -1.236196 2.672314 0.021445 0.002990 -1086650.000000 0 1 0
-2.696589 8.447601 -20.485699 22.322577 -1.261807 2.733079 0.012572 -0.005100 -564441.000000 0 1 0
-3.661089 7.667501 -21.120299 22.765350 -1.125325 2.759104 0.010499 0.005617 -558175.000000 0 1 0
-3.037889 6.486601 -21.879399 23.022008 -1.132802 2.825216 0.007935 -0.001328 272404.000000 0 1 0
-2.381389 5.471101 -21.085199 21.913228 -1.160262 2.865813 0.011441 -0.004000 129927.000000 0 1 0
-1.975189 4.427401 -21.893699 22.424034 -1.151167 2.923675 0.017308 -0.004523 81811.800000 0 1 0
-1.165289 3.264301 -21.191899 21.473475 -1.227917 2.979472 0.013820 -0.000680 332107.000000 0 1 0
0.133911 3.636501 -20.774499 21.090801 1.533989 2.968187 0.009151 -0.008418 -114430.000000 0 1 0
0.667611 2.499501 -20.076699 20.242704 1.309792 3.013437 0.012855 -0.004432 826728.000000 0 1 0
2.228711 2.441801 -19.960599 20.232525 0.830991 2.977457 0.015580 -0.009954 482495.000000 0 1 0
2.897211 2.165601 -21.145399 21.452542 0.641885 2.972172 0.027042 -0.011685 251923.000000 0 1 0
4.303111 1.990901 -20.972499 21.501771 0.433336 2.919255 0.037944 -0.014041 132371.000000 0 1 0
4.942511 1.463901 -22.220299 22.810373 0.287954 2.913641 0.032435 -0.003272 -2006310.000000 0 1 0
6.272711 1.264801 -22.049899 22.959632 0.198968 2.859148 0.035250 -0.013059 -1702350.000000 0 1 0
6.881511 0.782701 -23.229099 24.239614 0.113253 2.851829 0.041455 -0.011786 -393737.000000 0 1 0
8.409011 0.833301 -23.147699 24.641872 0.098774 2.791569 0.040422 -0.019329 -487641.000000 0 1 0
8.869911 2.114701 -23.352699 25.069819 0.234044 2.769329 0.038956 -0.023277 -1564730.000000 0 0 1
10.233211 2.151201 -23.436299 25.663328 0.207201 2.721918 0.035224 -0.015842 -1410810.000000 0 0 1
13.438911 -21.011421 22.291435 33.451341 -1.001767 0.841448 0.063335 0.005496 -941786.000000 0 0 1
12.518611 -22.009621 22.624535 33.955981 -1.053650 0.841574 0.053259 0.013184 -10659.100000 0 0 1
11.190811 -21.638121 22.274935 33.009321 -1.093499 0.830093 0.044301 0.004898 677271.000000 0 0 1
10.739111 -21.502921 20.757135 31.757877 -1.107608 0.858457 0.061987 -0.009133 -436026.000000 0 0 1
11.343211 -20.348821 20.263635 30.876494 -1.062260 0.854918 0.056925 -0.015547 -364889.000000 0 0 1
11.030511 -20.130921 18.893135 29.730064 -1.069537 0.882154 0.080763 -0.025731 177953.000000 0 0 1
11.409711 -18.780521 18.326535 28.613832 -1.024859 0.875676 0.081409 -0.024835 -5163.080000 0 0 1
10.577511 -17.792121 18.876435 28.013624 -1.034427 0.831416 0.094000 -0.026183 -308694.000000 0 0 1
10.722811 -16.572321 18.218335 26.861277 -0.996511 0.825434 0.086643 -0.022309 -5956.860000 0 0 1
9.796211 -15.489221 18.830135 26.276524 -1.006855 0.771860 0.065298 -0.007525 -404203.000000 0 0 1
8.490211 -15.855021 18.544335 25.833268 -1.079161 0.770091 0.051539 -0.003653 -1278460.000000 0 0 1
7.542811 -14.890521 18.901835 25.217077 -1.101922 0.723392 0.039658 0.003249 -358116.000000 0 0 1
6.134911 -15.106621 18.363635 24.557488 -1.185036 0.726082 0.019697 0.009056 -611892.000000 0 1 0
5.992511 -15.071921 16.980935 23.482443 -1.192365 0.762468 0.020298 0.003830 431166.000000 0 1 0
4.596111 -15.104721 16.656635 22.950388 -1.275415 0.758648 -0.001890 0.000989 610186.000000 0 1 0
4.000211 -16.510821 16.545335 23.714068 -1.333098 0.798613 -0.012199 -0.001649 -1743360.000000 0 1 0
2.673111 -16.455421 16.212435 23.254450 -1.409757 0.799346 -0.002086 -0.001056 -1549280.000000 0 1 0
2.117111 -17.737421 16.505435 24.321341 -1.452000 0.824887 -0.005356 -0.003462 1091760.000000 0 1 0
0.577111 -17.836121 16.200935 24.102501 -1.538451 0.833663 -0.000288 0.004594 783291.000000 0 1 0
0.271611 -17.655321 14.813435 23.048253 -1.555413 0.872761 0.005177 -0.002909 -455741.000000 0 1 0
-1.103089 -17.725621 14.540235 22.952840 1.508645 0.884750 0.004972 -0.001559 -538948.000000 0 1 0
-1.337289 -17.571021 13.008235 21.903043 1.494835 0.934898 0.003424 -0.027956 76093.800000 0 1 0
-2.694089 -17.846221 12.708635 22.073856 1.420966 0.957297 0.001251 -0.027476 -52974.300000 0 1 0
-2.966989 -19.185521 12.449435 23.062430 1.417364 1.000580 0.007938 -0.023074 232667.000000 0 1 0
-4.473089 -19.576621 12.356135 23.578098 1.346161 1.019195 0.005792 -0.015288 669814.000000 0 1 0
-5.093689 -20.024421 13.563235 24.716077 1.321705 0.989914 0.004469 -0.014854 -118878.000000 0 1 0
-5.445989 -21.372921 13.460635 25.838909 1.321298 1.022839 -0.026788 0.001719 -132370.000000 0 0 1
-6.279789 -21.976021 14.603835 27.122928 1.292458 1.002222 -0.010801 0.001722 209411.000000 0 0 1
-7.671089 -21.736121 14.479235 27.220448 1.231523 1.009924 0.007368 0.000441 177187.000000 0 0 1
-8.373889 -22.561121 15.415535 28.579099 1.215392 1.001073 0.008980 0.000202 191181.000000 0 0 1
-9.869489 -22.256321 15.610935 28.921479 1.153406 1.000633 0.028762 -0.005806 73978.100000 0 0 1
-9.981289 -20.955521 16.165035 28.285479 1.126281 0.962469 0.019106 -0.009699 22383.900000 0 0 1
-11.306389 -20.461421 16.026835 28.343670 1.065981 0.969822 0.029514 -0.011588 232942.000000 0 0 1
-11.598089 -19.289921 17.027635 28.223343 1.029457 0.923142 0.026121 -0.009770 -91312.800000 0 0 1
-11.628689 -19.601521 18.426035 29.308101 1.035352 0.890915 0.022524 -0.011932 -85603.500000 0 0 1
-12.199989 -18.568221 19.216535 29.375054 0.989491 0.857700 0.014490 -0.009532 -77287.000000 0 0 1
-12.633889 -19.111621 20.596835 30.807447 0.986687 0.838517 0.010268 -0.008873 75816.900000 0 0 1
-13.739589 -19.982821 20.436335 31.713297 0.968461 0.870546 0.026086 -0.006531 -82935.100000 0 0 1
-14.299289 -20.448021 21.659635 33.041353 0.960541 0.855911 0.016842 0.003033 312092.000000 0 0 1
-15.684889 -21.067621 21.334835 33.838374 0.930823 0.888609 0.024811 -0.003613 -839368.000000 0 0 1
-15.558489 -22.225421 20.535235 34.025458 0.960049 0.922881 0.024519 -0.006815 291442.000000 0 0 1
-16.717789 -22.643121 19.796135 34.410498 0.934815 0.957833 0.031126 0.000254 773218.000000 0 0 1
-17.806689 -23.273621 20.743735 35.903233 0.917700 0.954805 0.039910 -0.012978 -727615.000000 0 0 1
-18.370889 -22.330921 21.619635 36.104961 0.882387 0.928795 0.044840 -0.009744 -578951.000000 0 0 1
-19.104289 -22.988421 22.596635 37.470645 0.877413 0.923479 0.049896 -0.008690 -349246.000000 0 0 1
-19.560689 -22.126521 23.774335 37.913355 0.846870 0.893010 0.045373 -0.010335 458248.000000 0 0 1
-20.576489 -21.193821 23.322835 37.636745 0.800176 0.902458 0.050217 -0.003253 719775.000000 0 0 1
-20.595389 -20.049121 24.141315 37.535855 0.771959 0.872187 0.047306 -0.005469 -288840.000000 0 0 1
-21.615289 -19.013521 23.715535 37.298275 0.721448 0.881707 0.041293 0.001116 -307133.000000 0 0 1
-21.228189 -18.165721 22.637135 35.959273 0.707815 0.889859 0.042811 0.006309 -349476.000000 0 0 1
-22.346889 -17.492321 22.148735 35.999044 0.664142 0.908082 0.039350 0.009473 -137605.000000 0 0 1
-21.915389 -16.772821 20.836635 34.580011 0.653249 0.924088 0.040046 0.012410 58676.700000 0 0 1
-20.964289 -15.754921 20.932335 33.554159 0.644468 0.897153 0.039001 0.009955 -565300.000000 0 0 1
-20.728389 -15.286121 19.634835 32.386083 0.635420 0.919430 0.032545 0.010074 212453.000000 0 0 1
-19.699889 -14.142621 19.448135 31.085838 0.622641 0.894862 0.028059 0.002817 101835.000000 0 0 1
-19.428789 -13.970421 18.069935 29.986214 0.623402 0.924031 0.020979 0.000262 -166943.000000 0 0 1
-18.680789 -12.831821 17.726235 28.772329 0.601879 0.907032 0.028594 -0.008304 -581371.000000 0 0 1
-18.116089 -12.971121 16.304035 27.609133 0.621384 0.939080 0.019632 -0.013798 192396.000000 0 0 1
-17.572889 -11.809121 15.639135 26.321936 0.591691 0.934590 0.018237 -0.011835 797938.000000 0 0 1
-16.370389 -11.293021 16.243035 25.677970 0.603878 0.885933 0.005847 -0.012799 132968.000000 0 0 1
-15.838289 -10.122121 15.489435 24.356340 0.568669 0.881556 0.008473 -0.013876 230717.000000 0 1 0
-16.715189 -9.008621 15.721735 24.652094 0.494319 0.879230 0.016585 -0.013981 415026.000000 0 1 0
-16.338089 -7.937521 14.951235 23.526088 0.452247 0.882118 0.009640 -0.004075 -928792.000000 0 1 0
-16.734889 -6.642221 15.645535 23.852848 0.377839 0.855397 0.012542 0.000511 356570.000000 0 1 0
-15.911489 -6.229221 16.745235 23.924497 0.373150 0.795511 0.012153 -0.001842 898289.000000 0 1 0
-14.528789 -6.019121 16.408735 22.728003 0.392764 0.764164 0.020907 -0.006932 532508.000000 0 1 0
-13.650189 -5.900821 17.735135 23.144813 0.408028 0.697783 0.019218 -0.007875 357035.000000 0 1 0
-13.543289 -7.060021 18.597035 24.064793 0.480537 0.687571 0.016144 -0.009542 133487.000000 0 1 0
-12.875689 -8.181721 18.030735 23.618453 0.566071 0.702209 0.005124 -0.011036 -491357.000000 0 1 0
-12.976789 -9.532021 18.859535 24.797954 0.633536 0.706671 0.012846 -0.009783 -506765.000000 0 1 0
-14.269389 -10.037321 18.970835 25.773161 0.613015 0.743551 0.021312 -0.008666 -882791.000000 0 0 1
-14.853789 -9.493321 20.118635 26.749162 0.568687 0.719520 0.012725 -0.001995 -1537720.000000 0 0 1
-16.201989 -10.147421 20.433335 27.982062 0.559539 0.752138 0.011384 0.004897 534358.000000 0 0 1
-17.239989 -10.098421 19.424335 27.865752 0.529880 0.799496 0.021364 0.000474 963435.000000 0 0 1
-17.693189 -8.761521 19.052235 27.437216 0.459794 0.803219 0.009404 -0.001175 -285792.000000 0 0 1
-18.838589 -8.772121 17.982435 27.481094 0.435789 0.857465 0.021711 -0.008555 631668.000000 0 0 1
-20.145889 -8.960021 18.532335 28.802539 0.418485 0.871830 0.019982 -0.003937 -233479.000000 0 0 1
-21.015489 -8.844721 17.469735 28.724058 0.398365 0.917016 0.032222 -0.008241 -488586.000000 0 0 1
-22.474989 -9.256521 17.784035 30.117772 0.390687 0.939139 0.035329 0.004637 -132642.000000 0 0 1
-23.028989 -8.268621 18.583635 30.725493 0.344717 0.921247 0.037069 0.004776 816421.000000 0 0 1
-24.441189 -8.456421 18.774935 31.959051 0.333098 0.942869 0.044811 0.011830 804919.000000 0 0 1
-25.106679 -7.327021 19.637135 32.705468 0.283950 0.926766 0.049050 0.003760 -30572.000000 0 0 1
-24.791289 -7.467821 20.981135 33.325431 0.292583 0.889780 0.042327 0.002065 403455.000000 0 0 1
-25.524899 -6.468121 21.643335 34.085055 0.248180 0.882813 0.044335 -0.002006 -901452.000000 0 0 1
-25.495339 -6.359221 23.201735 35.053851 0.244439 0.847461 0.036132 -0.003638 231184.000000 0 0 1
-24.314989 -5.859721 23.805385 34.528993 0.236483 0.810092 0.017854 -0.000419 113051.000000 0 0 1
-23.157389 -6.632721 23.647435 33.755871 0.278951 0.794638 0.017680 0.008947 -606289.000000 0 0 1
-22.143289 -6.510021 24.827075 33.898219 0.285939 0.748955 0.017027 0.012129 -64483.400000 0 0 1
-21.717089 -5.181321 24.950865 33.481692 0.234204 0.729948 0.009940 0.017927 19580.200000 0 0 1
-21.040289 -4.944521 26.173275 33.943812 0.230814 0.690266 0.015967 0.011853 87739.700000 0 0 1
-20.331389 -3.572421 26.138895 33.307197 0.173934 0.668452 0.010594 0.008367 -22628.200000 0 0 1
-19.410289 -3.249721 27.175675 33.553499 0.165884 0.626779 0.009981 0.014464 -12220.600000 0 0 1
-19.867789 -3.089221 28.536115 34.908196 0.154254 0.613806 0.016988 0.011047 282122.000000 0 0 1
-20.720489 -1.785221 28.811785 35.533711 0.085945 0.625228 0.030249 -0.000289 244468.000000 0 0 1
-21.943089 -1.682621 28.150585 35.732139 0.076531 0.663531 0.032613 -0.005118 -763947.000000 0 0 1
-22.765289 -0.743821 28.799425 36.718095 0.032662 0.669167 0.037690 -0.013808 -43423.000000 0 0 1
-24.098489 -0.464821 28.093365 37.016083 0.019286 0.709097 0.038590 -0.010500 -671317.000000 0 0 1
-23.946689 0.183979 26.849875 35.977681 -0.007683 0.728322 0.037168 -0.019211 -197852.000000 0 0 1
-25.105919 0.212679 26.038935 36.171515 -0.008471 0.767176 0.033245 -0.019597 -366862.000000 0 0 1
-25.843349 -1.106621 25.588585 36.385148 0.042794 0.790809 0.032588 -0.013540 -63827.300000 0 0 1
-26.679179 -1.656121 26.598715 37.709587 0.061996 0.787870 0.030721 -0.011250 102258.000000 0 0 1
-27.114689 -2.958121 26.196575 37.818215 0.108667 0.805574 0.028090 -0.012063 314379.000000 0 0 1
-26.035459 -4.099421 26.238885 37.190448 0.156173 0.787629 0.029646 -0.012769 381427.000000 0 0 1
-25.556589 -4.377421 27.539895 37.825215 0.169637 0.755275 0.030318 -0.007567 -54528.800000 0 0 1
-24.688089 -5.495321 27.548825 37.398369 0.219019 0.742720 0.028142 -0.003584 -315800.000000 0 0 1
-24.369789 -5.941921 28.962355 38.314632 0.239157 0.713756 0.018123 0.002855 94938.100000 0 0 1
-25.442479 -6.532121 29.691795 39.643297 0.251313 0.724284 0.022597 0.002443 348570.000000 0 0 1
-24.974889 -7.310121 30.769545 40.298236 0.284745 0.702010 0.031690 0.004428 -896012.000000 0 0 1
-26.121479 -7.694321 31.662295 41.761647 0.286458 0.710299 0.011338 0.006725 -512257.000000 0 0 1
-26.983789 -8.604721 30.991615 41.983881 0.308691 0.740429 0.007001 0.002885 -309639.000000 0 0 1
-28.174209 -8.818121 31.687935 43.309012 0.303327 0.750027 0.011636 0.004668 -508470.000000 0 0 1
-29.194269 -9.569321 30.824475 43.520403 0.316745 0.783743 0.003663 -0.008863 -638210.000000 0 0 1
-28.826659 -10.907221 30.537975 43.387920 0.361724 0.790013 0.013541 -0.006714 480571.000000 0 0 1
-29.779689 -11.597121 29.725835 43.645714 0.371362 0.821572 0.006779 -0.003798 -392751.000000 0 0 1
-29.162129 -12.850821 29.173045 43.204628 0.415067 0.829520 0.018279 -0.006334 132584.000000 0 0 1
-28.344629 -12.538921 28.048655 41.801550 0.416494 0.835246 0.023429 -0.002801 414757.000000 0 0 1
-27.397679 -13.562621 27.698485 41.252679 0.459662 0.834653 0.019231 -0.002387 347781.000000 0 0 1
-26.161169 -12.973121 26.955595 39.740568 0.460356 0.825365 0.023397 -0.002823 722897.000000 0 0 1
-25.089689 -12.398521 27.731145 39.398378 0.458971 0.789972 0.011351 -0.003253 650963.000000 0 0 1
-25.438739 -11.154521 28.344645 39.685913 0.413237 0.775281 0.015540 -0.008773 -567631.000000 0 0 1
-25.499569 -9.752421 27.531265 38.772520 0.365290 0.781196 0.012952 0.002532 866239.000000 0 0 1
-24.208489 -9.248521 27.120605 37.511509 0.364925 0.762670 0.013885 0.004096 1106510.000000 0 0 1
-23.570189 -9.939021 26.025785 36.492183 0.399053 0.776761 0.016815 0.002158 437953.000000 0 0 1
-24.358589 -9.693821 24.671295 35.999775 0.378749 0.815756 0.024118 0.008515 135748.000000 0 0 1
-25.577049 -10.407121 24.583765 36.971003 0.386434 0.843373 0.020064 0.007690 -177588.000000 0 0 1
-26.068169 -10.270221 23.280635 36.428215 0.375302 0.877492 0.025081 0.014677 485397.000000 0 0 1
-27.206139 -11.364321 23.008835 37.399576 0.395681 0.908136 0.035391 0.009402 1717440.000000 0 0 1
-28.524319 -11.082221 23.498435 38.582753 0.370569 0.915947 0.034345 0.002277 541021.000000 0 0 1
-28.661359 -11.266021 24.883935 39.593016 0.374521 0.891182 0.031837 -0.001491 -1228950.000000 0 0 1
-30.027349 -10.962321 25.459085 40.865379 0.350044 0.898226 0.014738 -0.002485 -856151.000000 0 0 1
-30.507569 -9.638221 25.143565 40.691595 0.306006 0.904720 0.021668 -0.005583 185958.000000 0 0 1
-31.818549 -9.245421 25.520585 41.823416 0.282780 0.914485 0.020649 -0.011258 114521.000000 0 0 1
-32.012839 -9.116521 27.057255 42.895546 0.277433 0.888250 0.012277 -0.009405 -432573.000000 0 0 1
-32.320839 -10.300321 27.670805 43.776782 0.308514 0.886551 0.003138 -0.013274 -7421.570000 0 0 1
-32.960409 -10.165821 28.929865 45.018547 0.299168 0.872882 0.014928 -0.009431 -426347.000000 0 0 1
-33.570959 -11.488421 29.490875 46.137889 0.329721 0.877352 0.020201 -0.003968 -1204070.000000 0 0 1
-34.710265 -11.862121 28.860465 46.673749 0.329303 0.904162 0.006124 -0.003135 -1077580.000000 0 0 1
35.114818 -11.730521 29.662355 47.439549 -0.322406 0.895324 0.021289 0.000570 114492.000000 0 0 1
33.839482 -12.230721 28.943875 46.178447 -0.346824 0.893378 0.023217 -0.000208 121423.000000 0 0 1
33.660902 -11.568521 27.722155 45.115461 -0.331032 0.909081 0.028936 0.001528 -553142.000000 0 0 1
32.578922 -12.109221 27.023945 44.026276 -0.355865 0.909914 0.029502 0.008998 -405215.000000 0 0 1
32.412192 -11.793921 25.574035 42.938072 -0.348980 0.932780 0.035454 -0.003213 119417.000000 0 0 1
31.840732 -10.509321 25.274435 41.988988 -0.318801 0.924880 0.043537 -0.011762 181456.000000 0 0 1
31.996702 -10.166621 23.947805 41.238895 -0.307651 0.951197 0.034646 -0.014816 -259832.000000 0 0 1
31.571402 -8.685921 23.681435 40.410506 -0.268478 0.944656 0.030733 0.000695 -144190.000000 0 0 1
30.182942 -8.488221 23.768935 39.344912 -0.274145 0.922139 0.034167 -0.004982 -421861.000000 0 0 1
29.850792 -7.139021 23.524635 38.670969 -0.234748 0.916844 0.025822 -0.001361 338147.000000 0 0 1
28.330682 -6.940721 23.261935 37.308427 -0.240257 0.897580 0.027970 0.004092 262782.000000 0 0 1
27.935592 -7.550221 22.059535 36.387171 -0.263966 0.919466 0.009115 0.009974 -21279.300000 0 0 1
26.572702 -7.308621 21.768335 35.119579 -0.268406 0.902264 0.020318 -0.009913 54706.300000 0 0 1
13.726211 -17.080921 26.183105 34.142667 -0.893865 0.696841 0.014860 0.008631 -114320.000000 0 0 1
13.455411 -18.346421 25.625925 34.268459 -0.937999 0.726055 0.016862 0.018888 276208.000000 0 0 1
14.483111 -19.245421 25.968705 35.419209 -0.925666 0.747808 0.031911 0.018872 -713307.000000 0 0 1
13.985311 -20.701821 25.945035 36.018039 -0.976662 0.766512 0.027544 0.007720 257934.000000 0 0 1
13.276411 -21.096421 27.124785 36.838513 -1.009096 0.743187 0.020693 0.006862 -90444.900000 0 0 1
11.964411 -20.627521 27.240495 36.203402 -1.045196 0.719054 0.023152 0.007435 -1237180.000000 0 0 1
11.347911 -21.014521 28.517345 37.197098 -1.075660 0.697181 0.018040 0.010028 -236765.000000 0 0 1
11.961011 -20.407521 29.678645 37.952005 -1.040654 0.672921 0.015829 0.001155 74668.300000 0 0 1
11.058611 -19.643021 30.442875 37.880203 -1.058043 0.637373 0.014898 0.000735 8514.960000 0 0 1
10.773311 -18.242821 29.987025 36.716296 -1.037354 0.615088 0.018873 0.004128 1464140.000000 0 0 1
11.977711 -17.390521 30.072235 36.745545 -0.967661 0.612190 0.008861 0.012611 1116360.000000 0 0 1
11.709711 -16.003821 29.757785 35.759829 -0.939122 0.587811 0.006193 0.009939 85738.700000 0 0 1
12.763511 -14.913321 30.123955 35.955069 -0.862918 0.577514 0.009674 0.003838 169827.000000 0 0 1
12.389411 -13.662721 29.669415 34.934820 -0.834235 0.556178 0.028393 0.000905 122107.000000 0 0 1
13.402011 -12.741621 29.975935 35.221009 -0.760143 0.552755 0.029930 0.002510 -163757.000000 0 0 1
12.942511 -11.357821 29.562205 34.211586 -0.720278 0.527438 0.027960 -0.001488 80760.300000 0 0 1
12.957711 -11.001121 28.233465 32.955356 -0.703914 0.541923 0.046083 -0.003679 565396.000000 0 0 1
14.299111 -10.819421 27.772225 33.057842 -0.647743 0.573310 0.039195 -0.005918 222383.000000 0 0 1
14.433411 -9.628821 26.721735 31.860456 -0.588317 0.575883 0.035135 -0.004771 -50633.400000 0 0 1
14.444511 -8.380921 27.374805 32.066551 -0.525745 0.547771 0.036487 -0.006888 583984.000000 0 0 1
15.730811 -7.992021 27.885195 32.998711 -0.470066 0.564158 0.041727 -0.016836 146111.000000 0 0 1
16.001611 -6.460621 27.916225 32.819305 -0.383733 0.553664 0.037635 -0.019869 612621.000000 0 0 1
17.407811 -6.187821 27.908195 33.469215 -0.341533 0.584756 0.038531 -0.022889 659621.000000 0 0 1
17.773411 -4.965121 27.408425 33.041918 -0.272412 0.592576 0.033143 -0.019119 240221.000000 0 0 1
19.314611 -4.814321 27.253935 33.749205 -0.244280 0.630822 0.038895 -0.019298 -289998.000000 0 0 1
19.856211 -5.548821 26.137455 33.290015 -0.272499 0.667868 0.036439 -0.014321 590489.000000 0 0 1
21.251311 -5.469621 25.878185 33.929566 -0.251911 0.703314 0.031082 -0.006873 777626.000000 0 0 1
22.278011 -5.759121 27.017485 35.488332 -0.252973 0.705471 0.044206 -0.011927 -656763.000000 0 0 1
22.555011 -4.582521 27.786025 36.080344 -0.200443 0.691774 0.045429 -0.016386 316727.000000 0 0 1
23.532111 -4.801221 28.816685 37.512842 -0.201266 0.694800 0.048003 -0.024492 250357.000000 0 0 1
24.086211 -3.462521 29.342555 38.119813 -0.142777 0.692354 0.055780 -0.023419 -231591.000000 0 0 1
24.892911 -2.830421 28.364545 37.844626 -0.113218 0.723490 0.054437 -0.020024 240958.000000 0 0 1
25.290611 -1.493521 28.690875 38.275474 -0.058986 0.723355 0.050762 -0.025652 -516971.000000 0 0 1
26.309311 -0.918921 27.698305 38.212830 -0.034913 0.759990 0.063016 -0.029814 -1040170.000000 0 0 1
27.613011 -1.109421 28.105355 39.415989 -0.040156 0.776965 0.066390 -0.029464 -1570750.000000 0 0 1
28.507511 -0.825821 27.067425 39.319278 -0.028960 0.811514 0.058164 -0.023509 165123.000000 0 0 1
29.958911 -0.936721 27.630825 40.766117 -0.031257 0.826045 0.048864 -0.017623 -747.027000 0 0 1
30.284511 0.078179 28.492805 41.581217 0.002581 0.815873 0.050511 -0.013865 -324701.000000 0 0 1
31.657011 0.121979 28.766015 42.774582 0.003853 0.833211 0.046505 -0.010079 -285375.000000 0 0 1
32.135011 1.281079 29.658515 43.748458 0.039844 0.825849 0.045571 -0.014498 -171974.000000 0 0 1
31.994611 2.573679 29.114575 43.335175 0.080268 0.834098 0.042781 -0.017538 9047.130000 0 0 1
32.456811 3.533879 30.011545 44.346654 0.108452 0.827459 0.054567 -0.015104 -273194.000000 0 0 1
32.498911 4.945679 29.378085 44.087536 0.151021 0.841483 0.042966 -0.017407 -189575.000000 0 0 1
32.416311 6.065379 30.228075 44.736367 0.184970 0.828891 0.051603 -0.012956 436625.000000 0 0 1
31.111811 6.406279 30.684145 44.164487 0.203073 0.802697 0.055105 -0.015224 60146.200000 0 0 1
31.051611 7.581779 31.628505 44.967191 0.239481 0.790671 0.048186 -0.013587 -74849.000000 0 0 1
31.444111 7.167079 32.946818 46.104142 0.224102 0.774719 0.042523 -0.006875 212537.000000 0 0 1
31.377311 8.164179 33.926809 46.927794 0.254549 0.762723 0.048446 -0.002961 -62160.700000 0 0 1
31.741911 7.620079 -33.530269 46.796298 0.235605 2.369590 0.046299 0.000491 -190242.000000 0 0 1
30.784411 6.715879 -32.977799 45.610506 0.214793 2.378976 0.036573 -0.004970 -141925.000000 0 0 1
30.981011 5.297179 -33.109129 45.651918 0.169344 2.382196 0.046267 -0.001463 830054.000000 0 0 1
32.404011 4.674379 -32.772559 46.323972 0.143265 2.356700 0.042388 -0.005273 754771.000000 0 0 1
32.409311 3.260779 -32.971699 46.347913 0.100275 2.362278 0.051917 -0.013595 264970.000000 0 0 1
32.008711 2.489679 -31.875719 45.241768 0.077625 2.352605 0.028026 -0.005208 -307558.000000 0 0 1
32.236511 0.987979 -32.052599 45.470187 0.030638 2.353099 0.031670 -0.001591 -133378.000000 0 0 1
33.605311 0.672579 -32.218069 46.559352 0.020011 2.335022 0.042906 0.003168 89176.200000 0 0 1
33.825711 -0.681921 -32.496199 46.911051 -0.020157 2.336049 0.039228 -0.006112 246927.000000 0 0 1
34.495011 -1.354221 -31.248289 46.563884 -0.039238 2.306467 0.032113 -0.006179 -74614.100000 0 0 1
33.609811 -1.476421 -30.180209 45.195622 -0.043900 2.302003 0.028285 -0.002526 -65137.500000 0 0 1
34.338611 -1.609421 -29.018599 44.986771 -0.046835 2.271882 0.030615 -0.003804 268470.000000 0 0 1
33.358111 -1.290621 -27.837829 43.466930 -0.038671 2.265863 0.035729 -0.002353 317056.000000 0 0 1
33.239611 0.103579 -27.665969 43.246830 0.003116 2.264933 0.013794 0.001721 -45841.900000 0 0 1
32.391811 0.311679 -26.590659 41.909304 0.009622 2.258133 0.012528 0.001391 -571337.000000 0 0 1
31.909311 1.740679 -26.461739 41.490454 0.054497 2.262408 -0.005917 0.003674 309799.000000 0 0 1
30.997811 2.071979 -27.520129 41.503191 0.066743 2.295728 0.009681 -0.006295 670703.000000 0 0 1
30.475311 3.401979 -27.508839 41.195319 0.111170 2.302000 -0.002260 0.001933 302938.000000 0 0 1
29.604411 3.868979 -28.700289 41.413727 0.129953 2.336458 0.013639 -0.004702 114844.000000 0 0 1
29.155311 5.224579 -28.581289 41.160885 0.177316 2.338354 -0.004964 0.000765 519107.000000 0 0 1
28.330511 5.649079 -29.694679 41.428299 0.196818 2.369960 0.012153 0.005159 208175.000000 0 0 1
27.079911 6.313479 -29.080969 40.235362 0.229051 2.378600 0.014134 0.000625 -199658.000000 0 0 1
26.157311 5.476279 -28.378039 38.980863 0.206379 2.386195 0.019939 -0.002387 1746840.000000 0 0 1
25.072811 6.289179 -27.804769 37.964520 0.245766 2.392619 0.022849 -0.007169 1652670.000000 0 0 1
23.703211 5.582879 -27.474019 36.712838 0.231317 2.416366 0.029538 -0.005887 680064.000000 0 0 1
23.006911 5.278279 -28.646279 37.118560 0.225519 2.452386 0.040257 -0.007848 -574159.000000 0 0 1
21.675311 4.936979 -28.466289 36.118174 0.223949 2.478583 0.041509 -0.006333 -757799.000000 0 0 1
21.059611 4.483779 -29.792599 36.758815 0.209777 2.515782 0.032787 0.001354 -274134.000000 0 0 1
21.340111 3.147379 -30.178549 37.095164 0.146431 2.521017 0.020907 -0.003185 15922.500000 0 0 1
20.352911 2.587479 -31.003649 37.177443 0.126452 2.557000 0.008342 -0.004450 -471812.000000 0 0 1
20.296011 3.020579 -32.504869 38.439803 0.147742 2.578493 0.019153 0.001421 -73275.700000 0 0 1
21.441411 2.721479 -33.284389 39.686158 0.126251 2.565670 0.019174 0.006337 -61523.300000 0 0 1
21.419411 3.530479 34.406587 40.682535 0.163357 0.562858 0.020189 0.005054 408548.000000 0 0 1
22.769511 3.310779 33.657867 40.770871 0.144392 0.599643 0.031340 0.006840 407746.000000 0 0 1
23.011011 2.002079 33.156676 40.408911 0.086787 0.608461 0.037009 -0.003381 -185120.000000 0 0 1
24.341411 1.912979 32.713545 40.820825 0.078428 0.641175 0.052927 -0.010519 -501227.000000 0 0 1
24.655311 0.375379 32.674225 40.934463 0.015224 0.646481 0.049885 -0.017221 -135129.000000 0 0 1
23.940811 -0.378921 31.695415 39.722857 -0.015826 0.646970 0.049967 -0.014705 719429.000000 0 0 1
22.526311 -0.526121 31.714965 38.904376 -0.023352 0.617717 0.049555 -0.018968 47446.600000 0 0 1
22.056311 -1.694221 32.575085 39.376229 -0.076663 0.596551 0.041001 -0.022938 -638963.000000 0 0 1
22.303911 -2.972421 32.057655 39.166222 -0.132488 0.611997 0.037759 -0.024597 248296.000000 0 0 1
21.700211 -4.018821 32.781655 39.518185 -0.183123 0.592525 0.041024 -0.026621 -218895.000000 0 0 1
21.864911 -5.379521 32.041715 39.162291 -0.241243 0.612562 0.042773 -0.025330 -10785.200000 0 0 1
23.178311 -5.901521 32.076035 40.011674 -0.249316 0.640718 0.029506 -0.014890 70115.300000 0 0 1
23.149811 -7.331721 32.045215 40.206513 -0.306714 0.648459 0.051718 -0.022941 -1561610.000000 0 0 1
24.507811 -7.879321 31.827495 40.935387 -0.311065 0.680107 0.023320 -0.013301 -1400080.000000 0 0 1
24.887811 -7.632621 30.489195 40.090536 -0.297575 0.706700 0.039617 -0.013079 -241477.000000 0 0 1
26.051611 -8.328621 30.104705 40.673648 -0.309428 0.737499 0.023079 0.000663 -58268.400000 0 0 1
26.554011 -7.879521 28.731275 39.908502 -0.288459 0.767097 0.030906 -0.008593 -359229.000000 0 0 1
25.645611 -8.269121 27.750025 38.679964 -0.311913 0.770695 0.023396 -0.008339 -344968.000000 0 0 1
25.995011 -7.788321 26.459935 37.901539 -0.291097 0.798024 0.033998 -0.005004 -310571.000000 0 0 1
25.390411 -8.422721 25.247635 36.783940 -0.320305 0.814301 0.018350 0.003926 298021.000000 0 0 1
23.981611 -8.208321 25.119115 35.685629 -0.329777 0.789923 0.020397 0.003754 174514.000000 0 0 1
23.525411 -9.036621 24.124355 34.886817 -0.366744 0.807228 0.022312 -0.000134 -577527.000000 0 0 1
22.032211 -8.792121 23.956645 33.714100 -0.379694 0.780471 0.018747 -0.006861 -181861.000000 0 0 1
21.133211 -9.170321 24.993485 33.990906 -0.409410 0.744688 0.012468 -0.004508 1389610.000000 0 0 1
19.765111 -8.747421 24.789595 32.889223 -0.416657 0.717077 0.015889 -0.001055 1296790.000000 0 0 1
18.821111 -8.703621 25.995195 33.252630 -0.433150 0.673331 0.021908 -0.009184 -135516.000000 0 0 1
18.241311 -9.887121 26.539435 33.687419 -0.496694 0.663544 0.022996 -0.007574 301912.000000 0 0 1
19.128011 -10.685021 27.276065 34.986200 -0.509426 0.676732 0.018239 -0.009137 -217133.000000 0 0 1
18.319211 -11.766021 28.020695 35.485097 -0.570927 0.660563 0.030130 -0.009896 163988.000000 0 0 1
17.648311 -12.730921 27.242175 34.866536 -0.624923 0.674007 0.031162 -0.007045 634392.000000 0 0 1
16.678511 -13.525721 27.959625 35.254198 -0.681392 0.654937 0.022526 -0.004068 292459.000000 0 0 1
17.227811 -14.598821 28.948315 36.714139 -0.702982 0.662465 0.036402 0.003668 -595290.000000 0 0 1
16.279911 -15.620421 29.109485 36.829270 -0.764728 0.659351 0.034173 0.001752 124485.000000 0 0 1
16.782911 -16.894221 29.540445 37.943625 -0.788703 0.678468 0.033850 0.005280 -224549.000000 0 0 1
17.192011 -17.837721 28.389255 37.678898 -0.803829 0.717499 0.028230 0.007839 -563648.000000 0 0 1
18.501811 -17.664521 27.955325 37.892644 -0.762251 0.741064 0.039698 0.009446 -355070.000000 0 0 1
18.823611 -18.495021 26.856575 37.651955 -0.776593 0.776622 0.029896 0.021251 294074.000000 0 0 1
20.027711 -18.067521 25.967175 37.441136 -0.733989 0.804396 0.031199 0.010454 1244670.000000 0 0 1
21.325011 -18.172621 26.606605 38.638215 -0.705755 0.811228 0.043807 0.010261 1463830.000000 0 0 1
22.318711 -17.567021 25.755645 38.341601 -0.666824 0.834239 0.034282 0.009368 361509.000000 0 0 1
23.748211 -17.492121 26.324905 39.534193 -0.634848 0.842128 0.043341 -0.002883 165032.000000 0 0 1
24.345911 -18.822621 26.274555 40.464388 -0.658142 0.864099 0.053554 -0.001955 -298656.000000 0 0 1
25.729711 -18.750621 26.441255 41.385309 -0.629764 0.877723 0.028774 -0.005562 -880854.000000 0 0 1
26.360511 -20.121021 26.566295 42.491176 -0.651960 0.895384 0.009726 -0.007108 -217744.000000 0 0 1
26.058411 -20.762621 27.788315 43.385685 -0.672770 0.875654 0.008078 0.005363 -636583.000000 0 0 1
26.917411 -21.757121 28.089795 44.575284 -0.679776 0.889030 0.002074 -0.015027 -909697.000000 0 0 1
26.253711 -22.691121 29.068335 45.267123 -0.712738 0.873495 0.001133 -0.008317 -357543.000000 0 0 1
26.124911 -22.233621 30.402765 45.838554 -0.705104 0.845633 0.017321 -0.005943 47759.000000 0 0 1
25.422311 -23.294621 31.064245 46.410350 -0.741751 0.837478 0.031405 0.000552 -224713.000000 0 0 1
25.125711 -23.169621 32.561245 47.205586 -0.744918 0.809618 0.024498 -0.006283 125614.000000 0 0 1
24.450311 -24.314521 33.081227 47.784738 -0.782614 0.806129 0.021358 -0.010187 268714.000000 0 0 1
24.063511 -24.166921 -34.402147 48.441721 -0.787542 2.360544 0.036311 -0.010863 -303154.000000 0 0 1
23.589811 -25.408411 -33.622099 48.296088 -0.822497 2.340839 0.027625 -0.005194 1197960.000000 0 0 1
22.311811 -26.035901 -33.898979 48.216448 -0.862274 2.350485 0.036572 -0.012062 674774.000000 0 0 1
22.180311 -26.524371 33.627270 48.231750 -0.874355 0.799309 0.028607 -0.016589 -237068.000000 0 0 1
20.884311 -27.322701 33.417029 47.951874 -0.918170 0.799749 0.035915 -0.018321 253812.000000 0 0 1
21.069611 -28.605811 33.958640 49.146822 -0.935959 0.807976 0.029734 -0.017641 -406422.000000 0 0 1
19.844711 -29.255291 33.982412 49.035588 -0.974763 0.805133 0.041049 -0.013984 -563695.000000 0 0 1
20.007311 -30.781771 33.998781 50.037256 -0.994440 0.823757 0.019021 -0.013477 -127163.000000 0 0 1
20.519211 -31.151491 -33.619979 50.217093 -0.988336 2.304322 0.015730 -0.016229 274579.000000 0 0 1
21.246311 -32.381491 -33.656739 51.310260 -0.990127 2.286231 -0.006687 -0.008370 -3065.370000 0 0 1
21.922711 -32.763591 -32.335289 50.986558 -0.981099 2.257760 0.007729 -0.011284 -59504.300000 0 0 1
22.943211 -33.781791 -32.529549 52.208926 -0.974195 2.243451 0.000561 -0.006864 988484.000000 0 0 1
23.531611 -34.229819 -31.326329 52.026495 -0.968537 2.216953 0.007835 0.001586 333505.000000 0 0 1
24.631211 -33.328711 -30.692679 51.570729 -0.934347 2.208257 0.013325 -0.001442 -218016.000000 0 0 1
25.108111 -33.685201 -29.414929 51.286919 -0.930262 2.181613 0.028635 0.007488 350641.000000 0 0 1
25.911611 -32.632491 -28.814369 50.661217 -0.899698 2.175801 0.027476 0.008400 493182.000000 0 0 1
26.473611 -32.844281 -27.360559 50.281200 -0.892387 2.146173 0.032053 0.007192 699659.000000 0 0 1
27.371411 -33.978491 -27.326579 51.482754 -0.892680 2.130330 0.028633 0.017101 -29150.900000 0 0 1
28.123611 -34.021519 -26.167419 51.314083 -0.880020 2.105919 0.027678 0.016854 106737.000000 0 0 1
-26.145349 -30.629543 9.360601 41.344516 0.864217 1.342411 0.014677 -0.001526 -254832.000000 0 0 1
-26.366349 -31.886043 10.022701 42.571806 0.879871 1.333135 0.018679 -0.005886 -22971.600000 0 0 1
-25.264679 -32.254243 10.828801 42.378097 0.906323 1.312402 0.008851 -0.006646 139730.000000 0 0 1
-25.334989 -33.649043 11.482301 43.657336 0.925430 1.304656 0.009577 -0.007695 53216.400000 0 0 1
-25.400959 34.254579 10.609701 43.944859 -0.932735 1.326955 0.016818 -0.005584 31220.700000 0 0 1
-25.573009 33.022579 11.408501 43.296921 -0.911855 1.304153 0.014457 -0.009547 11908.000000 0 0 1
-25.424549 31.639979 10.717301 41.980430 -0.893890 1.312646 0.020499 -0.004343 245796.000000 0 0 1
-26.542189 31.350179 9.884601 42.249578 -0.868259 1.334650 0.021748 -0.008002 84642.600000 0 0 1
-26.399429 30.140979 9.201901 41.110624 -0.851477 1.345051 0.030753 -0.005436 87397.000000 0 0 1
-25.461369 30.097079 7.942101 40.214331 -0.868644 1.371995 0.033994 0.003369 -10267.600000 0 0 1
-24.143689 29.767979 8.263601 39.208894 -0.889346 1.358446 0.039108 0.001347 -981647.000000 0 0 1
-23.328589 29.859779 7.156401 38.562203 -0.907580 1.384134 0.026272 0.005639 -174341.000000 0 0 1
-21.975889 29.098079 7.272801 37.182409 -0.923953 1.373929 0.058645 0.009587 195780.000000 0 0 1
-22.026489 27.677179 7.474801 36.153355 -0.898600 1.362542 0.043289 -0.000119 116898.000000 0 0 1
-22.441989 26.942279 6.293101 35.624884 -0.876275 1.393215 0.035006 0.001371 -208167.000000 0 0 1
-22.841689 25.420779 6.410501 34.771443 -0.838786 1.385375 0.033194 0.010258 779005.000000 0 0 1
-24.096289 25.282579 7.130401 35.646634 -0.809418 1.369408 0.046130 -0.000595 1209130.000000 0 0 1
-24.342189 24.001079 7.681501 35.037115 -0.778342 1.349762 0.037815 -0.005881 -113318.000000 0 0 1
-24.800589 22.873879 6.700001 34.397290 -0.745006 1.374760 0.031264 -0.010314 1328990.000000 0 0 1
-26.178699 23.071879 6.223901 35.445350 -0.722400 1.394290 0.035037 -0.010242 1745170.000000 0 0 1
-26.378559 22.543579 4.920001 35.046365 -0.707169 1.429946 0.031970 -0.011398 13593.400000 0 0 1
-26.135839 23.507279 3.728201 35.349310 -0.732498 1.465132 0.026777 -0.012881 86168.600000 0 0 1
-24.769889 23.853879 3.580801 34.574225 -0.766562 1.467042 0.028840 -0.010665 361676.000000 0 0 1
-24.614989 24.731179 2.508901 34.983188 -0.787753 1.499017 0.031835 -0.000376 302684.000000 0 0 1
-23.166689 25.295179 2.501001 34.391809 -0.829291 1.498011 0.032954 0.001998 168138.000000 0 0 1
-22.958989 25.995479 1.324201 34.707832 -0.847346 1.532634 0.016726 -0.002975 248886.000000 0 0 1
-21.768489 26.787579 1.432001 34.546955 -0.888399 1.529334 0.020028 -0.005857 157754.000000 0 0 1
-21.308389 27.313879 -0.010799 34.642395 -0.908289 1.571108 0.018973 -0.000994 154855.000000 0 0 1
-20.909989 26.361379 -1.006899 33.662498 -0.900212 1.600712 0.011607 0.004293 -82212.900000 0 0 1
-19.801889 25.532079 -0.775999 32.320335 -0.911131 1.594808 0.013537 -0.004995 -329494.000000 0 0 1
-19.302789 24.764079 -2.020899 31.463333 -0.908701 1.635071 0.016537 -0.016963 316037.000000 0 0 1
-20.392389 23.972679 -2.505799 31.572423 -0.865924 1.650247 0.007762 -0.019817 581972.000000 0 0 1
-20.016489 23.072179 -3.573999 30.753191 -0.856196 1.687275 0.005193 -0.019371 -266663.000000 0 0 1
-21.235989 22.528279 -4.316099 31.258907 -0.814918 1.709315 0.000795 -0.021360 -180611.000000 0 0 1
-21.740589 23.330779 -5.334799 32.333242 -0.820665 1.736549 -0.006320 -0.009547 575516.000000 0 0 1
-22.988989 22.840079 -5.853799 32.930681 -0.782149 1.749507 0.004700 -0.001542 733234.000000 0 0 1
-23.193689 23.227679 -7.330599 33.633465 -0.786130 1.790515 0.000712 0.000989 -233336.000000 0 0 1
-22.479889 22.390679 -8.210799 32.773543 -0.783410 1.824025 -0.009650 -0.001340 103750.000000 0 0 1
-22.031289 23.135679 -9.346899 33.286662 -0.809845 1.855424 -0.002844 -0.012507 -162269.000000 0 0 1
-21.200489 22.229479 -10.299499 32.398922 -0.809087 1.894306 -0.004077 -0.018676 34342.100000 0 0 1
-21.949989 21.834779 -11.427099 33.002094 -0.782767 1.924371 -0.005010 -0.007059 614382.000000 0 0 1
-21.045389 21.407079 -12.436999 32.493851 -0.793918 1.963567 -0.005473 -0.000127 525797.000000 0 0 1
-21.852689 21.220079 -13.768099 33.427419 -0.770712 1.995313 -0.006401 -0.003971 1287890.000000 0 0 1
-22.841689 20.152379 -13.645799 33.377672 -0.722929 1.991968 -0.011824 0.011577 983387.000000 0 0 1
-23.925589 20.281079 -14.561999 34.580454 -0.703142 2.005459 -0.004929 -0.008383 989326.000000 0 0 1
-24.846289 18.999479 -14.636099 34.533081 -0.652831 2.008464 0.029960 -0.011516 519075.000000 0 0 1
-24.425189 18.174279 -15.666999 34.239584 -0.639701 2.046056 0.034912 -0.011313 89422.000000 0 0 1
-25.333429 17.107679 -15.815599 34.417851 -0.593956 2.048248 0.054523 -0.017128 -423248.000000 0 0 1
-24.923789 16.188279 -17.001899 34.239162 -0.576031 2.090431 0.066420 -0.012584 468532.000000 0 0 1
-23.883389 15.253779 -16.687899 32.887384 -0.568374 2.102991 0.083881 -0.009854 611620.000000 0 0 1
-23.213789 14.699479 -17.801399 32.739036 -0.564490 2.145679 0.079912 -0.018524 120810.000000 0 0 1
-22.270089 13.525979 -17.512599 31.394268 -0.545814 2.162563 0.078856 -0.015230 -496823.000000 0 0 1
-21.077889 13.800779 -16.845599 30.306981 -0.579708 2.160160 0.069606 -0.018444 -644039.000000 0 0 1
-20.438589 12.562879 -16.761599 29.266244 -0.551133 2.180626 0.064946 -0.012201 -905999.000000 0 0 1
-19.164089 12.597179 -15.931099 27.924024 -0.581513 2.177930 0.055758 -0.008749 -917708.000000 0 0 1
-18.201489 13.379279 -16.566099 28.013121 -0.633874 2.203552 0.051443 -0.006757 -156314.000000 0 0 1
-17.230389 13.792679 -15.600699 27.027876 -0.675037 2.186101 0.051112 0.006812 336353.000000 0 0 1
-16.308089 14.974579 -16.051499 27.346707 -0.742796 2.198099 0.022048 0.009966 162302.000000 0 0 1
-15.361389 14.554479 -17.028199 27.161824 -0.758432 2.248386 0.029997 -0.004886 58357.600000 0 0 1
-14.632989 15.673679 -17.473099 27.660401 -0.819723 2.254542 0.017939 0.000819 -352341.000000 0 0 1
-13.724489 15.403779 -18.652299 27.812700 -0.842986 2.305867 0.008056 0.002487 208441.000000 0 0 1
-12.655289 14.490279 -18.425499 26.638760 -0.852894 2.334609 0.002969 0.005673 3526.880000 0 0 1
-11.789389 14.463679 -19.522299 27.005701 -0.886914 2.378780 -0.006515 0.005786 670820.000000 0 0 1
-10.863189 13.168179 -19.608299 25.997985 -0.881022 2.425268 -0.002037 -0.001213 886721.000000 0 0 1
-11.621389 12.028279 -19.951699 26.034717 -0.802601 2.443936 0.012154 0.000588 354042.000000 0 0 1
-10.739689 10.908179 -20.037999 25.216080 -0.793181 2.489230 0.003628 0.009024 159969.000000 0 0 1
-11.181589 9.706279 -20.944099 25.649465 -0.714885 2.526207 0.014081 -0.000939 34423.300000 0 0 1
-10.665189 9.859479 -22.266599 26.584902 -0.746163 2.563608 0.016321 0.002554 -2829.860000 0 0 1
-11.247889 8.905379 -23.094799 27.188059 -0.669683 2.585732 0.020627 0.012708 -58885.200000 0 0 1
-10.946289 9.136679 -24.542299 28.383527 -0.695534 2.615283 0.025165 -0.002786 -101881.000000 0 0 1
-9.595289 8.776079 -24.851599 28.048014 -0.740836 2.659524 0.013194 0.002950 247405.000000 0 0 1
-9.447989 8.311179 -26.194439 29.060090 -0.721473 2.693762 0.005339 -0.010316 -120167.000000 0 0 1
-9.420189 9.348379 -27.359499 30.408458 -0.781572 2.689954 0.023079 -0.005487 -1041920.000000 0 0 1
-8.267289 10.049479 -27.600069 30.513995 -0.882391 2.701015 0.014159 -0.009739 -872874.000000 0 0 1
-8.169389 11.277779 -26.913739 30.303079 -0.943895 2.664104 0.001078 -0.004774 197160.000000 0 0 1
-6.709089 11.814279 -26.860389 30.100989 -1.054330 2.673305 0.008760 -0.004103 263470.000000 0 0 1
-6.154389 12.087079 -28.136449 31.235136 -1.099839 2.692393 0.021292 -0.010748 780466.000000 0 0 1
-4.726989 12.096579 -27.955739 30.825233 -1.198271 2.706690 0.032300 -0.017153 349896.000000 0 0 1
-4.011389 12.418779 -29.241009 32.021148 -1.258365 2.721811 0.042327 -0.016708 459180.000000 0 0 1
-2.589089 12.561279 -29.116439 31.815973 -1.367526 2.726680 0.042157 -0.017683 660546.000000 0 0 1
-1.967789 12.620579 -30.423769 32.996317 -1.416123 2.744102 0.043412 -0.018044 -355216.000000 0 0 1
-0.453289 12.633579 -30.274269 32.807684 -1.534932 2.746030 0.039735 -0.019623 -884438.000000 0 0 1
-0.097889 11.408579 -29.697859 31.813961 -1.562216 2.774808 0.032668 -0.011062 226419.000000 0 0 1
1.282911 11.094779 -29.880319 31.899427 1.455676 2.783891 0.040038 -0.012646 623428.000000 0 0 1
1.763011 10.513379 -31.237439 33.006317 1.404650 2.812723 0.039003 -0.013402 -384463.000000 0 0 1
1.809311 11.445879 -32.312799 34.327813 1.414018 2.797260 0.045863 -0.022516 158348.000000 0 0 1
1.841411 10.683079 -33.501099 35.211399 1.400106 2.828637 0.048090 -0.018494 -25846.800000 0 0 1
1.861011 11.619979 34.160175 36.130386 1.411989 0.331764 0.054929 -0.016938 -171070.000000 0 0 1
3.099911 12.294079 34.061451 36.344687 1.323798 0.356345 0.043099 -0.016608 -225639.000000 0 0 1
3.247411 12.954579 32.834393 35.446638 1.325181 0.386312 0.041413 -0.013667 -357770.000000 0 0 1
4.690011 13.404779 32.574465 35.535617 1.234232 0.411127 0.033870 -0.006051 -565167.000000 0 0 1
5.422511 12.298679 32.198895 34.891689 1.155534 0.395448 0.033577 -0.018795 138510.000000 0 0 1
6.727811 12.583179 31.688905 34.753223 1.079801 0.423086 0.027444 -0.003779 418088.000000 0 0 1
7.548311 11.420879 31.148965 34.024572 0.986781 0.414086 0.018006 -0.000341 -177470.000000 0 0 1
7.075611 10.907779 29.897095 32.601843 0.995353 0.410210 0.031434 -0.008876 189386.000000 0 0 1
7.972311 9.928279 29.392855 32.032302 0.894235 0.408795 0.025180 -0.008558 -16224.500000 0 0 1
7.394711 9.105279 28.237855 30.577186 0.888700 0.393705 0.027116 -0.005650 22324.200000 0 0 1
6.370411 8.232279 28.629425 30.463035 0.912216 0.348726 0.031449 -0.015346 -337159.000000 0 0 1
5.887411 7.382379 27.646955 29.214983 0.897585 0.329118 0.047612 -0.017672 -109349.000000 0 0 1
5.002611 6.280179 28.268935 29.387062 0.898149 0.276738 0.055399 -0.019789 -271116.000000 0 0 1
5.676611 5.318479 29.002775 30.027838 0.752838 0.262042 0.037764 -0.020240 -291056.000000 0 0 1
4.813611 4.590079 29.853925 30.585887 0.761632 0.219214 0.041086 -0.021270 -281134.000000 0 0 1
5.491111 3.348779 30.555575 31.225146 0.547634 0.207463 0.041262 -0.019061 184942.000000 0 0 1
5.726911 2.209479 29.723605 30.350815 0.368211 0.203651 0.041401 -0.015215 231543.000000 0 0 1
6.868311 2.317279 28.881745 29.777486 0.325394 0.245899 0.051135 -0.016103 -110232.000000 0 0 1
7.165011 1.104979 28.020825 28.943479 0.153013 0.253174 0.043037 -0.024780 -242498.000000 0 0 1
7.560611 -0.038321 28.693875 29.673267 -0.005068 0.257639 0.009244 0.002462 16465.800000 0 0 1
7.501211 -1.290021 27.925735 28.944412 -0.170309 0.266093 0.016164 0.008293 -148893.000000 0 0 1
8.074311 -2.439221 28.761785 29.973064 -0.293379 0.285263 0.009389 0.016043 -526049.000000 0 0 1
9.387011 -2.400521 29.236075 30.799782 -0.250362 0.320017 0.006943 0.004176 -660408.000000 0 0 1
10.083111 -3.514221 28.722905 30.643501 -0.335361 0.355925 0.009471 0.006410 -381731.000000 0 0 1
11.595811 -3.470521 28.992545 31.417750 -0.290806 0.395490 0.004078 -0.002506 327301.000000 0 0 1
12.332111 -4.665521 28.575405 31.470650 -0.361681 0.432307 0.015709 -0.007533 537766.000000 0 0 1
12.351511 -5.754821 29.506665 32.501093 -0.436014 0.432629 0.021681 -0.003238 -395385.000000 0 0 1
11.746911 -7.066821 28.933765 32.017068 -0.541588 0.442467 0.029644 0.000551 1157680.000000 0 0 1
10.313411 -6.951121 28.773075 31.346042 -0.593054 0.407997 0.015404 0.008540 744301.000000 0 0 1
9.710011 -8.186121 28.498315 31.200174 -0.700451 0.419231 0.017297 0.003569 162672.000000 0 0 1
8.179811 -8.048721 28.630895 30.845086 -0.777321 0.381208 0.027418 0.007883 231113.000000 0 0 1
7.555611 -7.892221 29.916485 31.849183 -0.807185 0.350162 0.031388 0.007314 364726.000000 0 0 1
6.147511 -7.783621 29.861305 31.465444 -0.902305 0.320687 0.019197 0.013500 39042.700000 0 0 1
5.493611 -7.078321 31.059715 32.326278 -0.910788 0.280853 0.012044 0.013086 -249166.000000 0 0 1
5.435411 -7.777821 32.351065 33.713938 -0.960853 0.285307 0.017059 0.020815 21704.200000 0 0 1
4.835811 -7.006821 33.375015 34.443754 -0.966707 0.249761 0.020623 0.007730 -131737.000000 0 0 1
5.649111 -5.809221 33.912244 34.866887 -0.799370 0.234544 0.018307 0.007557 -110645.000000 0 0 1
5.739411 -4.768021 32.938156 33.772725 -0.693212 0.222773 0.018948 0.010349 18500.900000 0 0 1
6.354211 -3.577321 33.453944 34.239445 -0.512757 0.214614 0.018600 0.010948 -197509.000000 0 0 1
6.440911 -2.464421 32.442645 33.167513 -0.365434 0.209451 0.020697 0.006904 387570.000000 0 0 1
5.148511 -1.961221 32.111575 32.580773 -0.363959 0.169916 0.021905 0.004910 376561.000000 0 0 1
5.261911 -0.777821 31.363585 31.811431 -0.146758 0.167996 0.022006 -0.005032 -340925.000000 0 0 1
3.872211 -0.202621 31.131685 31.372231 -0.052279 0.123914 0.033495 -0.007728 -521123.000000 0 0 1
3.143511 0.231479 32.257685 32.411317 0.073504 0.097405 0.027372 -0.003489 -134457.000000 0 0 1
1.880911 0.676979 31.793075 31.855859 0.345485 0.062794 0.031275 -0.011667 115906.000000 0 0 1
0.813311 0.820679 32.888448 32.908737 0.789907 0.035117 0.033652 -0.013555 35367.500000 0 0 1
1.252011 1.783779 33.887624 33.957628 0.958805 0.064222 0.031287 -0.004588 577470.000000 0 0 1
0.404111 1.677679 -33.835019 33.878997 1.334424 3.090635 0.029683 -0.018070 241654.000000 0 0 1
0.826811 2.757679 -32.833559 32.959536 1.279503 3.054133 0.039157 -0.015226 33089.500000 0 0 1
1.880311 2.397179 -31.983039 32.127820 0.905650 3.046621 0.023482 -0.010573 -51178.500000 0 0 1
2.482111 3.572279 -31.370049 31.670207 0.963552 3.003806 0.025941 -0.004528 291735.000000 0 0 1
3.564911 3.310279 -30.276259 30.664612 0.748379 2.982273 0.018727 0.001689 127269.000000 0 0 1
3.215211 2.548679 -29.149699 29.437023 0.670270 3.001760 0.023177 -0.003146 -466099.000000 0 0 1
4.281811 2.586179 -28.260629 28.699920 0.543349 2.966404 0.036284 -0.006631 -384933.000000 0 0 1
3.896011 1.903879 -26.930239 27.277123 0.454546 2.981943 0.028710 -0.010705 49525.700000 0 0 1
3.892011 0.437979 -27.016249 27.298668 0.112061 2.997624 0.040415 -0.010641 46293.500000 0 0 1
3.579011 -0.122921 -25.752919 26.000717 -0.034332 3.003422 0.051114 -0.014127 -228820.000000 0 0 1
4.220411 -1.510221 -25.504049 25.894964 -0.343640 2.967614 0.053799 -0.019650 303818.000000 0 0 1
5.588611 -1.398021 -25.132589 25.784377 -0.245125 2.916268 0.056835 -0.022657 11862.200000 0 0 1
5.922211 -2.725321 -24.752699 25.596798 -0.431293 2.884068 0.066266 -0.030308 909331.000000 0 0 1
7.469611 -2.983621 -24.584999 25.867340 -0.380019 2.825400 0.070999 -0.025959 1070010.000000 0 0 1
8.192811 -3.124321 -25.765789 27.216896 -0.364325 2.813577 0.059347 -0.019198 -468840.000000 0 0 1
9.463511 -3.693421 -25.520579 27.468152 -0.372099 2.762760 0.039045 -0.009446 30096.400000 0 0 1
-28.965369 -4.516021 18.309135 34.563152 0.154666 1.012514 0.067964 -0.013267 -467017.000000 0 0 1
-30.341279 -4.354821 18.447035 35.775002 0.142554 1.029041 0.058657 -0.004776 -772058.000000 0 0 1
-30.856209 -5.239121 19.393635 36.819385 0.168187 1.016055 0.056771 -0.015329 -361686.000000 0 0 1
-32.293229 -4.885721 19.807835 38.197817 0.150154 1.025631 0.048819 -0.007991 -705701.000000 0 0 1
-33.140499 -5.174621 18.752635 38.428254 0.154891 1.061010 0.041152 -0.010401 258011.000000 0 0 1
-34.497282 -4.883721 19.120435 39.742977 0.140634 1.068885 0.034173 -0.003726 935511.000000 0 0 1
35.444165 -5.102821 17.968235 40.064761 -0.142985 1.105733 0.033173 -0.005304 710557.000000 0 0 1
34.101232 -5.035521 18.446335 39.096263 -0.146604 1.079444 0.023507 -0.005158 120244.000000 0 0 1
33.204822 -5.082321 17.350435 37.807774 -0.151881 1.094026 0.020396 -0.003699 -713100.000000 0 0 1
31.865322 -5.555021 17.865935 36.951977 -0.172594 1.066158 0.012458 0.001036 -1045150.000000 0 0 1
31.116652 -4.613721 18.585635 36.537081 -0.147199 1.037147 0.017323 0.000568 -44115.100000 0 0 1
30.035412 -5.240821 19.219535 36.041402 -0.172749 1.008344 0.015285 -0.003047 -138315.000000 0 0 1
29.299542 -4.471021 20.352535 35.953843 -0.151429 0.969061 0.018239 -0.001685 -218742.000000 0 0 1
28.371042 -3.463921 20.044235 34.909685 -0.121492 0.959201 0.029505 -0.003264 20661.300000 0 0 1
28.864402 -2.271921 19.454735 34.882689 -0.078548 0.979161 0.040243 -0.008155 -177819.000000 0 0 1
28.246032 -0.919921 19.984535 34.613093 -0.032557 0.955293 0.041817 -0.008824 -343286.000000 0 0 1
28.877852 0.210679 19.474135 34.831259 0.007295 0.977497 0.057977 -0.011320 130789.000000 0 0 1
28.243492 1.357079 20.011735 34.641103 0.048012 0.954903 0.067833 -0.013472 397429.000000 0 0 1
28.602002 2.595479 19.138535 34.512237 0.090497 0.982982 0.054861 -0.015518 246392.000000 0 0 1
28.079422 2.477979 17.831735 33.355136 0.088021 1.006759 0.048731 -0.013456 2366.070000 0 0 1
28.368512 3.644179 17.099335 33.323261 0.127759 1.031963 0.048074 -0.013027 -13756.800000 0 0 1
27.876322 3.635379 15.669935 32.184657 0.129679 1.062287 0.045849 -0.011064 -371784.000000 0 0 1
27.816542 4.873879 14.990735 31.972438 0.173454 1.082792 0.045442 -0.011695 350616.000000 0 0 1
27.357202 4.621379 13.618435 30.906883 0.167347 1.114498 0.047223 -0.007400 56060.100000 0 0 1
26.695032 5.875579 12.939635 30.242045 0.216646 1.128663 0.044990 -0.012212 654240.000000 0 0 1
25.585662 6.363379 13.718735 29.720740 0.243763 1.091012 0.048672 -0.016053 592055.000000 0 0 1
25.060262 7.527979 13.112535 29.268170 0.291819 1.106254 0.064776 -0.023857 36252.100000 0 0 1
23.915362 8.276079 13.932535 28.888640 0.333158 1.067536 0.062247 -0.022678 1226550.000000 0 0 1
22.606662 7.726279 13.803635 27.591609 0.329324 1.046870 0.060848 -0.014772 804298.000000 0 0 1
22.397162 6.422279 14.339635 27.358795 0.279253 1.019100 0.059967 -0.015191 -1268920.000000 0 0 1
20.975362 5.971879 14.002035 25.916908 0.277370 1.000043 0.069821 -0.007361 -535548.000000 0 0 1
20.700662 5.714979 12.639735 24.918693 0.269367 1.038818 0.070030 -0.008534 1708070.000000 0 1 0
19.583462 4.768979 12.428635 23.679656 0.238871 1.018239 0.061515 -0.009779 1063500.000000 0 1 0
19.320262 4.637479 10.904735 22.664774 0.235575 1.068851 0.061902 -0.012377 724443.000000 0 1 0
20.458562 3.974679 10.299835 23.247310 0.191889 1.111793 0.073197 -0.014691 1379690.000000 0 1 0
20.083262 3.580879 9.013335 22.302473 0.176447 1.154757 0.074483 -0.016788 175807.000000 0 1 0
21.242162 2.927879 8.216335 22.963233 0.136970 1.204881 0.076323 -0.012525 -526108.000000 0 1 0
21.646862 1.624379 8.547735 23.330002 0.074900 1.195677 0.073646 -0.008740 694045.000000 0 1 0
22.516462 0.989079 7.601135 23.785428 0.043899 1.245520 0.066166 -0.007657 955244.000000 0 1 0
24.065262 1.349579 7.581035 25.267178 0.056021 1.266067 0.066138 -0.014319 1490000.000000 0 0 1
24.888462 0.882979 8.680435 26.373569 0.035463 1.235410 0.043280 0.000250 935923.000000 0 0 1
24.478662 1.491979 9.898335 26.446321 0.060875 1.187176 0.044866 -0.003054 -617086.000000 0 0 1
25.118362 0.813579 11.178135 27.505358 0.032378 1.152287 0.032237 -0.003343 -303115.000000 0 0 1
26.510822 0.925579 11.217735 28.801353 0.034899 1.170722 0.026525 -0.002041 -295173.000000 0 0 1
27.076712 0.107079 12.231035 29.711244 0.003955 1.146518 0.023101 -0.010201 1036080.000000 0 0 1
28.641852 0.273679 12.348135 31.191457 0.009555 1.163768 0.036937 -0.010408 971389.000000 0 0 1
29.026852 1.489179 12.912035 31.804032 0.051259 1.152737 0.035852 -0.008597 361844.000000 0 0 1
30.449422 1.457979 13.013035 33.145619 0.047845 1.167337 0.038049 -0.005879 417531.000000 0 0 1
31.085092 2.780379 13.407435 33.967230 0.089207 1.165037 0.029184 -0.004965 -557153.000000 0 0 1
30.910952 3.709079 12.359335 33.496229 0.119421 1.192888 0.029309 -0.006040 285160.000000 0 0 1
31.671292 4.917579 12.511535 34.406276 0.154039 1.198623 0.024523 -0.008602 384072.000000 0 0 1
33.115872 4.815679 11.969135 35.540286 0.144407 1.227305 0.019417 -0.006860 -48265.800000 0 0 1
33.918202 3.882779 12.664035 36.412885 0.113979 1.215583 0.014389 -0.004477 159488.000000 0 0 1
35.298701 4.161679 12.497035 37.676169 0.117357 1.232696 0.015510 0.002251 638477.000000 0 0 1
-34.723866 3.132679 13.211235 37.284008 -0.089973 1.208588 0.031101 0.008981 -260146.000000 0 0 1
-34.675690 1.790079 12.701335 36.972040 -0.051578 1.220114 0.028383 0.009276 818181.000000 0 0 1
35.188784 0.906879 12.931335 37.500565 0.025766 1.218738 0.038147 0.009063 524040.000000 0 0 1
34.737772 0.511479 14.404135 37.609221 0.014723 1.177760 0.040188 0.004093 578991.000000 0 0 1
-35.239536 -0.212321 15.171935 38.367403 0.006025 1.164251 0.032496 0.007565 875396.000000 0 0 1
35.280770 -0.741621 16.422835 38.922901 -0.021017 1.135221 0.037968 0.002198 -40825.500000 0 0 1
-34.603016 -1.421221 17.297235 38.711535 0.041049 1.107584 0.028600 0.002041 51356.600000 0 0 1
-33.599319 -0.519821 17.684035 37.972484 0.015470 1.086363 0.033002 0.001016 -323966.000000 0 0 1
-32.648269 -1.027121 18.591335 37.584600 0.031450 1.053361 0.029780 -0.002422 -130961.000000 0 0 1
-32.895529 -0.950921 20.107735 38.566061 0.028899 1.022324 0.034515 -0.012370 -668552.000000 0 0 1
-33.906119 -1.768021 20.593935 39.709708 0.052097 1.025569 0.032417 -0.016229 -261204.000000 0 0 1
-33.920859 -1.610321 21.980335 40.451859 0.047437 0.996350 0.027633 -0.013897 50456.000000 0 0 1
-34.417717 -2.832621 22.746035 41.351966 0.082116 0.988361 0.021622 -0.011464 151676.000000 0 0 1
-33.510769 -3.944521 22.747235 40.693581 0.117170 0.977631 0.035048 -0.019545 455221.000000 0 0 1
-34.012829 -5.118321 23.398235 41.599845 0.149361 0.973439 0.036298 -0.022656 -45212.300000 0 0 1
-33.932319 -5.131621 24.962735 42.436705 0.150094 0.941922 0.029224 -0.021616 -331274.000000 0 0 1
-32.670539 -5.394721 25.518955 41.805313 0.163648 0.914201 0.035056 -0.017454 -564889.000000 0 0 1
-32.469329 -4.944021 26.840925 42.416222 0.151107 0.885634 0.032651 -0.023239 -104261.000000 0 0 1
-31.358529 -3.896421 27.006845 41.568126 0.123620 0.863606 0.021407 -0.012354 -428654.000000 0 0 1
-31.611059 -2.504821 26.813465 41.527040 0.079074 0.868874 0.017633 -0.007698 -260258.000000 0 0 1
-31.462809 -2.216521 25.387445 40.488809 0.070333 0.893070 0.013004 -0.010588 -274986.000000 0 0 1
-31.267349 -0.722321 25.109605 40.108118 0.023097 0.894322 0.019602 -0.003785 -394942.000000 0 0 1
-32.368989 0.026379 25.528615 41.224535 -0.000815 0.902999 0.022752 -0.021173 -408785.000000 0 0 1
-32.256379 1.408979 25.313245 41.027059 -0.043653 0.905885 0.013322 -0.005119 104170.000000 0 0 1
-33.573709 2.060979 24.798995 41.790330 -0.061310 0.935502 0.008056 -0.007028 231594.000000 0 0 1
-33.887689 1.603079 23.518035 41.280059 -0.047270 0.964632 0.010151 0.001000 -373312.000000 0 0 1
-34.985640 2.239379 22.922835 41.886348 -0.063921 0.991706 0.009305 0.008437 -76873.500000 0 0 1
-34.652919 3.624179 22.173135 41.299000 -0.104206 1.004047 0.007565 0.012319 -136294.000000 0 0 1
-33.937139 3.465679 20.980635 40.049062 -0.101768 1.019404 0.001520 0.006733 -334056.000000 0 0 1
-34.759023 3.151479 19.890035 40.171320 -0.090419 1.052812 0.020275 0.005233 -191606.000000 0 0 1
-34.043479 2.405979 18.714035 38.922516 -0.070556 1.069227 0.016912 0.006632 233399.000000 0 0 1
-33.215369 3.228679 17.884435 37.862093 -0.096900 1.078833 0.013030 0.003059 170578.000000 0 0 1
-32.839409 2.530479 16.722235 36.938641 -0.076904 1.101002 0.022951 0.009231 -66945.900000 0 0 1
-31.926169 3.336979 15.770735 35.764952 -0.104144 1.114134 0.016984 0.011079 20189.100000 0 0 1
-32.496039 4.594779 15.433335 36.266960 -0.140464 1.131229 0.023131 0.000668 -86595.900000 0 0 1
-31.700569 5.259579 14.487335 35.248718 -0.164417 1.147242 0.021440 0.002686 -711203.000000 0 0 1
-32.276149 6.541379 13.981435 35.777366 -0.199961 1.169307 0.038077 -0.007121 -392235.000000 0 0 1
-31.450449 7.149779 13.034735 34.787273 -0.223536 1.186725 0.035269 -0.004053 -355417.000000 0 0 1
-31.910639 8.421879 12.707235 35.365106 -0.258037 1.203262 0.047780 -0.010914 164744.000000 0 0 1
-30.980159 9.253179 11.722835 34.392098 -0.290246 1.222967 0.050078 -0.010771 56144.300000 0 0 1
-31.402719 10.555079 11.689835 35.131079 -0.324256 1.231579 0.053262 -0.011096 96140.800000 0 0 1
-30.548409 11.290579 10.820435 34.318570 -0.354025 1.250030 0.042825 -0.021098 -94348.700000 0 0 1
-30.863879 12.778179 10.690235 35.073380 -0.392532 1.261072 0.052474 -0.020311 44764.400000 0 0 1
-30.128309 13.447779 9.673035 34.382050 -0.419815 1.285606 0.036787 -0.014008 43942.500000 0 0 1
-30.242289 14.869579 9.834035 35.105678 -0.456971 1.286870 0.044915 -0.013147 -3470.730000 0 0 1
-29.302109 15.666579 8.888935 34.395762 -0.490987 1.309399 0.041041 -0.012184 303708.000000 0 0 1
-27.922529 15.512079 9.217135 33.245267 -0.507087 1.289869 0.043326 -0.009618 -24733.800000 0 0 1
-27.152479 16.211079 8.293935 32.693203 -0.538239 1.314303 0.030406 -0.024284 -950319.000000 0 0 1
-25.701309 16.247179 8.767335 31.644814 -0.563727 1.290069 0.035038 -0.017997 -1036920.000000 0 0 1
-25.411779 16.974479 9.931935 32.133079 -0.588909 1.256563 0.034660 -0.023221 37756.900000 0 0 1
-25.704469 18.377079 9.887035 33.108763 -0.620681 1.267547 0.030271 -0.028453 -351450.000000 0 0 1
-25.808189 18.980779 11.342035 33.984913 -0.634128 1.230531 0.044252 -0.014481 -41878.000000 0 0 1
-24.549789 19.130279 11.959235 33.341911 -0.661956 1.203938 0.025857 -0.006100 -110280.000000 0 0 1
-24.651989 19.533279 13.294035 34.146755 -0.670066 1.170902 0.039143 -0.014740 -131807.000000 0 0 1
-25.097219 18.518979 14.427835 34.365468 -0.635705 1.137533 0.029837 -0.006455 -124857.000000 0 0 1
-24.178789 17.493479 14.720935 33.276742 -0.626328 1.112547 0.040349 -0.013449 -172715.000000 0 0 1
-24.646389 16.654579 15.750535 33.658562 -0.594259 1.083826 0.043428 -0.004784 245.589000 0 0 1
-23.585389 15.630179 16.272535 32.639982 -0.585256 1.048876 0.037157 0.003313 288305.000000 0 0 1
-22.593389 16.181179 17.092435 32.625804 -0.621510 1.019381 0.037264 0.007054 -484003.000000 0 0 1
-21.597889 15.354479 17.602335 31.813064 -0.618021 0.984469 0.035784 0.002506 -228080.000000 0 0 1
-22.035689 14.280079 18.668335 32.217991 -0.574998 0.952757 0.031558 0.004139 -346179.000000 0 0 1
-22.323189 14.827779 19.904035 33.382007 -0.586315 0.931974 0.030425 0.008302 178925.000000 0 0 1
-22.648789 13.756279 20.813435 33.695725 -0.545824 0.904997 0.028319 0.010469 -532575.000000 0 0 1
-22.432289 14.019579 22.336635 34.621979 -0.558580 0.869567 0.019050 0.017186 1038860.000000 0 0 1
-21.021289 13.970779 22.631335 33.900657 -0.586571 0.839845 0.020495 0.010361 1348740.000000 0 0 1
-20.292689 15.221079 22.520535 33.921217 -0.643550 0.844765 0.020215 0.015692 -924682.000000 0 0 1
-18.820189 15.062779 22.888835 33.241323 -0.674956 0.811287 0.026073 0.013142 -296068.000000 0 0 1
-17.994589 14.633979 21.825035 31.847931 -0.682764 0.815796 0.019669 0.005848 -165193.000000 0 0 1
-17.627089 15.670279 20.936235 31.537245 -0.726698 0.844831 0.024849 0.013487 -1755140.000000 0 0 1
-16.601089 15.094779 19.900535 29.991328 -0.737910 0.845252 0.029001 0.014688 153177.000000 0 0 1
-15.380189 14.690479 20.437935 29.496941 -0.762466 0.805316 0.024951 0.011125 -590000.000000 0 0 1
-14.572289 15.747479 20.900835 29.952956 -0.824139 0.798491 0.025677 0.011495 -1395120.000000 0 0 1
-13.485189 15.355379 21.893535 29.949371 -0.850153 0.750983 0.011865 0.014757 -270943.000000 0 0 1
-12.328589 14.765579 21.380835 28.760329 -0.875102 0.732636 0.010448 0.011168 -272498.000000 0 0 1
-11.214289 14.733179 22.246035 28.943270 -0.920192 0.694134 0.014684 0.002933 -228355.000000 0 0 1
-10.056389 14.048779 21.566335 27.633421 -0.949532 0.675421 0.011487 0.002531 -1569940.000000 0 0 1
-9.683889 12.868779 22.276935 27.488998 -0.925691 0.625971 0.028264 -0.006302 -106536.000000 0 0 1
-8.435489 12.307779 22.021835 26.600754 -0.969951 0.595505 0.021780 0.001095 -553167.000000 0 0 1
-7.160289 13.083479 22.292335 26.821546 -1.070046 0.589650 0.016768 0.005268 -1462100.000000 0 0 1
-6.740189 13.950179 21.312635 26.348929 -1.120710 0.628583 0.015098 0.009636 -216893.000000 0 0 1
-5.998089 15.104479 21.671135 27.088013 -1.192787 0.643457 0.019871 0.012410 -293243.000000 0 0 1
-6.666489 16.153379 22.577535 28.550285 -1.179390 0.658683 0.016787 0.004479 1015640.000000 0 0 1
-7.856389 16.817879 22.051035 28.823810 -1.133776 0.699711 0.004840 0.006215 825270.000000 0 0 1
-7.523289 17.851779 21.148635 28.680144 -1.171953 0.741589 0.010595 0.014772 -1457660.000000 0 0 1
-8.607889 18.192779 20.102335 28.446033 -1.128860 0.785997 0.017247 0.021694 91516.600000 0 0 1
-9.619789 19.047779 20.543735 29.620993 -1.103129 0.804387 0.004052 0.024709 -882707.000000 0 0 1
-10.609289 18.384379 21.276735 30.053982 -1.047399 0.784204 0.006623 0.015714 -583915.000000 0 0 1
-11.968489 19.158979 21.215735 30.990621 -1.012417 0.816761 0.002287 0.014979 314987.000000 0 0 1
-12.663389 18.995479 20.021635 30.365367 -0.982803 0.850832 0.005944 0.015845 511054.000000 0 0 1
-13.849389 19.823379 20.000635 31.381480 -0.960984 0.879757 0.006756 0.012774 1085920.000000 0 0 1
-14.671789 19.832079 18.668535 30.936822 -0.933855 0.922987 0.014087 0.015374 -65677.300000 0 0 1
-15.277989 18.613979 18.376935 30.292060 -0.883512 0.918946 0.024355 0.015410 81724.300000 0 0 1
-15.896089 18.640479 17.097735 29.874498 -0.864695 0.961466 0.039014 0.003385 -1309900.000000 0 0 1
-16.580189 17.376979 16.575335 29.182251 -0.808858 0.966730 0.037027 0.005843 1061240.000000 0 0 1
-17.757389 16.921779 17.292535 30.011718 -0.761307 0.956734 0.034457 0.005486 1669600.000000 0 0 1
-18.860389 17.878279 17.284035 31.210335 -0.758672 0.983885 0.034299 0.004363 -133644.000000 0 0 1
33.727702 -9.883421 11.743101 37.055908 -0.285055 1.248335 0.022798 -0.011192 -94965.400000 0 0 1
32.401152 -10.363621 11.667801 35.963549 -0.309570 1.240383 0.020109 -0.008601 142359.000000 0 0 1
32.247932 -11.658521 12.217401 36.402131 -0.346907 1.228530 0.015277 -0.015502 -714067.000000 0 0 1
30.795582 -12.126621 12.312401 35.313142 -0.375131 1.214652 0.013158 -0.002367 -244984.000000 0 0 1
30.038482 -11.331821 13.241901 34.728497 -0.360736 1.179597 0.012051 0.010350 2051850.000000 0 0 1
28.591772 -11.552921 13.139201 33.520113 -0.384005 1.168014 0.011391 0.001995 1998850.000000 0 0 1
27.941332 -12.329621 14.338701 33.739234 -0.415569 1.131850 0.001400 -0.000261 -254879.000000 0 0 1
27.975102 -11.531521 15.483701 33.990106 -0.390985 1.097823 0.005880 0.000302 168725.000000 0 0 1
27.381032 -12.123421 16.649501 34.262284 -0.416823 1.063355 0.007336 -0.001966 -349220.000000 0 0 1
25.887562 -11.832121 16.839401 33.071595 -0.428708 1.036564 0.012489 -0.010729 -318757.000000 0 0 1
25.514362 -10.444521 17.014901 32.397184 -0.388548 1.017850 0.005377 -0.012801 -42092.800000 0 0 1
25.108162 -9.825521 15.805401 31.253341 -0.373008 1.040581 0.021096 -0.017277 -100508.000000 0 0 1
24.621462 -8.351921 15.991301 30.523641 -0.327033 1.019374 0.041212 -0.020030 458340.000000 0 0 1
25.722362 -7.525821 16.344701 31.391514 -0.284635 1.023158 0.021220 -0.015721 323234.000000 0 0 1
25.286262 -6.176321 16.555401 30.848392 -0.239565 1.004311 0.031263 -0.021037 186194.000000 0 0 1
26.430962 -5.127021 16.526701 31.591358 -0.191598 1.020265 0.030944 -0.017176 51635.000000 0 0 1
26.907122 -4.888621 15.239801 31.307241 -0.179725 1.062394 0.036034 -0.011742 -49391.700000 0 0 1
28.063322 -4.098821 15.292901 32.221471 -0.145031 1.076266 0.036399 -0.008756 -409488.000000 0 0 1
28.381042 -3.494421 13.879501 31.785768 -0.122509 1.118916 0.042038 -0.007252 -412853.000000 0 0 1
28.768752 -4.447321 12.911601 31.845395 -0.153375 1.153329 0.038394 0.000903 466991.000000 0 0 1
29.025962 -3.796421 11.678201 31.516657 -0.130056 1.191205 0.041499 -0.006227 -279786.000000 0 0 1
29.426022 -4.666221 10.495301 31.588221 -0.157265 1.232104 0.047148 -0.003305 -498632.000000 0 0 1
30.721262 -5.193821 10.500001 32.878895 -0.167479 1.245749 0.066466 -0.007621 -228191.000000 0 0 1
31.096712 -5.823421 9.331801 32.984848 -0.185124 1.283968 0.066153 -0.010745 73833.400000 0 0 1
32.515132 -6.445721 9.428301 34.462646 -0.195700 1.293683 0.054130 -0.012269 -46147.900000 0 0 1
33.571452 -5.584121 9.110301 35.230986 -0.164826 1.309236 0.051459 -0.012270 -183552.000000 0 0 1
34.784322 -6.316921 9.129501 36.513016 -0.179645 1.318081 0.057927 -0.014069 755684.000000 0 0 1
-34.958723 -5.542621 8.551501 36.413749 0.157239 1.333740 0.051543 -0.012788 523112.000000 0 0 1
-34.964411 -5.154221 7.227301 36.073673 0.146359 1.369083 0.054824 -0.015788 95184.300000 0 0 1
-33.861579 -4.317621 6.927301 34.831536 0.126824 1.370581 0.040865 0.001225 -152463.000000 0 0 1
-33.838209 -3.689921 5.519201 34.483351 0.108617 1.410051 0.050699 -0.015526 -368191.000000 0 0 1
-33.023929 -4.280421 4.559701 33.610902 0.128897 1.434715 0.051697 -0.015057 -53290.300000 0 0 1
-33.267319 -3.452621 3.433501 33.621779 0.103414 1.468497 0.046326 -0.011142 -98584.300000 0 0 1
-32.516219 -3.810821 2.127301 32.807808 0.116665 1.505910 0.043691 -0.008070 -178441.000000 0 0 1
-32.984229 -4.857921 1.317401 33.366065 0.146229 1.531303 0.047605 -0.004677 -204222.000000 0 0 1
-34.237703 -4.595821 0.726101 34.552411 0.133435 1.549780 0.041098 -0.010070 -214794.000000 0 0 1
-34.176532 -4.905721 -0.815799 34.536458 0.142567 1.594420 0.059570 -0.009956 -500315.000000 0 0 1
-34.091458 -6.319521 -1.077999 34.688989 0.183289 1.601877 0.066218 -0.018080 -117800.000000 0 0 1
-33.487489 -6.654621 -2.293599 34.219242 0.196164 1.637873 0.053492 -0.015017 457346.000000 0 0 1
-31.935229 -6.467121 -2.445999 32.675150 0.199805 1.645725 0.034043 -0.010834 289779.000000 0 0 1
-31.216659 -7.419421 -1.711499 32.131866 0.233346 1.624086 0.031672 -0.010933 -297702.000000 0 0 1
-29.978269 -6.898321 -1.306099 30.789435 0.226174 1.613229 0.031158 -0.021100 -136042.000000 0 0 1
-29.248599 -7.806721 -0.254599 30.273590 0.260829 1.579206 0.019682 -0.009843 -57133.800000 0 0 1
-28.786399 -9.046621 -0.702099 30.182628 0.304494 1.594060 0.025757 -0.004448 356059.000000 0 0 1
-28.474089 -9.906921 0.348901 30.150333 0.334827 1.559224 0.030550 0.003658 -169345.000000 0 0 1
-28.108959 -11.321421 -0.173699 30.303767 0.382891 1.576528 0.026827 0.003196 506964.000000 0 0 1
-26.756019 -11.305321 -0.687999 29.054572 0.399780 1.594478 0.024785 0.002558 1174530.000000 0 0 1
-26.354229 -12.662421 -0.997699 29.255387 0.447902 1.604906 0.023921 0.003727 -74434.900000 0 0 1
-27.176999 -13.415421 -2.092299 30.379936 0.458540 1.639722 0.017535 0.000215 -112596.000000 0 0 1
-28.296699 -14.102921 -1.547499 31.654230 0.462362 1.619703 0.028484 -0.010287 267718.000000 0 0 1
-28.720849 -15.085821 -2.422099 32.532072 0.483648 1.645318 0.034941 -0.014640 -332202.000000 0 0 1
-29.707959 -16.091921 -1.815199 33.835007 0.496426 1.624471 0.039684 -0.013691 -362068.000000 0 0 1
-29.093699 -16.857021 -0.818399 33.634391 0.525138 1.595131 0.012307 -0.002743 -115483.000000 0 0 1
-29.916199 -17.668821 -0.003399 34.744297 0.533487 1.570894 0.022480 0.004563 -408872.000000 0 0 1
-29.933569 -19.147321 -0.363799 35.535487 0.569072 1.581034 0.029356 0.003295 14163.500000 0 0 1
-28.729409 -19.858621 -0.112699 34.925012 0.604816 1.574023 0.035695 -0.002156 208187.000000 0 0 1
-28.809989 -21.274421 -0.209699 35.814249 0.636061 1.576652 0.048507 -0.007115 -94666.000000 0 0 1
-29.660549 -22.010521 0.854301 36.945108 0.638413 1.547671 0.048166 -0.004164 -472343.000000 0 0 1
-29.040339 -22.305121 2.080401 36.676802 0.654968 1.514043 0.043770 0.000110 -308662.000000 0 0 1
-29.881859 -22.648021 3.163901 37.628030 0.648550 1.486613 0.042710 -0.000944 -78179.300000 0 0 1
-29.049939 -22.848821 4.452701 37.226256 0.666477 1.450897 0.029035 -0.001303 -254166.000000 0 0 1
-28.524849 -21.694521 5.051701 36.191697 0.650218 1.430757 0.020699 0.001666 -95300.600000 0 0 1
-28.048799 -21.771321 6.366801 36.073005 0.660056 1.393369 0.005382 0.001113 42272.000000 0 0 1
-27.663949 -20.404921 6.889201 35.058750 0.635518 1.373005 0.000034 0.004710 -135233.000000 0 0 1
-26.835719 -20.435021 7.999001 34.665976 0.650812 1.337953 -0.003435 0.000588 -361130.000000 0 0 1
-26.327199 -19.172921 8.374501 33.628181 0.629439 1.319115 0.007300 -0.004227 576288.000000 0 0 1
-25.308999 -19.203121 9.591901 33.185989 0.649076 1.277578 0.015818 -0.000656 231746.000000 0 0 1
-25.821329 -19.702721 10.782401 34.222776 0.651795 1.250271 0.004257 -0.005288 -798688.000000 0 0 1
-24.884089 -19.898521 11.772101 33.966916 0.674526 1.216878 0.016586 -0.001766 -774983.000000 0 0 1
-24.521089 -18.642121 12.652801 33.300238 0.650028 1.181042 0.015726 -0.012357 -475107.000000 0 0 1
-23.549689 -17.771921 12.078201 31.879648 0.646474 1.182223 0.013136 -0.013955 185292.000000 0 0 1
-23.235889 -16.649521 12.891001 31.357471 0.621743 1.147138 0.016845 -0.003943 257090.000000 0 0 1
-22.404389 -16.983521 14.159001 31.478150 0.648630 1.104250 0.025797 -0.006687 -347485.000000 0 0 1
-23.222189 -17.505021 15.161301 32.795745 0.645932 1.090215 0.019402 -0.011982 373044.000000 0 0 1
-22.333689 -18.041321 16.150501 32.941184 0.679484 1.058382 0.034693 -0.007569 297279.000000 0 0 1
-23.135389 -18.616821 17.316601 34.375819 0.677594 1.042869 0.032831 0.005232 380045.000000 0 0 1
-23.853689 -17.670021 18.122701 34.780173 0.637566 1.022699 0.036007 0.002648 827757.000000 0 0 1
-24.932189 -18.236121 18.886201 36.205783 0.631509 1.022030 0.030635 0.004837 791461.000000 0 0 1
-25.881989 -17.197221 19.586201 36.732016 0.586465 1.008396 0.032644 0.008495 129697.000000 0 0 1
-25.415149 -16.729421 20.842401 36.881011 0.582150 0.970211 0.034242 0.011712 217174.000000 0 0 1
-26.229469 -15.722221 21.444601 37.350290 0.539986 0.959233 0.037058 0.006041 173885.000000 0 0 1
-25.432759 -14.995221 22.575501 37.166317 0.532739 0.917990 0.030572 0.006090 369620.000000 0 0 1
-24.315989 -14.312921 22.048301 35.808583 0.532011 0.907488 0.029808 0.007807 -35827.400000 0 0 1
-23.511789 -13.663521 22.995501 35.613047 0.526433 0.868851 0.024426 0.008352 1613.670000 0 0 1
-22.385089 -12.794921 22.434901 34.177873 0.519262 0.854738 0.023369 0.011140 20541.400000 0 0 1
-22.959689 -11.739621 21.653801 33.672735 0.472658 0.872301 0.026806 0.015007 1011800.000000 0 0 1
-21.946789 -10.872721 21.124601 32.343877 0.459971 0.859092 0.026708 0.012192 -96099.200000 0 0 1
-21.734589 -9.568921 21.941701 32.332566 0.414727 0.824907 0.024416 0.012296 95428.500000 0 0 1
-21.134989 -9.718821 23.239201 32.881662 0.431011 0.785899 0.019165 0.013383 -15161.200000 0 0 1
-19.751289 -9.925221 23.177301 32.028280 0.465654 0.761718 0.002525 0.011591 -620670.000000 0 0 1
-19.032189 -10.147221 24.533201 32.666011 0.489823 0.721173 0.001734 0.015454 330725.000000 0 0 1
-19.457889 -11.341121 25.182701 33.784595 0.527717 0.729677 0.012436 0.012630 258470.000000 0 0 1
-18.650989 -11.440821 26.344701 34.246095 0.550226 0.693089 0.014431 0.014831 -694858.000000 0 0 1
-18.642489 -12.831521 27.084401 35.295256 0.602827 0.696072 0.020217 -0.009485 -536715.000000 0 0 1
-19.765589 -13.121621 27.883801 36.610952 0.586058 0.704980 0.016776 -0.008994 -1389900.000000 0 0 1
-20.908789 -13.318521 27.140801 36.758448 0.567169 0.740168 0.004628 -0.001937 -1786280.000000 0 0 1
-22.136489 -13.452021 28.022901 38.161027 0.546051 0.746113 -0.001804 -0.003973 -843759.000000 0 0 1
-22.288389 -14.607721 28.793301 39.232792 0.580159 0.746737 0.002443 -0.006134 2547.310000 0 0 1
-21.327289 -14.757521 29.844401 39.538917 0.605306 0.715431 -0.002269 -0.008925 160329.000000 0 0 1
-21.828889 -15.758621 30.914101 40.994099 0.625284 0.716497 -0.006924 -0.010015 -553184.000000 0 0 1
-21.815589 -17.140221 30.511001 41.238674 0.665952 0.737928 0.001250 -0.012651 -106466.000000 0 0 1
-21.832689 -18.032221 31.622401 42.447656 0.690352 0.730300 0.008290 -0.016470 -619355.000000 0 0 1
-23.212089 -18.310221 32.210901 43.721933 0.667888 0.742587 0.012568 -0.014465 -667322.000000 0 0 1
-23.730489 -17.159021 32.880001 44.030246 0.626048 0.727620 0.013463 -0.010098 -135888.000000 0 0 1
-24.895189 -17.522121 33.598901 45.339622 0.613296 0.736164 0.024597 -0.012846 -68503.600000 0 0 1
-25.613009 -16.434421 34.397101 45.926865 0.570478 0.724315 0.023356 -0.006497 -102104.000000 0 0 1
-25.043689 -16.233121 -33.189833 44.634803 0.575103 2.409215 0.020468 -0.007508 -231640.000000 0 0 1
-25.752709 -15.259021 -32.478133 44.168641 0.534902 2.396937 0.044042 -0.005956 -336692.000000 0 0 1
-25.098879 -14.920121 -31.111433 42.667142 0.536331 2.387899 0.040832 -0.000082 -22598.700000 0 0 1
-25.610749 -15.718721 -30.073233 42.513386 0.550472 2.356585 0.036824 0.005674 11315.500000 0 0 1
-25.048589 -15.315221 -28.862833 41.170996 0.548775 2.347662 0.033549 0.009674 -451605.000000 0 0 1
-25.588949 -16.043121 -27.630433 40.934299 0.560004 2.311754 0.028792 0.009810 -91066.200000 0 0 1
-26.784349 -15.489721 -27.098833 41.130032 0.524320 2.290095 0.037725 0.004309 224833.000000 0 0 1
-26.744899 -14.182221 -26.524333 40.248792 0.487575 2.290297 0.036816 0.002355 -1196850.000000 0 0 1
-25.873639 -14.014821 -25.299533 38.806272 0.496421 2.280942 0.019295 0.005100 1005740.000000 0 0 1
-24.487889 -13.898821 -25.733933 38.145370 0.516240 2.311257 -0.001189 0.011705 2009650.000000 0 0 1
-23.421789 -14.068821 -24.771933 36.880355 0.540914 2.307275 -0.000405 0.010620 873319.000000 0 0 1
-22.936489 -15.537721 -24.613333 37.058325 0.595413 2.297190 -0.006198 0.014655 -645613.000000 0 0 1
-22.360889 -16.007621 -25.784233 37.697214 0.621302 2.324004 0.003061 0.021932 -72796.200000 0 0 1
-22.150289 -17.406021 -25.725433 38.149742 0.666031 2.310850 0.020386 0.016016 429733.000000 0 0 1
-21.142089 -17.911421 -26.846933 38.581923 0.702862 2.340388 0.016737 0.018525 531205.000000 0 0 1
-21.647289 -17.799821 -28.178333 39.742385 0.688171 2.358911 0.023372 0.010104 431920.000000 0 0 1
-22.718289 -18.725221 -28.384433 40.895362 0.689345 2.337930 0.035204 -0.003764 10195.100000 0 0 1
-23.416789 -18.646321 -29.720633 42.182311 0.672469 2.352621 0.028735 -0.004298 -504396.000000 0 0 1
-22.612489 -19.150521 -30.740833 42.697376 0.702692 2.374556 0.025094 -0.012073 -61986.100000 0 0 1
-23.083289 -18.861121 -32.022533 43.749546 0.685075 2.391978 0.017596 -0.004448 -474343.000000 0 0 1
-22.128589 -19.293321 -33.122233 44.260468 0.717056 2.416364 0.019825 -0.011861 239319.000000 0 0 1
-20.935489 -18.487421 -33.313233 43.472416 0.723380 2.443870 0.022227 -0.008323 1872040.000000 0 0 1
-19.673689 -19.164821 -33.136433 43.039140 0.772297 2.449503 0.030081 -0.019484 845466.000000 0 0 1
-19.317089 -20.274221 -34.162133 44.172902 0.809569 2.454941 0.035454 -0.025535 -1203900.000000 0 0 1
-19.047289 -19.802021 33.373801 43.228808 0.804823 0.688772 0.030105 -0.023879 100568.000000 0 0 1
-18.836289 -20.907221 32.545901 43.025032 0.837459 0.712942 0.034790 -0.028394 -265961.000000 0 0 1
-20.120689 -21.498721 31.932001 43.436043 0.818496 0.744909 0.040140 -0.022981 -57914.000000 0 0 1
-20.944989 -22.103921 32.935401 44.855507 0.812313 0.746227 0.034771 -0.022600 211445.000000 0 0 1
-22.127889 -22.722721 32.440501 45.369060 0.798660 0.774121 0.037396 -0.020316 42587.700000 0 0 1
-21.971389 -23.985221 31.544701 45.311157 0.829190 0.800735 0.049542 -0.016747 -697335.000000 0 0 1
-21.578989 -25.166261 32.233901 46.238705 0.861989 0.799424 0.054166 -0.012309 50862.100000 0 0 1
-21.769789 -26.354551 31.503601 46.486159 0.880381 0.826168 0.049281 -0.006016 -59358.900000 0 0 1
-21.081389 -27.552161 32.222601 47.348100 0.917673 0.822288 0.055125 -0.013048 10496.300000 0 0 1
-21.830689 -27.984811 33.339301 48.695355 0.908314 0.816672 0.033551 -0.012106 257204.000000 0 0 1
-21.226889 -29.085331 33.999601 49.522825 0.940340 0.814071 0.032430 -0.014520 -1045680.000000 0 0 1
-22.329089 -29.696251 -34.033233 50.385677 0.926070 2.312377 0.021731 -0.014517 -751808.000000 0 0 1
-23.274189 -30.446771 34.033801 51.254203 0.918129 0.844614 0.019896 -0.008817 808174.000000 0 0 1
-24.336989 -29.680231 33.463501 50.921617 0.883995 0.853755 0.020931 -0.004632 -874864.000000 0 0 1
-25.419229 -29.262691 -34.411933 51.832648 0.855570 2.296824 0.017423 -0.008218 -1265420.000000 0 0 1
-26.482709 -28.547571 33.829701 51.582423 0.822903 0.855504 0.018085 -0.003700 -6776.210000 0 0 1
-27.262919 -28.008131 -33.984533 51.794504 0.798880 2.286491 0.009154 0.003615 -283194.000000 0 0 1
-28.423709 -27.103201 -34.426533 52.227166 0.761621 2.290510 0.005294 -0.003628 -43403.400000 0 0 1
-29.556649 -27.859951 34.022501 52.983988 0.755856 0.873525 0.019991 -0.000777 -731219.000000 0 0 1
-30.527729 -26.925611 33.703301 52.847358 0.722784 0.879225 0.018333 -0.010290 -546234.000000 0 0 1
