# x y z rho theta phi s1 s2 stress_xx np intf bulk
-0.749409 -10.804454 -14.457310 18.064098 1.501546 2.498648 -0.003380 0.003527 85730.400000 1 0 0
2.052991 -13.431854 -12.943510 18.766031 -1.419125 2.331914 -0.006575 0.010700 271078.000000 1 0 0
2.169991 -11.188554 -14.692010 18.594294 -1.379227 2.481826 -0.001023 0.006268 1283510.000000 1 0 0
-5.511609 -6.324454 -16.442810 18.459213 0.853966 2.669821 0.010874 -0.005870 -325320.000000 1 0 0
4.458091 -14.071654 -11.525810 18.727795 -1.263987 2.233739 -0.010096 0.009048 1335190.000000 1 0 0
14.095791 -10.576054 -7.904810 19.313991 -0.643692 1.992460 0.030691 -0.008470 331096.000000 1 0 0
7.072291 10.711246 -10.840810 16.800930 0.987237 2.272148 0.021029 -0.014691 -388871.000000 1 0 0
5.696491 -4.274154 -12.630710 14.500112 -0.643702 2.628187 -0.001335 -0.001751 1545220.000000 1 0 0
13.702591 0.554046 -10.010610 16.978818 0.040412 2.201352 0.019449 -0.006162 625836.000000 1 0 0
14.049091 4.984946 -10.329210 18.136130 0.340965 2.176740 0.018331 -0.006951 -225018.000000 1 0 0
4.006891 4.247346 -13.432910 14.647122 0.814521 2.731546 0.000527 -0.002728 2467130.000000 1 0 0
10.266791 -5.136154 -13.544110 17.754717 -0.463863 2.438499 0.016223 -0.005902 637471.000000 1 0 0
2.562891 -7.607654 -12.200010 14.604282 -1.245854 2.559606 -0.000511 0.002100 1849400.000000 1 0 0
-5.549309 -1.996954 -15.122910 16.232223 0.345428 2.769751 0.006082 -0.004349 -746408.000000 1 0 0
10.733491 0.050246 -9.652110 14.435151 0.004681 2.303192 0.012289 -0.003517 229234.000000 1 0 0
-1.648509 -9.568154 -16.957610 19.540412 1.400180 2.621599 0.006649 -0.003737 1851500.000000 1 0 0
8.403091 1.740146 -18.000710 19.941555 0.204198 2.696738 0.008892 -0.005451 626988.000000 1 0 0
16.476091 -5.958854 -8.843610 19.625976 -0.347030 2.038242 0.032152 -0.004807 -695293.000000 1 0 0
10.116691 7.561646 -9.930710 16.066889 0.641862 2.237101 0.010979 -0.006687 90010.600000 1 0 0
13.823691 -2.242854 -10.585310 17.554874 -0.160846 2.218033 0.024618 -0.007550 -601739.000000 1 0 0
7.258791 -1.950654 -13.668010 15.598384 -0.262528 2.638810 0.006893 -0.004694 1205570.000000 1 0 0
-2.870609 6.702646 -13.813810 15.620090 -1.166151 2.655921 0.000227 -0.004758 -716768.000000 1 0 0
11.234591 1.772546 -14.054510 18.080022 0.156486 2.461239 0.025285 -0.006191 -212449.000000 1 0 0
-2.291709 10.659146 -12.803910 16.816939 -1.359021 2.436220 0.001316 -0.004162 -1459200.000000 1 0 0
2.787491 -1.156754 -15.232110 15.528212 -0.393353 2.945993 -0.004506 -0.005410 1050400.000000 1 0 0
-8.958709 0.488446 -15.312310 17.747222 -0.054468 2.611579 0.004091 0.003630 -1141480.000000 1 0 0
2.467691 -1.819854 -18.046210 18.304837 -0.635435 2.973294 0.003027 -0.010545 1528700.000000 1 0 0
1.015091 7.751346 -13.164310 15.310546 1.440581 2.605713 0.003161 -0.004686 -440367.000000 1 0 0
9.382391 -9.193154 -9.771610 16.371552 -0.775211 2.210385 0.019789 0.000194 142551.000000 1 0 0
3.887891 7.174646 -13.564210 15.829688 1.074199 2.599991 0.006196 -0.003286 225981.000000 1 0 0
-2.726609 9.199646 -15.462410 18.197637 -1.282662 2.586200 -0.002659 -0.002405 -263050.000000 1 0 0
5.532891 -7.703954 -15.402310 18.088531 -0.947967 2.589628 0.006011 -0.000464 1004560.000000 1 0 0
4.229791 7.201746 -16.443210 18.442761 1.039746 2.671620 0.011370 -0.001053 757194.000000 1 0 0
-0.277109 5.052046 -13.413110 14.335672 -1.516000 2.780881 0.002271 -0.004351 2540180.000000 1 0 0
8.733891 4.302946 -16.596510 19.241630 0.457768 2.611048 0.016911 -0.002230 318705.000000 1 0 0
5.283691 0.229246 -14.304610 15.250961 0.043360 2.787461 -0.004583 -0.002280 868599.000000 1 0 0
6.183591 7.857146 -11.584710 15.302844 0.904031 2.429552 0.005717 -0.005116 300212.000000 1 0 0
2.732991 -8.424954 -15.148010 17.547401 -1.257114 2.612494 0.002564 0.002162 1274570.000000 1 0 0
3.945491 11.537246 -13.842410 18.446877 1.241285 2.419453 0.024790 -0.009603 -1765730.000000 1 0 0
0.607891 -4.535754 -13.744210 14.486059 -1.437568 2.820176 0.001186 -0.002235 615772.000000 1 0 0
8.479491 -0.089254 -11.637210 14.399111 -0.010525 2.511868 0.005235 -0.004058 2415420.000000 1 0 0
-0.852109 -5.044654 -16.370410 17.151237 1.403463 2.838688 0.002892 -0.007948 633645.000000 1 0 0
4.406391 0.780846 -11.640110 12.470692 0.175387 2.774563 -0.000966 -0.004650 289605.000000 1 0 0
-2.853309 -7.239054 -15.596710 17.429935 1.195339 2.678831 -0.001084 -0.003842 2351860.000000 1 0 0
11.385391 -3.745754 -11.312810 16.481428 -0.317842 2.327320 0.020027 -0.006846 265051.000000 1 0 0
6.526191 -7.118154 -12.598410 15.873853 -0.828756 2.487595 0.008985 -0.000129 -349274.000000 1 0 0
3.418891 -4.007954 -14.636310 15.555516 -0.864548 2.796098 -0.000992 -0.003982 2407450.000000 1 0 0
-0.488909 -1.626354 -18.461410 18.539356 1.278774 3.049862 0.010936 -0.013184 1219720.000000 1 0 0
14.915391 2.942346 -8.471510 17.403815 0.194768 2.079175 0.023538 -0.006285 -1846260.000000 1 0 0
6.867691 4.318146 -14.247510 16.395216 0.561300 2.623982 0.008229 -0.003667 3505200.000000 1 0 0
10.245791 -9.696654 -13.858010 19.774877 -0.757869 2.347299 0.042477 -0.015222 330338.000000 1 0 0
9.021591 -3.317054 -15.548610 18.279804 -0.352337 2.587902 0.017640 -0.012826 -1414390.000000 1 0 0
-5.241609 -2.085954 -18.041410 18.902861 0.378747 2.838532 0.000615 0.000526 10171.300000 1 0 0
5.048191 -9.151154 -11.254910 15.359064 -1.066691 2.393204 -0.002238 0.005828 2014210.000000 1 0 0
-2.454009 3.895146 -17.143810 17.751184 -1.008597 2.879246 0.003691 -0.002218 1947590.000000 1 0 0
9.490991 9.231846 -14.490410 19.628496 0.771558 2.401244 0.026241 -0.009119 349423.000000 1 0 0
9.812491 10.016346 -11.556410 18.170382 0.795679 2.260103 0.016501 -0.013528 -625203.000000 1 0 0
12.051091 -5.945954 -9.683110 16.563387 -0.458350 2.195195 0.027543 -0.006150 182792.000000 1 0 0
8.042391 6.849246 -13.639510 17.251912 0.705447 2.482599 0.014464 -0.004699 540923.000000 1 0 0
4.055591 -4.204654 -17.527410 18.475309 -0.803442 2.819875 0.008430 -0.011861 615028.000000 1 0 0
9.306791 -7.580954 -12.254110 17.153729 -0.683557 2.366520 0.020022 -0.007038 -990410.000000 1 0 0
12.071591 -8.639654 -8.745310 17.229259 -0.621186 2.103176 0.027974 -0.007352 524463.000000 1 0 0
-2.929909 -2.564754 -13.956410 14.489434 0.719039 2.869508 0.004350 -0.004724 -2164890.000000 1 0 0
-0.502109 6.044846 -17.634010 18.648072 -1.487923 2.810295 0.011942 -0.001996 998194.000000 1 0 0
1.028691 -8.530654 -17.580210 19.567679 -1.450788 2.686980 0.008603 -0.008476 1474010.000000 1 0 0
0.034991 8.439146 -16.001810 18.090836 1.566650 2.656273 0.004195 -0.001833 -446165.000000 1 0 0
1.723691 3.308046 -14.945210 15.403687 1.090443 2.896999 0.004999 -0.004048 1830890.000000 1 0 0
-1.881609 -0.504054 -15.977510 16.095818 0.261739 3.020273 0.005607 -0.006084 713004.000000 1 0 0
14.167091 -4.297854 -8.525010 17.083729 -0.294545 2.093256 0.025294 -0.005390 1997140.000000 1 0 0
0.524591 0.549646 -14.646010 14.665705 0.808718 3.089761 0.002427 -0.005915 1585030.000000 1 0 0
8.822291 2.674146 -12.600910 15.613033 0.294310 2.509980 0.010295 -0.001998 2390390.000000 1 0 0
5.724491 0.949646 -17.114010 18.070998 0.164395 2.814694 0.003217 -0.003364 -723251.000000 1 0 0
15.313991 1.511046 -12.397010 19.760755 0.098353 2.248948 0.031009 -0.013311 -1333100.000000 1 0 0
8.824691 -11.371354 -11.919910 18.688689 -0.910833 2.262453 0.029434 -0.000872 984964.000000 1 0 0
-4.552809 0.752046 -15.130510 15.818533 -0.163705 2.845573 0.005492 -0.003083 589019.000000 1 0 0
2.301791 5.020246 -17.290510 18.151111 1.140895 2.832424 0.008371 -0.002432 2998520.000000 1 0 0
5.957391 -11.762454 -12.477210 18.152867 -1.101982 2.328618 0.007117 0.005644 1715920.000000 1 0 0
12.750691 7.133946 -8.628610 16.968389 0.510104 2.104251 0.014558 -0.005371 440429.000000 1 0 0
-5.010009 3.605946 -15.735310 16.902752 -0.623857 2.767753 0.000394 -0.001500 871469.000000 1 0 0
-0.468709 -4.495354 -19.115310 19.642377 1.466906 2.909412 0.012978 -0.015831 -2886230.000000 1 0 0
9.727291 4.434146 -10.259810 14.817069 0.427705 2.335651 0.005881 0.001549 1035220.000000 1 0 0
13.297391 3.595146 -12.921210 18.886592 0.264052 2.324230 0.023288 -0.008946 587897.000000 1 0 0
-6.055609 5.955346 -17.187410 19.171427 -0.777051 2.682628 -0.007601 0.002996 -1521860.000000 1 0 0
-10.209409 3.136246 -15.468910 18.797746 -0.298042 2.537316 0.010535 0.002114 -76159.800000 1 0 0
10.691091 13.399046 -8.342610 19.063919 0.897338 2.023738 0.023801 -0.013292 928382.000000 1 0 0
7.410691 13.313346 -12.302010 19.583232 1.062872 2.250022 0.034108 -0.015148 179299.000000 1 0 0
5.347991 15.139046 -11.206810 19.580202 1.231222 2.180170 0.032066 -0.016445 -533298.000000 1 0 0
14.161891 9.387246 -9.821010 19.624775 0.585357 2.094903 0.040732 -0.010553 -567535.000000 1 0 0
8.322391 -17.298854 -1.855910 19.286185 -1.122387 1.667175 0.026852 0.004321 -744626.000000 1 0 0
0.702491 -15.975754 0.054590 15.991285 -1.526852 1.567383 0.010108 -0.008046 3495850.000000 1 0 0
-9.196309 -11.757554 7.601490 16.750965 0.907027 1.099778 0.011773 -0.006381 1105720.000000 1 0 0
2.070991 -15.862954 -2.510210 16.193315 -1.440975 1.726439 0.006911 -0.001304 2473620.000000 1 0 0
-1.379309 -11.048454 -9.426010 14.588368 1.446597 2.273302 -0.003071 0.003669 1372820.000000 1 0 0
-4.765209 -12.663554 -13.037910 18.789889 1.210892 2.337658 0.004070 0.002924 723796.000000 1 0 0
-8.209809 -17.646254 -1.842810 19.549608 1.135338 1.665200 -0.001467 -0.010376 -1585730.000000 1 0 0
-11.428709 -7.001854 -8.934910 16.108196 0.549673 2.158776 0.015502 -0.009535 2061220.000000 1 0 0
-13.499209 -11.510254 -4.728510 18.359559 0.706037 1.831282 0.006991 0.001692 -773202.000000 1 0 0
-5.684609 -13.438754 9.757390 17.553391 1.170620 0.981388 0.006579 -0.010166 893638.000000 1 0 0
0.196591 -13.974654 -3.663010 14.448088 -1.556730 1.827123 0.007813 0.001223 -143328.000000 1 0 0
-14.673609 -11.512654 1.976590 18.755344 0.665269 1.465212 -0.001860 -0.000791 -1207230.000000 1 0 0
-4.029009 -16.487154 -7.502510 18.556584 1.331121 1.987015 -0.003012 -0.005250 -179621.000000 1 0 0
0.543091 -15.311854 -9.214110 17.878692 -1.535343 2.112234 -0.002150 0.009954 1253960.000000 1 0 0
4.582491 -14.163754 -2.507110 15.096249 -1.257889 1.737644 0.001875 0.007884 1183220.000000 1 0 0
-3.559609 -18.111154 -2.402710 18.613375 1.376728 1.700243 -0.007600 -0.008814 -798277.000000 1 0 0
-0.885609 -13.470654 0.674390 13.516568 1.505147 1.520882 0.008368 -0.004028 2825590.000000 1 0 0
-8.390709 -11.267854 -10.584710 17.589901 0.930722 2.216486 0.007803 -0.006139 2180510.000000 1 0 0
-3.681309 -14.133554 -0.369510 14.609789 1.315992 1.596091 0.000999 -0.002370 4034920.000000 1 0 0
-1.564709 -14.956154 -7.275010 16.705108 1.466556 2.021386 -0.003233 0.002459 536340.000000 1 0 0
-14.266109 -7.838754 -1.906810 16.389138 0.502434 1.687406 0.010280 0.000111 2283280.000000 1 0 0
-10.674509 -7.273354 -11.720210 17.441621 0.598117 2.307659 0.013274 -0.009742 774361.000000 1 0 0
-9.443009 -14.736954 6.929290 18.824540 1.000937 1.193833 0.001980 0.000701 -366887.000000 1 0 0
-2.558309 -14.425354 -12.385510 19.184281 1.395273 2.272614 0.004527 0.006019 225693.000000 1 0 0
2.374991 -17.730554 -4.698710 18.495702 -1.437640 1.827655 0.007765 0.002379 1146410.000000 1 0 0
-6.472309 -9.701354 -9.295410 14.913474 0.982456 2.243738 0.002529 -0.005556 -519924.000000 1 0 0
-10.928509 -15.272254 0.522490 18.786885 0.949691 1.542981 -0.003638 0.004020 280.670000 1 0 0
-12.627609 -10.937754 4.070790 17.194834 0.713811 1.331782 0.009627 0.000778 2041660.000000 1 0 0
-17.000609 -8.897954 -1.498710 19.246829 0.482184 1.648743 0.002514 -0.000992 -1029940.000000 1 0 0
-1.473609 -19.285654 -3.926710 19.736439 1.494535 1.771090 0.001963 -0.004620 -1096210.000000 1 0 0
3.304391 -14.280154 -8.812410 17.102642 -1.343401 2.112114 -0.004862 0.011531 1808540.000000 1 0 0
-4.260709 -8.030054 -13.068910 15.919542 1.082973 2.533843 -0.001371 -0.000696 641616.000000 1 0 0
5.462791 -16.681954 1.300790 17.601753 -1.254335 1.496828 0.021701 -0.003258 4790740.000000 1 0 0
-2.740009 -13.815254 -3.172510 14.437233 1.375005 1.792349 0.000098 -0.001422 -530166.000000 1 0 0
-0.460209 -14.049554 3.702790 14.536589 1.538052 1.313236 0.006435 -0.003888 -3151340.000000 1 0 0
1.166191 -16.157854 7.124490 17.697305 -1.498746 1.156468 0.016298 -0.009258 3026690.000000 1 0 0
-5.441409 -10.290254 -14.569910 18.648875 1.084381 2.467503 0.005338 -0.006505 -1550790.000000 1 0 0
-0.305309 -17.255054 -5.805810 18.208172 1.553104 1.895320 0.007121 -0.002111 906011.000000 1 0 0
-6.500709 -13.449954 -1.257610 14.991400 1.120577 1.654784 -0.000073 -0.003136 2401570.000000 1 0 0
-1.776809 -17.757254 -0.155710 17.846606 1.471067 1.579521 0.003951 -0.009787 1143400.000000 1 0 0
-9.417109 -9.645754 -4.877510 14.335711 0.797392 1.917963 0.012631 -0.004319 1725920.000000 1 0 0
-0.905509 -16.674454 5.000390 17.431617 1.516544 1.279851 0.018785 -0.009321 1527290.000000 1 0 0
-6.786309 -9.845154 -6.421110 13.572461 0.967285 2.063601 0.007484 -0.003239 3791760.000000 1 0 0
-6.042209 -14.571454 -8.614010 17.973223 1.177716 2.070618 -0.001353 -0.002108 -1056970.000000 1 0 0
-5.720609 -12.246954 -10.290810 16.988644 1.133810 2.221500 0.001935 0.000354 -427218.000000 1 0 0
-10.654209 -12.071654 -8.831810 18.364037 0.847689 2.072511 0.021808 -0.014278 1397730.000000 1 0 0
3.901291 -17.216654 6.605390 18.848459 -1.347960 1.212748 0.023237 -0.008355 1271410.000000 1 0 0
-6.675709 -14.374254 -4.154410 16.384242 1.136015 1.827156 -0.000477 -0.005157 -507518.000000 1 0 0
-2.873809 -12.266954 -7.107110 14.465405 1.340674 2.084398 0.004244 0.002425 2228460.000000 1 0 0
-7.019909 -12.840254 4.387890 15.277592 1.070482 1.279483 0.003862 0.000311 2215240.000000 1 0 0
2.532591 -16.438154 2.434390 16.809318 -1.417930 1.425461 0.017031 -0.009133 1767080.000000 1 0 0
-6.291109 -12.016854 7.260990 15.385214 1.088507 1.079300 0.001638 -0.003967 1283650.000000 1 0 0
-11.326609 -12.793254 -0.989910 17.115471 0.846130 1.628666 0.005925 0.004388 1799900.000000 1 0 0
-14.285309 -8.654254 4.636790 17.333955 0.544684 1.300001 0.008701 -0.001663 797461.000000 1 0 0
-7.991809 -15.570154 4.522490 18.076272 1.096583 1.317921 -0.002248 0.004747 -286875.000000 1 0 0
-16.440309 -9.134554 1.266990 18.850175 0.507147 1.503532 -0.009060 0.004021 -91264.400000 1 0 0
-6.683309 -17.130654 2.406390 18.544990 1.198821 1.440670 -0.007069 0.004474 2572560.000000 1 0 0
-11.457009 -14.741454 -4.709010 19.254825 0.910115 1.817865 0.018181 -0.001908 -1356570.000000 1 0 0
-9.853009 -9.865554 -12.650210 18.826544 0.786034 2.307614 0.009601 -0.006636 108393.000000 1 0 0
-4.292209 -16.042354 -4.518910 17.210483 1.309365 1.836478 -0.005816 -0.003633 472530.000000 1 0 0
-11.867109 -8.172454 0.007390 14.408933 0.603078 1.570283 0.007469 0.000281 315930.000000 1 0 0
-9.616809 -11.161454 3.529690 15.149910 0.859601 1.335651 0.005062 0.002878 1054260.000000 1 0 0
-14.205509 -12.809654 -0.592610 19.137265 0.733775 1.601768 0.003418 0.003993 1157370.000000 1 0 0
5.616491 -14.926254 -7.059210 17.440484 -1.210902 1.987513 0.005808 0.004156 466348.000000 1 0 0
-7.491109 -10.548054 -1.199610 12.992968 0.953265 1.663256 0.003312 -0.000888 1237320.000000 1 0 0
-11.703409 -8.236854 -6.151010 15.577242 0.613271 1.976724 0.014078 -0.005963 -220501.000000 1 0 0
-14.414309 -6.499454 -9.362710 18.375950 0.423605 2.105410 0.017364 -0.010051 1347460.000000 1 0 0
-3.890709 -16.414354 1.451090 16.931459 1.338061 1.484987 -0.003276 -0.008396 2399750.000000 1 0 0
-7.912309 -15.574654 0.225490 17.470699 1.100750 1.557889 0.003222 -0.001146 976042.000000 1 0 0
0.868991 -18.588654 3.799090 18.992796 -1.524082 1.369410 0.010921 -0.013592 271218.000000 1 0 0
-14.079809 -8.749354 -4.613610 17.206906 0.556015 1.842243 0.011512 -0.005008 9138.980000 1 0 0
-3.222009 -14.470254 11.175990 18.565353 1.351706 0.924817 -0.001120 -0.011677 -5299.900000 1 0 0
-10.717309 -12.043854 -3.800510 16.563786 0.843613 1.802306 0.016335 -0.005759 1151560.000000 1 0 0
-10.085509 -10.633954 0.529390 14.665563 0.811862 1.534691 0.002657 0.003852 607102.000000 1 0 0
-0.211909 -13.210954 -11.099310 17.255981 1.554757 2.269486 -0.001020 0.002090 494756.000000 1 0 0
-5.916409 -12.655454 -6.358110 15.348940 1.133486 1.997901 -0.000672 -0.005890 1768130.000000 1 0 0
1.835091 -15.904554 9.998290 18.875598 -1.455923 1.012557 0.017141 -0.006104 -189547.000000 1 0 0
-8.928309 -15.706854 -5.617110 18.920145 1.053911 1.872225 0.015417 -0.001498 777663.000000 1 0 0
-3.437009 -15.457054 5.875190 16.889387 1.351997 1.215506 0.004225 -0.006794 -1695620.000000 1 0 0
-17.351309 -5.410554 -6.486210 19.298004 0.302269 1.913578 0.010295 -0.007383 -711724.000000 1 0 0
18.899191 5.534146 -3.053510 19.928124 0.284861 1.724628 0.011717 0.010872 -462650.000000 1 0 0
12.938191 -12.362454 -5.836510 18.822643 -0.762646 1.886073 0.033813 0.001433 -1709200.000000 1 0 0
11.041791 -13.484754 -1.660510 17.507628 -0.884676 1.665784 0.024468 0.003738 2383510.000000 1 0 0
18.751691 -2.712754 4.513090 19.476985 -0.143670 1.336957 0.034596 -0.011182 -1070600.000000 1 0 0
8.623491 -16.918054 5.035490 19.645389 -1.099402 1.311584 0.023607 -0.012877 -155846.000000 1 0 0
18.057791 -1.055454 6.776490 19.316278 -0.058382 1.212352 0.052510 -0.014704 -181470.000000 1 0 0
17.978891 -4.231454 -5.153010 19.175485 -0.231150 1.842870 0.033229 0.000975 -484222.000000 1 0 0
5.601791 -11.713554 14.674390 19.594007 -1.124715 0.724362 0.009789 -0.001011 532395.000000 1 0 0
15.928991 -8.887854 -0.737210 18.255689 -0.508939 1.611190 0.016466 -0.000144 1507240.000000 1 0 0
13.921691 -12.621454 -1.475110 18.849152 -0.736451 1.649135 0.025956 0.001627 578378.000000 1 0 0
11.167791 -2.156954 13.895890 17.957387 -0.190791 0.685937 0.016052 -0.005501 -2089780.000000 1 0 0
17.023491 -6.137354 -1.367610 18.147637 -0.346018 1.646228 0.024434 0.000291 -1266580.000000 1 0 0
17.802291 3.617346 -1.001810 18.193691 0.200466 1.625888 0.014886 0.005813 1414890.000000 1 0 0
9.711991 -11.095654 9.555890 17.571321 -0.851798 0.995797 0.013388 -0.006691 1661400.000000 1 0 0
9.034891 -11.090654 4.351790 14.952255 -0.887192 1.275477 0.010608 -0.006323 -293746.000000 1 0 0
14.168291 -10.135354 6.886690 18.732121 -0.620957 1.194326 0.026418 -0.007602 -82905.200000 1 0 0
16.276591 -0.567954 -4.672010 16.943366 -0.034880 1.850159 0.022245 -0.001433 -325227.000000 1 0 0
15.800591 -0.534554 -1.681510 15.898802 -0.033818 1.676758 0.023897 -0.002112 3721240.000000 1 0 0
12.912091 -5.163854 -0.228910 13.908267 -0.380441 1.587256 0.014691 -0.006087 1522480.000000 1 0 0
14.235891 -7.531054 1.154390 16.146516 -0.486592 1.499241 0.018790 -0.001338 1467400.000000 1 0 0
15.469191 2.393646 3.616290 16.065583 0.153519 1.343755 0.022726 -0.009253 1806260.000000 1 0 0
15.998491 -7.123554 5.026590 18.219861 -0.418909 1.291286 0.027378 -0.009585 -2256770.000000 1 0 0
13.645691 -12.100154 3.368190 18.546248 -0.725440 1.388173 0.021546 -0.006233 774665.000000 1 0 0
13.891791 -0.960954 9.191990 16.685262 -0.069064 0.987348 0.025788 -0.012176 1962760.000000 1 0 0
14.181491 -2.800554 -1.566410 14.539994 -0.194971 1.678737 0.013985 -0.004105 752297.000000 1 0 0
14.947191 1.777246 9.110790 17.594988 0.118346 1.026512 0.035663 -0.007964 -989313.000000 1 0 0
14.339491 -10.037954 -2.948510 17.750359 -0.610740 1.737680 0.024647 -0.003587 -192964.000000 1 0 0
7.305791 -12.649254 6.161990 15.853969 -1.047035 1.171607 0.003879 -0.006550 -332031.000000 1 0 0
12.419891 -4.634754 7.008390 14.995071 -0.357167 1.084472 0.017704 -0.009259 1824380.000000 1 0 0
14.970591 -8.879454 -5.564910 18.273793 -0.535350 1.880241 0.030787 -0.003768 328629.000000 1 0 0
14.336991 -4.565854 4.662190 15.752217 -0.308311 1.270325 0.015094 -0.010401 1729350.000000 1 0 0
17.151191 -4.233554 0.960890 17.692078 -0.242000 1.516458 0.019444 -0.006675 -604046.000000 1 0 0
10.194591 -14.442054 1.088790 17.711241 -0.956124 1.509283 0.022971 -0.002024 436672.000000 1 0 0
16.311991 -2.578254 8.590490 18.615181 -0.156762 1.091136 0.039158 -0.014008 -388628.000000 1 0 0
16.061091 -2.576954 3.253990 16.588785 -0.159091 1.373360 0.019287 -0.007888 1943370.000000 1 0 0
7.802491 -15.342654 2.667290 17.418103 -1.100333 1.417058 0.011668 -0.003092 2215940.000000 1 0 0
16.670891 -6.866154 7.849490 19.664109 -0.390693 1.160176 0.029982 -0.016294 -942197.000000 1 0 0
10.298991 -8.576054 5.182290 14.369205 -0.694369 1.201829 0.014459 -0.007388 130980.000000 1 0 0
10.925591 -11.833354 2.230890 16.259572 -0.825263 1.433157 0.018422 -0.003520 705985.000000 1 0 0
12.301691 -7.352854 11.992490 18.687319 -0.538735 0.874025 0.016618 -0.014583 -1302350.000000 1 0 0
15.244491 -9.916854 4.334590 18.695646 -0.576741 1.336817 0.021925 -0.004495 -957075.000000 1 0 0
7.274491 -10.250454 7.825390 14.806308 -0.953607 1.013943 0.005109 -0.006688 34082.800000 1 0 0
15.248691 -3.347354 -4.339110 16.203556 -0.216090 1.841892 0.024975 -0.002348 1680910.000000 1 0 0
11.854891 -9.074254 9.730090 17.820078 -0.653312 0.993192 0.016876 -0.015415 -1469900.000000 1 0 0
16.900391 -6.607554 2.428190 18.307897 -0.372698 1.437774 0.015082 -0.006235 1843630.000000 1 0 0
17.543691 3.874646 1.979990 18.075241 0.217368 1.461035 0.021317 -0.002449 569303.000000 1 0 0
14.690691 -4.898854 8.821390 17.822236 -0.321870 1.053001 0.026211 -0.012091 461589.000000 1 0 0
12.791091 -12.628454 6.219390 19.020270 -0.779000 1.237682 0.023902 -0.006130 -160914.000000 1 0 0
18.278591 0.704546 -0.823810 18.310705 0.038526 1.615802 0.027541 -0.000609 -261847.000000 1 0 0
11.588191 -2.185054 10.974090 16.108733 -0.186370 0.821326 0.011260 -0.009124 64842.300000 1 0 0
5.748591 -12.497754 10.548990 17.335551 -1.139682 0.916605 0.002461 -0.003021 -1333280.000000 1 0 0
10.719191 -5.054154 10.960490 16.142424 -0.440593 0.824415 0.013634 -0.010471 375765.000000 1 0 0
17.650291 1.223446 5.197290 18.440212 0.069205 1.285079 0.045901 -0.009392 -543836.000000 1 0 0
12.347491 -7.728754 7.183890 16.241996 -0.559273 1.112631 0.019584 -0.013467 -957120.000000 1 0 0
10.627091 -7.939354 14.276290 19.487967 -0.641634 0.748707 0.014062 -0.013175 -655468.000000 1 0 0
14.096791 -0.297354 3.747590 14.589461 -0.021091 1.311015 0.010365 -0.006837 2952030.000000 1 0 0
11.647791 -7.659254 2.605490 14.181812 -0.581679 1.386026 0.015182 -0.004808 2195480.000000 1 0 0
9.235391 6.041546 3.529990 11.586784 0.579303 1.261218 0.002769 0.000191 1918400.000000 1 0 0
-3.968409 14.848746 -9.905510 18.285313 -1.309644 2.143278 -0.006897 -0.001033 -188374.000000 1 0 0
8.856791 -6.509154 9.243490 14.361544 -0.633789 0.871567 0.010219 -0.008940 -1016500.000000 1 0 0
5.771191 -10.582354 -8.652010 14.837457 -1.071523 2.193360 0.002160 0.002591 1207800.000000 1 0 0
5.342091 0.928946 0.480390 5.443496 0.172170 1.482431 -0.001163 0.000334 2910170.000000 1 0 0
-0.373409 9.950946 10.969490 14.815211 -1.533289 0.737100 -0.007159 0.004288 -1778830.000000 1 0 0
-6.304509 -5.190654 1.046090 8.233106 0.688802 1.443393 0.007841 -0.001283 2584920.000000 1 0 0
-1.140409 3.927746 -10.870210 11.614180 -1.288219 2.781724 0.005564 -0.004619 794166.000000 1 0 0
10.919791 5.717546 1.174790 12.381934 0.482345 1.475774 0.005726 0.000499 479644.000000 1 0 0
-10.079209 -1.743954 -13.587410 17.007338 0.171329 2.496285 0.010136 -0.007316 869307.000000 1 0 0
7.478591 10.852746 -6.078510 14.514121 0.967426 2.002919 0.000622 -0.006036 411264.000000 1 0 0
-12.384509 -2.867454 -9.601610 15.930765 0.227526 2.217688 0.006231 -0.003840 181424.000000 1 0 0
-3.903009 -8.700454 2.479390 9.852855 1.149109 1.316420 0.009077 0.000099 -770045.000000 1 0 0
7.985391 -6.695154 -5.916210 11.983034 -0.697736 2.087154 0.003480 -0.001285 1800630.000000 1 0 0
14.374391 3.093246 -4.215610 15.295838 0.211959 1.850015 0.020891 0.000525 1077910.000000 1 0 0
-2.526809 -4.956254 9.801190 11.269984 1.099322 0.516259 -0.005165 -0.000228 2368820.000000 1 0 0
3.402491 -1.953254 -4.595210 6.042193 -0.521132 2.434910 -0.003001 -0.002228 -2749420.000000 1 0 0
-4.010209 8.500046 -3.552910 10.047673 -1.129973 1.932219 0.001844 -0.002604 774505.000000 1 0 0
5.798091 0.084446 11.716590 13.073005 0.014563 0.459571 0.000451 -0.002982 2411690.000000 1 0 0
7.111091 4.762346 12.323990 15.004276 0.590104 0.606996 -0.001716 0.002198 1855110.000000 1 0 0
1.301991 -14.443254 12.523990 19.161239 -1.480894 0.858451 0.003344 -0.002546 652626.000000 1 0 0
2.995091 8.775446 -9.145010 13.023449 1.241890 2.349273 0.005401 -0.002274 -631378.000000 1 0 0
-4.443209 -8.879454 -4.622710 10.952454 1.106835 2.006525 0.009653 -0.001940 1384740.000000 1 0 0
5.681591 -6.551054 -4.062810 9.576179 -0.856356 2.008943 -0.001384 -0.000836 2061720.000000 1 0 0
-3.072109 3.456146 8.625090 9.786469 -0.844157 0.492131 -0.003473 0.002488 835566.000000 1 0 0
-3.888009 3.243646 -11.053710 12.158222 -0.695290 2.712047 0.001275 -0.004978 -138055.000000 1 0 0
3.035391 -6.156754 8.615190 11.015476 -1.112750 0.672770 -0.004671 -0.000774 472053.000000 1 0 0
-5.127009 -8.687554 10.510590 14.568195 1.037647 0.764866 0.002950 -0.002808 1339460.000000 1 0 0
-13.195909 -2.457854 6.563390 14.941591 0.184149 1.116011 0.008179 -0.001669 -74072.300000 1 0 0
3.897391 -5.958554 -8.396410 11.008802 -0.991556 2.438273 -0.004291 -0.001267 3942400.000000 1 0 0
2.878391 -0.541954 12.403090 12.744234 -0.186105 0.231900 -0.002567 -0.002023 1684160.000000 1 0 0
1.541591 -1.521054 -7.605410 7.907741 -0.778693 2.864182 -0.001940 -0.005303 -306977.000000 1 0 0
3.561391 -3.534154 3.429590 6.077486 -0.781560 0.971198 -0.001326 -0.001367 2739760.000000 1 0 0
1.478791 0.356346 -11.831010 11.928395 0.236463 3.013724 0.000830 -0.006566 1040290.000000 1 0 0
3.978391 3.482946 -10.637910 11.879547 0.719094 2.680307 0.000663 -0.001188 1813600.000000 1 0 0
2.793691 3.226246 3.309390 5.400503 0.857129 0.911206 -0.008055 0.004592 -385203.000000 1 0 0
-5.348809 0.999546 2.537490 6.003974 -0.184742 1.134445 0.000996 -0.000162 747321.000000 1 0 0
-9.517309 -9.231254 5.743190 14.449203 0.770142 1.162033 0.006711 -0.003067 -637052.000000 1 0 0
-3.073709 3.890246 -0.688210 5.005530 -0.902117 1.708723 0.002270 -0.002444 1530300.000000 1 0 0
-15.978309 -6.468154 5.017190 17.953149 0.384645 1.287565 0.025907 -0.004588 793071.000000 1 0 0
1.012491 6.733246 -8.099110 10.580989 1.421543 2.442521 0.003178 -0.003426 776054.000000 1 0 0
-1.637009 6.464546 -9.434710 11.553524 -1.322781 2.526307 0.003061 -0.003012 1819760.000000 1 0 0
2.043891 -0.321954 5.219790 5.614922 -0.156236 0.377394 -0.001625 0.000254 2793220.000000 1 0 0
-3.443809 -0.586854 -6.312010 7.214270 0.168787 2.636096 0.009827 -0.006324 108888.000000 1 0 0
1.873291 -1.205054 -2.474310 3.329202 -0.571638 2.408658 0.002721 -0.000963 1463640.000000 1 0 0
2.428991 -8.651854 -7.624610 11.785128 -1.297094 2.274399 -0.002976 0.001282 3795690.000000 1 0 0
-2.527309 14.079046 -5.605510 15.363221 -1.393179 1.944285 0.000168 0.000887 2290120.000000 1 0 0
6.854691 -5.063754 -8.215610 11.837425 -0.636248 2.337878 0.001359 -0.004366 3589650.000000 1 0 0
-14.131709 -4.943454 -2.212510 15.134006 0.336508 1.717517 0.007558 -0.000915 999212.000000 1 0 0
-2.774809 6.888446 -6.818610 10.081850 -1.187861 2.313559 0.005832 -0.004412 -2413570.000000 1 0 0
-5.727509 -1.162454 -8.090110 9.980257 0.200240 2.515992 0.007892 -0.008369 -520746.000000 1 0 0
-5.760009 -10.622354 3.539190 12.591186 1.073920 1.285872 0.002696 -0.000951 -2119160.000000 1 0 0
8.080591 -7.588254 6.695590 12.950231 -0.753987 1.027425 0.006912 -0.009047 582766.000000 1 0 0
8.802191 -5.973954 13.120590 16.891316 -0.596280 0.681283 0.014653 -0.007429 663435.000000 1 0 0
-4.765509 9.582846 -0.894110 10.739667 -1.109314 1.654146 0.001200 -0.001642 321887.000000 1 0 0
2.821091 6.639746 12.046590 14.041550 1.169028 0.539580 -0.005949 0.000016 1564920.000000 1 0 0
6.047091 -2.884354 10.944090 12.831988 -0.445064 0.549328 0.003249 -0.002796 -497847.000000 1 0 0
-9.688809 -6.475654 -1.024810 11.698605 0.589177 1.658510 0.005483 -0.001422 -2253480.000000 1 0 0
0.858591 -13.322854 6.346190 14.782075 -1.506440 1.127060 0.006682 -0.005511 1747860.000000 1 0 0
-0.513009 -3.155254 8.740390 9.306623 1.409618 0.350625 -0.005540 -0.000654 1341970.000000 1 0 0
4.215691 0.769246 3.375890 5.455311 0.180486 0.903549 -0.006376 0.003075 1201180.000000 1 0 0
-10.222709 5.601446 8.368290 14.349504 -0.501261 0.948163 -0.002632 -0.003666 114558.000000 1 0 0
9.355891 7.969846 -0.067110 12.290470 0.705569 1.576257 0.002665 0.003436 1001800.000000 1 0 0
4.267691 2.838946 8.191190 9.662732 0.586999 0.559144 -0.008993 0.001603 2113140.000000 1 0 0
1.252991 2.629746 -9.780110 10.204710 1.126151 2.852110 0.003255 -0.004386 1918930.000000 1 0 0
-1.454909 -10.126254 3.123590 10.696476 1.428096 1.274458 0.007669 -0.001687 -2684830.000000 1 0 0
-9.799809 9.584246 9.050090 16.425534 -0.774278 0.987262 0.002851 -0.013986 638614.000000 1 0 0
9.738791 -1.954754 -7.645110 12.534465 -0.198086 2.226765 0.011887 -0.001233 -782765.000000 1 0 0
-5.187409 -1.832554 6.703090 8.671729 0.339585 0.687268 -0.002286 0.000467 -64601.900000 1 0 0
3.181691 -7.798754 -4.933810 9.761465 -1.183435 2.100685 -0.006278 0.000514 872689.000000 1 0 0
-5.140909 4.910046 -13.105410 14.909369 -0.762433 2.644568 -0.003392 -0.008046 2382720.000000 1 0 0
-5.601209 9.622146 5.449890 12.395989 -1.043630 1.115588 0.001261 -0.002159 1501210.000000 1 0 0
-0.440209 -1.874654 -9.406910 9.601982 1.340153 2.939677 0.002295 -0.006822 -148509.000000 1 0 0
-16.693809 0.236046 6.353890 17.863675 -0.014139 1.207147 0.012923 -0.004643 124206.000000 1 0 0
-6.040109 -2.892554 4.109090 7.857125 0.446618 1.020457 -0.004506 0.000162 3949210.000000 1 0 0
0.978291 -5.721554 -5.173610 7.775569 -1.401451 2.298782 -0.000711 -0.000995 929189.000000 1 0 0
-7.056709 1.405346 -8.464310 11.109306 -0.196578 2.437056 0.001666 -0.002693 823004.000000 1 0 0
8.016791 1.918746 4.739690 9.508690 0.234922 1.048976 -0.005607 0.000442 615315.000000 1 0 0
0.510591 -8.065554 -0.481510 8.096031 -1.507576 1.630306 0.002862 0.002584 1363460.000000 1 0 0
5.429591 5.518246 -3.461510 8.480186 0.793496 1.991265 -0.003904 0.002439 -1640880.000000 1 0 0
-0.751409 -0.355454 -1.243110 1.495422 0.441856 2.552198 0.004946 -0.001778 672160.000000 1 0 0
9.004591 6.374246 -6.305510 12.707208 0.616001 2.090030 0.003661 -0.002727 1124080.000000 1 0 0
-15.009809 -6.935954 2.488290 16.721047 0.432866 1.421430 0.001226 -0.002832 2290340.000000 1 0 0
-6.357709 6.887346 8.855990 12.895137 -0.825364 0.813761 0.003420 -0.001112 260166.000000 1 0 0
-9.450409 -3.198854 -9.552010 13.812451 0.326383 2.334430 0.010907 -0.007218 1082640.000000 1 0 0
14.878591 3.357846 -1.266410 15.305273 0.221965 1.653634 0.011219 0.002474 1759290.000000 1 0 0
12.098491 1.637346 -5.741810 13.491581 0.134517 2.010404 0.015033 -0.001375 348354.000000 1 0 0
1.655491 -9.434354 12.792590 15.981178 -1.397090 0.642703 -0.006355 -0.002607 149152.000000 1 0 0
-3.543809 6.385746 7.853890 10.724734 -1.064156 0.749080 -0.002294 0.003272 818318.000000 1 0 0
-4.043909 13.024946 -12.311610 18.373300 -1.269758 2.305115 -0.004537 -0.006311 675353.000000 1 0 0
-10.260409 7.808646 6.537890 14.456658 -0.650533 1.101520 -0.000982 -0.005473 981208.000000 1 0 0
7.913491 -9.319654 -7.116810 14.146670 -0.866814 2.097947 0.007026 0.001014 601518.000000 1 0 0
5.819291 -3.821354 -0.274010 6.967207 -0.581050 1.610135 0.000731 -0.003130 -1058140.000000 1 0 0
-1.679709 -4.471954 4.202490 6.362446 1.211491 0.849292 -0.000918 0.000272 480238.000000 1 0 0
9.880291 -2.107954 -2.624510 10.437992 -0.210198 1.824962 0.006697 -0.002329 -2766060.000000 1 0 0
13.589691 6.942846 1.488690 15.332939 0.472322 1.473552 0.009680 0.002803 -279447.000000 1 0 0
5.349091 -3.716454 -3.192510 7.253752 -0.607216 2.026527 0.000354 -0.005805 -2562100.000000 1 0 0
-12.286809 -5.864454 1.937590 13.751791 0.445321 1.429429 0.005976 0.000336 739045.000000 1 0 0
3.725991 -5.785654 -0.249910 6.886164 -0.998647 1.607096 0.001240 -0.001371 983863.000000 1 0 0
-5.228409 3.719146 -8.669610 10.785659 -0.618292 2.504467 0.002415 -0.004772 1101740.000000 1 0 0
-1.680109 -9.312454 7.280290 11.939313 1.392301 0.915020 0.000213 -0.003830 586461.000000 1 0 0
-7.413709 -7.437754 2.625890 10.824905 0.787017 1.325773 0.010766 -0.001207 -2042370.000000 1 0 0
-5.817709 13.124646 -8.551110 16.709984 -1.153557 2.108001 -0.003459 -0.003986 1423330.000000 1 0 0
9.229891 -13.855754 -4.139810 17.155490 -0.983157 1.814513 0.020403 0.008311 1117020.000000 1 0 0
-6.448009 -5.133454 -6.773510 10.668159 0.672377 2.258711 0.010919 -0.005848 1852800.000000 1 0 0
3.341491 0.332546 -6.295110 7.134743 0.099194 2.651560 -0.000096 -0.004383 1264440.000000 1 0 0
-3.585609 5.825446 4.936190 8.435543 -1.019052 0.945712 -0.003156 0.003780 -166899.000000 1 0 0
-2.624809 -10.781154 -2.832510 11.451900 1.331980 1.820730 0.007160 0.002218 1722940.000000 1 0 0
-12.514709 -0.381354 1.741890 12.641106 0.030463 1.432561 0.002422 -0.001318 740499.000000 1 0 0
8.357991 -12.059554 -6.110110 15.894096 -0.964743 1.965383 0.011836 0.005884 -952094.000000 1 0 0
6.109391 3.859546 0.938190 7.287040 0.563431 1.441690 -0.003498 0.001515 -1278080.000000 1 0 0
3.429991 -4.879854 -10.999710 12.512851 -0.958135 2.644710 -0.003607 -0.001823 872601.000000 1 0 0
-7.612609 4.277946 8.646990 12.289145 -0.511976 0.790305 0.001229 0.001709 1449560.000000 1 0 0
8.175891 8.742446 4.027590 12.629214 0.818873 1.246216 0.005714 0.002199 1392460.000000 1 0 0
0.208791 10.540546 -6.338810 12.301513 1.550991 2.112139 0.004152 -0.001067 586182.000000 1 0 0
5.419491 7.991446 3.238690 10.184459 0.974878 1.247174 -0.001365 0.002910 2889090.000000 1 0 0
8.015791 6.652146 -3.724810 11.062466 0.692697 1.914214 -0.000105 -0.000520 207396.000000 1 0 0
10.502291 2.550846 -8.233910 13.586839 0.238271 2.221845 0.006915 -0.000506 1648000.000000 1 0 0
3.296791 -12.493054 -0.266010 12.923467 -1.312788 1.591381 0.001258 -0.000197 -1825360.000000 1 0 0
0.595491 2.071746 5.213990 5.642024 1.290907 0.392032 -0.002837 0.002589 1396590.000000 1 0 0
-4.871009 13.387046 1.358790 14.310347 -1.221828 1.475701 0.002302 -0.000182 801071.000000 1 0 0
8.224891 4.055346 -8.021910 12.183830 0.458078 2.289496 -0.000068 0.000540 1891120.000000 1 0 0
-13.893209 -0.518254 -3.566810 14.353117 0.037285 1.821932 -0.001233 -0.002061 388157.000000 1 0 0
-8.686009 0.033146 -0.463810 8.698447 -0.003816 1.624143 -0.003779 -0.000140 -367684.000000 1 0 0
1.774091 -3.853954 -1.104110 4.383996 -1.139385 1.825388 0.001654 -0.001516 -1518430.000000 1 0 0
8.017591 -5.724454 -0.162110 9.852787 -0.620052 1.587250 0.003534 -0.003903 1401430.000000 1 0 0
-2.316809 -1.153154 7.341190 7.783986 0.461833 0.338919 -0.002936 0.000110 2129510.000000 1 0 0
-5.908809 8.800446 -11.740310 15.817609 -0.979509 2.407189 -0.005056 -0.005637 -397160.000000 1 0 0
-6.201209 9.179546 -8.893510 14.206111 -0.976671 2.247253 -0.003428 -0.003734 -1933950.000000 1 0 0
-1.566409 13.979446 -8.401510 16.384869 -1.459211 2.109193 0.009845 -0.001715 -2655.910000 1 0 0
-1.385709 7.225046 9.790890 12.246755 -1.381305 0.644387 -0.003743 0.000592 624501.000000 1 0 0
9.990791 2.253446 -3.980010 10.987921 0.221840 1.941441 0.005761 -0.001654 -1964280.000000 1 0 0
-3.014009 -7.579054 -7.043310 10.776573 1.192295 2.283096 0.007208 -0.002137 2245670.000000 1 0 0
-5.564109 -5.009254 -1.602810 7.656431 0.732970 1.781698 0.008751 -0.000047 1121510.000000 1 0 0
5.585091 7.370546 -8.832710 12.788079 0.922349 2.333251 -0.001731 -0.000789 -1145410.000000 1 0 0
-9.596009 5.189646 -7.512810 13.246061 -0.495762 2.173866 -0.006956 0.000613 81578.300000 1 0 0
-0.410309 6.165146 -5.360510 8.180003 -1.504341 2.285401 0.005102 -0.002041 301124.000000 1 0 0
-8.296909 2.804746 -6.337410 10.810553 -0.325987 2.197187 -0.002580 -0.002467 -148220.000000 1 0 0
3.684991 1.326246 -2.100810 4.444265 0.345471 2.063150 -0.003989 0.000824 2482080.000000 1 0 0
-6.835409 12.401746 -3.459110 14.577090 -1.067059 1.810379 0.001962 0.000324 1360180.000000 1 0 0
-6.610809 3.169546 -2.401110 7.714541 -0.447072 1.887299 0.003333 -0.001310 -1933870.000000 1 0 0
12.078191 3.926746 -0.842710 12.728401 0.314332 1.637052 0.008781 -0.001912 -475939.000000 1 0 0
2.231891 12.386046 -5.572410 13.763983 1.392516 1.987616 0.008377 -0.000428 250189.000000 1 0 0
-9.249209 -1.481054 -4.278010 10.297707 0.158780 1.999215 0.000921 -0.000637 -515549.000000 1 0 0
-1.128109 5.786146 3.341590 6.776307 -1.378245 1.055114 -0.004906 0.003399 438068.000000 1 0 0
11.528891 2.647246 12.025590 16.868256 0.225706 0.777154 0.019555 0.000228 1147120.000000 1 0 0
-7.091609 -2.358454 -5.772310 9.443134 0.321063 2.228461 0.010178 -0.004508 -844474.000000 1 0 0
7.493291 -7.394154 10.839590 15.110249 -0.778739 0.770781 0.006609 -0.006672 -362728.000000 1 0 0
-5.459709 -1.973854 -10.934010 12.379705 0.346910 2.653482 0.006361 -0.004568 -472199.000000 1 0 0
0.753891 -6.237754 4.424090 7.684432 -1.450520 0.957310 -0.001973 0.000042 2601180.000000 1 0 0
-4.717209 -9.378754 7.422790 12.857329 1.104777 0.955354 -0.002489 -0.002745 1434230.000000 1 0 0
-8.735409 9.398846 1.593190 12.929963 -0.821967 1.447265 0.001789 -0.001622 853532.000000 1 0 0
-8.126809 7.186646 -9.116210 14.170328 -0.724081 2.269637 -0.006886 -0.001818 -35739.400000 1 0 0
-1.192409 -10.619454 -0.009110 10.686193 1.458979 1.571649 0.006098 0.001069 -178584.000000 1 0 0
-3.870809 10.297346 7.795590 13.482942 -1.211234 0.954298 0.002487 -0.000010 2052970.000000 1 0 0
-7.447509 12.077746 1.961890 14.324327 -1.018238 1.433402 0.000337 -0.002789 1789640.000000 1 0 0
-8.160609 -8.201954 -2.773710 11.897943 0.787925 1.806086 0.014309 -0.000329 374471.000000 1 0 0
5.334691 4.563146 -8.075510 10.700238 0.707605 2.425999 -0.000706 0.000264 1215200.000000 1 0 0
-8.902009 -0.159154 -10.221210 13.555229 0.017877 2.424990 0.003101 -0.003954 -1891710.000000 1 0 0
-15.173009 -2.199554 -1.481710 15.403042 0.143962 1.667141 0.003539 -0.000836 743657.000000 1 0 0
-7.120709 -5.706254 8.731690 12.629657 0.675570 0.807421 0.002457 0.000133 -84228.700000 1 0 0
8.086091 3.385446 -0.991810 8.822120 0.396501 1.683458 -0.001002 0.001674 1214170.000000 1 0 0
11.841991 7.190246 -5.823010 15.027968 0.545684 1.968691 0.008330 -0.004010 -747673.000000 1 0 0
3.733091 13.328046 -9.541910 16.811330 1.297701 2.174370 0.016225 -0.009119 224086.000000 1 0 0
-9.677209 5.414746 -0.520310 11.101287 -0.510135 1.617683 -0.002813 -0.001564 2374100.000000 1 0 0
11.257191 -1.304154 -5.170110 12.456131 -0.115337 1.998811 0.014815 -0.003363 -896962.000000 1 0 0
10.531591 1.662546 -1.173110 10.726353 0.156571 1.680383 0.005218 -0.001235 784724.000000 1 0 0
14.559991 4.998946 4.843290 16.138161 0.330724 1.265984 0.018432 -0.007880 1942880.000000 1 0 0
0.832991 -0.835954 10.333090 10.400262 -0.787174 0.113716 -0.003189 0.000176 2022500.000000 1 0 0
-7.910309 1.418246 -12.579810 14.927693 -0.177406 2.573105 -0.003805 -0.003745 -2057850.000000 1 0 0
3.096991 -11.553754 -7.881510 14.324761 -1.308902 2.153402 -0.002903 0.005270 1026480.000000 1 0 0
2.901191 5.009046 -6.673610 8.834281 1.045819 2.427094 -0.001593 0.000327 -1520760.000000 1 0 0
6.456391 8.015846 0.505290 10.305052 0.892739 1.521743 0.000882 0.001354 -73157.800000 1 0 0
-9.039809 -5.401454 6.725690 12.495149 0.538593 1.002420 0.003196 0.000864 -1072790.000000 1 0 0
-0.254809 -6.928954 -11.872810 13.749143 1.534038 2.613026 0.000243 0.001653 2220670.000000 1 0 0
6.495291 -13.446154 -4.601010 15.625529 -1.120793 1.869681 0.006908 0.008359 1574630.000000 1 0 0
-3.313409 -0.326454 9.952990 10.495107 0.098208 0.322816 -0.003091 0.001988 -245156.000000 1 0 0
8.612091 8.411546 6.911990 13.881564 0.773618 1.049591 -0.000246 0.001599 -757554.000000 1 0 0
-7.934909 5.774646 -2.730210 10.186431 -0.629110 1.842138 0.000831 -0.003602 102766.000000 1 0 0
-5.387509 5.809446 -6.444110 10.212809 -0.823064 2.253616 0.000869 -0.004280 -546505.000000 1 0 0
3.317791 -13.656254 2.596690 14.291389 -1.332464 1.388085 0.008407 -0.005819 -1998590.000000 1 0 0
-11.340409 -6.944754 6.564890 14.830114 0.549480 1.112219 0.010975 -0.002108 -121060.000000 1 0 0
-12.939909 -3.665254 -6.799410 15.070080 0.276022 2.038890 0.010207 -0.005396 -423589.000000 1 0 0
6.023091 0.300946 -7.253910 9.433313 0.049924 2.448021 -0.000892 -0.001117 -447807.000000 1 0 0
-1.420409 2.197446 -2.538610 3.645665 -0.996962 2.341077 0.005496 -0.002257 2751560.000000 1 0 0
7.576291 0.870346 -4.971310 9.103384 0.114376 2.148492 0.000346 -0.000635 648235.000000 1 0 0
3.650891 -4.425654 10.877890 12.298126 -0.881033 0.485341 -0.004001 -0.000661 -580131.000000 1 0 0
5.991491 -2.558354 2.168890 6.866383 -0.403562 1.249422 0.002685 -0.002161 -925046.000000 1 0 0
-6.289009 7.847746 1.023490 10.108723 -0.895216 1.469374 0.000975 -0.001854 990091.000000 1 0 0
5.993591 -3.509954 7.961790 10.565652 -0.529777 0.717345 0.000858 -0.005612 886615.000000 1 0 0
6.734091 -2.294054 -7.819410 10.571369 -0.328332 2.403388 0.002367 -0.002737 1080270.000000 1 0 0
12.059091 -8.147254 -5.809110 15.669881 -0.594169 1.950579 0.026570 -0.005442 298590.000000 1 0 0
5.517991 -9.629154 9.998990 14.938160 -1.050428 0.837451 -0.002714 -0.001436 2302910.000000 1 0 0
-6.616009 7.594146 -4.564210 11.057787 -0.854123 1.996278 -0.000142 -0.002438 -638051.000000 1 0 0
-1.373309 -7.578454 9.768190 12.439312 1.391529 0.667668 -0.003874 -0.003660 -1768980.000000 1 0 0
10.001291 -9.253754 0.858390 13.652641 -0.746595 1.507881 0.011135 -0.002999 154556.000000 1 0 0
11.108391 6.121246 9.717090 15.977730 0.503647 0.917050 0.010334 -0.002110 1973400.000000 1 0 0
-15.261409 -4.222754 -4.976410 16.598401 0.269941 1.875293 0.011595 -0.004905 1714380.000000 1 0 0
-4.725709 -4.559154 7.799090 10.195294 0.767462 0.699802 -0.000919 -0.001435 -1246630.000000 1 0 0
3.001091 10.926346 -11.137910 15.888506 1.302741 2.347601 0.007753 -0.002975 -180470.000000 1 0 0
9.835991 -1.455854 1.512690 10.057557 -0.146946 1.419820 0.003968 -0.003542 -673621.000000 1 0 0
-1.615009 -2.643554 0.679090 3.171403 1.022384 1.354996 0.004345 -0.002797 718989.000000 1 0 0
1.542591 3.008246 0.802190 3.474570 1.096971 1.337820 -0.003300 0.001754 -1280480.000000 1 0 0
-9.013109 -2.288754 4.405590 10.289983 0.248680 1.128359 -0.002046 -0.000073 4913560.000000 1 0 0
9.866191 4.835446 -2.730810 11.321686 0.455698 1.814400 0.002454 -0.000381 1690750.000000 1 0 0
2.582691 8.465146 2.467190 9.187819 1.274670 1.298931 -0.002881 0.003160 435220.000000 1 0 0
-8.178909 0.024246 2.483190 8.547595 -0.002964 1.276033 -0.005129 0.000056 1395040.000000 1 0 0
6.844691 2.074346 13.647890 15.408362 0.294261 0.482698 0.000326 -0.001794 -1156120.000000 1 0 0
6.764791 4.340146 3.760790 8.873714 0.570432 1.133146 -0.005836 0.002713 700385.000000 1 0 0
-0.333309 3.339846 7.788790 8.481210 -1.471328 0.406884 -0.007580 0.004665 -262912.000000 1 0 0
2.633991 -10.189354 9.244390 14.007840 -1.317830 0.850052 0.000600 -0.004206 1719250.000000 1 0 0
1.359791 -4.629654 6.851090 8.379747 -1.285117 0.613606 -0.002695 -0.001696 101909.000000 1 0 0
-0.179209 10.864946 -2.060610 11.060076 -1.554304 1.758202 0.004180 -0.003629 917249.000000 1 0 0
8.700991 5.540746 8.015590 13.063567 0.567036 0.910205 -0.003130 -0.000561 -2181730.000000 1 0 0
2.638991 11.462246 -2.956910 12.128094 1.344506 1.817085 0.005269 -0.004881 2627030.000000 1 0 0
1.437791 2.354746 -6.777410 7.317469 1.022624 2.754991 0.001480 -0.001840 1460400.000000 1 0 0
-13.581909 -2.150354 3.570190 14.206989 0.157022 1.316775 0.007063 -0.000538 607585.000000 1 0 0
-1.001209 -10.685054 -5.317910 11.977185 1.477367 2.030858 0.001857 0.001728 -4267.440000 1 0 0
-5.700009 2.906446 0.364390 6.408612 -0.471538 1.513906 0.002800 -0.001323 36604.800000 1 0 0
3.801291 7.308346 -5.053910 9.664561 1.091175 2.121084 -0.001345 -0.001020 -3211610.000000 1 0 0
2.977891 9.825646 -6.508510 12.156145 1.276522 2.135788 0.003697 -0.000356 2294920.000000 1 0 0
-12.209609 1.698746 -2.582210 12.594765 -0.138244 1.777283 -0.002335 -0.000551 813258.000000 1 0 0
-2.543909 9.661046 -5.786510 11.545171 -1.313325 2.095788 0.001306 -0.003337 882004.000000 1 0 0
-1.349609 3.305646 1.692390 3.951319 -1.183178 1.128174 -0.002874 0.001982 265802.000000 1 0 0
12.829691 3.694846 9.621390 16.456731 0.280404 0.946351 0.023462 0.001451 -220555.000000 1 0 0
-2.549109 -9.529654 11.730690 15.327144 1.309423 0.699205 -0.008903 -0.005316 -263466.000000 1 0 0
-0.454009 -8.959354 -7.575910 11.741829 1.520165 2.272090 0.000738 0.000244 1904300.000000 1 0 0
2.300691 7.748146 -0.545910 8.100924 1.282154 1.638236 -0.002268 0.002634 634157.000000 1 0 0
-11.926609 -1.282454 -5.528310 13.207986 0.107117 2.002653 0.001214 0.001044 -1269030.000000 1 0 0
-6.163509 -7.146554 -10.974010 14.473803 0.859122 2.431341 0.004554 -0.005995 488163.000000 1 0 0
-4.713309 -2.253354 -1.387710 5.405426 0.445961 1.830429 0.005686 -0.000556 -184104.000000 1 0 0
-10.441109 3.789446 4.590490 12.018705 -0.348152 1.178896 -0.002774 -0.001926 3049300.000000 1 0 0
6.737091 9.311946 -3.671010 12.065531 0.944479 1.879954 0.001149 -0.001110 -1678650.000000 1 0 0
1.269291 -2.724454 -11.510810 11.896743 -1.134809 2.886183 -0.000045 -0.003867 -836688.000000 1 0 0
1.248091 8.807546 7.516090 11.645695 1.430027 0.869254 -0.010495 0.008084 586732.000000 1 0 0
10.293991 0.366246 10.479190 14.694006 0.035564 0.776799 0.007813 -0.003533 334352.000000 1 0 0
-5.302709 -0.811654 -3.897510 6.630844 0.151885 2.199114 0.008315 -0.003382 1631870.000000 1 0 0
11.644791 5.603846 5.450490 14.025409 0.448521 1.171668 0.001481 -0.000502 3121100.000000 1 0 0
9.926391 -3.538654 3.668690 11.158611 -0.342444 1.235788 0.009189 -0.009839 -2352800.000000 1 0 0
7.334991 -1.718554 -3.411210 8.269938 -0.230144 1.995975 0.001034 -0.002101 -2182930.000000 1 0 0
2.473891 9.305146 10.410090 14.180122 1.310945 0.746408 -0.008050 0.006521 1858630.000000 1 0 0
2.437291 -10.894754 6.386090 12.861501 -1.350708 1.051203 -0.000882 -0.000986 1563350.000000 1 0 0
5.850091 -7.588254 -1.309110 9.670519 -0.914028 1.706584 -0.001874 -0.002132 715616.000000 1 0 0
-0.215909 -5.599254 -2.351610 6.076868 1.532255 1.968148 0.002702 0.001419 1476010.000000 1 0 0
7.657391 -5.070054 2.778990 9.594992 -0.584843 1.276957 0.003917 -0.006587 1406150.000000 1 0 0
-2.750309 -12.466754 4.691490 13.601258 1.353663 1.218631 0.004415 -0.002985 -1470120.000000 1 0 0
4.890291 -10.298454 -1.085010 11.452089 -1.127465 1.665682 -0.002091 0.000118 2378460.000000 1 0 0
0.927691 0.191346 1.030490 1.399690 0.203408 0.743318 -0.002716 0.001412 -1981940.000000 1 0 0
-1.583109 8.569546 2.376690 9.032830 -1.388119 1.304545 -0.006649 0.004468 567429.000000 1 0 0
-7.639609 0.612146 -3.016510 8.236363 -0.079957 1.945765 0.002699 -0.001063 -1787090.000000 1 0 0
4.402691 -6.381454 12.922890 15.070094 -0.966868 0.540369 0.000833 -0.002233 894879.000000 1 0 0
-5.036309 13.019046 8.380290 16.281561 -1.201685 1.030126 0.007769 -0.009697 2162350.000000 1 0 0
0.609491 6.075346 8.192890 10.217865 1.470809 0.640461 -0.009149 0.006547 -131015.000000 1 0 0
7.920091 -0.612554 -0.788110 7.982743 -0.077188 1.669684 0.003395 -0.002457 3412030.000000 1 0 0
2.450491 -9.218454 -2.378710 9.830720 -1.310980 1.815189 -0.005765 0.002072 1231090.000000 1 0 0
-7.022109 12.183446 4.831690 14.869149 -1.047937 1.239840 0.000391 -0.006141 581811.000000 1 0 0
-14.936309 0.289746 0.168890 14.940074 -0.019396 1.559492 0.006105 -0.003708 672566.000000 1 0 0
6.827791 -0.499554 3.923990 7.890880 -0.073035 1.050334 -0.003507 0.000819 1323830.000000 1 0 0
-4.242409 -5.004454 5.065790 8.288837 0.867624 0.913273 -0.000083 -0.000414 -95341.000000 1 0 0
2.918591 5.089146 6.837490 9.009376 1.050095 0.709127 -0.011281 0.004937 -362273.000000 1 0 0
1.998891 -7.193154 1.811990 7.682469 -1.299747 1.332693 -0.001618 0.000508 1791260.000000 1 0 0
-2.455109 6.512546 -1.861010 7.204455 -1.210290 1.832073 0.002149 -0.002055 3473820.000000 1 0 0
2.726391 -3.876254 -6.593110 8.119584 -0.957821 2.518369 -0.005042 -0.003262 -1214700.000000 1 0 0
-5.118209 0.913146 -12.220110 13.280097 -0.176554 2.739342 0.002497 -0.003991 16014.800000 1 0 0
-7.553209 6.364846 -11.878910 15.448972 -0.700222 2.447935 0.000048 -0.007005 3111710.000000 1 0 0
-1.087909 11.195846 -9.041610 14.431952 -1.473930 2.247850 0.002530 -0.000557 1856910.000000 1 0 0
4.596491 5.959846 -0.647110 7.554220 0.913838 1.656563 -0.003011 0.002429 -407162.000000 1 0 0
-2.631709 13.377546 3.487490 14.072925 -1.376551 1.320371 -0.001225 0.002073 2257710.000000 1 0 0
1.388091 -7.854854 10.317190 13.041086 -1.395885 0.658143 -0.006410 -0.002325 -811051.000000 1 0 0
12.940891 -0.248754 -1.032110 12.984367 -0.019220 1.650369 0.012876 -0.004372 22801.800000 1 0 0
-0.967209 3.107746 -5.446010 6.344494 -1.269073 2.602907 0.005514 -0.004525 692211.000000 1 0 0
6.507691 1.074746 7.252690 9.803399 0.163673 0.738003 -0.005327 -0.000086 1788540.000000 1 0 0
5.454891 -6.221954 6.958990 10.811849 -0.850995 0.871545 -0.000982 -0.003252 1642900.000000 1 0 0
12.188591 -4.889454 2.649690 13.397364 -0.381497 1.371707 0.013440 -0.007354 -483790.000000 1 0 0
4.454791 -9.155554 13.843990 17.185034 -1.117953 0.634136 0.001311 -0.001962 1154500.000000 1 0 0
-2.735309 -4.345054 -1.367210 5.313254 1.008951 1.831045 0.010054 -0.001802 3038870.000000 1 0 0
-9.329109 -5.256554 -7.487910 13.066462 0.513116 2.181035 0.010404 -0.005886 1220430.000000 1 0 0
-10.554309 -3.104754 7.918690 13.555021 0.286099 0.946916 0.002533 0.000960 214244.000000 1 0 0
11.990991 -0.564854 1.716990 12.126458 -0.047072 1.428729 0.009500 -0.005966 918686.000000 1 0 0
-7.572409 4.812946 4.419390 10.001842 -0.566178 1.113128 -0.000754 -0.000507 2671700.000000 1 0 0
-1.058309 10.699746 6.920190 12.786462 -1.472207 0.998918 -0.007333 0.006565 1465060.000000 1 0 0
7.335091 -10.044654 1.983090 12.594891 -0.940057 1.412686 0.003078 -0.002921 2966130.000000 1 0 0
-4.364809 -1.696454 1.712290 4.986126 0.370698 1.220250 0.001451 -0.000047 2123620.000000 1 0 0
6.638291 -15.025354 -0.861110 16.449002 -1.154777 1.623171 0.011005 0.004983 -843341.000000 1 0 0
-10.449909 1.803346 2.403490 10.873335 -0.170887 1.347911 -0.005608 0.000914 -1321460.000000 1 0 0
-3.080109 8.234746 -11.336010 14.345844 -1.212869 2.481923 -0.003434 -0.003255 -233067.000000 1 0 0
-1.397709 -5.175854 -6.888510 8.728953 1.307043 2.480231 -0.000745 -0.002935 -304315.000000 1 0 0
12.696291 -0.493654 6.464090 14.255664 -0.038862 1.100175 0.012465 -0.010848 2649700.000000 1 0 0
5.976991 -13.413854 3.777490 15.163289 -1.151621 1.319024 0.005268 -0.001869 1788080.000000 1 0 0
-5.592609 3.484446 -5.005510 8.274888 -0.557192 2.220441 0.005441 -0.004367 2385220.000000 1 0 0
-4.348409 8.064546 3.311690 9.742323 -1.076282 1.223956 -0.002134 0.001871 220676.000000 1 0 0
13.905691 6.099546 -3.982110 15.698086 0.413364 1.827267 0.023629 -0.002343 -823947.000000 1 0 0
-6.735909 -8.485054 5.395090 12.102711 0.899813 1.108756 0.008789 -0.002897 1073310.000000 1 0 0
1.772591 11.349146 2.668690 11.792672 1.415861 1.342518 -0.000132 0.001537 1324430.000000 1 0 0
-7.413609 7.347846 6.038090 12.058647 -0.780943 1.046358 0.001564 -0.002986 629540.000000 1 0 0
-17.446309 -4.013654 5.229990 18.650360 0.226123 1.286562 0.027838 -0.009573 -745299.000000 1 0 0
7.509491 -13.090154 -8.649310 17.394112 -1.049959 2.091228 0.013790 0.004745 35482.400000 1 0 0
-2.272509 12.873746 -2.798610 13.368989 -1.396074 1.781692 -0.000647 -0.001240 1794020.000000 1 0 0
-5.586409 13.856246 -5.772210 16.016302 -1.187561 1.939489 0.004476 -0.001164 3380380.000000 1 0 0
-5.634609 2.507646 7.424890 9.652259 -0.418724 0.693148 -0.001676 -0.000109 1074400.000000 1 0 0
-7.353109 5.199846 1.504390 9.130707 -0.615517 1.405280 0.001734 -0.001724 1248120.000000 1 0 0
10.669191 -5.691654 -4.991010 13.081924 -0.490061 1.962236 0.014767 -0.005156 2059660.000000 1 0 0
-9.407009 -0.747954 6.892790 11.685966 0.079343 0.939942 -0.003101 -0.000532 558150.000000 1 0 0
-11.288809 -4.590454 -2.568610 12.454206 0.386215 1.778532 0.002427 -0.001448 -592348.000000 1 0 0
6.474291 -4.317054 13.528890 15.607186 -0.588095 0.521973 0.007398 -0.007370 -442465.000000 1 0 0
0.259991 10.189446 -11.652410 15.481313 1.545286 2.422913 0.001822 -0.000989 -835737.000000 1 0 0
-11.785909 -3.097654 1.491290 12.277095 0.257014 1.449026 0.003569 -0.001780 2519530.000000 1 0 0
5.180991 5.920746 5.501490 9.600224 0.851934 0.960563 -0.005849 0.004368 -4523430.000000 1 0 0
-7.076509 0.068446 8.137090 10.783965 -0.009672 0.715821 -0.004755 -0.000173 454816.000000 1 0 0
1.758891 2.083746 9.684290 10.060873 0.869737 0.274468 -0.007131 0.001358 2548090.000000 1 0 0
10.485791 -4.967754 -1.924610 11.761569 -0.442437 1.735171 0.007852 -0.002836 2594060.000000 1 0 0
-9.696709 -2.414554 -1.644610 10.127240 0.244044 1.733913 -0.000263 -0.000836 -554297.000000 1 0 0
-1.923509 -5.262154 -9.946410 11.415832 1.220348 2.628605 0.005644 -0.005040 990956.000000 1 0 0
7.596291 -1.607354 6.569890 10.171071 -0.208521 0.868544 -0.002038 -0.003636 1065830.000000 1 0 0
1.587191 -11.819254 -2.665910 12.219698 -1.437306 1.790730 -0.001469 0.002631 -3381000.000000 1 0 0
-0.777509 -1.498654 4.763290 5.053654 1.092218 0.340632 -0.000153 0.000145 2872410.000000 1 0 0
7.593491 1.432946 9.916990 12.572236 0.186514 0.661941 -0.000981 -0.003212 666522.000000 1 0 0
-3.882409 10.741446 -8.035510 13.964999 -1.223965 2.183894 -0.000641 -0.000198 2082320.000000 1 0 0
-9.512509 12.622846 6.377290 17.043882 -0.924999 1.187296 0.002945 -0.008710 3108550.000000 1 0 0
-2.514909 -2.520854 -11.104710 11.661649 0.786579 2.831292 0.006874 -0.006300 -921560.000000 1 0 0
1.213391 -11.926954 11.139090 16.364714 -1.469410 0.822110 -0.001203 0.000724 1796610.000000 1 0 0
1.428491 3.424946 -1.982810 4.207419 1.175649 2.061521 -0.001102 -0.000174 3269050.000000 1 0 0
-1.909509 -9.447354 -12.095010 15.465704 1.371362 2.468751 -0.002988 0.002248 2402130.000000 1 0 0
1.265591 -2.671754 1.545390 3.335899 -1.128415 1.089126 0.003823 -0.001395 1441600.000000 1 0 0
-1.059709 -2.287754 -6.647510 7.109584 1.137012 2.779075 0.003928 -0.007311 1789930.000000 1 0 0
1.788391 5.809146 3.989790 7.270691 1.272146 0.989928 -0.009974 0.006216 -729877.000000 1 0 0
-10.972109 8.636646 3.616290 14.424160 -0.666854 1.317382 -0.003404 -0.004255 2989340.000000 1 0 0
-16.391309 -1.501354 3.921990 16.920729 0.091340 1.336883 0.018379 -0.002737 1080280.000000 1 0 0
-12.086109 0.330746 6.848390 13.895462 -0.027359 1.055433 -0.005038 -0.000476 98467.700000 1 0 0
-5.091909 3.068146 4.683290 7.567976 -0.542295 0.903544 -0.003488 0.002737 1296610.000000 1 0 0
5.082091 -6.010154 4.028490 8.841851 -0.868871 1.097732 -0.000745 -0.004405 958494.000000 1 0 0
9.843491 3.421346 6.311190 12.183228 0.334512 1.026259 -0.001321 -0.000163 -144891.000000 1 0 0
-12.094709 5.913546 3.191690 13.836145 -0.454758 1.338022 0.000814 -0.002778 1786510.000000 1 0 0
-4.908409 12.434546 -1.356010 13.436859 -1.194833 1.671886 -0.001606 -0.001477 1200450.000000 1 0 0
-1.692609 -12.149054 10.397090 16.079923 1.432367 0.867693 0.000082 -0.007095 1287580.000000 1 0 0
5.183291 6.414446 13.888190 16.152196 0.891157 0.535854 -0.006680 -0.001605 1005450.000000 1 0 0
12.904891 -3.701954 -5.932210 14.677595 -0.279363 1.986865 0.012752 -0.004625 2275400.000000 1 0 0
3.467091 -2.576654 6.418390 7.736640 -0.639119 0.592388 -0.004312 -0.000570 1318990.000000 1 0 0
7.263191 -11.921254 -0.504210 13.968696 -1.023593 1.606900 0.004882 0.003115 -345235.000000 1 0 0
-6.058609 -6.563154 -4.091610 9.824612 0.825351 2.000350 0.013645 -0.002673 -523156.000000 1 0 0
0.349591 -8.954654 5.133590 10.327719 -1.531776 1.050579 0.000734 -0.001922 1886330.000000 1 0 0
-10.276009 2.547346 -0.373210 10.593612 -0.242994 1.606033 -0.003585 0.001945 -1738880.000000 1 0 0
-1.923809 9.014246 -0.463210 9.228881 -1.360532 1.621009 0.002084 -0.002160 -67907.100000 1 0 0
-3.471009 2.254446 -6.640010 7.824332 -0.576029 2.584198 0.009773 -0.007013 1355310.000000 1 0 0
-12.580609 3.086146 6.425990 14.459923 -0.240559 1.110292 -0.002798 -0.003998 -574427.000000 1 0 0
11.252691 1.579646 7.960390 13.873938 0.139468 0.959700 0.009028 -0.005437 -2872080.000000 1 0 0
6.002591 2.628346 -3.236210 7.308376 0.412720 2.029525 -0.004640 0.000881 429987.000000 1 0 0
10.431691 -2.406454 6.417390 12.481750 -0.226721 1.030790 0.009599 -0.009050 3237080.000000 1 0 0
-0.908209 11.007546 4.047990 11.763381 -1.488475 1.219497 -0.002396 0.003564 2958340.000000 1 0 0
-1.648409 -12.224554 7.476690 14.424211 1.436761 1.025884 0.001633 -0.002259 -903821.000000 1 0 0
8.066191 8.604546 -7.872610 14.180255 0.817680 2.159377 0.001750 -0.005186 2077520.000000 1 0 0
-4.647009 -5.936854 -8.783710 11.575599 0.906669 2.432284 0.007632 -0.006860 140973.000000 1 0 0
-8.454709 -5.302154 -11.632610 15.326857 0.560125 2.432525 0.010329 -0.006594 2350670.000000 1 0 0
6.039591 -0.729154 -9.917510 11.634661 -0.120148 2.591375 0.001283 -0.001952 -630954.000000 1 0 0
-11.244309 -5.459454 -5.357110 13.599219 0.452005 1.975697 0.004445 -0.006083 -1793210.000000 1 0 0
3.894791 8.938246 -2.796510 10.143082 1.159860 1.850121 0.002291 -0.002451 2249180.000000 1 0 0
11.660991 -10.414254 -3.995010 16.136775 -0.728981 1.820970 0.017843 -0.000273 -149485.000000 1 0 0
4.017391 -11.332154 4.028790 12.680232 -1.230107 1.247470 -0.000886 -0.002411 581539.000000 1 0 0
-1.009009 0.868746 3.163790 3.432548 -0.710839 0.398348 -0.000298 0.001020 -1416550.000000 1 0 0
-10.695609 -5.043154 4.536090 12.665132 0.440602 1.204504 0.007396 -0.001459 3580450.000000 1 0 0
4.538391 -8.679254 2.760390 10.175765 -1.088996 1.296083 -0.003628 -0.001083 5108630.000000 1 0 0
-3.743009 -5.690054 2.591690 7.287228 0.988946 1.207189 0.004663 0.000442 1216430.000000 1 0 0
10.001791 5.141046 12.185990 16.582054 0.474795 0.745291 0.008453 0.002107 -936080.000000 1 0 0
1.612091 -12.351954 -5.351710 13.557669 -1.441017 1.976578 -0.000090 0.003056 1222140.000000 1 0 0
9.856691 -10.761454 -1.676010 14.689188 -0.829252 1.685144 0.010866 -0.001927 976164.000000 1 0 0
9.592891 -4.525454 -9.115710 13.985688 -0.440794 2.280737 0.015719 -0.004617 1092750.000000 1 0 0
-7.397509 -3.067954 -13.097110 15.351540 0.393138 2.592783 0.004340 -0.002311 2347700.000000 1 0 0
0.512691 6.221746 -2.562410 6.748253 1.488579 1.960284 -0.000693 -0.001389 1182550.000000 1 0 0
-5.989709 -9.552654 1.032190 11.322333 1.010745 1.479506 0.009021 0.000491 -187886.000000 1 0 0
-8.961609 -4.049754 0.632290 9.854478 0.424433 1.506590 -0.003110 -0.000513 2906840.000000 1 0 0
1.911191 3.774846 12.120390 12.837678 1.102124 0.335863 -0.003282 -0.002659 1810750.000000 1 0 0
6.592191 4.280846 9.608190 12.413700 0.575940 0.685664 -0.008497 0.000999 1863930.000000 1 0 0
-8.346709 9.786946 -3.638310 13.367467 -0.864655 1.846451 -0.003442 0.002873 1859080.000000 1 0 0
16.435291 2.133346 -5.994310 17.623896 0.129081 1.917845 0.023571 -0.002527 -1091300.000000 1 0 0
-10.954009 2.726246 -5.055310 12.368464 -0.243925 1.991854 -0.003872 0.000780 678344.000000 1 0 0
-13.783609 4.098746 1.428790 14.450918 -0.289036 1.471763 0.003202 -0.000528 605613.000000 1 0 0
-17.400309 10.446846 3.393190 20.577198 -0.540701 1.405139 0.023279 -0.007796 -532199.000000 1 0 0
-14.356809 2.879046 -1.201910 14.691884 -0.197910 1.652696 0.004564 -0.000904 1537190.000000 1 0 0
-14.296409 5.156346 5.165990 16.051874 -0.346152 1.243134 -0.002854 -0.002255 1022680.000000 1 0 0
-17.468409 7.454046 3.081290 19.240646 -0.403323 1.409959 0.013169 -0.003300 -1876270.000000 1 0 0
-14.956609 12.536346 -3.340710 19.799507 -0.697592 1.740334 0.032573 0.003751 -399632.000000 1 0 0
-8.506509 12.466346 -9.725010 17.954005 -0.972009 2.143210 0.004995 -0.010998 2357820.000000 1 0 0
-12.401909 8.804646 -9.959010 18.179962 -0.617368 2.150530 0.012967 -0.003817 -422655.000000 1 0 0
-13.855709 -3.411254 -12.180810 18.761382 0.241398 2.277393 0.010370 -0.000804 -1943580.000000 1 0 0
-14.628209 5.833746 -7.721110 17.539459 -0.379472 2.026633 0.021835 -0.000865 -157533.000000 1 0 0
-10.882109 13.717346 -8.596010 19.505827 -0.900148 2.027163 0.015481 -0.002395 1769180.000000 1 0 0
-10.927309 13.516546 3.983190 17.831683 -0.890931 1.345519 0.006069 -0.003806 -821141.000000 1 0 0
-15.158909 3.307146 3.029690 15.808503 -0.214800 1.377954 0.002194 -0.000323 160595.000000 1 0 0
-11.152209 9.515946 -12.602310 19.332439 -0.706395 2.280849 0.020652 -0.012743 475510.000000 1 0 0
-13.090809 11.592946 -9.219710 19.767871 -0.724790 2.056012 0.015969 -0.010024 586158.000000 1 0 0
-8.905909 14.530646 -3.384610 17.375571 -1.020942 1.766841 0.007682 -0.006364 701188.000000 1 0 0
-16.633109 8.318346 -4.099310 19.043622 -0.463734 1.787753 0.025258 0.005965 -1497340.000000 1 0 0
-16.996309 6.752546 0.251590 18.290290 -0.378172 1.557041 0.018367 0.000732 -722644.000000 1 0 0
-10.376609 2.872746 -12.546110 16.532742 -0.270084 2.432364 -0.001777 -0.004139 472744.000000 1 0 0
-16.835509 0.962846 2.352890 17.026378 -0.057129 1.432162 0.012755 -0.003542 1731730.000000 1 0 0
-12.681709 1.300746 -6.958010 14.523484 -0.102211 2.070410 0.001160 -0.002109 1780200.000000 1 0 0
-12.288609 9.013246 -5.498610 16.201334 -0.632833 1.917067 0.010010 0.004574 -1648920.000000 1 0 0
-9.669909 13.847346 1.263890 16.936752 -0.961197 1.496103 0.014330 -0.005145 546377.000000 1 0 0
-12.268809 11.094446 2.819090 16.779681 -0.735175 1.401990 0.005960 -0.001759 -1562360.000000 1 0 0
-12.547209 6.898146 -3.658110 14.778317 -0.502671 1.820929 0.000886 0.004501 -397440.000000 1 0 0
-15.779809 3.694746 -9.427610 18.749223 -0.230001 2.097662 0.025941 -0.007122 -1139040.000000 1 0 0
-14.993809 5.903646 -4.785110 16.809659 -0.375097 1.859453 0.014436 -0.000064 2399270.000000 1 0 0
-17.757509 5.357946 7.552990 20.027091 -0.293042 1.184091 0.000262 0.000931 -950109.000000 1 0 0
-15.691809 10.095346 -1.970410 18.762500 -0.571687 1.676009 0.022619 0.006810 -392945.000000 1 0 0
-8.757409 9.971946 -8.355210 15.682521 -0.850154 2.132669 -0.000273 -0.004821 56381.800000 1 0 0
-17.033809 4.236846 -1.359410 17.605383 -0.243784 1.648089 0.016093 -0.001439 -942511.000000 1 0 0
-10.151009 5.482446 -4.600010 12.420157 -0.495202 1.950200 -0.004090 0.002468 -301104.000000 1 0 0
-18.152209 2.821746 6.137790 19.368464 -0.154215 1.248341 0.014066 0.002554 -1006600.000000 1 0 0
-10.326309 10.092446 -5.796410 15.559193 -0.773945 1.952540 -0.003113 0.000203 -232780.000000 1 0 0
-15.345909 0.452846 -5.878910 16.439695 -0.029501 1.936498 0.011130 -0.004554 -370384.000000 1 0 0
-16.447309 -4.071154 -8.924310 19.150237 0.242650 2.055578 0.015955 -0.008633 -499092.000000 1 0 0
-10.025509 9.578146 -1.127710 13.911270 -0.762582 1.651950 -0.002159 0.000683 688235.000000 1 0 0
-17.384009 -3.009654 -3.175710 17.926152 0.171428 1.748891 0.019341 -0.005287 -64345.400000 1 0 0
-11.942809 5.096946 -11.556910 17.383087 -0.403377 2.298071 0.010047 -0.005992 184784.000000 1 0 0
-16.274709 7.159046 5.798990 18.701508 -0.414413 1.255518 -0.000156 -0.000751 500965.000000 1 0 0
-12.054509 6.060646 -8.884010 16.154512 -0.465861 2.153089 0.008196 0.000055 -396291.000000 1 0 0
-14.565709 8.366146 0.015590 16.797396 -0.521363 1.569868 0.012581 0.003130 668452.000000 1 0 0
-14.844009 11.784546 4.033590 19.377564 -0.671006 1.361105 -0.001661 -0.011328 1478500.000000 1 0 0
-17.203309 4.076246 -4.219910 18.176283 -0.232655 1.805100 0.016581 -0.002220 -1927810.000000 1 0 0
-13.899809 13.408846 -0.830110 19.331087 -0.767422 1.613751 0.023015 0.005970 184573.000000 1 0 0
-10.115909 6.904046 -13.140210 17.962811 -0.598880 2.391349 0.000765 -0.009167 1225140.000000 1 0 0
-15.879609 -1.130954 -8.355810 17.979449 0.071100 2.054140 0.016052 -0.008225 565009.000000 1 0 0
-11.560209 11.816846 -0.053610 16.531157 -0.796376 1.574039 0.014198 -0.000530 1152760.000000 1 0 0
-11.970609 7.363346 -0.933910 14.084976 -0.551462 1.637150 -0.001884 0.002687 2285320.000000 1 0 0
-11.424009 0.235846 -11.653610 16.320853 -0.020642 2.366037 0.007057 -0.006130 -100221.000000 1 0 0
-19.108009 -1.226554 -4.685110 19.712197 0.064103 1.810769 0.022399 -0.009160 -1144590.000000 1 0 0
-17.939209 1.422946 -5.173410 18.724427 -0.079155 1.850730 0.017589 -0.004899 -1447520.000000 1 0 0
-13.299309 -0.011154 -9.479210 16.331784 0.000839 2.190034 0.009620 -0.005809 1352500.000000 1 0 0
-6.079309 11.216646 -13.317510 18.442538 -1.074124 2.377641 -0.010274 -0.007091 -849998.000000 1 0 0
16.379391 5.745846 7.058290 18.738160 0.337385 1.184587 0.048546 -0.013375 571237.000000 1 0 0
14.799491 10.055946 -5.549110 18.733382 0.596820 1.871524 0.037793 -0.008556 -1077290.000000 1 0 0
2.488691 16.894146 4.362890 17.624998 1.424537 1.320656 0.009730 -0.006449 3133040.000000 1 0 0
-3.989609 18.106846 -5.859510 19.445018 -1.353925 1.876891 0.002591 -0.009305 818052.000000 1 0 0
5.512191 14.564046 5.650590 16.565774 1.208979 1.222709 0.008793 -0.003519 -251938.000000 1 0 0
9.975191 5.985546 14.971190 18.959634 0.540451 0.660582 0.018688 -0.002301 -1303600.000000 1 0 0
4.677091 12.768046 -1.184110 13.649187 1.219664 1.657659 0.004501 -0.004464 1233430.000000 1 0 0
3.641291 13.779746 12.852190 19.191644 1.312452 0.837023 0.004627 -0.008959 -676757.000000 1 0 0
-0.683109 12.438146 9.239590 15.509485 -1.515931 0.932612 -0.002494 -0.000941 509557.000000 1 0 0
-7.700209 13.927646 8.316690 17.956611 -1.065751 1.089245 0.009137 -0.017659 2439870.000000 1 0 0
11.394791 12.823746 -4.165010 17.653244 0.844332 1.808976 0.025380 -0.008725 359004.000000 1 0 0
-5.785009 16.183446 0.884290 17.209074 -1.227487 1.519389 0.002594 0.001194 2112140.000000 1 0 0
3.262091 10.620446 6.792890 13.022230 1.272791 1.022027 -0.006899 0.007843 1946370.000000 1 0 0
-1.104609 15.591646 2.391490 15.812616 -1.500068 1.418974 0.002019 -0.002549 -332565.000000 1 0 0
9.927391 8.849246 9.425190 16.300198 0.728042 0.954244 0.008157 -0.003526 2289560.000000 1 0 0
7.320491 12.273046 6.245590 15.595661 1.032977 1.158767 0.002265 0.000411 -157503.000000 1 0 0
11.831891 14.030846 -1.558810 18.419777 0.870218 1.655525 0.021763 -0.000320 -318811.000000 1 0 0
9.595791 15.934346 -1.319110 18.647323 1.028755 1.641595 0.014183 -0.005322 100256.000000 1 0 0
10.116591 13.707546 2.795790 17.264376 0.935000 1.408140 0.015269 -0.000015 1359180.000000 1 0 0
-5.937809 14.528146 6.189990 16.871295 -1.182803 1.195128 -0.002607 -0.009055 -297025.000000 1 0 0
-1.058809 18.262646 -6.218010 19.321205 -1.512884 1.898451 0.017494 -0.001028 1293830.000000 1 0 0
-3.503109 15.702946 5.364590 16.959750 -1.351304 1.248956 -0.002346 -0.005510 1845580.000000 1 0 0
7.121591 12.201946 10.637690 17.685163 1.042490 0.925414 0.000874 -0.001305 3530110.000000 1 0 0
1.553491 14.657846 6.247690 16.009354 1.465207 1.169891 0.002079 -0.004017 1165020.000000 1 0 0
17.464991 7.511546 -1.498110 19.070752 0.406175 1.649433 0.017550 0.006469 1204100.000000 1 0 0
2.045191 16.170046 -3.322510 16.634070 1.444984 1.771890 0.004330 -0.001682 2451820.000000 1 0 0
6.711591 11.154846 0.511890 13.028357 1.029146 1.531496 0.006159 -0.000636 2383690.000000 1 0 0
12.728091 9.228646 3.221990 16.048471 0.627348 1.368656 0.015166 0.002678 -1961020.000000 1 0 0
6.046891 14.375946 -3.408510 15.964043 1.172637 1.785964 0.002502 -0.000293 1322080.000000 1 0 0
3.065191 16.592746 1.542690 16.943864 1.388125 1.479623 0.006707 -0.007423 -1104840.000000 1 0 0
2.692791 18.890946 -2.591910 19.257128 1.429206 1.705801 0.010532 -0.010300 181503.000000 1 0 0
4.078591 11.928946 10.617890 16.482544 1.241349 0.870833 -0.001537 -0.002736 1284390.000000 1 0 0
8.110091 11.526846 3.347690 14.486158 0.957670 1.337593 0.004086 0.004903 1779050.000000 1 0 0
0.754391 12.489346 0.161190 12.513147 1.510467 1.557914 0.004899 -0.002625 -242560.000000 1 0 0
12.010691 9.855146 -4.630310 16.211736 0.687135 1.860444 0.016156 -0.002021 -990311.000000 1 0 0
-1.386509 16.567546 9.940790 19.370733 -1.487303 1.031903 0.007034 -0.006953 236520.000000 1 0 0
8.127091 14.691846 -8.027210 18.610106 1.065522 2.016769 0.013806 -0.009746 1894870.000000 1 0 0
14.502791 7.484846 -1.323710 16.373945 0.476442 1.651727 0.015150 0.002029 836050.000000 1 0 0
12.414091 8.253646 6.045890 16.086799 0.586752 1.185505 0.009521 -0.000746 -2689130.000000 1 0 0
-3.027709 14.223446 10.202490 17.764128 -1.361059 0.959010 0.006699 -0.012510 1052720.000000 1 0 0
-4.657609 17.124346 -3.175010 18.028235 -1.305233 1.747833 0.006648 -0.003160 462778.000000 1 0 0
-7.157709 16.481246 -1.744010 18.052862 -1.161080 1.667553 0.007811 -0.001983 -228285.000000 1 0 0
8.383791 11.253246 -1.978710 14.171760 0.930496 1.710877 0.009261 -0.002765 487774.000000 1 0 0
8.521191 12.921046 -4.186710 16.034109 0.987785 1.834971 0.014989 -0.006781 2139630.000000 1 0 0
2.529991 14.893646 -7.370610 16.809147 1.402532 2.024712 0.008563 -0.003293 964399.000000 1 0 0
11.392991 11.277246 9.723690 18.749044 0.780293 1.025556 0.021455 -0.007221 49264.300000 1 0 0
8.554591 15.726646 1.327990 17.951935 1.072606 1.496754 0.010346 -0.000503 127121.000000 1 0 0
6.105691 9.933846 7.678390 13.961319 1.019685 0.988461 -0.003443 0.006737 3046720.000000 1 0 0
14.439691 11.332746 2.651890 18.546383 0.665424 1.427318 0.018532 0.001605 430286.000000 1 0 0
12.153191 12.551346 1.046690 17.502340 0.801513 1.510958 0.021349 0.001862 1624810.000000 1 0 0
5.270591 15.894946 8.259790 18.672241 1.250616 1.112572 0.015722 -0.005813 -1310580.000000 1 0 0
11.613791 14.960246 4.945190 19.574065 0.910668 1.315389 0.022963 0.000599 811181.000000 1 0 0
5.936791 16.911046 1.701090 18.003407 1.233178 1.476168 0.004913 -0.008374 947764.000000 1 0 0
-0.678509 16.197246 -4.234410 16.755339 -1.528930 1.826287 0.008873 -0.001337 1386320.000000 1 0 0
16.021991 6.302246 2.589090 17.410511 0.374760 1.421534 0.003456 -0.001891 -321980.000000 1 0 0
7.720991 16.739946 -3.315610 18.730530 1.138642 1.748750 0.009454 -0.005824 -2433520.000000 1 0 0
14.800591 8.095646 7.509090 18.465736 0.500523 1.152012 0.039080 -0.009568 245727.000000 1 0 0
2.154891 12.923446 8.623490 15.685139 1.405574 0.988687 0.000697 -0.001211 699387.000000 1 0 0
15.911791 7.377646 -5.859910 18.491979 0.434155 1.893244 0.027223 -0.000545 -629912.000000 1 0 0
-2.979209 17.041846 0.689090 17.314013 -1.397728 1.530986 0.002351 -0.003508 -20134.200000 1 0 0
-2.839909 18.550646 4.535890 19.307145 -1.418886 1.333646 0.001914 -0.009155 -512366.000000 1 0 0
-0.886509 19.165346 0.788690 19.202042 -1.524573 1.529712 0.006898 -0.007367 439401.000000 1 0 0
6.895291 16.789046 -6.140810 19.160549 1.181098 1.897046 0.010236 -0.006460 1046610.000000 1 0 0
11.022391 10.002046 0.780090 14.904448 0.736905 1.518433 0.010128 0.003265 -1906460.000000 1 0 0
9.165691 8.737646 14.376590 19.158358 0.761494 0.722117 0.012000 -0.003073 471074.000000 1 0 0
6.327091 12.352646 -8.403410 16.224588 1.097432 2.115241 0.019928 -0.011454 2018220.000000 1 0 0
6.398091 9.005146 13.327090 17.310100 0.953063 0.692108 -0.004973 -0.001889 593220.000000 1 0 0
16.671491 9.327846 2.885690 19.320314 0.510114 1.420875 0.017882 -0.002766 -2328890.000000 1 0 0
2.597491 14.719446 -0.732710 14.964823 1.396128 1.619778 0.004816 -0.004064 480739.000000 1 0 0
9.168591 12.818346 8.383290 17.850843 0.949895 1.081925 0.011427 -0.004173 124878.000000 1 0 0
7.183491 9.298446 10.516290 15.768830 0.913020 0.840751 -0.002072 -0.000961 2448900.000000 1 0 0
4.302091 15.855946 -5.272210 17.254426 1.305851 1.881320 0.010821 -0.003042 1203500.000000 1 0 0
0.102191 16.407346 -8.258510 18.368844 1.564568 2.037106 0.010782 0.001705 879579.000000 1 0 0
-2.458509 15.731346 -1.964210 16.042993 -1.415769 1.693538 -0.002622 0.001616 -1471140.000000 1 0 0
13.319091 10.480146 7.661890 18.599360 0.666672 1.146210 0.031865 -0.008819 2787150.000000 1 0 0
-1.013409 15.909746 7.086890 17.446233 -1.507185 1.152490 0.004148 -0.006936 3573010.000000 1 0 0
13.356491 13.218446 6.596090 19.915611 0.780204 1.233219 0.031259 -0.007790 -470513.000000 1 0 0
5.500291 17.294246 4.499890 18.697410 1.262871 1.327741 0.015312 -0.009845 297584.000000 1 0 0
10.794191 9.451546 -1.905210 14.473289 0.719178 1.702816 0.007514 0.002367 725643.000000 1 0 0
3.262691 12.776546 4.747690 14.015200 1.320774 1.225205 0.000172 0.007254 3123870.000000 1 0 0
-0.141909 18.057046 3.537790 18.400897 -1.562938 1.377330 0.003079 -0.008690 2572430.000000 1 0 0
-7.705509 15.843746 -5.719310 18.523220 -1.118133 1.884690 0.015939 -0.011380 -747664.000000 1 0 0
-12.481009 -9.057254 8.294090 17.510036 0.627756 1.077336 0.019543 -0.005403 1435490.000000 1 0 0
-13.339909 -11.608254 6.870590 18.971287 0.716099 1.200215 0.021585 -0.004766 -2262810.000000 1 0 0
-6.427909 -12.294554 12.290990 18.534900 1.089055 0.845808 0.014418 -0.008608 -1365580.000000 1 0 0
-1.818609 -10.612554 14.426990 18.001991 1.401081 0.641146 -0.006155 -0.002293 374068.000000 1 0 0
-8.825709 2.905546 11.031990 14.423597 -0.318038 0.699977 0.000846 0.001297 1720650.000000 1 0 0
0.676891 10.146546 15.195190 18.283992 1.504184 0.589776 -0.007384 0.000643 1003200.000000 1 0 0
0.981991 -6.733054 16.663190 17.998895 -1.425971 0.387677 -0.004580 -0.008483 1252230.000000 1 0 0
6.197591 2.209546 17.714890 18.897343 0.342469 0.355629 0.016400 -0.007345 457734.000000 1 0 0
-5.004009 -2.936054 17.617090 18.547840 0.530613 0.318140 0.011836 -0.015235 722328.000000 1 0 0
-4.243709 8.204946 13.016490 15.961179 -1.093473 0.617188 0.004690 -0.004229 606674.000000 1 0 0
0.105791 -4.837254 18.644890 19.262454 -1.548930 0.253903 0.003479 -0.015731 106775.000000 1 0 0
-11.653909 2.154746 11.202590 16.308113 -0.182830 0.813535 0.005571 0.000218 -237806.000000 1 0 0
-3.334309 -6.157554 14.363290 15.979274 1.074503 0.453612 0.003057 -0.007558 1525850.000000 1 0 0
-7.423009 -2.237754 14.694490 16.614351 0.292797 0.485492 0.011537 -0.001092 1592250.000000 1 0 0
-6.144009 -1.076354 10.677390 12.365842 0.173428 0.528710 -0.000487 -0.000800 1682300.000000 1 0 0
-3.959409 2.450646 11.130190 12.064979 -0.554231 0.396235 -0.001167 0.001821 -206209.000000 1 0 0
-6.351909 6.249846 13.500390 16.176151 -0.777299 0.583415 -0.004142 -0.005841 -133920.000000 1 0 0
-8.922509 5.525246 12.546390 16.356999 -0.554452 0.696589 0.004537 -0.003036 -1229740.000000 1 0 0
-12.290909 -2.299754 15.807690 20.155356 0.184971 0.669242 0.020373 -0.004367 995027.000000 1 0 0
-3.437809 -7.560954 16.976990 18.899861 1.144058 0.455002 0.007735 -0.007448 -916077.000000 1 0 0
-0.536109 -5.350054 14.373690 15.346448 1.470923 0.357960 -0.002137 -0.003562 1578740.000000 1 0 0
-14.210509 -2.289654 13.673390 19.853027 0.159751 0.811059 0.011913 -0.003688 -2311680.000000 1 0 0
-6.484509 1.500346 12.206690 13.903351 -0.227373 0.499197 0.001677 0.000570 1623010.000000 1 0 0
2.107691 -2.240854 14.615090 14.935349 -0.816011 0.207461 -0.003209 -0.002746 670147.000000 1 0 0
-12.613709 4.077246 9.203990 16.138247 -0.312639 0.963899 -0.004292 0.000758 -1258670.000000 1 0 0
-9.006509 -3.038154 12.622090 15.800783 0.325342 0.645454 0.002243 0.003897 351161.000000 1 0 0
-7.087109 -7.200654 15.294190 18.329997 0.793345 0.583789 0.025110 -0.008758 287843.000000 1 0 0
-3.355809 5.971246 19.384190 20.558795 -1.058791 0.339666 0.017992 -0.015157 -930834.000000 1 0 0
0.667491 5.372746 16.212790 17.092879 1.447193 0.322294 0.003593 -0.011252 1102520.000000 1 0 0
3.475091 1.444946 16.856690 17.271715 0.394053 0.219663 0.008065 -0.008745 1869110.000000 1 0 0
-11.673409 11.589446 7.952790 18.271032 -0.781789 1.120461 0.001640 -0.013297 -112022.000000 1 0 0
0.675091 -9.441454 15.572090 18.223249 -1.499415 0.546175 -0.010838 0.003625 915524.000000 1 0 0
-2.435509 -3.604054 18.808090 19.304537 0.976518 0.227278 0.010649 -0.021359 290034.000000 1 0 0
-12.953809 2.270146 13.785690 19.052558 -0.173488 0.761849 0.013808 -0.004856 128553.000000 1 0 0
-5.407409 -0.497154 15.798390 16.705579 0.091682 0.331069 0.007143 -0.001376 501452.000000 1 0 0
-4.485009 -5.995854 11.723890 13.910973 0.928565 0.568369 -0.002356 -0.000873 1037270.000000 1 0 0
2.466991 1.794246 14.037590 14.365211 0.628815 0.213980 0.000328 -0.005271 588462.000000 1 0 0
0.138691 3.317746 14.350490 14.729672 1.529018 0.227394 0.004150 -0.006783 1030940.000000 1 0 0
-12.896909 7.177146 12.232190 19.169459 -0.507821 0.878758 0.001483 -0.005983 95953.900000 1 0 0
0.857991 1.485546 18.255890 18.336317 1.047041 0.093695 0.007615 -0.009980 1784880.000000 1 0 0
-1.941309 6.434546 12.515090 14.205617 -1.277780 0.492833 -0.002163 -0.001910 1933010.000000 1 0 0
-13.449309 -2.529154 10.892090 17.490516 0.185880 0.898553 0.012356 -0.004561 342116.000000 1 0 0
-2.507109 3.564046 13.491090 14.177360 -0.957762 0.312415 -0.001293 -0.000854 -1541770.000000 1 0 0
3.542191 6.051746 16.344590 17.785285 1.041243 0.405272 0.000882 -0.008465 89418.200000 1 0 0
-3.665309 12.305746 12.320890 17.795230 -1.281310 0.806027 0.010231 -0.013106 653595.000000 1 0 0
3.681291 -1.470454 17.082090 17.536018 -0.380023 0.228026 0.008339 -0.008626 -854992.000000 1 0 0
-15.801409 0.570346 9.116590 18.251631 -0.036079 1.047781 0.006239 -0.002436 1418310.000000 1 0 0
-4.654209 4.620346 15.173190 16.529820 -0.781747 0.407969 0.005562 -0.006103 1525570.000000 1 0 0
-7.971309 -8.121854 10.418390 15.428841 0.794752 0.829487 0.011817 -0.005096 1964900.000000 1 0 0
-2.719909 -0.355254 14.672390 14.926592 0.129877 0.184817 0.003816 -0.002564 3161010.000000 1 0 0
-1.886509 0.952446 17.230890 17.360001 -0.467538 0.122037 0.000349 -0.009459 483485.000000 1 0 0
-0.804109 -2.446854 14.351290 14.580576 1.253285 0.177577 0.001636 -0.004408 1261330.000000 1 0 0
5.084091 -8.278954 16.552390 19.192985 -1.020075 0.530768 0.008833 -0.001856 1627900.000000 1 0 0
-4.370609 9.978246 10.635290 15.224225 -1.157955 0.797390 0.003395 -0.006470 -1540290.000000 1 0 0
-6.266809 2.168446 15.245790 16.625558 -0.333125 0.410280 0.011268 -0.000194 211811.000000 1 0 0
-4.839609 6.950846 17.167790 19.143382 -0.962584 0.458313 0.007812 -0.009263 282273.000000 1 0 0
-4.004509 9.301146 15.661090 18.649857 -1.164243 0.573986 0.009708 -0.007493 -1523550.000000 1 0 0
-4.428409 -9.697254 18.697490 21.523096 1.142413 0.518189 0.021951 -0.005913 539465.000000 1 0 0
-6.840409 -4.036654 11.164690 13.701681 0.533122 0.618342 0.001491 0.002291 -161475.000000 1 0 0
-2.271809 -0.817254 19.545390 19.693940 0.345323 0.122902 0.009981 -0.014388 -304047.000000 1 0 0
-5.649009 -4.543854 15.275090 16.908172 0.677396 0.443129 0.014024 -0.007222 1506200.000000 1 0 0
-12.909809 0.101046 9.683790 16.138438 -0.007827 0.927239 -0.001244 0.001998 1743010.000000 1 0 0
-14.412409 8.921546 10.452790 19.914124 -0.554286 1.018207 0.003114 -0.009707 -408889.000000 1 0 0
-8.334209 10.579446 12.791090 18.574060 -0.903555 0.811166 0.012220 -0.022471 -1918870.000000 1 0 0
-10.444009 7.243946 10.792890 16.674488 -0.606417 0.866799 0.004120 -0.004886 -714892.000000 1 0 0
-9.854909 -6.565254 14.857690 18.999283 0.587673 0.672907 0.032644 -0.007734 -34439.300000 1 0 0
-0.718209 -13.280254 14.428990 19.623372 1.516768 0.744693 -0.005412 -0.007614 239770.000000 1 0 0
3.809791 -5.662954 16.964390 18.285898 -0.978589 0.382510 0.006541 -0.008402 1290130.000000 1 0 0
-7.178209 9.330946 10.367390 15.686810 -0.915063 0.848781 0.000545 -0.010739 642612.000000 1 0 0
-10.227909 -6.737354 11.803190 17.009331 0.582483 0.803871 0.022706 -0.008345 2430140.000000 1 0 0
-10.878509 -3.915854 10.796490 15.818978 0.345522 0.819615 0.008420 0.001341 136485.000000 1 0 0
-10.083809 -10.231454 9.842090 17.413575 0.792666 0.970125 0.019657 -0.007858 2464030.000000 1 0 0
-9.783609 -3.667054 15.336490 18.557322 0.358609 0.598044 0.025936 -0.010785 410231.000000 1 0 0
5.547791 -3.347954 16.117990 17.371712 -0.542971 0.382245 0.009584 -0.004463 710974.000000 1 0 0
-11.385209 0.394546 15.363990 19.126705 -0.034640 0.638024 0.024257 -0.003927 244707.000000 1 0 0
-3.327509 3.137146 18.723090 19.273508 -0.755960 0.239563 0.010665 -0.012580 -471899.000000 1 0 0
0.588491 7.388346 13.954390 15.800601 1.491313 0.488249 -0.004756 -0.003368 426715.000000 1 0 0
-13.040409 -7.522954 12.300990 19.441231 0.523258 0.885727 0.010589 -0.004580 -195819.000000 1 0 0
-1.576409 -1.076054 12.079190 12.229055 0.598951 0.156716 -0.001209 -0.000448 632175.000000 1 0 0
2.016091 -4.864254 13.167990 14.181733 -1.177878 0.380396 -0.001478 -0.003184 669317.000000 1 0 0
-14.685909 -3.891254 8.627490 17.471444 0.259013 1.054336 0.020401 -0.012137 -961076.000000 1 0 0
8.002591 0.761146 15.862890 17.783478 0.094827 0.469042 0.010489 -0.007135 662022.000000 1 0 0
-1.087809 11.386246 13.365790 17.591881 -1.475548 0.707836 -0.003331 -0.000601 1231080.000000 1 0 0
2.800691 -12.278954 -13.744010 18.641738 -1.346544 2.399818 -0.001936 0.010745 -786907.000000 1 0 0
0.783891 -10.689754 -14.049010 17.670880 -1.497596 2.489866 -0.005362 0.006026 -1272950.000000 1 0 0
3.088391 -14.362454 -12.213310 19.104533 -1.358989 2.264369 -0.011707 0.007414 -2271320.000000 1 0 0
-5.116809 -10.114454 -16.173710 19.750261 1.102447 2.530308 0.002427 -0.010304 -376570.000000 1 0 0
-1.065309 -12.282854 -15.074510 19.474194 1.484281 2.456051 -0.001505 0.004639 -74278.800000 1 0 0
5.617791 -15.023454 -12.267110 20.192715 -1.212960 2.223708 0.002604 0.008105 1732490.000000 1 0 0
1.921491 -11.919154 -16.116710 20.137197 -1.410961 2.498667 0.000582 0.006487 -746749.000000 1 0 0
1.265091 -14.355154 -14.007010 20.096448 -1.482895 2.341987 -0.001599 0.015961 -81641.500000 1 0 0
-1.041809 -10.732754 -16.028910 19.318471 1.474031 2.549401 0.000369 -0.001243 -422263.000000 1 0 0
-5.856209 -5.568954 -15.057610 17.089179 0.760261 2.649021 0.010265 -0.006141 -42342.200000 1 0 0
-6.496809 -7.566554 -16.645810 19.404748 0.861318 2.601812 0.009953 -0.000725 491326.000000 1 0 0
4.883191 -12.542954 -11.577710 17.754284 -1.199533 2.281158 -0.003746 0.007576 -222714.000000 1 0 0
-1.813409 -15.553854 -13.282610 20.533839 1.454731 2.274262 0.002640 0.008070 147227.000000 1 0 0
15.632691 -7.347054 -8.967010 19.461950 -0.439345 2.049632 0.010944 0.002631 618397.000000 1 0 0
19.066691 -3.451754 -4.318310 19.851980 -0.179096 1.790075 0.007932 0.002117 -101461.000000 1 0 0
15.071391 -11.546354 -8.738710 20.900482 -0.653732 2.002161 0.044815 -0.014106 343503.000000 1 0 0
17.863391 -3.458054 -6.555410 19.339914 -0.191218 1.916605 0.040381 -0.000996 444773.000000 1 0 0
9.604491 -9.164954 -15.269110 20.233347 -0.761985 2.425918 0.044871 -0.017251 518145.000000 1 0 0
1.217291 1.844946 -15.243010 15.402434 0.987564 2.997589 0.004415 -0.006142 -365260.000000 1 0 0
4.815391 -4.432854 -13.961610 15.419622 -0.744059 2.703222 -0.001439 -0.001241 30411.500000 1 0 0
13.180791 -5.502554 -8.763810 16.757557 -0.395473 2.121136 0.029402 -0.004314 -2358830.000000 1 0 0
2.943891 0.852146 -12.196110 12.575283 0.281762 2.895402 -0.001253 -0.005177 -3014550.000000 1 0 0
0.648091 6.211746 -12.794110 14.237102 1.466839 2.687469 0.005313 -0.005826 242557.000000 1 0 0
3.181091 -1.252054 -16.781910 17.126572 -0.374971 2.940634 -0.001068 -0.006439 -381857.000000 1 0 0
13.152391 4.281346 -11.446210 17.953580 0.314701 2.262103 0.016460 -0.005907 458987.000000 1 0 0
-3.846909 9.662046 -16.530310 19.529593 -1.191889 2.580029 -0.005996 0.003933 19092.800000 1 0 0
-0.091409 -5.151054 -17.738210 18.471216 1.553052 2.858930 0.008154 -0.011260 17724.700000 1 0 0
-0.565409 -8.666154 -17.723910 19.737246 1.505645 2.685983 0.006217 -0.002573 -453577.000000 1 0 0
5.676891 -10.209154 -12.288410 16.954614 -1.063313 2.381515 0.004585 0.003772 395766.000000 1 0 0
1.596291 -9.918554 -18.101010 20.701991 -1.411225 2.634913 0.011586 -0.008106 -800141.000000 1 0 0
10.984591 8.581746 -14.640610 20.215219 0.663205 2.380724 0.030891 -0.012230 829371.000000 1 0 0
10.981591 -3.892154 -12.853710 17.348258 -0.340612 2.405239 0.019536 -0.008455 366488.000000 1 0 0
4.878391 7.395846 -12.347110 15.196985 0.987693 2.519174 0.001498 -0.001701 -731431.000000 1 0 0
9.691291 -6.100254 -12.378710 16.863175 -0.561798 2.395089 0.018265 -0.007754 -1158630.000000 1 0 0
-3.299309 0.227946 -15.951110 16.290344 -0.068979 2.937157 0.008504 -0.003916 -1760680.000000 1 0 0
-0.710609 10.690646 -12.833910 16.718377 -1.504424 2.445967 -0.001551 -0.000903 -1377740.000000 1 0 0
6.657791 -5.534354 -12.484810 15.192950 -0.693513 2.535272 0.006268 -0.002548 99453.400000 1 0 0
17.898391 -6.238554 -8.196310 20.650701 -0.335386 1.978936 0.026420 -0.006745 59010.400000 1 0 0
13.071191 4.758346 -13.988010 19.727197 0.349121 2.358978 0.023560 -0.010692 283767.000000 1 0 0
14.176491 0.866846 -11.497410 18.273334 0.061071 2.251308 0.025510 -0.010049 -153309.000000 1 0 0
15.026591 5.967646 -11.193810 19.665010 0.378038 2.176359 0.029528 -0.007315 740455.000000 1 0 0
8.179091 1.476846 -11.754110 14.395753 0.178639 2.526116 0.000588 -0.000124 772383.000000 1 0 0
9.948191 1.266946 -9.019210 13.487691 0.126673 2.303254 0.005080 -0.000842 335312.000000 1 0 0
-0.121809 -5.725654 -12.992610 14.198798 1.549525 2.726428 0.000384 -0.001766 43388.400000 1 0 0
10.597291 -5.702554 -8.979910 15.015341 -0.493672 2.211861 0.019113 -0.006938 103944.000000 1 0 0
10.289391 8.544746 -11.193610 17.440790 0.693030 2.267648 0.017856 -0.012797 780277.000000 1 0 0
8.373691 8.095246 -14.561210 18.646194 0.768493 2.466936 0.027388 -0.006709 450589.000000 1 0 0
8.634591 10.507446 -10.693510 17.300686 0.882928 2.237116 0.017114 -0.012419 -2564970.000000 1 0 0
6.805691 1.861746 -17.846410 19.190567 0.267024 2.765093 0.003583 -0.005681 -461966.000000 1 0 0
12.123191 2.528246 -13.000610 17.954934 0.205599 2.380480 0.020238 -0.008015 -1491900.000000 1 0 0
2.807091 -0.799654 -19.231410 19.451641 -0.277518 2.990971 0.009327 -0.016919 -358591.000000 1 0 0
10.352291 -2.463554 -15.589610 18.875247 -0.233626 2.542644 0.029230 -0.006484 -593188.000000 1 0 0
8.335891 -0.899454 -13.049810 15.511081 -0.107485 2.570520 0.005817 -0.003409 1058890.000000 1 0 0
0.514291 4.315446 -14.574310 15.208487 1.452181 2.851793 0.003465 -0.003048 339374.000000 1 0 0
3.990091 -7.687354 -15.771510 17.993242 -1.092028 2.639389 0.006862 -0.005413 -1299150.000000 1 0 0
11.456991 -5.871754 -14.390210 19.308503 -0.473601 2.411749 0.025637 -0.007579 489802.000000 1 0 0
-5.831809 4.403246 -16.848610 18.365027 -0.646719 2.732367 -0.001637 -0.002371 271858.000000 1 0 0
11.348691 7.755546 -8.971710 16.414410 0.599489 2.149065 0.016681 -0.009740 -1900590.000000 1 0 0
9.477691 6.112246 -13.414610 17.525351 0.572788 2.442522 0.018668 -0.005369 204032.000000 1 0 0
12.116191 0.612746 -10.111310 15.792914 0.050529 2.265611 0.013913 -0.004886 -2670800.000000 1 0 0
5.539491 -7.371454 -13.845710 16.635143 -0.926349 2.554071 0.005808 -0.001370 -313300.000000 1 0 0
8.732891 -10.364954 -10.638910 17.230266 -0.870649 2.236299 0.023675 -0.001083 -142085.000000 1 0 0
10.114691 4.725146 -15.878310 19.410170 0.437030 2.528793 0.033683 -0.006227 -80797.900000 1 0 0
9.947791 -0.341754 -10.951310 14.798869 -0.034341 2.403881 0.008889 -0.003453 923487.000000 1 0 0
-1.709609 5.590346 -13.993210 15.165245 -1.274014 2.745863 0.001122 -0.006284 1700250.000000 1 0 0
1.242591 -0.790054 -15.051010 15.122867 -0.566336 3.044070 0.001111 -0.005453 -1041430.000000 1 0 0
11.694991 -10.410754 -14.154610 21.107098 -0.727368 2.305826 0.053427 -0.016082 1312610.000000 1 0 0
9.268491 -7.899654 -10.717910 16.222917 -0.705835 2.292500 0.021814 -0.002982 125531.000000 1 0 0
14.037591 -0.934254 -9.649510 17.059890 -0.066456 2.171988 0.016727 -0.004840 662113.000000 1 0 0
4.017491 11.178446 -12.342910 17.130246 1.225775 2.375367 0.018149 -0.008190 -592307.000000 1 0 0
-1.167109 2.903546 -16.919410 17.206370 -1.188602 2.958704 0.004672 -0.006212 859516.000000 1 0 0
5.923891 -0.557154 -17.654310 18.630018 -0.093776 2.816519 -0.004153 -0.001098 -287348.000000 1 0 0
6.417491 -6.555254 -16.173710 18.594204 -0.796017 2.625644 0.010717 -0.000278 580264.000000 1 0 0
-1.559509 -5.361454 -19.850210 20.620575 1.287733 2.867388 0.015424 -0.018091 -771697.000000 1 0 0
-0.046109 -4.275354 -15.211710 15.801168 1.560012 2.867589 0.002633 -0.006573 -72743.500000 1 0 0
0.461591 0.658246 -13.048210 13.072954 0.959236 3.080056 0.001916 -0.007403 904863.000000 1 0 0
15.601491 0.557546 -13.624110 20.720370 0.035722 2.288322 0.029046 -0.016501 510679.000000 1 0 0
-0.248709 6.920246 -16.324810 17.732769 -1.534872 2.740414 0.008497 -0.000795 117883.000000 1 0 0
-5.100509 -0.503954 -18.146710 18.856623 0.098485 2.866323 0.008432 -0.007154 -389465.000000 1 0 0
10.424691 -8.498954 -12.840610 18.595367 -0.683984 2.333014 0.023599 -0.018992 -283833.000000 1 0 0
4.353291 8.413846 -17.473610 19.876393 1.093329 2.644796 0.022494 -0.008807 -98448.900000 1 0 0
8.988391 0.611746 -16.978210 19.220432 0.067955 2.653741 0.010456 -0.003799 -46460.200000 1 0 0
3.224191 4.628946 -18.580910 19.418362 0.962404 2.846837 0.009216 -0.001509 82743.600000 1 0 0
1.443491 -8.226254 -16.110110 18.146365 -1.397091 2.663311 -0.000728 -0.003890 588994.000000 1 0 0
4.500691 7.717546 -14.950210 17.416243 1.042839 2.602951 0.010774 -0.004136 843645.000000 1 0 0
-5.629609 -0.417254 -15.105310 16.125662 0.073982 2.783951 0.001395 -0.002362 -603918.000000 1 0 0
2.825291 3.201446 -13.787010 14.433058 0.847732 2.841261 0.000736 -0.002428 292920.000000 1 0 0
-2.591309 -10.321654 -18.060710 20.962840 1.324824 2.609128 0.011343 -0.005449 231987.000000 1 0 0
6.184591 -9.125654 -15.746810 19.222090 -0.975184 2.530818 0.004303 0.000265 -71652.900000 1 0 0
-1.903109 5.333346 -17.419910 18.317196 -1.228048 2.827296 0.005943 -0.003026 -33470.900000 1 0 0
10.097591 -12.272854 -11.583310 19.666147 -0.882332 2.200614 0.038213 -0.004896 -14958.900000 1 0 0
10.856591 3.633946 -9.384010 14.803066 0.323000 2.257412 0.008070 -0.002210 -1050670.000000 1 0 0
4.788091 -0.523954 -10.847310 11.868634 -0.108995 2.723704 0.001590 -0.005154 -272366.000000 1 0 0
6.255291 9.458746 -11.369810 16.058304 0.986502 2.357505 0.012802 -0.011693 183278.000000 1 0 0
10.891691 -9.529154 -9.326910 17.216996 -0.718774 2.143287 0.027624 -0.003844 -695289.000000 1 0 0
3.216991 -2.469154 -14.511510 15.067504 -0.654630 2.869088 -0.003476 -0.005335 -191986.000000 1 0 0
9.144891 -4.574654 -14.569410 17.799556 -0.463841 2.529638 0.018422 -0.010407 576930.000000 1 0 0
-3.971709 -6.682454 -16.580610 18.312463 1.034542 2.703182 -0.003673 -0.006213 -1070250.000000 1 0 0
5.958291 -7.788854 -11.257410 14.929727 -0.917779 2.424967 0.005045 0.000648 520367.000000 1 0 0
5.381791 6.153546 -16.783210 18.668314 0.852202 2.688326 0.011384 -0.014911 -1975730.000000 1 0 0
8.817791 1.357846 -19.510310 21.453423 0.152789 2.712699 0.015521 -0.005404 538676.000000 1 0 0
13.058191 5.768946 -9.354410 17.067574 0.416003 2.150864 0.012924 -0.004126 686210.000000 1 0 0
-1.481909 -0.801454 -17.495610 17.576540 0.495772 3.045593 0.004389 -0.005877 682847.000000 1 0 0
-0.314609 -0.791054 -19.853310 19.871554 1.192267 3.098738 0.015797 -0.008421 -239033.000000 1 0 0
2.834091 6.381846 -16.641110 18.046788 1.152871 2.744293 0.008452 0.000471 360286.000000 1 0 0
7.678491 3.771046 -15.486510 17.692145 0.456517 2.636919 0.010826 -0.004979 63411.800000 1 0 0
3.144091 -9.962554 -14.968610 18.253687 -1.265098 2.532264 0.002653 0.003830 76651.600000 1 0 0
9.149091 -10.684054 -13.298410 19.357236 -0.862638 2.328148 0.039205 -0.006939 -60568.700000 1 0 0
3.743091 0.021146 -14.717210 15.185765 0.005649 2.892535 -0.006372 -0.005121 -1017330.000000 1 0 0
-1.110009 -3.046354 -18.966710 19.241842 1.221375 2.972283 0.013909 -0.010276 363835.000000 1 0 0
9.371591 10.084846 -13.103410 19.006057 0.822041 2.331503 0.028349 -0.011138 334090.000000 1 0 0
4.537191 1.983246 -10.628410 11.725292 0.412082 2.705601 -0.000850 -0.000670 28046.800000 1 0 0
-0.565609 6.919046 -18.976310 20.206273 -1.489231 2.790885 0.017753 -0.000063 7770.060000 1 0 0
0.892291 -1.833954 -17.728110 17.845040 -1.117975 3.027053 0.013428 -0.011153 -1553630.000000 1 0 0
-4.442209 -2.219254 -14.057810 14.909069 0.463314 2.802039 0.007622 -0.006121 -4406370.000000 1 0 0
10.040691 6.022046 -10.472510 15.708405 0.540246 2.300544 0.010498 0.000980 140186.000000 1 0 0
8.182091 5.636146 -17.277310 19.930334 0.603196 2.619716 0.021324 -0.007543 -1165760.000000 1 0 0
11.329391 0.182946 -13.814710 17.867142 0.016147 2.454654 0.019525 0.004391 683040.000000 1 0 0
6.740291 11.932346 -11.790910 18.078660 1.056604 2.281280 0.030506 -0.017021 -424406.000000 1 0 0
-0.959109 0.546546 -15.267010 15.306868 -0.517954 3.069412 0.001869 -0.007629 -533033.000000 1 0 0
-4.138109 -2.914854 -18.873210 19.540173 0.613668 2.879566 0.004689 -0.009578 66932.900000 1 0 0
5.809591 -12.011354 -14.044610 19.372017 -1.120294 2.381823 0.002044 0.002837 -15897.200000 1 0 0
2.174491 -4.777354 -14.000710 14.952304 -1.143654 2.782904 -0.001638 -0.002688 -743703.000000 1 0 0
11.727991 1.912146 -15.555710 19.575040 0.161619 2.489261 0.037748 -0.006502 299500.000000 1 0 0
9.699291 2.174746 -13.896210 17.085386 0.220569 2.520665 0.019376 -0.005509 167877.000000 1 0 0
-2.205009 -4.202154 -16.558510 17.225110 1.087559 2.862481 0.000462 -0.008176 -863114.000000 1 0 0
-2.849909 10.214046 -14.222810 17.740830 -1.298698 2.500929 -0.001963 -0.005781 -119230.000000 1 0 0
3.438891 5.670546 -13.686610 15.208693 1.025649 2.690383 0.004768 -0.001085 -469126.000000 1 0 0
-5.072609 -2.546054 -16.530510 17.477743 0.465184 2.810856 0.006601 -0.004377 303613.000000 1 0 0
-4.302109 6.192246 -13.529410 15.488608 -0.963598 2.633157 -0.003792 -0.005603 -1731760.000000 1 0 0
5.995491 -1.187754 -14.270410 15.524216 -0.195576 2.736931 0.000920 0.001332 -714943.000000 1 0 0
6.708491 -3.001854 -12.644710 14.625446 -0.420749 2.615089 0.002393 -0.004811 1178760.000000 1 0 0
3.136191 -3.202854 -18.406410 18.944390 -0.795914 2.902707 0.004159 -0.012313 6136.400000 1 0 0
7.473791 -12.210754 -12.135210 18.767615 -1.021552 2.273920 0.014760 0.003815 216812.000000 1 0 0
-5.904309 -5.313354 -17.640410 19.346231 0.732766 2.718508 0.016649 -0.007832 447469.000000 1 0 0
0.573591 8.629546 -11.890610 14.703220 1.504426 2.512748 0.002270 -0.002629 393987.000000 1 0 0
0.307291 8.409046 -14.443610 16.715991 1.534270 2.614075 -0.001098 -0.005080 136978.000000 1 0 0
7.814591 -2.449654 -15.044310 17.128920 -0.303770 2.643089 0.011560 -0.009685 -559803.000000 1 0 0
14.327191 1.510046 -8.926810 16.948055 0.105010 2.125529 0.019846 -0.004184 251331.000000 1 0 0
2.673991 10.811746 -14.516010 18.296410 1.328339 2.487138 0.016352 -0.002189 -86628.300000 1 0 0
5.886691 1.001146 -15.538610 16.646436 0.168458 2.774709 -0.003351 -0.003902 526187.000000 1 0 0
16.886691 -5.470354 -10.284010 20.514531 -0.313277 2.095901 0.053223 -0.017930 743415.000000 1 0 0
4.880891 -4.217054 -11.273510 12.988405 -0.712562 2.621891 0.000619 -0.001232 -656703.000000 1 0 0
8.741491 -3.796054 -17.094510 19.571560 -0.409685 2.633011 0.011025 -0.009595 314341.000000 1 0 0
13.319091 -9.616454 -8.897110 18.682423 -0.625342 2.067157 0.035759 -0.005856 -359468.000000 1 0 0
2.296491 -7.850354 -13.725910 15.978189 -1.286204 2.604188 0.000074 0.001610 311347.000000 1 0 0
-6.768709 -2.432054 -18.450610 19.802912 0.344943 2.769895 0.008567 -0.005750 306694.000000 1 0 0
-1.458509 -6.415154 -15.778110 17.094742 1.347243 2.746550 0.002346 -0.006048 1426640.000000 1 0 0
1.618491 -7.400154 -18.561010 20.047266 -1.355476 2.754108 0.016512 -0.009948 -378388.000000 1 0 0
5.255391 10.985946 -14.542310 18.968103 1.124599 2.444438 0.033751 -0.015846 -769546.000000 1 0 0
5.519891 -3.568854 -17.325110 18.530120 -0.573942 2.778971 0.011449 -0.007840 -284631.000000 1 0 0
3.935691 13.130346 -14.016710 19.605199 1.279578 2.367347 0.029792 -0.013513 224447.000000 1 0 0
9.233191 10.238946 -15.648610 20.855858 0.837003 2.419345 0.035804 -0.017426 91205.700000 1 0 0
2.496691 3.844846 -16.246910 16.881303 0.994871 2.866575 0.001620 -0.005216 459316.000000 1 0 0
16.584191 1.798846 -11.499010 20.260762 0.108045 2.174324 0.022594 -0.012945 -901662.000000 1 0 0
10.080291 -3.660654 -10.379210 14.924498 -0.348341 2.339839 0.018570 -0.005772 77159.300000 1 0 0
14.748891 -1.985154 -11.857510 19.028168 -0.133793 2.243567 0.035890 -0.011841 46580.400000 1 0 0
-2.636009 -8.725354 -15.976010 18.393293 1.277406 2.623122 -0.000587 -0.002564 60925.900000 1 0 0
14.016491 8.108346 -8.880910 18.468293 0.524450 2.072447 0.037471 -0.006361 1320110.000000 1 0 0
-8.224809 0.016246 -16.661510 18.581003 -0.001975 2.683044 -0.000548 0.002431 -529145.000000 1 0 0
-3.442109 3.890646 -15.852610 16.682041 -0.846491 2.824930 0.001682 -0.005047 -127881.000000 1 0 0
15.087291 3.980946 -9.667710 18.355895 0.257981 2.125488 0.027252 -0.005170 584641.000000 1 0 0
5.427891 0.979846 -12.878210 14.009653 0.178597 2.736938 -0.003804 -0.002765 319897.000000 1 0 0
7.913891 -7.805354 -12.949510 17.065844 -0.778494 2.432260 0.020666 -0.003535 -2946930.000000 1 0 0
3.315291 -6.196754 -11.946910 13.860720 -1.079539 2.609852 0.000220 -0.000868 -978938.000000 1 0 0
-3.279809 3.393546 -18.400110 18.995719 -0.802440 2.890514 0.006672 -0.007495 -458146.000000 1 0 0
0.743491 5.048946 -17.739010 18.458524 1.424590 2.861464 0.013509 -0.009338 316236.000000 1 0 0
6.143891 7.000046 -10.237610 13.840401 0.850443 2.403406 0.001227 -0.000076 374402.000000 1 0 0
9.718091 3.625846 -11.686110 15.625403 0.357106 2.415677 0.017341 -0.004371 -157418.000000 1 0 0
4.258291 1.433246 -17.549710 18.115727 0.324668 2.890959 0.003060 -0.004727 -534616.000000 1 0 0
2.580291 7.982946 -13.279910 15.708002 1.258170 2.578153 0.006772 -0.004028 -2036290.000000 1 0 0
14.448091 -3.452754 -9.806710 17.800011 -0.234577 2.154285 0.025754 -0.004809 189663.000000 1 0 0
-1.324409 9.276046 -16.173410 18.691663 -1.428977 2.616493 0.003070 -0.001022 -1414150.000000 1 0 0
-5.210509 2.006346 -15.896310 16.848368 -0.367559 2.803812 0.002354 -0.001213 627891.000000 1 0 0
4.512791 4.166946 -11.931310 13.419571 0.745574 2.666166 0.000220 -0.000486 421609.000000 1 0 0
9.061791 3.189746 -17.694510 20.134205 0.338455 2.644197 0.014427 -0.001990 974204.000000 1 0 0
-4.244809 14.262346 -13.336710 19.982511 -1.281521 2.301534 -0.000303 -0.007501 -238385.000000 1 0 0
15.570891 -4.920154 -7.979010 18.174850 -0.306056 2.025297 0.027411 -0.004636 1383410.000000 1 0 0
1.235291 9.195146 -16.736910 19.136374 1.437254 2.635432 0.008405 -0.002007 -235580.000000 1 0 0
0.483391 -3.193154 -12.857710 13.257096 -1.420554 2.895508 -0.001146 -0.003436 370238.000000 1 0 0
7.530791 3.587446 -12.939310 15.395075 0.444566 2.568972 0.005930 -0.003125 945273.000000 1 0 0
-2.956809 7.683246 -15.079610 17.180501 -1.203428 2.641872 -0.001157 -0.003209 19917.600000 1 0 0
12.166791 -5.091254 -11.027310 17.191662 -0.396314 2.267162 0.027316 -0.006274 -1176620.000000 1 0 0
0.781891 -4.389654 -20.063210 20.552684 -1.394524 2.922912 0.019542 -0.015903 -1501120.000000 1 0 0
3.400491 -4.552354 -16.141910 17.112817 -0.929235 2.803124 0.003762 -0.008972 266804.000000 1 0 0
-5.681109 4.150846 -14.381510 16.010383 -0.630995 2.686594 -0.005226 -0.003098 864458.000000 1 0 0
12.256991 -7.494854 -9.822610 17.403745 -0.548815 2.170498 0.026183 -0.004871 220564.000000 1 0 0
-2.049409 -1.819254 -15.108310 15.354830 0.725976 2.962160 0.005717 -0.004187 912536.000000 1 0 0
6.996591 5.881646 -14.265910 16.942911 0.699038 2.571774 0.011577 -0.002745 -1018890.000000 1 0 0
4.285791 -5.600054 -18.309210 19.620290 -0.917567 2.773950 0.013124 -0.016650 74352.000000 1 0 0
7.579191 7.378946 -12.217610 16.160538 0.772012 2.428000 0.010951 -0.005781 -37883.000000 1 0 0
12.287691 -2.493054 -11.015510 16.689641 -0.200173 2.291643 0.021122 -0.005997 -308196.000000 1 0 0
7.446591 -0.775954 -10.635310 13.006292 -0.103828 2.528209 0.003881 -0.002996 -1004380.000000 1 0 0
5.290191 3.934246 -14.351910 15.793724 0.639449 2.710979 -0.001590 -0.002718 1062170.000000 1 0 0
14.716791 2.851246 -13.076010 19.892098 0.191370 2.288089 0.023832 -0.012473 694384.000000 1 0 0
-6.406509 6.753146 -15.812410 18.348860 -0.811733 2.609535 -0.005832 0.001407 650142.000000 1 0 0
-11.538609 3.648946 -16.214010 20.232361 -0.306287 2.500412 0.042353 -0.012379 77185.000000 1 0 0
-4.862009 6.585346 -18.008810 19.781890 -0.934821 2.714970 0.001573 0.011319 -816405.000000 1 0 0
-10.013309 1.582646 -15.634910 18.633881 -0.156758 2.566346 0.012850 -0.003515 -818791.000000 1 0 0
-7.410709 6.046246 -18.030010 20.409727 -0.684349 2.653871 -0.005599 0.003277 -272383.000000 1 0 0
-8.914909 3.943446 -15.993610 18.730241 -0.416468 2.594215 0.003647 0.015325 -115972.000000 1 0 0
8.917891 13.398346 -11.758110 19.932326 0.983535 2.201733 0.037618 -0.023780 -869336.000000 1 0 0
13.996791 8.972446 -11.371910 20.142872 0.570048 2.170699 0.042194 -0.012439 430077.000000 1 0 0
8.314991 15.808946 -9.170010 20.078619 1.086591 2.045084 0.030156 -0.012775 -232428.000000 1 0 0
7.517991 13.406946 -13.871110 20.704446 1.059735 2.304949 0.039569 -0.017149 175570.000000 1 0 0
4.694591 16.011246 -12.387210 20.780812 1.285584 2.209417 0.049677 -0.019191 116283.000000 1 0 0
11.097591 10.994046 -11.442210 19.363619 0.780711 2.202986 0.031266 -0.014870 465328.000000 1 0 0
15.708091 9.809746 -9.594010 20.857139 0.558242 2.048777 0.055686 -0.005575 940059.000000 1 0 0
13.157091 10.571946 -9.393810 19.316282 0.676882 2.078665 0.048626 -0.014309 129537.000000 1 0 0
10.273991 11.869346 -8.402910 17.805762 0.857321 2.062265 0.014270 -0.005517 259783.000000 1 0 0
5.463591 16.220446 -9.978010 19.811976 1.245899 2.098598 0.029024 -0.014021 -575612.000000 1 0 0
6.759091 14.621546 -11.698810 19.908216 1.137786 2.198932 0.033722 -0.002481 -1253320.000000 1 0 0
10.995891 13.976546 -9.825910 20.317528 0.904194 2.075579 0.042268 -0.003169 -86283.300000 1 0 0
8.317291 -18.671154 -1.041310 20.466403 -1.151723 1.621697 0.038856 0.006156 -262309.000000 1 0 0
7.418691 -17.559654 -3.127410 19.317327 -1.171058 1.733409 0.028319 0.008974 -437099.000000 1 0 0
4.371191 -18.563054 5.911190 19.965882 -1.339531 1.270226 0.027977 0.006203 82825.200000 1 0 0
9.825591 -17.045954 -2.356510 19.815648 -1.047897 1.690000 0.034435 0.004497 -499302.000000 1 0 0
-9.689909 -12.077454 -10.117410 18.496519 0.894646 2.149561 0.017701 -0.008649 125747.000000 1 0 0
-5.073609 -6.992654 -12.126610 14.889372 0.943119 2.522573 -0.001517 -0.004563 315203.000000 1 0 0
-10.764609 -9.437354 -5.713910 15.413930 0.719793 1.950557 0.011111 -0.005924 -402437.000000 1 0 0
-4.482309 -11.393354 -14.003210 18.600793 1.195980 2.423145 0.001277 -0.003257 -460103.000000 1 0 0
-3.138509 -15.490854 7.445990 17.471679 1.370898 1.130536 0.006405 -0.003610 119725.000000 1 0 0
-4.790509 -12.065354 -11.552110 17.377370 1.192838 2.297994 -0.000471 0.000280 246052.000000 1 0 0
-14.297409 -12.810354 -4.233510 19.658171 0.730596 1.787853 0.010600 0.001251 -184793.000000 1 0 0
-3.146309 -12.268254 -3.236710 13.072322 1.319748 1.820999 0.007130 -0.000335 774073.000000 1 0 0
-2.478309 -17.451854 -1.494310 17.690172 1.429731 1.655368 -0.004696 -0.004504 -2106680.000000 1 0 0
-5.756209 -12.195054 3.684390 13.979557 1.129789 1.304090 0.002912 -0.000859 -652894.000000 1 0 0
-8.610309 -10.595854 -11.998910 18.176451 0.888413 2.291795 0.003959 -0.004785 -261969.000000 1 0 0
-9.731209 -11.787154 -7.541410 17.044245 0.880653 2.029137 0.012505 -0.010448 204405.000000 1 0 0
-10.849209 -15.285454 6.340990 19.787840 0.953541 1.244593 0.019769 -0.000793 -338956.000000 1 0 0
-9.423509 -15.719954 0.720590 18.342266 1.030773 1.531500 0.003642 0.006870 -1732510.000000 1 0 0
-14.766109 -7.548854 -8.200410 18.500538 0.472590 2.030020 0.007750 -0.010339 -27273.500000 1 0 0
-2.475209 -16.496554 5.122090 17.449893 1.421863 1.272878 0.011008 -0.006600 -1017270.000000 1 0 0
4.333991 -16.002354 5.629690 17.508633 -1.306307 1.243443 0.016105 0.000270 -103149.000000 1 0 0
4.300791 -14.611454 -10.009310 18.225742 -1.284537 2.152185 0.001503 0.008390 26791.400000 1 0 0
-7.587809 -14.075854 -0.272010 15.993077 1.076387 1.587805 0.004052 0.002706 820509.000000 1 0 0
2.972791 -14.828654 9.619890 17.923971 -1.372943 1.004269 0.012164 -0.011036 -458083.000000 1 0 0
2.503091 -17.297254 10.375090 20.324934 -1.427084 1.035075 0.020903 -0.007189 -470088.000000 1 0 0
-8.288009 -17.193754 -5.750710 19.934566 1.121623 1.863435 0.014826 0.000677 -199956.000000 1 0 0
-6.342709 -9.159454 -7.800510 13.600497 0.965137 2.181624 0.006264 -0.004505 182812.000000 1 0 0
-6.028409 -13.068054 -4.841010 15.183910 1.138578 1.895286 0.000796 -0.005758 354877.000000 1 0 0
2.148991 -19.329654 -4.843110 20.042689 -1.460075 1.814852 0.001176 -0.000338 -69503.200000 1 0 0
-5.481809 -12.941054 8.256090 16.299820 1.170113 1.039659 0.004066 -0.005578 1054950.000000 1 0 0
2.041791 -17.479354 3.545790 17.951862 -1.454512 1.371972 0.012939 -0.011485 1016350.000000 1 0 0
-17.740809 -10.072454 -2.321610 20.532426 0.516373 1.684109 0.019588 -0.005984 628299.000000 1 0 0
-3.473709 -15.397254 2.574390 15.992797 1.348905 1.409121 -0.000690 -0.005981 -171876.000000 1 0 0
-9.926709 -10.147154 -14.214210 20.088505 0.796379 2.356863 0.015067 -0.010660 -390228.000000 1 0 0
5.984391 -14.600954 -5.563610 16.731842 -1.181816 1.909767 -0.001076 0.005005 286284.000000 1 0 0
-7.229709 -12.365654 -10.716810 17.889329 1.041732 2.213125 0.004568 -0.004966 -2084930.000000 1 0 0
-7.143309 -14.338354 4.018990 16.515676 1.108593 1.324984 -0.000281 0.002159 612727.000000 1 0 0
3.233891 -14.875354 -3.068710 15.529043 -1.356728 1.769717 0.004690 0.001692 261380.000000 1 0 0
-7.635109 -11.459854 7.844390 15.847952 0.983083 1.052987 0.004944 -0.008137 -1592580.000000 1 0 0
-12.829709 -12.200454 -1.129910 17.740609 0.760264 1.634530 0.005862 0.004371 -72467.100000 1 0 0
-1.933609 -13.662954 4.091490 14.392896 1.430208 1.282550 0.001861 -0.002697 -2978730.000000 1 0 0
-3.229709 -13.944954 5.268090 15.252722 1.343205 1.218145 -0.000388 -0.004367 250289.000000 1 0 0
-14.363309 -10.270354 -4.280310 18.168816 0.620749 1.808617 0.005288 0.000146 476458.000000 1 0 0
-6.153509 -8.639854 -10.441810 14.884359 0.951914 2.348337 0.000776 -0.005199 50862.200000 1 0 0
0.511591 -19.344154 2.420690 19.501737 -1.544356 1.446348 0.012253 -0.016018 30047.400000 1 0 0
6.483191 -14.181554 -8.174210 17.605850 -1.142007 2.053628 0.008795 0.006324 -2126600.000000 1 0 0
-3.987309 -16.766354 -5.914110 18.220482 1.337317 1.901370 -0.005499 -0.003841 -76719.500000 1 0 0
-3.598009 -13.709054 -13.344810 19.467095 1.314130 2.326095 0.008317 0.005567 -929392.000000 1 0 0
-8.148009 -14.720054 -4.638610 17.452414 1.065246 1.839816 0.005845 -0.002905 -1362070.000000 1 0 0
-4.413309 -14.343254 10.140990 18.112038 1.272297 0.976527 0.000538 -0.007993 -724235.000000 1 0 0
-0.355909 -12.152354 -9.893510 15.674435 1.541517 2.253880 -0.002823 0.002266 312172.000000 1 0 0
2.316291 -17.247454 6.876190 18.711543 -1.437298 1.194494 0.013848 -0.010257 -203091.000000 1 0 0
-2.944509 -19.168254 -3.393610 19.687780 1.418374 1.744033 -0.003305 -0.009260 -1734020.000000 1 0 0
0.660091 -15.318954 -2.986810 15.621367 -1.527733 1.763181 0.003454 -0.002777 -736475.000000 1 0 0
5.891491 -18.050954 0.549490 18.996014 -1.255316 1.541866 0.024000 -0.002920 -356133.000000 1 0 0
-7.121309 -16.790754 3.937990 18.658784 1.169671 1.358144 -0.003177 0.007254 420988.000000 1 0 0
-5.218709 -13.612254 -9.585410 17.447305 1.204696 2.152433 -0.001952 0.001460 -2976.350000 1 0 0
5.667891 -15.225654 -2.110710 16.382937 -1.214431 1.699991 0.011780 0.007886 -913239.000000 1 0 0
-8.918709 -10.347454 -0.489610 13.669414 0.859421 1.606622 0.002669 0.000648 -546260.000000 1 0 0
-7.242909 -17.755154 -3.101610 19.424861 1.183470 1.731155 -0.005748 -0.022043 -51294.900000 1 0 0
7.836191 -16.058154 -1.064810 17.899833 -1.116804 1.630319 0.018358 0.006628 -588877.000000 1 0 0
-7.964309 -10.132554 -9.548510 16.039729 0.904643 2.208440 0.008135 -0.006132 -1729730.000000 1 0 0
-9.089109 -15.154754 -7.094510 19.042336 1.030558 1.952568 0.015160 -0.002203 -247513.000000 1 0 0
-11.256309 -10.506954 -12.127710 19.600559 0.750980 2.237938 0.013236 0.002362 400201.000000 1 0 0
6.586391 -16.394854 2.429890 17.834689 -1.188795 1.434126 0.020831 -0.003484 832116.000000 1 0 0
-2.255509 -11.261454 -6.066110 12.988663 1.373126 2.056727 0.004425 0.000980 -1003660.000000 1 0 0
-12.178809 -15.134854 -3.345410 19.712406 0.893204 1.741333 0.006097 -0.004542 68896.300000 1 0 0
-0.521709 -19.813654 -2.740410 20.009071 1.544472 1.708187 0.009118 -0.005890 -83486.600000 1 0 0
-5.820309 -15.599054 -4.668810 17.291740 1.213675 1.844192 -0.007261 -0.006493 -1704020.000000 1 0 0
2.012791 -16.045054 -0.901410 16.195914 -1.446002 1.626482 0.009634 -0.004366 1058280.000000 1 0 0
-13.142009 -11.907554 5.284390 18.504784 0.736157 1.281196 0.011130 -0.001884 406374.000000 1 0 0
2.106891 -15.357854 -8.923910 17.886834 -1.434461 2.093136 0.000892 0.015124 -607782.000000 1 0 0
-11.770309 -16.590954 0.311590 20.344459 0.953762 1.555480 0.014135 -0.002605 42394.300000 1 0 0
-7.519009 -16.603954 -0.840010 18.246435 1.145579 1.616850 0.002886 -0.002146 622180.000000 1 0 0
-2.978209 -14.485654 -1.749710 14.891789 1.368025 1.688563 -0.000560 -0.003806 379208.000000 1 0 0
-1.823709 -10.515654 -13.285110 17.041099 1.399076 2.464811 -0.001688 0.002332 -61010.600000 1 0 0
1.474791 -19.632254 4.874890 20.282134 -1.495816 1.328066 0.021078 -0.015481 229137.000000 1 0 0
-17.372509 -9.317854 2.564090 19.879664 0.492308 1.441455 0.003872 -0.000290 -23748.500000 1 0 0
-2.734409 -15.697254 -8.038010 17.846299 1.398330 2.038012 -0.003413 -0.001339 -358606.000000 1 0 0
-10.617509 -12.062954 0.229590 16.071685 0.849043 1.556510 0.004198 0.003773 243189.000000 1 0 0
-6.881109 -11.434554 -6.542310 14.862722 1.029068 2.026598 0.003264 -0.005256 -273480.000000 1 0 0
-2.194009 -13.607554 -6.655010 15.305828 1.410937 2.020615 -0.002147 0.003942 528134.000000 1 0 0
-14.236109 -14.392054 -0.940310 20.265295 0.790845 1.617213 0.015764 0.006830 -104086.000000 1 0 0
-9.538409 -11.112254 -4.345710 15.275753 0.861464 1.859265 0.012640 -0.006545 633840.000000 1 0 0
9.419591 -15.116054 -5.128610 18.534466 -1.013527 1.851162 0.019353 0.005851 240896.000000 1 0 0
-5.475309 -10.957054 -9.377410 15.426337 1.107384 2.224188 -0.001521 -0.002006 -320146.000000 1 0 0
-10.448709 -15.864054 -5.115810 19.672703 0.988371 1.833866 0.020131 -0.002888 -916199.000000 1 0 0
2.231491 -17.340054 -3.152010 17.764915 -1.442810 1.749170 0.010830 0.001183 451140.000000 1 0 0
-0.302009 -14.520554 -8.115910 16.637478 1.550001 2.080374 -0.000280 0.004776 -344206.000000 1 0 0
-0.577709 -18.298554 -7.000910 19.600601 1.539236 1.936042 0.002185 -0.000593 111618.000000 1 0 0
-1.729609 -9.970754 -10.555810 14.623016 1.399037 2.377286 -0.000635 0.001258 133675.000000 1 0 0
-5.107609 -17.287954 2.069790 18.145111 1.283525 1.456479 -0.002356 -0.003332 784388.000000 1 0 0
0.259091 -12.698454 -2.703010 12.985535 -1.550396 1.780485 0.003849 0.001030 -1518940.000000 1 0 0
2.576691 -14.991454 3.114690 15.526890 -1.400582 1.368826 0.013658 -0.004383 -661738.000000 1 0 0
-9.485609 -13.135054 6.811190 17.575515 0.945352 1.172836 0.005686 -0.005323 -290884.000000 1 0 0
-0.935709 -17.866554 -4.467310 18.440341 1.518472 1.815488 0.003232 -0.003645 -24439.500000 1 0 0
-9.660609 -17.207154 -2.300310 19.867182 1.059220 1.686841 0.011301 -0.017243 -1089400.000000 1 0 0
1.273891 -16.224654 1.528090 16.346169 -1.492441 1.477177 0.011986 -0.010933 -356100.000000 1 0 0
-0.493909 -18.078854 4.372890 18.606748 1.543483 1.333561 0.018173 -0.012581 -947358.000000 1 0 0
-17.384609 -9.201554 -0.012910 19.669606 0.486807 1.571453 -0.002927 0.001185 800603.000000 1 0 0
-14.712309 -7.156554 -10.786910 19.596574 0.452735 2.153698 0.021260 -0.013243 446836.000000 1 0 0
2.841791 -12.760854 -8.910110 15.821038 -1.351676 2.169027 -0.004162 0.007407 373265.000000 1 0 0
-11.479709 -14.436854 1.772290 18.529638 0.899009 1.475004 0.001589 0.000964 40194.000000 1 0 0
-2.208709 -15.478254 10.470290 18.817059 1.429056 0.980719 0.002402 -0.008984 -403845.000000 1 0 0
-7.067709 -15.888654 1.504290 17.454648 1.152252 1.484507 0.002513 0.002486 -1362200.000000 1 0 0
-12.583209 -14.794654 -5.858410 20.286446 0.865998 1.863753 0.025733 -0.005158 264484.000000 1 0 0
1.025991 -13.765254 -5.029410 14.691148 -1.496399 1.920206 0.006784 0.002716 206657.000000 1 0 0
5.782491 -16.506254 -7.362510 18.976306 -1.233835 1.969240 0.012438 0.002391 128296.000000 1 0 0
-6.664109 -12.849754 5.953990 15.651726 1.092366 1.180562 0.002769 -0.003666 -202958.000000 1 0 0
-2.521309 -13.510854 0.557090 13.755382 1.386305 1.530285 0.006560 -0.003848 1879990.000000 1 0 0
-4.304809 -15.474454 0.196990 16.063278 1.299469 1.558533 -0.006228 -0.007239 359051.000000 1 0 0
-17.736209 -7.560054 -1.967010 19.380316 0.402929 1.672467 0.003525 -0.000029 490805.000000 1 0 0
0.993991 -12.725954 -11.983910 17.508627 -1.492847 2.324656 -0.002374 0.008604 -566267.000000 1 0 0
1.267491 -17.024954 -5.635110 17.978044 -1.496484 1.889614 0.010177 0.001211 -362161.000000 1 0 0
-12.824509 -6.326754 -9.338410 17.079278 0.458300 2.149296 0.013192 -0.004531 -155433.000000 1 0 0
-11.415709 -13.495354 -8.736610 19.717285 0.868688 2.029843 0.027484 -0.011167 384067.000000 1 0 0
-4.364809 -9.774954 3.643490 11.308240 1.150832 1.242746 0.006397 -0.001390 -2542590.000000 1 0 0
-7.020109 -14.338154 9.777490 18.720681 1.115495 1.021271 0.004586 -0.006171 -837581.000000 1 0 0
-5.387209 -15.912854 -8.038210 18.624010 1.244363 2.017067 -0.003550 -0.006285 -1335400.000000 1 0 0
-0.315609 -13.627454 2.177990 13.804012 1.547641 1.412355 0.007821 -0.004484 532153.000000 1 0 0
-10.836409 -13.295554 -4.740710 17.795332 0.886952 1.840454 0.016549 -0.005373 -766985.000000 1 0 0
-9.790309 -10.484854 6.714690 15.838857 0.819641 1.133008 0.013939 -0.004490 -164337.000000 1 0 0
-15.508809 -8.125254 -4.980210 18.202895 0.482594 1.847924 0.019160 -0.003888 -213358.000000 1 0 0
-14.630709 -7.284054 5.470090 17.234761 0.461935 1.247824 0.021122 -0.004155 511341.000000 1 0 0
-1.623909 -19.340254 0.098690 19.408561 1.487028 1.565711 0.007018 -0.009009 -418928.000000 1 0 0
-15.470809 -12.102854 -1.376610 19.690608 0.663856 1.640765 0.007913 0.005899 1082030.000000 1 0 0
-4.447909 -12.171854 -6.819210 14.643755 1.220446 2.055192 -0.000397 -0.000022 -205321.000000 1 0 0
-7.602609 -18.397154 2.010090 20.007384 1.178921 1.470159 0.003993 0.005533 468077.000000 1 0 0
-2.585509 -11.766554 -8.598810 14.801222 1.354500 2.190695 0.000772 0.003127 404412.000000 1 0 0
-1.456509 -20.368954 -5.104710 21.049317 1.499411 1.815751 0.008301 -0.001316 -12860.400000 1 0 0
-5.340009 -8.923754 -13.806110 17.284610 1.031551 2.496014 0.001712 -0.004115 210964.000000 1 0 0
-8.247109 -19.008054 -0.978810 20.743167 1.161433 1.618001 -0.001768 0.001287 50353.500000 1 0 0
-17.207409 -7.260454 5.708290 19.529303 0.399274 1.274172 0.029729 -0.004516 87308.500000 1 0 0
-3.538209 -14.618054 -4.312610 15.646246 1.333320 1.850044 -0.005243 -0.002839 -1809770.000000 1 0 0
-3.294209 -15.095354 -11.101710 19.025496 1.355938 2.193850 0.006338 0.005420 -29328.700000 1 0 0
-0.241309 -16.594554 6.456990 17.808149 1.556256 1.199755 0.022219 -0.013285 168179.000000 1 0 0
-11.122109 -11.475754 3.872690 16.443600 0.801046 1.333049 0.009359 0.001284 -1090340.000000 1 0 0
-0.116509 -14.612454 -0.145210 14.613640 1.562823 1.580733 0.004284 -0.003057 899140.000000 1 0 0
-7.328709 -9.471254 -2.354610 12.204869 0.912246 1.764937 0.009475 -0.000073 -7625.710000 1 0 0
-11.166109 -14.346354 -0.733910 18.194463 0.909413 1.611144 0.003685 -0.000518 173745.000000 1 0 0
0.213091 -14.677254 -10.624210 18.120183 -1.556279 2.197304 -0.004066 0.009540 194320.000000 1 0 0
-1.351209 -14.096454 -3.858210 14.677246 1.475234 1.836792 0.001116 0.001498 -3261430.000000 1 0 0
-11.496209 -8.046554 -7.719910 16.015832 0.610680 2.073752 0.015762 -0.007194 489566.000000 1 0 0
-0.284809 -17.217754 -0.279410 17.222376 1.554256 1.587021 0.006362 -0.009412 -87149.800000 1 0 0
-12.851309 -9.409854 4.536890 16.561548 0.632018 1.293308 0.012609 0.000460 315472.000000 1 0 0
3.918791 -16.926154 1.773190 17.464129 -1.343282 1.469088 0.019126 -0.007615 1485660.000000 1 0 0
-3.967609 -17.964154 -8.167310 20.128530 1.353423 1.988604 0.002464 -0.007662 155032.000000 1 0 0
-13.312809 -11.155754 2.604390 17.563160 0.697469 1.421960 -0.001652 0.000747 -1739780.000000 1 0 0
-8.507509 -12.219254 4.063190 15.433645 0.962600 1.304388 0.006140 0.001321 1436280.000000 1 0 0
-8.222709 -9.274154 -5.858710 13.709389 0.845419 2.012356 0.012174 -0.004817 650263.000000 1 0 0
3.886291 -17.338954 -5.118110 18.491556 -1.350304 1.851239 0.003143 0.009810 -267092.000000 1 0 0
-2.557809 -13.058154 11.375090 17.505726 1.377367 0.863485 -0.001302 -0.008130 -46852.100000 1 0 0
0.022891 -16.811154 -9.378310 19.250146 -1.569435 2.079655 -0.004643 0.008174 -118439.000000 1 0 0
-6.944109 -10.744654 -14.362210 19.233859 0.997037 2.413906 0.010883 -0.006605 -2284980.000000 1 0 0
-4.588509 -18.856854 -1.499210 19.464917 1.332102 1.647894 0.003545 -0.011866 -1678690.000000 1 0 0
-2.528409 -17.254454 1.142090 17.476081 1.425295 1.505398 0.005314 -0.011724 837832.000000 1 0 0
4.125091 -14.519154 -7.436610 16.826330 -1.293977 2.028582 0.001581 0.005777 -532884.000000 1 0 0
-1.111109 -15.890554 -6.100110 17.057421 1.500987 1.936517 -0.002176 0.000571 -312104.000000 1 0 0
-9.364609 -15.143554 8.486790 19.724318 1.016965 1.126004 0.007015 -0.002180 -802240.000000 1 0 0
-7.271409 -12.100554 -1.684210 14.217361 1.029704 1.689537 0.002597 -0.004010 1272000.000000 1 0 0
-7.285209 -15.176954 -9.400310 19.281598 1.123262 2.080052 0.007011 0.000350 -688542.000000 1 0 0
-5.023509 -13.244854 -0.603910 14.178382 1.208279 1.613403 0.001827 -0.002582 2320600.000000 1 0 0
-6.525709 -13.735054 -7.357710 16.892971 1.127255 2.021444 0.002960 -0.006113 155980.000000 1 0 0
5.628791 -15.453754 0.318390 16.450020 -1.221497 1.551440 0.014655 0.001842 469645.000000 1 0 0
-14.310609 -12.697854 0.963490 19.156131 0.725756 1.520478 -0.009386 -0.001511 933358.000000 1 0 0
0.968691 -15.301054 11.178890 18.974409 -1.507572 0.940782 0.016655 -0.007624 191951.000000 1 0 0
-9.518409 -10.736654 2.013090 14.488905 0.845471 1.431405 0.004553 0.002141 423403.000000 1 0 0
-9.482109 -8.672554 -3.567410 13.336041 0.740836 1.841595 0.009649 -0.004303 264779.000000 1 0 0
-12.144109 -7.263854 -12.462510 18.856222 0.539049 2.292844 0.014385 -0.005140 1090250.000000 1 0 0
-13.301609 -8.233954 -0.624110 15.656319 0.554287 1.610670 0.005529 -0.002580 -542507.000000 1 0 0
-11.306709 -9.609054 0.423090 14.844345 0.704409 1.542291 0.005337 0.001504 596133.000000 1 0 0
-15.659609 -12.136054 3.090590 20.051407 0.659304 1.416046 0.006003 0.003864 -43801.900000 1 0 0
-10.441809 -12.550854 -2.331710 16.492186 0.876869 1.712654 0.012968 -0.002952 846809.000000 1 0 0
-3.420309 -8.852654 -11.989110 15.290741 1.202104 2.472003 -0.002820 -0.000339 -121159.000000 1 0 0
-0.383609 -15.601454 3.958890 16.100476 1.546213 1.322362 0.015581 -0.008569 -807139.000000 1 0 0
-15.719609 -7.662654 1.221790 17.530406 0.453564 1.501044 -0.006211 0.000724 848220.000000 1 0 0
-6.173609 -13.399254 -13.369610 19.909795 1.139045 2.307040 0.011687 -0.001311 284254.000000 1 0 0
-15.268509 -10.241954 1.183590 18.423514 0.590851 1.506509 -0.001258 -0.000070 516027.000000 1 0 0
-9.757409 -8.294254 -12.504410 17.898658 0.704521 2.344267 0.011768 -0.008202 -176993.000000 1 0 0
-13.367709 -11.589554 -6.344310 18.795310 0.714270 1.915107 0.025562 -0.001873 -112392.000000 1 0 0
-12.161109 -11.372554 -3.873610 17.094807 0.751903 1.799377 0.010050 0.000111 -1507500.000000 1 0 0
-11.796509 -10.899754 -9.008010 18.414845 0.745908 2.081935 0.022278 -0.015428 1250600.000000 1 0 0
-13.219209 -8.566554 -5.954110 16.839975 0.574995 1.932181 0.014880 -0.003104 -2006500.000000 1 0 0
-13.483009 -8.033154 -3.299610 16.037784 0.537324 1.778016 0.010790 -0.004350 281223.000000 1 0 0
-4.180809 -16.896154 -3.198510 17.697165 1.328227 1.752531 -0.005014 -0.011240 -232197.000000 1 0 0
-15.476309 -8.861254 -1.847210 17.929031 0.520005 1.674008 0.005552 -0.000805 -2658410.000000 1 0 0
-9.381509 -15.578554 3.738290 18.565529 1.028756 1.368054 -0.000571 0.001489 -1160830.000000 1 0 0
4.738191 -17.053254 7.988790 19.418669 -1.299785 1.146810 0.026153 -0.027792 472304.000000 1 0 0
-8.314509 -15.483454 6.112690 18.607348 1.077994 1.236071 0.003254 0.006774 -714453.000000 1 0 0
0.890191 -16.034254 8.711790 18.269784 -1.515335 1.073739 0.015788 -0.011509 400992.000000 1 0 0
-10.873609 -7.753554 -10.219910 16.816645 0.619439 2.223990 0.015616 -0.010161 866909.000000 1 0 0
-4.922909 -15.934654 5.639390 17.605424 1.271155 1.244728 0.004538 -0.005699 -2176060.000000 1 0 0
-1.513009 -13.345054 -11.979410 17.996831 1.457902 2.299147 -0.001772 0.004002 -1829390.000000 1 0 0
-6.484809 -14.361654 -2.562810 15.964894 1.146665 1.732022 0.002101 -0.005184 694864.000000 1 0 0
-17.719809 -6.754254 -7.252110 20.302824 0.364169 1.936062 0.020155 -0.010775 345128.000000 1 0 0
-17.613109 -3.966554 -10.051010 20.663445 0.221509 2.078778 0.031662 -0.013602 1099700.000000 1 0 0
-15.335109 -5.189654 -9.274110 18.657631 0.326318 2.091013 0.014359 -0.007839 678395.000000 1 0 0
-16.022009 -5.471554 -5.627410 17.841256 0.329085 1.891691 0.012368 -0.004586 -282465.000000 1 0 0
-15.266609 -4.114854 -12.231810 19.990462 0.263276 2.229235 0.021953 -0.009411 -1220470.000000 1 0 0
-18.606809 -5.017954 -5.559510 20.057451 0.263417 1.851653 0.010746 -0.006772 -113676.000000 1 0 0
-17.225009 -4.303954 -7.565210 19.299154 0.244853 1.973598 0.002119 -0.009422 633276.000000 1 0 0
12.094891 -7.857254 8.758590 16.874114 -0.576118 1.025052 0.018921 -0.015043 67316.700000 1 0 0
16.105291 -3.369054 1.863590 16.559103 -0.206216 1.458016 0.019339 -0.007982 451070.000000 1 0 0
11.949591 -2.392854 12.532790 17.481113 -0.197632 0.771403 0.016579 -0.008024 329640.000000 1 0 0
9.719191 -10.067354 5.310790 14.967257 -0.802992 1.208067 0.012041 -0.006572 368755.000000 1 0 0
17.085091 -2.219654 7.275790 18.701987 -0.129194 1.171209 0.049111 -0.016707 -107506.000000 1 0 0
5.046791 -12.801954 9.160890 16.531244 -1.195282 0.983447 0.006780 -0.005405 -421248.000000 1 0 0
15.009291 -8.958254 -2.039010 17.597917 -0.538098 1.686924 0.012545 -0.000883 -26054.100000 1 0 0
11.170091 -8.498954 6.487890 15.462725 -0.650420 1.137811 0.017842 -0.012033 -2313030.000000 1 0 0
19.938391 -2.897154 3.434890 20.438478 -0.144295 1.401935 0.039785 -0.016857 251144.000000 1 0 0
13.648891 -8.572654 6.824790 17.503153 -0.560814 1.170254 0.019234 -0.011510 -1328710.000000 1 0 0
8.221491 -10.985854 8.895790 16.352889 -0.928339 0.995613 0.006154 -0.007727 329650.000000 1 0 0
16.852891 0.072146 -0.623510 16.864575 0.004281 1.607776 0.022236 -0.001625 -1107090.000000 1 0 0
12.438691 -12.286454 2.413790 17.649486 -0.779241 1.433604 0.018784 -0.004936 -2179790.000000 1 0 0
10.298391 -11.688454 3.641490 15.998039 -0.848537 1.341162 0.014418 -0.003509 -581586.000000 1 0 0
16.367591 2.846346 2.357190 16.779632 0.172179 1.429851 0.020971 -0.004363 -289312.000000 1 0 0
18.386491 -3.269754 0.530690 18.682504 -0.175995 1.542387 0.024016 -0.006804 638639.000000 1 0 0
13.638091 -11.675654 -0.224110 17.954627 -0.708028 1.583279 0.027563 -0.001206 -211922.000000 1 0 0
16.907291 -7.593354 -0.762010 18.549829 -0.422119 1.611887 0.022245 -0.001008 513200.000000 1 0 0
10.125791 -5.731054 9.703090 15.150135 -0.515033 0.875696 0.016088 -0.011935 -1582640.000000 1 0 0
11.251891 -13.076454 6.237490 18.344072 -0.860255 1.223850 0.024015 -0.009117 -972361.000000 1 0 0
12.954491 -1.797454 10.262590 16.624393 -0.137871 0.905463 0.021117 -0.010951 571257.000000 1 0 0
15.579691 -2.083754 -1.345510 15.775906 -0.132959 1.656189 0.017259 -0.006389 -408008.000000 1 0 0
10.249591 -12.593254 9.351190 18.737367 -0.887640 1.048275 0.018087 -0.006845 -88309.800000 1 0 0
14.433691 1.187746 3.299490 14.853579 0.082105 1.346793 0.014406 -0.006931 1239420.000000 1 0 0
15.079091 -5.841454 5.270190 17.008129 -0.369587 1.255747 0.021732 -0.011486 -579453.000000 1 0 0
14.398591 -3.430054 -2.995510 15.101582 -0.233863 1.770478 0.016161 -0.002343 821734.000000 1 0 0
13.910691 0.622746 9.556190 16.888336 0.044738 0.969338 0.024897 -0.007935 292959.000000 1 0 0
15.421391 -3.393254 4.474890 16.412133 -0.216584 1.294642 0.018287 -0.008080 115830.000000 1 0 0
18.702391 4.768546 -4.458410 19.808985 0.249651 1.797811 0.014523 0.007339 564329.000000 1 0 0
18.523391 -5.726454 -5.312510 20.103011 -0.299827 1.838237 0.070320 -0.001360 715506.000000 1 0 0
17.150791 0.020546 6.093590 18.201151 0.001198 1.229412 0.039850 -0.012333 217015.000000 1 0 0
17.081691 -6.617254 4.019390 18.754405 -0.369588 1.354804 0.022270 -0.010698 -463544.000000 1 0 0
9.693691 -6.694654 14.228090 18.472265 -0.604403 0.691578 0.013696 -0.009495 -1009270.000000 1 0 0
8.620391 -12.332354 5.288990 15.949028 -0.960738 1.232778 0.011929 -0.006138 -754414.000000 1 0 0
16.921291 -10.189654 -0.635610 19.762670 -0.542021 1.602964 0.028971 -0.000635 612398.000000 1 0 0
14.985091 -8.776654 0.555090 17.375003 -0.529833 1.538843 0.027993 -0.006267 -12259.000000 1 0 0
9.980991 -12.906654 1.535790 16.387817 -0.912536 1.476943 0.015851 -0.004218 360174.000000 1 0 0
17.080791 -7.991754 8.940690 20.870014 -0.437623 1.128076 0.034713 -0.013841 544972.000000 1 0 0
19.188691 -0.193054 -1.795610 19.273488 -0.010060 1.664096 0.031070 0.000784 61791.100000 1 0 0
13.253991 -1.231554 7.771790 15.413816 -0.092653 1.042330 0.015556 -0.013776 -48548.400000 1 0 0
12.770991 -9.819854 -3.041510 16.394466 -0.655500 1.757398 0.018418 -0.000914 -2202580.000000 1 0 0
8.855591 -15.270154 1.493290 17.715220 -1.045266 1.486402 0.017274 0.001851 162433.000000 1 0 0
11.439991 -8.350654 11.121790 18.008360 -0.630547 0.905121 0.019703 -0.014009 -439447.000000 1 0 0
13.972791 -3.967354 -0.475210 14.532880 -0.276653 1.603501 0.013849 -0.006539 -145909.000000 1 0 0
7.123891 -13.317254 10.708690 18.514187 -1.079591 0.954025 0.007667 0.000402 -200236.000000 1 0 0
15.368191 -6.678454 1.902690 16.864260 -0.409943 1.457732 0.014933 -0.005053 -51708.500000 1 0 0
15.904391 -6.199354 -2.521010 17.255061 -0.371673 1.717424 0.021976 -0.001040 -38902.800000 1 0 0
11.133891 -8.499154 3.835190 14.522666 -0.651996 1.303543 0.015578 -0.007198 56601.000000 1 0 0
10.606091 -14.456154 -0.474710 17.935855 -0.937827 1.597267 0.029869 0.002060 711719.000000 1 0 0
13.353491 -12.840454 4.738390 19.121854 -0.765815 1.320388 0.019912 -0.005898 284303.000000 1 0 0
12.973391 -11.146154 6.813390 18.411081 -0.709785 1.191712 0.022715 -0.007094 -754183.000000 1 0 0
10.838191 -10.457754 1.453590 15.130893 -0.767536 1.474580 0.012651 -0.004227 256313.000000 1 0 0
13.868591 -7.472354 11.783990 19.673238 -0.494201 0.928562 0.018495 -0.018253 -1164690.000000 1 0 0
15.446591 -1.889954 -5.014910 16.349875 -0.121749 1.882546 0.028437 -0.003490 -420762.000000 1 0 0
13.030391 -11.383254 -7.069410 18.690803 -0.718032 1.958679 0.035777 -0.002079 -289256.000000 1 0 0
17.755791 -5.377254 1.905090 18.649728 -0.294065 1.468467 0.023478 -0.004470 716693.000000 1 0 0
10.690291 -9.953254 9.064190 17.190379 -0.749710 1.015397 0.014759 -0.011630 -861193.000000 1 0 0
16.448791 1.613746 9.641290 19.134298 0.097794 1.042718 0.056632 -0.012863 238456.000000 1 0 0
18.213091 3.636146 0.523690 18.579895 0.197054 1.542607 0.013820 0.000445 830241.000000 1 0 0
13.248191 -4.116554 5.754690 15.019222 -0.301268 1.177587 0.016762 -0.015919 -1132130.000000 1 0 0
12.158691 -6.212854 6.665590 15.194190 -0.472393 1.116652 0.018538 -0.012993 -147753.000000 1 0 0
16.604191 -10.425354 3.714090 19.954489 -0.560664 1.383576 0.017132 0.003280 -880134.000000 1 0 0
16.258891 -7.947054 -5.414510 18.889789 -0.454633 1.861511 0.025825 -0.005032 152927.000000 1 0 0
13.895491 -0.439754 5.357790 14.899126 -0.031637 1.202953 0.016656 -0.010291 1286230.000000 1 0 0
18.497891 -4.177554 5.119090 19.642531 -0.222113 1.307140 0.048530 -0.009618 239851.000000 1 0 0
13.556291 -13.707954 7.186790 20.575008 -0.790961 1.213976 0.031958 -0.004148 418858.000000 1 0 0
15.086591 -13.601454 -1.010610 20.337800 -0.733676 1.620508 0.030751 0.001189 114588.000000 1 0 0
17.796491 -5.734954 7.945990 20.316091 -0.311744 1.168950 0.036041 -0.017244 -375781.000000 1 0 0
14.303691 3.253746 9.295290 17.366199 0.223670 1.005990 0.028658 -0.002345 -690054.000000 1 0 0
18.744291 3.619046 3.014190 19.326957 0.190728 1.414199 0.042102 -0.008292 -13306.400000 1 0 0
15.040891 -10.358954 8.182290 20.012151 -0.603115 1.149585 0.034191 -0.018075 -564099.000000 1 0 0
14.776591 -4.781554 10.378390 18.679451 -0.312956 0.981706 0.024905 -0.016684 -62330.300000 1 0 0
17.753691 -7.925554 2.034790 19.548614 -0.419871 1.466519 0.025833 -0.006983 231385.000000 1 0 0
18.457891 -5.848654 -2.002610 19.465635 -0.306856 1.673858 0.025606 -0.000186 -389405.000000 1 0 0
14.371591 -12.748754 -5.339810 19.939582 -0.725631 1.841905 0.034930 -0.006508 -2255130.000000 1 0 0
15.422991 -1.445054 9.281290 18.058216 -0.093422 1.030996 0.042864 -0.015126 177255.000000 1 0 0
13.036391 -10.081354 10.075490 19.315711 -0.658262 1.022046 0.015769 -0.020494 -2062360.000000 1 0 0
16.377691 2.114246 4.877690 17.218904 0.128383 1.283589 0.032621 -0.010230 -1475170.000000 1 0 0
14.975691 2.369446 -0.019610 15.161991 0.156919 1.572090 0.014049 0.001109 -974663.000000 1 0 0
15.084691 -9.732254 -6.906110 19.234319 -0.572975 1.938048 0.032786 -0.008850 1655700.000000 1 0 0
16.227091 -0.164354 -3.151310 16.531069 -0.010128 1.762600 0.021360 -0.000140 -24913.600000 1 0 0
11.985691 2.673646 13.585390 18.313055 0.219477 0.734984 0.025707 -0.001756 -40284.600000 1 0 0
17.358391 -3.104654 9.696890 20.124172 -0.176985 1.068028 0.027700 -0.008777 -116211.000000 1 0 0
7.666491 -18.130354 4.663990 20.229622 -1.170745 1.338151 0.033409 -0.015061 -410180.000000 1 0 0
6.794991 -11.208254 6.657890 14.701169 -1.025795 1.100801 0.004553 -0.006978 -219059.000000 1 0 0
18.057591 2.121746 -1.555610 18.248241 0.116963 1.656147 0.021649 0.003314 656951.000000 1 0 0
17.577191 -2.248154 3.588590 18.080094 -0.127211 1.370987 0.025765 -0.007955 -2313700.000000 1 0 0
12.620291 -13.428454 -2.007710 18.537152 -0.816413 1.679317 0.028596 0.006820 663775.000000 1 0 0
15.137491 -8.294854 4.498190 17.837655 -0.501281 1.315870 0.024572 -0.004686 -1130350.000000 1 0 0
11.770891 -3.153554 15.023790 19.344587 -0.261764 0.681481 0.017317 -0.005160 84216.600000 1 0 0
12.240291 -13.711154 -6.380110 19.455751 -0.842015 1.904907 0.037942 -0.001108 559846.000000 1 0 0
10.712091 -12.014454 -1.166410 16.138665 -0.842641 1.643134 0.020979 -0.002003 -1012430.000000 1 0 0
13.182091 -8.019054 2.221090 15.588649 -0.546522 1.427829 0.017766 -0.003106 -104062.000000 1 0 0
8.805491 -7.894554 10.104290 15.554978 -0.730905 0.863757 0.013415 -0.011516 -1591040.000000 1 0 0
15.476991 -3.734754 8.084490 17.856221 -0.236783 1.100944 0.030306 -0.016856 -1933450.000000 1 0 0
10.118191 -17.463054 5.355990 20.881156 -1.045657 1.311398 0.035342 -0.010594 577459.000000 1 0 0
15.252391 -6.319854 8.313690 18.484951 -0.392817 1.104306 0.030129 -0.008852 -583947.000000 1 0 0
16.636291 -4.930054 -0.381810 17.355615 -0.288099 1.592797 0.021842 -0.004844 -760592.000000 1 0 0
13.982191 -10.569654 3.616190 17.896817 -0.647290 1.367338 0.023563 -0.005205 -76619.300000 1 0 0
14.930291 -9.895654 -4.381410 18.440019 -0.585314 1.810694 0.029950 -0.007573 -6686.420000 1 0 0
13.601691 -6.584654 0.027690 15.111731 -0.450851 1.568964 0.017535 -0.005071 -249710.000000 1 0 0
17.844291 -0.865954 -4.910910 18.527969 -0.048490 1.839056 0.019898 0.001316 148207.000000 1 0 0
14.345591 0.206146 -1.559810 14.431614 0.014369 1.679091 0.013821 -0.001877 -542137.000000 1 0 0
4.823691 -12.974154 11.774690 18.172506 -1.214841 0.865920 0.003521 0.001410 -234541.000000 1 0 0
11.960091 -7.548754 13.522290 19.567314 -0.563018 0.807835 0.015211 -0.014845 -461828.000000 1 0 0
11.992991 -5.849054 11.495190 17.612003 -0.453764 0.859666 0.018884 -0.013503 224176.000000 1 0 0
13.182591 -4.642254 8.414590 16.313692 -0.338589 1.028856 0.020583 -0.013844 -1800020.000000 1 0 0
15.311191 -1.184454 3.134990 15.673661 -0.077205 1.369422 0.019475 -0.007355 807329.000000 1 0 0
15.275191 -10.491054 5.778690 19.411000 -0.601814 1.268512 0.028662 -0.005658 526118.000000 1 0 0
13.645991 -7.980554 -5.730710 16.814974 -0.529189 1.918575 0.027744 -0.002611 -755284.000000 1 0 0
9.644291 -2.469454 13.765490 16.988210 -0.250668 0.626138 0.014901 -0.000755 -2284150.000000 1 0 0
9.872991 -9.213154 13.583490 19.153834 -0.750840 0.782464 0.017227 -0.008269 215074.000000 1 0 0
20.325591 6.240946 -3.148410 21.493988 0.297911 1.717804 0.026890 0.008564 -725805.000000 1 0 0
11.201591 -3.640554 10.377390 15.697754 -0.314235 0.848546 0.012464 -0.008637 641719.000000 1 0 0
10.337591 -14.024454 -2.994810 17.678235 -0.935595 1.741024 0.022506 0.007525 327811.000000 1 0 0
14.896591 -12.802754 2.586790 19.811875 -0.709950 1.439855 0.022266 0.001953 724362.000000 1 0 0
11.293691 -0.635154 14.316890 18.246211 -0.056181 0.668665 0.023245 -0.002114 260321.000000 1 0 0
19.066091 -1.682354 5.678090 19.964640 -0.088010 1.282408 0.053620 -0.012572 873343.000000 1 0 0
18.943891 -0.546754 8.002790 20.572180 -0.028854 1.171239 0.070661 -0.013802 155353.000000 1 0 0
19.026991 0.817446 0.606490 19.054197 0.042936 1.538961 0.036663 -0.001340 290066.000000 1 0 0
18.337191 0.791146 3.813790 18.746292 0.043118 1.365924 0.035505 -0.010041 -56943.700000 1 0 0
16.639891 -4.158354 -4.273410 17.675970 -0.244887 1.814980 0.022013 0.000516 -279562.000000 1 0 0
10.925191 -8.319954 15.795490 20.930335 -0.650845 0.715646 0.021141 -0.013460 295471.000000 1 0 0
16.635591 -7.503854 6.413490 19.343825 -0.423745 1.232848 0.026599 -0.009747 195812.000000 1 0 0
18.584291 2.260246 6.006590 19.661223 0.121027 1.260328 0.049712 -0.013463 209033.000000 1 0 0
15.091991 1.776846 7.533390 16.961054 0.117195 1.110562 0.028692 -0.012010 -110371.000000 1 0 0
8.747991 -15.817954 3.870090 18.485470 -1.065621 1.359877 0.016250 -0.008052 1045140.000000 1 0 0
11.376891 -15.092854 1.949690 19.000768 -0.924872 1.468004 0.027113 0.000710 -123784.000000 1 0 0
7.960391 -16.102054 6.203190 19.003250 -1.111662 1.238274 0.017049 -0.008261 73813.800000 1 0 0
14.582591 -11.562954 -2.512410 18.779405 -0.670414 1.704984 0.024298 -0.001734 778318.000000 1 0 0
13.682191 -4.868054 3.221290 14.875383 -0.341828 1.352515 0.009912 -0.005654 -1021130.000000 1 0 0
-1.089209 10.223446 -5.545410 11.681472 -1.464656 2.065440 0.003906 -0.000670 -2294460.000000 1 0 0
8.244191 -1.754954 -7.956010 11.590714 -0.209741 2.327341 0.003252 -0.001190 -4165900.000000 1 0 0
2.912791 -10.142954 7.709590 13.069110 -1.291148 0.939850 0.001725 -0.003390 692854.000000 1 0 0
-6.226209 1.376846 8.376390 10.527359 -0.217635 0.650670 -0.005096 0.000176 10911.300000 1 0 0
7.223391 -6.277054 -7.280410 12.024273 -0.715416 2.221160 0.000131 -0.000900 464689.000000 1 0 0
-11.275109 -4.469754 -4.112210 12.806914 0.377422 1.897680 0.003537 -0.002849 112390.000000 1 0 0
2.065291 -3.093154 2.860990 4.692365 -0.982080 0.915100 0.000519 -0.002579 2049070.000000 1 0 0
-3.508709 -4.254654 8.758190 10.349831 0.881189 0.561954 -0.004511 -0.001170 -2646430.000000 1 0 0
-4.915609 -1.109954 -2.403110 5.583023 0.222078 2.015767 0.004829 -0.000880 -380665.000000 1 0 0
4.970291 -5.182454 -3.621910 8.042378 -0.806292 2.037957 0.001762 -0.002569 109086.000000 1 0 0
2.782391 14.392046 -8.875410 17.136090 1.379824 2.115233 0.016470 -0.006044 -232638.000000 1 0 0
5.453591 -5.524854 13.703090 15.749297 -0.791889 0.515439 0.006371 -0.004311 -1273140.000000 1 0 0
-4.745409 -1.013854 9.878390 11.005880 0.210485 0.456602 -0.000784 0.000952 -2138890.000000 1 0 0
-0.885509 12.074146 -2.707410 12.405612 -1.497588 1.790808 0.003398 -0.003927 -65488.100000 1 0 0
3.149291 9.423746 -10.565310 14.503475 1.248278 2.386879 0.008307 -0.003395 -526903.000000 1 0 0
-10.733809 2.741946 1.159690 11.139022 -0.250101 1.466497 -0.004550 0.001209 -175126.000000 1 0 0
5.656491 -9.005354 -0.655910 10.654694 -1.009953 1.632396 -0.003241 -0.000795 574921.000000 1 0 0
-6.937509 5.520146 9.329290 12.869992 -0.672111 0.759926 0.001757 -0.000922 -53400.100000 1 0 0
-5.740209 -1.812454 5.194190 7.950761 0.305840 0.858868 -0.002901 -0.000400 167330.000000 1 0 0
6.649691 -3.794754 -7.262910 10.553123 -0.518571 2.329834 0.000192 -0.003878 386517.000000 1 0 0
6.144191 4.843446 11.042590 13.533250 0.667564 0.616409 -0.006720 0.000612 580228.000000 1 0 0
3.740791 -9.922154 3.328490 11.114023 -1.210261 1.266643 -0.004236 -0.000900 1110300.000000 1 0 0
-6.644509 6.599646 -5.808110 11.019935 -0.782011 2.125928 -0.002341 -0.004008 231719.000000 1 0 0
-11.033509 8.389146 5.236690 14.816849 -0.650082 1.209563 -0.001964 -0.004532 106577.000000 1 0 0
-9.224909 -5.418354 5.136990 11.867863 0.531074 1.123146 0.002952 0.000818 -297427.000000 1 0 0
3.246291 9.865946 -8.070810 13.153451 1.252915 2.231394 0.005992 -0.001730 775699.000000 1 0 0
-8.168709 -8.488254 6.121490 13.275952 0.804580 1.091566 0.006780 -0.002929 -1403290.000000 1 0 0
-7.752909 -5.599654 -7.591510 12.210436 0.625513 2.241737 0.010601 -0.008563 243295.000000 1 0 0
9.129191 -1.616654 7.043690 11.643422 -0.175269 0.921093 0.003663 -0.007401 1569990.000000 1 0 0
-4.121209 -0.356454 -4.900110 6.412683 0.086278 2.440485 0.011267 -0.005566 -19121.600000 1 0 0
9.068791 1.091646 -4.485810 10.176303 0.119798 2.027297 0.002653 -0.000815 -2998000.000000 1 0 0
-1.846109 -10.625354 10.843790 15.293595 1.398768 0.782659 -0.008975 -0.004425 -243776.000000 1 0 0
-12.890609 0.297146 -2.659110 13.165370 -0.023047 1.774173 -0.000906 -0.001554 -1047280.000000 1 0 0
-9.855909 -5.202654 -6.000310 12.657420 0.485695 2.064687 0.005320 -0.003687 -1782260.000000 1 0 0
-5.671709 8.398446 -0.317010 10.139165 -0.976821 1.602067 0.000564 -0.000293 291516.000000 1 0 0
6.257791 9.606646 0.328690 11.469770 0.993436 1.542135 0.005754 -0.000484 518700.000000 1 0 0
-0.446409 -12.048054 0.052390 12.056435 1.533761 1.566451 0.006633 0.000743 -200041.000000 1 0 0
6.163091 4.691146 2.281690 8.074444 0.650610 1.284312 -0.002659 0.001525 579167.000000 1 0 0
3.535391 -7.580654 -8.285810 11.773697 -1.134413 2.351467 -0.001231 -0.002408 1579310.000000 1 0 0
-6.599209 -9.883754 4.692190 12.777120 0.982091 1.194763 0.006506 -0.000081 -2287040.000000 1 0 0
-0.039209 6.459646 -9.236510 11.271277 -1.564727 2.531288 0.003071 -0.001860 -438716.000000 1 0 0
-17.268609 -2.826754 4.212290 17.998300 0.162254 1.334567 0.025048 -0.005233 637037.000000 1 0 0
-8.388609 0.942946 -9.237810 12.513794 -0.111938 2.401210 -0.000634 -0.002563 874092.000000 1 0 0
-9.970109 -5.855854 -11.844910 16.552824 0.531059 2.368254 0.014956 -0.004076 539628.000000 1 0 0
2.158091 9.536446 6.409890 11.691358 1.348246 0.990516 -0.008844 0.007733 -199808.000000 1 0 0
-11.331509 1.725946 -1.253910 11.530580 -0.151152 1.679758 -0.001409 0.000126 -1459000.000000 1 0 0
-6.024409 -5.281654 -3.121310 8.598369 0.719797 1.942295 0.014079 -0.001973 609827.000000 1 0 0
-6.906509 -8.303354 1.397690 10.890321 0.876979 1.442099 0.009502 0.001012 -352743.000000 1 0 0
-0.027709 10.842246 -7.866810 13.395588 -1.568241 2.198477 0.005712 0.000109 1330610.000000 1 0 0
-2.888009 9.320146 -4.318210 10.670176 -1.270312 1.987446 0.002733 -0.003414 -114844.000000 1 0 0
3.342891 -4.747154 9.314590 10.975973 -0.957265 0.557398 -0.000039 -0.002897 -1162410.000000 1 0 0
-9.022609 1.609646 -0.372910 9.172649 -0.176544 1.611462 -0.005982 0.001100 -2452660.000000 1 0 0
2.373991 3.460546 -10.536210 11.341205 0.969517 2.762553 0.002097 -0.002407 -451694.000000 1 0 0
-13.613909 0.509146 1.013190 13.661051 -0.037382 1.496562 0.005346 -0.003559 -745557.000000 1 0 0
9.444391 -12.575954 -5.064210 16.522632 -0.926663 1.882312 0.020313 0.005423 -2309310.000000 1 0 0
-4.782209 9.425446 -8.295110 13.435677 -1.101268 2.236222 -0.001223 -0.002486 -1647120.000000 1 0 0
-2.332909 7.243946 8.438590 11.363407 -1.259235 0.733836 -0.002238 0.002051 -490585.000000 1 0 0
-10.789109 -1.340354 -4.484110 11.760471 0.123599 1.961984 0.000316 -0.002001 -3896080.000000 1 0 0
2.627391 -7.092354 9.803890 12.382283 -1.216017 0.657099 -0.005657 -0.002024 -2272060.000000 1 0 0
-16.231209 -6.436854 3.424590 17.793624 0.377548 1.377126 0.016437 -0.002977 438303.000000 1 0 0
-10.674309 -0.024454 6.260990 12.375034 0.002291 1.040328 -0.001751 -0.000580 -2258940.000000 1 0 0
-8.310609 9.897346 9.399890 15.980664 -0.872324 0.941960 0.004621 -0.013848 -1591580.000000 1 0 0
0.246291 -6.066854 -3.816610 7.171742 -1.530222 2.131962 -0.000323 0.000682 458633.000000 1 0 0
4.936991 1.445246 -3.035010 5.972763 0.284781 2.103822 -0.006008 0.001431 -754729.000000 1 0 0
0.294491 5.328846 3.770390 6.534460 1.515589 0.955744 -0.006517 0.005914 -2850150.000000 1 0 0
6.129291 -11.277754 -1.438310 12.916063 -1.072969 1.682386 -0.002363 0.001199 -653310.000000 1 0 0
6.316291 -13.562854 5.344090 15.887285 -1.134959 1.227731 0.004972 -0.003635 -687508.000000 1 0 0
8.159391 -8.269254 -5.927810 13.042053 -0.792085 2.042624 0.003541 -0.001556 680681.000000 1 0 0
-13.194009 -1.401654 -4.616710 14.048506 0.105837 1.905645 0.001461 0.000768 -3164060.000000 1 0 0
-6.866609 -1.551654 -7.086810 9.989035 0.222238 2.359526 0.007814 -0.004548 -682102.000000 1 0 0
-5.826809 12.770546 -4.611010 14.774978 -1.142741 1.888180 0.001752 0.001389 230196.000000 1 0 0
-4.314109 6.924246 -6.727610 10.574377 -1.013605 2.260383 0.005478 -0.004214 -3923310.000000 1 0 0
-9.507109 -3.790354 -8.047010 13.019458 0.379373 2.237089 0.006201 -0.005001 559167.000000 1 0 0
-2.267609 -6.412054 9.183090 11.427407 1.230875 0.637473 -0.004727 -0.001903 -447744.000000 1 0 0
7.504691 -6.037754 10.020890 13.899392 -0.677497 0.765611 0.006448 -0.005165 381985.000000 1 0 0
9.587791 -4.981454 12.103790 16.224745 -0.479175 0.728749 0.010339 -0.006875 -97241.900000 1 0 0
-6.511509 2.781646 -9.000910 11.452235 -0.403723 2.475031 -0.000753 -0.003768 175198.000000 1 0 0
7.405591 5.448746 8.870890 12.775927 0.634326 0.803288 -0.006424 0.000473 -1495240.000000 1 0 0
12.666491 3.365946 11.200690 17.240216 0.259734 0.863628 0.025471 0.002009 -718442.000000 1 0 0
-7.394809 -7.306754 -3.819710 11.075290 0.779409 1.922913 0.013444 -0.004573 -2204100.000000 1 0 0
2.240091 1.359346 -5.806410 6.370261 0.545424 2.717681 -0.000378 -0.001903 -14191.700000 1 0 0
12.774291 6.896746 -7.022310 16.126390 0.495050 2.021339 0.014422 -0.003277 -591194.000000 1 0 0
0.744491 -7.818954 1.043890 7.923384 -1.475866 1.438664 0.000876 0.001848 683700.000000 1 0 0
-10.168309 -6.142554 -8.506410 14.611108 0.543420 2.192213 0.012167 -0.005948 -236140.000000 1 0 0
-6.716309 0.363746 3.064190 7.391237 -0.054106 1.143325 -0.002492 -0.000495 -536201.000000 1 0 0
10.700291 -7.908854 1.354490 13.374634 -0.636505 1.469349 0.010124 -0.004585 -18098.600000 1 0 0
6.169291 1.043646 10.495290 12.218857 0.167581 0.537596 -0.000416 -0.002240 -567566.000000 1 0 0
-12.900209 5.361946 1.879890 14.096093 -0.393923 1.437035 0.001476 -0.000401 429420.000000 1 0 0
2.093991 7.322646 3.504490 8.383758 1.292269 1.139543 -0.009226 0.005160 -261704.000000 1 0 0
9.987491 -9.427854 -0.762810 13.755591 -0.756582 1.626279 0.008739 -0.001272 745455.000000 1 0 0
6.762491 -11.756554 -9.170310 16.372001 -1.048804 2.165329 0.004063 0.001816 -280708.000000 1 0 0
10.250391 3.649446 11.797390 16.048906 0.342037 0.744997 0.007648 0.000885 110543.000000 1 0 0
-11.092709 -3.179754 -1.866210 11.689387 0.279167 1.731132 0.001586 0.000202 10254.800000 1 0 0
12.223691 0.992846 6.860290 14.052329 0.081045 1.060775 0.010239 -0.007622 -582111.000000 1 0 0
-9.562509 9.292646 3.022790 13.672312 -0.771087 1.347866 0.000334 -0.004178 1988790.000000 1 0 0
-6.606209 7.661246 -8.876010 13.458092 -0.859211 2.290989 -0.002760 -0.004374 -388124.000000 1 0 0
8.489291 5.521846 12.033090 15.727495 0.576690 0.699601 0.002966 -0.001367 -2579830.000000 1 0 0
1.375091 4.863946 -2.725810 5.742725 1.295276 2.065368 -0.002029 -0.000907 581922.000000 1 0 0
1.397591 0.477746 9.556490 9.669954 0.329383 0.153340 -0.003980 -0.000034 878031.000000 1 0 0
2.540791 12.632746 -4.035110 13.502741 1.372317 1.874269 0.007453 -0.001839 517539.000000 1 0 0
2.015991 0.575246 13.120890 13.287320 0.277955 0.158441 0.000173 -0.003582 -58549.800000 1 0 0
-12.164709 -1.679054 0.816990 12.307187 0.137160 1.504364 0.001752 -0.001552 -177331.000000 1 0 0
3.270991 8.790746 -1.289110 9.467756 1.214575 1.707379 0.002125 -0.000050 343151.000000 1 0 0
3.644691 -2.924754 -5.823510 7.466674 -0.676245 2.465356 -0.004346 -0.002405 -1861890.000000 1 0 0
-7.621209 -7.104654 9.256190 13.936857 0.750334 0.844438 0.004029 -0.001210 -374019.000000 1 0 0
-7.174009 10.830746 -3.370410 13.421294 -0.985771 1.824638 -0.001407 0.003956 -153455.000000 1 0 0
0.363291 0.493346 2.483190 2.557656 0.936068 0.241898 -0.001753 0.001882 -2489730.000000 1 0 0
-7.035709 4.648846 -2.067910 8.682697 -0.583895 1.811272 0.003153 -0.001731 -815670.000000 1 0 0
-6.857109 -3.867154 -5.916410 9.847778 0.513500 2.215281 0.010030 -0.004400 294017.000000 1 0 0
2.878791 -6.159454 13.456190 15.076318 -1.133586 0.467854 -0.001446 -0.001643 127314.000000 1 0 0
-5.373009 -0.583254 -11.697010 12.885242 0.108129 2.708765 0.005077 -0.004592 -389166.000000 1 0 0
11.775091 2.414646 -0.554010 12.032880 0.202260 1.616854 0.006287 -0.001313 -1256930.000000 1 0 0
6.006091 -10.905454 10.832890 16.503138 -1.067384 0.854741 0.002258 -0.003493 415802.000000 1 0 0
-8.272209 6.416346 -10.456810 14.796750 -0.659717 2.355614 -0.001996 -0.005539 566082.000000 1 0 0
2.967691 7.916546 11.063490 13.924069 1.212138 0.652516 -0.008052 0.005178 917165.000000 1 0 0
-6.211109 -10.260854 -0.348710 11.999358 1.026474 1.599861 0.010895 -0.001161 -342462.000000 1 0 0
11.210891 4.237546 6.163390 13.476952 0.361385 1.095808 0.002503 -0.001689 -87056.400000 1 0 0
-7.915809 10.713046 1.306490 13.384181 -0.934441 1.473026 -0.001334 -0.000848 320397.000000 1 0 0
4.331991 -2.572254 -3.520810 6.146441 -0.535834 2.180740 -0.001898 -0.003425 -5225840.000000 1 0 0
6.324991 6.449346 6.389690 11.064706 0.795133 0.955153 -0.004268 0.001840 -5886240.000000 1 0 0
-0.353409 10.404946 -10.199710 14.574700 -1.536844 2.345946 0.000001 0.000238 25742.800000 1 0 0
14.017991 6.432746 -2.412610 15.611053 0.430224 1.725963 0.017991 -0.000231 611585.000000 1 0 0
1.394091 9.498446 -6.247510 11.454054 1.425066 2.147711 0.004286 -0.001365 648036.000000 1 0 0
0.645391 7.353146 7.244990 10.342880 1.483250 0.794725 -0.010695 0.006857 83724.800000 1 0 0
12.224291 6.204846 1.862090 13.834767 0.469696 1.435792 0.004768 -0.001787 -1585240.000000 1 0 0
-6.838909 6.806046 -3.199410 10.165095 -0.782990 1.890984 0.000809 -0.003685 273539.000000 1 0 0
1.172691 9.946946 11.116790 14.963287 1.453443 0.733348 -0.008617 0.004424 -2065430.000000 1 0 0
-3.674309 13.699146 -10.887610 17.880358 -1.308749 2.225488 -0.007370 -0.001072 -246118.000000 1 0 0
-10.083009 -5.569554 -2.265310 11.739618 0.504661 1.764977 0.003104 -0.001009 -386685.000000 1 0 0
-4.026509 3.995946 -12.453010 13.684218 -0.781588 2.714146 -0.000196 -0.006862 -458850.000000 1 0 0
-3.168309 8.416346 2.316390 9.286481 -1.210758 1.318698 -0.002822 0.002521 -2342890.000000 1 0 0
7.078891 8.911746 6.993290 13.357995 0.899521 1.019809 0.001011 0.005092 -786810.000000 1 0 0
-1.398709 -2.324854 -8.184110 8.622122 1.029177 2.821477 0.003647 -0.006793 6202.940000 1 0 0
0.833491 -1.309254 4.828490 5.071801 -1.003888 0.311005 0.000168 -0.000793 -142001.000000 1 0 0
2.658391 -8.815954 -6.020610 11.001629 -1.277924 2.149868 -0.004544 0.000912 235561.000000 1 0 0
5.295891 3.929746 8.776390 10.977904 0.638385 0.644401 -0.006752 0.001815 -754907.000000 1 0 0
6.137491 -7.543454 -2.874010 10.140632 -0.887807 1.858150 -0.000633 -0.002870 944093.000000 1 0 0
1.858791 2.199846 -8.346910 8.829798 0.869233 2.809345 0.001087 -0.003717 307885.000000 1 0 0
-5.358809 11.011846 -0.759110 12.270038 -1.117893 1.632703 -0.000256 -0.002098 141208.000000 1 0 0
-5.477209 3.192846 -3.476010 7.230265 -0.527776 2.072316 0.004789 -0.000705 -520530.000000 1 0 0
1.949691 13.581146 -6.596510 15.223757 1.428212 2.018952 0.002847 -0.000366 1127750.000000 1 0 0
-5.361509 -2.546954 2.686490 6.515365 0.443484 1.145785 -0.003901 -0.000289 575682.000000 1 0 0
10.423091 -3.407654 -1.808610 11.114135 -0.315979 1.734254 0.005271 -0.002550 158094.000000 1 0 0
2.219091 -3.316254 7.053390 8.103840 -0.981072 0.514830 -0.002354 -0.001968 -2098340.000000 1 0 0
-2.898809 9.789646 -11.650410 15.491040 -1.282912 2.422000 -0.003553 -0.001889 -2158580.000000 1 0 0
0.551891 -2.076954 9.309390 9.554217 -1.311077 0.226871 -0.002144 -0.000972 322853.000000 1 0 0
9.421791 2.696146 4.926690 10.968665 0.278712 1.104971 -0.001894 -0.003337 65901.700000 1 0 0
13.495291 1.999346 -5.016610 14.535702 0.147082 1.923167 0.016854 -0.002817 -1392140.000000 1 0 0
-6.476109 3.830646 7.653590 10.732720 -0.534149 0.776875 -0.001861 -0.001124 -407334.000000 1 0 0
10.464991 -0.010754 1.799990 10.618668 -0.001028 1.400462 0.001166 -0.001904 1772980.000000 1 0 0
15.264091 6.600746 -4.625310 17.261397 0.408152 1.842068 0.022537 -0.000891 -305458.000000 1 0 0
8.066091 -4.968854 -9.249010 13.239921 -0.552114 2.344193 0.007845 -0.000677 -210056.000000 1 0 0
4.472091 5.566246 -2.213410 7.475418 0.893967 1.871395 -0.002729 0.000562 -219534.000000 1 0 0
-1.599409 -10.483354 1.568790 10.720071 1.419397 1.423928 0.007909 0.000661 -1136100.000000 1 0 0
-2.725609 12.186146 -12.639410 17.767549 -1.350753 2.362251 -0.000128 -0.008707 40543.400000 1 0 0
8.289191 4.232946 -9.597210 13.369179 0.472138 2.371521 0.002483 0.000699 -999673.000000 1 0 0
4.059691 7.640346 -8.969410 12.462195 1.082385 2.374209 0.002413 -0.001925 -3333010.000000 1 0 0
-1.682509 -4.936754 -2.433410 5.755333 1.242329 2.007340 0.005235 -0.000511 245277.000000 1 0 0
-3.222909 -9.205454 7.024590 12.019667 1.234025 0.946625 0.002688 -0.002779 -3235950.000000 1 0 0
1.064191 7.296746 -1.425910 7.510541 1.425973 1.761810 -0.001263 -0.000694 -170417.000000 1 0 0
0.317591 -0.873654 -2.299810 2.480577 -1.222128 2.757469 0.005742 0.000657 -551561.000000 1 0 0
4.191791 -6.819854 7.768890 11.155141 -1.019678 0.800371 -0.001843 -0.002269 -363356.000000 1 0 0
-13.838809 3.846046 5.913790 15.533114 -0.271076 1.180220 -0.004611 -0.000192 -1148980.000000 1 0 0
4.327991 6.495746 12.547890 14.777543 0.983061 0.556481 -0.004866 -0.001140 -1410080.000000 1 0 0
8.328591 10.047246 -7.246510 14.927307 0.878655 2.077678 0.008339 -0.008651 558356.000000 1 0 0
12.475491 5.268946 9.490190 16.536728 0.399619 0.959554 0.021973 -0.000139 741493.000000 1 0 0
7.505491 4.087946 0.311990 8.552253 0.498735 1.534308 0.000211 0.001806 -2219610.000000 1 0 0
-10.859009 -7.483254 -0.953010 13.222156 0.603392 1.642936 0.006559 -0.001546 -2593900.000000 1 0 0
10.367491 6.788746 0.181890 12.393749 0.579750 1.556120 0.007638 0.002012 -723252.000000 1 0 0
14.512391 3.562646 4.116190 15.499837 0.240729 1.302008 0.019027 -0.008710 665484.000000 1 0 0
2.118891 5.552146 8.166090 10.099557 1.206222 0.629097 -0.011760 0.006923 -396804.000000 1 0 0
4.196891 0.159946 11.771390 12.498204 0.038092 0.342713 0.000546 -0.002599 61572.000000 1 0 0
-1.554109 -1.459954 -0.387310 2.167194 0.754170 1.750477 0.008079 -0.004876 -672185.000000 1 0 0
3.024091 -5.276254 -9.529610 11.304753 -1.050353 2.573584 -0.003650 -0.001895 164208.000000 1 0 0
-3.995709 -5.371954 -1.372510 6.834279 0.931269 1.772999 0.007104 -0.000463 876852.000000 1 0 0
-1.324509 -8.726854 8.722090 12.409156 1.420172 0.791365 -0.002493 -0.004653 -147760.000000 1 0 0
3.942791 8.589146 -6.006210 11.197928 1.140447 2.136924 0.001751 -0.000571 653454.000000 1 0 0
-14.241409 -1.753654 -2.642510 14.590267 0.122521 1.752916 -0.000210 -0.002278 -968125.000000 1 0 0
8.684991 -10.605654 -6.615210 15.220708 -0.884636 2.020412 0.001593 0.002849 340389.000000 1 0 0
14.820191 5.996346 1.608990 16.068076 0.384471 1.470492 0.004873 0.001547 -2230260.000000 1 0 0
-5.835109 0.386946 -8.528310 10.340711 -0.066216 2.540524 0.006171 -0.007050 -158610.000000 1 0 0
-8.000509 -4.558454 -12.963510 15.900951 0.517895 2.523985 0.007241 -0.005614 679494.000000 1 0 0
0.858191 -10.605354 12.034490 16.063592 -1.490052 0.723976 -0.002140 -0.001766 -553822.000000 1 0 0
0.334191 11.728446 3.275090 12.181722 1.542310 1.298595 -0.000859 0.002763 424580.000000 1 0 0
5.248191 -13.167554 -3.613810 14.628315 -1.191523 1.820423 0.003547 0.006049 899154.000000 1 0 0
-7.547009 1.587046 -6.948210 10.380447 -0.207268 2.304137 -0.000423 -0.003078 684031.000000 1 0 0
1.430491 2.707046 3.995090 5.033403 1.084662 0.653903 -0.006076 0.003468 -953414.000000 1 0 0
17.236891 5.392646 2.143090 18.187465 0.303208 1.452689 0.007776 -0.005448 -259356.000000 1 0 0
2.743291 -8.045554 -3.432610 9.167300 -1.242189 1.954590 -0.005593 0.002138 315596.000000 1 0 0
-0.378409 -9.378854 -0.591110 9.405079 1.530471 1.633688 0.007245 0.002711 -1151200.000000 1 0 0
0.731391 11.844246 -5.595910 13.120035 1.509124 2.011434 0.007242 -0.003239 -531063.000000 1 0 0
6.086391 -5.068354 7.805490 11.120164 -0.694385 0.792704 0.000849 -0.003341 -876223.000000 1 0 0
-5.977609 -2.017254 -9.404110 11.324240 0.325467 2.550695 0.009497 -0.005217 -306533.000000 1 0 0
2.013691 -1.264954 11.317790 11.564922 -0.560880 0.207102 -0.003859 -0.001663 -697446.000000 1 0 0
18.024991 2.247346 -5.820010 19.074155 0.124039 1.880866 0.014317 0.004521 -95863.700000 1 0 0
-8.941209 4.762546 7.903890 12.849068 -0.489426 0.908241 0.003132 -0.003723 -611264.000000 1 0 0
11.432191 -7.067754 -4.830510 14.282225 -0.553718 1.915819 0.021030 -0.003362 -116978.000000 1 0 0
10.727891 0.497546 8.940490 13.973817 0.046346 0.876554 0.005489 -0.005372 -286605.000000 1 0 0
-8.489209 -7.370454 -1.463310 11.337175 0.714974 1.700229 0.010184 -0.002533 -1628780.000000 1 0 0
10.272091 -10.409754 -3.206810 14.972056 -0.792054 1.786655 0.013950 0.001413 254246.000000 1 0 0
7.699891 -13.855254 -3.667310 16.269774 -1.063558 1.798156 0.012943 0.004898 -1999640.000000 1 0 0
1.735291 -1.221154 -11.586010 11.778713 -0.613216 2.960457 -0.001305 -0.005646 -172299.000000 1 0 0
-11.886909 -2.585454 -6.404810 13.747901 0.214169 2.055420 0.005095 -0.004498 -479208.000000 1 0 0
2.735991 -12.134554 -6.417110 13.996869 -1.349034 2.047066 -0.001148 0.004362 -82761.100000 1 0 0
-5.463209 1.528246 1.065390 5.772109 -0.272762 1.385156 -0.000371 0.001233 735509.000000 1 0 0
0.197291 6.852446 -4.019110 7.946583 1.542013 2.101066 0.003602 -0.002361 1166430.000000 1 0 0
5.493091 -11.873554 3.692890 13.593850 -1.137487 1.295680 -0.003310 -0.004102 -2390910.000000 1 0 0
-4.419909 -9.435254 1.147390 10.482181 1.132709 1.461116 0.010464 0.002594 -1442940.000000 1 0 0
7.078091 -6.166254 -4.717710 10.506134 -0.716659 2.036491 0.001558 -0.002403 -286518.000000 1 0 0
-6.908809 -6.019754 2.226990 9.430194 0.716740 1.332389 0.006274 -0.000533 -340403.000000 1 0 0
-6.049209 -0.648854 7.141390 9.381545 0.106854 0.705609 -0.004043 0.000759 -588778.000000 1 0 0
4.102291 -4.993854 3.229690 7.224837 -0.883102 1.107358 -0.003726 -0.001885 -729730.000000 1 0 0
-2.555009 10.571246 -8.880910 14.041007 -1.333650 2.255570 -0.002283 -0.001023 -646080.000000 1 0 0
-2.330909 -4.914454 2.784990 6.110742 1.127922 1.097578 0.000529 0.001215 49489.700000 1 0 0
15.123091 5.006546 6.362390 17.153816 0.319697 1.190816 0.029002 -0.009837 679348.000000 1 0 0
6.794691 0.260946 0.083790 6.800216 0.038386 1.558474 0.000288 -0.001160 3573950.000000 1 0 0
-9.633609 9.111346 0.322390 13.263747 -0.757544 1.546488 -0.001527 -0.002167 -1532460.000000 1 0 0
7.146991 10.447246 -2.658110 12.934063 0.970819 1.777784 0.003657 -0.001165 641824.000000 1 0 0
1.676291 -4.365554 -5.453810 7.184153 -1.204175 2.432794 -0.002233 -0.001927 -370714.000000 1 0 0
0.898891 -8.155354 -7.892410 11.384548 -1.461018 2.336794 -0.004606 0.000331 869655.000000 1 0 0
-10.398709 0.249546 -10.439110 14.736704 -0.023993 2.357989 0.001890 -0.003252 -3960150.000000 1 0 0
5.840491 -2.511954 0.598290 6.385859 -0.406176 1.476969 0.000480 -0.002302 32892.200000 1 0 0
-3.338309 5.355846 -1.154310 6.415748 -1.013419 1.751700 0.003363 -0.002852 1178210.000000 1 0 0
-0.328109 4.555446 -5.227110 6.941356 -1.498895 2.423465 0.004670 -0.002832 -970077.000000 1 0 0
3.912991 -9.586354 10.027890 14.414169 -1.183255 0.801407 -0.002375 -0.001007 -1183630.000000 1 0 0
7.307191 -13.522054 -0.676110 15.384996 -1.075361 1.614757 0.011088 0.003344 738055.000000 1 0 0
12.950091 -0.142154 0.515390 12.961122 -0.010977 1.531022 0.006030 -0.004062 330523.000000 1 0 0
9.224691 2.383446 -0.576910 9.545081 0.252847 1.631274 0.002820 -0.000676 -690314.000000 1 0 0
-0.832809 -5.765454 4.568090 7.402802 1.427340 0.905775 -0.002174 0.001215 1834620.000000 1 0 0
11.440091 -3.788454 3.438390 12.531983 -0.319790 1.292863 0.013122 -0.010032 -3262750.000000 1 0 0
1.524391 -8.156754 11.865490 14.479166 -1.386041 0.610281 -0.001485 -0.002075 287265.000000 1 0 0
9.394891 -5.980854 -5.854110 12.581939 -0.566902 2.054746 0.003647 -0.003650 -2022480.000000 1 0 0
3.187691 6.468846 -0.165810 7.213518 1.112945 1.593784 -0.005201 0.003646 -1042790.000000 1 0 0
6.381291 -1.372154 11.385390 13.123673 -0.211803 0.520549 0.001346 -0.003458 443132.000000 1 0 0
-4.787709 -7.511154 -3.912910 9.728847 1.003320 1.984711 0.014897 -0.000992 163175.000000 1 0 0
-3.470809 -8.585454 -5.864510 10.961250 1.186618 2.135330 0.009640 -0.000760 -578241.000000 1 0 0
9.833791 5.324146 2.251190 11.406920 0.496227 1.372139 0.000784 -0.000892 -46035.700000 1 0 0
8.824591 -1.497554 0.230290 8.953720 -0.168101 1.545073 0.004246 -0.002641 867127.000000 1 0 0
-3.670809 9.637946 9.236390 13.844701 -1.206889 0.840430 -0.000519 -0.001382 12047.300000 1 0 0
-14.382509 -3.520654 -6.110710 16.018500 0.240066 1.962191 0.008897 -0.004211 -589445.000000 1 0 0
10.564591 6.265846 -5.969710 13.656824 0.535330 2.023194 0.006634 -0.003994 -1192210.000000 1 0 0
-1.849109 4.537746 2.618890 5.555981 -1.183845 1.079960 -0.002081 0.002862 733777.000000 1 0 0
6.857391 -3.692854 2.805690 8.278459 -0.493988 1.225033 0.002304 -0.004110 -1762900.000000 1 0 0
8.397791 -11.370654 -1.518710 14.216932 -0.934664 1.677825 0.009452 -0.000689 -1545640.000000 1 0 0
4.504091 0.378746 1.780490 4.858027 0.083892 1.195547 -0.001977 0.001389 239742.000000 1 0 0
-10.793909 2.506246 3.763190 11.702621 -0.228148 1.243411 -0.005103 -0.000022 -139256.000000 1 0 0
-0.850909 -3.113554 4.419890 5.472997 1.304019 0.630757 -0.000954 0.000143 269623.000000 1 0 0
8.581891 -8.766054 -8.473810 14.909662 -0.796014 2.175288 0.013234 -0.001991 -596662.000000 1 0 0
11.975991 -4.899954 1.048090 12.982003 -0.388368 1.489974 0.011142 -0.005872 441817.000000 1 0 0
2.920491 4.798146 3.495690 6.615990 1.024026 1.014117 -0.009533 0.004908 -271098.000000 1 0 0
6.010891 7.393946 1.927190 9.721898 0.888210 1.371243 -0.001972 0.002377 -318600.000000 1 0 0
-1.567809 -1.380254 -10.387710 10.595643 0.721864 2.943154 0.006559 -0.007369 1004170.000000 1 0 0
-0.849409 -8.594354 6.161690 10.608998 1.472283 0.951087 -0.001994 -0.001531 -247885.000000 1 0 0
-4.307209 -0.186354 2.300590 4.886665 0.043239 1.080611 0.001004 -0.000892 366636.000000 1 0 0
-8.414009 6.079046 -8.043810 13.132145 -0.625662 2.230051 -0.008283 0.000478 -889382.000000 1 0 0
6.446191 11.048446 -9.404610 15.876657 1.042637 2.204774 0.015420 -0.011476 297070.000000 1 0 0
-11.262909 -5.669954 3.155590 12.998433 0.466378 1.325579 0.006879 -0.000794 270772.000000 1 0 0
1.464191 -6.318254 3.020990 7.154758 -1.343076 1.134887 -0.001765 -0.000935 214239.000000 1 0 0
9.995491 2.176946 7.249790 12.538277 0.214444 0.954260 0.003127 -0.001485 -1789240.000000 1 0 0
-4.022209 -2.514054 -10.625210 11.635881 0.558630 2.721722 0.005980 -0.005661 -2463370.000000 1 0 0
-8.215909 11.817946 5.857090 15.539322 -0.963295 1.184327 0.004569 -0.006409 954572.000000 1 0 0
6.836791 5.935946 -2.914610 9.511683 0.714986 1.882231 0.000820 0.001230 -3483290.000000 1 0 0
3.892691 -9.883654 -2.277910 10.864094 -1.195602 1.782037 -0.007440 0.001113 -1735420.000000 1 0 0
8.497291 -12.877554 -7.446510 17.131429 -0.987526 2.020468 0.013273 0.004400 136527.000000 1 0 0
-1.141109 9.488846 3.621290 10.220277 -1.451113 1.208605 -0.006862 0.003959 73748.500000 1 0 0
0.421591 -13.243854 4.780390 14.086502 -1.538974 1.224560 0.006908 -0.005188 -1090220.000000 1 0 0
-11.306909 -7.023154 -5.133410 14.266141 0.555818 1.938884 0.006948 -0.005628 -66712.700000 1 0 0
3.638991 10.341946 -3.436810 11.489550 1.232459 1.874572 0.006414 -0.003726 -462165.000000 1 0 0
11.637091 -8.061954 -7.331610 15.942694 -0.605864 2.048648 0.030718 -0.006084 319090.000000 1 0 0
11.602791 -4.598854 -5.732610 13.734520 -0.377362 2.001364 0.016530 -0.009466 141617.000000 1 0 0
1.290491 -10.265154 -2.727310 10.699391 -1.445737 1.828544 -0.001492 0.003141 -534748.000000 1 0 0
2.393291 -12.008954 -3.995210 12.880393 -1.374081 1.886176 -0.002730 0.003393 -1766120.000000 1 0 0
-7.587709 -5.588654 7.214090 11.868002 0.634831 0.917433 0.001704 0.001409 -3748240.000000 1 0 0
-7.219509 -0.724954 9.530190 11.977954 0.100080 0.650726 -0.001440 0.000019 94979.700000 1 0 0
16.163691 2.619846 -7.540010 18.027209 0.160685 2.002322 0.021987 -0.004092 -456145.000000 1 0 0
-2.030609 6.322746 -5.533110 8.643830 -1.260042 2.265454 0.005764 -0.003047 1255980.000000 1 0 0
7.613891 1.120546 8.401490 11.393507 0.146122 0.741594 -0.001552 -0.002347 -245329.000000 1 0 0
7.846691 8.220546 -3.737010 11.962992 0.808662 1.888495 0.003192 -0.000155 -912389.000000 1 0 0
8.075791 0.544446 4.009490 9.032764 0.067315 1.110869 -0.000828 -0.000892 1470160.000000 1 0 0
-6.988109 5.894746 5.516590 10.677756 -0.700731 1.027871 -0.000206 -0.004192 352301.000000 1 0 0
-6.134809 -2.006254 -4.557410 7.901324 0.316065 2.185591 0.007973 -0.004214 -948687.000000 1 0 0
-15.118109 -2.140754 3.134190 15.587277 0.140667 1.368343 0.011603 -0.001169 -388409.000000 1 0 0
1.038491 1.248346 -10.599310 10.722975 0.876908 2.989573 0.002055 -0.007043 401752.000000 1 0 0
1.446691 -9.173454 9.424890 13.231543 -1.414380 0.778020 -0.002567 -0.002926 -1507790.000000 1 0 0
-0.163809 -6.757554 -1.196110 6.864550 1.546560 1.745935 0.002941 0.001834 744499.000000 1 0 0
-0.394109 -10.318754 -8.353710 13.282186 1.532621 2.250986 0.000215 0.002060 112627.000000 1 0 0
-4.390709 6.531746 3.752290 8.719043 -0.978965 1.125910 -0.001913 0.002281 -74990.100000 1 0 0
10.714791 -1.204654 -8.672910 13.837532 -0.111959 2.248194 0.015309 -0.001543 416615.000000 1 0 0
3.011491 -1.052354 6.268290 7.033348 -0.336181 0.470759 -0.003513 -0.000044 781734.000000 1 0 0
2.026391 -12.326354 6.770490 14.208617 -1.407859 1.074120 0.000250 -0.003273 348026.000000 1 0 0
2.887891 -4.984854 -1.370010 5.921622 -1.045712 1.804269 0.004462 -0.001891 -818672.000000 1 0 0
-1.093509 9.582446 -1.693110 9.792122 -1.457172 1.744575 0.003767 -0.003606 159754.000000 1 0 0
4.506291 -2.523154 2.687990 5.822221 -0.510426 1.090911 -0.000016 -0.000388 -2086880.000000 1 0 0
17.770591 6.671046 -2.797610 19.186542 0.359120 1.717129 0.014394 0.010676 773112.000000 1 0 0
-7.141109 3.446146 -5.535110 9.669995 -0.449614 2.180227 0.001131 -0.003401 -211890.000000 1 0 0
-13.845209 -5.828954 2.338190 15.203080 0.398485 1.416386 0.008128 -0.001578 759296.000000 1 0 0
6.623691 -5.977654 3.600890 9.621436 -0.734176 1.187201 0.001334 -0.005350 156511.000000 1 0 0
-4.675409 2.071646 3.483890 6.187783 -0.417096 0.972752 -0.000683 -0.000091 304112.000000 1 0 0
6.914591 -12.204254 -5.484210 15.060941 -1.055319 1.943500 0.005884 0.007716 -1705720.000000 1 0 0
2.964491 -12.393054 3.436290 13.197882 -1.336002 1.307394 0.001992 -0.004381 -425088.000000 1 0 0
3.274691 11.283346 -6.045910 13.213271 1.288333 2.046049 0.003841 -0.000142 -609271.000000 1 0 0
-5.629909 -8.381954 6.544390 12.032542 0.979338 0.995729 0.004150 -0.001559 -72333.200000 1 0 0
-3.887709 6.612246 6.292890 9.921519 -1.039280 0.883737 -0.000611 0.002135 529723.000000 1 0 0
4.351491 4.396246 -6.891610 9.260494 0.790514 2.410125 -0.002618 0.000475 -1743420.000000 1 0 0
-0.308609 -2.654054 1.629790 3.129770 1.455038 1.023081 0.001922 -0.001844 -1491240.000000 1 0 0
-13.064809 -0.888554 6.520490 14.628587 0.067907 1.108800 0.003550 -0.002059 97906.400000 1 0 0
-0.544909 -9.304754 -6.022410 11.097062 1.512301 2.144448 -0.000914 0.001952 164520.000000 1 0 0
1.975191 -1.795154 -3.969710 4.783571 -0.737684 2.549659 0.003030 -0.002416 -1523310.000000 1 0 0
11.343591 -1.984154 1.249890 11.583443 -0.173162 1.462683 0.008961 -0.005303 966412.000000 1 0 0
0.558091 -4.274254 -1.996910 4.750617 -1.440960 2.004625 0.002628 -0.000617 -2084440.000000 1 0 0
1.163491 -7.522054 -11.433110 13.735029 -1.417335 2.554230 -0.003183 0.000976 -650666.000000 1 0 0
-4.546709 4.237346 -9.999310 11.773439 -0.750194 2.585475 0.000934 -0.005682 -111000.000000 1 0 0
-0.976809 5.857946 -2.208710 6.336252 -1.405567 1.926855 0.003559 -0.002324 192042.000000 1 0 0
-11.310309 1.734146 -3.905610 12.090664 -0.152140 1.899722 -0.001976 -0.001308 -10824.200000 1 0 0
-1.778109 -11.307754 4.206090 12.195006 1.414827 1.218661 0.008201 -0.001133 -464992.000000 1 0 0
-3.474409 -5.562454 -9.739510 11.741826 1.012472 2.548957 0.002192 -0.003860 -1733370.000000 1 0 0
-12.829509 -3.726954 -8.368410 15.764415 0.282717 2.130390 0.008325 -0.003287 126483.000000 1 0 0
11.369191 4.402946 0.492190 12.201913 0.369484 1.530448 0.007848 0.000157 305768.000000 1 0 0
-8.924109 -2.365954 -3.005210 9.709209 0.259157 1.885486 0.003081 -0.002265 -262093.000000 1 0 0
-2.582309 -6.141454 -6.495810 9.304909 1.172767 2.343545 0.004566 -0.003412 -1205440.000000 1 0 0
-0.035209 2.715246 -1.901610 3.315105 -1.557830 2.181715 0.002197 -0.002010 283609.000000 1 0 0
8.055891 5.955146 -5.125410 11.253043 0.636572 2.043695 0.001594 -0.001540 -956076.000000 1 0 0
-9.817609 -0.950354 -1.010210 9.915097 0.096500 1.672859 -0.002747 -0.000776 -706137.000000 1 0 0
6.119991 0.446046 -8.835410 10.757217 0.072755 2.534565 0.001486 -0.000403 436990.000000 1 0 0
-4.106309 2.579946 7.788290 9.174713 -0.560960 0.556921 -0.003837 0.001141 -1560050.000000 1 0 0
-10.168109 -3.308354 1.478390 10.794503 0.314563 1.433407 -0.001181 -0.001572 1977830.000000 1 0 0
-1.774909 -8.123854 -7.910010 11.476740 1.355695 2.331210 -0.000097 -0.002505 -141734.000000 1 0 0
-9.421609 -9.749454 4.237090 14.204630 0.802498 1.267896 0.007122 -0.000946 -575094.000000 1 0 0
-1.117909 -10.741054 7.420290 13.102697 1.467092 0.968765 0.001743 -0.002862 9792.200000 1 0 0
9.378791 3.703546 -3.767210 10.764286 0.376089 1.928339 0.001797 0.000224 -736980.000000 1 0 0
12.679491 -0.769954 3.126290 13.081896 -0.060650 1.329483 0.009570 -0.007169 180763.000000 1 0 0
6.567691 11.911646 -6.858510 15.233550 1.066904 2.037813 0.005238 -0.006220 211266.000000 1 0 0
-11.945509 -0.035254 -6.479810 13.589863 0.002951 2.067821 -0.000564 -0.001706 303321.000000 1 0 0
-7.584809 -6.653554 -11.460110 15.268701 0.720087 2.419709 0.011359 -0.007768 -2040240.000000 1 0 0
4.084591 6.063446 6.601790 9.850528 0.977980 0.836323 -0.009913 0.005379 -3927980.000000 1 0 0
-4.324809 -1.387054 -7.367410 8.654861 0.310356 2.589150 0.009231 -0.007912 -976113.000000 1 0 0
9.613891 9.280246 0.786390 13.385375 0.767741 1.512013 0.009595 0.002271 -1889050.000000 1 0 0
-8.843809 3.912146 4.817790 10.804117 -0.416482 1.108593 -0.002345 -0.001678 536207.000000 1 0 0
-7.081209 7.830646 -12.189610 16.126039 -0.835614 2.427818 -0.000078 -0.008445 -847677.000000 1 0 0
11.193791 -3.584954 7.183290 13.775068 -0.309941 1.022223 0.013051 -0.010177 135236.000000 1 0 0
11.802991 6.827646 6.487290 15.100075 0.524436 1.126725 0.009004 -0.002001 -49777.500000 1 0 0
-9.874009 -0.751654 -14.804610 17.811163 0.075978 2.552056 0.003319 0.001938 816904.000000 1 0 0
1.855091 -13.027954 12.158590 17.916480 -1.429354 0.824906 0.004628 -0.000269 -111894.000000 1 0 0
3.035391 2.933646 12.943690 13.614661 0.768354 0.315256 -0.001639 -0.003349 369637.000000 1 0 0
-2.545209 -1.406854 10.837090 11.220510 0.504949 0.262175 -0.001160 0.000263 -713846.000000 1 0 0
2.485491 -10.121454 -8.289710 13.316936 -1.329995 2.242721 -0.004220 0.004681 -1409140.000000 1 0 0
13.898591 3.644546 -7.514410 16.214805 0.256450 2.052657 0.018712 -0.005157 -2903700.000000 1 0 0
7.305291 -1.579654 4.973090 8.977428 -0.212956 0.983689 -0.003071 -0.002262 318936.000000 1 0 0
-0.944309 8.724946 10.144990 13.414068 -1.462985 0.713165 -0.000831 0.003512 -48310.000000 1 0 0
-12.242209 -4.562054 0.973890 13.100858 0.356708 1.496390 0.004109 -0.000432 12843.400000 1 0 0
-4.886109 4.859046 -5.277610 8.679721 -0.782621 2.224385 0.005309 -0.004283 -173097.000000 1 0 0
-11.224309 0.471346 2.093890 11.427671 -0.041969 1.386525 -0.004697 0.002539 -2789030.000000 1 0 0
-1.121309 2.201846 -4.112810 4.797986 -1.099769 2.600595 0.006581 -0.003376 865515.000000 1 0 0
3.171091 -9.814154 13.116590 16.685873 -1.258271 0.666340 -0.001564 -0.003576 -901150.000000 1 0 0
8.878191 4.631046 -1.539710 10.131119 0.480794 1.723366 0.001645 -0.001431 -1585820.000000 1 0 0
4.042091 2.326746 3.683690 5.943216 0.522307 0.902290 -0.009231 0.004356 -405030.000000 1 0 0
-5.521809 -3.215254 7.472190 9.831676 0.527290 0.707465 -0.002228 -0.000212 -348975.000000 1 0 0
1.770091 -5.907054 7.691290 9.858116 -1.279654 0.675813 -0.005141 -0.002531 -567391.000000 1 0 0
-5.910709 -6.239854 -9.718810 12.974110 0.812480 2.417488 0.005530 -0.006727 -164002.000000 1 0 0
-11.781809 -5.650354 5.604890 14.218028 0.447181 1.165588 0.011610 -0.000966 -947268.000000 1 0 0
10.470791 6.243246 4.501290 12.995276 0.537660 1.217088 0.002986 -0.002325 -17596.000000 1 0 0
1.335691 -3.750754 0.390790 4.000618 -1.228686 1.472958 0.007523 -0.001777 -1083330.000000 1 0 0
8.696091 4.319246 6.959890 11.946462 0.460995 0.948885 -0.003142 0.002046 -114131.000000 1 0 0
-7.826709 12.059846 3.510890 14.799446 -0.995132 1.331282 0.004343 -0.005547 -32459.300000 1 0 0
-6.331709 13.288346 -7.109710 16.346824 -1.126136 2.020756 0.005791 -0.003560 371250.000000 1 0 0
4.450091 -6.973354 -0.920010 8.323304 -1.002792 1.681557 0.000026 -0.002215 -1068990.000000 1 0 0
-1.956209 -8.142754 11.157690 13.950815 1.335025 0.643855 -0.007146 -0.004020 -591047.000000 1 0 0
11.562891 8.777146 -5.708010 15.598722 0.649286 1.945426 0.014643 -0.004089 402357.000000 1 0 0
-3.315409 -2.942254 -1.889210 4.818497 0.725837 1.973682 0.010346 -0.002260 -703910.000000 1 0 0
-2.044509 6.015546 4.607190 7.848122 -1.243174 0.943394 -0.004270 0.004085 -1023030.000000 1 0 0
0.307491 -11.519954 -5.704210 12.858534 -1.544111 2.030422 -0.002443 -0.000054 -141390.000000 1 0 0
-8.935009 6.265946 -1.648110 11.036881 -0.611585 1.720684 -0.000983 0.000009 -1349100.000000 1 0 0
2.936191 -0.064454 3.884790 4.870007 -0.021948 0.647330 -0.004821 0.002172 2585.550000 1 0 0
-10.029309 3.972546 -1.057310 10.839099 -0.377134 1.668498 0.002226 -0.000588 -41353.200000 1 0 0
6.451291 5.523746 13.556290 15.996997 0.708096 0.559676 0.001295 -0.000431 -555833.000000 1 0 0
-8.629709 -1.597554 5.789490 10.513908 0.183050 0.987653 -0.002823 -0.000514 -538954.000000 1 0 0
12.909191 -1.804154 -1.422910 13.112088 -0.138858 1.679529 0.011305 -0.004761 -522881.000000 1 0 0
4.962891 -5.641554 5.578190 9.358078 -0.849309 0.932183 0.000616 -0.005155 252922.000000 1 0 0
-9.050109 -1.103254 3.277690 9.688390 0.121306 1.225675 -0.006600 0.000927 579059.000000 1 0 0
1.947891 5.432946 5.561990 8.015417 1.226540 0.803889 -0.008274 0.005078 -470711.000000 1 0 0
9.233591 3.006546 -7.391410 12.203748 0.314783 2.221400 0.003582 -0.001235 -1366530.000000 1 0 0
2.257091 -2.419554 -1.519210 3.640975 -0.820123 2.001218 0.001089 -0.001286 151158.000000 1 0 0
-6.347309 0.405946 -3.830010 7.424426 -0.063869 2.112815 0.001621 -0.001978 -2231570.000000 1 0 0
-4.035709 4.276546 5.081190 7.771376 -0.814364 0.858156 -0.001595 0.002793 666514.000000 1 0 0
-6.419409 1.786246 -12.357910 14.039851 -0.271392 2.647085 -0.001889 -0.003078 -4051950.000000 1 0 0
-0.150709 3.006146 6.245190 6.932678 -1.520705 0.449110 -0.005593 0.002907 1323800.000000 1 0 0
-8.874709 9.263246 -2.204610 13.016470 -0.806816 1.740988 -0.004497 0.000743 254962.000000 1 0 0
-1.379109 -3.768454 -6.152610 7.345597 1.219973 2.563656 0.001957 -0.002521 301287.000000 1 0 0
-3.279409 7.154146 -3.030910 8.433430 -1.140985 1.938413 0.003667 -0.002367 692380.000000 1 0 0
6.984191 -0.430454 -4.266210 8.195411 -0.061555 2.118304 -0.001221 -0.000520 -160183.000000 1 0 0
-5.191109 -10.865054 6.920190 13.888342 1.125082 1.049190 0.000234 -0.003439 1258710.000000 1 0 0
9.745791 8.331346 -1.555610 12.915560 0.707312 1.691534 0.005777 0.002333 -345200.000000 1 0 0
13.720191 4.499946 -4.244110 15.050104 0.316925 1.856673 0.013103 -0.003290 172044.000000 1 0 0
4.668791 1.068246 -6.846710 8.355609 0.224934 2.531186 -0.003701 -0.001208 280883.000000 1 0 0
8.985391 -4.817654 3.587190 10.808097 -0.492159 1.232481 0.006060 -0.008027 -1106110.000000 1 0 0
-8.781209 -3.301554 -0.738910 9.410413 0.359629 1.649398 -0.001737 -0.000076 -127747.000000 1 0 0
-8.531209 -4.261054 -10.366110 14.085253 0.463221 2.397872 0.009159 -0.008305 399377.000000 1 0 0
10.391491 -1.168654 10.809290 15.039601 -0.111992 0.768834 0.008854 -0.007099 229453.000000 1 0 0
2.174791 -11.596854 9.907690 15.407111 -1.385417 0.872310 0.001522 -0.005414 96651.600000 1 0 0
-6.472109 -10.576854 2.115990 12.579167 1.021664 1.401779 0.009545 0.001379 -449882.000000 1 0 0
-3.664709 -1.491254 6.594690 7.690505 0.386460 0.540385 -0.001485 -0.000368 -2769800.000000 1 0 0
4.773691 -7.572154 3.902690 9.765072 -1.008304 1.159652 -0.004049 -0.002257 503545.000000 1 0 0
11.482491 -9.527854 -5.303010 15.835072 -0.692633 1.912285 0.020494 -0.001851 558776.000000 1 0 0
11.251991 1.125746 11.434590 16.081805 0.099717 0.779839 0.011785 -0.001929 -666666.000000 1 0 0
-10.314209 -3.364954 4.483490 11.739144 0.315357 1.178916 0.003248 -0.000339 1741190.000000 1 0 0
2.029191 8.829146 8.936890 12.725543 1.344891 0.792202 -0.009573 0.007955 -342561.000000 1 0 0
6.557591 8.752446 4.052290 11.663120 0.927789 1.215952 0.000831 0.003968 52727.400000 1 0 0
-4.314009 3.622046 0.293490 5.640570 -0.698426 1.518741 0.002676 -0.002080 -1437800.000000 1 0 0
4.818591 6.894746 4.248590 9.423739 0.960823 1.103091 -0.003511 0.003771 -1215410.000000 1 0 0
-8.244209 13.157546 1.164390 15.570607 -1.011064 1.495945 0.002248 0.000522 -486069.000000 1 0 0
8.813191 8.087946 -9.183310 15.080464 0.742513 2.225538 0.002683 -0.008956 -1317250.000000 1 0 0
7.110391 1.890246 6.020690 9.506808 0.259833 0.884983 -0.005475 0.000558 -1222270.000000 1 0 0
11.554491 -6.207554 3.114590 13.481122 -0.492995 1.337657 0.013073 -0.006904 -326187.000000 1 0 0
11.352391 4.578646 -2.108210 12.421165 0.383365 1.741349 0.010571 -0.000212 606881.000000 1 0 0
-4.046309 14.314846 -6.047710 16.058089 -1.295318 1.956935 -0.003646 0.000808 373819.000000 1 0 0
7.069591 -3.083354 6.890890 10.342657 -0.411271 0.841615 -0.000302 -0.005206 -717411.000000 1 0 0
-8.135609 -0.465254 0.950590 8.204159 0.057125 1.454669 -0.005053 0.000835 488159.000000 1 0 0
-3.237809 1.102046 10.683890 11.217995 -0.328068 0.309820 -0.001489 0.002570 -316868.000000 1 0 0
7.074991 -1.416454 -1.884910 7.457528 -0.197593 1.826321 0.003793 -0.001519 -2468110.000000 1 0 0
-7.717309 5.542946 3.023990 9.971240 -0.622869 1.262673 0.000639 -0.001756 702745.000000 1 0 0
9.450291 -2.272754 2.835190 10.124807 -0.236014 1.286977 0.004036 -0.006541 -1541250.000000 1 0 0
0.210291 3.416546 1.524190 3.747021 1.509323 1.151877 -0.003969 0.003515 -4197140.000000 1 0 0
-7.667909 -3.133054 4.020290 9.207366 0.387892 1.118938 -0.001425 -0.000089 2419710.000000 1 0 0
-2.324909 8.414246 -6.759510 11.040639 -1.301216 2.229686 0.001505 -0.003577 -371774.000000 1 0 0
4.538091 9.751746 7.296290 12.997179 1.135241 0.974750 -0.007191 0.007621 1364730.000000 1 0 0
-11.813409 -3.057554 6.974090 14.055006 0.253263 1.051580 0.005091 -0.002203 -2484570.000000 1 0 0
-4.763709 2.320846 -5.664410 7.756597 -0.453350 2.389513 0.008601 -0.005506 165361.000000 1 0 0
-2.722909 2.969046 -1.993310 4.494747 -0.828614 2.030269 0.004950 -0.000151 1078140.000000 1 0 0
2.440791 5.139746 11.442090 12.778727 1.127441 0.461465 -0.004255 -0.000641 488923.000000 1 0 0
-0.785009 1.635346 4.542790 4.891578 -1.123255 0.379915 -0.000451 0.001328 589843.000000 1 0 0
5.030791 1.574146 7.607290 9.255142 0.303251 0.605965 -0.007783 0.001341 49360.000000 1 0 0
3.289991 -8.137354 1.887590 8.977949 -1.186582 1.358968 -0.002261 0.000284 1735390.000000 1 0 0
5.077491 6.467146 -4.709110 9.475263 0.905194 2.090923 -0.000465 -0.000726 -3389500.000000 1 0 0
-4.032509 2.922846 -7.972510 9.400270 -0.627191 2.583214 0.008903 -0.009186 484522.000000 1 0 0
-8.690909 -2.137554 -12.895610 15.697063 0.241166 2.534886 0.005064 -0.005103 -75264.700000 1 0 0
-7.757409 8.235646 1.420190 11.402640 -0.815292 1.445923 0.001950 -0.001449 -2985060.000000 1 0 0
7.340691 0.811946 -6.565510 9.881848 0.110161 2.297488 -0.000671 -0.000047 -434683.000000 1 0 0
8.896191 8.793946 5.436890 13.639482 0.779618 1.160791 0.005269 0.002353 126860.000000 1 0 0
9.371791 -1.185154 -1.394810 9.548851 -0.125792 1.717392 0.005489 -0.002554 307422.000000 1 0 0
5.372391 0.065046 4.219490 6.831611 0.012107 0.905055 -0.007977 0.002661 -1575680.000000 1 0 0
-4.266109 -7.231954 -8.025510 11.615062 1.037839 2.333609 0.006914 -0.008508 38578.100000 1 0 0
-2.159609 7.494846 -0.656310 7.827348 -1.290250 1.654743 0.001728 -0.001052 325497.000000 1 0 0
13.294291 -3.449054 -7.434010 15.617255 -0.253842 2.066911 0.014272 -0.004743 1409230.000000 1 0 0
-4.769909 -4.982554 1.544290 7.068430 0.807199 1.350543 0.008380 -0.000556 1144650.000000 1 0 0
-8.954809 1.415246 2.554290 9.418913 -0.156747 1.296170 -0.006190 0.001123 -2610160.000000 1 0 0
-0.887209 11.160646 10.087090 15.069723 -1.491469 0.837448 -0.001751 -0.000259 217734.000000 1 0 0
-8.459609 0.358646 7.411090 11.252461 -0.042370 0.851814 -0.003081 -0.001087 -1308010.000000 1 0 0
-6.121509 13.037246 -2.172710 14.565827 -1.131812 1.720520 0.000561 -0.000795 -228840.000000 1 0 0
-13.077809 -0.696654 3.236090 13.490244 0.053220 1.328550 0.005536 -0.002054 315129.000000 1 0 0
-6.612609 12.746346 8.713590 16.796505 -1.092234 1.025380 0.009609 -0.011657 2025070.000000 1 0 0
-8.022109 1.014846 -14.123910 16.274796 -0.125838 2.621633 0.000281 -0.000053 -467847.000000 1 0 0
7.225091 2.854646 3.742690 8.623147 0.376277 1.121837 -0.004871 0.002420 -393364.000000 1 0 0
-1.645109 0.681846 -2.071610 2.731825 -0.392917 2.431536 0.007021 -0.003062 638325.000000 1 0 0
-6.186809 9.692946 -10.414710 15.514380 -1.002705 2.306750 -0.004531 -0.003797 -142979.000000 1 0 0
-10.039809 13.695346 5.276290 17.782000 -0.938211 1.269539 0.000098 -0.004581 226828.000000 1 0 0
-5.573209 8.386146 2.363490 10.342833 -0.984244 1.340245 0.001640 -0.000659 -1415920.000000 1 0 0
-2.332309 -10.700254 -1.189710 11.015921 1.356185 1.679007 0.006417 0.003256 391040.000000 1 0 0
-2.261009 -12.309254 8.910590 15.363219 1.389138 0.952074 -0.001389 -0.004984 78689.000000 1 0 0
-14.776709 -6.343454 -1.769210 16.177782 0.405496 1.680376 0.016247 -0.000307 289140.000000 1 0 0
-2.702809 -9.252754 3.370490 10.211701 1.286595 1.234428 0.006741 -0.000400 -1582090.000000 1 0 0
4.604891 -2.759554 7.529990 9.247751 -0.539880 0.619359 -0.002375 -0.001217 -243156.000000 1 0 0
-15.043409 -1.289154 -0.159510 15.099388 0.085487 1.581361 0.004123 -0.004304 79124.000000 1 0 0
5.513891 8.815146 -2.854810 10.782381 1.011836 1.838758 -0.000115 0.000352 -1284900.000000 1 0 0
-5.542409 -5.678454 8.520790 11.643324 0.797522 0.749811 0.002794 -0.001268 -2493560.000000 1 0 0
3.435191 3.557746 7.067390 8.625897 0.802922 0.610568 -0.009271 0.003786 -397776.000000 1 0 0
3.311091 2.390946 9.394390 10.243755 0.625406 0.410091 -0.005672 -0.000968 -26900.000000 1 0 0
9.822891 -3.233854 5.226590 11.587245 -0.318040 1.102839 0.009094 -0.009254 -606880.000000 1 0 0
6.536191 9.930346 -5.147110 12.954779 0.988676 1.979384 0.002343 -0.004003 243761.000000 1 0 0
-4.566609 12.095346 -8.522410 15.484921 -1.209791 2.153602 -0.005731 -0.001969 188406.000000 1 0 0
-3.540009 -7.174254 2.088490 8.268215 1.112417 1.315437 0.004534 0.000410 773007.000000 1 0 0
-7.452609 -4.086754 1.203490 8.584365 0.501587 1.430137 0.001938 -0.001093 1501650.000000 1 0 0
-1.957609 -4.011154 -10.972010 11.845108 1.116761 2.755242 0.004619 -0.004375 -978293.000000 1 0 0
-5.263709 8.363146 -4.526410 10.869095 -1.009044 2.000331 0.001434 -0.003958 -1877670.000000 1 0 0
-10.923909 -3.218754 -10.162210 15.263115 0.286543 2.299364 0.010730 -0.002437 -558649.000000 1 0 0
4.681691 -11.358954 -7.766410 14.534827 -1.179853 2.134513 0.002888 0.002840 -931577.000000 1 0 0
-9.387209 -3.945854 7.222990 12.484432 0.397920 0.953835 0.001542 0.001716 -349052.000000 1 0 0
-5.764109 -9.586054 -5.189310 12.330706 1.029420 2.005172 0.011424 -0.002799 -93354.900000 1 0 0
4.689591 4.364546 -9.491510 11.451213 0.749513 2.547872 -0.000074 0.001199 227118.000000 1 0 0
-3.350209 -7.226754 -14.099310 16.193839 1.136703 2.627337 -0.003326 -0.000692 -454736.000000 1 0 0
0.698091 -0.940354 -8.829510 8.906842 -0.932196 3.009722 0.002040 -0.008004 -187842.000000 1 0 0
-7.742209 2.177146 -2.931710 8.560181 -0.274126 1.920354 0.002765 -0.001474 -646873.000000 1 0 0
-2.390809 7.546246 -12.583710 14.866457 -1.263980 2.580078 -0.002223 -0.003948 46896.000000 1 0 0
-9.827809 8.902146 7.601390 15.284475 -0.736017 1.050281 -0.001267 -0.010790 -355596.000000 1 0 0
-10.663309 -3.070354 -14.204110 18.024705 0.280353 2.478408 0.014443 -0.005707 -360410.000000 1 0 0
-3.158409 4.884746 7.930390 9.835008 -0.996825 0.632854 -0.002375 0.002149 -731752.000000 1 0 0
8.720591 -2.492854 -3.563210 9.744716 -0.278433 1.945133 0.004107 -0.000655 -4157850.000000 1 0 0
1.963091 -8.515654 -1.047110 8.801507 -1.344227 1.690048 -0.002827 0.003497 228703.000000 1 0 0
-13.452009 -2.817254 5.039590 14.638679 0.206446 1.219340 0.013498 -0.005156 423107.000000 1 0 0
6.967191 2.692946 -1.961110 7.722672 0.368830 1.827550 0.000016 0.000053 667437.000000 1 0 0
-11.164609 4.561146 8.976790 15.034471 -0.387843 0.930940 -0.002890 -0.001320 -3897330.000000 1 0 0
-1.775809 -2.441754 8.053990 8.601303 0.942003 0.358658 -0.005951 -0.000111 -976934.000000 1 0 0
2.967891 12.037646 -9.995910 15.925813 1.329067 2.249333 0.008999 -0.004504 475325.000000 1 0 0
3.646491 -5.086254 -7.071110 9.442853 -0.948798 2.417094 -0.006473 -0.003301 -385291.000000 1 0 0
8.378591 -13.811754 -9.799910 18.894538 -1.025518 2.116084 0.016731 0.008536 385591.000000 1 0 0
-6.346509 -5.769354 -0.449710 8.588705 0.737798 1.623181 0.009778 -0.000373 -747794.000000 1 0 0
-1.119309 -4.133954 9.847690 10.738688 1.306376 0.410230 -0.006787 0.000111 1341900.000000 1 0 0
2.720091 3.316946 1.757590 4.635747 0.883944 1.181931 -0.007335 0.004172 -1020090.000000 1 0 0
-9.091709 13.431346 7.677090 17.944301 -0.975741 1.128707 0.006615 -0.017957 -52976.600000 1 0 0
4.034891 -11.077054 0.054990 11.789168 -1.221478 1.566132 -0.002735 0.000210 464323.000000 1 0 0
-12.456409 -1.358254 -9.118910 15.497145 0.108611 2.199906 0.009344 -0.003903 447479.000000 1 0 0
-4.200809 0.947046 -13.561210 14.228496 -0.221737 2.834122 0.001896 -0.002255 956348.000000 1 0 0
3.909091 -3.070354 4.947990 7.013606 -0.665799 0.787690 -0.003750 0.001096 105882.000000 1 0 0
1.724891 -1.196154 1.055490 2.349488 -0.606328 1.104879 -0.001364 0.000280 411884.000000 1 0 0
8.102291 -9.030654 7.395190 14.208753 -0.839531 1.023398 0.011264 -0.008257 -1346670.000000 1 0 0
-0.126309 2.338746 -6.557310 6.963045 -1.516842 2.798534 0.004392 -0.006287 -1434320.000000 1 0 0
-3.767709 -9.741254 -3.365710 10.973407 1.201739 1.882536 0.011301 0.001670 1268620.000000 1 0 0
-9.491709 2.285446 -5.445810 11.179117 -0.236286 2.079610 -0.004739 -0.000425 -1615940.000000 1 0 0
8.996991 -7.701754 5.345490 12.993734 -0.707988 1.146818 0.011331 -0.007681 421161.000000 1 0 0
-5.570509 -4.307254 4.635190 8.430184 0.658200 0.988632 0.000667 0.000085 -1656030.000000 1 0 0
-0.136809 -12.495454 10.491890 16.316704 1.559848 0.872367 0.005507 -0.003662 -1062490.000000 1 0 0
-14.229809 -8.137954 3.148090 16.692041 0.519498 1.381062 0.001897 -0.003527 -1543490.000000 1 0 0
10.889091 -1.338254 -3.593210 11.544452 -0.122285 1.887304 0.013037 -0.001616 -286967.000000 1 0 0
-13.607409 3.090946 2.693090 14.211554 -0.223362 1.380143 -0.000141 -0.000236 -1555240.000000 1 0 0
-6.255709 6.244046 0.913990 8.885797 -0.784465 1.467754 0.002460 -0.001988 1040760.000000 1 0 0
7.139891 -7.032754 -0.524810 10.035591 -0.777839 1.623115 0.001437 -0.003698 530090.000000 1 0 0
-6.783109 7.848446 10.047990 14.441980 -0.858081 0.801334 0.004920 -0.004697 329636.000000 1 0 0
-12.573309 -5.113654 -1.881810 13.703239 0.386275 1.708558 0.003385 -0.003316 -3016000.000000 1 0 0
-9.438809 -5.523054 0.228890 10.938356 0.529424 1.549869 0.001826 -0.000731 -1034650.000000 1 0 0
-1.791509 1.820046 2.134390 3.328317 -0.793300 0.874628 0.001397 0.000830 -211295.000000 1 0 0
-6.981609 7.524946 7.548990 12.741857 -0.822835 0.936692 0.000919 -0.004171 -319901.000000 1 0 0
5.649591 7.124746 -0.532510 9.108427 0.900367 1.629293 -0.000063 0.001021 -1550420.000000 1 0 0
-0.002109 -4.047754 7.438690 8.468673 1.570275 0.498340 -0.004323 -0.000598 -730975.000000 1 0 0
6.465591 0.679246 13.053190 14.582558 0.104672 0.462088 0.001934 -0.002600 -10901.400000 1 0 0
5.752191 6.081346 -7.970410 11.558456 0.813206 2.331697 -0.003975 -0.000936 -477093.000000 1 0 0
9.944191 5.318946 8.982790 14.417650 0.491160 0.898172 -0.000339 0.001966 -1603600.000000 1 0 0
-1.196109 -5.076454 -8.489710 9.963746 1.339398 2.590705 0.004913 -0.004667 961581.000000 1 0 0
9.893391 -3.536054 -7.907110 13.149344 -0.343266 2.215962 0.014454 -0.006734 431791.000000 1 0 0
8.148591 -5.690754 1.426390 10.040857 -0.609633 1.428256 0.004988 -0.006103 1062160.000000 1 0 0
15.781791 3.199346 -5.005610 16.862884 0.200013 1.872180 0.027109 0.001031 84020.100000 1 0 0
-6.854309 3.705946 1.165390 7.878688 -0.495655 1.422335 0.000631 0.000123 765734.000000 1 0 0
-1.742709 3.783446 0.203790 4.170495 -1.139151 1.521912 0.002147 -0.001861 -78948.400000 1 0 0
-2.551709 10.158846 6.894090 12.539611 -1.324706 0.988690 -0.003552 0.003957 -780075.000000 1 0 0
5.468291 -5.706154 -8.794610 11.824025 -0.806681 2.409521 -0.001504 -0.003284 1437270.000000 1 0 0
-1.236509 -0.825554 6.191190 6.367207 0.588682 0.235681 -0.002715 -0.001446 447278.000000 1 0 0
-5.679409 4.971046 -7.807910 10.859579 -0.718986 2.373142 0.000600 -0.004983 -149224.000000 1 0 0
6.789291 -1.202654 2.535790 7.346501 -0.175321 1.218377 -0.001816 -0.000411 -1152990.000000 1 0 0
8.695891 7.473846 3.212190 11.907773 0.709966 1.297657 0.004350 0.000732 -291294.000000 1 0 0
-5.180409 -4.867454 -7.736910 10.506594 0.754262 2.398509 0.011648 -0.008032 1037110.000000 1 0 0
-2.363409 7.758846 -10.007210 12.881368 -1.275117 2.460483 0.000089 -0.002902 527934.000000 1 0 0
-2.878009 -2.303454 1.660790 4.043150 0.674963 1.147502 0.001185 0.001164 733008.000000 1 0 0
5.974391 -2.183954 -9.231810 11.211125 -0.350462 2.538263 -0.000282 -0.001811 1056600.000000 1 0 0
1.104491 -7.584654 5.157590 9.238377 -1.426191 0.978487 -0.005136 -0.000026 -32135.500000 1 0 0
1.806391 11.841746 1.182890 12.036994 1.419419 1.472366 0.002822 -0.000822 692787.000000 1 0 0
-0.977309 7.110646 2.443190 7.581926 -1.434209 1.242703 -0.004761 0.004712 326237.000000 1 0 0
8.690391 7.885446 -6.615210 13.470863 0.736875 2.084120 0.004710 -0.006257 -66922.000000 1 0 0
3.788591 -11.120054 5.572890 13.002543 -1.242431 1.127854 0.003377 -0.001357 272816.000000 1 0 0
7.869191 -7.027254 12.362590 16.252387 -0.728939 0.706462 0.008413 -0.005346 164820.000000 1 0 0
-8.825109 -0.000454 -3.860210 9.632433 0.000051 1.983133 0.000451 -0.002749 -837027.000000 1 0 0
-3.275309 -5.106854 11.192690 12.731218 1.000522 0.496714 -0.003950 -0.002324 -261133.000000 1 0 0
-8.162009 0.167546 -11.580610 14.168874 -0.020525 2.527554 0.001099 -0.004438 -1789120.000000 1 0 0
1.472491 -5.117054 5.301890 7.514154 -1.290605 0.787545 -0.000932 -0.000092 -620533.000000 1 0 0
6.659991 3.675346 -7.782410 10.882534 0.504266 2.367604 -0.002268 0.001058 1624370.000000 1 0 0
16.278991 4.100746 -1.239510 16.833242 0.246770 1.644498 0.012281 0.007851 -194304.000000 1 0 0
7.868791 7.435846 0.147590 10.827348 0.757117 1.557165 0.002529 0.000096 -2271710.000000 1 0 0
5.529291 -10.325854 13.968590 18.229586 -1.079169 0.697797 0.006520 -0.002764 -158772.000000 1 0 0
-4.946709 -9.335854 9.035090 13.901833 1.083546 0.863316 -0.005904 -0.004074 682773.000000 1 0 0
-12.598809 -3.125854 2.837290 13.287256 0.243196 1.355605 0.006014 -0.001425 -1123170.000000 1 0 0
-2.100209 -1.304054 -5.937810 6.431875 0.555657 2.747082 0.008184 -0.006840 -613852.000000 1 0 0
-2.498909 13.050146 -4.409310 13.999746 -1.381601 1.891207 0.002398 0.000278 713709.000000 1 0 0
3.801391 -0.495654 -4.998010 6.298917 -0.129656 2.487288 0.000016 -0.001811 -223843.000000 1 0 0
-8.905409 3.773646 -7.435610 12.199796 -0.400809 2.226209 -0.006266 -0.001831 261845.000000 1 0 0
-4.641809 7.882346 -11.373110 14.595390 -1.038588 2.464227 -0.003715 -0.004806 -1139250.000000 1 0 0
-10.061109 -6.472654 7.417690 14.076338 0.571675 1.015775 0.005724 -0.000220 -260321.000000 1 0 0
8.042491 5.216246 4.170290 10.453813 0.575380 1.160452 -0.003256 0.002062 -1096790.000000 1 0 0
-6.735709 -7.523554 4.107090 10.901460 0.840593 1.184515 0.008615 -0.000837 -279647.000000 1 0 0
-4.083409 11.815446 8.147090 14.921598 -1.238047 0.993222 0.004101 -0.003415 -665307.000000 1 0 0
-7.211609 9.985746 -7.962010 14.666834 -0.945332 2.144633 0.001559 -0.003915 -1425630.000000 1 0 0
13.055991 5.458846 4.739890 14.923956 0.396021 1.247596 0.006046 -0.003568 -1235350.000000 1 0 0
5.334791 3.974646 -3.762910 7.643121 0.640321 2.085557 -0.003326 0.001835 598459.000000 1 0 0
-2.911909 -4.105954 5.132390 7.188845 0.953928 0.775690 -0.001278 0.000657 -1141380.000000 1 0 0
12.450991 -2.306854 -5.270010 13.715748 -0.183197 1.965171 0.013411 -0.006377 -1413990.000000 1 0 0
-5.148109 9.710646 6.987690 13.024112 -1.083320 1.004489 0.000627 -0.000911 179503.000000 1 0 0
1.804791 3.814546 -0.519910 4.251863 1.128872 1.693381 -0.004723 0.000637 371590.000000 1 0 0
-0.052009 9.686546 7.649990 12.343185 -1.565427 0.902341 -0.007915 0.007600 -851623.000000 1 0 0
-5.555109 2.133546 5.871790 8.359975 -0.366698 0.792076 -0.002559 -0.000035 569696.000000 1 0 0
8.831791 0.959446 10.788390 13.975351 0.108211 0.688880 0.005428 -0.003343 -990011.000000 1 0 0
0.428691 -2.999054 -10.155710 10.597950 -1.428816 2.851688 0.000888 -0.003840 -2050260.000000 1 0 0
1.200891 10.679946 -2.768310 11.098060 1.458823 1.822899 0.004365 -0.002912 -43368.900000 1 0 0
2.340391 -4.212554 11.733790 12.684828 -1.063683 0.389694 -0.003246 -0.000960 -846515.000000 1 0 0
6.498091 -3.131654 9.428890 11.871664 -0.449091 0.653049 0.002989 -0.004134 159910.000000 1 0 0
-10.683709 -8.093454 5.671390 14.553704 0.648316 1.170505 0.007476 -0.003358 535.779000 1 0 0
-2.994809 0.781846 -6.966110 7.622785 -0.255367 2.723472 0.010439 -0.006265 635403.000000 1 0 0
11.015891 2.560246 -5.098910 12.405789 0.228360 1.994359 0.011366 -0.001951 -2359770.000000 1 0 0
-1.988509 -4.047354 0.003590 4.509463 1.114124 1.570000 0.005447 -0.000680 868826.000000 1 0 0
-1.200209 -6.496454 -10.616510 12.504187 1.388108 2.584955 0.000316 -0.001195 1150860.000000 1 0 0
0.340291 6.863346 -6.588110 9.519691 1.521256 2.335123 0.003589 -0.001481 -1875540.000000 1 0 0
2.094291 3.755646 -6.233910 7.573148 1.062108 2.537750 -0.001278 -0.001273 -1216270.000000 1 0 0
1.608491 -14.708154 6.609990 16.205215 -1.461869 1.150651 0.009419 -0.006235 450579.000000 1 0 0
-1.691209 5.406246 -10.612010 12.029233 -1.267615 2.651279 0.003452 -0.004124 -544859.000000 1 0 0
13.623091 4.233846 -0.806910 14.288638 0.301321 1.627299 0.012120 0.000742 -1205890.000000 1 0 0
-2.407709 3.305646 -6.085010 7.331555 -0.941288 2.549860 0.008204 -0.005426 -1444000.000000 1 0 0
5.716091 7.878646 14.234690 17.244511 0.943149 0.599776 -0.002561 -0.000253 587798.000000 1 0 0
15.943391 0.665046 -5.646410 16.926782 0.041689 1.910893 0.021910 -0.003987 -349327.000000 1 0 0
6.156791 -8.268854 10.547090 14.748597 -0.930776 0.773993 0.002507 -0.003321 842381.000000 1 0 0
-0.087109 -5.925454 -6.335010 8.674730 1.556097 2.389533 -0.001415 -0.001874 -201818.000000 1 0 0
8.536691 5.501946 -7.511110 12.631836 0.572503 2.207586 0.002953 -0.000106 -598352.000000 1 0 0
-15.981209 -0.719854 5.283090 16.847204 0.045013 1.251826 0.014488 -0.005000 -88449.800000 1 0 0
-0.470609 3.880246 -12.331210 12.935862 -1.450102 2.834636 0.001258 -0.003578 548145.000000 1 0 0
-11.211209 3.731946 5.973590 13.240182 -0.321339 1.102719 -0.001973 -0.003471 -1201310.000000 1 0 0
5.004791 -9.735054 -9.787010 14.683486 -1.095932 2.300343 -0.005131 0.003524 102254.000000 1 0 0
1.540391 11.091846 -11.757710 16.237167 1.432803 2.380559 0.007463 -0.001648 -2156240.000000 1 0 0
5.803691 2.309346 1.118390 6.345605 0.378703 1.393624 -0.002989 0.001937 -200547.000000 1 0 0
5.667991 4.514346 4.916490 8.756558 0.672581 0.974643 -0.007547 0.003798 -281259.000000 1 0 0
0.433091 -1.660254 -6.444910 6.669398 -1.315625 2.881400 0.000943 -0.005585 397789.000000 1 0 0
12.604891 6.728446 -4.533810 14.990353 0.490318 1.878057 0.012222 -0.004877 -1456890.000000 1 0 0
7.307091 3.215846 12.690590 14.992876 0.414590 0.561530 -0.000547 0.000182 -111025.000000 1 0 0
-2.633709 -0.115454 8.512190 8.911068 0.043809 0.300333 -0.000744 0.000555 708742.000000 1 0 0
2.384391 -15.250654 13.389190 20.433751 -1.415705 0.856284 0.010783 0.000215 375016.000000 1 0 0
18.866491 4.488646 -1.831910 19.479433 0.233574 1.664979 0.011467 0.005689 1013880.000000 1 0 0
-0.398009 -13.209554 7.347490 15.120725 1.540675 1.063379 0.000998 -0.004445 -383645.000000 1 0 0
4.363891 1.547746 -0.652510 4.675984 0.340830 1.710798 -0.002465 0.000368 661403.000000 1 0 0
2.783191 -0.560354 -7.479310 8.000014 -0.198679 2.778808 -0.003158 -0.004141 -677370.000000 1 0 0
7.245891 -11.357454 1.026690 13.511062 -1.002914 1.494734 0.001287 0.001065 251208.000000 1 0 0
-11.857109 -7.288854 1.333590 13.982020 0.551176 1.475272 0.007033 0.000191 124037.000000 1 0 0
0.056091 -7.010154 10.034090 12.240440 -1.562795 0.609823 -0.005198 -0.002950 -2360470.000000 1 0 0
-4.712509 -7.142954 10.659790 13.669698 0.987603 0.676431 -0.001894 0.000024 -1141580.000000 1 0 0
11.771091 0.658646 -1.644010 11.903578 0.055896 1.709350 0.009773 -0.002312 1147070.000000 1 0 0
6.416891 -9.600454 -7.599110 13.823591 -0.981598 2.152826 0.000690 0.000258 -792573.000000 1 0 0
-10.878409 4.992546 3.651790 12.514027 -0.430264 1.274672 -0.003217 -0.002645 -140939.000000 1 0 0
5.993791 -9.095454 2.133490 11.099756 -0.988129 1.377382 -0.002788 -0.003244 2863450.000000 1 0 0
11.429191 -1.306454 5.885090 12.921591 -0.113815 1.097923 0.011084 -0.010863 -259108.000000 1 0 0
-6.375909 3.773246 4.130190 8.482221 -0.534366 1.062233 -0.002623 0.000563 -1525040.000000 1 0 0
9.489491 6.288246 -3.248710 11.838353 0.585219 1.848785 0.006016 0.000669 -169139.000000 1 0 0
-2.222109 6.532746 10.946490 12.939868 -1.242924 0.562451 -0.003065 -0.000566 184119.000000 1 0 0
1.862791 9.810646 2.868190 10.389672 1.383156 1.291102 -0.004791 0.003710 -310632.000000 1 0 0
2.912291 6.116146 -5.546510 8.755139 1.126398 2.256884 -0.002572 -0.000033 -1952830.000000 1 0 0
11.848891 0.111546 -5.584810 13.099571 0.009414 2.011234 0.013292 -0.003376 223013.000000 1 0 0
-2.658309 -12.436954 6.293990 14.190093 1.360222 1.111243 0.002647 -0.003153 -653092.000000 1 0 0
10.840091 1.760946 -2.743010 11.319567 0.161041 1.815558 0.010740 -0.002485 438881.000000 1 0 0
-8.732009 5.393246 0.787190 10.293433 -0.553290 1.494247 -0.003693 -0.002247 -1118610.000000 1 0 0
1.243691 -10.220454 5.539290 11.691372 -1.449705 1.077203 -0.001153 -0.001216 -146324.000000 1 0 0
9.399891 -5.673654 -0.943410 11.019906 -0.543053 1.656511 0.007312 -0.004138 55026.400000 1 0 0
-7.821509 8.603546 -4.624010 12.513132 -0.832975 1.949302 -0.003617 -0.000987 -966932.000000 1 0 0
-7.490709 -0.022554 -1.519710 7.643347 0.003011 1.770958 0.000576 0.000387 -1097640.000000 1 0 0
4.137191 8.826046 2.660690 10.104193 1.132461 1.304329 -0.000253 0.001977 583824.000000 1 0 0
-1.324109 -10.501354 -3.740010 11.225835 1.445369 1.910450 0.006759 0.002626 -857714.000000 1 0 0
3.185591 7.885946 -3.751610 9.295736 1.186883 1.986227 0.001368 -0.002098 -315989.000000 1 0 0
-4.349509 1.733446 -11.073510 12.022716 -0.379246 2.741562 0.001914 -0.006167 -267694.000000 1 0 0
1.279491 2.746246 11.040490 11.448641 1.134794 0.267823 -0.003429 -0.000264 406233.000000 1 0 0
2.092591 5.575246 -7.954910 9.936946 1.211731 2.498990 0.000689 -0.001712 26064.100000 1 0 0
15.547091 6.003046 4.051890 17.151280 0.368484 1.332298 0.014853 -0.011285 270087.000000 1 0 0
-4.400309 9.096746 4.512690 11.066973 -1.120255 1.150795 -0.000476 0.002850 386955.000000 1 0 0
-1.019709 -8.171554 -12.517910 14.983730 1.446650 2.559717 0.000359 0.002894 -511021.000000 1 0 0
14.239491 -4.241754 -5.194610 15.739744 -0.289517 1.907133 0.014618 -0.000993 964981.000000 1 0 0
-6.045109 -6.258754 -5.689410 10.396381 0.802760 2.149870 0.011424 -0.004160 594061.000000 1 0 0
-8.850209 2.597846 -12.184610 15.282007 -0.285515 2.493634 -0.000650 -0.003391 -1278710.000000 1 0 0
10.540991 5.557146 13.573890 18.062249 0.485165 0.720454 0.017787 0.003694 153709.000000 1 0 0
-0.377409 11.039646 5.541890 12.358348 -1.536623 1.105785 -0.005056 0.006591 718913.000000 1 0 0
0.384691 11.239546 -0.692610 11.267435 1.536583 1.632305 0.002272 -0.001319 -88087.700000 1 0 0
-1.507309 -0.606554 3.613690 3.962151 0.382581 0.422535 0.000635 -0.000136 395401.000000 1 0 0
-4.769809 6.858446 8.739490 12.089998 -0.963120 0.762850 0.000271 0.000230 -1433960.000000 1 0 0
3.527291 -8.808254 -11.655310 15.029084 -1.189900 2.458330 -0.006024 0.004829 844246.000000 1 0 0
6.652191 -3.878454 11.987190 14.247343 -0.527851 0.570996 0.008505 -0.004482 -1143720.000000 1 0 0
-2.461909 -2.028754 -12.589510 12.987402 0.689239 2.893421 0.003700 -0.006439 817662.000000 1 0 0
-16.098109 -4.910754 5.478490 17.699674 0.296085 1.256103 0.022916 -0.006490 1441380.000000 1 0 0
-8.979209 7.222646 5.803290 12.902364 -0.677403 1.104272 -0.006654 -0.001996 -2869560.000000 1 0 0
-12.712609 1.563246 6.059690 14.169475 -0.122354 1.128896 -0.005284 -0.003836 461159.000000 1 0 0
-3.561409 3.577346 10.082690 11.275712 -0.787631 0.464166 0.000178 0.002586 389323.000000 1 0 0
2.066891 -12.264854 -1.209010 12.496415 -1.403844 1.667696 0.001008 0.001601 -2928970.000000 1 0 0
10.188291 -5.272654 -3.469110 11.984860 -0.477566 1.864457 0.014767 -0.003808 724316.000000 1 0 0
3.015091 -13.375654 1.026790 13.749661 -1.349086 1.496049 0.002904 -0.002421 411935.000000 1 0 0
9.987191 -1.636854 -6.095510 11.814335 -0.162451 2.112903 0.013414 -0.002951 389467.000000 1 0 0
11.966791 -5.440754 -1.485110 13.229189 -0.426718 1.683294 0.016023 -0.004900 95976.700000 1 0 0
1.517991 1.002546 5.899790 6.173890 0.583681 0.299096 -0.004885 0.000529 -51065.900000 1 0 0
-10.793709 11.670346 6.644690 17.229424 -0.824402 1.174874 0.001767 -0.010874 372086.000000 1 0 0
4.756091 -14.132654 3.020090 15.214245 -1.246170 1.370965 0.006733 -0.004033 -3100260.000000 1 0 0
5.323891 -3.493454 -1.658210 6.580098 -0.580710 1.825547 0.000119 -0.002736 -1737900.000000 1 0 0
2.065191 -3.017354 -7.751810 8.570881 -0.970591 2.700851 -0.003262 -0.003647 -604975.000000 1 0 0
-2.829109 14.879446 -8.833610 17.533808 -1.382904 2.098794 0.003302 -0.001074 -1835670.000000 1 0 0
-2.386309 6.082046 -8.106510 10.411593 -1.196900 2.463235 0.007195 -0.005772 -169328.000000 1 0 0
2.618591 -3.555154 -11.443510 12.265808 -0.935951 2.773346 -0.003717 -0.002266 -1473730.000000 1 0 0
14.593191 2.657446 -2.709110 15.078545 0.180128 1.751444 0.016569 0.001137 561282.000000 1 0 0
-3.527809 13.161446 2.148490 13.794387 -1.308911 1.414409 -0.001947 0.000772 -967719.000000 1 0 0
7.839491 -5.004554 13.941990 16.759542 -0.568161 0.588303 0.011199 -0.007013 -935138.000000 1 0 0
-11.467909 7.327146 2.902890 13.914984 -0.568551 1.360637 -0.002053 -0.001857 640045.000000 1 0 0
-2.259609 11.911446 4.037590 12.778518 -1.383323 1.249321 -0.005331 0.003064 847538.000000 1 0 0
1.792991 1.449546 0.648190 2.395026 0.679873 1.296738 -0.005579 0.001637 -1164510.000000 1 0 0
-6.840809 8.647846 5.261190 12.217284 -0.901542 1.125600 0.001632 -0.004004 -891216.000000 1 0 0
-1.189909 9.249446 0.963490 9.375311 -1.442853 1.467846 -0.002318 0.002748 508320.000000 1 0 0
4.833991 12.974946 -8.444210 16.217934 1.214164 2.118433 0.018364 -0.015661 -488746.000000 1 0 0
8.903791 6.839646 7.126690 13.298420 0.655030 1.005217 -0.004026 0.002251 -1733470.000000 1 0 0
7.277391 -13.886954 2.984690 15.959833 -1.088098 1.382676 0.010322 -0.003529 -373940.000000 1 0 0
4.190591 -13.350954 -1.207210 14.045155 -1.266655 1.656855 -0.001819 0.006515 -3366470.000000 1 0 0
12.055491 -11.907354 -4.555310 17.546247 -0.779216 1.833422 0.016391 0.003301 -816834.000000 1 0 0
3.043091 -0.157554 -2.073610 3.685795 -0.051728 2.168318 -0.002269 0.000713 1578560.000000 1 0 0
-13.532409 -3.091054 -10.653310 17.497821 0.224566 2.225389 0.006099 -0.007890 -451895.000000 1 0 0
-6.451809 13.685246 4.930290 15.912874 -1.130254 1.255782 0.005518 -0.007251 302806.000000 1 0 0
7.298491 -4.357454 -0.499010 8.514951 -0.538236 1.629434 0.000004 -0.001868 -1204920.000000 1 0 0
11.754691 2.075446 -7.264610 13.973360 0.174762 2.117518 0.016965 -0.003407 326340.000000 1 0 0
-7.426309 -4.498954 9.750490 13.056137 0.544683 0.727540 0.004612 0.001720 139716.000000 1 0 0
1.009891 2.854646 8.470290 8.995260 1.230766 0.343329 -0.006689 0.002775 -1623520.000000 1 0 0
1.629391 8.085446 -8.774110 12.042191 1.371938 2.387093 0.004218 -0.002699 -958560.000000 1 0 0
-8.635109 -2.163254 -5.586310 10.509597 0.245467 2.131218 0.005971 -0.004279 -1474660.000000 1 0 0
6.599791 -0.495854 7.132790 9.730355 -0.074991 0.748008 -0.004216 -0.001084 222958.000000 1 0 0
-10.888109 6.484446 7.216190 14.583290 -0.537143 1.053162 -0.000745 -0.004603 378207.000000 1 0 0
-5.887809 11.085846 4.913590 13.479824 -1.082571 1.197685 0.001735 -0.002342 -388148.000000 1 0 0
5.962191 -1.252754 -6.868910 9.181451 -0.207104 2.416034 -0.000915 -0.002207 -700241.000000 1 0 0
4.460591 -5.715254 11.468290 13.567707 -0.908077 0.563738 0.000549 -0.003334 -1636380.000000 1 0 0
-9.021909 -7.342754 2.682790 11.937682 0.683147 1.344127 0.006734 0.000435 -681643.000000 1 0 0
-1.162709 12.752846 -9.357410 15.860268 -1.479875 2.201844 0.009976 -0.001321 799993.000000 1 0 0
-4.630909 9.401846 -2.461610 10.765665 -1.113124 1.801491 0.000675 -0.002550 246992.000000 1 0 0
-3.325009 9.706446 -0.241910 10.263006 -1.240768 1.594370 0.001909 -0.002100 -2117770.000000 1 0 0
-3.465109 10.797446 -6.520910 13.081058 -1.260260 2.092664 0.001311 -0.002441 792841.000000 1 0 0
4.920591 -4.942654 0.395990 6.985617 -0.787635 1.514079 -0.000449 -0.002729 -1027980.000000 1 0 0
-2.343709 2.940046 -10.820910 11.455520 -0.897785 2.807177 0.006597 -0.004037 -2069040.000000 1 0 0
-3.607809 12.181346 -2.276210 12.906689 -1.282852 1.748083 -0.001084 -0.001319 -31219.400000 1 0 0
-0.196909 0.369146 -0.025010 0.419127 -1.080773 1.630503 -0.001060 -0.000023 -2569540.000000 1 0 0
-4.799709 -1.697054 0.157990 5.093345 0.339856 1.539772 0.002652 0.000801 87880.600000 1 0 0
2.519691 2.387646 -2.557910 4.311914 0.758497 2.205848 -0.006866 0.001002 1600550.000000 1 0 0
5.969691 -9.671854 8.460490 14.169046 -1.017809 0.930902 -0.000343 -0.004835 -1174440.000000 1 0 0
-4.281509 -5.435354 6.534790 9.517241 0.903591 0.813958 -0.000337 -0.001761 258491.000000 1 0 0
-6.317709 5.329546 -12.059610 14.620250 -0.700760 2.540745 -0.003368 -0.006241 946788.000000 1 0 0
-12.938509 3.159746 8.018390 15.546176 -0.239524 1.028880 -0.004630 -0.002227 606833.000000 1 0 0
4.660791 -7.253854 -5.068910 10.001761 -0.999693 2.102267 -0.003683 -0.000294 -884587.000000 1 0 0
-6.095709 2.491546 -1.101710 6.676768 -0.388016 1.736561 0.005145 -0.001411 -746840.000000 1 0 0
-6.808509 -2.737054 -14.532610 16.280172 0.382234 2.674002 0.006480 -0.004102 -862770.000000 1 0 0
2.646691 -6.041854 0.910190 6.658635 -1.157916 1.433674 -0.000076 -0.001077 378263.000000 1 0 0
4.845991 -7.868654 12.978990 15.932781 -1.018796 0.618741 0.001972 -0.002781 -316015.000000 1 0 0
-9.889509 -1.649954 8.127290 12.906494 0.165316 0.889622 0.001929 0.001173 137829.000000 1 0 0
-4.467609 13.384946 -0.187810 14.112108 -1.248645 1.584105 -0.000249 0.000709 271318.000000 1 0 0
6.846291 2.188346 -4.473110 8.465771 0.309376 2.127483 -0.001538 0.001669 -1772770.000000 1 0 0
5.024491 4.593846 0.045790 6.808159 0.740655 1.564071 -0.005976 0.003427 -626795.000000 1 0 0
-5.856509 12.219546 1.812990 13.671245 -1.123867 1.437791 0.002583 -0.001229 -548748.000000 1 0 0
6.547191 -7.298154 6.561390 11.797483 -0.839584 0.981028 0.001233 -0.005290 -2070610.000000 1 0 0
-0.329609 4.935346 7.665790 9.123082 -1.504110 0.573028 -0.009609 0.005369 -1615920.000000 1 0 0
-5.826909 -3.395854 -1.536110 6.916959 0.527668 1.794742 0.006372 -0.000571 -314601.000000 1 0 0
2.275391 -6.591254 -5.274510 8.743139 -1.238392 2.218396 -0.004923 0.000295 -1615960.000000 1 0 0
-14.336209 -4.768754 -3.801710 15.579503 0.321124 1.817305 0.009387 -0.004303 -650864.000000 1 0 0
-12.372009 -5.079254 -6.386710 14.820779 0.389563 2.016319 0.010324 -0.006891 -1594430.000000 1 0 0
-14.765009 -3.739054 -1.300610 15.286517 0.248023 1.655981 0.004524 -0.001040 481878.000000 1 0 0
11.780991 2.836646 8.779490 14.963882 0.236284 0.943804 0.010399 -0.000559 -1164080.000000 1 0 0
8.770591 -6.562454 7.681690 13.378992 -0.642370 0.959218 0.009702 -0.010770 8804.920000 1 0 0
-8.772009 -1.726554 -9.680210 13.177086 0.194341 2.395909 0.006193 -0.005408 -124566.000000 1 0 0
-8.738909 5.189246 -3.991910 10.919348 -0.535855 1.945054 -0.001391 -0.000661 -1978770.000000 1 0 0
-4.089809 -6.249854 4.085990 8.513667 0.991345 1.070218 0.006754 -0.000352 -1637010.000000 1 0 0
-0.188009 -9.282954 3.645490 9.974877 1.550546 1.196662 0.000917 -0.001475 193469.000000 1 0 0
7.853191 -10.440254 3.442090 13.509978 -0.925887 1.313175 0.005530 -0.004043 442035.000000 1 0 0
-0.010009 6.447246 9.610990 11.573168 -1.569244 0.590873 -0.007436 0.002240 -269423.000000 1 0 0
-0.113809 3.466046 -9.711010 10.311651 -1.537973 2.798596 0.004492 -0.004423 226094.000000 1 0 0
4.485291 -3.105354 10.982490 12.262795 -0.605568 0.461031 0.000608 -0.004252 -2768280.000000 1 0 0
8.535091 -9.122254 1.436190 12.574813 -0.818639 1.456335 0.004634 -0.001742 -777098.000000 1 0 0
-0.348309 -0.384654 11.335690 11.347561 0.834944 0.045746 -0.000510 0.000245 -1782850.000000 1 0 0
10.805091 6.043746 11.252690 16.730209 0.509988 0.833084 0.015237 -0.001213 -521924.000000 1 0 0
-6.313309 -2.946654 -11.880410 13.772610 0.436685 2.611206 0.006027 -0.004311 367145.000000 1 0 0
-1.647109 2.819746 8.481590 9.088526 -1.042125 0.367525 -0.003267 0.001458 -2153060.000000 1 0 0
-1.666409 13.545346 -6.842410 15.266692 -1.448387 2.035538 0.007358 -0.000764 572782.000000 1 0 0
7.570791 3.010746 9.822690 12.761924 0.378504 0.692445 -0.002958 0.000092 732827.000000 1 0 0
6.465291 8.417246 -8.046410 13.318961 0.915811 2.219472 0.004136 -0.003729 496652.000000 1 0 0
6.574891 -3.073954 -3.881710 8.230799 -0.437335 2.061910 0.002019 -0.003033 -2700610.000000 1 0 0
2.016891 8.220146 0.985090 8.521095 1.330190 1.454931 -0.002941 0.004091 710067.000000 1 0 0
-17.518309 6.406046 6.386190 19.715781 -0.350572 1.240934 0.003631 -0.000767 -750077.000000 1 0 0
-14.567909 3.008846 -10.216910 18.046118 -0.203675 2.172631 0.023764 -0.008186 -439041.000000 1 0 0
-18.432009 0.148146 -4.359610 18.941149 -0.008037 1.803045 0.036751 -0.009376 143043.000000 1 0 0
-13.069109 7.893446 0.117190 15.268328 -0.543339 1.563121 0.001188 0.000443 -1011980.000000 1 0 0
-12.760409 -4.388654 -12.788110 18.590968 0.331255 2.329342 0.013559 0.001944 -676069.000000 1 0 0
-17.366809 -0.513454 -8.585710 19.379993 0.029557 2.029760 0.017958 -0.012667 805438.000000 1 0 0
-16.702209 -2.117754 -2.011210 16.955637 0.126122 1.689692 0.014737 -0.004425 875406.000000 1 0 0
-15.376409 4.046646 1.691490 15.989698 -0.257337 1.464812 0.005381 -0.000214 -469053.000000 1 0 0
-13.104909 5.986746 4.454190 15.080437 -0.428521 1.270962 -0.000211 -0.001443 178748.000000 1 0 0
-10.168509 14.117346 2.754290 17.614884 -0.946586 1.413791 0.022047 -0.007690 19568.200000 1 0 0
-11.859409 2.545746 -6.375210 13.702909 -0.211452 2.054708 -0.001381 -0.001556 272736.000000 1 0 0
-15.880109 10.539246 3.907790 19.455703 -0.585929 1.368565 0.002490 -0.008085 601191.000000 1 0 0
-12.829709 1.208446 -8.564510 15.472964 -0.093914 2.157375 0.005775 -0.003733 485031.000000 1 0 0
-12.301109 14.329746 4.192090 19.345091 -0.861428 1.352363 0.015091 -0.006268 -12010.400000 1 0 0
-10.492209 11.127146 -1.021110 15.327834 -0.814759 1.637464 0.002522 0.001555 521569.000000 1 0 0
-16.797609 5.567246 8.860390 19.790412 -0.320037 1.106592 -0.005540 -0.006053 449952.000000 1 0 0
-11.875609 12.656446 -9.344810 19.711448 -0.817217 2.064716 0.021878 -0.005010 802179.000000 1 0 0
-17.154609 -0.467154 2.987090 17.419000 0.027225 1.398460 0.016033 -0.003334 659061.000000 1 0 0
-12.934309 14.713546 -0.847210 19.608737 -0.849663 1.614016 0.019444 -0.004668 242906.000000 1 0 0
-16.546909 4.648846 -10.501210 20.141683 -0.273889 2.119249 0.043987 -0.007799 823541.000000 1 0 0
-11.801009 7.607246 -9.120810 16.742855 -0.572589 2.146897 0.006077 0.001045 -459115.000000 1 0 0
-14.893709 13.446246 -2.071710 20.172161 -0.734368 1.673679 0.037932 -0.000370 409974.000000 1 0 0
-11.824309 10.538846 -5.478010 16.759778 -0.727980 1.903770 0.008833 0.000914 111155.000000 1 0 0
-17.738709 2.923146 -0.851710 17.998111 -0.163321 1.618136 0.016806 -0.002843 -578849.000000 1 0 0
-9.415209 15.297146 0.650490 17.974203 -1.019066 1.534598 0.017948 -0.007608 333417.000000 1 0 0
-8.233109 13.124646 -3.730010 15.935915 -1.010544 1.807051 0.000953 -0.001518 -367751.000000 1 0 0
-17.724209 11.551046 2.259190 21.276235 -0.577576 1.464412 0.045019 0.004080 -155681.000000 1 0 0
-8.128109 15.691146 -7.267710 19.107533 -1.092848 1.960980 0.023438 -0.016203 102923.000000 1 0 0
-6.287709 15.195346 -5.366710 17.298422 -1.178457 1.886245 0.001998 -0.002359 -853501.000000 1 0 0
-17.431309 5.354046 -0.309610 18.237659 -0.298004 1.587774 0.022938 0.000829 698406.000000 1 0 0
-5.391809 12.176046 -12.221210 18.074448 -1.153928 2.313334 -0.012061 -0.009297 -196144.000000 1 0 0
-10.987509 3.807346 -11.394610 16.280614 -0.333568 2.346037 -0.004173 -0.004801 315944.000000 1 0 0
-11.892209 10.956346 1.279690 16.220474 -0.744462 1.491821 0.007276 -0.000506 354755.000000 1 0 0
-12.897309 0.245846 -11.012810 16.961221 -0.019060 2.277451 0.007803 -0.005985 620317.000000 1 0 0
-14.008509 -2.032254 -13.011910 19.227017 0.144068 2.314137 0.009667 -0.002187 186835.000000 1 0 0
-18.754309 -2.325654 -3.553910 19.229224 0.123377 1.756683 0.019866 -0.005549 195088.000000 1 0 0
-18.199209 4.738246 -5.296110 19.537425 -0.254700 1.845306 0.028524 -0.011040 -5147.450000 1 0 0
-8.140809 15.299846 -2.188410 17.468463 -1.081812 1.696404 0.009651 -0.005818 -5537.230000 1 0 0
-16.241209 9.091346 -5.438910 19.391008 -0.510313 1.855097 0.034162 0.007028 50769.400000 1 0 0
-18.244909 1.799546 2.276490 18.474238 -0.098315 1.447257 0.019277 -0.006539 833523.000000 1 0 0
-15.713709 -2.663654 -8.804710 18.208202 0.167915 2.075511 0.011984 -0.005040 -367536.000000 1 0 0
-9.690209 10.564346 -7.186510 16.035944 -0.828529 2.035491 0.001221 -0.004879 529398.000000 1 0 0
-14.014709 11.981946 -7.942010 20.076220 -0.707364 1.977510 0.028197 -0.007668 560685.000000 1 0 0
-10.981209 6.614946 -3.793510 13.369188 -0.542173 1.858499 -0.003035 0.003044 -727590.000000 1 0 0
-13.158209 4.762646 -12.568910 18.809539 -0.347283 2.302610 0.027259 -0.011457 702912.000000 1 0 0
-17.659909 9.027046 2.705790 20.017024 -0.472536 1.435207 0.022048 -0.005238 934947.000000 1 0 0
-13.445809 8.734246 -6.543110 17.317307 -0.576086 1.958255 0.009667 0.001524 -621297.000000 1 0 0
-15.646709 7.068146 -3.904410 17.607459 -0.424295 1.794403 0.010020 0.004698 -1426140.000000 1 0 0
-14.895109 -0.276054 -9.283010 17.553198 0.018531 2.128041 0.017913 -0.011172 1005740.000000 1 0 0
-10.083009 5.818546 -6.137710 13.160320 -0.523384 2.055990 -0.005443 0.001597 304816.000000 1 0 0
-12.927109 12.120646 -0.821710 17.739657 -0.753212 1.617133 0.020039 0.002859 38671.700000 1 0 0
-10.466709 3.564146 -13.950010 17.800503 -0.328206 2.471375 -0.003309 -0.002157 523741.000000 1 0 0
-11.135909 6.363746 -12.043810 17.594292 -0.519171 2.324754 0.010813 -0.006135 -689583.000000 1 0 0
-5.620009 11.500746 -14.877410 19.626232 -1.116258 2.431094 -0.003649 -0.012354 -158192.000000 1 0 0
-15.597609 13.140446 3.737890 20.734719 -0.700104 1.389533 0.004004 -0.012464 -63632.300000 1 0 0
-14.896009 11.008246 -2.955510 18.756535 -0.636428 1.729028 0.023253 0.009432 231452.000000 1 0 0
-18.006909 7.633346 -4.477510 20.064019 -0.400949 1.795853 0.017783 0.000846 -1067780.000000 1 0 0
-4.114209 16.285446 -10.695310 19.913114 -1.323343 2.137790 0.002972 -0.003642 -193222.000000 1 0 0
-15.732509 4.499246 -4.545210 16.982756 -0.278549 1.841736 0.018071 -0.001116 -1242650.000000 1 0 0
-18.580409 -1.902154 -6.059610 19.635902 0.102019 1.884516 0.015762 -0.009049 208584.000000 1 0 0
-10.811209 8.547846 -5.933010 15.004950 -0.669012 1.977303 -0.001269 0.001900 528984.000000 1 0 0
-11.362409 13.897646 -7.072810 19.294392 -0.885429 1.946120 0.013553 0.008043 685403.000000 1 0 0
-9.473109 10.537646 -4.501410 14.867564 -0.838546 1.878391 -0.008037 0.002816 -571163.000000 1 0 0
-10.989809 6.301946 -0.186510 12.669855 -0.520658 1.585518 -0.000690 0.002605 231277.000000 1 0 0
-14.565409 9.205246 -1.311310 17.280256 -0.563613 1.646754 0.016845 0.005527 7066.200000 1 0 0
-18.590209 3.550346 4.777590 19.519892 -0.188707 1.323529 0.015441 0.005158 392725.000000 1 0 0
-14.713809 13.361746 0.543990 19.882866 -0.737277 1.543433 0.014141 0.011893 31250.000000 1 0 0
-16.884809 2.600246 -9.016210 19.317093 -0.152799 2.056406 0.031073 -0.012864 404720.000000 1 0 0
-9.097709 8.448646 -8.844310 15.243679 -0.748424 2.189765 -0.000572 -0.000879 -2587030.000000 1 0 0
-17.626409 4.622146 -2.792410 18.435078 -0.256454 1.722854 0.018218 -0.004943 1086230.000000 1 0 0
-13.399709 5.847946 -4.490510 15.294292 -0.411506 1.868794 0.006158 0.004427 -143024.000000 1 0 0
-12.182009 9.681146 3.516090 15.952706 -0.671506 1.348564 -0.000362 -0.001258 691839.000000 1 0 0
-17.481909 2.490046 -4.109410 18.130216 -0.141484 1.799444 0.020549 -0.004826 922875.000000 1 0 0
-11.149309 1.470746 -12.586210 16.878474 -0.131156 2.412375 0.005184 -0.002963 -363411.000000 1 0 0
-11.205209 11.956646 3.573990 16.771747 -0.817830 1.356054 0.005043 -0.006182 -512808.000000 1 0 0
-16.312209 12.847546 -4.149610 21.174675 -0.667136 1.768043 0.043605 0.000640 325589.000000 1 0 0
-10.988809 4.133846 -4.398910 12.537664 -0.359811 1.929281 -0.004340 -0.000672 -36480.500000 1 0 0
-11.003909 15.111946 -9.332810 20.893977 -0.941420 2.033841 0.024302 -0.010499 285280.000000 1 0 0
-15.506409 7.095446 -0.158410 17.053421 -0.429141 1.580086 0.013867 0.003465 -1140440.000000 1 0 0
-12.758909 8.456446 -4.102310 15.847088 -0.585312 1.832647 0.004449 0.004978 663369.000000 1 0 0
-19.083109 2.004046 -6.123410 20.141435 -0.104633 1.879706 0.030551 -0.009480 -114862.000000 1 0 0
-12.543909 10.106346 -9.006810 18.455636 -0.678193 2.080622 0.008783 -0.006923 619304.000000 1 0 0
-16.500809 11.020546 -0.907910 19.863369 -0.588842 1.616520 0.016274 0.008732 398797.000000 1 0 0
-10.689409 6.610246 -14.603110 19.266802 -0.553833 2.430948 0.012613 -0.010717 51914.100000 1 0 0
-13.716309 12.916246 -4.311510 19.327588 -0.755366 1.795765 0.024790 0.001520 538863.000000 1 0 0
-18.034809 7.860346 -0.257510 19.675002 -0.411019 1.583885 0.038077 0.001962 228069.000000 1 0 0
-12.815709 6.687546 -2.100210 14.607414 -0.480954 1.715073 -0.001317 0.004443 579734.000000 1 0 0
-13.766709 8.488046 -10.756210 19.423317 -0.552509 2.157691 0.020431 -0.008730 -343182.000000 1 0 0
-14.903909 1.364146 -0.997310 14.999401 -0.091275 1.637335 0.002055 -0.000235 -1050120.000000 1 0 0
-13.396709 2.787146 -2.525310 13.914639 -0.205121 1.753293 -0.001981 -0.001135 848831.000000 1 0 0
-11.307009 9.365446 -11.020010 18.357578 -0.691753 2.214670 0.014220 -0.007809 428077.000000 1 0 0
-15.221309 4.387146 -8.124810 17.803029 -0.280618 2.044710 0.016976 -0.005307 974168.000000 1 0 0
-18.444409 10.603646 4.574490 21.761422 -0.521757 1.359006 0.043854 -0.017476 16115.700000 1 0 0
-15.216209 6.271746 -6.316110 17.628416 -0.390958 1.937233 0.020425 0.001175 662600.000000 1 0 0
-7.669209 11.221146 -13.188210 18.938315 -0.971257 2.341133 -0.000512 -0.007871 -1088570.000000 1 0 0
-16.800809 9.233846 -2.786810 19.372594 -0.502542 1.715150 0.026001 0.006073 1297100.000000 1 0 0
-20.691609 -1.006754 -4.768810 21.257888 0.048617 1.797053 0.031749 -0.012650 182805.000000 1 0 0
-15.332109 4.458146 4.167990 16.502145 -0.282969 1.315458 0.000949 0.001248 -205560.000000 1 0 0
-6.899709 12.626846 -9.598310 17.296554 -1.070697 2.159071 -0.000274 -0.003733 42792.100000 1 0 0
-17.184409 1.605546 5.746590 18.190794 -0.093160 1.249384 0.013266 -0.002831 -2777.270000 1 0 0
-10.395209 14.171546 -2.930310 17.817963 -0.937922 1.736005 0.017592 -0.007797 -335015.000000 1 0 0
-10.053309 8.467746 -13.087310 18.548570 -0.699998 2.354023 0.001548 -0.009192 3202.920000 1 0 0
-13.740809 11.609046 2.919690 18.223731 -0.701502 1.409889 0.006277 -0.004346 -1921260.000000 1 0 0
-17.073809 6.569046 1.823990 18.384620 -0.367286 1.471420 0.017386 0.000062 858918.000000 1 0 0
-9.334309 13.273846 -8.622610 18.375901 -0.957919 2.059220 0.016748 -0.013805 248376.000000 1 0 0
-5.533709 9.760646 -12.986310 17.162063 -1.055040 2.429027 -0.009489 -0.004662 -400114.000000 1 0 0
-15.823809 1.894046 3.196090 16.254087 -0.119129 1.372874 0.003037 -0.000507 -404101.000000 1 0 0
-18.679009 -4.837154 4.701690 19.859741 0.253396 1.331782 0.030115 -0.001466 -983882.000000 1 0 0
-5.322109 14.548946 -9.142410 17.988339 -1.220109 2.103937 -0.005003 0.000079 -483199.000000 1 0 0
-15.417709 -0.873154 -6.803710 16.874792 0.056573 1.985794 0.014002 -0.006517 891654.000000 1 0 0
-8.907209 10.919646 -9.623110 17.064035 -0.886552 2.169947 -0.000315 -0.011031 363355.000000 1 0 0
-16.719209 1.206546 -6.136510 17.850615 -0.072040 1.921725 0.017910 -0.009707 -1479990.000000 1 0 0
-11.254509 8.711146 -1.513810 14.312221 -0.658694 1.676765 -0.003789 -0.000131 -1899210.000000 1 0 0
-10.656609 10.963946 -13.033110 20.090629 -0.799612 2.276692 0.017672 -0.009186 -385520.000000 1 0 0
-13.983009 11.568846 -10.578310 21.006270 -0.691197 2.098532 0.042515 -0.021280 31691.200000 1 0 0
-13.029909 5.823946 -7.651710 16.193997 -0.420329 2.062925 0.006836 0.000881 -779810.000000 1 0 0
-8.894109 15.387546 -4.766910 18.401228 -1.046705 1.832839 0.012911 -0.008753 400945.000000 1 0 0
-8.734009 6.070646 -12.947210 16.756071 -0.607402 2.453861 0.001663 -0.008849 727929.000000 1 0 0
-16.390509 7.305346 4.209690 18.431993 -0.419277 1.340372 0.007315 -0.002292 -597026.000000 1 0 0
-12.653809 5.370546 -10.177610 17.103958 -0.401380 2.208117 0.011808 -0.004470 -277037.000000 1 0 0
-12.558109 9.145246 -13.332110 20.471609 -0.629425 2.280025 0.041028 -0.020971 -20689.100000 1 0 0
-10.756309 5.226946 -8.591710 14.725374 -0.452338 2.193783 -0.004694 0.002420 -2093750.000000 1 0 0
-17.665209 -4.483054 -2.637010 18.414972 0.248532 1.714490 0.008960 -0.003499 333991.000000 1 0 0
-8.939209 13.057646 -11.162010 19.364970 -0.970484 2.185115 0.016869 -0.014226 85240.900000 1 0 0
-14.978209 6.223346 6.148890 17.346055 -0.393791 1.208435 -0.003882 -0.003724 291002.000000 1 0 0
-16.358309 -3.147654 -4.444210 17.241027 0.190096 1.831509 0.014355 -0.004125 540572.000000 1 0 0
-11.104309 -1.127754 -12.482810 16.745090 0.101213 2.412022 0.008397 -0.003539 646169.000000 1 0 0
-15.162809 6.873446 -8.812410 18.836497 -0.425603 2.057638 0.013021 0.000798 -563428.000000 1 0 0
-14.888909 9.238246 1.301490 17.570392 -0.555341 1.496656 0.007332 0.001114 -142273.000000 1 0 0
-19.297909 5.514146 7.921190 21.576848 -0.278322 1.194890 0.022164 -0.006155 -625200.000000 1 0 0
-16.239509 0.820746 0.911390 16.285758 -0.050497 1.514805 0.011718 -0.005736 -66642.300000 1 0 0
-17.462709 3.910146 7.030090 19.226482 -0.220281 1.196469 0.007261 0.005512 195369.000000 1 0 0
-15.481109 3.969546 -1.493910 16.051598 -0.251005 1.664000 0.010277 -0.001518 -1818780.000000 1 0 0
-10.863709 13.138146 0.477490 17.054590 -0.879877 1.542795 0.013621 -0.006052 -270624.000000 1 0 0
-13.440209 3.385746 0.023290 13.860124 -0.246777 1.569116 0.001979 -0.000534 -417002.000000 1 0 0
-15.141909 0.176946 -4.314010 15.745457 -0.011685 1.848330 0.009706 -0.002403 96685.300000 1 0 0
-18.910709 6.844146 3.469790 20.408251 -0.347253 1.399947 0.025588 -0.000627 292171.000000 1 0 0
-14.166709 1.404246 -6.339710 15.583949 -0.098800 1.989756 0.008960 -0.004168 -232028.000000 1 0 0
-14.103509 11.903046 5.493490 19.255386 -0.700987 1.281481 -0.001664 -0.013335 260086.000000 1 0 0
17.722491 5.540446 6.194090 19.574217 0.302996 1.248821 0.049245 -0.014745 80822.700000 1 0 0
18.579891 7.247746 -0.337510 19.946330 0.371930 1.587718 0.024162 0.001133 703887.000000 1 0 0
16.616391 5.224146 8.545590 19.401630 0.304612 1.114688 0.056359 -0.008243 302555.000000 1 0 0
11.571291 12.213546 10.996790 20.099624 0.812394 0.991884 0.022672 -0.008544 496688.000000 1 0 0
-2.306509 16.439046 -0.575210 16.610030 -1.431400 1.605434 -0.003645 0.001564 -283358.000000 1 0 0
15.098291 12.497446 3.447090 19.900427 0.691428 1.396701 0.026646 0.000561 19483.000000 1 0 0
13.512391 11.673446 6.668190 19.060924 0.712512 1.213401 0.030971 -0.002937 742302.000000 1 0 0
-0.650909 15.969846 8.650690 18.173995 -1.530060 1.074704 0.004970 -0.006824 264276.000000 1 0 0
0.781991 12.981346 9.406190 16.050024 1.510629 0.944615 -0.002210 -0.002704 -2095640.000000 1 0 0
0.691491 15.431146 -3.889410 15.928777 1.526015 1.817465 0.004342 -0.001140 1217970.000000 1 0 0
5.464891 10.307646 13.569990 17.895732 1.083299 0.710124 -0.002230 -0.003312 372696.000000 1 0 0
-1.334009 16.452046 -2.825210 16.746081 -1.489889 1.740316 0.001577 -0.000696 -386920.000000 1 0 0
8.624891 10.011646 3.254790 13.609389 0.859672 1.329298 0.006405 0.001872 397418.000000 1 0 0
12.559891 13.629546 -4.877110 19.165114 0.826218 1.828105 0.040914 -0.015691 -291414.000000 1 0 0
2.415291 11.577746 7.774590 14.153518 1.365131 0.989265 -0.000633 0.004557 310384.000000 1 0 0
-0.423209 15.007546 -8.740010 17.372200 -1.542604 2.097982 0.012719 -0.000256 -1318470.000000 1 0 0
2.372291 15.997746 0.217690 16.174147 1.423580 1.557337 0.005893 -0.004997 -815889.000000 1 0 0
1.884591 13.432346 5.311090 14.566650 1.431404 1.197587 0.002583 0.003778 1065140.000000 1 0 0
17.650191 9.102546 -1.777410 19.938525 0.476144 1.660059 0.018217 0.006301 625305.000000 1 0 0
-7.143009 14.871546 7.115890 17.967230 -1.123021 1.163587 0.008197 -0.016485 -1793900.000000 1 0 0
8.446591 15.797346 -0.234110 17.915241 1.079788 1.583864 0.007582 -0.008693 -183817.000000 1 0 0
15.640091 10.363646 2.200890 18.890779 0.585205 1.454025 0.017634 0.001676 104735.000000 1 0 0
14.115391 7.512146 8.835190 18.268475 0.489071 1.065999 0.033092 -0.004872 -949522.000000 1 0 0
4.160191 18.494246 -1.985210 19.060047 1.349534 1.675141 0.014234 -0.010895 670639.000000 1 0 0
-0.431209 17.655146 -4.868510 18.319184 -1.546377 1.839789 0.014501 0.002074 604533.000000 1 0 0
1.336091 13.741246 -0.632310 13.820521 1.473869 1.616564 0.004325 -0.003164 12847.900000 1 0 0
10.344891 14.702046 4.017390 18.420270 0.957634 1.350933 0.018577 -0.003234 207841.000000 1 0 0
-1.782909 15.377146 -5.102310 16.299354 -1.455366 1.889186 0.004866 -0.002407 676783.000000 1 0 0
15.090491 8.635446 -6.257510 18.478373 0.519761 1.916267 0.033208 -0.006476 -424836.000000 1 0 0
-2.332309 18.508046 0.920390 18.677113 -1.445441 1.521497 0.000416 -0.005076 -471661.000000 1 0 0
-3.685009 19.344546 3.470390 19.995859 -1.382558 1.396358 0.003842 -0.016309 -359779.000000 1 0 0
1.742591 17.626546 -2.727110 17.921185 1.472255 1.723562 0.006088 -0.005471 -549124.000000 1 0 0
2.958291 12.190846 3.275190 12.965149 1.332733 1.315414 0.001906 0.003487 -85576.700000 1 0 0
-2.535509 16.128346 1.874090 16.433641 -1.414864 1.456508 0.001866 -0.006946 -398063.000000 1 0 0
11.742091 12.800246 -2.623010 17.567105 0.828487 1.720671 0.013110 -0.000064 354918.000000 1 0 0
7.341491 11.653446 4.764290 14.573907 1.008621 1.237769 -0.002388 0.005604 147408.000000 1 0 0
7.044991 15.746646 1.785190 17.342885 1.150110 1.467679 0.006503 -0.004395 -1219680.000000 1 0 0
5.570991 12.240146 10.160990 16.855350 1.143675 0.923747 -0.000378 0.002795 -389046.000000 1 0 0
-1.286009 14.149846 3.067590 14.535545 -1.480160 1.358157 -0.002624 0.000060 27981.400000 1 0 0
4.572691 16.138646 1.530390 16.843619 1.294695 1.479812 0.003772 -0.007784 -2970520.000000 1 0 0
7.349891 12.985846 12.034690 19.169947 1.055758 0.892086 0.008573 -0.004512 68511.100000 1 0 0
0.555691 17.314646 -9.526410 19.770135 1.538714 2.073571 0.016636 -0.000236 456527.000000 1 0 0
9.762491 9.641346 15.568390 20.751784 0.779155 0.722403 0.014503 -0.006371 -190625.000000 1 0 0
13.551191 7.473846 -0.024810 15.475586 0.504015 1.572399 0.006576 0.004976 529767.000000 1 0 0
12.450291 13.455946 -0.230210 18.333718 0.824198 1.583353 0.023184 -0.001935 673745.000000 1 0 0
9.468791 12.395946 3.214690 15.926447 0.918482 1.367554 0.008724 0.005762 415243.000000 1 0 0
-0.705209 12.817346 0.764690 12.859488 -1.515832 1.511296 0.000319 -0.002100 146192.000000 1 0 0
16.015991 7.161746 -0.930010 17.568935 0.420492 1.623756 0.016998 0.003087 -1067040.000000 1 0 0
-4.183809 18.477746 -2.454710 19.103847 -1.348127 1.699646 0.002996 -0.000908 158768.000000 1 0 0
11.594691 9.172446 -3.251310 15.137425 0.669284 1.787269 0.013236 0.000021 184088.000000 1 0 0
14.768091 9.697046 7.722390 19.281196 0.581016 1.158719 0.038691 -0.011059 1429250.000000 1 0 0
4.519991 13.795946 4.640590 15.241178 1.254186 1.261407 0.005279 0.004775 611130.000000 1 0 0
2.149391 16.015846 5.703590 17.136457 1.437389 1.231489 0.004127 -0.000270 237479.000000 1 0 0
6.165191 18.518046 5.309690 20.226725 1.249410 1.305175 0.021691 -0.011990 -748286.000000 1 0 0
10.545891 17.182846 -0.946410 20.183204 1.020331 1.617704 0.024330 -0.010989 -568213.000000 1 0 0
9.963991 13.567146 -4.415410 17.402425 0.937341 1.827324 0.026754 -0.010260 721851.000000 1 0 0
16.546991 7.834046 2.293690 18.450913 0.442177 1.446161 0.005032 -0.001037 -27289.600000 1 0 0
4.051291 14.090346 -0.533310 14.670897 1.290826 1.607156 0.005752 -0.003474 366149.000000 1 0 0
5.612891 13.228146 -2.349910 14.560579 1.169507 1.732894 0.004622 -0.002543 -822405.000000 1 0 0
-6.207209 16.859446 -2.959310 18.207907 -1.218024 1.734049 0.009378 -0.004339 -1528090.000000 1 0 0
18.140991 9.844846 2.674390 20.812710 0.497210 1.441942 0.024487 -0.002457 -1348650.000000 1 0 0
8.024691 12.937646 9.507490 17.949115 1.015614 1.012560 0.005277 -0.000330 492194.000000 1 0 0
-2.576809 15.674946 6.696090 17.238953 -1.407863 1.171871 0.001432 -0.006658 993432.000000 1 0 0
11.202591 15.896746 6.148590 20.396317 0.956916 1.264577 0.023730 -0.002914 138406.000000 1 0 0
13.563591 11.833546 1.392390 18.053879 0.717384 1.493596 0.022986 0.002091 612194.000000 1 0 0
17.469491 7.790146 -5.639110 19.941641 0.419463 1.857488 0.021177 0.010161 865201.000000 1 0 0
9.461191 9.259146 7.960190 15.447024 0.774606 1.029413 0.005326 0.000983 -559627.000000 1 0 0
-2.090009 14.194546 -1.874510 14.469522 -1.424606 1.700710 -0.002071 0.000669 463846.000000 1 0 0
11.007191 11.545146 0.691290 15.966419 0.809247 1.527486 0.012002 0.007266 -612038.000000 1 0 0
11.746691 9.724546 -0.612310 15.261929 0.691496 1.610927 0.007755 0.005732 -1004560.000000 1 0 0
-0.352809 16.501546 11.176290 19.933263 -1.549419 0.975583 0.007852 -0.000582 83119.300000 1 0 0
2.137791 19.967746 -1.553110 20.141827 1.464140 1.647982 0.021759 -0.014538 -809982.000000 1 0 0
9.160491 14.315246 1.633090 17.073601 1.001546 1.475000 0.010252 0.001670 208041.000000 1 0 0
8.459791 11.618246 -5.128710 15.259599 0.941428 1.913566 0.011768 -0.008556 -1241290.000000 1 0 0
10.612691 9.997846 10.238490 17.816083 0.755575 0.958587 0.007882 -0.004334 74146.300000 1 0 0
-5.054909 15.792246 5.774090 17.558111 -1.261014 1.235704 -0.003500 -0.005556 -101166.000000 1 0 0
14.404191 9.010446 -1.861510 17.091930 0.558990 1.679924 0.027357 0.003001 -147190.000000 1 0 0
12.177291 9.547346 6.949590 16.962754 0.664926 1.148674 0.011828 -0.002503 -799217.000000 1 0 0
3.252291 12.916046 9.744690 16.503352 1.324122 0.939159 0.001634 -0.003971 -1428820.000000 1 0 0
8.507091 12.635746 -2.605410 15.453829 0.978246 1.740199 0.012322 -0.003156 -829285.000000 1 0 0
9.347591 16.970146 1.940090 19.471191 1.067319 1.470992 0.011191 -0.001493 -235388.000000 1 0 0
9.563691 14.169246 -7.493610 18.665099 0.977073 1.983925 0.024758 -0.020040 407247.000000 1 0 0
6.447491 11.471346 7.339290 15.067418 1.058747 1.062034 -0.001179 0.004063 -963154.000000 1 0 0
5.414191 16.983046 -5.507810 18.656722 1.262183 1.870481 0.014523 -0.001422 -359876.000000 1 0 0
-4.229409 17.092546 -4.674610 18.217986 -1.328227 1.830292 0.001871 -0.004449 -88056.700000 1 0 0
-0.120809 18.628746 -0.509910 18.636115 -1.564311 1.598161 0.006560 -0.004183 -637814.000000 1 0 0
6.574791 15.768946 -2.835410 17.318403 1.175768 1.735259 0.005433 0.000863 -675875.000000 1 0 0
-0.984509 20.809946 0.780890 20.847851 -1.523522 1.533331 0.009191 -0.005386 -107984.000000 1 0 0
-1.290109 18.820246 4.306090 19.349637 -1.502354 1.346376 0.002167 -0.010183 -1483390.000000 1 0 0
7.186991 13.782146 -4.389910 16.151523 1.090120 1.846055 0.010188 -0.003143 66721.000000 1 0 0
-0.952509 12.098446 7.741090 14.394587 -1.492229 1.002997 -0.003540 0.008118 484096.000000 1 0 0
7.717591 10.722446 10.945890 17.156473 0.946931 0.878894 0.000614 -0.001691 374325.000000 1 0 0
1.377591 16.047846 -7.335810 17.698735 1.485164 1.998170 0.009534 -0.002452 1029780.000000 1 0 0
8.993691 7.180746 14.774190 18.727688 0.673777 0.661787 0.011053 -0.003881 -352668.000000 1 0 0
11.404591 11.338846 -4.803910 16.784269 0.782507 1.861071 0.023953 -0.006892 -40602.100000 1 0 0
-3.259409 16.962946 4.447090 17.836533 -1.380961 1.318813 -0.001115 -0.008797 -445137.000000 1 0 0
3.905291 15.430046 -6.758810 17.292170 1.322905 1.972362 0.019060 -0.005944 1931.840000 1 0 0
-4.403509 14.031246 9.461090 17.486537 -1.266695 0.999111 0.012889 -0.011886 -928970.000000 1 0 0
6.133891 17.949446 0.497790 18.975116 1.241507 1.544559 0.006908 -0.005494 -158924.000000 1 0 0
9.822791 10.663346 -2.242610 14.670497 0.826406 1.724263 0.010819 0.000181 -1347760.000000 1 0 0
7.385691 18.158146 -2.606510 19.775252 1.184491 1.702988 0.014538 -0.003805 93120.800000 1 0 0
3.625591 10.392246 10.310890 15.081715 1.235124 0.818019 -0.005337 0.004944 -178677.000000 1 0 0
0.009591 18.652346 2.055390 18.765253 1.570282 1.461044 0.005269 -0.009254 542868.000000 1 0 0
-1.015809 17.154046 -7.384410 18.703547 -1.511649 1.976661 0.016902 -0.002066 139269.000000 1 0 0
10.143891 8.980746 13.149690 18.880325 0.724654 0.800322 0.018681 -0.003280 -517636.000000 1 0 0
3.703391 11.501946 5.586990 13.312563 1.259299 1.137706 -0.003758 0.007102 502885.000000 1 0 0
12.908191 13.782846 8.015790 20.514413 0.818156 1.169362 0.028031 -0.013528 -205819.000000 1 0 0
-0.597009 17.374746 6.675890 18.622721 -1.536449 1.204156 0.002541 -0.010738 -650684.000000 1 0 0
12.223491 13.582546 5.547390 19.096409 0.838014 1.276053 0.020464 -0.004199 -197606.000000 1 0 0
4.875991 14.563846 -4.489410 16.001116 1.247725 1.855183 0.005332 -0.000996 -220531.000000 1 0 0
3.928891 17.527646 4.694390 18.565879 1.350287 1.315171 0.016964 -0.009875 -641927.000000 1 0 0
7.109691 11.628346 2.064890 13.785134 1.022029 1.420439 0.006700 0.002909 843877.000000 1 0 0
6.460891 8.593346 11.770690 15.941702 0.926113 0.740163 -0.003609 -0.000814 91975.800000 1 0 0
-5.360009 14.846046 1.631690 15.868119 -1.224321 1.467786 0.004910 -0.001995 -383821.000000 1 0 0
6.825991 13.756646 5.976790 16.479123 1.110197 1.199645 0.002834 0.000492 -553009.000000 1 0 0
6.069091 15.899946 4.925390 17.717269 1.206160 1.289086 0.011858 -0.007365 762428.000000 1 0 0
1.318891 18.052746 4.284690 18.601067 1.497868 1.338363 0.012640 -0.007624 2332160.000000 1 0 0
7.265191 18.016946 -7.143510 20.698384 1.187498 1.923167 0.011411 -0.002230 356982.000000 1 0 0
-2.531609 18.767046 -5.944210 19.848040 -1.436709 1.874950 0.011976 -0.002010 -1531860.000000 1 0 0
13.553191 10.015946 -4.619810 17.474290 0.636430 1.838355 0.028188 -0.000182 -4070920.000000 1 0 0
-1.876609 18.062346 9.759890 20.616146 -1.467272 1.077638 0.017739 -0.015223 -383159.000000 1 0 0
3.427391 11.854046 -1.626410 12.446310 1.289339 1.701845 0.005916 -0.005041 285116.000000 1 0 0
4.408291 13.935146 -10.805110 18.176131 1.264414 2.207399 0.022162 -0.020134 -836193.000000 1 0 0
11.543191 13.447146 2.186090 17.856371 0.861439 1.448062 0.018988 0.002435 -939280.000000 1 0 0
15.917291 6.267446 -7.055910 18.504780 0.375108 1.962001 0.025963 -0.005204 364014.000000 1 0 0
2.470191 16.081946 2.980990 16.541376 1.418387 1.389592 0.004992 -0.005915 38872.500000 1 0 0
13.514491 10.552746 3.575290 17.515268 0.662953 1.365227 0.018723 0.005457 -1637200.000000 1 0 0
-5.017709 19.359446 -5.753710 20.810352 -1.317190 1.850929 0.000008 -0.010089 451772.000000 1 0 0
5.440991 12.016846 0.018390 13.191259 1.145633 1.569402 0.005330 -0.001876 652935.000000 1 0 0
4.470191 15.477646 9.567890 18.737253 1.289631 1.034874 0.005159 -0.003058 -309539.000000 1 0 0
7.794191 9.406546 13.928490 18.526612 0.878863 0.719994 -0.000289 -0.007170 -2309320.000000 1 0 0
-4.922609 13.527146 6.944390 15.982500 -1.221787 1.121314 0.000009 -0.005803 -959619.000000 1 0 0
-4.535409 17.164846 0.614090 17.764543 -1.312473 1.536221 0.004816 -0.002667 -1934660.000000 1 0 0
-0.559509 16.524746 3.507590 16.902174 -1.536950 1.361754 0.002745 -0.007288 -1681390.000000 1 0 0
7.872891 16.871046 -4.899210 19.251412 1.134182 1.828112 0.012439 -0.005229 161187.000000 1 0 0
3.023691 16.419046 -4.575310 17.310726 1.388679 1.838279 0.003609 -0.001467 -688055.000000 1 0 0
9.705391 14.315846 8.192090 19.137617 0.975025 1.128449 0.025086 -0.004267 144673.000000 1 0 0
12.824591 10.932646 9.119090 19.161176 0.705929 1.074792 0.032738 -0.011620 8533.210000 1 0 0
3.837691 12.373746 12.115490 17.737603 1.270056 0.818880 0.003126 -0.004347 580662.000000 1 0 0
-3.241209 19.082346 5.987890 20.260706 -1.402548 1.270773 0.007372 -0.015607 -80054.100000 1 0 0
-2.741509 15.779346 10.264490 19.022707 -1.398773 1.000845 0.010842 -0.011494 191739.000000 1 0 0
2.128891 14.233246 7.700090 16.322036 1.422325 1.079510 0.002264 -0.001565 -63871.100000 1 0 0
4.613791 17.295546 7.882090 19.558894 1.310105 1.156012 0.023225 -0.013080 210102.000000 1 0 0
-1.838709 13.511046 9.436590 16.582474 -1.435538 0.965422 0.003600 -0.006291 -1045620.000000 1 0 0
5.905991 17.711246 3.065190 18.919946 1.248932 1.408071 0.008557 -0.013286 540252.000000 1 0 0
7.183491 15.354846 -6.915010 18.308228 1.133213 1.958107 0.014439 -0.007896 75455.600000 1 0 0
11.064991 7.674546 9.369290 16.404764 0.606410 0.962912 0.009654 -0.004355 1007970.000000 1 0 0
9.067491 16.195346 -2.799610 18.770893 1.060397 1.720501 0.021398 -0.014239 -1907770.000000 1 0 0
14.611091 11.200046 -6.682910 19.585359 0.654006 1.919010 0.051225 -0.009441 468372.000000 1 0 0
11.190091 6.283046 16.002590 20.512866 0.511617 0.675932 0.030435 -0.009578 465509.000000 1 0 0
8.581091 8.509646 10.262090 15.854327 0.781218 0.866794 0.002113 -0.000001 1034200.000000 1 0 0
16.317391 9.259546 4.457990 19.283934 0.516153 1.337510 0.025488 -0.007235 25241.300000 1 0 0
-3.283509 14.298246 4.620490 15.380839 -1.345066 1.265678 -0.004110 0.000048 -1284070.000000 1 0 0
4.973191 14.616246 12.638690 19.952538 1.242833 0.884808 0.008390 -0.006828 -1202160.000000 1 0 0
15.971891 10.597346 -4.627410 19.718468 0.585807 1.807679 0.034339 -0.007602 -392701.000000 1 0 0
14.733791 13.817546 6.017590 21.076541 0.753318 1.281256 0.032296 -0.004685 -306023.000000 1 0 0
6.223191 9.491846 9.203390 14.612516 0.990470 0.889463 -0.005624 0.001424 762608.000000 1 0 0
10.460691 12.004746 8.695390 18.142486 0.854021 1.070958 0.016400 -0.008622 -1247420.000000 1 0 0
8.005391 11.448246 -0.418410 13.975825 0.960562 1.600739 0.006785 -0.001118 703506.000000 1 0 0
7.385391 13.475346 -8.716410 17.666487 1.069438 2.086775 0.018165 -0.011613 -1178500.000000 1 0 0
2.775591 15.255646 -2.221610 15.664424 1.390826 1.713101 0.004784 -0.001810 632143.000000 1 0 0
12.145891 13.503146 -7.632810 19.700696 0.838265 1.968648 0.027076 -0.021527 765833.000000 1 0 0
-7.943509 14.753846 9.631590 19.327256 -1.076901 1.049111 0.016647 -0.025023 143100.000000 1 0 0
11.598891 9.480646 2.133890 15.131768 0.685246 1.429304 0.020034 0.003811 -1457680.000000 1 0 0
12.028191 8.656746 4.507690 15.489864 0.623829 1.275515 0.010666 0.000641 301678.000000 1 0 0
13.923391 7.914146 6.182590 17.167380 0.516865 1.202383 0.012982 -0.004257 -3586810.000000 1 0 0
16.177691 7.306246 7.271690 19.182711 0.424204 1.182000 0.052988 -0.011852 32472.700000 1 0 0
13.603491 8.149346 2.546790 16.060914 0.539730 1.411553 0.006703 0.003374 -2892660.000000 1 0 0
-4.317109 17.444446 -7.278710 19.388805 -1.328193 1.955633 0.000033 -0.006039 174935.000000 1 0 0
2.953191 19.705846 -3.982210 20.319934 1.422040 1.768049 0.011711 -0.002087 691280.000000 1 0 0
-0.052109 14.806146 6.353490 16.111844 -1.567277 1.165450 0.002461 -0.001960 861967.000000 1 0 0
6.837291 16.007946 8.533090 19.385987 1.167133 1.115011 0.023383 -0.007324 -685565.000000 1 0 0
12.830891 15.209546 -2.039410 20.003031 0.870025 1.672929 0.040783 -0.007120 186741.000000 1 0 0
12.784391 15.774346 4.151290 20.724475 0.889713 1.369123 0.028370 0.005126 539856.000000 1 0 0
2.904991 18.211146 1.390390 18.493729 1.412612 1.495544 0.007546 -0.009782 -545075.000000 1 0 0
10.364891 14.577846 -1.328210 17.936240 0.952724 1.644916 0.019037 0.003036 -1640070.000000 1 0 0
-6.437409 15.834546 -0.507910 17.100616 -1.184663 1.600502 0.002034 -0.002254 -570768.000000 1 0 0
-3.873809 15.861546 -2.574310 16.529432 -1.331259 1.727174 0.000093 -0.001526 -2159460.000000 1 0 0
-6.859909 17.078546 1.742290 18.487040 -1.188853 1.476412 0.005288 -0.001219 819330.000000 1 0 0
-0.062709 19.482646 -6.613410 20.574611 -1.567578 1.898041 0.019287 -0.002643 485991.000000 1 0 0
4.897091 14.888046 7.094290 17.203615 1.253016 1.145740 0.013929 -0.001799 -454266.000000 1 0 0
8.702291 12.258146 6.979290 16.574152 0.953444 1.136144 0.009257 -0.001053 -1891040.000000 1 0 0
-7.597309 17.415346 -5.441810 19.764278 -1.159442 1.849735 0.020722 -0.015740 253937.000000 1 0 0
-7.978309 17.745746 -1.306010 19.500528 -1.148283 1.637820 0.022697 -0.006834 -300277.000000 1 0 0
-13.877409 -8.969954 9.108990 18.868393 0.573820 1.066988 0.031036 -0.013753 662606.000000 1 0 0
-12.764109 -12.817454 7.784290 19.692760 0.787483 1.164416 0.033870 -0.007872 409284.000000 1 0 0
-3.854109 -15.068454 12.511990 19.961522 1.320391 0.893350 0.002937 -0.006935 256228.000000 1 0 0
-2.047009 -13.948754 14.976090 20.567967 1.425084 0.755211 0.012008 -0.006803 -1070180.000000 1 0 0
-6.846709 -13.722254 12.831990 19.995941 1.107990 0.874045 0.010824 -0.009311 48604.700000 1 0 0
-9.967009 -11.610454 9.020490 17.762690 0.861416 1.038128 0.017408 -0.005410 645459.000000 1 0 0
-10.520909 -10.572154 11.354990 18.745553 0.787828 0.920097 0.029981 -0.011104 416309.000000 1 0 0
-5.927609 -12.242554 10.777590 17.354340 1.119884 0.900738 0.012256 -0.008385 765432.000000 1 0 0
-12.521109 -10.296854 7.276190 17.769252 0.688227 1.148910 0.018286 -0.006026 -370624.000000 1 0 0
-7.647909 -11.285054 12.476990 18.480212 0.975192 0.829623 0.017487 -0.010562 -568264.000000 1 0 0
-14.868709 -11.417854 7.182890 20.075851 0.654866 1.204899 0.029448 -0.006550 -1275100.000000 1 0 0
-11.168509 -9.228654 9.249890 17.189070 0.690579 1.002584 0.019385 -0.003575 598922.000000 1 0 0
-5.204109 -11.790054 13.185790 18.437819 1.155119 0.773959 0.014293 -0.013113 -389431.000000 1 0 0
4.196091 -12.478154 14.718190 19.746813 -1.246401 0.729744 0.002215 0.001269 -452828.000000 1 0 0
6.756691 -12.631154 13.986790 20.020720 -1.079602 0.797335 0.019456 -0.003890 389452.000000 1 0 0
6.658491 -8.611554 16.232290 19.544350 -0.912609 0.590727 0.013186 0.000176 916641.000000 1 0 0
0.617991 -1.693954 14.389790 14.502326 -1.220979 0.124659 -0.002784 -0.005396 -1061170.000000 1 0 0
-0.124609 -6.301054 15.560990 16.788783 1.551023 0.384814 -0.003645 -0.007954 -75729.500000 1 0 0
-1.394809 -4.562454 18.143290 18.760076 1.274105 0.257136 0.005675 -0.027332 -1605510.000000 1 0 0
-5.148409 12.467046 12.904490 18.667062 -1.179166 0.807513 0.017888 -0.019845 -289049.000000 1 0 0
-4.077909 8.809446 11.581390 15.111727 -1.137265 0.697603 0.001974 -0.002309 -185344.000000 1 0 0
-0.691909 -3.891554 14.982090 15.494707 1.394837 0.257943 -0.002276 -0.006121 -400057.000000 1 0 0
-4.441109 9.354846 14.097390 17.492084 -1.127561 0.633552 0.011668 -0.007734 510835.000000 1 0 0
-13.386809 -2.844654 16.840790 21.700482 0.209382 0.682408 0.021204 -0.005311 -309160.000000 1 0 0
-0.306009 0.888046 17.271490 17.297012 -1.238952 0.054330 0.008918 -0.010057 -427522.000000 1 0 0
-3.213709 -7.313654 15.401590 17.350113 1.156782 0.478484 0.004648 -0.007850 393098.000000 1 0 0
-7.365609 5.575746 12.518790 15.558318 -0.647964 0.635733 0.002606 -0.003860 -2884890.000000 1 0 0
-9.782309 10.248546 13.300290 19.432550 -0.808670 0.816970 0.016780 -0.021232 -1305560.000000 1 0 0
-5.519309 2.283446 11.174990 12.671121 -0.392277 0.490864 0.001171 0.001036 -1946630.000000 1 0 0
-6.948409 -7.482154 16.892090 19.738433 0.822368 0.543707 0.025433 -0.013221 -387304.000000 1 0 0
-4.903409 2.934646 18.562090 19.421811 -0.539309 0.298651 0.008118 -0.010375 -1097740.000000 1 0 0
1.091891 -8.319754 16.671790 18.664381 -1.440301 0.466293 -0.002571 -0.000153 688192.000000 1 0 0
-14.884509 -3.730754 13.710790 20.577971 0.245587 0.841581 0.022584 -0.011964 -391293.000000 1 0 0
-14.439809 2.202146 13.140390 19.647580 -0.151339 0.838197 0.006049 0.002554 -140851.000000 1 0 0
-5.576209 1.057446 16.132890 17.102118 -0.187410 0.338280 0.010298 -0.004166 407691.000000 1 0 0
4.359391 5.679146 15.055190 16.670805 0.916117 0.443892 -0.005883 -0.006968 -61337.200000 1 0 0
-1.117309 -11.875154 13.787690 18.230964 1.476985 0.713190 -0.005849 -0.006403 -245072.000000 1 0 0
-5.862909 -4.040854 16.800490 18.247155 0.603457 0.400879 0.016743 -0.012340 336919.000000 1 0 0
-12.816909 -1.469054 9.855990 16.234895 0.114120 0.918407 0.001087 0.001750 -600092.000000 1 0 0
-14.363209 10.525146 10.338290 20.590306 -0.632392 1.044777 -0.001229 -0.010564 323348.000000 1 0 0
-3.455209 -3.325454 17.639490 18.279735 0.766264 0.265448 0.007301 -0.016524 -1417940.000000 1 0 0
-7.781909 9.392646 11.856390 17.010405 -0.878911 0.799580 0.003132 -0.013826 438896.000000 1 0 0
-4.075509 10.805446 16.188990 19.885946 -1.210123 0.619632 0.013895 -0.009165 158725.000000 1 0 0
-12.341609 12.972046 8.475190 19.809547 -0.810298 1.128702 0.003613 -0.014006 337423.000000 1 0 0
-12.622609 3.184846 10.515390 16.734603 -0.247154 0.891350 -0.000237 0.002732 32359.400000 1 0 0
-10.023309 -3.476654 13.765090 17.379055 0.333872 0.656636 0.017040 -0.000115 -1717210.000000 1 0 0
-4.259109 -6.343854 17.668790 19.250211 0.979541 0.408169 0.015186 -0.011987 -472771.000000 1 0 0
0.984591 -3.675854 18.007290 18.404994 -1.309086 0.208263 -0.001528 -0.012163 -1362290.000000 1 0 0
-5.971109 1.969646 13.675490 15.051667 -0.318624 0.430949 0.003088 0.001288 -560340.000000 1 0 0
-10.485409 8.760646 10.232390 17.070282 -0.696020 0.928011 0.002982 -0.014766 -32045.900000 1 0 0
4.672991 2.396846 17.320090 18.098819 0.473926 0.294410 0.012246 -0.007457 -1337220.000000 1 0 0
0.477591 -5.269154 13.159590 14.183331 -1.480404 0.382268 -0.002273 -0.002096 -1390430.000000 1 0 0
-4.466609 5.637246 20.498690 21.723845 -0.900744 0.337446 0.033200 -0.016381 -231205.000000 1 0 0
-10.716809 10.917146 9.059790 17.779591 -0.794658 1.036122 0.004430 -0.019088 843422.000000 1 0 0
0.727191 4.184246 13.135990 13.805468 1.398722 0.312700 0.005749 -0.004205 -1625910.000000 1 0 0
-3.023709 7.232246 13.405790 15.529437 -1.174795 0.529123 0.001897 -0.000324 -106611.000000 1 0 0
0.821291 8.947446 14.132290 16.746729 1.479262 0.566315 -0.007324 0.000504 39399.600000 1 0 0
-4.198009 -6.674954 13.113990 15.302125 1.009383 0.541368 0.004128 -0.003656 -315781.000000 1 0 0
-5.028009 8.331246 16.405490 19.074345 -1.027798 0.535367 0.012069 -0.009146 413711.000000 1 0 0
1.594991 -10.688254 15.894190 19.219991 -1.422661 0.597115 -0.006969 0.002967 -391626.000000 1 0 0
-15.043709 -1.151754 14.368690 20.835042 0.076411 0.809804 0.014840 -0.004994 -452635.000000 1 0 0
-13.869109 -5.233354 8.461290 17.068498 0.360820 1.052126 0.026493 -0.006585 -365625.000000 1 0 0
-14.175709 -1.869054 12.122190 18.745442 0.131093 0.867580 0.013358 -0.004425 462950.000000 1 0 0
9.392391 0.992146 16.603790 19.102021 0.105243 0.517181 0.020902 -0.005507 -849035.000000 1 0 0
4.995091 -6.716954 16.830490 18.797175 -0.931369 0.461527 0.010290 -0.005875 190221.000000 1 0 0
-6.131609 -2.585554 11.250190 13.070903 0.399052 0.534144 -0.001319 0.000348 -160187.000000 1 0 0
0.603291 -6.272854 18.144390 19.207591 -1.474916 0.334280 0.000955 -0.009542 -420480.000000 1 0 0
-8.335009 12.029746 12.098290 18.988307 -0.964874 0.880009 0.009469 -0.019450 118446.000000 1 0 0
-6.609709 -5.745354 14.920590 17.300906 0.715552 0.530772 0.021503 -0.007514 -972677.000000 1 0 0
-4.202009 -8.920754 17.337790 19.945819 1.130586 0.517125 0.015969 -0.005237 198180.000000 1 0 0
2.441491 -6.178354 16.356390 17.654020 -1.194462 0.385803 -0.002305 -0.006321 -1213720.000000 1 0 0
2.239691 5.142446 16.273790 17.213286 1.160040 0.331914 0.005246 -0.008385 -1968570.000000 1 0 0
0.947991 -8.923554 14.073190 16.690811 -1.464959 0.567644 -0.006141 -0.002568 -755569.000000 1 0 0
-9.889009 -2.764154 11.318390 15.281983 0.272561 0.736780 -0.002915 0.001689 -239752.000000 1 0 0
-1.057509 10.143546 12.385190 16.043777 -1.466917 0.688874 -0.007381 0.001843 -534066.000000 1 0 0
-12.386509 -3.670354 11.292390 17.158531 0.288076 0.852476 0.013454 -0.002340 -427015.000000 1 0 0
-2.020609 6.455946 20.075890 21.184982 -1.267470 0.325011 0.010396 -0.009792 -1038540.000000 1 0 0
0.350291 -13.229654 15.644190 20.491148 -1.544325 0.702141 -0.005235 -0.007880 -142740.000000 1 0 0
4.169291 -8.671554 15.293890 18.068810 -1.122626 0.561561 0.004573 -0.002688 -264728.000000 1 0 0
4.338391 -4.373254 16.208090 17.339238 -0.789400 0.363203 0.007667 -0.004657 -750324.000000 1 0 0
8.063891 1.755246 14.600890 16.771798 0.214324 0.514453 0.006995 -0.002980 -31698.900000 1 0 0
-6.206509 -0.039754 11.900190 13.421507 0.006405 0.480745 0.002563 0.001825 143764.000000 1 0 0
-3.283509 -10.800654 18.869190 21.988222 1.275665 0.539141 0.019154 -0.002018 -517943.000000 1 0 0
3.123291 -1.588754 13.580690 14.025485 -0.470567 0.252517 0.000376 -0.004445 151220.000000 1 0 0
-2.514109 8.802546 15.731590 18.201332 -1.292592 0.527020 0.006390 -0.006714 -2208650.000000 1 0 0
-3.247509 3.943746 14.833990 15.689063 -0.881915 0.331673 0.001548 -0.003066 -358194.000000 1 0 0
-4.555209 -8.669454 19.947990 22.222324 1.087011 0.456376 0.035100 -0.014769 -202471.000000 1 0 0
-5.637509 -2.900654 19.087590 20.112966 0.475202 0.320687 0.021120 -0.021617 -850815.000000 1 0 0
-6.651809 -8.782454 10.956090 15.537502 0.922578 0.788178 0.010105 -0.006182 -2121020.000000 1 0 0
-11.781609 2.446746 12.751990 17.533001 -0.204764 0.756397 0.014022 -0.003308 -283608.000000 1 0 0
-11.536409 -7.579354 11.769290 18.139778 0.581276 0.864775 0.019644 -0.004009 -1777450.000000 1 0 0
-10.996709 -7.202854 15.745090 20.511377 0.579883 0.695666 0.038920 -0.018490 -693970.000000 1 0 0
0.172991 5.652146 17.720290 18.600682 1.540200 0.308899 0.004310 -0.008411 -55867.300000 1 0 0
-2.250009 -0.031154 13.129890 13.321318 0.013845 0.169733 0.001918 -0.000959 181428.000000 1 0 0
-5.856209 -10.523254 18.669290 22.216580 1.062975 0.572902 0.034417 0.001778 1342960.000000 1 0 0
0.278291 2.673846 19.144590 19.332414 1.467091 0.139508 0.014628 -0.014983 -282386.000000 1 0 0
-0.589709 11.038246 14.831790 18.497909 -1.517423 0.640480 -0.000643 0.002778 -374079.000000 1 0 0
-12.795209 -2.467254 14.320590 19.361922 0.190488 0.738281 0.017595 -0.004768 -1806320.000000 1 0 0
-13.479209 8.575046 11.699890 19.801715 -0.566590 0.938681 -0.004559 -0.015479 456698.000000 1 0 0
-17.960709 -0.607154 6.914990 19.255461 0.033792 1.203473 0.030285 -0.008253 31721.900000 1 0 0
-2.013709 -7.688454 17.697790 19.400493 1.314637 0.422092 0.005527 -0.011879 -1892350.000000 1 0 0
5.612891 2.562346 14.505790 15.763506 0.428255 0.402171 0.002059 -0.002828 -3206660.000000 1 0 0
-13.953109 -6.660254 11.281590 19.139554 0.445349 0.940433 0.015764 -0.007098 714646.000000 1 0 0
3.309791 7.676346 16.318690 18.335230 1.163713 0.473411 0.001643 -0.009186 -278719.000000 1 0 0
1.103791 2.178146 14.752790 14.953511 1.101758 0.164031 0.004912 -0.011044 -2413410.000000 1 0 0
-14.357909 0.786446 9.809890 17.406952 -0.054720 0.972105 -0.000830 0.001921 -590865.000000 1 0 0
-9.496109 -5.192054 15.586390 18.975486 0.500349 0.606942 0.025378 -0.005500 -718875.000000 1 0 0
-2.553509 -0.197354 18.113690 18.293855 0.077134 0.140461 0.002849 -0.012137 -30077.400000 1 0 0
6.880791 3.586246 17.219690 18.887143 0.480461 0.423357 0.019365 -0.014327 -493802.000000 1 0 0
-4.310509 -0.677054 14.658290 15.293932 0.155798 0.289319 0.008807 -0.001448 135517.000000 1 0 0
4.591391 -9.177054 17.818790 20.562307 -1.106899 0.522498 0.007447 0.001882 -110331.000000 1 0 0
1.966091 6.897446 13.371690 15.173739 1.293114 0.492319 -0.004390 -0.002341 -1843810.000000 1 0 0
-3.685509 -0.791454 20.336390 20.682798 0.211535 0.183279 0.009869 -0.015511 -473282.000000 1 0 0
-10.717709 1.529946 16.301090 19.568739 -0.141791 0.586258 0.027006 -0.007326 59316.900000 1 0 0
-3.817609 7.107246 18.391490 20.083177 -1.077878 0.413386 0.013729 -0.010123 -97144.800000 1 0 0
-12.680609 0.966346 14.629290 19.384215 -0.076060 0.715598 0.023089 -0.006517 53600.200000 1 0 0
-16.211109 -4.349354 8.694290 18.902582 0.262122 1.092855 0.036925 -0.008204 -1615040.000000 1 0 0
-2.238509 0.780846 15.685490 15.863645 -0.335627 0.150010 0.001567 -0.003853 330294.000000 1 0 0
-13.576509 -9.044054 12.359090 20.466158 0.587648 0.922437 0.015786 -0.012990 446653.000000 1 0 0
5.982691 -3.203754 14.572290 16.075082 -0.491646 0.435844 0.003142 -0.006212 736774.000000 1 0 0
-15.637409 0.485746 7.540690 17.367398 -0.031053 1.121661 0.010081 -0.004731 436429.000000 1 0 0
-14.150709 6.197346 12.388990 19.802443 -0.412791 0.894858 0.013645 -0.010530 -211025.000000 1 0 0
0.497091 9.608746 16.705390 19.278100 1.519109 0.522554 -0.004353 -0.000559 -275932.000000 1 0 0
-10.382509 -5.457254 10.861490 15.985934 0.483933 0.823797 0.015965 -0.003490 65374.400000 1 0 0
-3.122309 -11.051954 15.250090 19.090829 1.295460 0.645469 0.006210 -0.002498 -942487.000000 1 0 0
-3.501509 2.773146 12.615290 13.382692 -0.669835 0.340292 -0.000478 0.000236 -1992510.000000 1 0 0
-12.447409 -7.665454 7.447890 16.406348 0.551976 1.099587 0.017895 -0.005241 23971.500000 1 0 0
-8.137109 -1.845354 13.318090 15.715896 0.223010 0.559675 0.006067 0.002318 -356809.000000 1 0 0
-9.793009 6.477446 9.565490 15.144601 -0.584372 0.887167 -0.001636 -0.002761 -645120.000000 1 0 0
-17.867409 -3.443654 6.681990 19.384325 0.190399 1.218865 0.030803 -0.012988 147162.000000 1 0 0
-1.259209 0.116946 20.352390 20.391642 -0.092607 0.062057 0.009788 -0.018972 -2339530.000000 1 0 0
-2.945309 2.671446 20.194490 20.582247 -0.736679 0.194416 0.015132 -0.009642 -695128.000000 1 0 0
-3.631309 11.247346 11.157690 16.253715 -1.258502 0.814173 0.003626 -0.009004 -734323.000000 1 0 0
-4.090209 -4.854154 14.967190 16.257595 0.870602 0.401112 0.003733 -0.007499 1012200.000000 1 0 0
-0.106509 -14.231154 13.291290 19.472942 1.563312 0.819548 0.001823 -0.012851 507839.000000 1 0 0
-12.091309 0.615946 8.424590 14.749673 -0.050897 0.962864 -0.002654 0.001600 -283064.000000 1 0 0
-7.858809 2.129846 15.479390 17.490244 -0.264657 0.484238 0.008613 0.002681 -357346.000000 1 0 0
3.478591 -2.155754 18.540490 18.986775 -0.554794 0.217245 0.009836 -0.004679 -451142.000000 1 0 0
-2.067709 4.858846 12.683890 13.739173 -1.168455 0.394493 -0.006167 0.000841 -426310.000000 1 0 0
-10.305809 -6.293454 13.323390 17.981379 0.548229 0.736305 0.016690 -0.007324 -570355.000000 1 0 0
2.236891 -3.803754 14.329490 14.993549 -1.039192 0.298732 -0.002961 -0.002218 -1128720.000000 1 0 0
6.818691 0.997346 16.967390 18.313426 0.145237 0.385794 0.009682 -0.004837 -47539.600000 1 0 0
-1.887609 -5.929554 13.754790 15.096918 1.262601 0.424853 -0.006872 -0.003470 -1705490.000000 1 0 0
-12.922509 3.547146 14.746490 19.925673 -0.267895 0.737615 0.010521 -0.001891 184553.000000 1 0 0
-13.226809 -6.787354 13.716790 20.227876 0.474113 0.825604 0.011985 -0.007967 -338268.000000 1 0 0
-9.519809 6.925546 12.030190 16.831976 -0.628937 0.774569 0.008648 -0.004693 -590757.000000 1 0 0
-1.213109 -2.446954 12.785190 13.073649 1.110544 0.210456 -0.002137 -0.000023 400291.000000 1 0 0
0.279491 6.687346 15.349590 16.745406 1.529027 0.411192 0.000753 -0.008405 485804.000000 1 0 0
-16.411209 -0.775854 9.639190 19.048457 0.047241 1.040215 0.020751 -0.004804 -229369.000000 1 0 0
-1.242609 2.745946 13.799890 14.125200 -1.145845 0.215032 0.001296 -0.002730 -2318050.000000 1 0 0
-11.082509 -3.312754 16.135690 19.853384 0.290463 0.621952 0.017844 -0.010996 -1111550.000000 1 0 0
-5.051509 -1.415354 17.071390 17.859264 0.273180 0.298141 0.010764 -0.006226 155308.000000 1 0 0
-11.870209 6.662646 11.176390 17.612621 -0.511471 0.883348 0.004217 -0.003578 -2286730.000000 1 0 0
-2.918309 4.656046 18.600490 19.395193 -1.010919 0.287253 0.013112 -0.013770 408652.000000 1 0 0
5.077691 -1.904054 16.534690 17.401274 -0.358757 0.316919 0.008254 -0.004593 -1473870.000000 1 0 0
-8.006809 -4.164354 12.203490 15.178142 0.479599 0.636775 0.007839 0.000525 -3063740.000000 1 0 0
-11.816609 -0.849054 16.241990 20.103616 0.071729 0.630193 0.045446 -0.005461 488894.000000 1 0 0
2.101991 2.036246 17.409290 17.653556 0.769512 0.166545 0.008185 -0.012361 -849423.000000 1 0 0
-8.746909 -7.424454 11.624090 16.332495 0.703802 0.778859 0.011163 -0.007176 1720630.000000 1 0 0
-7.121609 6.875646 14.791490 17.798315 -0.767828 0.589783 0.003519 -0.009569 -712378.000000 1 0 0
-5.714109 3.580346 15.793090 17.172408 -0.559735 0.403536 0.008920 -0.003398 511488.000000 1 0 0
-9.360909 4.277746 11.697890 15.580962 -0.428643 0.721553 0.002571 -0.000776 109576.000000 1 0 0
-10.212209 0.038346 14.300690 17.572718 -0.003755 0.620134 0.015120 0.001786 482513.000000 1 0 0
7.878691 -0.710154 15.302090 17.225912 -0.089893 0.477127 0.005907 -0.010611 -267515.000000 1 0 0
-8.592309 -7.540254 14.851190 18.741426 0.720277 0.656021 0.032486 -0.005846 -1127300.000000 1 0 0
-0.144009 4.127546 15.664190 16.199513 -1.535921 0.257795 0.005923 -0.011274 53562.000000 1 0 0
-7.960309 3.189446 9.774690 13.003217 -0.381083 0.720140 -0.000267 0.001171 -880734.000000 1 0 0
-2.196809 -9.585554 13.292490 16.534785 1.345508 0.636955 -0.009525 -0.001641 197677.000000 1 0 0
-5.903109 10.231446 10.419890 15.751295 -1.047492 0.847945 0.010289 -0.012863 -3174340.000000 1 0 0
-8.525709 -2.789354 15.777690 18.149482 0.316193 0.516974 0.020467 -0.010205 252866.000000 1 0 0
4.263491 5.602646 17.710090 19.058182 0.920306 0.378380 0.005231 -0.009009 -73829.100000 1 0 0
-6.836309 -0.878054 15.273790 16.756932 0.127740 0.423902 0.007739 0.000756 -1090510.000000 1 0 0
-0.857709 -9.959354 15.550590 18.486353 1.484887 0.571311 -0.011913 0.000403 175585.000000 1 0 0
-4.283609 5.835446 16.148290 17.696582 -0.937570 0.421420 0.006266 -0.010246 369538.000000 1 0 0
3.635191 0.057446 17.560590 17.932993 0.015801 0.204150 0.011382 -0.007499 -785295.000000 1 0 0
1.252591 0.365046 19.299990 19.344039 0.283579 0.067498 0.004669 -0.006182 -1415230.000000 1 0 0
-6.312909 6.660946 17.814890 20.039744 -0.812218 0.475688 0.007595 -0.006706 285123.000000 1 0 0
-12.126609 0.669846 10.944990 16.349194 -0.055182 0.837326 0.004371 0.001104 -86547.700000 1 0 0
-5.346509 5.121346 13.865590 15.718395 -0.763892 0.490441 -0.001103 -0.001051 -1468310.000000 1 0 0
-8.676709 -9.396754 9.897790 16.172523 0.825217 0.912193 0.015658 -0.006879 97634.200000 1 0 0
6.847791 -3.788254 16.997190 18.712231 -0.505303 0.431483 0.012080 -0.004967 468263.000000 1 0 0
-16.733709 1.824946 9.568790 19.362572 -0.108629 1.053893 0.011935 -0.003016 399347.000000 1 0 0
-4.104209 -9.508154 11.464690 15.449551 1.163305 0.734639 -0.000650 -0.005212 -663395.000000 1 0 0
-11.039209 -3.748054 9.234590 14.872448 0.327310 0.900881 0.003978 0.001003 -114519.000000 1 0 0
3.514691 -5.427754 18.537190 19.632651 -0.996152 0.335633 -0.002068 -0.007029 -311246.000000 1 0 0
2.442291 -1.841154 16.152290 16.439316 -0.645969 0.187140 0.001094 -0.008057 -223282.000000 1 0 0
-3.120409 -4.454354 20.025790 20.751156 0.959715 0.265183 0.014152 -0.023346 -614540.000000 1 0 0
-6.220609 -3.310054 14.465290 16.090278 0.489005 0.453297 0.009638 -0.001840 627071.000000 1 0 0
-9.518609 5.378346 14.019890 17.778859 -0.514313 0.662315 0.015139 -0.005606 -159256.000000 1 0 0
-5.858709 -5.122054 11.789890 14.126621 0.718413 0.583414 0.001654 0.000774 442304.000000 1 0 0
6.365891 2.056146 19.299590 20.426122 0.312417 0.333665 0.031933 -0.011913 -355728.000000 1 0 0
-2.614909 11.876446 13.429290 18.117217 -1.354078 0.735874 0.011164 -0.015350 -643149.000000 1 0 0
3.387591 1.290046 15.266790 15.691235 0.363859 0.233121 0.009066 -0.006464 -1083680.000000 1 0 0
-5.610409 7.430646 12.851390 15.869764 -0.924080 0.626979 -0.003660 -0.008839 -1318410.000000 1 0 0
-1.914109 -1.650554 15.179890 15.388866 0.711597 0.164988 0.003089 -0.005340 400749.000000 1 0 0
-7.341009 10.591346 14.051790 19.066196 -0.964707 0.742175 0.025204 -0.021658 260185.000000 1 0 0
-10.188609 2.216946 10.611590 14.877112 -0.214251 0.776625 -0.001863 0.001306 -1660370.000000 1 0 0
-13.742709 5.201946 9.326590 17.404240 -0.361857 1.005246 -0.004677 0.002544 -24556.300000 1 0 0
0.185391 -4.744754 20.267390 20.816199 -1.531743 0.230136 0.002112 -0.017073 -667184.000000 1 0 0
-14.465009 -2.828854 7.466390 16.522284 0.193128 1.101904 0.016191 -0.007543 501429.000000 1 0 0
-2.457209 2.396146 17.622090 17.953202 -0.772817 0.192354 0.000569 -0.009288 19675.700000 1 0 0
-6.173509 -8.260254 14.473690 17.771655 0.928977 0.619058 0.014939 -0.011569 -172885.000000 1 0 0
-8.010409 1.923246 12.053290 14.599566 -0.235633 0.599545 -0.002838 0.000277 146138.000000 1 0 0
-14.552009 -3.380954 10.115390 18.041977 0.228286 0.975615 0.014879 -0.010225 159338.000000 1 0 0
-0.474809 6.993146 12.854190 14.641029 -1.503004 0.499219 -0.003792 -0.001965 -962626.000000 1 0 0
-1.717309 -2.313654 19.364890 19.578077 0.932274 0.147709 0.009514 -0.017918 -131030.000000 1 0 0
-12.816509 10.540346 7.636890 18.267016 -0.688253 1.139477 -0.000277 -0.010812 -678374.000000 1 0 0
-19.480309 2.290046 6.865890 20.781415 -0.117020 1.234084 0.027392 -0.001675 407336.000000 1 0 0
-16.049509 8.578146 6.518590 19.330374 -0.490850 1.226834 -0.001434 -0.007191 426396.000000 1 0 0
-12.238909 7.468846 13.695190 19.827576 -0.547925 0.808320 0.014212 -0.010959 -26648.000000 1 0 0
-15.942809 8.431346 10.642590 20.941000 -0.486460 1.037682 0.004544 -0.002623 -93491.400000 1 0 0
2.032691 11.061346 15.006890 18.753452 1.389059 0.643134 -0.005729 -0.003172 639431.000000 1 0 0
2.348591 14.668246 12.446390 19.380040 1.412030 0.873396 -0.002473 -0.001648 362076.000000 1 0 0
-3.157009 13.728046 11.718690 18.323582 -1.344758 0.876895 0.005133 -0.008816 498453.000000 1 0 0
9.138491 4.766146 15.585190 18.684922 0.480736 0.584288 0.015015 -0.003701 -162085.000000 1 0 0
-0.178609 12.585946 12.845090 17.984279 -1.556606 0.775259 -0.007103 -0.003539 -264787.000000 1 0 0
3.576291 13.464146 14.406790 20.040676 1.311175 0.768610 -0.005430 -0.003916 30439.800000 1 0 0
-2.883909 -4.192554 -13.883610 14.786787 0.968261 2.790275 0.001634 -0.005517 -373844.000000 1 0 0
6.091291 -11.595554 16.195590 20.829254 -1.087104 0.680051 0.015558 -0.005786 201347.000000 1 0 0
7.914291 -13.509654 7.378390 17.308593 -1.040865 1.130415 0.003559 -0.007683 200718.000000 1 0 0
-0.103409 15.651046 1.154590 15.693917 -1.564189 1.497161 0.000097 -0.004196 -3061550.000000 1 0 0
-13.760409 8.288746 9.107390 18.466097 -0.542154 1.055037 0.000822 -0.006242 723877.000000 1 0 0
-15.492409 -9.712654 4.833890 18.913405 0.559986 1.312349 0.018184 -0.004668 -721320.000000 1 0 0
9.522291 -10.996554 11.176190 18.344085 -0.857124 0.915678 0.011921 -0.008269 136309.000000 1 0 0
-5.829409 -10.309954 -16.770610 20.531208 1.056195 2.526699 0.012802 -0.005925 -12421.200000 1 0 0
-1.856409 -12.708454 -14.765410 19.569578 1.425746 2.425701 0.001219 0.004035 -143012.000000 1 0 0
5.152991 -15.793854 -12.571810 20.833856 -1.255420 2.218594 -0.012555 0.005458 317125.000000 1 0 0
2.631091 -11.689554 -16.705210 20.558024 -1.349405 2.519376 0.005897 0.001757 376088.000000 1 0 0
1.523391 -14.336354 -14.921010 20.748212 -1.464933 2.373370 0.037583 0.028852 266980.000000 1 0 0
-6.610009 -5.905154 -14.587210 17.068971 0.729138 2.595584 0.012698 -0.003871 34814.900000 1 0 0
-6.075109 -8.130554 -17.283410 20.043181 0.929093 2.610608 -0.001713 -0.007605 87787.500000 1 0 0
-1.845109 -16.454954 -12.983610 21.041484 1.459132 2.235782 -0.000280 0.001722 197714.000000 1 0 0
16.118191 -8.154554 -9.088610 20.221169 -0.468374 2.036957 0.014689 -0.002038 -54137.000000 1 0 0
18.738091 -3.122354 -3.490010 19.314381 -0.165114 1.752489 -0.006478 -0.001518 13714.900000 1 0 0
15.994591 -11.322554 -8.729410 21.452966 -0.616008 1.989864 0.046068 -0.013857 329266.000000 1 0 0
18.390391 -2.667654 -6.556210 19.705500 -0.144052 1.909972 0.124190 -0.003651 -243732.000000 1 0 0
9.282191 -9.936054 -15.720710 20.785210 -0.819408 2.428498 0.055405 -0.003653 128480.000000 1 0 0
-4.741709 9.498146 -16.256410 19.415701 -1.107769 2.563089 -0.003863 -0.006171 441049.000000 1 0 0
2.262691 -9.704354 -18.743310 21.227480 -1.341726 2.652956 0.016942 0.002068 170809.000000 1 0 0
11.119691 7.809446 -15.177110 20.371049 0.612273 2.411381 0.034287 -0.028717 552398.000000 1 0 0
18.446491 -6.711354 -8.811610 21.516500 -0.348940 1.992733 0.022978 0.002089 12956.700000 1 0 0
12.222291 5.183946 -13.963810 19.267737 0.401141 2.381431 0.018230 -0.007894 175923.000000 1 0 0
15.888291 6.108746 -10.819510 20.169689 0.367057 2.136991 0.027257 -0.009633 268850.000000 1 0 0
3.680091 -0.440254 -19.125810 19.481620 -0.119065 2.950178 0.014670 -0.013218 90564.900000 1 0 0
10.386691 -1.663454 -15.078610 18.385182 -0.158804 2.532470 0.024606 -0.000165 130863.000000 1 0 0
12.276091 -6.018254 -13.931810 19.519660 -0.455811 2.365609 0.028579 -0.005487 357480.000000 1 0 0
9.972291 6.457446 -12.680610 17.376509 0.574643 2.388761 0.015145 -0.011499 434965.000000 1 0 0
10.715591 5.246246 -16.397910 20.279015 0.455285 2.512590 0.040736 -0.011246 485565.000000 1 0 0
12.066391 -10.010954 -14.932210 21.651510 -0.692564 2.331818 0.063083 -0.018803 275290.000000 1 0 0
-1.051709 2.190846 -17.536810 17.704395 -1.123238 3.003892 0.006828 -0.007001 362512.000000 1 0 0
5.922391 -1.254454 -17.009110 18.054312 -0.208730 2.799659 -0.003078 0.001151 54753.000000 1 0 0
6.625291 -5.829154 -15.597310 17.920647 -0.721561 2.626717 -0.006009 -0.006232 318592.000000 1 0 0
-2.171609 -4.777754 -20.282710 20.950684 1.144186 2.888397 0.025064 -0.027791 62216.600000 1 0 0
15.870791 -0.305854 -13.333210 20.730413 -0.019269 2.269429 0.022101 -0.014015 -87839.500000 1 0 0
-4.189209 -0.281454 -18.296910 18.772469 0.067085 2.916025 0.007341 -0.014584 116779.000000 1 0 0
3.572891 8.946446 -17.374310 19.866331 1.190838 2.635325 0.022594 -0.023187 -67178.800000 1 0 0
8.798291 0.658246 -16.048610 18.313959 0.074676 2.638934 0.014797 -0.049850 -91934.100000 1 0 0
4.146491 4.482746 -18.406310 19.392799 0.824345 2.821261 0.012241 -0.002226 478921.000000 1 0 0
-3.106109 -11.043354 -17.719210 21.108623 1.296615 2.567030 0.011670 -0.020685 300130.000000 1 0 0
6.829991 -9.090654 -16.443110 19.991614 -0.926451 2.536590 0.032296 -0.005954 301663.000000 1 0 0
10.038491 -13.220854 -11.565810 20.231911 -0.921375 2.179326 0.015660 0.042021 118194.000000 1 0 0
6.208791 6.616346 -16.849710 19.137342 0.817165 2.647633 0.022311 -0.019512 -370212.000000 1 0 0
8.118991 1.305346 -20.151710 21.764957 0.159413 2.754151 0.009402 -0.009068 58823.300000 1 0 0
-0.967109 -1.184154 -20.420910 20.478064 0.885950 3.066863 0.017286 -0.011358 214246.000000 1 0 0
-1.420709 6.893446 -19.389410 20.627342 -1.367547 2.793385 0.012526 -0.010024 -486448.000000 1 0 0
8.746991 6.135046 -17.855810 20.808138 0.611658 2.602387 0.034525 -0.012001 137343.000000 1 0 0
12.105791 -0.090554 -13.340610 18.014723 -0.007480 2.404669 0.017046 -0.001863 -14546.400000 1 0 0
-4.211809 -2.717754 -19.799610 20.424252 0.573043 2.893639 0.001979 -0.012445 420719.000000 1 0 0
6.188991 -11.328954 -14.585710 19.477981 -1.070799 2.417092 0.004237 -0.004344 184784.000000 1 0 0
11.065991 2.167746 -16.187410 19.727836 0.193443 2.533145 0.031025 -0.002380 -285678.000000 1 0 0
-2.901209 -4.518854 -17.122010 17.944366 1.000049 2.837677 0.002557 -0.008675 372879.000000 1 0 0
-6.784809 -4.958254 -17.607110 19.509696 0.631091 2.696289 0.017966 -0.008195 44604.700000 1 0 0
2.843591 10.702746 -15.444410 19.004331 1.311108 2.519530 0.011933 -0.007290 341567.000000 1 0 0
16.967391 -6.225254 -10.855010 21.082632 -0.351646 2.111663 0.037901 -0.016533 -49033.700000 1 0 0
9.313291 -3.327954 -17.691510 20.268256 -0.343193 2.631845 0.001661 -0.007909 116402.000000 1 0 0
-7.102309 -1.650854 -18.875810 20.235225 0.228384 2.772956 -0.000778 0.000383 323283.000000 1 0 0
2.116591 -7.677754 -19.320810 20.897884 -1.301800 2.750608 0.023760 -0.017763 187199.000000 1 0 0
5.846991 10.537046 -13.949810 18.434040 1.064200 2.429111 0.029225 -0.012018 400429.000000 1 0 0
6.260991 -4.040154 -17.687110 19.192621 -0.573057 2.742870 0.017635 -0.018258 562709.000000 1 0 0
4.622591 13.446546 -14.591810 20.373975 1.239678 2.369136 0.034042 -0.014347 180075.000000 1 0 0
9.416491 11.129746 -15.374010 21.187301 0.868591 2.382737 0.052115 -0.022780 -221081.000000 1 0 0
17.140191 1.028946 -11.478910 20.654545 0.059959 2.160070 0.035330 -0.007393 66716.400000 1 0 0
15.272591 -2.709154 -12.180110 19.721730 -0.175560 2.236482 0.030512 -0.011995 221312.000000 1 0 0
-8.563609 0.371346 -17.474910 19.463961 -0.043336 2.685564 0.002261 -0.004700 392487.000000 1 0 0
-3.439209 4.085246 -19.031510 19.766531 -0.871046 2.868031 0.014322 -0.009650 73215.400000 1 0 0
3.858091 1.870146 -16.807110 17.345353 0.451360 2.891822 0.003907 -0.010817 300934.000000 1 0 0
-4.976809 14.178546 -13.936310 20.494403 -1.233222 2.318567 0.000137 -0.010170 290286.000000 1 0 0
1.231391 9.296946 -17.681410 20.014539 1.439112 2.653925 0.019596 -0.008876 217069.000000 1 0 0
1.300191 -5.185154 -20.095110 20.793984 -1.325109 2.881595 0.017887 -0.002494 441051.000000 1 0 0
3.482691 -5.931454 -18.693610 19.918894 -1.039874 2.789017 0.011588 0.001509 -101518.000000 1 0 0
-7.002609 7.492346 -15.786710 18.825302 -0.819172 2.565486 -0.004200 -0.003726 28005.300000 1 0 0
-11.904609 2.919346 -16.700010 20.715517 -0.240483 2.508429 0.041765 -0.018845 385808.000000 1 0 0
-4.288409 7.125646 -17.478210 19.355958 -1.029034 2.697472 0.000588 0.016301 357963.000000 1 0 0
-8.154009 5.647446 -17.592910 20.196336 -0.605741 2.628222 0.001144 -0.006273 344377.000000 1 0 0
-8.410709 4.432746 -15.354210 18.059375 -0.485042 2.587175 -0.016033 -0.005235 521448.000000 1 0 0
9.449291 14.172446 -11.902910 20.780438 0.982745 2.180707 0.035667 -0.023189 500607.000000 1 0 0
14.193591 9.673946 -11.981510 20.942775 0.598250 2.179869 0.053850 -0.017495 -128770.000000 1 0 0
8.571891 15.437846 -10.005910 20.295877 1.063930 2.086333 0.017030 -0.014115 17351.800000 1 0 0
8.104491 12.797746 -14.304010 20.834341 1.006269 2.327542 0.037738 -0.030557 237670.000000 1 0 0
4.383191 15.497146 -13.122910 20.774616 1.295157 2.254515 0.041367 -0.017952 166012.000000 1 0 0
10.920591 11.914046 -11.284710 19.711633 0.828877 2.180336 0.030503 -0.012242 196755.000000 1 0 0
15.687691 10.378046 -8.833010 20.780509 0.584445 2.009827 0.040799 -0.040420 275679.000000 1 0 0
13.247891 11.410446 -9.831210 20.058853 0.711019 2.083022 0.050148 -0.014841 103126.000000 1 0 0
10.859691 11.323846 -7.891010 17.562187 0.806319 2.036798 0.020296 -0.011721 90150.700000 1 0 0
6.012991 16.965446 -10.191710 20.684617 1.230184 2.086008 0.063226 -0.007421 98342.800000 1 0 0
11.863991 13.806146 -10.172210 20.852765 0.860912 2.080377 0.054136 -0.021354 120189.000000 1 0 0
8.072991 -19.448154 -1.530310 21.112691 -1.177338 1.643343 0.030700 0.002075 48829.400000 1 0 0
7.551591 -16.921054 -3.818110 18.918947 -1.151037 1.774006 0.023271 0.000327 388822.000000 1 0 0
4.021491 -18.649254 5.032090 19.730408 -1.358410 1.312905 0.035221 -0.024208 148906.000000 1 0 0
10.387791 -17.799554 -2.492610 20.759177 -1.042524 1.691159 0.037819 0.001579 713136.000000 1 0 0
-3.323709 -14.654954 7.857690 16.957535 1.347772 1.088997 0.020179 -0.036206 46358.300000 1 0 0
-15.235209 -12.704754 -4.342910 20.307221 0.695077 1.786321 0.007284 0.000437 85642.600000 1 0 0
-9.684009 -12.507154 -6.923410 17.266804 0.911938 1.983368 0.018384 -0.011014 250623.000000 1 0 0
-11.541209 -14.985854 6.918890 20.140664 0.914530 1.220125 0.020663 -0.006407 168209.000000 1 0 0
-14.786709 -7.120154 -7.353010 17.983607 0.448758 1.992015 0.037422 -0.027829 -198139.000000 1 0 0
5.108791 -15.546954 5.937590 17.408690 -1.253308 1.222741 0.020028 -0.009186 180117.000000 1 0 0
2.570891 -14.003954 9.373390 17.046426 -1.389235 0.988583 0.006357 -0.007817 416903.000000 1 0 0
3.379891 -17.460654 10.047990 20.426948 -1.379589 1.056527 0.023448 -0.005487 138981.000000 1 0 0
-7.361409 -17.068354 -5.918610 19.507665 1.163610 1.879054 -0.032464 -0.002524 -38191.800000 1 0 0
1.824291 -19.766154 -4.064310 20.261972 -1.478763 1.772754 0.009376 0.000272 64492.500000 1 0 0
-18.528309 -10.300054 -1.841510 21.278640 0.507369 1.657447 0.022742 -0.006117 -81531.800000 1 0 0
-4.193409 -14.990054 3.041990 15.860016 1.298023 1.377798 -0.001130 -0.000763 108877.000000 1 0 0
-10.642409 -9.689954 -14.639810 20.529981 0.738588 2.364698 0.017096 -0.007622 229672.000000 1 0 0
-0.109409 -20.046654 2.573690 20.211486 1.565339 1.443112 0.010703 -0.021091 305352.000000 1 0 0
5.351291 -18.780354 0.829890 19.545504 -1.293212 1.528324 0.011049 0.009488 248663.000000 1 0 0
-7.650909 -18.371254 -3.698510 20.241501 1.176181 1.754548 -0.001281 -0.025354 217447.000000 1 0 0
-9.455809 -15.838554 -7.642710 19.967051 1.032577 1.963585 0.024858 0.000616 84317.200000 1 0 0
-11.309409 -11.355554 -12.551410 20.356553 0.787434 2.235186 -0.014953 0.009162 395058.000000 1 0 0
-13.085209 -14.891054 -3.198910 20.079821 0.849858 1.730788 0.005031 -0.004652 111975.000000 1 0 0
-0.597109 -20.739354 -2.540810 20.902944 1.542013 1.692650 0.009086 -0.004315 232134.000000 1 0 0
-11.653809 -16.949154 -0.560610 20.576670 0.968458 1.598045 0.001027 0.008508 109247.000000 1 0 0
0.806291 -20.048854 5.405890 20.780527 -1.530602 1.307627 0.024055 -0.021155 172281.000000 1 0 0
-18.214809 -9.751254 2.491790 20.810460 0.491524 1.450771 0.019648 0.010459 106476.000000 1 0 0
-14.991209 -14.874354 -0.624410 21.127533 0.781485 1.600355 0.017993 0.002923 -63602.400000 1 0 0
10.308291 -15.138354 -5.463710 19.112372 -0.972978 1.860714 0.025473 0.002306 -80794.000000 1 0 0
-0.041609 -19.080654 -7.059610 20.344807 1.568616 1.925165 0.007928 0.002697 165512.000000 1 0 0
-9.665609 -16.320354 -2.640910 19.150780 1.036100 1.709138 0.002119 -0.013912 551952.000000 1 0 0
-14.750609 -6.618354 -11.568810 19.880152 0.421759 2.191893 0.025333 -0.007833 142120.000000 1 0 0
-12.363009 -14.633454 2.061690 19.267396 0.869302 1.463587 0.014933 -0.012262 250132.000000 1 0 0
-2.619809 -16.103254 9.884690 19.075777 1.409521 1.026075 0.008038 -0.020533 364394.000000 1 0 0
-12.508809 -14.046054 -6.438510 19.880049 0.843223 1.900611 0.026897 -0.007018 212804.000000 1 0 0
4.948791 -16.944154 -7.237410 19.078128 -1.286635 1.959897 0.010532 0.003352 101217.000000 1 0 0
-17.564509 -7.343254 -2.875810 19.253718 0.395989 1.720721 -0.008539 -0.001666 -29209.700000 1 0 0
-12.163709 -13.518954 -9.321710 20.435562 0.838118 2.044462 0.042145 -0.018946 85681.000000 1 0 0
-7.669509 -14.108954 10.431890 19.149629 1.072886 0.994697 0.015878 0.003432 425662.000000 1 0 0
-15.950309 -8.564854 -5.697410 18.979715 0.492785 1.875682 0.033409 0.003554 297766.000000 1 0 0
-0.746109 -19.620254 -0.132510 19.634882 1.532787 1.577545 0.009222 -0.010887 170578.000000 1 0 0
-15.246209 -11.440654 -2.019710 19.168064 0.643753 1.676361 0.016174 0.004895 205306.000000 1 0 0
-7.409309 -18.605854 1.103690 20.057263 1.191821 1.515742 0.009162 -0.008159 197225.000000 1 0 0
-2.286509 -20.761154 -5.349610 21.560890 1.461104 1.821532 0.010402 -0.001363 69159.700000 1 0 0
-8.963009 -19.591054 -1.202910 21.577579 1.141719 1.626573 0.002783 0.000685 138087.000000 1 0 0
-17.949509 -7.430054 5.139890 20.095001 0.392467 1.312142 0.033159 -0.001554 198224.000000 1 0 0
-3.047309 -15.985154 -10.878410 19.574244 1.382423 2.160063 0.008367 0.008793 21841.400000 1 0 0
-3.204209 -18.108654 -8.713910 20.350001 1.395666 2.013298 0.002381 -0.002358 198790.000000 1 0 0
4.392591 -18.133754 -4.997610 19.315900 -1.333141 1.832504 0.009293 0.027619 530734.000000 1 0 0
0.599991 -17.432054 -9.807110 20.010395 -1.536391 2.083002 -0.004670 0.016449 30422.800000 1 0 0
-7.621109 -10.226954 -14.782010 19.523824 0.930375 2.429700 0.007449 -0.009140 171018.000000 1 0 0
-5.260909 -19.261354 -2.034710 20.070301 1.304167 1.672350 0.004590 -0.016307 306530.000000 1 0 0
-9.933509 -15.876454 8.690990 20.646300 1.011711 1.136308 0.009250 -0.002755 214109.000000 1 0 0
-7.252509 -15.065054 -10.343110 19.660485 1.122129 2.124788 0.011777 -0.005085 277218.000000 1 0 0
-12.628009 -8.076554 -12.373410 19.437042 0.569011 2.260864 0.016344 -0.009968 333277.000000 1 0 0
-15.459609 -12.997254 3.438190 20.487784 0.699084 1.402182 0.007386 0.002605 2190.130000 1 0 0
-6.102709 -14.343754 -13.296010 20.488295 1.168535 2.277008 -0.007861 0.007634 472720.000000 1 0 0
-14.193209 -11.429454 -6.786410 19.445693 0.677950 1.927293 0.033762 -0.010132 42496.000000 1 0 0
-11.428409 -10.104754 -9.375510 17.905719 0.724005 2.121872 0.015889 -0.005331 253521.000000 1 0 0
-9.851409 -14.752954 3.747990 18.131391 0.982038 1.362582 0.000059 0.000105 489408.000000 1 0 0
5.228291 -17.801754 8.308190 20.328883 -1.285134 1.149779 0.039960 -0.028043 227137.000000 1 0 0
-5.024809 -16.783054 5.224190 18.281460 1.279892 1.280992 0.002987 0.007691 322236.000000 1 0 0
-18.218409 -7.307454 -6.662310 20.729102 0.381457 1.898003 0.006117 -0.015521 149012.000000 1 0 0
-17.380109 -4.232354 -10.932810 20.964431 0.238868 2.119396 0.037536 -0.000332 -146253.000000 1 0 0
-15.591009 -4.125054 -13.124610 20.793052 0.258652 2.253898 0.011602 -0.003031 288371.000000 1 0 0
-19.297609 -4.536454 -5.999210 20.711534 0.230886 1.864663 0.019788 -0.004233 237829.000000 1 0 0
5.304491 -13.574454 8.671490 16.958719 -1.198272 1.034065 0.014925 -0.007645 325712.000000 1 0 0
19.659991 -3.439654 2.706390 20.141276 -0.173204 1.436018 0.018898 -0.010541 -151047.000000 1 0 0
18.157891 -2.456254 0.096490 18.323523 -0.134456 1.565530 0.027760 -0.010534 262695.000000 1 0 0
14.442591 -11.475054 0.239590 18.447837 -0.671396 1.557809 0.031402 0.002517 173326.000000 1 0 0
11.027391 -13.761454 5.618690 18.508124 -0.895248 1.262349 0.023670 0.000578 563510.000000 1 0 0
10.365091 -12.905054 8.461290 18.589485 -0.894119 1.098238 0.034857 -0.019642 14735.100000 1 0 0
19.289891 4.066346 -4.712110 20.269165 0.207760 1.805420 0.077148 0.011456 -151643.000000 1 0 0
19.280691 -5.900854 -4.766210 20.719119 -0.296998 1.802914 0.062212 -0.004933 3719.040000 1 0 0
17.780491 -9.880254 -0.373710 20.344654 -0.507193 1.589166 0.041866 -0.006215 310052.000000 1 0 0
17.656891 -8.690854 8.654490 21.498766 -0.457394 1.156487 0.057168 -0.016642 -132108.000000 1 0 0
19.619791 0.302746 -2.481810 19.778454 0.015429 1.696608 0.013389 0.005528 152854.000000 1 0 0
7.534291 -13.306954 11.565390 19.172866 -1.055607 0.923268 0.010810 -0.001305 342400.000000 1 0 0
16.011591 -6.901254 -3.152210 17.718205 -0.406955 1.749656 0.019524 -0.002079 356998.000000 1 0 0
14.323991 -6.645254 11.679490 19.640433 -0.434373 0.933947 0.022145 -0.034337 285287.000000 1 0 0
16.547491 0.929546 10.292990 19.509719 0.056115 1.015044 0.063551 -0.020800 396842.000000 1 0 0
16.577391 -10.066354 2.834990 19.600473 -0.545722 1.425648 0.011043 -0.004921 421962.000000 1 0 0
16.120991 -7.078054 -5.772710 18.528610 -0.413718 1.887627 0.024031 -0.000939 405892.000000 1 0 0
17.861391 -4.156754 5.824090 19.241307 -0.228653 1.263286 0.045962 -0.017561 19824.700000 1 0 0
13.195691 -13.806154 8.060190 20.729274 -0.808003 1.171434 0.032619 -0.007836 16628.700000 1 0 0
15.402291 -14.227154 -1.652010 21.032632 -0.745758 1.649422 0.037049 -0.001803 322291.000000 1 0 0
18.697791 -6.029554 7.887590 21.170191 -0.311946 1.189009 0.040297 -0.020906 313037.000000 1 0 0
19.504991 3.259146 2.573290 19.942129 0.165563 1.441398 0.047347 -0.008352 211878.000000 1 0 0
15.980091 -10.449554 8.072190 20.729610 -0.579120 1.170812 0.055744 -0.032580 367666.000000 1 0 0
14.248691 -4.068454 10.717990 18.288051 -0.278131 0.944602 0.028883 -0.015259 -1891.540000 1 0 0
18.661691 -7.846354 2.302590 20.374639 -0.398013 1.457542 0.028500 -0.004963 -93007.400000 1 0 0
18.920991 -5.227154 -1.453210 19.683466 -0.269539 1.644693 0.020391 0.000143 178983.000000 1 0 0
14.758091 -13.520254 -5.737110 20.820974 -0.741653 1.849953 0.047855 -0.007009 369528.000000 1 0 0
13.827491 -9.571454 10.204190 19.670733 -0.605475 1.025408 0.011968 -0.019759 400236.000000 1 0 0
14.339891 2.473246 0.678590 14.567426 0.170793 1.524197 0.008973 -0.002071 -48643.700000 1 0 0
12.868091 3.018346 13.656590 19.005279 0.230395 0.769055 0.023152 -0.009891 231407.000000 1 0 0
18.056491 -3.584154 9.266490 20.609485 -0.195950 1.104454 0.030527 -0.012041 -28455.100000 1 0 0
6.827191 -18.192254 5.104690 20.090458 -1.211780 1.313894 0.016711 -0.024201 364460.000000 1 0 0
12.719291 -3.195654 15.060290 19.970100 -0.246150 0.716450 0.020211 0.004637 348194.000000 1 0 0
12.612491 -13.996254 -7.206410 20.171822 -0.837355 1.936120 0.056731 0.010543 180271.000000 1 0 0
10.735491 -17.465654 4.633890 21.018391 -1.019665 1.348502 0.035051 -0.014809 587820.000000 1 0 0
18.106091 -0.576354 -5.776910 19.014084 -0.031821 1.879499 0.011956 0.002332 191045.000000 1 0 0
4.672191 -13.911854 11.787590 18.823292 -1.246789 0.894096 0.014627 0.000735 221929.000000 1 0 0
9.333491 -2.903454 14.551290 17.529522 -0.301590 0.591506 0.023120 -0.000495 332086.000000 1 0 0
8.924691 -9.269854 13.582590 18.710079 -0.804367 0.758381 0.014577 -0.023516 459035.000000 1 0 0
21.070291 5.679246 -2.968410 22.023225 0.263281 1.705993 0.035484 0.009863 541455.000000 1 0 0
14.599191 -13.626154 2.217790 20.092960 -0.750938 1.460194 0.019627 0.005599 357640.000000 1 0 0
11.806991 -0.502254 15.105190 19.178740 -0.042513 0.663891 0.042825 -0.003409 1762.020000 1 0 0
19.643791 0.027546 7.715190 21.104583 0.001402 1.196552 0.103037 -0.018843 186984.000000 1 0 0
19.950691 1.039246 0.598790 19.986712 0.052044 1.540832 0.050169 -0.002579 240054.000000 1 0 0
17.772691 0.340046 3.197090 18.061162 0.019131 1.392844 0.034121 -0.006320 -22225.800000 1 0 0
10.162391 -8.486254 16.336690 21.028032 -0.695759 0.681068 0.023751 -0.004226 125946.000000 1 0 0
19.074391 2.866546 5.463690 20.047478 0.149166 1.294767 0.061925 -0.013066 141079.000000 1 0 0
15.471191 2.609146 7.276690 17.294959 0.167073 1.136535 0.041478 -0.011245 -5068.530000 1 0 0
11.395991 -16.042654 1.956190 19.775288 -0.953154 1.471713 0.014041 0.006526 287842.000000 1 0 0
8.226191 -16.462754 7.040890 19.704482 -1.107401 1.205395 0.012638 -0.000455 345786.000000 1 0 0
6.124591 6.607046 7.304890 11.598495 0.823274 0.889483 -0.002535 0.004141 -1167680.000000 1 0 0
18.520891 2.488946 -6.593510 19.816474 0.133586 1.909992 0.014696 0.004918 299333.000000 1 0 0
14.192491 4.447946 -7.101110 16.481407 0.303706 2.016237 0.024811 -0.007402 186350.000000 1 0 0
-10.672609 -3.824254 -13.626110 17.725698 0.344071 2.447635 0.014525 -0.011636 -432514.000000 1 0 0
7.754491 -14.037254 -10.479710 19.157269 -1.066095 2.149615 0.008688 0.005752 224931.000000 1 0 0
1.991391 -15.612354 14.174890 21.181094 -1.443929 0.837633 -0.001240 -0.003060 343038.000000 1 0 0
-9.414609 -8.180254 2.465890 12.713459 0.715359 1.375600 0.010331 -0.000427 499377.000000 1 0 0
-13.705009 3.067946 -9.823910 17.139101 -0.220225 2.181186 0.015085 -0.006428 342789.000000 1 0 0
-13.137509 -4.935454 -13.467310 19.450483 0.359364 2.335592 0.021307 -0.000248 181380.000000 1 0 0
-17.598809 0.353446 -8.273810 19.449908 -0.020081 2.010190 0.029003 -0.021602 302943.000000 1 0 0
-12.322709 15.152646 4.666290 20.080491 -0.888035 1.336273 0.016281 -0.010217 395824.000000 1 0 0
-16.825709 6.458146 9.188990 20.229920 -0.366486 1.099291 -0.019145 -0.006021 242511.000000 1 0 0
-12.785609 15.128246 -0.005510 19.807465 -0.869126 1.571075 0.021398 -0.015947 220745.000000 1 0 0
-16.212609 5.507346 -10.733310 20.208501 -0.327465 2.130728 0.045802 -0.010169 -24119.900000 1 0 0
-18.572609 2.983746 -0.400610 18.815022 -0.159292 1.592090 0.053866 -0.004004 -94684.600000 1 0 0
-9.791409 15.352346 -0.220110 18.210290 -1.003060 1.582884 0.013713 -0.008567 -12329.600000 1 0 0
-18.290609 12.254146 2.554890 22.163888 -0.590286 1.455267 0.073995 -0.010140 -71591.600000 1 0 0
-8.565609 16.400546 -7.723710 20.050019 -1.089487 1.966245 0.033889 -0.021386 -57630.000000 1 0 0
-14.732809 -1.530254 -12.657210 19.483385 0.103496 2.277909 0.004834 -0.022382 39968.500000 1 0 0
-19.094909 4.553146 -5.039210 20.266730 -0.234077 1.822077 0.053057 -0.016797 -88864.700000 1 0 0
-16.718909 8.817946 -6.213210 19.896786 -0.485345 1.888380 0.036087 0.003700 -100607.000000 1 0 0
-19.016109 1.337446 2.583290 19.237322 -0.070217 1.436104 0.027403 -0.009302 97335.300000 1 0 0
-13.470209 12.335346 -7.248410 19.650617 -0.741449 1.948583 0.017256 0.009120 43683.500000 1 0 0
-13.003209 5.022346 -13.469410 19.383818 -0.368587 2.339048 0.036398 -0.015983 4722.240000 1 0 0
-13.968709 9.493246 -6.773210 18.196783 -0.596909 1.952196 0.013870 0.000362 324684.000000 1 0 0
-6.315309 11.246746 -15.472910 20.144065 -1.059149 2.446685 0.000314 -0.029607 186864.000000 1 0 0
-15.053709 13.808046 3.336590 20.698046 -0.742265 1.408887 0.015296 -0.011165 18926.800000 1 0 0
-18.580109 8.143546 -5.037710 20.902543 -0.413076 1.814202 0.039641 0.000105 159663.000000 1 0 0
-3.864209 17.105346 -10.285710 20.330293 -1.348619 2.101256 -0.002510 0.002835 -33950.200000 1 0 0
-19.227509 -1.950054 -6.753510 20.472169 0.101074 1.906981 0.016309 -0.010377 -141215.000000 1 0 0
-10.588909 13.782446 -6.533510 18.567918 -0.915692 1.930365 0.008862 -0.007281 160544.000000 1 0 0
-19.385409 3.209346 4.385390 20.132701 -0.164067 1.351212 0.035748 0.007848 156977.000000 1 0 0
-15.515409 12.853546 0.503090 20.154272 -0.691842 1.545832 0.026933 0.011164 59595.300000 1 0 0
-17.484009 2.911246 -8.347810 19.592138 -0.164995 2.010951 0.023843 -0.015930 196175.000000 1 0 0
-16.364709 12.229346 -4.869010 21.001616 -0.641771 1.804765 0.023879 -0.000452 338641.000000 1 0 0
-10.719909 15.887246 -8.862910 21.115686 -0.977219 2.003945 0.030078 -0.007991 119441.000000 1 0 0
-19.244809 1.491646 -6.906810 20.501017 -0.077354 1.914420 0.047640 -0.021234 108103.000000 1 0 0
-17.126009 10.552646 -0.366810 20.119470 -0.552229 1.589029 0.028804 0.009285 45300.300000 1 0 0
-11.488809 7.060646 -14.849310 20.058601 -0.551062 2.404307 0.019550 -0.008254 220853.000000 1 0 0
-13.948209 13.549646 -4.980510 20.073638 -0.770905 1.821527 0.035511 0.014009 257705.000000 1 0 0
-18.960009 7.725846 -0.088910 20.473850 -0.386939 1.575139 0.048939 -0.003643 139102.000000 1 0 0
-14.585609 8.869146 -10.461810 20.021269 -0.546336 2.120618 0.026701 -0.005645 622626.000000 1 0 0
-18.617209 11.504246 4.822790 22.409986 -0.553504 1.353892 0.043574 -0.018730 173934.000000 1 0 0
-8.119309 11.780946 -13.809910 19.885359 -0.967362 2.338488 -0.000615 -0.012543 467961.000000 1 0 0
-21.076609 -1.744954 -5.226510 21.784966 0.082603 1.813073 0.022206 -0.020660 225235.000000 1 0 0
-10.943509 13.573246 -3.424110 17.768453 -0.892252 1.764717 0.018381 0.006605 598150.000000 1 0 0
-18.931109 -4.819254 3.785890 19.898368 0.249273 1.379368 0.036503 -0.004305 71980.900000 1 0 0
-11.273709 11.660846 -12.843210 20.688642 -0.802277 2.240541 0.030639 -0.015166 235415.000000 1 0 0
-14.880809 11.607246 -10.270010 21.485803 -0.662435 2.069162 0.042607 -0.007256 25592.800000 1 0 0
-12.711609 9.739846 -14.057010 21.308429 -0.653799 2.291206 0.049899 -0.021977 340055.000000 1 0 0
-18.532009 -4.783454 -2.883910 19.355457 0.252605 1.720350 0.017907 -0.006287 -271392.000000 1 0 0
-9.308509 12.351846 -11.679610 19.381170 -0.924987 2.217585 0.014473 -0.017150 -100981.000000 1 0 0
-15.790809 7.505846 -8.483610 19.433451 -0.443718 2.022553 0.024265 0.000802 21883.700000 1 0 0
-14.465109 8.893546 2.078690 17.107177 -0.551251 1.448985 0.006547 0.001286 -99254.300000 1 0 0
-19.731409 6.353646 7.822390 22.155972 -0.311522 1.209956 0.031210 -0.005474 320198.000000 1 0 0
-19.009009 5.900646 3.520090 20.212647 -0.300983 1.395751 0.023665 0.000437 223859.000000 1 0 0
-14.468109 12.606946 6.017090 20.111356 -0.716765 1.266954 0.007393 -0.014595 62950.900000 1 0 0
18.009991 6.245346 5.625790 19.874950 0.333795 1.283814 0.039220 -0.018216 225095.000000 1 0 0
18.803591 7.926946 0.287990 20.408195 0.398958 1.556684 0.049624 0.008177 88033.600000 1 0 0
16.773591 4.289346 8.609190 19.335718 0.250355 1.109345 0.051716 -0.008571 53664.800000 1 0 0
12.036291 13.009446 10.766990 20.737552 0.824234 1.024879 0.037517 -0.012654 119944.000000 1 0 0
15.760291 12.152346 4.034690 20.306280 0.656852 1.370773 0.039609 -0.005422 226710.000000 1 0 0
5.399291 10.382246 14.514790 18.644637 1.091237 0.678529 -0.001895 0.002099 115968.000000 1 0 0
13.158891 13.076846 -5.365310 19.311832 0.782271 1.852326 0.045717 -0.012939 279424.000000 1 0 0
16.899791 9.525546 -2.178010 19.521339 0.513262 1.682600 -0.034087 -0.001197 -189821.000000 1 0 0
14.750891 7.382246 9.529290 19.049769 0.464016 1.046930 0.046680 -0.006002 240006.000000 1 0 0
4.641591 19.288246 -1.784110 19.918932 1.334643 1.660485 0.005025 -0.005514 470204.000000 1 0 0
-4.462409 19.760346 3.824390 20.615779 -1.348695 1.384208 0.003546 0.010553 289026.000000 1 0 0
6.779791 12.666046 12.724090 19.191059 1.079330 0.845948 0.008616 -0.001863 -32337.700000 1 0 0
0.052591 17.221146 -10.326910 20.080232 1.567742 2.110967 0.018404 0.009051 -32899.100000 1 0 0
10.698391 9.508146 15.662190 21.217083 0.726562 0.740416 0.025547 -0.009275 188322.000000 1 0 0
-1.166509 12.038046 1.051790 12.140081 -1.474196 1.484050 -0.002803 0.000419 359709.000000 1 0 0
-4.867109 19.116846 -2.619710 19.899885 -1.321495 1.702824 0.011249 0.005321 197578.000000 1 0 0
6.073491 18.412146 6.249290 20.370273 1.252172 1.258983 0.028781 -0.015167 158424.000000 1 0 0
11.149891 17.353446 -1.659510 20.693384 0.999699 1.651078 0.029196 -0.007626 309717.000000 1 0 0
18.423691 10.318846 3.447590 21.396188 0.510554 1.408960 0.026460 -0.002250 261064.000000 1 0 0
11.881691 16.549846 6.269590 21.316185 0.948136 1.272258 0.039465 0.001976 -27701.400000 1 0 0
18.081391 7.091346 -5.838610 20.280859 0.373756 1.862817 0.016414 0.005988 416397.000000 1 0 0
0.020991 15.680046 11.472990 19.429199 1.569458 0.939115 0.001637 0.014806 390438.000000 1 0 0
1.314691 20.357146 -1.824110 20.480947 1.506305 1.659978 0.017234 -0.000507 210081.000000 1 0 0
14.572891 9.647046 -1.176710 17.516258 0.584755 1.638025 0.028083 -0.001875 -19464.100000 1 0 0
9.874091 17.513346 1.365490 20.151415 1.057417 1.502983 0.026683 -0.007873 173342.000000 1 0 0
-0.070509 17.681546 -0.563410 17.690661 -1.566809 1.602650 0.000459 -0.004885 12207.900000 1 0 0
-0.372409 21.175946 1.408490 21.226004 -1.553212 1.504391 0.015070 -0.002352 249123.000000 1 0 0
6.349391 17.504546 -0.313510 18.623163 1.222828 1.587632 0.010155 -0.014818 39924.700000 1 0 0
6.567491 18.543746 -2.896610 19.884487 1.230419 1.716988 -0.003581 -0.011159 59696.500000 1 0 0
10.223491 9.887346 12.877290 19.186036 0.768685 0.834996 0.016461 -0.005168 180128.000000 1 0 0
12.876691 14.732246 8.029990 21.150153 0.852506 1.181361 0.029271 -0.009152 278267.000000 1 0 0
0.289591 17.628946 6.903690 18.934744 1.554371 1.197588 0.002404 -0.009462 167701.000000 1 0 0
7.158391 17.840846 -8.070910 20.848931 1.189225 1.968296 0.018214 -0.009820 118994.000000 1 0 0
-1.320209 18.650546 9.262990 20.865972 -1.500128 1.110819 0.037148 -0.021467 -151895.000000 1 0 0
16.276291 6.555446 -7.886910 19.237850 0.382884 1.993216 0.058263 -0.004457 -217786.000000 1 0 0
-4.905209 19.976546 -6.467210 21.562659 -1.330012 1.875412 -0.016494 -0.002022 249966.000000 1 0 0
3.615891 15.875546 9.687890 18.946315 1.346852 1.034060 0.008893 -0.006390 332341.000000 1 0 0
9.168791 15.042446 7.897690 19.305839 1.023400 1.149347 0.019349 0.008181 -7209.090000 1 0 0
-2.506609 19.315246 6.543390 20.546965 -1.441744 1.246692 0.006713 -0.014138 120840.000000 1 0 0
4.758891 17.989646 8.514290 20.463811 1.312185 1.141682 0.019939 -0.014608 -59794.700000 1 0 0
13.730591 11.168446 -7.038110 19.047265 0.682858 1.949275 -0.034608 -0.030294 -72537.100000 1 0 0
11.218591 7.144246 16.402490 21.117261 0.567055 0.681333 0.005284 0.004738 108223.000000 1 0 0
16.912891 8.765846 5.009590 19.697257 0.478175 1.313642 0.031016 -0.013288 152740.000000 1 0 0
5.244191 14.626846 11.728190 19.467835 1.226541 0.924243 -0.003974 -0.034205 452375.000000 1 0 0
16.443791 11.360146 -4.940310 20.587808 0.604557 1.813124 0.069646 0.032210 114751.000000 1 0 0
15.446491 13.211646 6.183290 21.245582 0.707573 1.275484 0.037249 -0.009920 282747.000000 1 0 0
12.562991 14.325646 -7.860910 20.611812 0.850858 1.962084 0.046520 -0.022017 236467.000000 1 0 0
-8.746509 15.260446 9.598690 20.037901 -1.050354 1.071251 0.040660 -0.025173 210518.000000 1 0 0
-4.419209 16.500846 -7.318210 18.583959 -1.309120 1.975549 -0.006701 -0.006989 118750.000000 1 0 0
2.185291 20.193946 -4.255210 20.752777 1.463001 1.777304 0.007432 0.000031 115866.000000 1 0 0
6.990891 16.543046 9.302890 20.225941 1.170971 1.092859 0.019814 -0.006032 562467.000000 1 0 0
13.519491 15.397046 -1.412410 20.538758 0.850237 1.639619 0.060922 -0.011903 195337.000000 1 0 0
12.680591 16.716246 4.218490 21.401540 0.921827 1.372386 0.033208 -0.004017 346470.000000 1 0 0
2.329791 18.573646 0.726790 18.733299 1.446013 1.531990 0.001289 -0.010307 -11140.100000 1 0 0
-6.664009 18.008146 1.734890 19.279839 -1.216368 1.480690 -0.024323 0.023561 229058.000000 1 0 0
0.564591 19.766746 -5.959010 20.653155 1.542241 1.863485 0.024625 -0.002289 282273.000000 1 0 0
-7.223909 17.909646 -6.162110 20.270962 -1.187403 1.879671 0.021273 -0.017372 -19341.300000 1 0 0
-7.601809 18.613846 -1.221910 20.143382 -1.183074 1.631494 0.018206 -0.004085 -141554.000000 1 0 0
-14.663109 -8.907554 8.578590 19.181853 0.545902 1.107137 0.038845 -0.017954 369184.000000 1 0 0
-13.418409 -13.491254 7.927290 20.613335 0.788105 1.176053 0.037993 -0.005106 -65122.600000 1 0 0
-3.630309 -15.968154 12.719290 20.735029 1.347249 0.910412 0.013368 -0.003070 84802.800000 1 0 0
-2.261109 -14.731754 14.482690 20.781855 1.418499 0.799743 0.011892 -0.030086 274089.000000 1 0 0
-6.853709 -13.871654 13.770190 20.712659 1.111896 0.843543 -0.012646 -0.000028 -16304.800000 1 0 0
-10.001309 -11.338654 11.567290 19.036635 0.847985 0.917719 0.035852 -0.003351 99130.000000 1 0 0
-7.385409 -10.418154 12.763490 18.055162 0.954123 0.785667 0.019498 -0.014831 481335.000000 1 0 0
-15.253109 -12.196754 7.567590 20.944846 0.674512 1.201124 0.027492 0.002988 164251.000000 1 0 0
-4.786009 -12.490754 13.672390 19.127443 1.204887 0.774451 0.021506 -0.008255 311639.000000 1 0 0
3.447591 -12.194354 14.206590 19.037210 -1.295267 0.728380 0.001862 0.002575 637342.000000 1 0 0
6.934791 -13.465754 14.404090 20.902049 -1.095225 0.810518 0.028688 -0.006032 390246.000000 1 0 0
7.076791 -9.250354 16.797590 20.440378 -0.917746 0.606260 0.015790 -0.001941 655247.000000 1 0 0
-5.322509 13.151646 13.539790 19.611752 -1.186242 0.808766 0.020154 -0.015645 487723.000000 1 0 0
-13.285709 -2.357554 17.650190 22.217051 0.175622 0.652706 0.029866 -0.007376 307273.000000 1 0 0
-10.062309 10.795946 14.024490 20.358999 -0.820556 0.810882 0.011200 0.023119 403245.000000 1 0 0
-7.078409 -8.388954 17.144090 20.356774 0.869926 0.569481 0.036216 -0.010915 210457.000000 1 0 0
-5.072509 2.042846 18.281690 19.082027 -0.382857 0.290649 0.012343 -0.009051 593677.000000 1 0 0
-15.673909 -3.757154 14.238590 21.506396 0.235268 0.847228 0.039775 -0.017182 5442.650000 1 0 0
-14.612609 2.832546 12.451090 19.405703 -0.191468 0.874188 0.003525 0.002748 261233.000000 1 0 0
-13.510009 10.883046 10.553890 20.306295 -0.678119 1.024256 -0.058159 0.027204 -1800.630000 1 0 0
-3.440609 11.381646 15.779790 19.758073 -1.277236 0.645747 -0.013185 -0.004258 207567.000000 1 0 0
-13.105009 13.320846 8.030190 20.338883 -0.793566 1.164925 0.007823 -0.024891 107294.000000 1 0 0
-4.011709 -6.290054 18.584390 20.025937 1.003055 0.381745 0.017547 -0.012652 308786.000000 1 0 0
0.646291 -2.788254 17.994090 18.220300 -1.343028 0.157741 0.003409 -0.016938 -3149.780000 1 0 0
-4.611809 6.428946 21.003390 22.444209 -0.948520 0.360262 0.022420 -0.011672 310751.000000 1 0 0
1.781491 -10.800654 16.818890 20.067459 -1.407325 0.576973 -0.006489 0.006221 349416.000000 1 0 0
-14.818509 -0.274654 14.081590 20.443943 0.018532 0.810977 -0.005409 -0.001143 -86957.900000 1 0 0
-14.193309 -5.790554 7.763490 17.182908 0.387365 1.101998 0.026524 -0.006816 114082.000000 1 0 0
10.139291 1.201146 16.055190 19.026747 0.117915 0.566430 0.023499 0.001489 419904.000000 1 0 0
-7.475109 12.387646 11.911290 18.740594 -1.027857 0.882027 0.013876 -0.017375 94344.500000 1 0 0
-1.661209 7.250646 19.699390 21.057005 -1.345572 0.361049 0.014203 -0.028424 427238.000000 1 0 0
0.747191 -14.064954 15.861390 21.212376 -1.517722 0.726141 -0.010879 0.013538 421057.000000 1 0 0
-3.097409 -11.160454 18.009890 21.412749 1.300075 0.571515 0.012496 -0.012305 437910.000000 1 0 0
-2.279409 8.201346 16.428790 18.503052 -1.299707 0.478045 0.013359 -0.026655 206106.000000 1 0 0
-5.258309 -8.772054 20.578590 22.979928 1.030790 0.461237 0.071837 -0.028458 186479.000000 1 0 0
-6.581209 -2.813254 19.021690 20.323666 0.403959 0.359883 0.023648 -0.025333 217533.000000 1 0 0
-10.614509 -7.938754 16.208690 20.938320 0.642166 0.685479 0.048159 -0.018032 206903.000000 1 0 0
-0.676309 6.072046 17.789990 18.809861 -1.459873 0.330809 0.012729 -0.014057 -20077.800000 1 0 0
-5.783009 -11.274854 19.245790 23.042699 1.096872 0.582258 0.041594 -0.000764 446484.000000 1 0 0
-0.029409 3.334246 18.534990 18.832523 -1.561976 0.177992 0.011600 -0.019629 86075.400000 1 0 0
-17.924409 -1.090254 7.732190 19.551467 0.060750 1.164207 0.002038 0.001290 59450.200000 1 0 0
-1.615109 -8.529554 17.507590 19.541688 1.383657 0.460321 0.004833 -0.011224 196463.000000 1 0 0
5.622091 3.428646 14.895590 16.286256 0.547632 0.416251 0.002907 -0.004653 234805.000000 1 0 0
-13.591709 -6.681254 10.403190 18.373897 0.456880 0.968915 0.013326 -0.005350 127605.000000 1 0 0
3.290291 8.011246 17.207490 19.264054 1.181092 0.466288 0.008471 0.002582 117774.000000 1 0 0
6.525191 4.406246 17.541590 19.227597 0.593933 0.421899 0.021184 -0.021811 219070.000000 1 0 0
5.220091 -9.342854 18.511390 21.382465 -1.061279 0.524194 0.014421 0.014175 386694.000000 1 0 0
-4.394109 -0.742154 19.705590 20.203199 0.167318 0.222405 0.008662 -0.015976 610083.000000 1 0 0
-11.113009 1.722446 17.143190 20.502555 -0.153770 0.580572 0.046189 -0.007671 70089.000000 1 0 0
-16.864009 -3.673754 8.834690 19.389250 0.214495 1.097695 0.038606 -0.014635 526757.000000 1 0 0
-13.046709 -9.565754 11.767790 20.005028 0.632657 0.941914 0.025827 -0.020301 169582.000000 1 0 0
-14.758509 6.533346 13.037090 20.747624 -0.416753 0.891346 0.013554 -0.009757 326768.000000 1 0 0
1.298991 9.286446 17.099890 19.502095 1.431818 0.501582 -0.003394 -0.007538 85357.900000 1 0 0
-3.820209 -10.424654 15.101890 18.743919 1.219535 0.633948 0.012898 -0.006233 536792.000000 1 0 0
-18.694209 -2.985854 6.584790 20.043658 0.158383 1.236058 0.102593 -0.019156 -263006.000000 1 0 0
-0.748809 -0.561854 20.777990 20.799069 0.643712 0.045025 0.014926 -0.020376 237373.000000 1 0 0
-2.027009 2.435146 20.251890 20.498238 -0.876611 0.155191 0.004892 -0.015856 179907.000000 1 0 0
-8.071209 2.157346 16.404890 18.409752 -0.261183 0.471038 0.010128 0.010921 613535.000000 1 0 0
2.624091 -2.146454 18.955590 19.256363 -0.685609 0.176976 0.004714 -0.004644 -105227.000000 1 0 0
-13.196409 4.343146 14.306290 19.941867 -0.317950 0.770734 0.032894 -0.002738 175889.000000 1 0 0
-13.591809 -5.915654 13.619590 20.130213 0.410509 0.827695 0.038940 0.000022 21730.700000 1 0 0
-16.850109 -0.727054 10.480390 19.856821 0.043122 1.014790 0.004806 -0.001886 174185.000000 1 0 0
-7.314109 7.801246 14.697790 18.176377 -0.817615 0.628993 0.010673 -0.014326 -43661.100000 1 0 0
-9.663409 0.746546 13.984890 17.015168 -0.077102 0.606045 0.021143 -0.003172 320464.000000 1 0 0
7.239791 -0.825754 14.608590 16.325053 -0.113567 0.462685 0.003368 -0.008691 88411.300000 1 0 0
3.989291 6.049246 18.502490 19.870832 0.987793 0.373275 0.007006 -0.008083 53854.000000 1 0 0
1.973691 0.669146 19.838690 19.947853 0.326871 0.104665 0.010189 -0.012336 256973.000000 1 0 0
-7.026909 7.199846 17.495190 20.181598 -0.797553 0.521871 0.015884 -0.016926 680914.000000 1 0 0
7.585891 -3.970254 16.427390 18.524789 -0.482171 0.480468 0.007966 -0.002661 249905.000000 1 0 0
-16.417709 2.675746 9.287990 19.051707 -0.161559 1.061555 0.014585 -0.002830 266834.000000 1 0 0
3.510491 -6.243754 19.023690 20.327538 -1.058604 0.360110 -0.001407 -0.015028 128326.000000 1 0 0
-3.629409 -3.847554 20.550290 21.220054 0.814565 0.251914 0.012299 -0.020324 387743.000000 1 0 0
-10.022209 6.075546 14.423290 18.584624 -0.544972 0.682359 0.028667 -0.007515 109295.000000 1 0 0
6.809991 2.734346 19.794790 21.111285 0.381816 0.355018 0.030388 -0.011045 87072.400000 1 0 0
-7.484109 11.409746 14.512490 19.920004 -0.990257 0.754610 0.031174 -0.023984 257292.000000 1 0 0
-14.355009 5.298246 10.046590 18.304963 -0.353577 0.989814 -0.006527 0.006644 406927.000000 1 0 0
0.488391 -5.543054 20.683790 21.419224 -1.482915 0.262806 0.001074 -0.009840 129211.000000 1 0 0
-6.450409 -8.287554 13.565390 17.155499 0.909412 0.658794 0.022135 -0.005058 405743.000000 1 0 0
-12.664009 9.936646 6.919390 17.521188 -0.665303 1.164820 -0.017541 -0.023728 111016.000000 1 0 0
-19.345109 1.768246 7.648190 20.877135 -0.091152 1.195721 -0.000891 0.000411 92311.400000 1 0 0
-15.499409 9.200146 6.057090 19.014802 -0.535686 1.246601 -0.015780 -0.011340 80630.200000 1 0 0
-11.484109 8.044346 13.655790 19.572350 -0.611046 0.798603 -0.035053 -0.020773 277803.000000 1 0 0
-16.496509 9.174846 10.850290 21.772492 -0.507567 1.049103 0.012791 -0.014452 286641.000000 1 0 0
2.793591 10.494846 14.956390 18.483494 1.310642 0.628049 -0.003495 -0.022864 386450.000000 1 0 0
2.066791 15.372846 13.017890 20.249975 1.437153 0.872571 -0.002831 -0.002526 572470.000000 1 0 0
8.778491 4.932246 16.448490 19.285792 0.511900 0.549317 0.012327 -0.003978 -119.647000 1 0 0
-0.161909 13.357846 13.398690 18.920443 -1.558676 0.783908 -0.005960 0.007060 303492.000000 1 0 0
4.148191 12.734546 14.614590 19.823279 1.255892 0.741815 0.006636 -0.001210 154101.000000 1 0 0
-3.532509 -4.573354 -13.303210 14.504123 0.913106 2.731796 -0.001474 -0.009147 138089.000000 1 0 0
5.576591 -12.124954 16.793290 21.450582 -1.139718 0.671511 -0.025487 0.013666 234034.000000 1 0 0
8.775091 -13.861554 7.184190 17.909704 -1.006427 1.158042 0.008051 -0.006493 135921.000000 1 0 0
-0.464109 15.189146 0.406890 15.201681 -1.540251 1.544027 0.001013 -0.002559 -236024.000000 1 0 0
-14.312209 7.914846 8.430590 18.399972 -0.505154 1.094844 0.008105 -0.008506 -143878.000000 1 0 0
-15.976209 -9.609654 5.644890 19.479463 0.541520 1.276792 0.012232 0.000263 174688.000000 1 0 0
8.846491 -11.613454 11.431590 18.542221 -0.919821 0.906485 -0.001211 0.012448 -116325.000000 1 0 0
-25.891869 6.365046 30.975293 40.870179 -0.241052 0.710716 0.038793 -0.018096 292368.000000 0 0 1
-24.732709 5.595646 30.644033 39.775306 -0.222499 0.691283 0.041446 -0.018195 413538.000000 0 0 1
-23.695809 5.799346 31.577343 39.903038 -0.240023 0.657779 0.027509 -0.012743 -182784.000000 0 0 1
-22.421209 5.024146 31.205903 38.752562 -0.220439 0.634682 0.030972 -0.015484 -292606.000000 0 0 1
-22.404909 3.631246 31.289233 38.654651 -0.160677 0.627572 0.040006 -0.016027 211464.000000 0 0 1
-21.148109 3.108746 30.862673 37.542129 -0.145953 0.605740 0.025443 -0.012065 419854.000000 0 0 1
-20.587809 1.976846 31.758833 37.899727 -0.095727 0.577244 0.014143 -0.009702 -296329.000000 0 0 1
-21.095409 0.679146 31.561973 37.968878 -0.032183 0.589428 0.019666 -0.013370 149092.000000 0 0 1
-20.549309 -0.220854 32.557591 38.500904 0.010747 0.563048 0.011962 -0.005468 26183.400000 0 0 1
-21.105609 -1.653654 32.583183 38.856726 0.078192 0.576186 0.027892 -0.019947 -384511.000000 0 0 1
-20.793509 -2.598354 31.541033 37.867641 0.124315 0.586418 0.051320 -0.028052 -38945.100000 0 0 1
-21.043509 -4.008554 31.858983 38.391309 0.188234 0.591960 0.058795 -0.028730 -86444.000000 0 0 1
-22.473609 -4.616654 31.810663 39.221103 0.202607 0.624835 0.036996 -0.019568 -27083.600000 0 0 1
-23.412009 -4.122754 32.728990 40.451280 0.174309 0.628183 0.030120 -0.012077 -19969.700000 0 0 1
-23.268009 -4.496354 34.080921 41.510561 0.190889 0.607604 0.027612 -0.010564 -448397.000000 0 0 1
-24.627909 -4.180354 -33.822390 42.047156 0.168138 2.505447 0.012416 -0.002371 169376.000000 0 0 1
-24.665009 -4.767054 -32.539780 41.108694 0.190918 2.484145 0.027234 0.002262 650664.000000 0 0 1
-25.783779 -4.318554 -31.757840 41.134093 0.165951 2.452867 0.032431 0.007953 196008.000000 0 0 1
-25.766009 -4.952154 -30.306990 40.086465 0.189882 2.428039 0.028181 0.005056 -880624.000000 0 0 1
-25.950839 -6.370754 -30.366930 40.449759 0.240732 2.419966 0.026687 0.005461 506672.000000 0 0 1
-25.989749 -6.968154 -29.139740 39.662913 0.261951 2.395998 0.016561 0.003126 -154876.000000 0 0 1
-26.152299 -8.503154 -29.275520 40.165936 0.314358 2.387458 0.022554 0.004471 263091.000000 0 0 1
-27.545029 -8.783954 -29.221370 41.106872 0.308700 2.361521 0.032029 0.003673 200485.000000 0 0 1
-27.694849 -10.068354 -28.708910 41.140952 0.348691 2.343143 0.030162 -0.005295 397745.000000 0 0 1
-29.117879 -10.443654 -28.205600 41.862593 0.344376 2.310090 0.050233 -0.002082 417634.000000 0 0 1
-29.241409 -11.436254 -27.217850 41.553090 0.372809 2.284997 0.050660 -0.005656 -331097.000000 0 0 1
-30.592589 -11.529254 -26.828940 42.292106 0.360404 2.257993 0.035797 0.001785 49173.100000 0 0 1
-30.686169 -12.354154 -25.563850 41.806417 0.382743 2.228728 0.034996 -0.004029 15631.600000 0 0 1
-29.976389 -11.792854 -24.464310 40.449447 0.374808 2.220326 0.036285 -0.002604 333203.000000 0 0 1
-29.947479 -12.556954 -23.278310 39.955079 0.397032 2.192735 0.029679 -0.006458 -277805.000000 0 0 1
-29.417929 -11.653154 -22.136810 38.616692 0.377161 2.181257 0.042336 -0.009867 47285.300000 0 0 1
-29.221119 -12.244054 -20.865210 37.936100 0.396789 2.153172 0.027866 -0.007563 998962.000000 0 0 1
-28.097009 -13.155954 -20.750610 37.324374 0.437913 2.160306 0.037714 -0.010264 176169.000000 0 0 1
-27.715699 -13.418554 -19.284610 36.333370 0.450887 2.130303 0.043829 -0.017544 -112270.000000 0 0 1
-27.113499 -12.316554 -18.651510 35.138557 0.426390 2.130339 0.045121 -0.017411 106026.000000 0 0 1
-26.816679 -12.663354 -17.282710 34.324727 0.441177 2.098448 0.044659 -0.015430 55846.800000 0 0 1
-26.566109 -11.443054 -16.358910 33.231244 0.406721 2.085498 0.047216 -0.016757 771541.000000 0 0 1
-25.320109 -10.754754 -16.606110 32.133091 0.401660 2.113895 0.049704 -0.019536 978860.000000 0 0 1
-25.207269 -9.518054 -15.893910 31.282841 0.361041 2.103740 0.060995 -0.023292 -240108.000000 0 0 1
-23.844309 -8.809554 -16.154110 30.118343 0.353906 2.136908 0.061132 -0.016441 247000.000000 0 0 1
-22.938109 -9.319454 -15.186710 29.045572 0.385914 2.120997 0.045640 -0.018317 -939348.000000 0 0 1
-21.772209 -8.582154 -15.207410 27.909636 0.375478 2.147043 0.043112 -0.034416 -863705.000000 0 0 1
-20.761409 -9.045154 -14.145810 26.701215 0.410875 2.129139 0.026936 -0.016036 -380616.000000 0 0 1
-20.129109 -10.229254 -14.506710 26.837722 0.470172 2.141868 0.024361 -0.010409 -95302.100000 0 0 1
-19.047309 -10.492454 -13.629810 25.664436 0.503505 2.130668 0.034809 -0.008877 46397.100000 0 0 1
-18.095109 -11.641754 -13.983010 25.661021 0.571697 2.147081 0.042272 -0.004822 -3341.970000 0 0 1
-17.372809 -11.453154 -15.211310 25.775438 0.582856 2.202038 0.047400 -0.012796 722864.000000 0 0 1
-18.205709 -11.321154 -16.398510 26.991249 0.556328 2.223768 0.039383 -0.016418 163591.000000 0 0 1
-17.364009 -10.966054 -17.673210 27.094381 0.563288 2.281389 0.038653 -0.011578 206810.000000 0 0 1
-18.181209 -10.847454 -18.836510 28.337920 0.537938 2.297902 0.021403 -0.000783 259546.000000 0 0 1
-17.532909 -10.421454 -20.001010 28.566589 0.536287 2.346409 0.027628 -0.005773 -168454.000000 0 0 1
-18.309809 -10.805054 -21.314610 30.104998 0.533126 2.357471 0.050648 -0.002261 -814766.000000 0 0 1
-19.499509 -10.136554 -21.402010 30.676157 0.479390 2.342944 0.028485 -0.009639 -1504170.000000 0 0 1
-20.404809 -10.798454 -22.185510 32.018115 0.486743 2.336306 0.040173 -0.001033 141731.000000 0 0 1
-21.560009 -9.855954 -22.691410 32.815757 0.428776 2.334331 0.030952 -0.005877 591508.000000 0 0 1
-21.045809 -8.869954 -23.593210 32.836591 0.398868 2.372445 0.031908 -0.014819 791831.000000 0 0 1
-22.113209 -8.310554 -24.351610 33.927279 0.359488 2.371375 0.038012 -0.017682 168916.000000 0 0 1
-21.513909 -7.522854 -25.510400 34.208510 0.336384 2.412430 0.021666 -0.021452 -51460.400000 0 0 1
-20.745909 -8.377354 -26.342980 34.561907 0.383784 2.437496 0.031805 -0.021340 160872.000000 0 0 1
-20.141709 -7.593654 -27.354760 34.808547 0.360533 2.474887 0.026508 -0.028671 -485022.000000 0 0 1
-18.956209 -8.272554 -28.038860 34.841795 0.411490 2.506047 0.040848 -0.022591 -592308.000000 0 0 1
-19.217309 -9.312154 -28.914890 35.945682 0.451229 2.505470 0.042159 -0.011725 262422.000000 0 0 1
-18.007309 -9.893754 -29.380230 35.851743 0.502405 2.531321 0.026491 -0.005885 102498.000000 0 0 1
-18.209909 -11.180854 -30.245060 37.032093 0.550649 2.526510 0.028494 -0.000994 -229103.000000 0 0 1
-18.693509 -10.953854 -31.560170 38.281569 0.530040 2.539977 0.026125 0.002794 369278.000000 0 0 1
-18.710809 -12.128954 -32.338180 39.280578 0.575132 2.537929 0.021579 0.008360 -120530.000000 0 0 1
-19.298809 -11.781854 -33.733410 40.610332 0.548102 2.551090 0.014685 0.009059 318518.000000 0 0 1
-18.454909 -10.995554 33.985095 40.205380 0.537330 0.563694 0.015848 0.002753 324019.000000 0 0 1
-18.873409 -10.989054 32.621383 39.257095 0.527266 0.589951 0.008820 -0.000195 -92982.100000 0 0 1
-18.701709 -12.226454 31.775253 38.844650 0.579015 0.612856 0.016941 0.000266 219009.000000 0 0 1
-17.358609 -12.354954 31.319963 37.880157 0.618567 0.597371 0.029477 -0.006661 548560.000000 0 0 1
-17.190509 -13.298054 30.270433 37.264608 0.658416 0.622693 0.037863 -0.006325 -43456.500000 0 0 1
-17.218009 -14.840754 30.559963 38.086995 0.711381 0.639536 0.032176 0.004896 -44538.100000 0 0 1
-18.518109 -15.375554 30.810583 39.097571 0.692944 0.663172 0.013200 0.007292 389066.000000 0 0 1
-18.532009 -16.740454 31.129993 39.909330 0.734650 0.676102 0.020053 -0.002094 -411939.000000 0 0 1
-18.663509 -16.907354 32.675305 41.253615 0.736068 0.656621 0.000602 -0.002035 -1109460.000000 0 0 1
-17.601509 -16.397554 33.375322 41.141282 0.750002 0.624532 0.012850 0.003212 -859847.000000 0 0 1
-17.912809 -16.051754 -33.892710 41.560117 0.730659 2.524407 0.010249 0.004977 256587.000000 0 0 1
-16.677709 -15.641054 -33.029960 40.171716 0.753333 2.536096 0.007152 0.005222 145756.000000 0 0 1
-16.188809 -14.383354 -33.398790 39.804994 0.726411 2.566350 0.009154 0.006457 -77383.400000 0 0 1
-15.002909 -13.972254 -32.742100 38.631027 0.749843 2.582166 0.017972 0.002237 6347.980000 0 0 1
-15.207009 -13.586354 -31.228320 37.296784 0.729172 2.563109 0.029541 0.001383 -409302.000000 0 0 1
-15.391309 -14.675954 -30.354240 37.062864 0.761611 2.530451 0.022958 -0.002215 -146900.000000 0 0 1
-15.594909 -14.236954 -29.036680 35.902936 0.739909 2.512829 0.027661 -0.001688 -380697.000000 0 0 1
-15.628309 -15.465954 -28.068410 35.654949 0.780177 2.477090 0.041528 -0.005582 922486.000000 0 0 1
-14.348509 -16.056354 -27.754720 35.128488 0.841509 2.481755 0.032569 -0.012757 870552.000000 0 0 1
-13.660009 -16.672754 -28.852180 36.014231 0.884397 2.499982 0.020289 -0.013671 924196.000000 0 0 1
-12.153509 -16.998254 -28.465960 35.312311 0.950083 2.508362 0.005658 -0.009259 1337010.000000 0 0 1
-11.282409 -15.868454 -28.499270 34.515344 0.952728 2.542236 0.012386 -0.009124 -1283150.000000 0 0 1
-10.017109 -16.275854 -28.149900 34.024444 1.019088 2.545158 0.022581 -0.015592 -784747.000000 0 0 1
-9.093909 -15.042254 -27.974370 33.038371 1.027032 2.580593 0.019421 -0.015717 -256716.000000 0 0 1
-9.239709 -14.334754 -26.760650 31.733102 0.998250 2.574198 0.021833 -0.018846 124534.000000 0 0 1
-8.156409 -13.440254 -26.519180 30.829115 1.025345 2.606456 0.022367 -0.017430 158074.000000 0 0 1
-8.043309 -12.184554 -27.429220 31.072822 0.987337 2.652458 0.018433 -0.027295 -373259.000000 0 0 1
-7.632209 -12.346754 -28.722010 32.181467 1.017134 2.673658 0.030177 -0.023533 65445.700000 0 0 1
-7.595709 -11.110554 -29.367360 32.304505 0.971129 2.711865 0.028746 -0.026389 574.681000 0 0 1
-6.562709 -11.095054 -30.526960 33.137059 1.036651 2.742035 0.023804 -0.013791 -265426.000000 0 0 1
-5.210309 -11.048654 -30.149530 32.530205 1.130143 2.756641 0.040655 -0.015432 464526.000000 0 0 1
-4.273009 -10.720454 -31.182350 33.249446 1.191511 2.787123 0.037153 -0.016807 217176.000000 0 0 1
-4.189109 -9.180054 -31.399930 32.981474 1.142693 2.830656 0.021577 -0.012882 -671643.000000 0 0 1
-2.976909 -8.754154 -32.021990 33.330242 1.243007 2.860485 0.015903 -0.014103 313247.000000 0 0 1
-3.141709 -7.398454 -32.497060 33.476355 1.169227 2.899118 0.006051 -0.012794 1126450.000000 0 0 1
-1.798809 -6.803254 -33.118210 33.857581 1.312307 2.932224 0.019511 -0.015127 1052780.000000 0 0 1
-1.318609 -7.425254 -34.267135 35.087172 1.395044 2.924968 0.026688 -0.022110 -306160.000000 0 0 1
-0.099409 -6.798454 33.974043 34.647720 1.556175 0.197519 0.027137 -0.007333 -69633.200000 0 0 1
0.425991 -7.336554 32.640255 33.457328 -1.512797 0.221456 0.019100 -0.008355 -498186.000000 0 0 1
-0.106409 -6.752254 31.439993 32.157075 1.555039 0.211578 0.016680 -0.009785 186270.000000 0 0 1
0.205691 -7.531854 30.277363 31.200799 -1.543494 0.243900 0.010475 -0.010226 -84168.100000 0 0 1
-0.232309 -6.900154 28.992583 29.803288 1.537142 0.233778 0.010352 -0.009758 -487927.000000 0 0 1
0.557491 -5.788654 28.726063 29.308805 -1.474785 0.199745 0.018027 -0.012037 -175942.000000 0 0 1
0.318691 -5.177154 27.465023 27.950528 -1.509317 0.186658 0.022101 -0.005987 489863.000000 0 0 1
-0.993609 -4.304854 27.322343 27.677238 1.343957 0.160313 0.020382 0.002815 1269580.000000 0 0 1
-2.180409 -5.091654 27.489333 28.041801 1.166191 0.198830 0.025925 0.002882 -869362.000000 0 0 1
-3.227109 -4.338954 27.011093 27.547049 0.931305 0.197583 0.024694 -0.010012 -744955.000000 0 0 1
-4.630509 -4.892254 27.312613 28.131026 0.812877 0.241806 0.030425 -0.005503 117176.000000 0 0 1
-5.092709 -5.978654 26.502123 27.641319 0.865249 0.288096 0.026060 0.000221 22447.200000 0 0 1
-6.403609 -6.373054 26.873393 28.351390 0.783007 0.324317 0.026034 -0.004331 524725.000000 0 0 1
-6.658009 -7.854354 26.938313 28.839083 0.867648 0.365093 0.030457 -0.004426 168973.000000 0 0 1
-5.772009 -8.508354 27.822473 29.661393 0.974719 0.353973 0.027948 -0.006488 58349.600000 0 0 1
-5.911309 -9.906054 27.713863 30.018856 1.032780 0.394431 0.024586 -0.010074 221322.000000 0 0 1
-5.110209 -10.552354 28.877683 31.167082 1.119810 0.385676 0.021720 -0.013753 194381.000000 0 0 1
-5.405809 -11.928454 28.976783 31.798817 1.145296 0.424479 0.039545 -0.021577 181850.000000 0 0 1
-4.755509 -12.444354 30.113343 32.928563 1.205779 0.416513 0.047387 -0.025291 6579.060000 0 0 1
-4.789909 -14.019154 30.021023 33.477481 1.241563 0.458420 0.067337 -0.033181 985470.000000 0 0 1
-6.164709 -14.442354 30.129683 33.976213 1.167360 0.480449 0.075364 -0.036151 798897.000000 0 0 1
-6.189909 -15.843254 30.009193 34.494570 1.198336 0.515658 0.071228 -0.036613 152249.000000 0 0 1
-6.343209 -16.575354 31.355113 36.029457 1.205302 0.515060 0.073870 -0.029101 -57481.800000 0 0 1
-7.616409 -16.482054 31.953033 36.751383 1.137923 0.516734 0.072648 -0.026451 -214884.000000 0 0 1
-7.595309 -16.965254 33.229820 38.075314 1.149858 0.510011 0.065569 -0.027732 -627282.000000 0 0 1
-9.003209 -17.204654 33.792071 38.973863 1.088682 0.521557 0.054669 -0.021217 -155302.000000 0 0 1
-9.538509 -18.417754 33.307266 39.237365 1.092933 0.556960 0.053910 -0.020354 -54751.000000 0 0 1
-10.268209 -18.347054 32.107783 38.379164 1.060563 0.579760 0.057072 -0.023725 -821969.000000 0 0 1
-10.874009 -19.697254 31.785203 38.942587 1.066375 0.615981 0.063021 -0.027151 -901858.000000 0 0 1
-12.021409 -19.944254 32.541486 40.015446 1.028357 0.621127 0.058221 -0.025514 -239517.000000 0 0 1
-12.411709 -21.308754 32.478953 40.779847 1.043366 0.649401 0.049478 -0.024287 -91902.300000 0 0 1
-11.822609 -22.238654 33.583774 41.978586 1.082170 0.643465 0.054443 -0.025302 1238860.000000 0 0 1
-10.445709 -22.714654 33.521451 41.818130 1.139768 0.640828 0.047069 -0.024626 1362320.000000 0 0 1
-10.052409 -23.406854 -33.851510 42.365746 1.165150 2.496477 0.029755 -0.028507 242386.000000 0 0 1
-10.328009 -24.949754 -33.909650 43.347691 1.178320 2.469100 0.056193 -0.018905 -94692.000000 0 0 1
-9.545209 -25.636304 33.719005 43.420069 1.214367 0.681583 0.057896 -0.008325 -75676.400000 0 0 1
-9.658609 -27.043784 33.806358 44.356790 1.227769 0.704175 0.069242 -0.007569 -934233.000000 0 0 1
-8.917809 -27.708864 32.643546 43.736822 1.259426 0.728216 0.058808 -0.010817 1940360.000000 0 0 1
-7.481209 -27.418694 32.667359 43.300227 1.304429 0.715998 0.052588 -0.017633 1528600.000000 0 0 1
-6.616309 -28.196674 33.460017 44.253821 1.340317 0.713473 0.047065 -0.012420 1083340.000000 0 0 1
-5.083609 -27.787194 33.370204 43.721182 1.389849 0.702467 0.059748 -0.022356 1346660.000000 0 0 1
-4.876209 -26.523964 34.042501 43.430289 1.388985 0.669967 0.056136 -0.017262 -9279.440000 0 0 1
-5.111509 -25.398094 33.201760 42.113509 1.372194 0.662613 0.067516 -0.016228 -201415.000000 0 0 1
-4.714109 -24.047254 33.774147 41.727524 1.377216 0.627671 0.060904 -0.018231 382064.000000 0 0 1
-3.322009 -23.890854 34.027933 41.709818 1.432633 0.616641 0.045995 -0.018755 304246.000000 0 0 1
-3.022209 -22.607054 -34.042410 40.976802 1.437900 2.551291 0.045756 -0.027206 -70288.200000 0 0 1
34.211346 -15.148254 2.276290 37.484227 -0.416837 1.510032 0.091936 -0.020266 100377.000000 0 0 1
35.150166 -15.592454 3.241690 38.589731 -0.417515 1.486693 0.083814 -0.022901 286476.000000 0 0 1
34.481446 -15.995354 4.392690 38.263784 -0.434339 1.455742 0.087835 -0.021020 -64276.000000 0 0 1
35.432376 -16.166054 5.597890 39.346295 -0.428040 1.428040 0.079897 -0.005315 85246.500000 0 0 1
-35.673575 -17.275254 5.562090 40.024682 0.450976 1.431379 0.087059 -0.012179 -549425.000000 0 0 1
-34.865928 -17.355354 6.666790 39.513129 0.461865 1.401262 0.078470 -0.011096 36998.700000 0 0 1
-33.655529 -18.336754 6.513290 38.876138 0.498870 1.402463 0.057496 -0.013293 -19053.300000 0 0 1
-33.935289 -19.734654 6.510290 39.792515 0.526734 1.406452 0.067946 -0.015668 -75782.200000 0 0 1
-32.793859 -20.525054 6.804590 39.281261 0.559233 1.396691 0.041715 -0.007053 -74866.300000 0 0 1
-32.951989 -22.053954 6.923590 40.251044 0.589806 1.397926 0.041243 -0.012659 -600345.000000 0 0 1
-32.791039 -22.686454 5.697290 40.278860 0.605235 1.428874 0.053130 -0.010359 -23908.700000 0 0 1
-32.811589 -24.089154 5.929790 41.134537 0.633290 1.426136 0.072667 -0.018997 47394.400000 0 0 1
-32.151359 -24.897154 4.762990 40.942206 0.658918 1.454198 0.062497 -0.015002 343723.000000 0 0 1
-32.936419 -24.805454 3.574090 41.387104 0.645502 1.484331 0.054364 -0.012226 565196.000000 0 0 1
-32.240569 -25.430324 2.493290 41.138451 0.667854 1.510152 0.033951 -0.003677 152017.000000 0 0 1
-32.953969 -25.099814 1.179790 41.441002 0.650924 1.542323 0.039409 -0.007467 334213.000000 0 0 1
-34.223545 -25.729734 0.934190 42.826895 0.644661 1.548981 0.042849 -0.008874 670590.000000 0 0 1
-34.678566 -25.442834 -0.378210 43.012600 0.632972 1.579589 0.040320 -0.006099 -716346.000000 0 0 1
-35.575878 -24.226454 -0.379010 43.043093 0.597846 1.579602 0.051731 -0.021539 -1528530.000000 0 0 1
35.043476 -24.507854 -0.105810 42.763200 -0.610293 1.573271 0.031579 -0.010413 -449591.000000 0 0 1
34.342126 -23.410154 0.429390 41.564423 -0.598321 1.560465 0.043595 -0.013696 252025.000000 0 0 1
32.792846 -23.492454 0.433290 40.341714 -0.621641 1.560056 0.028059 -0.003113 487473.000000 0 0 1
32.310076 -23.441654 -0.922210 39.928719 -0.627650 1.593895 0.021105 -0.016957 355538.000000 0 0 1
30.893106 -23.268354 -0.897010 38.685978 -0.645539 1.593985 0.016956 -0.005939 525918.000000 0 0 1
30.369276 -23.013754 -2.327510 38.175163 -0.648473 1.631803 0.023648 -0.003765 17362.700000 0 0 1
30.825616 -21.761154 -2.821510 37.838173 -0.614704 1.645433 0.028787 -0.016952 162910.000000 0 0 1
30.711226 -21.705754 -4.234310 37.845060 -0.615255 1.682916 0.038825 -0.035825 -99140.700000 0 0 1
30.854676 -20.286054 -4.787610 37.235148 -0.581609 1.699731 0.051103 -0.036027 534697.000000 0 0 1
29.746106 -19.491254 -4.339510 35.826961 -0.580060 1.692219 0.054935 -0.030904 384915.000000 0 0 1
29.998266 -18.072054 -4.388310 35.295217 -0.542209 1.695450 0.064020 -0.030200 -118706.000000 0 0 1
29.142406 -17.274454 -3.388910 34.046605 -0.535079 1.670499 0.072536 -0.025307 -259630.000000 0 0 1
29.543746 -17.256254 -2.013610 34.273399 -0.528640 1.629582 0.074145 -0.015882 -31567.000000 0 0 1
29.921306 -18.495254 -1.273610 35.199163 -0.553644 1.606987 0.059982 -0.002397 352162.000000 0 0 1
28.825866 -19.580054 -0.915410 34.858959 -0.596666 1.597060 0.041016 -0.002870 550708.000000 0 0 1
27.935816 -19.307154 0.168290 33.958862 -0.604745 1.565841 0.037627 0.004243 321175.000000 0 0 1
27.097676 -20.443454 0.319790 33.945856 -0.646334 1.561376 0.031772 0.003582 -803149.000000 0 0 1
26.076056 -20.255854 1.408190 33.049105 -0.660433 1.528174 0.030165 0.011040 -1244350.000000 0 0 1
25.242056 -21.402954 1.545090 33.130577 -0.703279 1.524143 0.023293 0.013526 -57621.400000 0 0 1
24.457856 -21.330754 2.718990 32.566558 -0.717210 1.487209 0.014010 0.012988 -477569.000000 0 0 1
23.048656 -20.822354 2.446190 31.157580 -0.734695 1.492205 0.016668 0.009140 -1055600.000000 0 0 1
23.038256 -19.506754 1.922390 30.248476 -0.702582 1.507200 0.041011 -0.002271 97786.500000 0 0 1
23.042556 -18.466954 2.897090 29.671213 -0.675611 1.473001 0.049689 -0.006479 -274003.000000 0 0 1
22.996556 -17.080154 2.265590 28.735103 -0.638830 1.491870 0.041990 -0.002018 363130.000000 0 0 1
21.716356 -16.766454 1.728290 27.490018 -0.657474 1.507885 0.044463 -0.010641 107046.000000 0 0 1
21.616556 -15.446054 1.453790 26.607698 -0.620423 1.516131 0.056448 -0.015139 168060.000000 0 0 1
20.215856 -15.058254 0.943290 25.225417 -0.640212 1.533393 0.039619 -0.007889 57111.100000 0 0 1
19.137356 -14.963554 1.869090 24.364725 -0.663608 1.494008 0.034858 -0.008560 460721.000000 0 1 0
18.310256 -13.852054 1.575690 23.013641 -0.647660 1.502275 0.045350 -0.009441 -210193.000000 0 1 0
18.793356 -12.520254 2.172590 22.686276 -0.587684 1.474883 0.050709 -0.010533 -151894.000000 0 1 0
19.821356 -11.957354 1.366890 23.189068 -0.542810 1.511817 0.049696 -0.011898 454060.000000 0 1 0
20.146356 -10.652754 1.767990 22.857879 -0.486396 1.493372 0.041851 -0.014766 188007.000000 0 1 0
20.982656 -9.793454 0.790490 23.169127 -0.436688 1.536671 0.051110 -0.010916 496078.000000 0 1 0
20.166156 -9.579454 -0.362410 22.328706 -0.443470 1.587028 0.041822 -0.002589 1193100.000000 0 1 0
20.924356 -8.783154 -1.263110 22.728130 -0.397422 1.626400 0.044565 0.002703 42831.300000 0 1 0
20.265856 -8.652154 -2.669610 22.196655 -0.403506 1.691359 0.044184 0.001730 269441.000000 0 1 0
21.214256 -8.180054 -3.639210 23.026111 -0.368025 1.729509 0.055837 0.005827 1042160.000000 0 1 0
22.205656 -9.107754 -4.073610 24.344129 -0.389230 1.738922 0.054589 0.012125 -282956.000000 0 1 0
21.680456 -10.351654 -4.905010 24.520563 -0.445457 1.772192 0.044230 0.003307 -387453.000000 0 1 0
21.153656 -10.146654 -6.231610 24.274775 -0.447247 1.830414 0.036956 0.002044 534243.000000 0 1 0
19.872956 -9.551154 -6.275010 22.924543 -0.448016 1.848060 0.031821 -0.002267 -234600.000000 0 1 0
19.377756 -9.361254 -7.782610 22.884482 -0.450031 1.917801 0.037412 0.001061 -82431.300000 0 1 0
19.311756 -10.596054 -8.492610 23.608149 -0.501832 1.938777 0.035342 -0.000390 946532.000000 0 1 0
20.504056 -10.848454 -9.243010 24.970753 -0.486646 1.949971 0.037707 -0.006342 155965.000000 0 1 0
20.432356 -12.206554 -9.949210 25.796665 -0.538515 1.966739 0.037875 -0.004111 -48297.000000 0 0 1
19.307656 -12.275854 -10.802710 25.301793 -0.566330 2.011918 0.045976 -0.009732 264728.000000 0 0 1
19.146256 -13.626554 -11.213010 26.038312 -0.618541 2.015993 0.055736 -0.011866 61109.900000 0 0 1
18.004756 -13.873254 -12.225310 25.808848 -0.656513 2.064269 0.059657 -0.018305 -49372.800000 0 0 1
17.807256 -15.291654 -12.575410 26.628443 -0.709541 2.062643 0.060347 -0.017539 294303.000000 0 0 1
16.696656 -15.544354 -13.417110 26.465527 -0.749673 2.102457 0.077445 -0.020683 -69343.700000 0 0 1
16.523956 -16.981054 -13.834310 27.436936 -0.799040 2.099277 0.081827 -0.017092 -302186.000000 0 0 1
15.934856 -17.777154 -12.815610 27.095880 -0.839992 2.063458 0.068874 -0.011886 386184.000000 0 0 1
16.142756 -19.143354 -13.142810 28.280559 -0.870230 2.054125 0.071364 -0.017112 -417074.000000 0 0 1
15.273656 -20.071454 -12.258310 28.043074 -0.920315 2.023195 0.057394 -0.010391 133531.000000 0 0 1
13.923456 -19.860354 -12.638010 27.349874 -0.959354 2.051143 0.049695 -0.012825 -250680.000000 0 0 1
13.036756 -20.740254 -11.981810 27.270477 -1.009632 2.025693 0.035979 -0.008933 34543.700000 0 0 1
11.568156 -20.372154 -12.254710 26.439077 -1.054358 2.052746 0.026017 -0.007895 -23587.100000 0 0 1
10.689756 -20.943154 -11.323410 26.098011 -1.098849 2.019591 0.022688 -0.006312 -375591.000000 0 0 1
9.327456 -20.762654 -11.614910 25.553774 -1.148573 2.042639 0.015340 -0.000054 38748.100000 0 0 1
8.372556 -21.272954 -10.519110 25.165253 -1.195839 2.002040 0.012920 -0.001421 -183665.000000 0 0 1
8.506156 -22.627954 -10.268010 26.264254 -1.211225 1.972460 0.029186 0.000834 138008.000000 0 0 1
7.624856 -23.131654 -9.270010 26.060409 -1.252384 1.934473 0.023210 -0.012322 63374.000000 0 0 1
7.657456 -24.686854 -9.166110 27.424350 -1.270023 1.911587 0.034086 -0.005617 410613.000000 0 0 1
8.938456 -25.223954 -8.873810 28.193764 -1.230239 1.890983 0.024715 -0.000398 -87854.100000 0 0 1
9.070256 -26.530994 -9.332410 29.550923 -1.241379 1.892104 0.023855 0.002137 685229.000000 0 0 1
10.535456 -27.066644 -9.191010 30.464302 -1.199599 1.877269 0.018350 0.009510 668838.000000 0 0 1
10.822356 -27.210994 -7.850010 30.318051 -1.192257 1.832702 0.031060 -0.000087 -159540.000000 0 0 1
12.182456 -27.576214 -7.684110 31.111177 -1.154804 1.820368 0.037219 0.003665 -7592.720000 0 0 1
12.546556 -28.020194 -6.188110 31.318366 -1.149800 1.769692 0.044523 -0.009305 96098.800000 0 0 1
11.977856 -29.235354 -5.728810 32.109099 -1.181952 1.750174 0.059210 -0.017984 709947.000000 0 0 1
10.551356 -29.252314 -5.586610 31.594924 -1.224620 1.748551 0.052986 -0.015765 737623.000000 0 0 1
9.926956 -30.312664 -4.549210 32.219518 -1.254318 1.712464 0.064944 -0.023423 385691.000000 0 0 1
10.060356 -31.696304 -4.893510 33.612689 -1.263455 1.716901 0.082975 -0.025724 39087.900000 0 0 1
9.276056 -32.026434 -6.043410 33.885993 -1.288873 1.750101 0.089521 -0.025403 256495.000000 0 0 1
9.422056 -33.555344 -6.364110 35.429340 -1.297054 1.751405 0.077081 -0.022352 -171991.000000 0 0 1
8.839256 34.293839 -5.407410 35.825129 1.318536 1.722314 0.076686 -0.017013 -146881.000000 0 0 1
9.281156 32.922307 -5.513710 34.647065 1.296017 1.730615 0.072915 -0.012488 131151.000000 0 0 1
8.991856 32.078886 -4.270310 33.587854 1.297505 1.698280 0.046157 -0.004327 118756.000000 0 0 1
7.611656 31.798806 -4.226310 32.969122 1.335848 1.699340 0.042190 0.000661 -491400.000000 0 0 1
7.276556 30.742356 -3.352110 31.769125 1.338379 1.676508 0.021991 0.006407 925609.000000 0 0 1
5.827356 30.175426 -3.607410 30.943946 1.380029 1.687641 0.029588 0.001433 914375.000000 0 0 1
5.656956 29.455846 -4.792410 30.374581 1.381058 1.729235 0.033959 -0.005202 -18234.400000 0 0 1
5.356156 30.259296 -5.929910 31.296601 1.395602 1.761423 0.037695 -0.014793 -196617.000000 0 0 1
5.601156 29.515606 -7.313210 30.919686 1.383257 1.809582 0.047549 -0.022750 92700.500000 0 0 1
4.686056 28.452986 -7.608910 29.823263 1.407567 1.828782 0.040779 -0.021851 173289.000000 0 0 1
5.074556 27.152686 -7.124510 28.526796 1.386038 1.823216 0.041458 -0.014277 -255853.000000 0 0 1
4.179556 25.955286 -7.569410 27.357659 1.411138 1.851137 0.040355 -0.020308 1477580.000000 0 0 1
2.795556 26.004976 -7.106710 27.103122 1.463707 1.836108 0.038203 -0.015861 1451650.000000 0 0 1
1.822356 26.584486 -7.985410 27.817668 1.502354 1.861955 0.038949 -0.023168 638258.000000 0 0 1
1.378556 25.688666 -9.161410 27.308229 1.517184 1.912913 0.053258 -0.024446 -317944.000000 0 0 1
2.422956 25.582406 -10.115010 27.616003 1.476366 1.945797 0.042402 -0.020712 90443.400000 0 0 1
2.148256 24.774796 -11.252810 27.295260 1.484301 1.995732 0.058802 -0.013759 -545606.000000 0 0 1
1.946756 23.229006 -11.087010 25.812756 1.487185 2.014754 0.065667 -0.018274 339799.000000 0 0 1
0.805056 22.790006 -10.354210 25.044803 1.535486 1.997011 0.065220 -0.019606 253350.000000 0 0 1
0.805756 21.387006 -10.288810 23.746849 1.533139 2.018915 0.041450 -0.019853 -891355.000000 0 1 0
-0.292644 20.719506 -9.484510 22.789021 -1.556673 2.000045 0.046580 -0.009611 -65078.200000 0 1 0
-1.535444 20.763606 -10.182210 23.176762 -1.496982 2.025647 0.043978 -0.018673 684945.000000 0 1 0
-2.638444 20.172206 -9.467410 22.439053 -1.440739 2.006355 0.034950 -0.010287 346228.000000 0 1 0
-4.014944 20.533206 -10.047510 23.209583 -1.377698 2.018508 0.038436 -0.012036 -560275.000000 0 1 0
-4.940144 19.752006 -9.360410 22.409017 -1.325716 2.001717 0.021097 -0.019245 -562348.000000 0 1 0
-5.860544 19.168606 -10.243010 22.510013 -1.274085 2.043216 0.019082 -0.021235 -1017350.000000 0 1 0
-6.710244 18.070606 -9.563410 21.518201 -1.215243 2.031338 0.018714 -0.022979 -394454.000000 0 1 0
-7.697844 18.518006 -8.678210 21.851422 -1.176833 1.979202 0.035829 -0.017572 -548825.000000 0 1 0
-8.925244 18.773106 -9.290210 22.768344 -1.127000 1.991094 0.041102 -0.020594 -947687.000000 0 1 0
-10.050044 18.986706 -8.287810 23.025772 -1.083969 1.938996 0.056376 -0.025495 -197947.000000 0 1 0
-10.275944 17.873206 -7.443010 21.919053 -1.049010 1.917254 0.047894 -0.026115 148960.000000 0 1 0
-11.373644 18.177606 -6.566210 22.425437 -1.011697 1.867952 0.048845 -0.021895 142885.000000 0 1 0
-11.735044 17.131106 -5.581510 21.502076 -0.970199 1.833384 0.034009 -0.018722 50335.300000 0 1 0
-12.740644 17.574306 -4.670910 22.203550 -0.943515 1.782747 0.053052 -0.015574 155512.000000 0 1 0
-13.186844 16.506206 -3.841710 21.473388 -0.896725 1.750670 0.050941 -0.007294 -99950.200000 0 1 0
-14.456644 16.956706 -3.101010 22.497571 -0.864817 1.709074 0.051120 -0.003959 572507.000000 0 1 0
-15.650244 16.939706 -3.929610 23.394991 -0.824944 1.739564 0.077446 -0.019995 826859.000000 0 1 0
-16.755744 17.185806 -3.072610 24.198095 -0.798068 1.698117 0.078033 -0.014272 -572819.000000 0 1 0
-18.009844 17.432506 -3.903010 25.366912 -0.769110 1.725272 0.080437 -0.023689 -706577.000000 0 0 1
-17.870044 18.387506 -4.972310 26.118245 -0.799669 1.762342 0.078652 -0.020984 391365.000000 0 0 1
-19.095744 18.634106 -5.656810 27.274105 -0.773163 1.779719 0.064894 -0.022565 584849.000000 0 0 1
-18.808744 19.537306 -6.885510 27.980089 -0.804396 1.819436 0.056744 -0.013202 -8619.900000 0 0 1
-18.560844 20.841206 -6.419210 28.636813 -0.843208 1.796877 0.055669 -0.022799 5011.240000 0 0 1
-18.326944 21.650406 -7.577710 29.360494 -0.868341 1.831843 0.043152 -0.004683 -165011.000000 0 0 1
-18.061644 23.132606 -7.206910 30.220522 -0.907881 1.811594 0.040606 -0.006862 646920.000000 0 0 1
-16.957144 23.372906 -6.310710 29.557783 -0.943158 1.785957 0.035690 -0.012113 676846.000000 0 0 1
-17.288944 24.456566 -5.500010 30.451294 -0.955438 1.752410 0.029298 -0.013931 28208.700000 0 0 1
-16.032144 25.031836 -4.803810 30.111443 -1.001150 1.731015 0.037822 -0.010200 -169917.000000 0 0 1
-16.303944 26.035676 -3.834910 30.957738 -1.011323 1.694991 0.036204 -0.009377 190897.000000 0 0 1
-15.104344 26.630796 -3.360610 30.799905 -1.054862 1.680125 0.030100 -0.010025 420012.000000 0 0 1
-14.449244 27.668436 -4.257410 31.503151 -1.089525 1.706353 0.038840 -0.013948 -373885.000000 0 0 1
-15.298844 28.756596 -4.442810 32.874534 -1.081869 1.706356 0.043791 -0.020782 -153416.000000 0 0 1
-14.702644 29.734926 -5.288810 33.590252 -1.111593 1.728905 0.046276 -0.016769 -58418.000000 0 0 1
-15.240944 31.087046 -4.977110 34.978027 -1.114966 1.713573 0.060849 -0.026438 469821.000000 0 0 1
-16.529144 31.414866 -5.516510 35.924062 -1.086443 1.724967 0.062735 -0.020621 456984.000000 0 0 1
-17.060944 32.498616 -4.809510 37.018471 -1.087369 1.701087 0.079654 -0.026969 12941.400000 0 0 1
12.780191 -8.481954 18.602223 24.110569 -0.585932 0.689541 0.035950 -0.010104 -11826.700000 0 1 0
13.072891 -9.757154 19.158823 25.162731 -0.641171 0.705331 0.030770 -0.001910 85863.200000 0 0 1
13.264691 -10.735554 18.145223 24.908900 -0.680406 0.754720 0.031896 -0.009536 -231668.000000 0 1 0
13.679291 -12.093854 18.773723 26.188490 -0.723961 0.771495 0.053492 -0.014574 931052.000000 0 0 1
14.909291 -12.081854 19.574423 27.411972 -0.681025 0.775483 0.044145 -0.013485 1458310.000000 0 0 1
15.284391 -13.230654 20.305423 28.652627 -0.713499 0.783177 0.047735 -0.017031 48393.400000 0 0 1
15.788291 -14.434054 19.416423 28.889610 -0.740619 0.833768 0.054816 -0.018071 149981.000000 0 0 1
14.748191 -14.956854 18.561123 28.030910 -0.792423 0.847090 0.053723 -0.018161 631381.000000 0 0 1
15.137491 -16.019054 17.798223 28.328969 -0.813685 0.891470 0.055426 -0.018338 -483959.000000 0 0 1
14.374891 -16.234354 16.468123 27.228493 -0.846072 0.921266 0.056051 -0.020020 -589759.000000 0 0 1
13.069191 -16.658054 16.740323 26.991349 -0.905543 0.901785 0.070050 -0.022802 -160332.000000 0 0 1
12.214891 -16.589054 15.589523 25.834735 -0.936107 0.922997 0.075822 -0.023013 147693.000000 0 0 1
12.129491 -17.879154 14.731123 26.149468 -0.974704 0.972370 0.070882 -0.012706 410458.000000 0 0 1
13.297191 -18.304454 13.999823 26.605702 -0.942541 1.016675 0.067344 -0.015070 827706.000000 0 0 1
12.876891 -19.320654 13.105723 26.661995 -0.982921 1.056927 0.068826 -0.007202 16976.800000 0 0 1
13.952291 -20.346254 12.697223 27.746278 -0.969703 1.095481 0.071896 -0.016831 -218825.000000 0 0 1
14.458991 -21.193254 13.722823 29.095228 -0.972086 1.079633 0.052192 -0.008021 -39171.700000 0 0 1
14.993891 -22.361554 13.198923 29.984453 -0.980130 1.114984 0.049343 -0.020176 -320972.000000 0 0 1
15.821391 -23.150854 14.223423 31.441759 -0.971296 1.101371 0.038529 -0.011500 -821123.000000 0 0 1
17.093291 -22.669854 14.443123 31.854461 -0.924734 1.100209 0.015699 -0.010420 -954556.000000 0 0 1
17.713891 -23.270454 15.573023 33.133292 -0.920154 1.081493 0.009710 -0.009606 -90804.400000 0 0 1
19.156891 -22.760854 15.763023 33.667727 -0.871164 1.083551 -0.002295 -0.006927 417788.000000 0 0 1
20.072891 -23.456054 14.899723 34.279865 -0.862964 1.121147 -0.001804 -0.006833 351862.000000 0 0 1
21.390491 -22.923954 15.009023 34.761064 -0.819988 1.124335 0.001913 -0.003385 755019.000000 0 0 1
22.503791 -23.810754 14.390423 35.783472 -0.813610 1.156929 -0.000106 -0.001407 90161.700000 0 0 1
22.801591 -24.968254 15.128823 37.043320 -0.830723 1.150086 0.008111 -0.001925 -914117.000000 0 0 1
23.875091 -25.668504 14.690923 38.009411 -0.821581 1.173955 0.016996 -0.008925 -1068060.000000 0 0 1
24.248391 -26.807634 15.688923 39.405279 -0.835482 1.161305 0.033312 -0.009091 -78328.500000 0 0 1
24.660791 -26.327414 16.969323 39.865339 -0.818073 1.131098 0.034215 0.001958 370459.000000 0 0 1
25.199391 -27.327744 17.868623 41.244425 -0.825895 1.122715 0.045672 0.002987 673862.000000 0 0 1
25.794691 -26.687924 19.179823 41.778906 -0.802416 1.093838 0.038231 0.003964 -106815.000000 0 0 1
24.748491 -26.340934 20.010323 41.312778 -0.816558 1.065163 0.043182 0.007350 -342035.000000 0 0 1
25.228991 -26.070654 21.295723 42.067669 -0.801803 1.039994 0.041825 0.013343 256178.000000 0 0 1
24.058191 -25.979734 22.311823 41.851650 -0.823781 1.008516 0.034933 0.015193 288852.000000 0 0 1
23.476991 -27.227854 22.554223 42.440760 -0.859238 1.010510 0.041358 0.014797 -275534.000000 0 0 1
22.311191 -27.140274 23.337023 42.178198 -0.882743 0.984481 0.052793 0.003813 -232870.000000 0 0 1
21.617491 -28.528734 23.387123 42.757012 -0.922357 0.992047 0.074246 0.002072 -287789.000000 0 0 1
22.402991 -29.545934 24.020103 44.179425 -0.922041 0.995964 0.074122 0.001305 365408.000000 0 0 1
22.227791 -30.775514 23.377323 44.583699 -0.945289 1.018848 0.071865 0.000574 -548449.000000 0 0 1
23.198191 -31.826644 23.859623 46.047508 -0.940942 1.026107 0.052908 0.005816 -240898.000000 0 0 1
22.831891 -32.188864 25.173153 46.809250 -0.953849 1.002993 0.049769 -0.000418 1334290.000000 0 0 1
23.972191 -32.760234 25.888533 48.146807 -0.939080 1.003090 0.033266 -0.004903 540851.000000 0 0 1
23.717591 -33.066384 27.404383 49.060270 -0.948572 0.978116 0.024998 -0.018696 484603.000000 0 0 1
22.971491 -34.273825 27.759653 49.729094 -0.980328 0.978560 0.025829 -0.008138 1375300.000000 0 0 1
21.588091 -34.319755 27.386443 48.927585 -1.009306 0.976731 0.036283 -0.005311 173368.000000 0 0 1
20.805491 33.264020 28.122703 48.272662 1.011862 0.948897 0.040815 -0.022376 -415917.000000 0 0 1
20.552191 33.441843 29.495763 49.099383 1.019736 0.926375 0.026405 -0.019450 -31504.900000 0 0 1
20.103091 32.252706 29.966053 48.397682 1.013421 0.903120 0.036307 -0.026810 -229009.000000 0 0 1
19.867091 32.261326 31.508933 49.277858 1.018827 0.877061 0.026676 -0.026643 -218556.000000 0 0 1
21.096991 32.403836 32.185513 50.309034 0.993673 0.876615 0.003445 -0.010077 -117660.000000 0 0 1
20.986491 32.724145 33.589186 51.376414 1.000551 0.858219 -0.007604 -0.006342 -418399.000000 0 0 1
22.341591 32.640476 -34.275579 52.338921 0.970566 2.284817 -0.024083 0.004165 -242230.000000 0 0 1
22.635091 31.296136 -34.000870 51.457309 0.944633 2.292626 -0.012812 -0.000611 -425068.000000 0 0 1
23.781791 31.151126 -33.225000 51.379634 0.918754 2.273990 -0.009394 0.009579 -802990.000000 0 0 1
24.037691 29.683066 -32.878050 50.397035 0.890101 2.281518 0.006108 0.004098 -308360.000000 0 0 1
24.276291 29.007296 -34.108770 50.932992 0.873955 2.304573 0.004367 -0.004079 148834.000000 0 0 1
23.931291 27.678496 -33.995750 49.945138 0.857877 2.319462 0.009539 -0.014918 -240624.000000 0 0 1
24.038591 26.939486 33.175744 49.032844 0.842242 0.827658 0.037336 -0.021716 309156.000000 0 0 1
25.346291 26.480776 32.843344 49.217387 0.807284 0.840203 0.029555 -0.025652 666525.000000 0 0 1
25.340591 25.883496 31.577683 48.054667 0.795996 0.853805 0.044021 -0.036072 -1177600.000000 0 0 1
26.677091 25.221406 31.398023 48.307581 0.757357 0.863264 0.030515 -0.025519 -943355.000000 0 0 1
26.785991 24.192716 32.344473 48.465882 0.734572 0.840130 0.040867 -0.033290 452398.000000 0 0 1
27.750091 24.527146 33.344579 49.834821 0.723825 0.837797 0.036904 -0.036678 -768160.000000 0 0 1
27.820291 23.540906 -33.975110 49.824200 0.702271 2.321153 0.040113 -0.045429 -41151.900000 0 0 1
26.875091 23.657996 -32.920190 48.638567 0.721821 2.314248 0.046504 -0.042436 1700660.000000 0 0 1
25.451891 23.563506 -33.182640 48.001304 0.746891 2.334064 0.038646 -0.038531 1016710.000000 0 0 1
24.858891 22.189706 -33.358920 47.150451 0.728726 2.356750 0.030178 -0.039254 -638597.000000 0 0 1
24.692491 21.440606 -32.177280 45.878056 0.715025 2.348108 0.013834 -0.039209 301849.000000 0 0 1
24.317691 20.119206 -32.514290 45.313481 0.691196 2.371062 0.005179 -0.027967 -196296.000000 0 0 1
24.167191 19.189406 -31.296710 43.951911 0.671088 2.363234 0.003431 -0.028201 -864833.000000 0 0 1
23.075391 19.491106 -30.476920 42.909434 0.701392 2.360666 0.001311 -0.019524 -143082.000000 0 0 1
23.166091 18.756106 -29.264490 41.771637 0.680589 2.347010 0.008721 -0.014291 -103283.000000 0 0 1
21.867991 18.860606 -28.430540 40.524401 0.711692 2.348389 0.028923 -0.020160 32416.000000 0 0 1
21.835291 18.157006 -27.177070 39.307123 0.693681 2.334226 0.029613 -0.011911 178147.000000 0 0 1
22.505591 18.835606 -26.090940 39.268547 0.696857 2.297518 0.019886 -0.000524 107074.000000 0 0 1
22.621191 17.924506 -24.848810 38.085030 0.670075 2.281617 0.027516 0.009606 209320.000000 0 0 1
23.567191 16.863906 -24.978010 38.258395 0.621097 2.282172 0.028949 -0.015806 447151.000000 0 0 1
23.525991 16.135906 -23.790210 37.145845 0.601184 2.265886 0.035015 -0.005046 -702444.000000 0 0 1
24.698391 15.189206 -23.648110 37.415980 0.551367 2.254969 0.048518 -0.018337 -10783.700000 0 0 1
25.932891 15.689106 -23.085010 38.099613 0.544080 2.221708 0.069656 -0.029419 416007.000000 0 0 1
26.865291 14.661006 -23.003110 38.286186 0.499554 2.215323 0.072433 -0.040104 -514837.000000 0 0 1
26.695591 13.686206 -21.770610 37.066511 0.473737 2.198563 0.059833 -0.031155 -1114090.000000 0 0 1
25.484491 13.020906 -21.855310 36.009135 0.472357 2.222998 0.044389 -0.024439 -726413.000000 0 0 1
25.269191 12.332506 -20.678710 34.903177 0.454038 2.204904 0.036979 -0.031525 179170.000000 0 0 1
23.836191 11.720406 -20.522210 33.566248 0.456991 2.228618 0.035838 -0.025717 744872.000000 0 0 1
22.884791 12.771706 -20.408310 33.216400 0.509031 2.232427 0.057397 -0.022059 -941215.000000 0 0 1
21.664691 12.444306 -20.981610 32.625872 0.521387 2.269332 0.054007 -0.024347 -634263.000000 0 0 1
20.782991 13.702306 -20.887310 32.495624 0.582888 2.268909 0.044628 -0.017362 -653157.000000 0 0 1
21.227891 14.765906 -21.806610 33.825782 0.607760 2.271393 0.033309 -0.003503 -29623.700000 0 0 1
20.391691 15.853706 -21.846110 33.829182 0.660845 2.272837 0.022477 0.005612 -3692.290000 0 0 1
18.988191 15.706706 -22.511310 33.376804 0.691097 2.311029 0.029921 0.015758 503607.000000 0 0 1
18.048891 14.825206 -21.902910 32.020098 0.687649 2.324078 0.036221 0.000185 -334475.000000 0 0 1
16.912791 14.828206 -22.685510 31.946057 0.719817 2.360464 0.049527 -0.017751 -659591.000000 0 0 1
15.871591 13.710206 -22.498010 30.757724 0.712463 2.391255 0.049871 -0.015628 506639.000000 0 0 1
14.594991 14.074206 -23.009910 30.668436 0.767235 2.419282 0.046995 -0.020563 -754158.000000 0 0 1
13.652091 13.215606 -22.521110 29.465780 0.769154 2.440773 0.054281 -0.018010 -891240.000000 0 0 1
12.285991 13.477706 -23.192910 29.504325 0.831621 2.475246 0.044243 -0.021077 -247895.000000 0 0 1
11.882791 14.859206 -23.051910 29.889585 0.896243 2.451576 0.049747 -0.028427 -160059.000000 0 0 1
11.077591 15.154806 -24.157410 30.593490 0.939591 2.480995 0.056219 -0.025372 -891012.000000 0 0 1
10.786891 16.649706 -24.338410 31.399489 0.995918 2.457703 0.053676 -0.031354 290716.000000 0 0 1
11.897591 17.541806 -24.430310 32.343588 0.974823 2.426965 0.050589 -0.021761 790651.000000 0 0 1
13.039791 17.263906 -25.266190 33.263478 0.923898 2.433460 0.048011 -0.025907 389905.000000 0 0 1
12.827291 17.303506 -26.777840 34.365730 0.932879 2.464188 0.058805 -0.027500 -223158.000000 0 0 1
14.039591 17.310206 -27.515080 35.409504 0.889349 2.460767 0.036638 -0.030331 416039.000000 0 0 1
13.690291 17.063306 -28.894260 36.241671 0.894640 2.493549 0.051028 -0.040896 1075190.000000 0 0 1
14.911091 17.461506 -29.850070 37.659945 0.864019 2.485892 0.042390 -0.036213 802881.000000 0 0 1
15.950591 16.527306 -29.898180 37.702445 0.803153 2.486520 0.024124 -0.032162 -704133.000000 0 0 1
16.701591 16.819706 -31.042880 39.057727 0.788922 2.489466 0.025024 -0.027566 -151668.000000 0 0 1
18.025391 16.022206 -31.159960 39.402651 0.726631 2.482926 0.028098 -0.025063 -508555.000000 0 0 1
18.941691 16.322306 -30.125030 39.150003 0.711255 2.448818 0.028772 -0.027041 127989.000000 0 0 1
20.059391 15.438906 -30.248490 39.442491 0.655965 2.444795 0.027728 -0.019950 660901.000000 0 0 1
21.307191 16.145706 -30.861170 40.830038 0.648448 2.427740 0.016880 -0.021190 -315799.000000 0 0 1
21.138391 16.402106 -32.207020 41.870667 0.659897 2.448388 0.021172 -0.019345 276175.000000 0 0 1
22.316891 16.948806 -32.769860 43.118086 0.649529 2.434114 0.013928 -0.013756 -315546.000000 0 0 1
22.105191 17.218006 -34.256352 44.256037 0.661750 2.456008 0.004646 -0.004044 -753216.000000 0 0 1
23.068891 18.036506 33.795493 44.717163 0.663578 0.713981 0.011538 -0.016686 -603235.000000 0 0 1
22.778891 18.413306 32.461753 43.722913 0.679811 0.734087 0.035712 -0.014436 -337510.000000 0 0 1
23.504891 19.680306 31.980453 44.300606 0.697066 0.764257 0.040035 -0.022666 -265138.000000 0 0 1
24.909491 19.563906 31.960483 44.996685 0.665775 0.780893 0.034360 -0.026626 -239051.000000 0 0 1
25.411191 20.851106 31.754393 45.703815 0.687145 0.802673 0.057369 -0.035424 -155426.000000 0 0 1
26.950391 20.928606 31.656953 46.545599 0.660284 0.822859 0.030367 -0.036662 -60670.200000 0 0 1
27.607291 20.492206 32.817308 47.529662 0.638539 0.808672 0.024850 -0.037384 306721.000000 0 0 1
29.013391 20.436406 32.577914 48.174101 0.613658 0.828131 0.034723 -0.028641 622380.000000 0 0 1
29.860191 19.718306 33.641293 49.113941 0.583620 0.816242 0.016125 -0.022254 -90610.000000 0 0 1
29.740291 20.408906 -33.712070 49.371166 0.601430 2.322424 0.009469 -0.028519 -435571.000000 0 0 1
28.710991 20.068706 -32.857220 48.027813 0.610048 2.324205 0.008682 -0.031430 -688716.000000 0 0 1
29.111991 20.338506 -31.417510 47.415427 0.609806 2.295083 0.023676 -0.030065 -53494.000000 0 0 1
30.112991 19.495206 -30.895350 47.343193 0.574547 2.281784 0.029650 -0.030661 -54430.100000 0 0 1
30.406491 19.948106 -29.547630 46.856633 0.580615 2.253118 0.015736 -0.032325 878600.000000 0 0 1
31.829991 19.374706 -29.178490 47.327707 0.546787 2.235112 0.062760 -0.020744 1135380.000000 0 0 1
32.927891 19.935506 -29.850740 48.710749 0.544402 2.230416 0.030416 -0.021148 298273.000000 0 0 1
34.218491 19.625406 -29.330640 49.156364 0.520730 2.210154 0.052601 -0.016022 835510.000000 0 0 1
35.323091 20.545106 -29.961840 50.670839 0.526806 2.203470 0.047606 -0.007390 130442.000000 0 0 1
35.908891 20.103306 -31.136460 51.604946 0.510368 2.218507 0.032600 -0.007200 -276758.000000 0 0 1
-35.075774 21.009706 -31.581730 51.663559 -0.539670 2.228494 0.031315 -0.007314 474117.000000 0 0 1
-34.098474 20.434306 -32.716890 51.484577 -0.539885 2.259413 0.031554 -0.015211 609518.000000 0 0 1
-33.204774 19.486006 -32.135380 50.149218 -0.530689 2.266330 0.053318 -0.016608 11178.400000 0 0 1
-32.266174 19.126206 -33.112490 50.033536 -0.535081 2.294021 0.048892 -0.013047 -166018.000000 0 0 1
-31.382274 17.933506 -32.695590 48.738684 -0.519165 2.306130 0.039459 -0.003615 211004.000000 0 0 1
-32.164074 16.760606 -32.444420 48.662983 -0.480382 2.300591 0.039436 -0.003975 522348.000000 0 0 1
-31.480774 15.617106 -32.976740 48.191270 -0.460510 2.324424 0.030821 -0.005495 83971.900000 0 0 1
-32.399874 14.395306 -33.051800 48.470591 -0.418105 2.321145 0.031490 -0.004026 -57553.300000 0 0 1
-31.754374 13.157306 -33.193610 47.783582 -0.392812 2.338751 0.038458 -0.006649 -163509.000000 0 0 1
-32.791274 12.217706 -33.214330 48.246572 -0.356656 2.330117 0.056536 -0.002762 -88996.600000 0 0 1
-32.374774 10.726706 -33.242970 47.626498 -0.319946 2.343388 0.049212 0.003263 -271167.000000 0 0 1
-31.769674 10.314006 34.157501 47.774740 -0.313915 0.774215 0.027904 0.000310 76516.700000 0 0 1
-32.201574 8.963706 33.849549 47.571855 -0.271489 0.779101 0.043596 -0.001774 -141094.000000 0 0 1
-31.390174 8.385406 32.673191 46.078146 -0.261039 0.782601 0.043585 -0.008370 -480723.000000 0 0 1
-30.075674 8.161306 33.064467 45.435802 -0.264978 0.755807 0.039692 -0.002198 -1151500.000000 0 0 1
-29.311674 7.665906 32.029273 44.088714 -0.255801 0.757620 0.034948 -0.000961 -462387.000000 0 0 1
20.527991 -4.798754 -31.833690 38.181282 -0.229643 2.556664 0.044506 -0.031743 827607.000000 0 0 1
21.816191 -4.798854 -32.482470 39.421898 -0.216519 2.539179 0.037583 -0.032273 1143960.000000 0 0 1
22.739291 -3.775654 -32.076970 39.500163 -0.164540 2.518490 0.033291 -0.027920 268111.000000 0 0 1
22.464491 -2.283154 -32.543420 39.609851 -0.101286 2.535007 0.031402 -0.029090 -19706.700000 0 0 1
23.406191 -1.352354 -31.959390 39.636867 -0.057713 2.508674 0.027225 -0.022719 763546.000000 0 0 1
23.238991 -0.054054 -32.556510 39.999750 -0.002326 2.521660 0.024676 -0.024143 42571.600000 0 0 1
24.267091 0.986346 -31.997050 40.170584 0.040623 2.492329 0.028463 -0.019171 -68381.800000 0 0 1
25.563291 0.857446 -32.505490 41.362107 0.033530 2.474908 0.028640 -0.022296 -143717.000000 0 0 1
26.516991 1.628446 -31.754440 41.402260 0.061334 2.444908 0.025636 -0.012455 971194.000000 0 0 1
27.993391 1.546846 -32.248950 42.731925 0.055201 2.425963 0.031265 -0.018164 474670.000000 0 0 1
28.173291 2.176046 -33.482470 43.812616 0.077085 2.440627 0.035661 -0.024355 -14795.400000 0 0 1
28.512891 1.264546 34.053501 44.432252 0.044321 0.697557 0.040817 -0.024722 -423135.000000 0 0 1
29.318891 1.841546 32.894075 44.102255 0.062729 0.728972 0.044357 -0.028500 -411555.000000 0 0 1
28.690291 2.794746 32.052263 43.107899 0.097105 0.732454 0.049876 -0.023106 31972.200000 0 0 1
28.647191 4.170046 32.577194 43.581239 0.144550 0.726498 0.044189 -0.014487 -68879.200000 0 0 1
27.631691 5.066246 31.825013 42.450073 0.181335 0.723181 0.035060 -0.011294 -99212.200000 0 0 1
27.877491 6.427646 31.920463 42.864731 0.226607 0.730743 0.029883 -0.005909 55522.900000 0 0 1
27.162591 7.228046 30.999283 41.845030 0.260076 0.736519 0.022125 -0.000418 -178326.000000 0 0 1
27.605091 8.690046 31.184853 42.544718 0.304978 0.748089 0.014044 0.008810 2006200.000000 0 0 1
29.023691 8.911646 30.875763 43.302481 0.297910 0.776993 0.019432 0.003844 1534290.000000 0 0 1
29.237491 10.297746 30.983963 43.827850 0.338643 0.785624 0.018747 -0.001775 329545.000000 0 0 1
30.611091 10.808746 30.449743 44.509041 0.339433 0.817393 0.026264 0.000844 158474.000000 0 0 1
31.719791 10.377646 31.247473 45.719200 0.316190 0.818297 0.030692 0.005615 -74555.100000 0 0 1
32.939491 10.682846 30.652283 46.246035 0.313614 0.846233 0.027724 0.001865 -436345.000000 0 0 1
33.451091 12.100646 30.964203 47.161245 0.347096 0.854547 0.033155 0.001593 -765019.000000 0 0 1
33.562091 12.298646 32.339363 48.202750 0.351249 0.835371 0.048032 -0.010083 217204.000000 0 0 1
34.225591 13.484046 32.695588 49.215974 0.375302 0.844201 0.049484 -0.001228 209249.000000 0 0 1
33.264391 14.702946 32.720220 48.921459 0.416183 0.838160 0.044069 0.002249 -505810.000000 0 0 1
32.940491 15.170546 31.422663 47.985469 0.431588 0.856829 0.042867 -0.009797 220230.000000 0 0 1
31.966191 16.196146 31.488133 47.703826 0.468965 0.849877 0.045322 -0.015192 1461400.000000 0 0 1
30.459291 15.816346 31.811093 46.796056 0.478938 0.823332 0.034799 -0.009666 605175.000000 0 0 1
29.944191 14.859146 30.939113 45.548628 0.460625 0.824050 0.030836 -0.006652 13180.600000 0 0 1
28.590291 14.472246 31.093573 44.650431 0.468591 0.800458 0.012236 -0.004663 233428.000000 0 0 1
27.911691 14.260146 29.749753 43.214142 0.472331 0.811479 0.013917 -0.007262 -272061.000000 0 0 1
28.343291 13.087146 29.144393 42.708444 0.432571 0.819751 0.011330 -0.005543 26197.000000 0 0 1
27.510691 12.801046 28.046823 41.319840 0.435514 0.824705 0.019215 -0.014677 -91949.600000 0 0 1
27.145791 11.294946 27.871213 40.512644 0.394295 0.812117 0.015498 -0.006502 -41471.300000 0 0 1
28.248991 10.493546 27.505623 40.800482 0.355669 0.830984 0.022798 -0.006935 169120.000000 0 0 1
27.780191 9.160346 27.371523 40.060595 0.318517 0.818588 0.030709 -0.000758 834702.000000 0 0 1
28.932291 8.146146 26.963033 40.378736 0.274454 0.839610 0.023443 -0.000101 666771.000000 0 0 1
29.337591 8.355046 25.616683 39.833598 0.277445 0.872267 0.024819 0.002892 227608.000000 0 0 1
30.248191 7.402946 25.107083 40.001529 0.240022 0.892261 0.027525 0.009031 239371.000000 0 0 1
30.814191 7.643546 23.650313 39.588830 0.243145 0.930543 0.034016 0.007285 27944.000000 0 0 1
31.546291 8.850846 23.443223 40.287599 0.273534 0.949737 0.022147 0.003326 282852.000000 0 0 1
30.828991 10.033946 23.126123 39.823666 0.314658 0.951192 0.020813 0.006943 -305882.000000 0 0 1
30.224791 10.165446 21.701623 38.572461 0.324443 0.973245 0.024513 0.016595 226038.000000 0 0 1
31.198191 10.274246 20.671723 38.809888 0.318136 1.009079 0.034155 0.002953 405940.000000 0 0 1
30.608491 10.063946 19.434923 37.628167 0.317661 1.028039 0.034919 -0.001828 -487938.000000 0 0 1
31.500791 10.816346 18.427523 38.063983 0.330754 1.065440 0.045764 -0.011326 1180050.000000 0 0 1
32.758491 10.252146 18.037623 38.776038 0.303305 1.086965 0.046600 -0.009893 1075570.000000 0 0 1
33.871991 10.366346 18.910323 40.154368 0.296993 1.080440 0.055572 -0.003206 979083.000000 0 0 1
35.222591 9.767246 18.329723 40.890204 0.270504 1.105971 0.079244 -0.021583 573340.000000 0 0 1
35.178291 8.343846 18.287123 40.516056 0.232884 1.102513 0.078926 -0.011433 201606.000000 0 0 1
-35.736474 7.762646 17.530723 40.554661 -0.213896 1.123783 0.083015 -0.010473 -288828.000000 0 0 1
-35.841874 6.248146 17.179123 40.234333 -0.172591 1.129650 0.079938 -0.009974 226668.000000 0 0 1
34.891991 5.818046 16.555223 39.056064 0.165224 1.133067 0.060136 -0.007391 731719.000000 0 0 1
34.997191 4.488346 16.122523 38.792839 0.127552 1.142188 0.065023 -0.015710 444213.000000 0 0 1
33.663691 3.657646 16.076223 37.484229 0.108228 1.127544 0.046719 -0.003489 464739.000000 0 0 1
33.518291 3.040446 17.320323 37.851205 0.090462 1.095514 0.044021 0.004377 -102943.000000 0 0 1
32.292191 2.422846 17.640323 36.875965 0.074889 1.072000 0.044532 0.003890 -126529.000000 0 0 1
32.247791 1.542046 18.894323 37.407130 0.047782 1.041299 0.040550 -0.011023 -240814.000000 0 0 1
33.048591 0.415646 18.796123 38.022051 0.012576 1.053712 0.043275 -0.010401 -259790.000000 0 0 1
32.930791 -0.418454 19.982223 38.521440 -0.012706 1.025432 0.042427 -0.008421 238630.000000 0 0 1
33.494391 -1.842954 19.753323 38.928967 -0.054967 1.038609 0.037978 -0.003932 162642.000000 0 0 1
33.437291 -2.619154 20.957023 39.548821 -0.078171 1.012311 0.051241 0.001861 94940.400000 0 0 1
33.842391 -3.987654 20.774323 39.909664 -0.117289 1.023320 0.033619 -0.000902 -217911.000000 0 0 1
33.423791 -4.877954 21.953723 40.285360 -0.144919 0.994460 0.031704 0.008033 -67524.500000 0 0 1
34.066791 -4.540454 23.158423 41.442424 -0.132500 0.977847 0.036576 0.006690 132543.000000 0 0 1
33.421591 -5.133654 24.265733 41.619502 -0.152412 0.948334 0.029015 0.000225 -74946.200000 0 0 1
33.694391 -4.491654 25.622383 42.567517 -0.132524 0.924889 0.024338 0.004055 -358707.000000 0 0 1
32.781891 -4.692154 26.653653 42.509833 -0.142167 0.893100 0.031575 0.001985 -651428.000000 0 0 1
33.018291 -3.954754 27.849303 43.375469 -0.119207 0.873625 0.035800 0.005620 400967.000000 0 0 1
32.062091 -4.348554 29.041833 43.477761 -0.134807 0.839319 0.045273 -0.004031 458700.000000 0 0 1
32.308591 -5.637154 29.534303 44.134993 -0.172740 0.837690 0.050958 -0.012717 -29680.000000 0 0 1
31.487991 -5.886854 30.663653 44.344202 -0.184822 0.807244 0.058334 -0.019735 63269.400000 0 0 1
31.584291 -7.356654 31.146473 44.964326 -0.228841 0.805580 0.064320 -0.017671 -40252.200000 0 0 1
32.838691 -7.629454 31.719213 46.289272 -0.228281 0.815865 0.071201 -0.021638 -312983.000000 0 0 1
33.269791 -8.920554 31.318113 46.554049 -0.261966 0.832910 0.066125 -0.017467 -88507.300000 0 0 1
34.664991 -9.252354 31.857943 47.981207 -0.260827 0.844685 0.065558 -0.023134 -164935.000000 0 0 1
34.558791 -9.593454 33.230046 48.893562 -0.270780 0.823524 0.049981 -0.025699 663379.000000 0 0 1
35.826991 -9.982154 33.760549 50.229388 -0.271730 0.833718 0.022195 -0.020174 258704.000000 0 0 1
35.671191 -10.316854 -33.256230 49.848251 -0.281539 2.301172 0.028509 -0.014392 -182947.000000 0 0 1
35.191991 -9.240354 -32.473870 48.768972 -0.256774 2.299458 0.013162 -0.008574 1076320.000000 0 0 1
-35.748374 -8.228254 -32.308970 48.882716 0.226231 2.292879 0.024805 -0.006266 450803.000000 0 0 1
35.739691 -7.009854 -31.544620 48.182223 -0.193678 2.284574 0.021384 -0.011936 -171602.000000 0 0 1
35.643691 -7.195054 -30.155370 47.239685 -0.199184 2.263147 0.012020 -0.007068 448999.000000 0 0 1
34.716891 -6.267654 -29.629090 46.069827 -0.178612 2.269381 0.028274 -0.015908 116847.000000 0 0 1
35.225491 -5.901254 -28.215140 45.516526 -0.165987 2.239396 0.023450 -0.010221 -27950.700000 0 0 1
-35.530974 -5.184254 -28.134750 45.616782 0.144886 2.235420 0.020972 -0.010032 -319834.000000 0 0 1
-35.415074 -4.509554 -26.874630 44.685672 0.126653 2.216067 0.025416 -0.007511 682480.000000 0 0 1
-33.935574 -4.504954 -26.352650 43.201620 0.131979 2.226847 0.033174 -0.001607 123306.000000 0 0 1
-33.769874 -3.661254 -25.221700 42.307722 0.107996 2.209492 0.039144 -0.013232 360559.000000 0 0 1
-32.583874 -4.065054 -24.543910 40.995573 0.124115 2.212669 0.052515 -0.008653 512798.000000 0 0 1
-31.268174 -3.342154 -24.952010 40.143138 0.106482 2.241549 0.070546 -0.016904 -179044.000000 0 0 1
-30.864174 -3.616454 -26.266250 40.688965 0.116641 2.272523 0.066687 -0.004210 -268600.000000 0 0 1
-29.754874 -2.864754 -26.654040 40.049934 0.095983 2.298987 0.077249 -0.015017 -4474.040000 0 0 1
-28.976374 -3.356254 -27.892920 40.359753 0.115313 2.333816 0.076289 0.000401 -122074.000000 0 0 1
-29.799674 -3.225054 -29.009820 41.713202 0.107805 2.339855 0.076785 0.002369 -96532.600000 0 0 1
-29.372874 -4.045754 -30.092920 42.245919 0.136877 2.363605 0.065740 0.000132 -1017570.000000 0 0 1
-30.433074 -4.372654 -31.151310 43.768667 0.142704 2.362749 0.044623 0.010847 -328634.000000 0 0 1
-31.445074 -5.291054 -30.732060 44.285974 0.166702 2.337751 0.037555 0.003303 687240.000000 0 0 1
-32.548574 -4.756254 -30.012370 44.528350 0.145101 2.310414 0.049608 -0.004927 365563.000000 0 0 1
-33.607174 -3.802354 -30.672200 45.658339 0.112662 2.307401 0.066801 -0.006191 -171414.000000 0 0 1
-33.063974 -2.609754 -31.215600 45.546140 0.078767 2.325897 0.079462 -0.002415 -65094.300000 0 0 1
-32.863574 -1.573054 -30.277020 44.712268 0.047830 2.314682 0.085702 -0.004285 142416.000000 0 0 1
-32.440074 -0.186654 -30.879930 44.787982 0.005754 2.331552 0.092901 -0.009877 764822.000000 0 0 1
-33.558874 0.521746 -31.422380 45.976475 -0.015546 2.323267 0.099292 -0.001847 526195.000000 0 0 1
-33.086174 1.634746 -32.131670 46.149881 -0.049369 2.340951 0.100258 0.005394 301677.000000 0 0 1
-34.254074 2.474346 -32.702880 47.423015 -0.072110 2.331732 0.097781 0.002048 260712.000000 0 0 1
-34.938774 1.895946 -33.784720 48.638666 -0.054212 2.338669 0.081621 0.004506 -754420.000000 0 0 1
35.823591 2.519646 -34.050340 49.488422 0.070219 2.329590 0.068143 0.001824 -772190.000000 0 0 1
34.946891 1.915346 33.388432 48.370871 0.054753 0.808949 0.046749 0.003320 -47175.700000 0 0 1
35.239591 2.171246 32.036793 47.674933 0.061536 0.833912 0.038796 0.004911 41356.400000 0 0 1
-35.648774 1.414646 31.510683 47.599995 -0.039662 0.847327 0.040729 0.009664 -184134.000000 0 0 1
-35.452274 1.703046 29.966243 46.451479 -0.048001 0.869631 0.041326 0.005522 34525.700000 0 0 1
-34.857774 2.952846 29.617653 45.836548 -0.084510 0.868257 0.039012 0.001207 426304.000000 0 0 1
-35.100274 3.173646 28.191873 45.131840 -0.090171 0.896105 0.035423 -0.000434 -51848.800000 0 0 1
-34.610574 4.570146 27.787773 44.619933 -0.131285 0.898523 0.032190 0.003022 -283750.000000 0 0 1
-34.023174 4.551746 26.516283 43.375201 -0.132994 0.913064 0.030201 0.003800 33432.400000 0 0 1
-33.307174 5.722646 26.248593 42.791415 -0.170153 0.910428 0.036096 0.006903 -320074.000000 0 0 1
-32.361274 5.606346 25.046123 41.303650 -0.171540 0.919283 0.036700 0.004220 -187398.000000 0 0 1
-31.187974 4.794146 25.205043 40.385242 -0.152524 0.896798 0.035715 -0.000282 581265.000000 0 0 1
-30.133174 5.085646 24.339313 39.067559 -0.167197 0.898217 0.041376 -0.001060 -135066.000000 0 0 1
-30.477974 4.909146 22.849623 38.407186 -0.159700 0.933617 0.061107 -0.007962 -836134.000000 0 0 1
-30.631674 3.572046 22.465523 38.154406 -0.116089 0.941216 0.037794 -0.011067 49778.100000 0 0 1
-31.504974 3.418646 21.361923 38.217566 -0.108088 0.977671 0.065695 -0.014024 -456201.000000 0 0 1
-31.539674 1.924746 20.928823 37.900809 -0.060951 0.985796 0.051811 -0.004113 468450.000000 0 0 1
-30.360974 1.331246 20.357923 36.578765 -0.043819 0.980568 0.039910 0.002143 529737.000000 0 0 1
-29.873774 1.893346 19.128723 35.523727 -0.063294 1.002167 0.042619 -0.002497 -105541.000000 0 0 1
-28.654474 1.126946 18.583723 34.171680 -0.039309 0.995797 0.044136 -0.001320 -202179.000000 0 0 1
-29.010174 -0.202754 18.203323 34.248975 0.006989 1.010426 0.046576 0.001068 174047.000000 0 0 1
-28.028774 -0.975754 17.528923 33.073062 0.034799 1.012189 0.055911 0.000134 -105713.000000 0 0 1
-27.794674 -0.604154 16.077423 32.115300 0.021733 1.046486 0.057243 0.005650 131877.000000 0 0 1
-27.174074 0.646746 15.809123 31.444824 -0.023796 1.044010 0.063834 0.003886 172634.000000 0 0 1
-27.413374 0.962346 14.496123 31.025099 -0.035091 1.084631 0.077794 -0.001754 32152.300000 0 0 1
-26.907674 2.361946 13.990523 30.419344 -0.087555 1.092889 0.075221 -0.007452 -931243.000000 0 0 1
-25.535874 2.412846 13.851123 29.150580 -0.094209 1.075653 0.069251 -0.016847 -971082.000000 0 0 1
-25.117974 3.639346 13.288523 28.648601 -0.143889 1.088465 0.065553 -0.018870 -623043.000000 0 0 1
-23.612974 3.737246 13.121023 27.270879 -0.156969 1.068845 0.051289 -0.015129 -1122760.000000 0 0 1
-22.886574 3.888646 14.306223 27.268753 -0.168302 1.018507 0.039071 -0.006525 -993966.000000 0 0 1
-21.641874 4.306246 13.881023 26.069087 -0.196412 1.009280 0.036623 -0.013559 -1048450.000000 0 0 1
-20.734274 4.911946 14.955823 26.032941 -0.232612 0.958808 0.011439 -0.014615 -276102.000000 0 0 1
-21.212474 6.156346 15.358723 26.902789 -0.282463 0.963198 0.019258 -0.013918 173752.000000 0 0 1
-20.528474 6.610546 16.484923 27.145355 -0.311533 0.918160 0.013481 -0.006065 -318346.000000 0 0 1
-20.796674 8.098246 16.651523 27.845224 -0.371336 0.929789 0.001952 -0.008235 -506689.000000 0 0 1
-20.204074 8.970246 15.762423 27.150026 -0.417838 0.951371 0.026624 -0.021742 215007.000000 0 0 1
-20.568774 10.293546 16.063223 28.054567 -0.464004 0.961158 0.021577 -0.016711 80504.500000 0 0 1
-19.832474 11.070446 17.260623 28.527372 -0.509115 0.920962 0.031945 -0.014710 41607.000000 0 0 1
-20.167574 10.474246 18.477623 29.289306 -0.479016 0.888128 0.021702 -0.015920 348078.000000 0 0 1
-20.001074 11.328346 19.594723 30.204761 -0.515337 0.864882 0.041265 -0.010430 -295968.000000 0 0 1
-12.261609 -34.210513 -20.941010 41.943202 1.226643 2.093553 0.088861 -0.029665 -973215.000000 0 0 1
-13.297709 34.269646 -20.088910 41.890357 -1.200650 2.070949 0.115094 -0.033567 -978451.000000 0 0 1
-14.285309 -33.406113 -20.152810 41.547253 1.166704 2.077225 0.076234 -0.044943 209499.000000 0 0 1
-15.459209 -33.717413 -19.187110 41.761182 1.140902 2.048170 0.058301 -0.036119 -502070.000000 0 0 1
-16.186609 33.845746 -19.705010 42.377214 -1.124702 2.054420 0.052280 -0.038132 403727.000000 0 0 1
-16.915709 33.045346 -18.764610 41.596234 -1.097679 2.038809 0.044200 -0.034545 -244498.000000 0 0 1
-18.241709 33.623146 -18.264110 42.389310 -1.073703 2.016248 0.043812 -0.033816 -1222110.000000 0 0 1
-18.136309 -34.060813 -17.279810 42.280688 1.081513 1.991818 0.044781 -0.035169 -706576.000000 0 0 1
-19.374809 -33.826613 -16.709610 42.412664 1.050641 1.975751 0.020717 -0.025773 -741797.000000 0 0 1
-19.585509 34.216946 -15.352210 42.309360 -1.050924 1.942127 0.028560 -0.021548 -472039.000000 0 0 1
-19.577009 32.857246 -15.344210 41.210468 -1.033456 1.952323 0.026362 -0.028151 36905.000000 0 0 1
-19.978009 32.345746 -14.116410 40.554176 -1.017508 1.926327 0.038903 -0.019030 -513110.000000 0 0 1
-20.157809 30.791046 -14.014410 39.380572 -0.991149 1.934642 0.029581 -0.016548 -92730.100000 0 0 1
-19.005309 30.063246 -13.619410 38.085284 -1.007052 1.936496 0.034988 -0.026005 -209662.000000 0 0 1
-19.124409 28.663146 -13.674410 37.071666 -0.982416 1.948583 0.045560 -0.020524 -19072.100000 0 0 1
-17.875109 27.849146 -13.220510 35.635324 -1.000168 1.950876 0.041458 -0.017514 -23685.300000 0 0 1
-16.789509 28.080146 -14.066410 35.612443 -1.031912 1.976849 0.073408 -0.025758 -187668.000000 0 0 1
-15.692509 27.196446 -13.811810 34.302589 -1.047456 1.985202 0.082553 -0.029697 832985.000000 0 0 1
-14.312409 27.620646 -14.361010 34.263446 -1.092712 2.003289 0.072388 -0.034427 91669.100000 0 0 1
-14.247809 27.555346 -15.743210 34.787150 -1.093593 2.040428 0.056855 -0.028664 196537.000000 0 0 1
-13.127109 28.211046 -16.342910 35.146477 -1.135277 2.054424 0.084216 -0.035731 306958.000000 0 0 1
-13.182509 28.159146 -17.843110 35.848189 -1.132957 2.091788 0.105896 -0.043745 -125444.000000 0 0 1
-12.858809 26.965646 -18.484210 35.130629 -1.125832 2.124871 0.081140 -0.042566 130743.000000 0 0 1
-13.197109 27.111246 -19.857510 36.104073 -1.117784 2.153170 0.069685 -0.047369 -246659.000000 0 0 1
-12.557909 26.005646 -20.734010 35.551285 -1.120929 2.193476 0.030057 -0.023936 -480752.000000 0 0 1
-11.345409 26.486246 -21.253310 35.804228 -1.166091 2.206318 0.036909 -0.024501 -697862.000000 0 0 1
-10.632909 25.387346 -21.765010 35.089767 -1.174166 2.239879 0.035196 -0.022993 -546406.000000 0 0 1
-9.465909 25.902646 -22.584510 35.645625 -1.220432 2.256974 0.046481 -0.016888 -412160.000000 0 0 1
-9.801309 26.554646 -23.830910 37.001718 -1.217209 2.270575 0.055594 -0.017923 242671.000000 0 0 1
-8.588409 26.884746 -24.491710 37.368358 -1.261590 2.285526 0.048816 -0.019029 280531.000000 0 0 1
-8.856909 27.629746 -25.811310 38.833895 -1.260588 2.297834 0.064236 -0.017000 -35415.500000 0 0 1
-9.750509 26.855946 -26.612030 39.045031 -1.222528 2.320706 0.066031 -0.018226 16631.300000 0 0 1
-10.228309 27.519746 -27.768080 40.410655 -1.214947 2.328352 0.085305 -0.019950 558800.000000 0 0 1
-11.358009 26.678046 -28.491070 40.650505 -1.168296 2.347425 0.070281 -0.018547 541962.000000 0 0 1
-11.870309 27.268546 -29.655090 41.998836 -1.160224 2.354762 0.089799 -0.017227 1080950.000000 0 0 1
-13.095909 26.594346 -30.084590 42.235585 -1.113221 2.363572 0.080724 -0.017710 998248.000000 0 0 1
-13.377109 26.958246 -31.592850 43.632582 -1.110181 2.380475 0.077904 -0.018742 -160981.000000 0 0 1
-12.509409 26.497946 -32.622040 43.850017 -1.129725 2.409752 0.069944 -0.015429 93313.600000 0 0 1
-12.241309 25.121946 -32.611760 42.947511 -1.117380 2.433094 0.066149 -0.020254 -14459.700000 0 0 1
-11.416809 24.624646 -33.820650 43.365344 -1.136663 2.465303 0.047514 -0.012995 107265.000000 0 0 1
-12.099909 24.670046 33.529360 43.350167 -1.114802 0.686524 0.052809 -0.010245 -320810.000000 0 0 1
-11.387109 23.903746 32.630621 42.021575 -1.126228 0.681671 0.048318 -0.009072 -534334.000000 0 0 1
-11.880609 23.860346 31.158783 41.004082 -1.108812 0.707645 0.048303 -0.002769 -100857.000000 0 0 1
-13.190709 23.348746 31.084933 41.054011 -1.056553 0.711824 0.045106 -0.004695 -160569.000000 0 0 1
-13.683809 23.173746 29.786333 40.143428 -1.037401 0.734751 0.054248 -0.001740 437612.000000 0 0 1
-15.010709 22.377746 29.645193 40.061483 -0.979946 0.737737 0.038726 -0.005155 386555.000000 0 0 1
-14.740809 21.024146 29.961673 39.458941 -0.959308 0.708540 0.015044 -0.007638 -112263.000000 0 0 1
-15.893209 20.248346 29.774983 39.359106 -0.905322 0.712859 0.011628 -0.010892 -289042.000000 0 0 1
-15.642709 18.730346 29.890933 38.587409 -0.874985 0.684668 0.003150 -0.011771 -188270.000000 0 0 1
-15.186709 18.203846 28.647253 37.184423 -0.875512 0.691312 0.007213 -0.012683 233840.000000 0 0 1
-14.957909 16.751946 28.734503 36.469692 -0.841915 0.663404 -0.007439 -0.011219 -165276.000000 0 0 1
-14.727009 16.319446 27.265883 35.023385 -0.836645 0.678516 -0.004110 -0.015252 -324220.000000 0 0 1
-13.563509 16.881846 26.733483 34.404137 -0.893963 0.680842 -0.006051 -0.015668 -735081.000000 0 0 1
-13.037009 15.990246 25.800053 33.034744 -0.886789 0.674535 -0.002125 -0.013633 697500.000000 0 0 1
-11.753909 16.660146 25.139293 32.368178 -0.956382 0.681439 0.007866 -0.013457 727414.000000 0 0 1
-11.991009 17.723746 24.211533 32.312750 -0.975982 0.723811 0.008115 -0.017162 -318757.000000 0 0 1
-12.189309 19.046046 24.711943 33.496437 -1.001489 0.741067 0.013995 -0.012974 -159386.000000 0 0 1
-11.087809 19.730846 25.540893 34.125988 -1.058822 0.725106 0.004731 -0.005627 -134177.000000 0 0 1
-10.974009 19.252646 26.876123 34.834168 -1.052728 0.689530 0.009931 -0.002150 -182671.000000 0 0 1
-12.022609 19.674446 27.718333 36.054583 -1.022271 0.693852 0.016972 0.001865 -89918.400000 0 0 1
-11.801309 19.256346 29.158813 36.882437 -1.020980 0.659028 0.009905 0.003556 -541821.000000 0 0 1
-10.700709 19.903546 29.700253 37.319718 -1.077501 0.650415 0.005120 0.001281 -550033.000000 0 0 1
-10.647209 19.923846 31.122223 38.456670 -1.080013 0.627871 -0.001602 -0.002705 454174.000000 0 0 1
-9.483109 20.828446 31.693433 39.092547 -1.143547 0.625401 0.003355 -0.006986 841101.000000 0 0 1
-8.242509 20.129046 31.798473 38.526100 -1.182141 0.599931 0.004438 -0.013209 26169.900000 0 0 1
-7.325609 21.041346 32.362143 39.290089 -1.235768 0.602940 -0.002267 -0.007826 269095.000000 0 0 1
-6.107009 20.262446 32.981840 39.187550 -1.278060 0.570482 0.003268 -0.005348 117952.000000 0 0 1
-6.502509 19.535646 34.151698 39.878097 -1.249478 0.542535 0.001003 -0.011129 420579.000000 0 0 1
-5.456909 18.999046 -33.611140 38.992952 -1.291105 2.609959 -0.003467 -0.012336 472112.000000 0 0 1
-4.495909 17.904646 -34.172960 38.840452 -1.324780 2.646299 -0.002510 -0.012172 269068.000000 0 0 1
-5.139609 16.637146 34.280207 38.449224 -1.271173 0.469994 -0.002303 -0.013291 -8974.740000 0 0 1
-4.896909 16.054346 33.045768 37.064060 -1.274740 0.469963 0.009595 -0.007524 164836.000000 0 0 1
-5.575209 14.694046 32.681600 36.264100 -1.208157 0.448241 0.014318 -0.009396 170701.000000 0 0 1
-4.890709 13.655146 33.376435 36.391874 -1.226872 0.409952 0.022484 -0.007017 546360.000000 0 0 1
-5.621609 12.452646 33.187250 35.889615 -1.146746 0.390540 0.036037 -0.009597 184021.000000 0 0 1
-4.752109 11.286446 33.692787 35.849272 -1.172280 0.348618 0.055685 -0.014304 -75770.100000 0 0 1
-4.557509 11.198446 -33.503840 35.618582 -1.184290 2.795272 0.047472 -0.017416 -442960.000000 0 0 1
-3.742209 10.094746 -33.281490 34.979503 -1.215793 2.828732 0.070731 -0.023490 -88088.800000 0 0 1
-3.637009 9.597446 -31.808960 33.423775 -1.208562 2.829479 0.068511 -0.022087 192857.000000 0 0 1
-4.854009 9.022746 -31.387980 33.017823 -1.077232 2.826080 0.058277 -0.021482 -195312.000000 0 0 1
-4.758409 8.585246 -30.044850 31.607624 -1.064693 2.825821 0.068650 -0.015236 251748.000000 0 0 1
-5.967309 7.751146 -29.506450 31.085682 -0.914705 2.821472 0.048154 -0.011597 16582.800000 0 0 1
-5.794509 6.924046 -28.397150 29.797934 -0.873976 2.833754 0.049124 -0.004996 -273513.000000 0 0 1
-6.921009 6.140746 -28.135790 29.618099 -0.725733 2.823880 0.055750 -0.017598 -940377.000000 0 0 1
-6.644809 5.226546 -26.927570 28.223471 -0.666492 2.837384 0.049217 -0.018232 -201813.000000 0 0 1
-6.848709 5.872846 -25.686170 27.224520 -0.708839 2.803817 0.029874 -0.011191 26356.300000 0 0 1
-5.778909 6.736046 -25.338820 26.848201 -0.861729 2.804684 0.033200 -0.009481 -512675.000000 0 0 1
-6.020009 7.843546 -24.322210 26.255126 -0.916182 2.755479 0.011004 0.001790 -203379.000000 0 0 1
-6.319709 7.396846 -22.968210 24.943751 -0.863766 2.740923 0.002520 0.006616 -9296.100000 0 1 0
-7.630009 7.681546 -22.506910 24.975672 -0.788764 2.693219 0.005388 0.009349 127404.000000 0 1 0
-7.679309 7.819346 -20.966710 23.658337 -0.794433 2.659937 0.001037 0.004990 4886.980000 0 1 0
-7.021909 8.998946 -20.522110 23.482871 -0.908181 2.634002 -0.011059 0.004216 24757.000000 0 1 0
-6.866109 9.227146 -19.166010 22.352173 -0.931069 2.601102 -0.002169 0.006704 -193720.000000 0 1 0
-8.145809 9.424546 -18.293810 22.132324 -0.858048 2.543774 -0.000082 0.006855 -436191.000000 0 1 0
-7.930509 9.425146 -16.873510 20.891187 -0.871304 2.511012 -0.001328 0.000207 415948.000000 0 1 0
-9.041409 9.823946 -16.047310 20.875180 -0.826855 2.447644 0.010079 -0.007406 399494.000000 0 1 0
-9.509309 11.265846 -16.361710 22.023892 -0.869747 2.408199 0.020006 -0.011701 -623501.000000 0 1 0
-8.480009 12.202046 -16.137410 21.936647 -0.963457 2.397403 0.005528 -0.011951 11571.100000 0 1 0
-8.881709 13.554346 -16.228010 22.933673 -0.990728 2.356901 0.029283 -0.019435 103766.000000 0 1 0
-7.723109 14.493946 -15.812210 22.797958 -1.081215 2.337243 0.027390 -0.018160 156630.000000 0 1 0
-7.409409 14.388346 -14.390810 21.656852 -1.095253 2.297610 0.024163 -0.023892 478361.000000 0 1 0
-8.330009 15.117946 -13.587310 21.967165 -1.067185 2.237665 0.025187 -0.032376 158784.000000 0 1 0
-7.534409 15.963746 -12.524110 21.643979 -1.129823 2.187859 0.010477 -0.025588 897238.000000 0 1 0
-6.963809 17.232846 -12.954610 22.655850 -1.186760 2.179494 0.019236 -0.024964 374546.000000 0 1 0
-5.980109 17.297646 -13.984410 23.033323 -1.237941 2.223250 0.021479 -0.014375 76374.200000 0 1 0
-5.881109 18.744746 -14.564710 24.455750 -1.266776 2.208751 0.037640 -0.006170 96110.000000 0 1 0
-5.280809 19.648946 -13.670910 24.512483 -1.308243 2.162423 0.032372 -0.011493 -166793.000000 0 1 0
-5.356809 21.009246 -14.144110 25.887056 -1.321142 2.148829 0.035372 -0.010604 -90595.500000 0 0 1
-4.760809 21.947746 -13.090510 25.994813 -1.357190 2.098536 0.035186 -0.015471 -635902.000000 0 0 1
-4.786709 23.344546 -13.192410 27.238210 -1.368553 2.076399 0.020819 -0.014532 1540810.000000 0 0 1
-6.132309 23.920046 -13.068810 27.938640 -1.319834 2.057560 0.020368 -0.010978 1583020.000000 0 0 1
-6.864809 23.849446 -11.740610 27.454756 -1.290533 2.012671 0.012371 -0.011380 -411715.000000 0 0 1
-7.262309 22.547046 -11.362610 26.272026 -1.259193 2.018058 0.015848 -0.012041 -211500.000000 0 0 1
-7.999809 22.427046 -10.160410 25.888284 -1.228162 1.974113 0.021621 -0.013899 -106996.000000 0 0 1
-7.414309 22.841246 -8.791810 25.573237 -1.256925 1.921746 0.024284 -0.012337 -257148.000000 0 0 1
-7.460309 24.268046 -8.722510 26.845418 -1.272553 1.901719 0.012674 -0.003849 -16650.800000 0 0 1
-7.067909 24.915346 -7.488810 26.959453 -1.294381 1.852279 0.009535 -0.004155 68134.400000 0 0 1
-7.121509 26.445446 -7.670510 28.441418 -1.307746 1.843873 0.017227 -0.005747 263027.000000 0 0 1
-6.051409 27.020546 -8.416210 28.940664 -1.350476 1.865869 0.002400 -0.004968 120894.000000 0 0 1
-6.242509 26.927646 -9.788210 29.323644 -1.342995 1.911127 0.002550 0.001661 -14917.900000 0 0 1
-5.504209 28.010746 -10.573610 30.441738 -1.376765 1.925529 0.001126 0.008666 81278.600000 0 0 1
-6.137209 29.264946 -10.497010 31.690529 -1.364080 1.908408 -0.003681 0.010598 121805.000000 0 0 1
-7.052309 29.525846 -11.559310 32.482738 -1.336337 1.934631 0.006866 0.001097 -19106.600000 0 0 1
-7.974109 30.730746 -11.258010 33.685427 -1.316913 1.911563 0.025534 -0.005939 19728.000000 0 0 1
-9.006809 30.357246 -10.355510 33.315486 -1.282375 1.886864 0.036491 -0.004615 -345901.000000 0 0 1
-9.961809 31.392846 -10.319610 34.514385 -1.263520 1.874435 0.046766 -0.016369 271939.000000 0 0 1
-11.157709 30.997246 -9.392710 34.257068 -1.225278 1.848536 0.060655 -0.013724 1166930.000000 0 0 1
-12.134009 30.155146 -10.080810 34.032187 -1.188235 1.871523 0.067202 -0.021205 394673.000000 0 0 1
-13.167909 29.702546 -9.243810 33.779922 -1.153506 1.847980 0.083103 -0.013327 402657.000000 0 0 1
-14.095109 28.610246 -9.840010 33.377299 -1.113038 1.870055 0.075314 -0.011721 158197.000000 0 0 1
-13.667809 27.274546 -9.638910 31.994038 -1.106253 1.876823 0.050591 -0.009472 337262.000000 0 0 1
-14.711209 26.364946 -10.010910 31.807992 -1.061844 1.890968 0.068883 -0.007809 253252.000000 0 0 1
-14.754109 25.018746 -9.320110 30.503866 -1.037968 1.881300 0.057822 -0.008519 -693661.000000 0 0 1
-13.793309 24.089746 -9.682210 29.399259 -1.050783 1.906396 0.052138 -0.008000 -233950.000000 0 0 1
-14.108509 22.796246 -9.109410 28.314311 -1.016598 1.898347 0.057780 -0.010488 -68144.800000 0 0 1
-13.125709 21.656846 -9.452010 27.030422 -1.025921 1.928026 0.059626 -0.007332 -109364.000000 0 0 1
-13.201809 21.245046 -10.813610 27.250209 -1.014785 1.978853 0.059525 -0.007938 32828.400000 0 0 1
-12.426909 20.129946 -11.131310 26.144767 -1.017728 2.010594 0.056293 -0.012427 -358356.000000 0 0 1
-12.692409 19.614346 -12.543010 26.516918 -0.996464 2.063511 0.063068 -0.013521 596825.000000 0 0 1
-14.008709 19.096246 -12.770410 26.907135 -0.937884 2.065318 0.063631 -0.008607 399165.000000 0 0 1
-14.166309 18.552846 -14.065410 27.253040 -0.918670 2.113093 0.066071 -0.012725 257230.000000 0 0 1
-15.663109 18.467546 -14.444210 28.196071 -0.867382 2.108631 0.061981 0.003052 313543.000000 0 0 1
-16.232309 19.690346 -14.883710 29.541876 -0.881366 2.098809 0.037146 0.007875 373767.000000 0 0 1
-17.505609 19.513746 -15.514510 30.461987 -0.839591 2.105176 0.028951 0.015393 464159.000000 0 0 1
-18.044709 20.783446 -16.211910 31.943531 -0.855816 2.103098 0.027199 0.013715 32278.300000 0 0 1
-18.519909 21.746946 -15.262010 32.385887 -0.865369 2.061509 0.024751 0.005586 232046.000000 0 0 1
-18.881209 22.957046 -15.853410 33.687633 -0.882511 2.060767 0.032217 -0.002064 -141256.000000 0 0 1
-19.436909 24.087146 -14.974410 34.383383 -0.891837 2.021404 0.024235 0.011483 -588401.000000 0 0 1
-20.729909 23.795146 -14.555310 34.753347 -0.854133 2.002939 0.030391 0.010548 -599437.000000 0 0 1
-21.208309 24.825646 -13.738710 35.423964 -0.863817 1.969080 0.035224 -0.005254 -240236.000000 0 0 1
-25.854549 -0.783054 3.084390 26.049652 0.030278 1.452114 0.100479 -0.026001 -95196.100000 0 0 1
-26.127149 -0.046054 4.258590 26.471978 0.001763 1.409223 0.091646 -0.022713 -348317.000000 0 0 1
-27.339679 -0.412154 4.825790 27.765377 0.015074 1.396103 0.088316 -0.021987 -677528.000000 0 0 1
-27.508539 0.360446 6.148690 28.189644 -0.013102 1.350910 0.084043 -0.009373 -183436.000000 0 0 1
-27.786949 1.722846 6.003690 28.480292 -0.061923 1.358401 0.094528 -0.010739 49822.400000 0 0 1
-28.071429 2.523646 7.140890 29.075182 -0.089660 1.322657 0.101455 -0.000898 -201393.000000 0 0 1
-26.889769 3.033046 7.986690 28.214292 -0.112321 1.283800 0.096092 -0.001228 -58476.700000 0 0 1
-26.325349 2.072446 8.887090 27.862150 -0.078562 1.246158 0.086455 -0.008746 101526.000000 0 0 1
-25.223619 2.585846 9.596090 27.110930 -0.102160 1.208998 0.081562 -0.018625 -130730.000000 0 0 1
-24.533509 1.416346 10.349390 26.664752 -0.057667 1.172195 0.073379 -0.016587 -41756.800000 0 0 1
-23.791609 0.471246 9.567590 25.647642 -0.019805 1.188513 0.071865 -0.021300 699256.000000 0 0 1
-24.606109 -0.549754 8.994590 26.204303 0.022338 1.220423 0.073114 -0.016662 -101941.000000 0 0 1
-23.749709 -1.562854 8.241390 25.187531 0.065710 1.237456 0.083679 -0.021114 4272.720000 0 0 1
-22.898609 -2.343354 9.073890 24.742132 0.101981 1.195296 0.078744 -0.025418 -140568.000000 0 1 0
-21.772709 -2.742954 8.353990 23.481137 0.125321 1.207054 0.081145 -0.021207 -223085.000000 0 1 0
-20.525009 -2.809454 9.274790 22.697814 0.136034 1.149854 0.074017 -0.016331 -77414.500000 0 1 0
-19.869209 -1.633654 9.651890 22.149792 0.082036 1.119919 0.059710 -0.013066 361388.000000 0 1 0
-20.422509 -0.997154 10.771790 23.110704 0.048787 1.085924 0.062912 -0.019962 -163116.000000 0 1 0
-19.769609 0.409746 10.979190 22.617426 -0.020723 1.063941 0.028465 -0.012463 -126781.000000 0 1 0
-20.096509 1.385046 9.995390 22.487682 -0.068811 1.110199 0.025883 0.000042 324337.000000 0 1 0
-20.602209 2.507046 10.674690 23.338494 -0.121093 1.095743 0.031658 0.001906 -169783.000000 0 1 0
-21.203609 3.664046 9.808990 23.648141 -0.171113 1.143085 0.027104 -0.001138 -249250.000000 0 1 0
-21.574709 4.741446 10.638590 24.517932 -0.216330 1.121968 0.024666 -0.008036 586323.000000 0 1 0
-21.938509 5.989446 10.088790 24.878813 -0.266516 1.153252 0.017550 -0.006450 -200241.000000 0 1 0
-22.099009 7.121246 11.148890 25.756089 -0.311736 1.123129 0.019166 -0.016054 -84366.400000 0 0 1
-23.170409 6.860046 12.028390 26.992782 -0.287847 1.108935 0.031980 -0.010900 293410.000000 0 0 1
-23.265409 7.897546 12.968490 27.781869 -0.327249 1.085131 0.036356 -0.014922 -192959.000000 0 0 1
-23.988209 7.638246 14.290690 28.948243 -0.308266 1.054499 0.046813 -0.018839 -1159020.000000 0 0 1
-25.344939 7.514346 14.120990 29.970547 -0.288227 1.080188 0.056790 -0.020641 -1430130.000000 0 0 1
-26.019739 7.019946 15.224390 30.953005 -0.263519 1.056577 0.051279 -0.020900 964015.000000 0 0 1
-27.564959 6.895646 14.911690 32.089491 -0.245129 1.087511 0.068331 -0.016254 943565.000000 0 0 1
-27.846969 5.919846 13.919190 31.689779 -0.209467 1.116052 0.081524 -0.006836 -743818.000000 0 0 1
-29.039389 6.090346 13.245090 32.493243 -0.206731 1.150944 0.076872 -0.001788 -1452940.000000 0 0 1
-29.401049 4.961946 12.253590 32.236518 -0.167192 1.180875 0.096875 -0.004549 -178961.000000 0 0 1
-29.749359 3.759546 12.929590 32.654752 -0.125708 1.163696 0.093545 -0.008794 145671.000000 0 0 1
-30.186339 2.817546 11.967390 32.594049 -0.093069 1.194837 0.082211 0.004321 244356.000000 0 0 1
-31.354989 1.877746 12.411390 33.774308 -0.059815 1.194498 0.083469 0.008613 590776.000000 0 0 1
-30.946029 0.674346 13.122590 33.620140 -0.021788 1.169818 0.066274 0.013639 -311792.000000 0 0 1
-32.133249 0.102046 13.592990 34.890192 -0.003176 1.170606 0.074237 0.014921 -118990.000000 0 0 1
-32.060179 -1.148354 14.541090 35.222395 0.035803 1.145230 0.060766 0.001682 -100512.000000 0 0 1
-31.753759 -2.361054 13.951990 34.763973 0.074219 1.157823 0.046929 0.005186 -1954.860000 0 0 1
-31.851849 -3.345754 14.955490 35.346868 0.104657 1.133925 0.040781 0.009813 -23753.200000 0 0 1
-31.743869 -4.763054 14.358890 35.164437 0.148935 1.150166 0.045064 0.008562 126238.000000 0 0 1
-32.796289 -5.051954 13.445790 35.803744 0.152839 1.185815 0.037836 0.006857 368968.000000 0 0 1
-32.799079 -6.417054 13.109290 35.900023 0.193207 1.196991 0.047642 0.008159 -27350.600000 0 0 1
-34.061072 -6.895654 12.308490 36.867406 0.199750 1.230403 0.045892 0.006663 2066110.000000 0 0 1
-35.329933 -7.004954 13.038890 38.305172 0.195734 1.223459 0.037950 0.000544 1676140.000000 0 0 1
35.963854 -5.783054 13.354990 38.796885 -0.159437 1.219379 0.046847 0.004960 -236466.000000 0 0 1
34.494086 -5.706254 12.887290 37.262388 -0.163942 1.217649 0.063172 0.001480 382848.000000 0 0 1
33.581616 -6.532254 13.627590 36.825351 -0.192120 1.191723 0.062148 -0.005173 1233900.000000 0 0 1
32.241596 -6.333854 13.106690 35.375465 -0.193980 1.191247 0.069944 -0.004235 1455080.000000 0 0 1
31.174196 -7.355154 13.614490 34.803493 -0.231700 1.168881 0.059164 -0.009528 181559.000000 0 0 1
30.689186 -7.180254 14.945490 34.881942 -0.229833 1.128009 0.066898 -0.008730 857852.000000 0 0 1
29.733786 -8.250854 15.228090 34.410309 -0.270680 1.112362 0.074445 -0.009359 645617.000000 0 0 1
29.234436 -8.138254 16.685790 34.630897 -0.271505 1.068068 0.058679 -0.012890 -24919.800000 0 0 1
30.273906 -8.509054 17.540290 36.007987 -0.274000 1.062005 0.036869 -0.007038 -36755.500000 0 0 1
29.757786 -8.748554 18.828590 36.284691 -0.285936 1.025218 0.036371 -0.015248 818934.000000 0 0 1
30.923516 -9.212954 19.838090 37.877331 -0.289554 1.019554 0.032308 -0.012065 1060060.000000 0 0 1
31.919816 -8.237954 19.951690 38.533213 -0.252571 1.026543 0.037226 -0.010541 -162856.000000 0 0 1
33.113696 -8.597854 19.262190 39.261583 -0.254037 1.058005 0.012130 -0.007540 239098.000000 0 0 1
34.400946 -8.056554 19.920990 40.560806 -0.230050 1.057400 -0.002299 -0.005561 96095.600000 0 0 1
34.633566 -8.598854 21.207690 41.511327 -0.243360 1.034577 0.003460 -0.005919 482353.000000 0 0 1
35.901776 -8.264954 21.782990 42.798898 -0.226268 1.036818 0.003691 -0.004856 474884.000000 0 0 1
-35.786247 -8.925154 23.191990 43.568133 0.244416 1.009463 0.000687 -0.001161 -282808.000000 0 0 1
35.741536 -8.171854 24.282490 43.975856 -0.224774 0.985822 0.004680 0.001368 140142.000000 0 0 1
35.406196 -9.043154 25.357990 44.479265 -0.250065 0.964159 0.005256 -0.001149 -299748.000000 0 0 1
34.885466 -8.344854 26.674290 44.700672 -0.234795 0.931375 0.022044 -0.004197 688032.000000 0 0 1
35.943630 -7.721054 27.425490 45.866292 -0.211595 0.929862 0.006755 -0.008888 599298.000000 0 0 1
35.426346 -6.981054 28.550290 46.031296 -0.194565 0.901752 0.017429 -0.016321 150944.000000 0 0 1
-35.422966 -6.530254 29.501390 46.559239 0.182304 0.884558 0.029215 -0.011902 25024.300000 0 0 1
-34.947712 -7.473154 30.369490 46.898790 0.210665 0.866426 0.028399 -0.009319 -532910.000000 0 0 1
-33.647999 -7.142454 30.780590 46.158934 0.209165 0.840837 0.025170 -0.017185 203032.000000 0 0 1
-33.033599 -7.964854 31.965090 46.652166 0.236598 0.815947 0.017265 -0.008055 80752.700000 0 0 1
-32.972999 -9.376654 31.765190 46.735079 0.277060 0.823462 0.011766 -0.008768 317386.000000 0 0 1
-32.406189 -9.989154 32.902490 47.249531 0.299007 0.800489 0.004122 -0.003549 -254371.000000 0 0 1
-32.440199 -11.528454 32.729990 47.502884 0.341456 0.810673 0.018738 -0.010156 -1001550.000000 0 0 1
-33.745249 -11.954254 32.886490 48.612419 0.340456 0.827791 0.011126 -0.017120 -732120.000000 0 0 1
-33.918789 -13.348754 33.042790 49.198572 0.374934 0.834402 0.018860 -0.018317 -360278.000000 0 0 1
-35.405788 -13.687054 33.094590 50.360274 0.368881 0.853756 0.017191 -0.015101 -338067.000000 0 0 1
-35.833742 -14.985454 33.464990 51.269157 0.396092 0.859612 0.010622 -0.015540 1284850.000000 0 0 1
34.691356 -15.208854 33.495790 50.564487 -0.413170 0.846729 0.000698 -0.009164 1051040.000000 0 0 1
34.383976 -16.682054 33.829690 51.039168 -0.451713 0.846220 -0.001561 -0.005267 -336959.000000 0 0 1
34.668196 -16.999154 -33.401243 51.053875 -0.455889 2.283967 -0.000310 -0.003348 166573.000000 0 0 1
34.759406 -18.411754 -33.273443 51.520200 -0.487118 2.272910 -0.009320 -0.009558 -186421.000000 0 0 1
35.448636 -18.872554 -31.969243 51.330416 -0.489224 2.243129 -0.014270 -0.006376 77705.500000 0 0 1
34.700036 -18.543954 -30.820943 49.979008 -0.490793 2.235312 -0.018885 0.000167 49375.200000 0 0 1
35.208566 -19.425754 -29.821543 50.063235 -0.504173 2.208905 -0.020350 0.002724 -476743.000000 0 0 1
34.182196 -19.662554 -28.650743 48.743242 -0.522006 2.199120 -0.000891 0.003741 108946.000000 0 0 1
33.023816 -20.358654 -28.970843 48.418560 -0.552452 2.212226 -0.005374 -0.003465 -51313.500000 0 0 1
32.062596 -19.623254 -29.732243 47.927951 -0.549218 2.239989 -0.000340 -0.001249 -413100.000000 0 0 1
30.726256 -20.397054 -29.905543 47.481408 -0.586037 2.252140 0.007213 -0.000783 616686.000000 0 0 1
29.640656 -19.738554 -30.554943 46.923167 -0.587491 2.279921 0.007935 0.002394 586391.000000 0 0 1
28.568916 -20.629054 -30.781043 46.789031 -0.625392 2.288782 0.014092 0.002892 -48079.900000 0 0 1
27.403416 -20.079954 -31.619343 46.410501 -0.632372 2.320330 0.014919 0.004968 -187424.000000 0 0 1
27.624016 -19.974754 -33.005043 47.449025 -0.626058 2.340036 0.004803 0.007000 -297912.000000 0 0 1
26.444256 -19.851254 -33.751843 47.249951 -0.643938 2.366456 0.018619 0.011464 -464088.000000 0 0 1
26.601356 -19.979754 33.298790 47.070502 -0.644192 0.784950 0.004456 0.010148 418849.000000 0 0 1
27.409896 -18.888454 32.677790 46.646694 -0.603380 0.794645 0.004964 0.014463 1100650.000000 0 0 1
27.618356 -19.167054 31.274490 45.915610 -0.606686 0.821492 -0.003047 0.012964 -337257.000000 0 0 1
26.757556 -18.355954 30.324790 44.412844 -0.601275 0.819217 0.004058 0.023627 -596013.000000 0 0 1
27.038276 -16.963754 30.418890 44.092473 -0.560322 0.809461 0.016364 0.013994 173355.000000 0 0 1
26.283956 -16.130454 29.604890 42.749122 -0.550432 0.805811 0.026719 0.018626 -253585.000000 0 0 1
25.736956 -14.868554 30.316890 42.456785 -0.523870 0.775509 0.036355 0.008393 636201.000000 0 0 1
26.805356 -13.916154 30.492290 42.918134 -0.478854 0.780622 0.045059 0.011762 1078760.000000 0 0 1
26.304156 -12.615454 30.810790 42.430686 -0.447194 0.758099 0.066094 -0.000472 -586303.000000 0 0 1
27.435536 -11.681754 31.137890 43.113109 -0.402539 0.763765 0.073654 -0.012329 -882220.000000 0 0 1
27.953856 -11.152854 29.982990 42.482748 -0.379621 0.787289 0.071251 -0.014354 -99917.000000 0 0 1
29.293266 -10.826854 30.335390 43.537938 -0.354030 0.799929 0.070378 -0.015159 -61569.600000 0 0 1
30.146496 -10.370554 29.152490 43.199853 -0.331324 0.830064 0.063257 -0.007687 -289425.000000 0 0 1
29.870866 -9.047154 28.677690 42.385487 -0.294093 0.827672 0.067352 -0.018431 222581.000000 0 0 1
30.589546 -8.667654 27.468990 42.016592 -0.276116 0.858247 0.060966 -0.008509 425510.000000 0 0 1
30.552306 -7.157654 27.214990 41.537105 -0.230125 0.856353 0.065989 -0.005596 -513176.000000 0 0 1
29.280396 -6.654754 26.971790 40.362170 -0.223480 0.838950 0.069137 -0.006348 -892545.000000 0 0 1
29.270226 -5.263054 26.598890 39.899208 -0.177908 0.841088 0.066622 -0.007004 -544994.000000 0 0 1
27.872446 -4.780354 26.284990 38.608622 -0.169856 0.821934 0.059286 -0.003406 -568107.000000 0 0 1
27.212856 -5.384254 25.196990 37.475566 -0.195334 0.833407 0.065706 -0.005095 -127424.000000 0 0 1
25.905656 -4.840754 25.122190 36.409619 -0.184730 0.809324 0.066116 -0.007981 182027.000000 0 0 1
25.129556 -5.329854 23.877390 35.071808 -0.208998 0.821922 0.073274 -0.010277 -188295.000000 0 0 1
25.559656 -4.521754 22.842990 34.576646 -0.175098 0.849115 0.077588 -0.003529 484393.000000 0 0 1
24.882756 -4.840054 21.583290 33.292883 -0.192115 0.865466 0.084423 -0.006518 300644.000000 0 0 1
25.210256 -3.923754 20.380890 32.654763 -0.154402 0.896776 0.091881 -0.010304 -103134.000000 0 0 1
24.594056 -2.673454 20.446290 32.094637 -0.108278 0.880115 0.084096 -0.002654 -67659.000000 0 0 1
24.986656 -1.796554 19.396290 31.682434 -0.071777 0.911944 0.086461 -0.010281 97505.600000 0 0 1
23.801056 -0.814854 19.026890 30.482401 -0.034223 0.896699 0.070324 -0.009517 501935.000000 0 0 1
22.815356 -1.457254 18.281690 29.272585 -0.063785 0.896263 0.076691 -0.015234 -539352.000000 0 0 1
21.825356 -0.625954 17.762490 28.146830 -0.028672 0.887870 0.069454 -0.013571 35268.600000 0 0 1
20.666656 -1.263754 16.989790 26.783590 -0.061073 0.883647 0.058247 -0.011652 65009.900000 0 0 1
21.098156 -1.845954 15.760590 26.399544 -0.087271 0.931037 0.078231 -0.027429 694822.000000 0 0 1
20.072956 -2.731154 15.271190 25.369115 -0.135231 0.924843 0.071716 -0.026773 524257.000000 0 0 1
20.460256 -3.337254 13.891690 24.954727 -0.161685 0.980418 0.078530 -0.037018 121225.000000 0 1 0
19.506556 -4.296554 13.416790 24.061928 -0.216800 0.979312 0.074790 -0.033972 726820.000000 0 1 0
19.702556 -4.700654 12.095590 23.592163 -0.234203 1.032475 0.069135 -0.030319 -820376.000000 0 1 0
18.650256 -5.679554 11.629490 22.700978 -0.295607 1.032947 0.051000 -0.028611 -652468.000000 0 1 0
18.540456 -6.850454 12.423290 23.345564 -0.353928 1.009661 0.053173 -0.025695 750625.000000 0 1 0
17.343556 -7.599954 12.222290 22.537582 -0.412998 0.997616 0.029931 -0.013918 45989.500000 0 1 0
17.439856 -9.124654 12.570290 23.354230 -0.482040 1.002443 0.041334 -0.024490 -479827.000000 0 1 0
18.365556 -9.683454 11.677690 23.820818 -0.485218 1.058442 0.029046 -0.032669 317047.000000 0 1 0
18.170956 -11.070954 11.630490 24.249082 -0.547205 1.070568 0.048644 -0.031628 -241109.000000 0 1 0
18.893456 -11.833654 10.511390 24.647259 -0.559560 1.130207 0.057023 -0.031549 -247167.000000 0 1 0
18.420856 -11.446454 9.268690 23.585119 -0.555996 1.166917 0.059123 -0.028521 175999.000000 0 1 0
18.897756 -12.191854 8.203290 23.938681 -0.572957 1.221029 0.040607 -0.029489 -410001.000000 0 1 0
18.446256 -11.670054 6.867990 22.882828 -0.564083 1.265960 0.030038 -0.014819 -339031.000000 0 1 0
18.643456 -10.299254 6.710690 22.331288 -0.504709 1.265573 0.012999 -0.007834 802933.000000 0 1 0
19.435556 -10.045154 5.537190 22.567818 -0.477032 1.322908 0.019624 -0.005656 5442.690000 0 1 0
19.731456 -8.536654 5.354690 22.155756 -0.408326 1.326695 0.016018 -0.005176 -681024.000000 0 1 0
20.333856 -8.204054 4.144890 22.314845 -0.383492 1.383965 0.032765 -0.014044 515060.000000 0 1 0
20.543056 -6.799254 4.127590 22.029163 -0.319627 1.382313 0.033247 -0.013093 -1014750.000000 0 1 0
21.295556 -6.282354 2.920890 22.394202 -0.286870 1.439993 0.049350 -0.017927 -596329.000000 0 1 0
20.588856 -6.368654 1.729590 21.620644 -0.299990 1.490714 0.026313 -0.018680 194249.000000 0 1 0
21.313556 -5.739454 0.698390 22.083857 -0.263047 1.539167 0.052223 -0.009516 187384.000000 0 1 0
-25.411629 -15.189154 -0.337810 29.607016 0.538745 1.582206 0.060604 -0.015081 -757924.000000 0 0 1
-24.311709 -14.581154 -0.958010 28.365243 0.540242 1.604577 0.038751 -0.007643 40189.200000 0 0 1
-23.068209 -15.202154 -0.673210 27.635140 0.582682 1.595159 0.033058 -0.004592 325183.000000 0 0 1
-22.386709 -14.895654 0.671990 26.897896 0.587111 1.545811 0.034869 -0.010893 -681500.000000 0 0 1
-22.979609 -15.467654 1.831990 27.760889 0.592446 1.504757 0.039566 0.007422 -221784.000000 0 0 1
-22.269409 -15.108954 2.973290 27.074850 0.596124 1.460757 0.033892 0.023178 32490.400000 0 0 1
-22.680009 -15.901954 4.262290 28.025383 0.611493 1.418117 0.044385 0.019142 -444530.000000 0 0 1
-22.329209 -17.229054 4.177490 28.511143 0.657178 1.423746 0.059222 0.001793 75381.700000 0 0 1
-22.790009 -17.869254 5.326290 29.445952 0.664960 1.388912 0.052517 -0.001389 -158881.000000 0 0 1
-22.840009 -19.412454 5.050290 30.397612 0.704455 1.403881 0.038352 0.005345 123189.000000 0 0 1
-23.497209 -19.993054 6.159690 31.460814 0.704999 1.373734 0.035166 0.002332 237245.000000 0 0 1
-24.208809 -21.190954 5.838890 32.698862 0.719023 1.391268 0.046454 -0.007055 15258.800000 0 0 1
-24.785609 -21.966654 7.044390 33.859766 0.725175 1.361219 0.046868 -0.001997 -8901.810000 0 0 1
-23.856009 -22.470954 7.993890 33.733592 0.755510 1.331549 0.045862 0.006934 19765.200000 0 0 1
-24.515209 -23.214854 9.030890 34.949705 0.758161 1.309434 0.053748 0.005094 116703.000000 0 0 1
-23.568209 -23.663454 10.142290 34.903948 0.787415 1.275966 0.026370 -0.002033 -11223.400000 0 0 1
-23.401409 -22.818654 11.259790 34.570215 0.772791 1.239036 0.039051 -0.000813 -426079.000000 0 0 1
-22.297109 -23.114354 12.035990 34.297223 0.803393 1.212230 0.042028 -0.000301 -636117.000000 0 0 1
-22.418809 -22.463354 13.387690 34.444673 0.786391 1.171606 0.029609 0.003589 249190.000000 0 0 1
-23.459509 -23.017454 14.209290 35.805805 0.775887 1.162721 0.031995 -0.006392 521713.000000 0 0 1
-23.808709 -22.125954 15.233890 35.895458 0.748781 1.132502 0.020505 0.003786 -400565.000000 0 0 1
-25.173999 -22.352754 15.933490 37.245831 0.726107 1.128747 0.007234 0.010272 334350.000000 0 0 1
-26.327239 -21.939854 15.202590 37.491325 0.694749 1.153275 -0.001993 0.014518 434637.000000 0 0 1
-26.830629 -22.894054 14.309790 38.062980 0.706396 1.185374 -0.009544 0.005813 -446174.000000 0 0 1
-27.967259 -23.796054 14.854890 39.611709 0.704990 1.186386 -0.008202 0.005526 -354697.000000 0 0 1
-27.594389 -24.657054 15.945190 40.294785 0.729242 1.163952 -0.007578 0.011511 -182765.000000 0 0 1
-28.493989 -25.718504 16.177490 41.654052 0.734246 1.171926 0.002693 0.006741 -279086.000000 0 0 1
-28.290989 -27.047764 15.393790 42.058654 0.762936 1.196081 0.022859 0.000786 -261284.000000 0 0 1
-28.892879 -27.096664 14.107890 42.048308 0.753328 1.228643 0.028454 -0.006909 150185.000000 0 0 1
-30.165119 -27.729224 14.121990 43.339069 0.743348 1.238887 0.051786 -0.016196 109303.000000 0 0 1
-30.720429 -28.010624 12.689890 43.466920 0.739292 1.274538 0.075119 -0.020915 -321676.000000 0 0 1
-30.134759 -29.110364 12.039090 43.594228 0.768109 1.290997 0.072617 -0.024466 -9981.380000 0 0 1
-30.607139 -29.442774 10.727690 43.803621 0.766011 1.323375 0.073062 -0.012612 -99657.400000 0 0 1
-30.003509 -30.720304 10.101990 44.113465 0.797202 1.339746 0.065129 -0.025289 -210799.000000 0 0 1
-30.087889 -31.898334 10.907690 45.185866 0.814597 1.326992 0.076435 -0.012634 142194.000000 0 0 1
-29.652529 -33.033794 10.196590 45.546399 0.839285 1.345010 0.082277 -0.013792 -132494.000000 0 0 1
-29.574519 -34.337068 10.951690 46.622161 0.859778 1.333677 0.089515 -0.004773 662041.000000 0 0 1
-30.893079 33.882764 11.251990 47.212618 -0.831520 1.330155 0.093743 -0.001343 561174.000000 0 0 1
-30.957649 32.538046 11.683290 46.406893 -0.810283 1.316300 0.080407 -0.006388 279101.000000 0 0 1
-32.402099 32.179736 12.171790 47.260807 -0.781955 1.310316 0.092187 -0.009322 217309.000000 0 0 1
-33.394219 32.070116 11.233390 47.642998 -0.765175 1.332773 0.060008 -0.012273 -481473.000000 0 0 1
-34.060274 33.320966 10.990390 48.899670 -0.774427 1.344106 0.062824 0.002853 -23822.100000 0 0 1
-35.559171 33.205601 10.612990 49.796607 -0.751185 1.356022 0.043019 0.021545 213700.000000 0 0 1
-35.677550 32.522536 9.406290 49.184156 -0.739170 1.378365 0.029025 0.007526 1296740.000000 0 0 1
34.886476 32.309846 9.038890 48.401383 0.747072 1.382945 0.027421 0.007456 1261980.000000 0 0 1
34.724146 31.741636 7.650790 47.663742 0.740555 1.409583 0.023129 -0.007061 -159532.000000 0 0 1
34.923036 30.376116 7.553190 46.897521 0.715878 1.409034 0.044179 -0.013836 103085.000000 0 0 1
34.747476 29.922706 6.190490 46.271779 0.710930 1.436609 0.069155 -0.017146 -8751.870000 0 0 1
34.783036 28.356666 5.985490 45.274564 0.683967 1.438204 0.073824 -0.010087 99767.000000 0 0 1
33.753476 27.570266 6.570490 44.074800 0.684909 1.421163 0.068246 -0.009441 253604.000000 0 0 1
34.023316 27.179416 7.899290 44.257264 0.674037 1.391349 0.064768 -0.007147 -139318.000000 0 0 1
33.120236 26.008706 8.282890 42.918633 0.665702 1.376587 0.051399 -0.011176 -29527.400000 0 0 1
33.446536 24.786726 7.646590 42.326385 0.637771 1.389141 0.051331 -0.016121 -226329.000000 0 0 1
32.315086 23.974486 7.623090 40.953049 0.638295 1.383562 0.045285 -0.015183 -729679.000000 0 0 1
32.390816 22.848106 6.529590 40.172583 0.614333 1.407534 0.041536 -0.009018 399373.000000 0 0 1
33.369566 21.830206 6.750190 40.443181 0.579319 1.403106 0.048266 -0.005193 1124170.000000 0 0 1
34.760066 22.191006 6.596190 41.763772 0.568181 1.412192 0.057960 -0.010895 865059.000000 0 0 1
35.622376 20.874206 6.632990 41.817253 0.530051 1.411505 0.039202 -0.003490 -39483.800000 0 0 1
35.453696 20.033906 5.463690 41.087393 0.514341 1.437424 0.051804 -0.007315 111377.000000 0 0 1
-35.937340 18.798506 5.763790 40.964588 -0.481949 1.429626 0.055376 -0.004439 -174413.000000 0 0 1
35.436626 17.648506 4.888690 39.888889 0.462070 1.447930 0.057830 -0.005054 -18214.500000 0 0 1
-35.917160 17.548906 3.590990 40.136040 -0.454481 1.481206 0.058950 -0.005710 37842.300000 0 0 1
35.524086 16.505306 2.809990 39.271896 0.434948 1.499183 0.038795 -0.007544 -2694750.000000 0 0 1
-35.587732 16.035306 1.664990 39.069040 -0.423340 1.528167 0.056700 0.000218 -632511.000000 0 0 1
-34.504538 15.243806 2.092490 37.779826 -0.416007 1.515382 0.056194 -0.006469 42399.600000 0 0 1
-33.468409 15.999306 2.694990 37.193752 -0.445927 1.498275 0.064259 -0.008492 -1903010.000000 0 0 1
-32.157579 15.203506 2.808990 35.681184 -0.441637 1.491990 0.062254 -0.017832 -271314.000000 0 0 1
-31.997829 14.326506 3.880290 35.272744 -0.420968 1.460565 0.052735 -0.012871 -328653.000000 0 0 1
-30.669369 13.910906 3.982590 33.911422 -0.425824 1.453084 0.061033 -0.014511 -705757.000000 0 0 1
-30.158619 13.248106 5.287090 33.361773 -0.413904 1.411648 0.063253 -0.008484 -142056.000000 0 0 1
-30.442979 11.843906 5.386990 33.106989 -0.371033 1.407355 0.058956 -0.003452 317840.000000 0 0 1
-29.939539 11.287606 6.566290 32.663469 -0.360535 1.368389 0.033026 0.007305 -307447.000000 0 0 1
-30.117409 9.785406 6.578790 32.343361 -0.314149 1.365962 0.039179 0.001167 599409.000000 0 0 1
-31.461389 9.306906 6.686790 33.483588 -0.287617 1.369741 0.045116 0.008248 329894.000000 0 0 1
-31.574169 8.019906 6.190190 33.159697 -0.248742 1.383017 0.060542 0.002466 284704.000000 0 0 1
-32.979619 7.357006 6.288690 34.370459 -0.219484 1.386792 0.059361 0.004838 197158.000000 0 0 1
-33.448399 7.194606 7.587790 35.044719 -0.211868 1.352551 0.064358 0.006606 -279711.000000 0 0 1
-34.657783 6.466306 7.510790 36.047011 -0.184455 1.360897 0.053507 0.005663 106538.000000 0 0 1
-35.145221 5.919506 8.859490 36.724892 -0.166864 1.327154 0.062715 0.003751 106572.000000 0 0 1
-35.904620 6.775706 9.701890 37.804479 -0.186520 1.311259 0.059586 0.002849 552543.000000 0 0 1
-35.032798 7.613606 10.472990 37.348995 -0.214000 1.286576 0.066352 -0.003902 328093.000000 0 0 1
-35.793696 8.636706 11.361190 38.533855 -0.236766 1.271512 0.055201 -0.010168 -111457.000000 0 0 1
35.374026 7.977106 12.340690 38.304681 0.221797 1.242774 0.056129 -0.014593 519068.000000 0 0 1
34.970736 8.911106 13.356990 38.480766 0.249506 1.216310 0.076016 -0.021537 -38213.400000 0 0 1
34.070776 8.411306 14.540890 37.986910 0.242038 1.177985 0.054706 -0.021835 -358443.000000 0 0 1
32.742666 8.132106 14.200490 36.604197 0.243438 1.172393 0.062790 -0.029504 -150552.000000 0 0 1
32.087916 7.735406 15.417190 36.430215 0.236556 1.133824 0.045429 -0.013373 316182.000000 0 0 1
30.567106 7.453206 15.351390 35.008048 0.239164 1.116856 0.045078 -0.010365 15547.300000 0 0 1
29.728456 8.587806 15.450190 34.586701 0.281219 1.107713 0.033105 -0.007936 983296.000000 0 0 1
28.321006 8.344006 15.606190 33.395433 0.286516 1.084545 0.036528 0.000219 971806.000000 0 0 1
27.832396 7.803906 16.977090 33.522601 0.273370 1.039749 0.039794 0.005826 -587664.000000 0 0 1
27.882476 8.702006 18.060490 34.341501 0.302517 1.017013 0.056131 -0.008538 209853.000000 0 0 1
27.200376 8.348206 19.270090 34.364071 0.297789 0.975490 0.059962 -0.003618 -102204.000000 0 0 1
27.659626 7.072106 20.014490 34.866164 0.250320 0.959368 0.051381 -0.002858 -165756.000000 0 0 1
26.917656 6.897106 21.184790 34.941746 0.250833 0.919411 0.036103 0.005894 5858.880000 0 0 1
27.369576 5.732006 21.860590 35.494154 0.206446 0.907278 0.041487 0.005197 -505877.000000 0 0 1
26.757556 5.488206 23.233690 35.859330 0.202303 0.865956 0.048029 0.010816 656554.000000 0 0 1
25.357956 5.240006 23.357990 34.872328 0.203773 0.836837 0.044147 0.004455 174497.000000 0 0 1
24.565756 6.378006 23.265890 34.430466 0.254021 0.828834 0.047234 0.007832 207004.000000 0 0 1
23.028156 6.080806 23.440790 33.417702 0.258167 0.793369 0.050679 -0.004752 1044520.000000 0 0 1
22.498856 5.242406 22.399990 32.178267 0.228923 0.800815 0.060346 0.003727 -9831.020000 0 0 1
21.095956 5.176506 22.441390 31.232220 0.240625 0.769105 0.056443 -0.000840 -1777610.000000 0 0 1
20.576456 3.926206 21.727790 30.181161 0.188544 0.767120 0.064360 -0.002696 -593423.000000 0 0 1
19.341856 3.942006 21.093890 28.889427 0.201053 0.752241 0.054050 -0.006430 -482862.000000 0 0 1
18.255656 4.283206 21.906090 28.835596 0.230455 0.707961 0.060457 -0.004253 -1339240.000000 0 0 1
16.896456 4.233306 21.163790 27.410164 0.245491 0.688634 0.075189 -0.006242 98078.700000 0 0 1
16.313756 2.919406 21.333190 27.014192 0.177079 0.660471 0.056759 -0.000280 1589200.000000 0 0 1
14.963756 2.931006 20.753690 25.753067 0.193425 0.633649 0.042382 -0.009373 1535860.000000 0 0 1
14.064356 1.720806 21.232090 25.525848 0.121747 0.588476 0.042447 0.000427 -291153.000000 0 0 1
14.394156 0.418406 20.874190 25.359389 0.029060 0.603887 0.032302 0.000480 -171724.000000 0 0 1
13.866456 -0.559194 21.707690 25.764610 -0.040305 0.568816 0.039922 -0.005307 -671262.000000 0 0 1
14.326556 -2.006294 21.527490 25.936620 -0.139135 0.591682 0.024738 -0.006654 -435251.000000 0 0 1
13.635956 -2.786194 20.560690 24.828293 -0.201553 0.595059 0.023834 0.002003 304173.000000 0 1 0
13.933656 -4.146694 20.769190 25.351550 -0.289256 0.610699 0.015847 0.011568 19596.900000 0 0 1
13.572556 -4.860294 19.431990 24.195846 -0.343870 0.638295 0.020147 0.003000 715033.000000 0 1 0
12.155456 -4.899994 19.248590 23.286762 -0.383185 0.597776 0.028886 0.001431 540571.000000 0 1 0
11.834656 -5.192494 17.908090 22.084401 -0.413462 0.625120 0.034944 -0.002424 1382360.000000 0 1 0
10.258256 -5.244894 17.700890 21.120186 -0.472635 0.577000 0.036728 0.000437 1384310.000000 0 1 0
9.668156 -6.269094 18.425790 21.732108 -0.575269 0.558860 0.036022 0.004515 -1107690.000000 0 1 0
8.303556 -6.428694 18.281090 21.082585 -0.658816 0.521409 0.033744 -0.005919 -627672.000000 0 1 0
7.575356 -7.321494 19.327190 22.012055 -0.768359 0.499071 0.026897 -0.007190 -321586.000000 0 1 0
7.736456 -8.693994 19.072590 22.342828 -0.843611 0.547874 0.028398 -0.007774 38640.200000 0 1 0
8.866056 -9.248294 19.717690 23.514362 -0.806496 0.576202 0.036388 -0.008287 212676.000000 0 1 0
9.143256 -10.611094 19.060990 23.654086 -0.859566 0.633734 0.043238 -0.017919 167791.000000 0 1 0
9.428456 -10.604494 17.637290 22.636808 -0.844036 0.677500 0.040982 -0.013988 92501.500000 0 1 0
9.892056 -11.818394 17.122190 23.036853 -0.873895 0.732878 0.035505 -0.020770 -19846.100000 0 1 0
9.823156 -11.906394 15.597090 21.943697 -0.880977 0.780193 0.030498 -0.016222 134281.000000 0 1 0
10.492356 -13.002394 15.021490 22.467687 -0.891828 0.838496 0.034065 -0.016961 103409.000000 0 1 0
10.218556 -12.966394 13.615990 21.399567 -0.903366 0.881137 0.030162 -0.014089 -521672.000000 0 1 0
10.841556 -14.104594 12.797790 21.914889 -0.915463 0.947177 0.044599 -0.018807 220003.000000 0 1 0
12.234356 -14.095194 12.564490 22.499342 -0.855956 0.978295 0.035119 -0.017250 -37233.500000 0 1 0
12.545456 -13.256094 11.498390 21.571404 -0.812934 1.008609 0.026289 -0.018271 -961186.000000 0 1 0
13.966356 -13.130894 10.929790 22.066712 -0.754576 1.052609 0.040032 -0.024249 -31265.200000 0 1 0
14.479756 -14.315694 10.325890 22.830384 -0.779701 1.101468 0.053754 -0.021584 -4430.950000 0 1 0
15.683256 -14.043194 9.649590 23.157945 -0.730282 1.141000 0.049874 -0.030967 21830.300000 0 1 0
16.422456 -15.320794 9.034690 24.208458 -0.750707 1.188336 0.056581 -0.032094 309623.000000 0 1 0
16.951656 -16.207494 9.996390 25.494496 -0.762960 1.167883 0.067022 -0.027680 133427.000000 0 0 1
15.989856 -16.975094 10.711590 25.662570 -0.815277 1.140213 0.095893 -0.024822 261813.000000 0 0 1
16.515656 -17.365594 12.156190 26.871988 -0.810479 1.101371 0.084401 -0.015624 62119.400000 0 0 1
17.456956 -18.405894 12.098990 28.105299 -0.811852 1.125763 0.101663 -0.025861 -209296.000000 0 0 1
17.713956 -19.030294 13.304290 29.205145 -0.821207 1.097811 0.059735 -0.019862 -254761.000000 0 0 1
18.999156 -19.871394 13.310190 30.545072 -0.807834 1.119919 0.027763 -0.022082 451460.000000 0 0 1
20.144456 -19.110194 12.919490 30.625347 -0.759057 1.135305 0.023012 -0.022185 197688.000000 0 0 1
21.310156 -19.895094 12.709090 31.803435 -0.751070 1.159701 0.001445 -0.018387 632987.000000 0 0 1
22.376956 -19.152394 11.866390 31.754584 -0.707908 1.187812 0.008572 -0.015186 -611339.000000 0 0 1
22.217856 -19.219894 10.442190 31.178146 -0.713175 1.229276 0.006209 -0.018203 1399220.000000 0 0 1
20.955656 -18.709894 9.874290 29.777530 -0.728841 1.232795 0.027001 -0.022501 1528150.000000 0 0 1
20.709056 -17.181494 10.012190 28.710846 -0.692567 1.214586 0.056590 -0.024424 55396.400000 0 0 1
21.597756 -16.334494 9.267790 28.621158 -0.647524 1.241044 0.047437 -0.016359 193457.000000 0 0 1
21.374556 -14.916494 9.373990 27.699190 -0.609290 1.225558 0.053294 -0.028178 -122004.000000 0 0 1
-34.711880 24.828546 7.396890 43.313800 -0.620904 1.399181 0.058598 -0.016322 680171.000000 0 0 1
-33.843189 24.144046 8.360790 42.405179 -0.619669 1.372332 0.055705 -0.012541 842615.000000 0 0 1
-32.997219 25.058946 9.056390 42.412091 -0.649507 1.355606 0.060542 -0.010908 -1124080.000000 0 0 1
-32.001039 24.336746 9.865390 41.396493 -0.650186 1.330166 0.065610 -0.018270 -1019100.000000 0 0 1
-31.075489 23.682046 9.017590 40.097908 -0.651188 1.343967 0.062039 -0.017971 325392.000000 0 0 1
-30.220459 22.750046 9.678290 39.044975 -0.645292 1.320310 0.056406 -0.017489 200645.000000 0 0 1
-29.294969 21.973046 8.725990 37.645091 -0.643541 1.336873 0.054828 -0.024565 -341335.000000 0 0 1
-29.900429 20.927746 8.047790 37.373428 -0.610669 1.353762 0.069049 -0.028521 81953.400000 0 0 1
-28.948169 20.122846 7.384790 36.020280 -0.607452 1.364315 0.069630 -0.028293 9824.620000 0 0 1
-29.622419 19.280246 6.291390 35.899822 -0.576984 1.394638 0.075284 -0.030102 -361351.000000 0 0 1
-30.298199 18.119946 6.760190 35.944589 -0.538987 1.381597 0.072666 -0.020839 651679.000000 0 0 1
-31.356139 17.927446 5.805690 36.582876 -0.519378 1.411423 0.060361 -0.017951 251602.000000 0 0 1
-32.313839 16.770646 6.186490 36.928464 -0.478726 1.402476 0.043116 -0.003484 180478.000000 0 0 1
-33.236849 17.063846 7.245790 38.057384 -0.474311 1.379236 0.038182 -0.000341 932607.000000 0 0 1
-33.954899 15.836246 7.611690 38.231658 -0.436400 1.370363 0.046788 -0.005096 211363.000000 0 0 1
-34.933997 16.023946 8.790290 39.426136 -0.430059 1.345951 0.036516 -0.000239 -149045.000000 0 0 1
35.947740 16.872546 8.458290 40.601299 0.438839 1.360934 0.049698 -0.007095 -79084.700000 0 0 1
35.343226 17.303746 9.637590 40.514768 0.455286 1.330615 0.059134 -0.002184 -106741.000000 0 0 1
34.413096 18.519946 9.453690 40.207236 0.493712 1.333450 0.042631 0.001309 720722.000000 0 0 1
33.218096 18.265646 8.701390 38.894600 0.502744 1.345170 0.043008 -0.008830 654767.000000 0 0 1
32.389606 19.412046 8.597890 38.727740 0.539926 1.346922 0.037003 -0.009122 210629.000000 0 0 1
30.983926 19.190946 7.997990 37.313053 0.554551 1.354772 0.035402 -0.015605 8476.640000 0 0 1
30.111746 20.241846 8.412590 37.245419 0.591840 1.342961 0.027408 -0.012252 755096.000000 0 0 1
28.772556 20.223046 7.896990 36.044334 0.612642 1.349914 0.024952 -0.022120 730750.000000 0 0 1
28.557166 20.307846 6.330290 35.608888 0.618157 1.392074 0.010020 -0.009006 -895194.000000 0 0 1
28.612956 18.951546 5.805390 34.807541 0.585002 1.403228 0.024075 -0.010833 148897.000000 0 0 1
28.447056 18.788746 4.398990 34.374454 0.583708 1.442472 0.022552 -0.013097 -508244.000000 0 0 1
27.057546 19.133546 3.839490 33.360831 0.615504 1.455451 0.048511 -0.012382 -1415790.000000 0 0 1
26.078856 18.379346 4.509390 32.221758 0.613914 1.430387 0.052578 -0.019657 302489.000000 0 0 1
24.742956 18.622046 4.065490 31.233358 0.645176 1.440261 0.051507 -0.019932 390694.000000 0 0 1
24.116356 19.912046 4.610090 31.612357 0.690196 1.424443 0.056079 -0.019029 -1274960.000000 0 0 1
24.639256 21.118146 4.153890 32.715804 0.708598 1.443484 0.042381 -0.018009 -124451.000000 0 0 1
23.999556 22.254646 4.647590 33.058252 0.747692 1.429741 0.021240 -0.000475 -177767.000000 0 0 1
24.835256 23.541546 4.388190 34.500008 0.758662 1.443257 -0.000882 0.003729 1141610.000000 0 0 1
26.094156 23.529446 5.111590 35.505889 0.733761 1.426330 0.016000 -0.006847 1046820.000000 0 0 1
26.857256 24.722546 5.014790 36.846501 0.744035 1.434273 0.011441 -0.007062 -1364190.000000 0 0 1
28.143146 24.569946 5.818890 37.809766 0.717716 1.416283 0.016133 -0.005642 -1002330.000000 0 0 1
28.964366 23.479046 5.419490 37.677194 0.681182 1.426456 0.010107 -0.010834 390377.000000 0 0 1
29.449376 23.446046 4.054290 37.860535 0.672387 1.463506 0.007804 -0.019807 -685227.000000 0 0 1
30.494116 24.559346 3.736890 39.332136 0.678013 1.475644 0.029948 -0.030050 -780981.000000 0 0 1
29.881536 25.812946 3.604190 39.651035 0.712476 1.479773 0.014255 -0.020339 -132509.000000 0 0 1
30.632606 26.641446 2.743590 40.689685 0.715825 1.503318 0.051889 -0.020402 -528058.000000 0 0 1
30.103646 28.119746 2.651590 41.279299 0.751337 1.506517 0.046979 -0.017493 750662.000000 0 0 1
28.828256 28.421546 2.102590 40.537310 0.778294 1.518905 0.065747 -0.018654 -287054.000000 0 0 1
27.743186 28.012246 2.849890 39.528372 0.790224 1.498636 0.029681 -0.010970 -617944.000000 0 0 1
26.377156 28.581846 2.354890 38.964366 0.825492 1.510322 -0.008828 -0.004056 359831.000000 0 0 1
26.309156 29.938446 2.711090 39.947869 0.849832 1.502878 -0.001587 -0.015359 785113.000000 0 0 1
25.109856 30.556446 2.187990 39.610460 0.882931 1.515531 -0.000495 -0.004940 766258.000000 0 0 1
24.942356 32.068646 2.544590 40.706193 0.909752 1.508244 0.021583 -0.023887 -271837.000000 0 0 1
24.763656 32.259346 3.945490 40.859160 0.916099 1.474082 0.017235 -0.039239 28215.100000 0 0 1
25.965556 32.277146 4.701990 41.690922 0.893344 1.457774 0.018031 -0.040709 24320.500000 0 0 1
25.819156 32.180846 6.244690 41.728070 0.894646 1.420580 0.020058 -0.043756 40859.300000 0 0 1
25.257456 30.964546 6.771790 40.528994 0.886562 1.402924 0.021833 -0.039343 622221.000000 0 0 1
26.102856 29.801046 6.571390 40.157747 0.851455 1.406418 0.012900 -0.035135 119743.000000 0 0 1
25.584556 28.537946 7.186590 38.995268 0.839913 1.385443 0.026674 -0.029458 168049.000000 0 0 1
24.337056 28.170746 6.571490 37.803012 0.858281 1.396074 0.007880 -0.030555 637636.000000 0 0 1
23.982356 26.861246 6.945090 36.673072 0.841960 1.380267 0.019014 -0.015460 789695.000000 0 0 1
22.648556 26.269046 6.294890 35.251177 0.859275 1.391261 0.021552 -0.002511 1009630.000000 0 0 1
22.739056 25.977246 4.906990 34.870626 0.851771 1.429608 0.005156 -0.004579 188463.000000 0 0 1
22.851156 27.106746 4.052290 35.684339 0.870377 1.456991 0.002705 -0.004268 -312973.000000 0 0 1
22.791356 26.701346 2.564590 35.199218 0.864236 1.497872 0.005692 -0.000440 -925350.000000 0 0 1
23.846156 25.945646 2.121890 35.303231 0.827539 1.510655 -0.018063 0.015996 -613299.000000 0 0 1
23.774356 25.582346 0.721090 34.931310 0.822013 1.550152 0.000498 0.014003 114323.000000 0 0 1
25.074756 24.774846 0.413090 35.252050 0.779382 1.559078 0.005482 0.006905 139867.000000 0 0 1
26.212056 25.617346 0.352990 36.653034 0.773924 1.561166 0.000602 0.003617 329570.000000 0 0 1
27.008386 25.400046 -0.814210 37.084743 0.754719 1.592753 -0.006526 0.008998 1105040.000000 0 0 1
28.237436 24.382046 -0.729910 37.314471 0.712260 1.590359 0.005762 -0.009123 702780.000000 0 0 1
27.732886 23.066746 -0.474410 36.075100 0.693801 1.583947 0.009490 -0.011391 323611.000000 0 0 1
28.266606 22.466646 0.653990 36.113417 0.671570 1.552686 0.012931 -0.017334 214545.000000 0 0 1
27.177696 21.483146 1.192690 34.663745 0.668903 1.536382 0.022630 -0.016739 595053.000000 0 0 1
26.737556 20.470346 0.268790 33.674979 0.653412 1.562814 0.038298 -0.028141 301231.000000 0 0 1
25.485556 19.961246 0.651090 32.378833 0.664436 1.550686 0.045894 -0.017625 -246962.000000 0 0 1
25.014956 18.555046 0.053590 31.145475 0.638205 1.569076 0.052859 -0.018926 -871650.000000 0 0 1
23.668856 18.321546 0.256290 29.932582 0.658734 1.562234 0.053901 -0.012634 -704514.000000 0 0 1
23.127956 17.270346 -0.475210 28.868547 0.641405 1.587258 0.068695 -0.020668 669760.000000 0 0 1
21.617556 16.917646 -0.282510 27.451872 0.664034 1.581088 0.063665 -0.004264 -489128.000000 0 0 1
21.138656 15.812346 -1.080310 26.420449 0.642239 1.611697 0.066902 -0.009076 197217.000000 0 0 1
19.805156 15.432546 -0.860610 25.122666 0.661940 1.605059 0.074182 -0.009083 -447577.000000 0 0 1
18.717056 16.432946 -1.238610 24.938004 0.720508 1.620484 0.074976 -0.010852 -1337020.000000 0 1 0
18.682656 17.664946 -0.522810 25.717023 0.757406 1.591127 0.061385 -0.006939 -728731.000000 0 0 1
17.652856 18.429546 -1.022410 25.540494 0.806920 1.610838 0.045592 -0.013332 -423511.000000 0 0 1
17.802356 19.879046 -0.475110 26.689438 0.840454 1.588599 0.046426 -0.004651 -82437.500000 0 0 1
17.221056 20.066846 0.806190 26.455491 0.861570 1.540318 0.046851 0.001744 115767.000000 0 0 1
17.419156 21.316146 1.374490 27.562553 0.885666 1.520908 0.046793 0.000047 -162159.000000 0 0 1
16.343556 22.379546 1.077890 27.732972 0.940029 1.531920 0.045526 -0.004802 -446017.000000 0 0 1
15.068356 22.185446 1.601190 26.866581 0.974167 1.511163 0.033696 -0.001988 -626365.000000 0 0 1
14.258556 23.251646 1.203090 27.301884 1.020707 1.526716 0.021187 0.002969 242222.000000 0 0 1
12.796856 23.222646 1.735790 26.571861 1.067147 1.505425 0.015597 0.004832 432848.000000 0 0 1
12.737556 23.452646 3.153390 26.874073 1.073252 1.453186 0.012451 0.021344 -82258.200000 0 0 1
11.404556 23.481246 3.601390 26.351524 1.118664 1.433700 0.000881 0.020579 68423.900000 0 0 1
11.399056 23.768346 5.109190 26.851007 1.123610 1.379350 0.013422 0.012530 10080.400000 0 0 1
11.929656 22.729946 5.943790 26.349493 1.087472 1.343263 0.020092 -0.005591 322595.000000 0 0 1
11.129156 22.590946 7.118990 26.170384 1.113056 1.295300 0.023091 0.000915 -984721.000000 0 0 1
11.552356 21.448546 8.062890 25.661396 1.076742 1.251179 0.021819 -0.003325 139773.000000 0 0 1
12.704956 21.767146 8.820490 26.702539 1.042466 1.234149 0.021560 0.000001 -230146.000000 0 0 1
13.890356 21.634946 8.108690 26.958556 1.000042 1.265282 0.028953 0.011257 -2195250.000000 0 0 1
15.174756 21.688646 8.873190 27.917810 0.960296 1.247354 0.028021 0.005723 -906343.000000 0 0 1
15.380856 20.549046 9.761990 27.461436 0.928259 1.207369 0.034353 0.000616 -16247.300000 0 0 1
16.669056 20.495646 10.319990 28.362495 0.888000 1.198387 0.031338 0.000463 -142748.000000 0 0 1
16.834856 21.160246 11.718390 29.470138 0.898751 1.161857 0.023595 -0.002583 -256004.000000 0 0 1
16.243956 20.503246 12.823390 29.132259 0.900791 1.114999 0.028228 -0.007313 -79652.000000 0 0 1
16.534056 21.077846 14.061990 30.255416 0.905623 1.087415 0.034232 -0.003959 542565.000000 0 0 1
17.802656 20.560146 14.859990 30.991506 0.857154 1.070728 0.044331 -0.008992 1406440.000000 0 0 1
19.023256 21.109946 14.344890 31.832216 0.837345 1.103313 0.045469 -0.003098 66352.700000 0 0 1
20.096156 20.824746 15.227290 32.701619 0.803201 1.086435 0.045196 -0.012154 -638019.000000 0 0 1
21.338656 21.555846 14.815690 33.756443 0.790461 1.116423 0.048888 -0.015041 -519411.000000 0 0 1
22.048156 20.949746 13.710290 33.361431 0.759858 1.147287 0.057126 -0.011882 957796.000000 0 0 1
23.245556 21.665046 13.340590 34.463045 0.750220 1.173314 0.048279 -0.013401 755914.000000 0 0 1
24.008256 21.136246 12.098390 34.198074 0.721866 1.209193 0.051832 -0.004280 -231248.000000 0 0 1
23.446856 21.433246 10.862890 33.572928 0.740562 1.241306 0.045904 0.000631 -160651.000000 0 0 1
24.222056 21.030746 9.774790 33.534263 0.714993 1.275016 0.056918 -0.014747 -454245.000000 0 0 1
23.926756 21.907946 8.483490 33.532333 0.741381 1.315022 0.055669 -0.015725 144434.000000 0 0 1
24.303256 23.297446 8.623490 34.753184 0.764271 1.320042 0.043662 -0.015274 1651950.000000 0 0 1
25.721056 23.616446 8.536290 35.946870 0.742767 1.331036 0.034894 -0.024701 1095990.000000 0 0 1
26.187156 24.926246 9.232990 37.313978 0.760734 1.320759 0.048424 -0.022441 -1173440.000000 0 0 1
27.377016 25.455246 8.807990 38.406396 0.749039 1.339400 0.037519 -0.021687 -759335.000000 0 0 1
27.678066 26.640246 9.469890 39.565855 0.766294 1.329105 0.043346 -0.027984 290839.000000 0 0 1
29.038676 27.253146 9.037190 40.836864 0.753690 1.347649 0.052309 -0.028680 401988.000000 0 0 1
28.900526 27.974546 7.818090 40.974848 0.769119 1.378817 0.048911 -0.028312 455910.000000 0 0 1
30.207196 28.183446 7.295490 41.952419 0.750753 1.396009 0.063078 -0.022287 260328.000000 0 0 1
30.289096 29.070946 6.010890 42.410848 0.764880 1.428587 0.075634 -0.022077 -38595.900000 0 0 1
30.328276 30.459646 6.268390 43.438313 0.787559 1.425985 0.074722 -0.028616 108552.000000 0 0 1
30.161746 31.250046 5.116790 43.731886 0.803118 1.453524 0.070228 -0.023210 113337.000000 0 0 1
30.306516 32.746546 5.440190 44.949047 0.824077 1.449469 0.033887 -0.017955 54478.100000 0 0 1
29.175756 33.215046 6.128890 44.632133 0.850050 1.433041 0.032072 -0.029033 -134067.000000 0 0 1
29.275776 -34.092013 6.450790 45.397678 -0.861257 1.428219 0.027615 -0.017759 -417380.000000 0 0 1
27.961256 -33.521213 6.977790 44.206257 -0.875584 1.412287 0.062218 -0.034243 -364583.000000 0 0 1
26.966796 -33.538213 5.992490 43.450314 -0.893584 1.432439 0.062149 -0.036932 -845013.000000 0 0 1
25.782756 -32.881413 6.328190 42.260902 -0.905818 1.420490 0.059833 -0.044416 -105679.000000 0 0 1
24.649756 -32.983713 5.279390 41.513947 -0.929005 1.443280 0.070014 -0.042479 -95993.200000 0 0 1
24.879356 -32.319613 4.032890 40.985412 -0.914749 1.472239 0.050378 -0.024770 -250061.000000 0 0 1
23.908256 -32.547813 3.037890 40.499304 -0.937252 1.495715 0.051084 -0.025675 -38037.700000 0 0 1
24.317256 -31.831913 1.744790 40.095435 -0.918441 1.527267 0.050055 -0.013286 166901.000000 0 0 1
24.136356 -30.456013 1.771390 38.900774 -0.900646 1.525244 0.053715 -0.004116 -235485.000000 0 0 1
24.825756 -29.825813 0.745090 38.813045 -0.876634 1.551598 0.046827 -0.005337 -579532.000000 0 0 1
25.031856 -28.286813 1.062990 37.787135 -0.846370 1.542662 0.044004 -0.000330 364145.000000 0 0 1
23.913556 -27.390113 1.186490 36.379723 -0.853059 1.538176 0.027766 0.002577 168155.000000 0 0 1
23.214256 -27.249313 -0.037710 35.797042 -0.865188 1.571850 0.024828 0.001795 -182798.000000 0 0 1
22.119256 -26.167513 0.002290 34.263687 -0.869040 1.570729 0.017916 0.006805 -312543.000000 0 0 1
22.614956 -24.855413 0.191790 33.604532 -0.832560 1.565089 0.020695 -0.001600 -124837.000000 0 0 1
22.822556 -24.389913 1.582390 33.440109 -0.818584 1.523459 0.010391 0.003549 74614.400000 0 0 1
21.494856 -24.175613 2.335990 32.433716 -0.844029 1.498710 0.019838 0.002043 -111468.000000 0 0 1
21.580256 -23.609113 3.639590 32.192302 -0.830265 1.457496 0.022290 0.000015 68231.800000 0 0 1
20.293456 -23.370213 4.193990 31.234289 -0.855747 1.436114 0.032936 -0.001638 179847.000000 0 0 1
20.315956 -22.494113 5.516290 30.808321 -0.836234 1.390774 0.030641 -0.003613 -290590.000000 0 0 1
20.549256 -21.127413 5.253590 29.937263 -0.799270 1.394396 0.049278 -0.004882 588472.000000 0 0 1
19.425956 -20.406013 4.706990 28.564469 -0.809998 1.405257 0.043125 -0.002796 209689.000000 0 0 1
19.564056 -18.900513 4.953390 27.649914 -0.768149 1.390677 0.046187 -0.003481 22084.500000 0 0 1
19.245756 -18.312413 6.179090 27.274984 -0.760553 1.342264 0.064757 -0.018517 182348.000000 0 0 1
17.919456 -18.471213 6.661190 26.583154 -0.800559 1.317518 0.051771 -0.009706 335880.000000 0 0 1
18.759791 -26.300294 -12.321410 34.575314 -0.951205 1.935170 0.098779 -0.024157 137902.000000 0 0 1
18.857791 -24.937854 -12.768910 33.772147 -0.923344 1.958529 0.109085 -0.022445 -556708.000000 0 0 1
17.678591 -24.527754 -13.382910 33.064264 -0.946274 1.987507 0.079168 -0.011541 -439195.000000 0 0 1
17.766491 -23.053554 -13.773810 32.199882 -0.914202 2.012809 0.075717 -0.023486 -254658.000000 0 0 1
17.782891 -22.090054 -12.686210 31.066728 -0.893003 1.991446 0.080543 -0.021455 -1365820.000000 0 0 1
18.920291 -21.908654 -11.958310 31.320404 -0.858460 1.962546 0.072838 -0.026092 -1708870.000000 0 0 1
19.013191 -22.776054 -10.672910 31.530320 -0.875200 1.916115 0.077158 -0.024629 478201.000000 0 0 1
18.129191 -22.466754 -9.571610 30.414442 -0.891842 1.890943 0.067765 -0.019044 774593.000000 0 0 1
16.750091 -22.749654 -9.812110 29.906350 -0.936135 1.905082 0.063998 -0.004979 -186512.000000 0 0 1
15.851491 -22.199754 -8.756710 28.649237 -0.950710 1.881420 0.055957 -0.004027 -1137130.000000 0 0 1
15.901191 -20.793854 -8.780210 27.610221 -0.917949 1.894422 0.048392 -0.006311 495780.000000 0 0 1
15.092991 -20.012454 -7.855810 26.268050 -0.924625 1.874507 0.041128 -0.007475 -62277.700000 0 0 1
13.587591 -20.042654 -8.083510 25.527901 -0.975034 1.892996 0.033167 0.003528 -721698.000000 0 0 1
13.000691 -21.253954 -7.767510 26.097562 -1.021830 1.873009 0.028989 0.002529 -561807.000000 0 0 1
11.675391 -21.391354 -8.236310 25.724338 -1.071184 1.896711 0.031452 0.004345 -31959.700000 0 0 1
11.146191 -22.777654 -7.795610 26.529806 -1.115707 1.869042 0.023622 0.005116 -241206.000000 0 0 1
10.986291 -22.855454 -6.404910 26.155176 -1.122719 1.818193 0.026217 0.003734 91764.500000 0 0 1
10.519791 -24.108054 -5.967310 26.971708 -1.159343 1.793886 0.017515 0.004172 42887.200000 0 0 1
11.000091 -24.562954 -4.541510 27.294066 -1.149746 1.737966 0.040460 -0.009859 331200.000000 0 0 1
10.245791 -25.670804 -3.970310 27.923642 -1.191047 1.713464 0.046808 -0.014556 453754.000000 0 0 1
10.857291 -26.123894 -2.765210 28.425077 -1.176908 1.668231 0.047957 -0.021201 306950.000000 0 0 1
9.902391 -27.056324 -1.977810 28.879296 -1.219947 1.639335 0.057475 -0.019433 867672.000000 0 0 1
8.849491 -26.375554 -1.293010 27.850587 -1.247080 1.617240 0.039813 -0.014047 -146134.000000 0 0 1
7.951691 -27.234254 -0.690310 28.379755 -1.286719 1.595123 0.042010 -0.020742 -182874.000000 0 0 1
7.165491 -26.735404 0.557790 27.684602 -1.308935 1.550647 0.047064 -0.013054 -19715.300000 0 0 1
5.969391 -26.041444 0.261390 26.718135 -1.345463 1.561013 0.058776 -0.024777 130081.000000 0 0 1
5.328491 -25.553744 1.492690 26.146028 -1.365221 1.513675 0.056714 -0.019007 804161.000000 0 0 1
3.918191 -24.906254 1.316090 25.246897 -1.414758 1.518644 0.035943 -0.026506 1058060.000000 0 0 1
2.993891 -25.919274 0.840790 26.105154 -1.455798 1.538583 0.033087 -0.030039 421667.000000 0 0 1
1.658791 -25.427154 0.806490 25.493963 -1.505652 1.539156 0.025047 -0.025391 332335.000000 0 0 1
0.612991 -26.311194 0.124090 26.318626 -1.547503 1.566081 0.026563 -0.019459 -138313.000000 0 0 1
0.221691 -27.451304 0.843490 27.465154 -1.562721 1.540080 0.031352 -0.014664 -121195.000000 0 0 1
1.205791 -28.482664 0.902590 28.522460 -1.528487 1.539146 0.018076 -0.021368 -363141.000000 0 0 1
0.779291 -29.722214 1.607590 29.775857 -1.544583 1.516780 0.031670 -0.010660 -307372.000000 0 0 1
0.922691 -29.581574 2.976590 29.745268 -1.539615 1.470559 0.033834 -0.009393 102313.000000 0 0 1
0.197891 -30.595684 3.638890 30.811955 -1.564328 1.452420 0.036948 -0.009484 -210450.000000 0 0 1
0.219991 -30.457504 5.211290 30.900898 -1.563574 1.401341 0.039585 -0.012755 -204560.000000 0 0 1
1.472391 -30.905374 5.675190 31.456603 -1.523190 1.389390 0.038766 0.003410 -102974.000000 0 0 1
1.553291 -30.668944 7.079690 31.513788 -1.520193 1.344209 0.034502 0.002641 251807.000000 0 0 1
2.875591 -31.220154 7.663090 32.275222 -1.478949 1.331077 0.038583 0.006605 129685.000000 0 0 1
3.118691 -32.568594 7.459490 33.557168 -1.475330 1.346632 0.021707 -0.002546 -529701.000000 0 0 1
4.385291 -32.958104 7.923490 34.179659 -1.438517 1.336849 0.039642 -0.002176 -152268.000000 0 0 1
4.826191 34.298959 7.637790 35.468951 1.431005 1.353759 0.035191 -0.003457 -219356.000000 0 0 1
4.874891 33.991694 6.237790 34.901430 1.428353 1.391105 0.033196 -0.002666 -186408.000000 0 0 1
4.816091 32.561296 6.102390 33.476437 1.423953 1.387482 0.022607 -0.005272 -378095.000000 0 0 1
5.409891 31.886936 4.886990 32.709727 1.402738 1.420830 0.020782 -0.002998 988612.000000 0 0 1
6.848991 32.086886 4.951290 33.181202 1.360501 1.421017 0.026481 -0.005533 537547.000000 0 0 1
7.428091 31.049616 4.259990 32.208736 1.335977 1.438146 0.022655 -0.000170 -1175990.000000 0 0 1
8.832791 31.308326 3.787090 32.750137 1.295820 1.454901 -0.002262 0.007532 -698820.000000 0 0 1
9.689491 31.664456 4.867390 33.469620 1.273839 1.424852 -0.000323 -0.003126 -256578.000000 0 0 1
10.992791 31.934866 4.397390 34.058980 1.239275 1.441324 0.001495 -0.003020 -533552.000000 0 0 1
11.990891 32.206346 5.487690 34.801507 1.214382 1.412450 0.006258 -0.015494 -550291.000000 0 0 1
12.431491 31.056276 6.139990 34.010788 1.190041 1.389270 0.017149 -0.008188 -104720.000000 0 0 1
13.632991 31.378186 6.819490 34.884874 1.160929 1.374044 0.033802 -0.011886 172355.000000 0 0 1
14.261291 30.261066 7.664490 34.319978 1.130391 1.345573 0.040437 -0.006640 -190424.000000 0 0 1
13.587491 30.091236 8.914790 34.199062 1.146660 1.307077 0.040247 -0.003788 489572.000000 0 0 1
14.199991 28.983986 9.616190 33.677623 1.115241 1.281230 0.037194 -0.002940 358825.000000 0 0 1
14.018591 29.166806 11.123290 34.219162 1.122760 1.239721 0.032230 -0.003056 -159320.000000 0 0 1
14.699691 30.243916 11.687590 35.600212 1.118381 1.236292 0.032471 -0.018764 -57567.100000 0 0 1
14.324891 30.227606 13.059490 35.909065 1.128245 1.198579 0.036220 -0.013179 -46096.400000 0 0 1
15.196991 31.114506 13.962590 37.336509 1.116454 1.187515 0.026957 -0.012029 306488.000000 0 0 1
16.429091 30.514666 14.360490 37.513778 1.076903 1.177965 0.028490 -0.017217 182026.000000 0 0 1
17.098791 31.431266 15.221690 38.884354 1.072567 1.168578 0.036752 -0.010814 89472.200000 0 0 1
18.392691 30.807946 15.814490 39.211206 1.032577 1.155659 0.048197 -0.018147 -64262.800000 0 0 1
19.369891 30.500996 14.858190 39.067496 1.004997 1.180653 0.033866 -0.016940 -123644.000000 0 0 1
19.868291 29.153066 15.039790 38.351604 0.972584 1.167823 0.028901 -0.014088 299557.000000 0 0 1
21.232791 28.915586 14.309390 38.622547 0.937417 1.191256 0.061033 -0.017660 200718.000000 0 0 1
22.274291 29.252346 15.192490 39.782603 0.920005 1.178958 0.067054 -0.021897 -606247.000000 0 0 1
23.523891 29.269516 14.534790 40.265843 0.893804 1.201488 0.060325 -0.012500 -499592.000000 0 0 1
24.637491 29.301566 15.575290 41.330102 0.871653 1.184402 0.054923 -0.010501 -661221.000000 0 0 1
24.927591 28.028786 16.144690 40.836854 0.843893 1.164352 0.063795 -0.009305 -77803.800000 0 0 1
25.464291 28.257336 17.426690 41.840132 0.837342 1.141197 0.035929 -0.003495 -463198.000000 0 0 1
26.353491 27.047476 17.871490 41.778733 0.798393 1.128777 0.003635 -0.000341 -429541.000000 0 0 1
25.776191 25.848026 18.264490 40.818183 0.786790 1.106874 0.030765 -0.003209 -275365.000000 0 0 1
25.557691 25.836916 19.634990 41.307077 0.790831 1.075444 0.045418 -0.000680 -228082.000000 0 0 1
25.094791 24.423266 20.008890 40.331131 0.771838 1.051677 0.054343 -0.003802 819509.000000 0 0 1
26.105891 23.364006 20.082290 40.381836 0.730029 1.050301 0.035437 -0.002340 649814.000000 0 0 1
25.469091 22.196106 20.482690 39.508003 0.716840 1.025766 0.041657 0.002970 -629178.000000 0 0 1
26.377891 21.001306 20.455890 39.437183 0.672402 1.025472 0.030249 0.010185 34217.600000 0 0 1
25.743791 19.794906 20.919190 38.628921 0.655500 0.998526 0.020085 0.025778 741326.000000 0 0 1
26.774791 18.811106 20.998390 38.880323 0.612447 1.000267 0.028084 0.018382 538741.000000 0 0 1
27.259091 18.647606 22.460090 39.940542 0.599966 0.973586 0.034778 0.014119 -414699.000000 0 0 1
26.334991 18.028506 23.291890 39.510390 0.600304 0.940340 0.029754 0.019878 132690.000000 0 0 1
26.925591 17.593806 24.506690 40.436460 0.578778 0.919706 0.044031 0.015703 261836.000000 0 0 1
25.839191 16.839906 25.329090 39.910011 0.577583 0.883234 0.022265 0.004248 400804.000000 0 0 1
25.673991 15.506006 24.935290 39.004599 0.543325 0.877220 0.021944 0.005173 501150.000000 0 0 1
24.346391 15.146906 25.288690 38.232098 0.556541 0.848043 0.025445 -0.002123 -38951.700000 0 0 1
23.961891 13.780706 24.721490 37.084122 0.521916 0.841114 0.030798 -0.009584 17113.600000 0 0 1
22.703691 13.298006 25.159290 36.404456 0.529853 0.807780 0.021841 -0.008380 376840.000000 0 0 1
22.193591 12.159506 24.469090 35.201497 0.501217 0.802216 0.036421 -0.012525 20842.800000 0 0 1
20.910591 11.667006 25.171190 34.741339 0.508924 0.760442 0.034774 -0.013439 582809.000000 0 0 1
19.737191 12.458206 24.925990 34.147746 0.563049 0.752554 0.040658 -0.017457 550309.000000 0 0 1
18.584191 11.732606 25.294090 33.508464 0.563132 0.715361 0.053033 -0.018164 486461.000000 0 0 1
17.278191 12.594306 25.388190 33.192056 0.629869 0.699930 0.046777 -0.026468 419585.000000 0 0 1
17.105791 13.223406 26.670290 34.333233 0.658082 0.681217 0.060388 -0.021439 -10978.100000 0 0 1
15.896091 13.924706 26.736790 34.079892 0.719386 0.668854 0.077414 -0.025157 -320768.000000 0 0 1
15.567091 14.493106 28.195290 35.317967 0.749686 0.646284 0.073428 -0.013616 -348306.000000 0 0 1
15.086391 13.484306 29.041190 35.395147 0.729382 0.608537 0.071092 -0.009299 -77743.500000 0 0 1
15.385491 13.662306 30.421790 36.726792 0.726145 0.594682 0.060695 -0.001154 682349.000000 0 0 1
16.885691 13.360406 30.783490 37.566611 0.669368 0.610367 0.053870 -0.001959 62208.100000 0 0 1
17.776491 14.347006 30.383390 38.013032 0.679042 0.644686 0.063742 -0.010492 -1772260.000000 0 0 1
19.031291 13.823306 30.430790 38.461758 0.628190 0.658034 0.043947 0.002094 -1910940.000000 0 0 1
20.088491 14.878406 30.103190 39.129483 0.637486 0.693016 0.037531 -0.005360 -647613.000000 0 0 1
20.061191 15.505006 28.835790 38.397387 0.657988 0.721247 0.054846 -0.013525 143182.000000 0 0 1
20.062191 14.647306 27.691890 37.200482 0.630640 0.731166 0.057332 -0.012962 -349850.000000 0 0 1
19.797091 15.399306 26.341390 36.372136 0.661093 0.760895 0.048831 -0.014923 317872.000000 0 0 1
20.919491 16.217506 25.989590 37.095706 0.659456 0.794546 0.054218 -0.008695 750771.000000 0 0 1
20.695991 16.874506 24.790790 36.437018 0.684032 0.822524 0.045904 -0.009670 -241632.000000 0 0 1
21.976091 17.537506 24.257890 37.134322 0.673537 0.858931 0.048351 -0.001115 -231908.000000 0 0 1
21.727591 18.281406 23.048690 36.572395 0.699475 0.888959 0.038115 -0.002470 428020.000000 0 0 1
22.891691 19.065306 22.785790 37.506101 0.694452 0.917859 0.039543 0.007855 472773.000000 0 0 1
22.939391 20.418306 23.464090 38.648239 0.727317 0.918366 0.051510 0.001132 62361.900000 0 0 1
22.097091 21.278606 22.698690 38.161381 0.766531 0.933770 0.061841 -0.001765 371050.000000 0 0 1
22.172791 22.671606 23.093290 39.229254 0.796521 0.941377 0.067979 -0.007987 103935.000000 0 0 1
21.233691 23.620606 22.271190 38.791862 0.838563 0.959267 0.076324 -0.020621 251558.000000 0 0 1
21.836291 24.441136 21.287090 39.081107 0.841626 0.994777 0.074758 -0.014152 655952.000000 0 0 1
21.021491 25.644146 21.207790 39.361093 0.884135 1.001783 0.076716 -0.024739 512347.000000 0 0 1
21.555191 26.584706 20.087590 39.684809 0.889498 1.040049 0.074464 -0.022686 52143.100000 0 0 1
21.322291 26.024976 18.877590 38.578528 0.884397 1.059476 0.072984 -0.019776 16947.900000 0 0 1
21.910391 26.773756 17.843990 38.926947 0.884964 1.094606 0.069987 -0.031618 -218879.000000 0 0 1
21.845691 26.022656 16.525190 37.782201 0.872437 1.118113 0.046853 -0.015719 -708071.000000 0 0 1
20.544291 25.693366 16.124090 36.636092 0.896302 1.115070 0.041196 -0.014637 -521309.000000 0 0 1
20.503691 25.317346 14.757290 35.765164 0.890068 1.145472 0.044401 -0.011838 -364989.000000 0 0 1
19.094391 25.037196 14.213490 34.546783 0.919254 1.146777 0.046540 -0.009302 401858.000000 0 0 1
18.138691 26.095996 14.138690 34.783842 0.963383 1.152206 0.037186 -0.005184 -245461.000000 0 0 1
17.303791 26.137326 15.250790 34.859254 0.986008 1.117984 0.044704 -0.009001 -565019.000000 0 0 1
15.828491 26.392476 14.781890 34.141004 1.030572 1.123016 0.027531 -0.005006 42964.400000 0 0 1
15.117791 25.229166 14.476890 32.781683 1.030951 1.113398 0.026629 -0.005674 -91576.100000 0 0 1
14.778191 24.283516 15.487390 32.371952 1.024100 1.071942 0.038844 -0.014491 127724.000000 0 0 1
13.644391 24.683016 16.514490 32.682549 1.065818 1.041067 0.046673 -0.021054 343822.000000 0 0 1
14.041491 25.852526 17.207890 34.082665 1.073237 1.041545 0.052174 -0.019021 -120929.000000 0 0 1
13.028591 26.392526 18.001490 34.501641 1.112244 1.021887 0.043436 -0.020955 -125715.000000 0 0 1
13.627791 27.496856 18.918190 36.051237 1.110665 1.018365 0.048076 -0.030244 -102547.000000 0 0 1
13.806391 28.733536 18.106090 36.661465 1.122872 1.054259 0.040860 -0.018339 -76873.100000 0 0 1
14.496591 29.737786 18.760090 38.031934 1.117214 1.054949 0.051685 -0.018514 -648954.000000 0 0 1
14.483191 31.104566 17.998390 38.745308 1.135022 1.087692 0.039998 -0.017900 196170.000000 0 0 1
13.185691 31.671866 17.874090 38.684010 1.176299 1.090487 0.030336 -0.012993 196207.000000 0 0 1
13.300791 32.945609 17.350390 39.539350 1.187087 1.116519 0.033506 -0.013320 -629861.000000 0 0 1
11.999691 33.711784 17.178490 39.693544 1.228831 1.123224 0.047278 -0.016545 -729147.000000 0 0 1
12.023091 -33.696534 16.713090 39.488460 -1.228072 1.133778 0.054795 -0.015836 -299971.000000 0 0 1
12.625791 -32.600204 17.390390 39.046249 -1.201293 1.109199 0.055082 -0.013208 -501937.000000 0 0 1
12.320991 -32.371744 18.843990 39.431365 -1.207117 1.072541 0.052338 -0.018173 -352647.000000 0 0 1
12.878791 -33.344074 19.681190 40.804899 -1.202209 1.067490 0.052901 -0.017864 129990.000000 0 0 1
12.653491 -33.089004 21.083990 41.225328 -1.205547 1.033945 0.044835 -0.008034 -218445.000000 0 0 1
13.767591 -33.583304 22.044290 42.465699 -1.181739 1.024989 0.045020 -0.011829 -353896.000000 0 0 1
14.853391 -32.706444 22.000890 42.123317 -1.144503 1.021254 0.051478 -0.009545 -763881.000000 0 0 1
15.927791 -33.161454 22.759090 43.259135 -1.123024 1.016776 0.047263 -0.009938 -722785.000000 0 0 1
17.292191 -32.576414 22.475190 43.190008 -1.082798 1.023501 0.064984 -0.008232 -455237.000000 0 0 1
17.353491 -31.221814 22.699990 42.322983 -1.063501 1.004688 0.063622 -0.012843 30606.500000 0 0 1
18.629591 -30.697734 22.413890 42.329599 -1.025339 1.012775 0.075588 -0.006830 -324311.000000 0 0 1
-4.318009 12.883046 18.563323 23.004675 -1.247394 0.631849 0.021826 -0.000699 -589251.000000 0 1 0
-3.904909 13.967046 17.797923 22.958501 -1.298177 0.683731 0.020456 -0.007515 521003.000000 0 1 0
-5.026409 14.697746 17.262023 23.222101 -1.241280 0.732740 0.013679 -0.008556 548215.000000 0 1 0
-4.853709 16.238046 17.231523 24.169361 -1.280340 0.777101 0.020665 -0.013884 -87205.300000 0 1 0
-4.651109 16.890946 18.474223 25.460436 -1.302094 0.758883 0.020072 -0.001500 221284.000000 0 0 1
-4.358409 18.266646 18.233623 26.175009 -1.336576 0.800143 0.017365 0.004659 -338675.000000 0 0 1
-3.894109 19.067846 19.497823 27.548357 -1.369343 0.784464 0.022345 0.000382 8100.250000 0 0 1
-4.870609 19.202846 20.512123 28.517001 -1.322395 0.768010 0.011057 0.002142 -7082.620000 0 0 1
-4.363909 19.969346 21.602423 29.740262 -1.355648 0.757771 0.018494 0.006306 -133365.000000 0 0 1
-5.407209 20.213146 22.699323 30.871807 -1.309407 0.744721 0.012695 0.005634 -66112.600000 0 0 1
-5.824609 19.053546 23.384123 30.721018 -1.274121 0.705671 0.011693 -0.002495 -436638.000000 0 0 1
-6.501709 19.280546 24.587803 31.915071 -1.245555 0.691307 0.010214 -0.006819 -269797.000000 0 0 1
-5.672009 19.772046 25.781233 32.981472 -1.291428 0.673428 0.002731 -0.007006 -456845.000000 0 0 1
-5.353609 21.208046 25.621323 33.688196 -1.323529 0.706647 0.003616 -0.012002 92802.700000 0 0 1
-4.482909 21.795946 26.576413 34.662162 -1.367949 0.697069 0.011611 -0.003509 -745334.000000 0 0 1
-3.009509 21.629546 26.320803 34.200572 -1.432545 0.692580 0.031634 0.001563 -1020930.000000 0 0 1
-2.576209 20.279246 26.444233 33.424275 -1.444436 0.658079 0.034839 0.006173 169243.000000 0 0 1
-1.158209 20.172846 26.360633 33.213975 -1.513445 0.653993 0.036855 0.006978 480390.000000 0 0 1
-0.525809 18.858446 26.827423 32.796770 -1.542922 0.612889 0.030964 0.009749 -146371.000000 0 0 1
-0.526909 17.838246 25.856393 31.417093 -1.541267 0.604117 0.034316 0.007687 -293329.000000 0 0 1
-0.211409 16.595346 26.428173 31.207348 -1.558058 0.560748 0.028305 0.007631 58239.700000 0 0 1
1.261691 16.145146 26.200293 30.801185 1.492808 0.553621 0.021744 0.007450 161357.000000 0 0 1
1.501091 15.852446 24.836013 29.502218 1.476386 0.570121 0.012583 0.009286 -248138.000000 0 0 1
1.082791 14.546746 24.532413 28.541541 1.496498 0.536440 0.023147 0.007136 -333721.000000 0 0 1
1.362091 14.059546 23.114523 27.088878 1.474218 0.548544 0.017325 0.006126 -593310.000000 0 0 1
2.719391 14.022546 22.832123 26.932002 1.379244 0.559031 0.012877 0.003382 -870841.000000 0 0 1
2.857591 13.219346 21.704523 25.573488 1.357905 0.557251 0.006681 -0.004456 402280.000000 0 0 1
4.322091 13.157746 21.187423 25.312322 1.253418 0.578946 0.008480 -0.004110 492761.000000 0 0 1
4.810591 14.296346 20.488623 25.442307 1.246207 0.634619 0.003899 0.008014 158972.000000 0 0 1
6.205691 14.300046 20.246823 25.552608 1.161358 0.656131 0.019562 0.003344 -93695.100000 0 0 1
6.621791 15.476546 19.326023 25.629412 1.166506 0.716580 0.033427 -0.009386 -161080.000000 0 0 1
6.186691 15.415546 17.948723 24.455488 1.189146 0.746700 0.025498 -0.016013 291625.000000 0 1 0
6.679391 16.542946 17.229623 24.802082 1.187052 0.802815 0.033220 -0.012217 -36916.300000 0 1 0
6.774591 16.140246 15.730823 23.534261 1.173395 0.838711 0.028466 -0.014867 177323.000000 0 1 0
7.855391 15.381646 15.203323 23.009634 1.098626 0.848996 0.024326 -0.010881 42928.900000 0 1 0
7.949091 14.041946 15.691123 22.507236 1.055679 0.799369 0.019122 -0.008081 -332279.000000 0 1 0
8.846091 13.115846 14.848023 21.696602 0.977419 0.817087 0.017147 -0.020161 639508.000000 0 1 0
10.216591 13.439846 15.106023 22.653921 0.920817 0.840867 0.029751 -0.031093 -91204.300000 0 1 0
11.132891 12.826146 14.280523 22.189742 0.855954 0.871650 0.033046 -0.024366 -254701.000000 0 1 0
12.526891 13.478546 14.352723 23.336557 0.821976 0.908370 0.037832 -0.014786 48423.400000 0 1 0
13.331391 13.059046 15.495523 24.256461 0.775079 0.877832 0.041398 -0.027250 695612.000000 0 1 0
14.650691 13.553046 15.540223 25.294789 0.746499 0.909216 0.043415 -0.028196 -80116.600000 0 0 1
15.744491 13.089246 14.585823 25.138886 0.693569 0.951810 0.055238 -0.029966 -814794.000000 0 0 1
16.961391 13.661446 15.026223 26.459616 0.678051 0.966853 0.051135 -0.034259 112678.000000 0 0 1
17.996791 13.337246 14.111423 26.474495 0.637774 1.008631 0.051660 -0.022980 -394073.000000 0 0 1
19.331991 13.981646 14.447923 27.891841 0.626153 1.026287 0.043039 -0.023990 -360955.000000 0 0 1
20.074891 13.388046 15.484623 28.670797 0.588168 1.000260 0.028923 -0.031981 179155.000000 0 0 1
21.433591 13.813246 15.465923 29.822800 0.572476 1.025591 0.037450 -0.018803 522748.000000 0 0 1
22.197291 13.328746 16.738223 30.830883 0.540763 0.996905 0.044952 -0.023743 14231.900000 0 0 1
22.362091 11.947146 16.862923 30.449230 0.490678 0.983870 0.041448 -0.018971 1079220.000000 0 0 1
23.367891 11.615946 17.872923 31.629574 0.461317 0.970278 0.037509 -0.019329 583351.000000 0 0 1
23.605191 10.135346 17.949623 31.338782 0.405566 0.960927 0.049228 -0.020000 524251.000000 0 0 1
22.413791 9.493346 18.442423 30.538903 0.400641 0.922412 0.038623 -0.025281 973361.000000 0 0 1
22.219191 8.276146 17.824023 29.662819 0.356557 0.926185 0.035283 -0.009659 280571.000000 0 0 1
20.855791 7.602446 18.179123 28.692189 0.349555 0.884610 0.052069 -0.011050 250585.000000 0 0 1
20.522591 6.371046 17.574723 27.760365 0.301008 0.885262 0.059264 -0.014862 282154.000000 0 0 1
19.502391 5.753446 18.335023 27.379161 0.286875 0.837031 0.065375 -0.008547 -340922.000000 0 0 1
19.280591 4.263246 17.887323 26.643438 0.217614 0.834755 0.062901 -0.003227 -266192.000000 0 0 1
18.632091 4.270946 16.602323 25.318628 0.225332 0.855640 0.055122 -0.013038 361488.000000 0 0 1
18.481791 3.045046 15.917823 24.581009 0.163292 0.866411 0.057030 -0.015854 -168434.000000 0 1 0
17.715191 1.839746 16.557623 24.318050 0.103480 0.821836 0.051343 -0.007787 -184858.000000 0 1 0
18.299291 1.213346 17.634723 25.442479 0.066209 0.804986 0.054766 -0.013871 102357.000000 0 0 1
17.253391 0.725846 18.467323 25.283362 0.042045 0.751868 0.048921 -0.006665 179282.000000 0 0 1
17.814491 -0.110854 19.663323 26.533275 -0.006223 0.736116 0.045210 -0.003132 42322.500000 0 0 1
18.280691 -1.381854 19.320423 26.634037 -0.075447 0.759176 0.052289 -0.003213 414872.000000 0 0 1
17.209991 -2.333354 19.422123 26.054696 -0.134760 0.729607 0.036345 -0.000104 198312.000000 0 0 1
17.456091 -3.684954 18.828823 25.938747 -0.208044 0.758461 0.026181 -0.000846 -173849.000000 0 0 1
17.266791 -3.678354 17.414923 24.798224 -0.209893 0.792222 0.032187 -0.010254 235984.000000 0 1 0
17.339891 -5.015654 16.964623 24.771497 -0.281570 0.816406 0.047825 -0.012906 -253883.000000 0 1 0
16.885391 -5.137354 15.505523 23.493192 -0.295350 0.849977 0.032774 -0.018206 455178.000000 0 1 0
15.547891 -4.678754 15.267123 22.287052 -0.292305 0.816162 0.023280 -0.019927 538889.000000 0 1 0
15.305691 -4.585754 13.911123 21.185199 -0.291100 0.854437 0.025529 -0.021768 72422.300000 0 1 0
15.708691 -3.232254 13.211723 20.778837 -0.202930 0.881718 0.024803 -0.019321 24888.500000 0 1 0
14.893991 -2.108254 13.477523 20.197013 -0.140616 0.840215 0.026728 -0.015420 80945.400000 0 1 0
15.435691 -0.976654 12.828023 20.094093 -0.063188 0.878382 0.028218 -0.017951 255375.000000 0 1 0
14.686791 0.359746 13.191223 19.744357 0.024490 0.839143 0.039443 -0.007549 30149.800000 0 1 0
15.075391 1.549946 12.588523 19.701286 0.102453 0.877638 0.042832 -0.009956 -212054.000000 0 1 0
16.044791 2.257446 13.313523 20.970963 0.139779 0.882975 0.053450 -0.012679 -224968.000000 0 1 0
16.096691 3.757346 12.910723 20.973981 0.229317 0.907701 0.046521 -0.008590 -59725.000000 0 1 0
15.048691 4.545746 13.412423 20.664462 0.293354 0.864452 0.039400 -0.000404 88257.700000 0 1 0
15.266791 5.853346 12.938623 20.850529 0.366118 0.901363 0.049860 -0.000595 753720.000000 0 1 0
14.035091 6.818646 13.099923 20.373652 0.452246 0.872409 0.037977 -0.001137 641831.000000 0 1 0
14.311791 8.042446 12.400723 20.573921 0.511968 0.923866 0.035866 -0.008934 478589.000000 0 1 0
13.351691 9.053246 12.728723 20.548706 0.595849 0.902765 0.027731 0.007001 -37859.700000 0 1 0
13.599391 9.780946 14.071323 21.877214 0.623509 0.872132 0.039514 -0.006387 -93321.800000 0 1 0
13.164591 8.976446 15.130023 21.972725 0.598449 0.811264 0.034438 -0.015438 693685.000000 0 1 0
13.659991 9.513446 16.417923 23.380531 0.608337 0.792307 0.046081 -0.021986 -12783.700000 0 1 0
13.049091 8.783646 17.613623 23.615058 0.592459 0.728965 0.042410 -0.029863 -651012.000000 0 1 0
11.682691 9.071646 17.769823 23.120265 0.660248 0.694174 0.019605 -0.027262 -204875.000000 0 1 0
11.030391 8.567246 18.940423 23.533102 0.660368 0.635387 0.025408 -0.014950 201705.000000 0 1 0
11.650291 8.950546 20.297723 25.056718 0.655091 0.626523 0.043129 -0.012188 -617309.000000 0 0 1
12.928291 8.422046 20.574223 25.717120 0.577389 0.643467 0.061747 -0.013163 36399.000000 0 0 1
13.483691 9.075446 21.719223 27.127446 0.592421 0.642440 0.062412 -0.006327 -815156.000000 0 0 1
14.978991 8.820346 21.722123 27.821203 0.532179 0.674890 0.067307 -0.011342 -921523.000000 0 0 1
15.646291 9.649246 20.800023 27.758879 0.552617 0.723776 0.061674 -0.011892 -153612.000000 0 0 1
16.736491 8.924646 20.246723 27.743274 0.489888 0.752784 0.060119 -0.020364 47681.400000 0 0 1
17.676391 9.903246 19.506123 28.125041 0.510681 0.804391 0.058700 -0.023551 42682.200000 0 0 1
18.587591 10.714046 20.257523 29.506890 0.522892 0.814083 0.052265 -0.026231 72395.200000 0 0 1
19.331791 11.444646 19.348423 29.648939 0.534525 0.859807 0.049798 -0.027841 -10130.100000 0 0 1
20.472091 12.178446 20.085523 31.158455 0.536647 0.870263 0.043051 -0.023058 -361044.000000 0 0 1
19.815591 13.245046 20.794423 31.630633 0.589212 0.853414 0.031274 -0.019771 505565.000000 0 0 1
20.490391 13.874946 21.859623 33.018380 0.595221 0.847253 0.032998 -0.012646 -130436.000000 0 0 1
21.778691 14.674846 21.492923 33.935354 0.592936 0.884923 0.016914 -0.010243 739233.000000 0 0 1
22.915491 13.847746 21.184223 34.141633 0.543573 0.901441 -0.001465 0.002503 328061.000000 0 0 1
24.056391 14.644546 21.019123 35.142229 0.546835 0.929648 -0.003550 0.005022 -490709.000000 0 0 1
25.402691 13.946446 20.902723 35.731274 0.502086 0.945919 -0.004015 0.003697 -394758.000000 0 0 1
25.610391 13.270546 19.709923 34.935377 0.478078 0.971354 -0.004356 0.005176 273199.000000 0 0 1
26.880991 12.640746 19.811723 35.705469 0.439564 0.982595 0.018341 -0.002154 261552.000000 0 0 1
27.391091 12.007846 18.492723 35.163064 0.413153 1.017008 0.038461 -0.005032 -180673.000000 0 0 1
27.763391 12.904246 17.448023 35.238600 0.435088 1.052801 0.039767 -0.008136 321050.000000 0 0 1
28.163691 12.364946 16.175223 34.752313 0.413701 1.086661 0.056087 -0.018328 237488.000000 0 0 1
26.989591 11.854046 15.285123 33.205292 0.413843 1.092439 0.055408 -0.027898 345720.000000 0 0 1
26.328191 12.873546 14.556223 32.722858 0.454780 1.109808 0.059041 -0.025174 179405.000000 0 0 1
25.315591 12.383146 13.685123 31.328965 0.454931 1.118736 0.053753 -0.020377 178332.000000 0 0 1
24.753891 13.475046 12.830023 30.966780 0.498503 1.143606 0.053008 -0.018006 -296666.000000 0 0 1
24.314091 14.572946 13.543823 31.416253 0.539950 1.125075 0.041132 -0.022851 127672.000000 0 0 1
23.898991 15.623546 12.685223 31.243749 0.578995 1.152714 0.040536 -0.023415 -408519.000000 0 0 1
23.075591 16.706346 13.307623 31.443246 0.626642 1.133792 0.035999 -0.023068 -1308890.000000 0 0 1
21.731791 16.376446 13.456523 30.356824 0.645783 1.111544 0.042428 -0.018595 -841567.000000 0 0 1
20.993591 17.537146 13.662923 30.577080 0.695931 1.107571 0.033966 -0.014225 -900415.000000 0 0 1
20.262091 18.113046 12.414723 29.879092 0.729456 1.142305 0.044771 -0.005162 893188.000000 0 0 1
19.100391 17.396746 11.910123 28.448598 0.738753 1.138834 0.037778 -0.000128 1726190.000000 0 0 1
17.959891 17.333946 12.817123 28.058903 0.767665 1.096409 0.029419 0.000253 7025.410000 0 0 1
16.738391 16.733046 12.087123 26.575687 0.785238 1.098628 0.035724 0.004439 -183830.000000 0 0 1
16.829291 15.322746 11.809323 25.641211 0.738576 1.092170 0.044762 -0.006645 1148290.000000 0 0 1
15.563391 14.989546 11.178123 24.328092 0.766618 1.093394 0.043324 -0.013818 1138100.000000 0 1 0
15.585591 13.646246 10.380923 23.170979 0.719152 1.106254 0.046784 -0.014708 5239.540000 0 1 0
15.746391 12.520846 11.167023 23.009190 0.671781 1.064057 0.049296 -0.014018 281855.000000 0 1 0
16.114491 11.426246 10.345023 22.299225 0.616785 1.088383 0.050343 -0.013412 -161984.000000 0 1 0
16.794391 10.356246 11.255923 22.715616 0.552572 1.052369 0.075226 -0.012997 -649506.000000 0 1 0
17.574591 9.477146 10.459123 22.540537 0.494555 1.088275 0.085557 -0.014210 344879.000000 0 1 0
18.299191 8.517846 11.200623 23.083935 0.435650 1.064190 0.110351 -0.008978 1220280.000000 0 1 0
19.431591 8.954446 12.240323 24.649429 0.431814 1.051146 0.083752 -0.015685 60411.000000 0 1 0
18.867991 9.575846 13.353323 25.020175 0.469644 1.007824 0.064177 -0.020599 -190673.000000 0 0 1
19.816291 9.933846 14.321723 26.390878 0.464685 0.997175 0.060755 -0.011104 -767717.000000 0 0 1
19.109791 10.140046 15.650123 26.700768 0.487843 0.944522 0.041929 -0.021264 525819.000000 0 0 1
18.426991 9.031846 16.275923 26.192249 0.455730 0.900265 0.049661 -0.016246 1063490.000000 0 0 1
17.365291 8.356546 15.575623 24.778725 0.448512 0.891059 0.058189 -0.024970 -47769.600000 0 1 0
16.847891 7.079246 16.194823 24.418015 0.397786 0.845667 0.052783 -0.010735 -1118150.000000 0 1 0
16.129891 7.213146 17.386123 24.788710 0.420516 0.793475 0.064200 -0.015081 239117.000000 0 1 0
15.545291 5.957246 17.827423 24.391840 0.365957 0.751191 0.061396 0.006317 369302.000000 0 1 0
14.591991 5.163246 16.888323 22.908531 0.340093 0.741869 0.075054 -0.024567 -537104.000000 0 1 0
14.162491 3.920846 17.419623 22.790184 0.270083 0.700767 0.071789 -0.007723 158152.000000 0 1 0
13.431691 3.217646 16.432023 21.465669 0.235125 0.698974 0.051609 -0.002058 -51042.900000 0 1 0
13.095491 1.775646 16.836823 21.403818 0.134770 0.665469 0.035502 0.000584 421652.000000 0 1 0
14.275291 1.048846 17.228323 22.398641 0.073341 0.693258 0.038849 0.003115 522828.000000 0 1 0
14.176491 -0.389054 17.120023 22.231047 -0.027437 0.691806 0.036797 0.017067 -598112.000000 0 1 0
13.111591 -1.163354 17.936123 22.247960 -0.088495 0.633109 0.022696 0.010753 227495.000000 0 1 0
11.848091 -1.009554 17.309323 21.000218 -0.085003 0.601929 0.027274 -0.002950 -824539.000000 0 1 0
10.830791 -1.522254 18.073423 21.125149 -0.139634 0.544202 0.023924 -0.008474 -519829.000000 0 1 0
-25.402659 14.216346 28.912613 41.028512 -0.510214 0.788802 0.058713 -0.003336 42167.900000 0 0 1
-24.532009 14.192446 30.059913 41.313961 -0.524481 0.755984 0.064156 -0.005782 619403.000000 0 0 1
-23.819009 12.977846 30.096683 40.516417 -0.498883 0.733513 0.058674 -0.004613 -211695.000000 0 0 1
-22.649709 12.973946 31.095873 40.599088 -0.520186 0.698317 0.075064 -0.013710 -73205.700000 0 0 1
-23.134609 13.067846 32.456483 41.945227 -0.514181 0.686005 0.069232 -0.012397 -36575.400000 0 0 1
-22.084209 13.084346 33.364590 42.096417 -0.534868 0.655775 0.051554 -0.008992 -576337.000000 0 0 1
-22.537809 13.308946 -33.762980 42.720249 -0.533417 2.482139 0.052475 -0.008829 -165938.000000 0 0 1
-23.149509 12.173346 -33.226810 42.286062 -0.484119 2.474725 0.035214 -0.007636 -257455.000000 0 0 1
-23.851609 12.581546 -32.094190 41.919346 -0.485399 2.442797 0.020762 -0.010420 -176642.000000 0 0 1
-24.724909 11.431646 -31.506870 41.649568 -0.433079 2.428703 0.008264 -0.010911 119586.000000 0 0 1
-24.006209 10.364446 -30.873380 40.458441 -0.407566 2.438875 -0.004347 -0.008504 236428.000000 0 0 1
-23.613709 9.301146 -31.722920 40.625881 -0.375226 2.466830 -0.007372 -0.010885 -28413.700000 0 0 1
-22.783909 8.226246 -30.999590 39.341482 -0.346489 2.478288 -0.007861 0.002811 -484900.000000 0 0 1
-23.439809 7.448546 -30.067580 38.845397 -0.307682 2.455981 -0.010280 0.003499 -332983.000000 0 0 1
-22.560609 6.837046 -29.149910 37.489246 -0.294255 2.461563 -0.007497 0.010394 -118707.000000 0 0 1
-23.176109 5.757046 -28.188350 36.943994 -0.243476 2.438741 -0.008288 0.010776 -48470.300000 0 0 1
-23.687309 4.569246 -28.822530 37.585966 -0.190558 2.444704 0.000052 0.004521 57820.900000 0 0 1
-23.905309 3.572146 -27.901690 36.915150 -0.148331 2.427722 0.034080 0.007685 -197089.000000 0 0 1
-24.738509 2.370846 -28.533940 37.839139 -0.095544 2.425057 0.044455 0.006290 1641420.000000 0 0 1
-26.135719 2.578746 -28.856570 39.018295 -0.098349 2.403220 0.053687 -0.007440 1267380.000000 0 0 1
-26.431029 3.633446 -29.782490 39.984971 -0.136613 2.411094 0.040990 0.003692 -1092020.000000 0 0 1
-27.825839 3.396046 -30.385350 41.341020 -0.121446 2.396452 0.080029 -0.006986 -541024.000000 0 0 1
-28.866659 3.759746 -29.498110 41.443434 -0.129516 2.362808 0.069826 -0.010489 -215263.000000 0 0 1
-30.092459 3.867646 -30.183090 42.796422 -0.127825 2.353602 0.084260 -0.015091 -28232.200000 0 0 1
-30.493829 5.195046 -30.832000 43.674642 -0.168744 2.354556 0.085065 -0.024640 -375633.000000 0 0 1
-29.606449 5.540946 -31.897850 43.871594 -0.185013 2.384845 0.074729 -0.019476 341222.000000 0 0 1
-29.743339 6.888646 -32.311920 44.454244 -0.227590 2.384532 0.067569 -0.021807 -446200.000000 0 0 1
-29.140329 8.095546 -31.489500 43.661027 -0.270979 2.376368 0.053336 -0.018519 -831661.000000 0 0 1
-27.757149 7.994646 -31.360960 42.636645 -0.280431 2.397260 0.000073 -0.011596 -452165.000000 0 0 1
-27.343969 7.330346 -30.168610 41.371145 -0.261921 2.387976 0.000902 -0.009608 -571618.000000 0 0 1
-27.416039 8.152146 -28.852460 40.627099 -0.289023 2.360547 0.000347 -0.007598 87034.900000 0 0 1
-28.726449 8.450446 -28.375480 41.252718 -0.286099 2.329312 0.008881 -0.007074 453792.000000 0 0 1
-29.180049 7.428746 -27.470170 40.758702 -0.249287 2.310367 0.008435 0.002810 -290484.000000 0 0 1
-30.684759 7.617546 -27.154350 41.676614 -0.243333 2.280421 0.033880 -0.004058 141571.000000 0 0 1
-31.019989 8.505746 -26.079710 41.409404 -0.267624 2.252094 -0.008536 0.006895 156606.000000 0 0 1
-30.837289 7.886346 -24.766310 40.329926 -0.250374 2.232032 -0.007522 0.003822 -29952.300000 0 0 1
-30.092009 8.730446 -23.701710 39.287667 -0.282373 2.218412 -0.016709 0.007475 -970185.000000 0 0 1
-30.927539 9.655346 -23.111310 39.797877 -0.302605 2.190406 -0.004776 0.004929 282015.000000 0 0 1
-30.190589 10.557946 -22.263510 38.969293 -0.336416 2.178896 -0.009408 -0.000781 382081.000000 0 0 1
-31.159529 11.504946 -21.476210 39.553857 -0.353700 2.144756 -0.003704 0.001551 225917.000000 0 0 1
-31.771849 10.879246 -20.355910 39.270491 -0.329904 2.115718 -0.002659 -0.009089 450864.000000 0 0 1
-32.556949 11.739746 -19.521010 39.734700 -0.346079 2.084359 0.004084 -0.009393 255931.000000 0 0 1
-31.714779 12.813946 -18.762810 39.013683 -0.383982 2.072510 0.015512 -0.012711 48318.000000 0 0 1
-30.904989 12.474746 -17.666610 37.720641 -0.383647 2.058223 0.029261 -0.018709 419126.000000 0 0 1
-31.606289 11.957846 -16.522010 37.615481 -0.361694 2.025543 0.026924 -0.011658 268603.000000 0 0 1
-32.348079 12.885446 -15.467310 38.100796 -0.379072 1.988823 0.020764 -0.008376 686806.000000 0 0 1
-33.487939 13.579946 -15.980310 39.512369 -0.385254 1.987161 0.018460 -0.007385 432212.000000 0 0 1
-33.792959 14.813146 -15.324910 39.953051 -0.413124 1.964458 0.022861 -0.005242 21866.500000 0 0 1
-34.572664 15.769146 -16.242310 41.324904 -0.427928 1.974731 0.019198 0.000261 -432456.000000 0 0 1
-35.955251 15.570946 -16.266210 42.424333 -0.408682 1.964290 0.004544 0.005012 391873.000000 0 0 1
35.210316 16.594446 -16.941910 42.451976 0.440421 1.981314 0.001275 0.003058 -4907.240000 0 0 1
34.969046 16.407446 -18.464610 42.813319 0.438705 2.016709 0.000884 -0.002591 -443985.000000 0 0 1
33.933506 15.575146 -18.890610 41.844034 0.430305 2.039189 0.013500 -0.010489 461564.000000 0 0 1
32.616136 16.130246 -18.802010 40.957450 0.459277 2.047735 0.037362 -0.020776 215450.000000 0 0 1
31.598216 14.996346 -19.116310 39.859390 0.443118 2.070988 0.050961 -0.026052 -188506.000000 0 0 1
31.651796 14.619846 -20.492910 40.441754 0.432703 2.102180 0.051448 -0.030644 632841.000000 0 0 1
30.793566 13.478546 -20.728610 39.491647 0.412584 2.123377 0.031470 -0.027425 427575.000000 0 0 1
31.444786 12.077646 -20.410810 39.385851 0.366717 2.115573 0.029330 -0.009702 34101.100000 0 0 1
31.542326 11.901446 -19.039010 38.717524 0.360800 2.084885 0.034334 -0.010609 -37359.800000 0 0 1
32.446676 10.863146 -18.759610 39.022015 0.323070 2.072300 0.022362 -0.006558 -526803.000000 0 0 1
32.405836 10.524446 -17.215610 38.174329 0.314024 2.038652 0.020463 -0.005376 -224205.000000 0 0 1
31.192846 9.965446 -16.726110 36.770457 0.309230 2.043033 0.025115 -0.011240 188376.000000 0 0 1
31.273846 9.747546 -15.333110 36.168665 0.302141 2.008580 0.012029 -0.009413 -189503.000000 0 0 1
30.799136 10.906946 -14.429910 35.717930 0.340351 1.986678 0.020639 -0.009460 80001.700000 0 0 1
29.393776 11.132446 -14.433410 34.586829 0.362041 2.001279 0.013982 -0.004524 360728.000000 0 0 1
29.106506 12.184446 -13.560210 34.344268 0.396451 1.976681 0.020363 -0.000958 467107.000000 0 0 1
27.569446 12.276346 -13.311310 32.984451 0.418929 1.986204 0.042318 -0.003283 107850.000000 0 0 1
26.969496 11.212446 -12.606610 31.811936 0.394006 1.978264 0.029932 -0.004783 -1488340.000000 0 0 1
25.641156 11.031546 -12.844010 30.726739 0.406291 2.002047 0.038385 -0.000901 -1592550.000000 0 0 1
25.333256 10.270446 -14.159710 30.785602 0.385165 2.048731 0.037760 -0.004660 -896669.000000 0 0 1
25.769156 8.946546 -14.245510 30.773765 0.334161 2.052073 0.022673 -0.005739 -390828.000000 0 0 1
27.078256 8.811146 -14.697110 32.044864 0.314590 2.047262 0.024754 -0.012676 -871729.000000 0 0 1
27.843386 7.636246 -14.069210 32.117115 0.267675 2.024235 0.030604 -0.006041 -512056.000000 0 0 1
27.378846 6.365246 -14.457110 31.608948 0.228430 2.045836 0.021019 -0.012907 246925.000000 0 0 1
26.385556 5.941546 -13.561110 30.255632 0.221487 2.035567 0.028602 -0.013487 -383291.000000 0 0 1
26.054356 4.458546 -13.666910 29.757226 0.169483 2.047981 0.034417 -0.014122 -80810.800000 0 0 1
25.083456 4.116246 -12.696410 28.413414 0.162652 2.034033 0.032680 -0.015443 359848.000000 0 0 1
24.597056 2.780246 -12.884210 27.906053 0.112554 2.050706 0.023323 -0.020130 -228610.000000 0 0 1
23.634256 2.318546 -11.785910 26.511533 0.097788 2.031477 0.012127 -0.006930 -613022.000000 0 0 1
24.177956 2.032346 -10.529310 26.449392 0.083861 1.980233 0.009197 -0.007840 680042.000000 0 0 1
23.147656 1.904346 -9.516510 25.099890 0.082085 1.959669 0.000086 -0.000756 -9497.820000 0 0 1
23.742856 1.526246 -8.100510 25.133064 0.064194 1.898960 -0.002242 0.008563 -136377.000000 0 0 1
24.060256 0.144746 -7.813010 25.297431 0.006016 1.884776 0.002775 -0.000989 334433.000000 0 0 1
24.938956 -0.556654 -8.628010 26.395150 -0.022317 1.903795 0.018312 -0.006902 -759847.000000 0 0 1
25.094456 -2.010754 -8.100110 26.445919 -0.079957 1.882089 0.043771 -0.014650 7310.020000 0 0 1
26.148056 -2.276054 -7.172110 27.209197 -0.086826 1.837540 0.052906 -0.017147 561974.000000 0 0 1
26.114456 -3.617254 -6.712110 27.204811 -0.137640 1.820096 0.061582 -0.016082 -631757.000000 0 0 1
27.212176 -4.042554 -5.717410 28.098640 -0.147478 1.775704 0.071124 -0.023848 -285686.000000 0 0 1
28.424906 -4.147754 -6.428010 29.436346 -0.144897 1.790940 0.075580 -0.028354 229875.000000 0 0 1
29.556356 -4.413454 -5.616310 30.407231 -0.148228 1.756566 0.086481 -0.027018 -174045.000000 0 0 1
30.874626 -4.583154 -6.353110 31.852941 -0.147368 1.771594 0.087273 -0.026244 -550513.000000 0 0 1
30.844156 -5.708054 -7.185710 32.180402 -0.182991 1.795989 0.065938 -0.021804 356036.000000 0 0 1
31.821266 -5.600854 -8.223810 33.340570 -0.174225 1.820029 0.058339 -0.038859 -402559.000000 0 0 1
31.608226 -6.645254 -9.369910 33.630857 -0.207220 1.853143 0.053514 -0.037727 569785.000000 0 0 1
30.342346 -6.730154 -10.017010 32.654149 -0.218274 1.882584 0.077236 -0.035740 1562290.000000 0 0 1
29.193276 -7.143654 -9.224310 31.438305 -0.239986 1.868588 0.083505 -0.031355 802232.000000 0 0 1
27.982656 -6.171254 -9.126610 30.073384 -0.217064 1.879137 0.073824 -0.022325 -278475.000000 0 0 1
27.300836 -6.028754 -10.357110 29.815285 -0.217339 1.925568 0.046900 -0.021475 1180170.000000 0 0 1
26.102156 -5.212054 -10.403410 28.578296 -0.197087 1.943389 0.047715 -0.013442 1364820.000000 0 0 1
24.821356 -6.012454 -10.013010 27.431910 -0.237652 1.944443 0.058651 -0.008255 -459756.000000 0 0 1
24.660856 -6.338154 -8.603410 26.876545 -0.251568 1.896640 0.050061 -0.014687 741400.000000 0 0 1
23.464956 -7.036654 -8.237910 25.845344 -0.291346 1.895195 0.049042 -0.016858 117488.000000 0 0 1
22.364656 -6.090454 -7.689210 24.421208 -0.265878 1.891103 0.052343 -0.005469 -67924.600000 0 1 0
21.723556 -5.325454 -8.706910 24.001742 -0.240405 1.942026 0.033748 -0.001112 407604.000000 0 1 0
21.362456 -4.055854 -8.319910 23.281439 -0.187626 1.936239 0.016313 0.000945 -190558.000000 0 1 0
21.279956 -3.001554 -9.532510 23.509883 -0.140126 1.988287 0.016108 0.001920 -396239.000000 0 1 0
22.508556 -2.742354 -10.193810 24.861001 -0.121239 1.993286 0.014435 -0.007137 661672.000000 0 1 0
22.404356 -2.196154 -11.517110 25.286797 -0.097711 2.043685 0.018895 -0.006437 456902.000000 0 0 1
23.816356 -2.292754 -12.211910 26.862730 -0.095972 2.042724 0.027072 -0.016419 407606.000000 0 0 1
24.711156 -1.356154 -11.738510 27.391112 -0.054825 2.013686 0.020390 -0.018550 508680.000000 0 0 1
26.038356 -1.553454 -12.223810 28.806783 -0.059590 2.009027 0.033428 -0.017875 -79624.200000 0 0 1
26.983426 -0.403854 -12.074910 29.564706 -0.014966 1.991522 0.046962 -0.009134 61384.000000 0 0 1
28.326886 -0.757254 -12.459010 30.955013 -0.026726 1.985029 0.057131 -0.017452 601604.000000 0 0 1
29.291416 0.209946 -12.264810 31.756207 0.007167 1.967324 0.066231 -0.018030 -515462.000000 0 0 1
29.302196 1.528546 -13.075010 32.123372 0.052118 1.989991 0.073587 -0.019558 -609429.000000 0 0 1
29.581626 1.332046 -14.442210 32.945779 0.044999 2.024573 0.065869 -0.020742 410856.000000 0 0 1
29.649666 2.502346 -15.250710 33.435738 0.084198 2.044427 0.058109 -0.017467 -133676.000000 0 0 1
29.939756 2.162046 -16.745310 34.372501 0.072088 2.079645 0.057530 -0.023994 -521500.000000 0 0 1
28.896576 1.504146 -17.371710 33.749828 0.052006 2.111477 0.058045 -0.011797 -332325.000000 0 0 1
29.213886 1.350946 -18.766410 34.748444 0.046210 2.141310 0.034485 -0.009907 330587.000000 0 0 1
28.048186 0.608646 -19.499410 34.165746 0.021697 2.178191 0.027538 -0.009863 189376.000000 0 0 1
27.953216 -0.786954 -19.192310 33.916756 -0.028145 2.172278 0.053107 -0.013315 325449.000000 0 0 1
27.608256 -1.477054 -20.411110 34.365839 -0.053449 2.206739 0.048788 -0.012641 -132120.000000 0 0 1
27.300946 -2.972354 -20.263810 34.129145 -0.108447 2.206494 0.047541 -0.015926 -491256.000000 0 0 1
26.141956 -3.376854 -19.603810 32.849876 -0.128462 2.210266 0.043738 -0.011211 -102923.000000 0 0 1
25.806756 -4.739254 -19.708110 32.815527 -0.181620 2.215014 0.052570 -0.019348 -72798.800000 0 0 1
26.578456 -5.701554 -18.707710 32.998492 -0.211315 2.173566 0.050082 -0.015592 1076930.000000 0 0 1
27.992046 -5.671354 -18.988310 34.296863 -0.199900 2.157532 0.063482 -0.026448 680859.000000 0 0 1
28.676466 -5.609954 -17.778910 34.203814 -0.193189 2.117405 0.049482 -0.018130 -153919.000000 0 0 1
30.169346 -5.225054 -17.890710 35.462207 -0.171490 2.099600 0.071739 -0.022485 144401.000000 0 0 1
30.983586 -6.161854 -18.571810 36.645098 -0.196313 2.102267 0.071004 -0.026010 1496660.000000 0 0 1
32.348826 -5.663454 -18.753010 37.817941 -0.173318 2.089640 0.054770 -0.016019 1263730.000000 0 0 1
33.191006 -6.726454 -19.449510 39.053444 -0.199951 2.092114 0.045275 -0.014660 -411242.000000 0 0 1
33.490636 -7.810154 -18.603810 39.098887 -0.229109 2.066686 0.038842 -0.019558 26548.100000 0 0 1
34.397546 -8.706654 -19.219710 40.353367 -0.247912 2.067221 0.023321 -0.012659 -179057.000000 0 0 1
35.098746 -9.463854 -18.097010 40.607737 -0.263372 2.032701 0.019832 -0.006893 -888519.000000 0 0 1
34.172346 -10.207754 -17.295910 39.637053 -0.290276 2.022342 0.025101 -0.018927 435109.000000 0 0 1
34.749356 -11.125854 -16.351610 39.983466 -0.309861 1.992110 0.047399 -0.018120 -494355.000000 0 0 1
35.802376 -10.570154 -15.371610 40.371087 -0.287081 1.961412 0.051463 -0.031621 -298352.000000 0 0 1
-35.640405 -11.463154 -14.358710 40.097568 0.311184 1.937022 0.044466 -0.036253 599741.000000 0 0 1
-35.028030 -12.717554 -14.727610 40.069958 0.348269 1.947167 0.042747 -0.028642 -582317.000000 0 0 1
-33.585449 -12.611854 -15.230610 38.974514 0.359222 1.972279 0.040260 -0.028748 -608481.000000 0 0 1
-33.495169 -12.120054 -16.546310 39.275978 0.347188 2.005656 0.037594 -0.021795 -188343.000000 0 0 1
-32.163379 -12.205054 -16.986110 38.366316 0.362684 2.029443 0.033628 -0.015354 -254649.000000 0 0 1
-31.781539 -11.282354 -18.157110 38.301937 0.341120 2.064683 0.040780 -0.006519 155059.000000 0 0 1
-31.804259 -9.851754 -17.949610 37.825341 0.300389 2.065237 0.049175 -0.009053 625068.000000 0 0 1
-33.126359 -9.311554 -18.013910 38.840207 0.274021 2.053071 0.039173 -0.012197 131134.000000 0 0 1
-33.354619 -7.797854 -17.670510 38.543275 0.229661 2.047057 0.046887 -0.014196 -114387.000000 0 0 1
-34.727966 -7.576254 -17.409710 39.579404 0.214795 2.026248 0.041374 -0.012381 -303476.000000 0 0 1
-35.090132 -6.263554 -17.210610 39.582250 0.176639 2.020619 0.052558 -0.014151 -88619.800000 0 0 1
24.091891 26.612446 -27.091750 44.973374 0.835068 2.217295 0.030589 0.014633 64255.100000 0 0 1
24.804891 25.717046 -26.275380 44.351377 0.803451 2.204876 0.034686 -0.001267 -383834.000000 0 0 1
26.158991 25.642146 -26.640310 45.293692 0.775421 2.199588 0.033590 -0.005662 -735636.000000 0 0 1
26.962391 24.900346 -25.581810 44.737308 0.745659 2.179522 0.020066 -0.012746 -620701.000000 0 0 1
27.277291 25.712846 -24.487410 44.775376 0.755883 2.149447 0.038441 -0.008942 153145.000000 0 0 1
27.625791 24.857746 -23.402410 43.917703 0.732706 2.132784 0.030100 -0.015342 -170107.000000 0 0 1
28.254391 25.640446 -22.228810 44.157254 0.736935 2.098327 0.028125 -0.004590 -7651.800000 0 0 1
27.311391 26.462846 -21.547610 43.709196 0.769620 2.086304 0.034881 -0.001602 223401.000000 0 0 1
27.856391 27.048646 -20.368010 43.845907 0.770688 2.053907 0.020182 -0.004165 -199005.000000 0 0 1
26.880091 27.965346 -19.641910 43.478782 0.805183 2.039532 0.026278 0.001191 -76676.100000 0 0 1
25.912091 27.278146 -18.836610 42.075546 0.811075 2.034972 0.042048 -0.000830 177288.000000 0 0 1
25.290291 28.321846 -18.124010 42.073810 0.841884 2.016139 0.037745 -0.002663 -483691.000000 0 0 1
24.140391 27.960546 -17.188010 40.742831 0.858589 2.006299 0.039578 0.000083 -163277.000000 0 0 1
23.048791 27.346046 -17.844610 39.968526 0.870464 2.033609 0.048871 0.000099 -126075.000000 0 0 1
21.891491 27.354246 -17.036310 38.958029 0.895875 2.023389 0.024340 0.010175 -156890.000000 0 0 1
20.934791 26.250346 -17.535410 37.879239 0.897578 2.052093 0.013534 0.000609 -411816.000000 0 0 1
20.355291 26.604946 -18.769510 38.398640 0.917705 2.081518 0.013727 0.003678 -553440.000000 0 0 1
19.517191 25.569046 -19.187310 37.454636 0.918829 2.108635 0.013082 0.008322 -327593.000000 0 0 1
18.903491 25.911346 -20.542210 38.088347 0.940516 2.140438 0.003076 0.014040 -284319.000000 0 0 1
18.009791 26.983046 -20.449910 38.348874 0.982253 2.133246 -0.005385 0.018452 -921231.000000 0 0 1
17.081091 26.944046 -21.492510 38.466521 1.005789 2.163653 -0.008434 0.014105 -324781.000000 0 0 1
15.933391 27.942846 -21.197810 38.523016 1.052567 2.153476 -0.004297 0.016395 -301143.000000 0 0 1
15.427991 27.685046 -19.889010 37.417341 1.062390 2.131220 0.002390 0.017099 -395639.000000 0 0 1
14.515191 28.688046 -19.551610 37.629247 1.102387 2.117162 0.003421 0.009602 -64344.000000 0 0 1
13.996291 28.632946 -18.109510 36.656461 1.116135 2.087519 0.008516 0.008910 -107935.000000 0 0 1
13.269791 27.485946 -17.711510 35.288272 1.121016 2.096601 0.009896 0.011905 -217964.000000 0 0 1
12.808291 27.592046 -16.379810 34.549551 1.136195 2.064734 0.030643 0.012717 -34537.900000 0 0 1
11.752591 26.520846 -16.080910 33.167369 1.153657 2.076978 0.036507 0.004270 -434414.000000 0 0 1
12.346691 25.279846 -15.961710 32.346369 1.116471 2.086862 0.022650 0.002510 -349482.000000 0 0 1
11.464291 24.175346 -16.050910 31.201106 1.127989 2.111144 0.046236 -0.004327 115902.000000 0 0 1
12.253391 22.825246 -16.068110 30.484777 1.078117 2.125965 0.030207 0.003766 290911.000000 0 0 1
12.717591 22.604746 -17.397410 31.231099 1.058326 2.161631 0.033936 0.004998 -422810.000000 0 0 1
13.647891 21.558046 -17.553910 30.970212 1.006410 2.173413 0.029437 0.007714 -299636.000000 0 0 1
13.181391 20.140746 -17.923010 30.010548 0.991289 2.210832 0.041316 -0.000495 -124893.000000 0 0 1
12.450091 19.630246 -16.813910 28.689003 1.005587 2.197003 0.042820 0.001952 -63259.400000 0 0 1
12.084491 18.278846 -17.025110 27.748973 0.986644 2.231332 0.043123 -0.004394 225675.000000 0 0 1
13.260991 17.235646 -17.064110 27.642453 0.914999 2.236122 0.042394 -0.004484 384246.000000 0 0 1
13.865691 16.944546 -15.835810 27.021249 0.884997 2.196972 0.037134 0.001320 258457.000000 0 0 1
14.926891 16.003846 -15.976410 27.095772 0.820202 2.201394 0.041478 0.000449 -566457.000000 0 0 1
15.348891 15.271346 -14.674910 26.156365 0.782866 2.166445 0.065035 0.007191 -1076310.000000 0 0 1
15.973791 16.055146 -13.629810 26.432961 0.787938 2.112547 0.039558 0.007316 -126345.000000 0 0 1
17.261991 16.491246 -13.907810 27.629055 0.762567 2.098298 0.030358 0.008104 -574086.000000 0 0 1
18.364891 15.475046 -14.355910 27.979250 0.700207 2.109579 0.034718 0.000499 -1076970.000000 0 0 1
18.726991 14.449146 -13.404110 27.187280 0.657162 2.086364 0.054238 -0.008018 417593.000000 0 0 1
19.733691 14.793446 -12.480110 27.640871 0.643280 2.039252 0.058802 0.000896 -524955.000000 0 0 1
20.302891 13.557846 -11.797410 27.114598 0.588772 2.020939 0.069167 -0.011221 -590401.000000 0 0 1
19.481991 12.864746 -10.885510 25.759348 0.583610 2.007092 0.098326 -0.016682 -15621.600000 0 0 1
20.052891 11.743946 -10.294010 25.416635 0.529800 1.987787 0.111354 -0.013221 -213973.000000 0 0 1
20.364891 10.469546 -11.226510 25.502445 0.474862 2.026632 0.096942 -0.004569 -593624.000000 0 0 1
21.289591 10.788746 -12.275110 26.838816 0.469042 2.045825 0.075810 0.003855 564156.000000 0 0 1
21.680091 9.675046 -13.017910 27.075798 0.419743 2.072358 0.065865 -0.000835 -22641.300000 0 0 1
22.430791 8.518246 -12.314810 26.969528 0.362935 2.044988 0.057513 0.006827 -975703.000000 0 0 1
21.573991 7.892546 -11.398410 25.644748 0.350713 2.031383 0.057072 -0.000364 -13709.100000 0 0 1
22.134291 6.916646 -10.586010 25.491772 0.302872 1.999038 0.041512 0.009809 -852333.000000 0 0 1
22.466991 5.545346 -11.317810 25.760617 0.241985 2.025666 0.040991 -0.002955 -369194.000000 0 0 1
21.391091 4.703146 -11.618410 24.792858 0.216421 2.058523 0.060137 -0.009959 86468.800000 0 1 0
20.517291 5.189346 -12.657310 24.659603 0.247730 2.109800 0.029697 -0.015216 581982.000000 0 1 0
19.362291 4.176146 -12.984510 23.684088 0.212430 2.151052 0.031751 -0.029115 332655.000000 0 1 0
19.899491 3.071746 -13.662210 24.332722 0.153154 2.166963 0.027284 -0.032532 124856.000000 0 1 0
19.168591 1.904546 -13.594410 23.576899 0.099033 2.185356 0.034224 -0.034751 -1033450.000000 0 1 0
19.884491 0.802646 -14.362110 24.541952 0.040344 2.195931 0.041427 -0.030834 -575179.000000 0 1 0
21.158791 0.405246 -13.915010 25.327577 0.019150 2.152444 0.052324 -0.023472 79965.400000 0 0 1
22.109691 0.378946 -14.943210 26.688603 0.017138 2.165073 0.030526 -0.024151 -331995.000000 0 0 1
22.296691 -1.042254 -15.513810 27.182844 -0.046711 2.178180 0.030811 -0.018842 -750052.000000 0 0 1
21.193291 -1.550254 -16.233610 26.741147 -0.073018 2.223158 0.022710 -0.015525 232436.000000 0 0 1
21.606091 -2.609754 -17.055810 27.650219 -0.120206 2.235520 0.027003 -0.017169 -523884.000000 0 0 1
20.445091 -3.298554 -17.741010 27.269500 -0.159959 2.279145 0.023412 -0.016545 -571730.000000 0 0 1
19.725991 -4.207554 -16.929910 26.333250 -0.210151 2.269088 0.031935 -0.017979 303635.000000 0 0 1
18.723891 -4.822254 -17.741710 26.241313 -0.252068 2.313251 0.030577 -0.014834 -215642.000000 0 0 1
18.190491 -5.969554 -16.921810 25.551462 -0.317095 2.294633 0.034291 -0.021788 -1030450.000000 0 0 1
19.099791 -6.988354 -16.674810 26.299969 -0.350757 2.257542 0.035319 -0.015899 -121070.000000 0 0 1
18.567091 -8.066454 -15.940110 25.766095 -0.409847 2.237815 0.037205 -0.013874 386114.000000 0 0 1
19.679091 -9.108954 -15.507210 26.659205 -0.433509 2.191593 0.059520 -0.012892 664450.000000 0 0 1
20.287291 -9.861854 -16.556410 27.981155 -0.452474 2.203961 0.064827 -0.016552 364567.000000 0 0 1
21.080391 -10.903054 -16.067410 28.660445 -0.477323 2.165922 0.069707 -0.029519 -724506.000000 0 0 1
21.644891 -11.790654 -17.141810 30.022699 -0.498789 2.178473 0.071253 -0.026341 -737920.000000 0 0 1
22.622491 -11.145454 -17.885510 30.917466 -0.457768 2.187675 0.068106 -0.021589 -135089.000000 0 0 1
23.153491 -11.989354 -18.906610 32.206966 -0.477802 2.198188 0.071928 -0.022131 155837.000000 0 0 1
22.246091 -11.955554 -20.202910 32.341636 -0.493136 2.245508 0.079320 -0.021855 462338.000000 0 0 1
20.934391 -12.449054 -20.093110 31.574685 -0.536491 2.260577 0.073315 -0.024704 -83565.800000 0 0 1
20.741091 -13.860154 -20.095210 32.033017 -0.589095 2.248914 0.058565 -0.018831 -446343.000000 0 0 1
19.224591 -14.085954 -20.030010 31.131982 -0.632340 2.269715 0.067034 -0.016387 -98595.500000 0 0 1
18.556391 -13.826854 -21.241910 31.412422 -0.640375 2.313425 0.062769 -0.006722 705672.000000 0 0 1
17.130791 -14.004154 -21.163410 30.618136 -0.685312 2.333952 0.052819 0.000465 792406.000000 0 0 1
16.415591 -13.493454 -22.394410 30.871581 -0.688006 2.382419 0.043519 0.001815 -375167.000000 0 0 1
16.701791 -14.132954 -23.636310 32.208157 -0.702280 2.394785 0.036677 0.007208 499579.000000 0 0 1
15.874091 -13.616654 -24.676310 32.346875 -0.709000 2.438530 0.040845 0.002597 -100290.000000 0 0 1
16.008891 -14.406054 -25.991770 33.754868 -0.732748 2.449662 0.032704 -0.005390 -580091.000000 0 0 1
15.216591 -15.585654 -25.952830 33.882247 -0.797379 2.443347 0.037146 -0.004662 216400.000000 0 0 1
15.182791 -16.321154 -27.132990 35.115472 -0.821516 2.453847 0.041300 -0.007785 3831.840000 0 0 1
16.242891 -17.463854 -27.215750 36.187218 -0.821605 2.422012 0.035324 -0.016628 366552.000000 0 0 1
17.573091 -16.984654 -27.352440 36.680348 -0.768372 2.412377 0.037748 -0.011271 -12438.600000 0 0 1
18.448691 -18.079154 -27.559400 37.772087 -0.775282 2.388567 0.046584 -0.010145 425269.000000 0 0 1
19.927991 -17.590654 -27.510910 38.254491 -0.723181 2.373382 0.032656 -0.002193 206876.000000 0 0 1
20.353891 -17.014954 -26.269770 37.334841 -0.696284 2.351284 0.040408 -0.002584 -67688.300000 0 0 1
21.752891 -16.843354 -26.237900 38.017289 -0.658875 2.332502 0.046987 -0.002687 -176781.000000 0 0 1
22.102691 -16.474054 -24.751010 37.047751 -0.640513 2.302427 0.045736 0.000701 -138128.000000 0 0 1
21.938191 -15.124754 -24.452310 36.165700 -0.603594 2.313278 0.058763 -0.008983 -216050.000000 0 0 1
20.593191 -14.736254 -24.295510 35.092855 -0.621112 2.335497 0.070807 -0.005126 -136702.000000 0 0 1
20.480191 -13.325554 -23.705910 34.043777 -0.576836 2.341076 0.074241 -0.002062 14935.000000 0 0 1
20.866491 -12.294154 -24.582910 34.509073 -0.532427 2.363653 0.087160 -0.015190 261108.000000 0 0 1
20.631091 -11.110054 -23.851010 33.435698 -0.493979 2.365048 0.091043 -0.019216 78713.200000 0 0 1
20.475591 -9.852754 -24.687610 33.553013 -0.448491 2.397613 0.094190 -0.022224 -24642.900000 0 0 1
19.916391 -8.813654 -23.896610 32.332508 -0.416627 2.402514 0.081524 -0.013784 272822.000000 0 0 1
19.813891 -7.588754 -24.562410 32.457533 -0.365767 2.429131 0.059809 -0.013670 -259707.000000 0 0 1
19.311691 -6.465354 -23.661410 31.218657 -0.323061 2.430923 0.044386 -0.015069 676801.000000 0 0 1
17.883091 -6.455054 -23.475010 30.208422 -0.346404 2.460844 0.035989 -0.008593 853199.000000 0 0 1
17.392291 -5.567854 -22.500410 28.978634 -0.309824 2.459806 0.014857 -0.005085 -329916.000000 0 0 1
17.975391 -5.629254 -21.067110 28.259977 -0.303490 2.412044 0.031191 -0.012918 -604247.000000 0 0 1
17.588491 -6.744154 -20.209910 27.627506 -0.366151 2.391336 0.038966 -0.010074 259906.000000 0 0 1
17.954591 -7.989154 -20.662010 28.515129 -0.418658 2.381247 0.051840 -0.007894 -440818.000000 0 0 1
17.647891 -9.149254 -19.734210 28.010640 -0.478285 2.352551 0.046073 -0.009614 -212652.000000 0 0 1
16.291691 -9.474354 -19.562410 27.163771 -0.526739 2.374837 0.023746 -0.001529 -428751.000000 0 0 1
16.043891 -10.659454 -18.784910 26.905450 -0.586427 2.343652 0.039673 -0.004487 -538047.000000 0 0 1
14.582591 -10.703654 -18.336010 25.757124 -0.633184 2.362969 0.046654 -0.004998 -487261.000000 0 0 1
14.131591 -9.769854 -17.341710 24.410793 -0.604896 2.360879 0.057203 -0.005808 236548.000000 0 1 0
14.243591 -8.366554 -17.639110 24.166450 -0.531096 2.388973 0.060446 -0.018872 -708294.000000 0 1 0
13.080491 -7.496654 -17.118210 22.810791 -0.520418 2.419529 0.062385 -0.009076 39642.700000 0 1 0
11.867291 -7.744654 -17.805710 22.756440 -0.578204 2.469382 0.047371 -0.016378 -78072.000000 0 1 0
10.977291 -6.699654 -17.537710 21.747587 -0.547973 2.508871 0.039809 -0.009983 -582483.000000 0 1 0
9.545291 -6.809254 -18.049810 21.523804 -0.619638 2.565500 0.036447 -0.005814 -308199.000000 0 1 0
9.301291 -6.516854 -19.383110 22.465270 -0.611155 2.611585 0.034612 -0.009699 -604840.000000 0 1 0
7.912391 -6.445354 -19.486510 21.997104 -0.683574 2.659156 0.034213 -0.018593 -554712.000000 0 1 0
7.311891 -6.080154 -20.817410 22.886603 -0.693681 2.713091 0.036581 -0.026141 -149919.000000 0 1 0
7.388591 -7.166254 -21.804310 24.111707 -0.770124 2.700543 0.043538 -0.023726 3858.810000 0 1 0
6.913791 -6.705154 -23.036110 24.968419 -0.770080 2.745589 0.052327 -0.024017 -66865.800000 0 1 0
7.048791 -7.857154 -24.054710 26.268791 -0.839576 2.728078 0.054318 -0.017038 175020.000000 0 0 1
6.118391 -8.887954 -23.731110 26.069062 -0.967904 2.714846 0.051155 -0.019913 320377.000000 0 0 1
6.156191 -9.870854 -24.739010 27.337722 -1.013151 2.702036 0.050507 -0.011199 -123249.000000 0 0 1
5.197191 -11.050554 -24.514310 27.387532 -1.131181 2.679430 0.050847 -0.016303 -148177.000000 0 0 1
5.794791 -12.123954 -23.869310 27.391857 -1.124934 2.628849 0.041948 -0.015577 -126686.000000 0 0 1
4.843091 -13.123754 -23.554510 27.395317 -1.217268 2.605675 0.046624 -0.019149 -388768.000000 0 0 1
5.400491 -14.259054 -22.657810 27.310479 -1.208750 2.549255 0.044194 -0.014489 42078.900000 0 0 1
6.397991 -15.187854 -23.122710 28.394804 -1.172100 2.522368 0.059095 -0.017489 704840.000000 0 0 1
7.678691 -14.592754 -23.358110 28.592168 -1.086410 2.526883 0.059191 -0.018015 361657.000000 0 0 1
8.557591 -14.076554 -22.219810 27.660472 -1.024565 2.503621 0.057812 -0.007683 -759365.000000 0 0 1
9.006591 -15.066854 -21.286010 27.590270 -1.032014 2.451998 0.053744 -0.001799 -194153.000000 0 0 1
8.074691 -15.690154 -20.423510 26.990764 -1.095510 2.429024 0.055984 -0.004614 -246591.000000 0 0 1
8.570791 -15.802154 -18.959010 26.126817 -1.073821 2.382780 0.056800 -0.004736 141489.000000 0 0 1
9.547391 -16.803454 -18.779110 26.947425 -1.054102 2.341834 0.071165 -0.002590 -407946.000000 0 0 1
9.943091 -17.077754 -17.436210 26.354054 -1.043549 2.293765 0.073458 -0.011878 -298751.000000 0 0 1
8.943191 -17.892554 -16.589810 25.987419 -1.107287 2.263186 0.051122 -0.009991 -549540.000000 0 0 1
8.810891 -19.244854 -16.960510 27.122963 -1.141449 2.246337 0.059949 -0.011107 320581.000000 0 0 1
8.003991 -19.623154 -18.079210 27.856595 -1.183511 2.277079 0.053257 -0.004934 1460950.000000 0 0 1
6.431091 -19.371454 -17.974710 27.197470 -1.250257 2.292809 0.047744 0.002050 1162350.000000 0 0 1
6.105491 -18.029054 -18.159610 26.307703 -1.244271 2.332669 0.041346 0.001042 -193433.000000 0 0 1
4.757691 -17.689554 -17.899910 25.611769 -1.308059 2.344646 0.017780 0.003845 182025.000000 0 0 1
4.562391 -16.199254 -17.631710 24.374340 -1.296266 2.379470 -0.000070 0.011440 -39049.900000 0 1 0
4.916391 -15.766154 -16.354410 23.242402 -1.268520 2.351311 -0.006735 0.008010 65862.400000 0 1 0
4.577391 -14.422754 -16.077710 22.078521 -1.263478 2.386497 -0.011298 0.006811 -131717.000000 0 1 0
10.709391 29.988046 -18.056410 36.606118 1.227791 2.086632 0.042825 -0.009751 743872.000000 0 0 1
9.694791 29.589346 -19.045110 36.499789 1.254174 2.119741 0.055188 -0.013724 997984.000000 0 0 1
8.627791 28.848046 -18.463710 35.320775 1.280186 2.120862 0.058564 -0.013546 182987.000000 0 0 1
7.687691 28.271146 -19.551910 35.222656 1.305289 2.159273 0.062690 -0.011818 81805.700000 0 0 1
6.755491 29.245046 -19.979710 36.056874 1.343782 2.158098 0.077690 -0.023426 -481494.000000 0 0 1
6.061191 28.796046 -21.100710 36.210361 1.363338 2.192875 0.061567 -0.017405 -430845.000000 0 0 1
5.044491 29.809246 -21.575710 37.142285 1.403159 2.190622 0.064599 -0.030431 -101010.000000 0 0 1
3.876591 29.991046 -20.792510 36.699036 1.442251 2.173132 0.061198 -0.024517 -178111.000000 0 0 1
2.943991 30.834046 -21.415710 37.656847 1.475606 2.175729 0.048318 -0.027501 -829126.000000 0 0 1
1.541391 30.693946 -20.807810 37.114137 1.520620 2.165959 0.045720 -0.022021 -101766.000000 0 0 1
0.993191 29.401746 -21.099610 36.202799 1.537029 2.192987 0.049938 -0.032940 245711.000000 0 0 1
0.433791 29.205846 -22.423110 36.823437 1.555945 2.225515 0.064284 -0.042264 -391160.000000 0 0 1
-0.203209 27.877046 -22.743110 35.978049 -1.563507 2.255106 0.072169 -0.035166 510539.000000 0 0 1
-1.324509 27.526546 -21.924010 35.215441 -1.522716 2.242816 0.080037 -0.035030 345989.000000 0 0 1
-1.795009 26.207746 -22.192810 34.388789 -1.502412 2.272278 0.088044 -0.044223 463327.000000 0 0 1
-2.940109 25.674546 -21.283310 33.478438 -1.456778 2.259753 0.067089 -0.033405 1026370.000000 0 0 1
-4.178009 26.410346 -21.282610 34.174722 -1.413901 2.243060 0.068535 -0.035146 824673.000000 0 0 1
-5.095409 25.950446 -20.303410 33.340925 -1.376911 2.225550 0.051188 -0.030842 -363622.000000 0 0 1
-6.259809 26.948646 -20.270110 34.297115 -1.342557 2.203113 0.051870 -0.040173 -91472.200000 0 0 1
-7.328409 26.328246 -19.570410 33.613733 -1.299320 2.192246 0.054614 -0.034771 -564723.000000 0 0 1
-8.349309 27.167046 -19.109910 34.248329 -1.272626 2.162747 0.063057 -0.040359 6844.490000 0 0 1
-9.468909 26.332746 -18.470910 33.529812 -1.225607 2.154215 0.061816 -0.038183 -435046.000000 0 0 1
-9.136409 25.730146 -17.202910 32.271574 -1.229598 2.133018 0.061957 -0.037903 -597996.000000 0 0 1
-10.204509 24.986646 -16.658810 31.717195 -1.183071 2.123781 0.037813 -0.027549 -127886.000000 0 0 1
-9.998509 24.373246 -15.255510 30.442666 -1.181507 2.095692 0.040666 -0.019890 106277.000000 0 0 1
-9.378509 23.091746 -15.304210 29.247291 -1.185007 2.121479 0.044715 -0.015119 -125607.000000 0 0 1
-9.626809 22.488546 -14.062410 28.216335 -1.166323 2.092524 0.046085 -0.012722 -67925.500000 0 0 1
-9.145309 21.033546 -13.948710 26.844241 -1.160657 2.117198 0.054217 -0.008959 286817.000000 0 0 1
-10.014809 20.068746 -14.572710 26.747240 -1.107929 2.146983 0.051408 -0.008237 -7595.680000 0 0 1
-10.346709 20.198846 -15.987710 27.760667 -1.097403 2.184516 0.060987 -0.004767 -333311.000000 0 0 1
-9.217109 20.216446 -17.008810 27.981412 -1.143029 2.224160 0.056317 -0.004925 -271229.000000 0 0 1
-8.538109 18.979746 -17.113310 26.944303 -1.148064 2.258982 0.048546 -0.006619 -140757.000000 0 0 1
-7.664609 18.926746 -18.216110 27.364112 -1.186020 2.299219 0.050929 -0.010326 334185.000000 0 0 1
-6.901509 17.563046 -18.376210 26.339638 -1.196377 2.342928 0.045070 -0.009258 967298.000000 0 0 1
-7.825909 16.509846 -18.777210 26.199303 -1.128152 2.369864 0.041664 -0.013897 500971.000000 0 0 1
-7.417409 15.736446 -19.891810 26.426082 -1.130328 2.423002 0.036393 -0.013189 208315.000000 0 0 1
-6.197909 14.786846 -19.794210 25.473038 -1.173891 2.460786 0.025456 -0.006314 -17194.400000 0 0 1
-6.490809 13.594246 -19.057310 24.292287 -1.125337 2.472686 0.017516 -0.006796 936171.000000 0 1 0
-5.262109 12.851646 -18.851010 23.413995 -1.182170 2.506669 0.011532 0.001059 1151880.000000 0 1 0
-4.526709 13.284446 -17.567010 22.484827 -1.242383 2.467515 0.012698 0.002823 -233177.000000 0 1 0
-3.931609 14.552446 -17.637410 23.201497 -1.306928 2.434393 0.020674 -0.004683 -538000.000000 0 1 0
-3.355309 14.947246 -16.425710 22.460681 -1.349980 2.391036 0.015309 0.001840 -110901.000000 0 1 0
-2.595109 16.285746 -16.428910 23.278084 -1.412776 2.354302 0.036850 -0.002134 59123.900000 0 1 0
-3.350609 17.454946 -16.644310 24.350252 -1.381146 2.323394 0.030965 -0.005508 -580920.000000 0 1 0
-2.483109 18.530446 -16.670910 25.049202 -1.437588 2.298995 0.043973 -0.011219 -138604.000000 0 0 1
-3.052909 19.865546 -17.252110 26.487648 -1.418311 2.280128 0.048363 -0.016860 173733.000000 0 0 1
-3.240209 19.732646 -18.656810 27.348726 -1.408043 2.321539 0.064147 -0.017460 297457.000000 0 0 1
-3.973409 20.808346 -19.289910 28.650931 -1.382115 2.309423 0.073500 -0.018707 580047.000000 0 0 1
-3.074909 22.037046 -19.613310 29.660890 -1.432158 2.293282 0.073798 -0.023306 -59689.600000 0 0 1
-2.016309 21.870546 -20.555510 30.081810 -1.478863 2.323097 0.089066 -0.021735 28415.000000 0 0 1
-0.966209 22.784546 -20.399510 30.597534 -1.528415 2.300575 0.070045 -0.022465 181758.000000 0 0 1
0.063391 22.397846 -19.304110 29.568838 1.567966 2.282141 0.078683 -0.020045 -430826.000000 0 0 1
-0.443209 22.453546 -17.997010 28.779342 -1.551060 2.246370 0.076125 -0.018145 -642507.000000 0 0 1
0.593791 22.153946 -17.100110 27.992207 1.544000 2.227978 0.078102 -0.018645 44329.800000 0 0 1
0.190791 22.125046 -15.606610 27.076195 1.562173 2.185108 0.076032 -0.020147 -285089.000000 0 0 1
-0.619309 21.106846 -15.101510 25.960318 -1.541463 2.191632 0.065546 -0.015442 -264238.000000 0 0 1
-0.578109 21.131946 -13.690210 25.185615 -1.543446 2.145484 0.076986 -0.017037 -55908.400000 0 0 1
-1.522609 20.117646 -13.058510 24.032534 -1.495255 2.145240 0.041925 -0.011571 -242818.000000 0 1 0
-1.043209 18.771046 -13.137810 22.935617 -1.515278 2.180729 0.041190 -0.009096 -98308.400000 0 1 0
-2.012909 17.849846 -12.718210 22.009581 -1.458502 2.186887 0.032069 -0.006851 -128316.000000 0 1 0
-1.582309 16.344846 -12.884810 20.872854 -1.474289 2.236102 0.016183 -0.003241 -524900.000000 0 1 0
-0.564509 15.863646 -12.044510 19.925967 -1.535226 2.219888 0.013034 -0.009049 -86425.300000 0 1 0
-0.423209 14.427646 -12.234310 18.921269 -1.541472 2.273903 0.006002 -0.004224 -520313.000000 0 1 0
0.452091 13.987346 -13.397310 19.373646 1.538486 2.334391 0.015640 -0.001322 -462383.000000 0 1 0
-0.265709 13.821746 -14.610410 20.114058 -1.551575 2.383834 0.016799 -0.004730 359536.000000 0 1 0
0.178791 12.649946 -15.353110 19.893996 1.556664 2.452378 0.023071 -0.015275 -368768.000000 0 1 0
-0.382309 12.616346 -16.742910 20.967675 -1.540503 2.495613 0.015536 -0.008358 -224095.000000 0 1 0
0.030891 13.711346 -17.521610 22.248793 1.568543 2.477588 0.027846 -0.009854 51434.000000 0 1 0
-0.413809 13.635146 -18.858310 23.274972 -1.540457 2.515358 0.037660 -0.013891 17022.200000 0 1 0
-1.030709 14.940146 -19.463410 24.557986 -1.501916 2.485774 0.040360 -0.007115 -89174.300000 0 1 0
-0.076509 15.925146 -19.664010 25.303941 -1.565992 2.460861 0.042837 -0.008592 -308807.000000 0 0 1
-0.738409 17.124046 -19.860810 26.234138 -1.527702 2.429597 0.069854 -0.016046 35052.100000 0 0 1
0.204391 18.351746 -20.038310 27.172821 1.559659 2.400068 0.081862 -0.016914 78986.300000 0 0 1
0.819191 18.218746 -21.298910 28.039924 1.525862 2.433482 0.085714 -0.023457 -725424.000000 0 0 1
1.982591 18.973146 -21.279310 28.578313 1.466680 2.410726 0.086519 -0.020749 -461824.000000 0 0 1
2.578191 19.147946 -22.717610 29.822487 1.436955 2.436823 0.087662 -0.025652 265501.000000 0 0 1
3.385991 18.063046 -23.182210 29.582992 1.385493 2.471289 0.069741 -0.024340 72832.900000 0 0 1
3.646391 18.178646 -24.600210 30.804702 1.372837 2.495739 0.062308 -0.032324 247399.000000 0 0 1
4.559791 17.019346 -25.075110 30.646549 1.309026 2.529075 0.041522 -0.021408 279247.000000 0 0 1
5.891991 17.042946 -24.533210 30.447594 1.237945 2.507740 0.033543 -0.017802 949725.000000 0 0 1
6.679691 15.910146 -25.015910 30.389912 1.173306 2.537759 0.035375 -0.027360 531876.000000 0 0 1
7.101291 15.949546 -26.483810 31.720790 1.151912 2.558754 0.036161 -0.028078 -1588820.000000 0 0 1
8.037191 17.002346 -26.680830 32.642655 1.129218 2.527612 0.033857 -0.021883 146166.000000 0 0 1
8.587991 17.181346 -27.985320 33.943046 1.107274 2.540077 0.037724 -0.024546 193560.000000 0 0 1
9.297991 15.919346 -28.505460 33.947599 1.042173 2.567509 0.041420 -0.027143 -1296740.000000 0 0 1
10.542991 15.628346 -27.937560 33.703221 0.977317 2.547986 0.051997 -0.025731 -558732.000000 0 0 1
10.946091 14.292446 -28.170790 33.431786 0.917218 2.572954 0.052641 -0.021272 -98495.900000 0 0 1
10.335091 13.190846 -27.267670 32.005286 0.906195 2.590540 0.045255 -0.016328 -394133.000000 0 0 1
8.984891 12.940246 -27.537100 31.724913 0.963881 2.621949 0.047890 -0.021036 -669318.000000 0 0 1
8.508891 12.032946 -26.561610 30.376177 0.955299 2.635040 0.039807 -0.021595 -498846.000000 0 0 1
7.068491 11.612446 -26.837070 30.083896 1.024005 2.672711 0.034551 -0.026122 -794771.000000 0 0 1
6.205191 12.676846 -26.878860 30.359182 1.115592 2.658068 0.042562 -0.029802 -615991.000000 0 0 1
4.877491 12.242146 -26.662180 29.741081 1.191655 2.682549 0.050949 -0.028508 469424.000000 0 0 1
3.720591 13.268146 -26.786180 30.122847 1.297403 2.666458 0.060390 -0.030339 -436846.000000 0 0 1
3.359291 13.646746 -28.136120 31.450910 1.329434 2.678341 0.066194 -0.036274 199542.000000 0 0 1
4.223491 14.586246 -28.764550 32.526847 1.288951 2.655859 0.072572 -0.044087 -18098.700000 0 0 1
4.280491 14.530946 -30.232180 33.815022 1.284322 2.677093 0.080287 -0.040553 21769.400000 0 0 1
5.015091 13.412246 -30.741010 33.912375 1.212974 2.705676 0.079983 -0.037905 8863.340000 0 0 1
4.933791 13.348546 -32.125100 35.136136 1.216757 2.724582 0.082258 -0.036926 -1138920.000000 0 0 1
5.887391 12.337146 -32.785210 35.520931 1.125548 2.746557 0.078868 -0.024863 -65381.500000 0 0 1
7.280791 12.517346 -32.740650 35.800056 1.043974 2.725170 0.079417 -0.017754 24699.700000 0 0 1
7.906391 12.694946 -31.462780 34.836464 1.013782 2.697862 0.069498 -0.016329 -878567.000000 0 0 1
8.068191 11.546446 -30.470560 33.568901 0.960903 2.708571 0.071814 -0.016236 -340833.000000 0 0 1
9.036791 10.594846 -30.791730 33.794156 0.864597 2.716876 0.065608 -0.011653 -309188.000000 0 0 1
8.951191 9.563546 -29.802560 32.554229 0.818460 2.727481 0.052857 -0.015137 -388213.000000 0 0 1
9.872191 8.382746 -29.910730 32.594207 0.703987 2.732973 0.042553 -0.015756 -241568.000000 0 0 1
11.209291 8.647446 -29.526030 32.744663 0.657091 2.694494 0.050455 -0.016501 -152343.000000 0 0 1
11.843691 7.431646 -29.218100 32.391353 0.560379 2.695255 0.031410 0.000920 -651509.000000 0 0 1
13.360891 7.381146 -29.241750 32.985977 0.504718 2.660501 0.039010 -0.010495 -544240.000000 0 0 1
13.916391 6.157146 -28.820160 32.591072 0.416548 2.655781 0.061520 -0.006442 454925.000000 0 0 1
14.986591 5.690146 -29.650630 33.706610 0.362870 2.645960 0.046831 -0.002443 113325.000000 0 0 1
15.714091 4.468446 -29.100910 33.373082 0.277046 2.630044 0.074132 -0.013619 -36858.300000 0 0 1
16.419491 4.810746 -27.913400 32.739897 0.285013 2.591700 0.039387 -0.012269 -32292.800000 0 0 1
17.316291 3.801146 -27.564450 32.773488 0.216085 2.570035 0.042390 -0.008032 -222131.000000 0 0 1
18.128491 4.165046 -26.306320 32.218198 0.225832 2.526128 0.036185 -0.004608 55579.500000 0 0 1
19.081091 5.223446 -26.422650 33.008012 0.267204 2.498912 0.053184 -0.016403 427884.000000 0 0 1
19.679891 5.431146 -25.158660 32.399902 0.269272 2.459895 0.054954 -0.018067 15888.200000 0 0 1
20.878991 6.399346 -25.134780 33.296262 0.297407 2.426272 0.035058 -0.017804 -364248.000000 0 0 1
20.442091 7.705846 -25.439390 33.532398 0.360488 2.432036 0.052548 -0.017869 536320.000000 0 0 1
21.289091 8.422546 -26.349650 34.906571 0.376731 2.426240 0.058642 -0.022968 -698152.000000 0 0 1
21.212691 8.176046 -27.887200 35.979465 0.367885 2.457648 0.040026 -0.021669 -138188.000000 0 0 1
20.049691 8.518146 -28.621020 35.968204 0.401745 2.491010 0.040480 -0.012600 -151321.000000 0 0 1
18.963391 7.680346 -28.341000 34.954402 0.384817 2.516313 0.038038 -0.005531 -1067210.000000 0 0 1
17.644491 8.236046 -28.877010 34.828756 0.436718 2.548317 0.043035 0.003940 -646543.000000 0 0 1
17.637991 8.451546 -30.270440 36.039241 0.446843 2.567951 0.033780 0.003095 858162.000000 0 0 1
16.557191 9.282746 -30.772680 36.156158 0.510981 2.588882 0.021805 0.004162 527366.000000 0 0 1
16.106791 9.008446 -32.205350 37.118262 0.509951 2.621235 0.014825 0.009905 250366.000000 0 0 1
15.267991 7.845246 -32.194220 36.484616 0.474655 2.651747 0.030863 0.009247 -329971.000000 0 0 1
14.396491 7.808746 -33.232750 37.049307 0.496994 2.683702 0.019358 0.014471 -455649.000000 0 0 1
13.784691 6.420546 -33.503600 36.793102 0.435894 2.715517 0.025083 0.007838 -53340.200000 0 0 1
13.173591 5.812246 -32.393540 35.449501 0.415515 2.723325 0.040438 -0.001547 374238.000000 0 0 1
12.139991 4.918446 -32.821320 35.338499 0.384933 2.761875 0.037061 -0.011101 468698.000000 0 0 1
11.827491 3.972646 -31.671360 34.040366 0.324043 2.766315 0.041602 -0.014912 293136.000000 0 0 1
12.717291 2.844246 -31.624420 34.204140 0.220031 2.750725 0.061391 -0.026927 609072.000000 0 0 1
12.286291 1.937946 -30.659200 33.086177 0.156443 2.756189 0.067753 -0.023640 311332.000000 0 0 1
11.475591 0.658146 -31.137190 33.191067 0.057289 2.787956 0.059924 -0.016362 287091.000000 0 0 1
12.277191 -0.387954 -31.637890 33.938710 -0.031589 2.771259 0.053221 -0.018280 243444.000000 0 0 1
13.051991 -1.084054 -30.645560 33.326866 -0.082866 2.737718 0.051817 -0.020237 187744.000000 0 0 1
13.645091 -2.322754 -31.267910 34.194530 -0.168610 2.724851 0.040009 -0.020812 -76134.900000 0 0 1
12.768291 -3.423954 -31.415400 34.083428 -0.261997 2.743290 0.044337 -0.019085 -180893.000000 0 0 1
13.430991 -4.475054 -32.048140 35.035709 -0.321620 2.725630 0.058696 -0.019660 -214169.000000 0 0 1
12.769791 -5.871354 -32.149920 35.087857 -0.430961 2.729461 0.051260 -0.012802 -297495.000000 0 0 1
12.864291 -6.536854 -30.848510 34.056585 -0.470138 2.704064 0.053022 -0.012656 214080.000000 0 0 1
12.625291 -7.886754 -30.969280 34.361245 -0.558368 2.693523 0.055604 -0.019409 -67149.900000 0 0 1
12.542491 -8.628854 -29.609670 33.294200 -0.602606 2.666683 0.042759 -0.016537 -1616940.000000 0 0 1
13.723191 -8.672454 -28.953260 33.193805 -0.563586 2.630578 0.036175 -0.011397 -1210200.000000 0 0 1
13.738191 -9.498854 -27.755730 32.393621 -0.604944 2.599880 0.033857 -0.018625 -228856.000000 0 0 1
14.037691 -10.985954 -28.023680 33.212567 -0.664043 2.575061 0.033916 -0.019317 205717.000000 0 0 1
12.927791 -11.606554 -28.673380 33.526148 -0.731598 2.596838 0.027610 -0.018045 491573.000000 0 0 1
13.089491 -12.970254 -28.629000 34.046760 -0.780823 2.569690 0.025626 -0.025113 220207.000000 0 0 1
-10.317009 -3.268254 -17.772810 20.808530 0.306782 2.594637 0.023119 -0.000260 54965.600000 0 1 0
-10.861509 -2.935454 -18.985210 22.068699 0.263956 2.606610 0.021703 -0.002839 -202585.000000 0 1 0
-11.830209 -3.786854 -19.521010 23.137933 0.309794 2.574898 0.021892 0.004480 -954124.000000 0 1 0
-12.720909 -3.225154 -20.615010 24.437712 0.248300 2.574700 0.024819 -0.010990 -226853.000000 0 1 0
-13.570009 -2.130454 -20.242510 24.463099 0.155726 2.545385 0.015732 -0.011230 194498.000000 0 1 0
-14.317409 -1.647254 -21.315110 25.730052 0.114549 2.547065 0.018527 -0.016720 -121507.000000 0 0 1
-15.039309 -0.334454 -20.949510 25.790980 0.022235 2.518848 0.021551 -0.013303 317815.000000 0 0 1
-14.274309 0.871646 -21.090510 25.481862 -0.060988 2.545735 0.029115 -0.017697 -40744.900000 0 0 1
-15.098309 1.933946 -20.840910 25.807801 -0.127397 2.510771 0.029740 -0.007889 -218078.000000 0 0 1
-14.512409 3.237846 -21.503210 26.143483 -0.219514 2.536602 0.047744 -0.010705 268186.000000 0 0 1
-13.348809 3.803546 -20.952010 25.132536 -0.277579 2.556500 0.041822 -0.009349 287625.000000 0 0 1
-12.842109 4.937346 -21.700010 25.694116 -0.367043 2.576524 0.046216 -0.020840 207920.000000 0 0 1
-11.551809 5.507446 -21.082410 24.662609 -0.444884 2.596025 0.026691 -0.017394 -192150.000000 0 1 0
-11.910609 6.269446 -19.930110 24.049487 -0.484524 2.547600 0.038877 -0.022185 131256.000000 0 1 0
-10.877309 6.526246 -19.022910 22.864358 -0.540410 2.553481 0.028102 -0.018288 -556378.000000 0 1 0
-11.368909 7.047246 -17.684210 22.173116 -0.554902 2.494022 0.043847 -0.016721 -108389.000000 0 1 0
-11.943409 8.353646 -17.780210 22.990526 -0.610347 2.454938 0.046383 -0.019011 479661.000000 0 1 0
-13.085209 8.490346 -16.952910 23.037140 -0.575567 2.397783 0.067870 -0.021401 -161172.000000 0 1 0
-13.676809 9.889546 -16.958310 23.925771 -0.626054 2.358576 0.070129 -0.023695 -354374.000000 0 1 0
-12.932509 10.756046 -16.137610 23.310186 -0.693777 2.335466 0.048393 -0.017115 536082.000000 0 1 0
-13.469009 12.075346 -16.294010 24.345902 -0.730894 2.304024 0.044663 -0.018771 -76224.900000 0 1 0
-12.706609 13.113846 -15.445010 23.916087 -0.801169 2.272867 0.048667 -0.011393 -336801.000000 0 1 0
-12.898509 13.153346 -14.051010 23.169224 -0.795180 2.222386 0.068727 -0.021677 -111203.000000 0 1 0
-12.477009 14.390246 -13.518410 23.355992 -0.856489 2.188051 0.061664 -0.020642 -1400340.000000 0 1 0
-12.980909 14.711346 -12.123110 23.062903 -0.847805 2.124280 0.054485 -0.024542 569277.000000 0 1 0
-14.346909 15.019646 -11.858110 23.917323 -0.808302 2.089547 0.045565 -0.019305 621193.000000 0 1 0
-15.300009 14.117446 -12.399810 24.231134 -0.745220 2.107994 0.048409 -0.016997 -484470.000000 0 1 0
-16.740109 14.359946 -11.823610 25.024729 -0.709015 2.062896 0.037987 -0.011972 471868.000000 0 0 1
-17.693409 13.529346 -12.403310 25.493961 -0.652814 2.078898 0.031846 -0.015597 944193.000000 0 0 1
-19.048609 13.900046 -12.067510 26.489349 -0.630391 2.043798 0.060308 -0.014002 1023390.000000 0 0 1
-20.282809 13.346846 -12.778510 27.437583 -0.582005 2.055256 0.040692 -0.014437 -186635.000000 0 0 1
-20.598209 12.083446 -12.298310 26.861577 -0.530528 2.046361 0.049536 -0.019059 174237.000000 0 0 1
-21.627209 11.476946 -13.047810 27.743500 -0.487883 2.060429 0.047451 -0.010498 -230017.000000 0 0 1
-22.259509 10.262046 -12.317910 27.432212 -0.431979 2.036477 0.041173 -0.015419 -382282.000000 0 0 1
-21.545809 9.055546 -12.384910 26.450157 -0.397877 2.058089 0.051219 -0.023263 -28218.300000 0 0 1
-22.054109 8.055346 -11.607610 26.191772 -0.350199 2.029937 0.048323 -0.019365 -143936.000000 0 0 1
-21.002109 6.911546 -11.503310 24.923567 -0.317925 2.050531 0.072567 -0.021708 271522.000000 0 1 0
-20.993309 6.058946 -12.676410 25.261061 -0.280978 2.096494 0.085238 -0.019575 202504.000000 0 0 1
-19.753109 5.396446 -12.695810 24.093371 -0.266687 2.125795 0.083945 -0.028068 -76078.600000 0 1 0
-19.646509 4.228846 -13.756010 24.353568 -0.212012 2.171043 0.086713 -0.032811 -21589.100000 0 1 0
-20.468209 3.102946 -13.486910 24.707744 -0.150453 2.148209 0.071852 -0.033292 580191.000000 0 1 0
-20.131209 2.106146 -14.508610 24.903839 -0.104242 2.192702 0.073903 -0.034290 54814.000000 0 1 0
-20.903009 0.780046 -14.322810 25.351275 -0.037300 2.171198 0.069531 -0.024656 249873.000000 0 0 1
-22.278709 0.802946 -14.654210 26.678296 -0.036025 2.152315 0.065075 -0.026495 222957.000000 0 0 1
-22.828909 -0.454454 -14.671710 27.140831 0.019904 2.141919 0.064963 -0.031299 551201.000000 0 0 1
-24.272309 -0.487854 -15.287910 28.689775 0.020096 2.132785 0.062046 -0.026282 1041200.000000 0 0 1
-25.374119 0.019046 -14.546310 29.247930 -0.000751 2.091332 0.077768 -0.035272 -139297.000000 0 0 1
-26.578719 -0.328454 -15.153010 30.596567 0.012357 2.088921 0.073805 -0.028312 512835.000000 0 0 1
-27.838989 0.269946 -14.382310 31.335811 -0.009696 2.047636 0.081394 -0.026439 685400.000000 0 0 1
-28.137789 -0.455454 -13.210710 31.088028 0.016185 2.009698 0.102143 -0.031240 634628.000000 0 0 1
-29.506639 -0.283954 -12.827210 32.175452 0.009623 1.980856 0.106521 -0.037140 746331.000000 0 0 1
-29.751189 -0.821054 -11.349710 31.853152 0.027590 1.935116 0.106919 -0.038006 -273462.000000 0 0 1
-29.909069 -2.206354 -11.195910 32.012010 0.073635 1.928091 0.115404 -0.031616 37958.200000 0 0 1
-28.806659 -3.032054 -11.433210 31.140572 0.104869 1.946738 0.118765 -0.033097 -599610.000000 0 0 1
-29.020919 -4.515654 -11.040110 31.376566 0.154362 1.930352 0.115028 -0.037752 159020.000000 0 0 1
-29.954219 -5.162154 -11.931810 32.653808 0.170658 1.944862 0.107090 -0.033661 593545.000000 0 0 1
-30.328969 -6.421554 -11.423410 33.039023 0.208649 1.923840 0.109042 -0.032355 204515.000000 0 0 1
-29.461699 -7.625554 -11.946910 32.693569 0.253271 1.944881 0.108567 -0.034600 -309481.000000 0 0 1
-28.128309 -7.620154 -11.556510 31.349983 0.264557 1.948330 0.096006 -0.031839 -738502.000000 0 0 1
-27.448059 -8.634454 -12.255010 31.275150 0.304774 1.973432 0.099474 -0.027655 273395.000000 0 0 1
-25.957779 -8.875954 -11.862610 29.888298 0.329475 1.978931 0.085555 -0.028917 90208.500000 0 0 1
-25.129219 -7.807154 -12.258710 29.029386 0.301226 2.006762 0.075178 -0.028479 134292.000000 0 0 1
-23.812009 -7.763154 -11.765310 27.671300 0.315153 2.009958 0.052088 -0.023018 -152234.000000 0 0 1
-23.648209 -7.404554 -10.272710 26.825245 0.303443 1.963783 0.048050 -0.023374 -506500.000000 0 0 1
-23.984109 -6.080454 -9.816810 26.619150 0.248289 1.948501 0.063678 -0.021109 36832.800000 0 0 1
-25.356789 -5.807854 -9.783810 27.792460 0.225161 1.930537 0.070083 -0.022399 -723263.000000 0 0 1
-25.695359 -4.451854 -9.118210 27.626296 0.171552 1.907159 0.082887 -0.034080 -452803.000000 0 0 1
-25.382879 -4.358254 -7.764310 26.899246 0.170042 1.863607 0.067507 -0.030241 365701.000000 0 0 1
-25.665749 -3.045054 -7.188510 26.826809 0.118091 1.842071 0.092155 -0.033824 -13462.400000 0 0 1
-25.488969 -3.002854 -5.647910 26.279337 0.117269 1.787404 0.080441 -0.033043 -297635.000000 0 0 1
-24.182209 -3.184554 -5.179810 24.934936 0.130937 1.780053 0.049592 -0.024617 -220029.000000 0 1 0
-24.193209 -2.959354 -3.776310 24.664340 0.121717 1.724509 0.038063 -0.017920 358250.000000 0 1 0
-22.911809 -3.491754 -3.056810 23.377071 0.151236 1.701933 0.027045 -0.009037 363715.000000 0 1 0
-22.896009 -4.898754 -3.025210 23.608831 0.210779 1.699289 0.037276 -0.011468 1058740.000000 0 1 0
-21.548109 -5.368154 -2.893410 22.394417 0.244154 1.700361 0.026127 -0.009109 599736.000000 0 1 0
-21.546009 -6.891954 -3.036110 22.824274 0.309586 1.704213 0.033249 -0.007015 2468.320000 0 1 0
-21.841009 -7.553754 -1.796110 23.180054 0.332975 1.648359 0.025585 0.002525 481593.000000 0 1 0
-22.560009 -8.755154 -2.046810 24.285719 0.370191 1.655177 0.022722 -0.010767 222524.000000 0 1 0
-22.934309 -9.528554 -0.758310 24.846547 0.393772 1.601321 0.022337 -0.012983 260496.000000 0 1 0
-21.726009 -9.919854 -0.126210 23.883863 0.428320 1.576081 0.003392 -0.000060 511955.000000 0 1 0
-21.959609 -10.856254 0.862190 24.511753 0.459136 1.535615 -0.012303 0.011380 443549.000000 0 1 0
-20.669809 -11.396154 1.561290 23.654830 0.503874 1.504745 -0.002687 0.007702 135233.000000 0 1 0
-19.814509 -12.204554 0.816090 23.285874 0.552058 1.535743 -0.010165 0.015340 -28470.900000 0 1 0
-18.796109 -12.689354 1.645990 22.738133 0.593822 1.498344 -0.023412 0.012693 -494204.000000 0 1 0
-18.058609 -13.814154 0.957990 22.756581 0.653008 1.528687 -0.014583 0.011429 -902956.000000 0 1 0
-18.868709 -14.948554 0.903390 24.089491 0.669992 1.533286 0.000480 0.009974 73720.800000 0 1 0
-18.312109 -16.085154 0.322690 24.375595 0.720746 1.557558 0.006973 0.002092 -405273.000000 0 1 0
-17.249309 -16.874654 1.137690 24.157544 0.774419 1.523684 0.005085 0.011479 -375435.000000 0 1 0
-16.108209 -16.069354 1.239690 22.786737 0.784191 1.516365 0.013971 0.004732 -646719.000000 0 1 0
-15.030009 -16.681554 1.907790 22.534753 0.837431 1.486035 0.024407 0.002602 56232.400000 0 1 0
-14.986409 -16.669154 3.460290 22.680978 0.838506 1.417635 0.028712 -0.004766 -285571.000000 0 1 0
-14.942909 -15.327454 3.910890 21.760433 0.798101 1.390090 0.021116 -0.004163 36795.600000 0 1 0
-14.135709 -15.110254 5.049590 21.298742 0.818708 1.331433 0.010566 -0.005288 -90602.400000 0 1 0
-14.731009 -15.439254 6.431990 22.287747 0.808869 1.278044 0.038768 -0.003780 -255108.000000 0 1 0
-15.724209 -14.516754 6.965590 22.505696 0.745492 1.256126 0.036427 -0.001974 1100090.000000 0 1 0
-16.222409 -14.890154 8.263990 23.519710 0.742604 1.211768 0.051532 -0.003800 290143.000000 0 1 0
-17.062909 -16.223154 8.342990 24.978772 0.760175 1.230249 0.040253 -0.001631 -511791.000000 0 1 0
-16.320909 -17.397854 8.108990 25.195498 0.817326 1.243121 0.036834 0.002683 -405015.000000 0 0 1
-16.889609 -18.499454 8.661490 26.504907 0.830857 1.237893 0.041767 -0.000878 -468000.000000 0 0 1
-16.547609 -18.879754 10.129390 27.071628 0.851132 1.187295 0.043575 -0.003745 87523.700000 0 0 1
-15.220709 -19.330154 10.314990 26.678153 0.903781 1.173805 0.030921 -0.002934 -7433.310000 0 0 1
-14.927609 -19.909854 11.550990 27.434671 0.927449 1.136209 0.033720 -0.001591 -852526.000000 0 0 1
-13.578009 -20.527554 11.813890 27.300381 0.986412 1.123270 0.032093 0.002995 -409052.000000 0 0 1
-12.542609 -19.557954 11.951190 26.127793 1.000558 1.095713 0.025496 -0.002143 93827.800000 0 0 1
-11.311609 -20.168954 12.296090 26.190323 1.059667 1.082083 0.024653 0.000458 985459.000000 0 0 1
-10.138709 -19.195554 12.712790 25.157061 1.084860 1.041024 0.032439 -0.009126 1022800.000000 0 0 1
-9.594209 -18.570154 11.527490 23.870117 1.093920 1.066804 0.029724 -0.008295 -326431.000000 0 1 0
-8.568709 -17.659054 11.869990 22.938213 1.119034 1.026897 0.025321 -0.012605 208780.000000 0 1 0
-7.814909 -17.260754 10.575290 21.698921 1.145653 1.061727 0.008502 -0.009300 355021.000000 0 1 0
-6.739109 -18.091254 10.134990 21.804290 1.214214 1.087369 0.011025 -0.003859 112295.000000 0 1 0
-6.112909 -17.463854 9.048990 20.597040 1.234093 1.115939 0.011206 -0.005696 468868.000000 0 1 0
-4.921509 -18.315054 8.474290 20.772001 1.308284 1.150570 0.009412 -0.001119 1314220.000000 0 1 0
-3.683609 -18.219354 9.196790 20.738727 1.371304 1.111341 0.017094 -0.006842 416525.000000 0 1 0
-2.616709 -18.788854 8.465290 20.773284 1.432417 1.151072 0.023808 -0.010810 -327175.000000 0 1 0
-1.292709 -18.849554 9.194190 21.012137 1.502323 1.117907 0.023932 -0.021786 -275361.000000 0 1 0
-0.323909 -19.567854 8.439690 21.312771 1.554245 1.163648 0.034447 -0.008778 -165856.000000 0 1 0
0.865891 -19.840454 9.155290 21.868075 -1.527181 1.138827 0.039525 -0.013337 -177797.000000 0 1 0
1.954691 -20.403554 8.259490 22.098529 -1.475286 1.187740 0.039631 -0.024214 -600699.000000 0 1 0
1.764691 -21.744354 7.811390 23.172157 -1.489818 1.226959 0.043235 -0.018902 -146875.000000 0 1 0
2.091391 -22.690654 8.820490 24.434417 -1.478886 1.201471 0.044330 -0.018392 -161527.000000 0 1 0
1.857491 -24.118754 8.385290 25.602298 -1.493934 1.237118 0.048205 -0.015317 110321.000000 0 0 1
1.776491 -24.908654 9.522890 26.726062 -1.499597 1.206476 0.053683 -0.006962 -137175.000000 0 0 1
1.651191 -26.252114 9.089890 27.830308 -1.507982 1.238073 0.052925 -0.008339 -853030.000000 0 0 1
1.699791 -27.316284 10.197090 29.207008 -1.508650 1.214152 0.049172 -0.010859 250061.000000 0 0 1
0.771991 -27.301594 11.276590 29.548849 -1.542527 1.179242 0.042652 -0.011431 381195.000000 0 0 1
-0.577009 -27.583974 10.891190 29.661871 1.549881 1.194823 0.016010 -0.004636 778132.000000 0 0 1
-1.529309 -27.801644 12.120190 30.367239 1.515844 1.160239 0.022448 -0.014731 25232.600000 0 0 1
-1.104209 -28.959494 12.847290 31.700543 1.532685 1.153522 0.010096 -0.015960 -45961.800000 0 0 1
-1.224009 -28.699374 14.233790 32.058588 1.528173 1.110746 0.013126 -0.015988 -447350.000000 0 0 1
-0.731009 -29.812494 15.113590 33.432615 1.546281 1.101721 -0.001906 -0.006553 129.153000 0 0 1
-0.711509 -29.465574 16.483590 33.770328 1.546654 1.060875 0.008418 -0.005941 -238057.000000 0 0 1
-0.290709 -30.510394 17.325090 35.087425 1.561268 1.054377 0.006077 -0.005250 -104093.000000 0 0 1
-0.820609 -30.320104 18.794690 35.682243 1.543738 1.016054 0.015119 -0.010071 -194947.000000 0 0 1
-2.215709 -30.415424 18.870290 35.862170 1.498077 1.016683 0.009266 -0.009369 -520813.000000 0 0 1
-2.552109 -30.526404 20.250990 36.721618 1.487387 0.986667 0.027504 -0.015152 -645825.000000 0 0 1
-4.040309 -30.842204 20.350590 37.171389 1.440539 0.991447 0.057272 -0.019009 -461339.000000 0 0 1
-4.789209 -29.745894 19.757090 36.029118 1.411162 0.990389 0.048468 -0.020992 876760.000000 0 0 1
-6.092009 -29.521174 20.319690 36.352470 1.367292 0.977662 0.057586 -0.023523 849966.000000 0 0 1
-6.129909 -28.544884 21.474590 36.242850 1.359263 0.936614 0.075549 -0.029264 -238607.000000 0 0 1
-5.388609 -29.004054 22.596390 37.160047 1.387103 0.917153 0.072994 -0.028051 52548.800000 0 0 1
-5.342109 -27.999044 23.573990 36.989425 1.382266 0.879785 0.076623 -0.026661 -102147.000000 0 0 1
-4.324709 -28.147334 24.755690 37.733536 1.418343 0.855202 0.080770 -0.025598 74928.100000 0 0 1
-4.426109 -29.256714 25.610390 39.133590 1.420650 0.857361 0.077860 -0.023538 29092.300000 0 0 1
-3.796709 -30.409914 25.106690 39.617215 1.446588 0.884428 0.074882 -0.026650 -226122.000000 0 0 1
-4.072409 -31.623714 25.993090 41.137386 1.442724 0.886845 0.077667 -0.023488 -90725.800000 0 0 1
-3.477509 -31.587724 27.235590 41.852775 1.461147 0.862228 0.085687 -0.029772 64599.300000 0 0 1
-3.864109 -32.721354 27.967390 43.217974 1.453249 0.866990 0.087047 -0.040063 -146895.000000 0 0 1
-3.398109 -32.537284 29.423590 43.999655 1.466736 0.838306 0.095030 -0.031747 292306.000000 0 0 1
-1.998609 -32.780174 29.503790 44.147569 1.509902 0.838876 0.092721 -0.039219 495437.000000 0 0 1
-1.499809 -32.604334 30.821390 44.891537 1.524828 0.814029 0.087487 -0.036495 -406812.000000 0 0 1
-28.247849 2.955646 -10.447810 30.262742 -0.104253 1.923287 0.085025 -0.027245 200952.000000 0 0 1
-29.193079 2.719146 -11.484410 31.488431 -0.092876 1.944127 0.082801 -0.041926 390781.000000 0 0 1
-29.632589 3.959246 -12.100610 32.251988 -0.132825 1.955398 0.070918 -0.033280 -120099.000000 0 0 1
-30.513959 3.686246 -13.339710 33.505790 -0.120223 1.980275 0.067117 -0.026605 -260904.000000 0 0 1
-31.642849 2.941146 -12.980410 34.327996 -0.092682 1.958571 0.081777 -0.029571 -179996.000000 0 0 1
-32.536529 2.647446 -14.030210 35.531416 -0.081190 1.976720 0.076343 -0.028760 192908.000000 0 0 1
-33.652719 1.731046 -13.442110 36.279365 -0.051393 1.950362 0.062580 -0.028308 352371.000000 0 0 1
-33.121289 0.473946 -13.117710 35.627500 -0.014308 1.947858 0.066645 -0.028397 409682.000000 0 0 1
-34.199586 -0.320754 -12.650410 36.465702 0.009379 1.925074 0.063283 -0.025828 243065.000000 0 0 1
-33.910639 -1.807154 -12.258410 36.103544 0.053241 1.917219 0.060212 -0.026605 -132080.000000 0 0 1
-33.674199 -2.574354 -13.439610 36.348344 0.076300 1.949531 0.058449 -0.023624 47421.800000 0 0 1
-33.122629 -3.831254 -13.085910 35.819382 0.115157 1.944784 0.072911 -0.029590 -200080.000000 0 0 1
-33.772049 -5.044554 -13.705110 36.794414 0.148274 1.952474 0.058880 -0.027606 -199614.000000 0 0 1
-33.401129 -6.286654 -13.152810 36.443845 0.186040 1.940036 0.070613 -0.034465 -134957.000000 0 0 1
-33.954489 -7.342754 -13.880410 37.409747 0.212973 1.950922 0.068214 -0.030119 -692411.000000 0 0 1
-33.839799 -8.765354 -13.225910 37.374967 0.253455 1.932503 0.084147 -0.038378 165547.000000 0 0 1
-32.468889 -9.161954 -13.047310 36.171846 0.275026 1.939818 0.079598 -0.036095 1046590.000000 0 0 1
-31.849449 -9.572754 -14.260210 36.185337 0.291973 1.975872 0.061006 -0.031885 -129014.000000 0 0 1
-30.484869 -10.281954 -14.004010 35.087863 0.325299 1.981345 0.060869 -0.028369 124882.000000 0 0 1
-30.671709 -11.645254 -13.681710 35.546517 0.362862 1.965891 0.056457 -0.027624 1178420.000000 0 0 1
-29.447579 -12.428554 -13.532410 34.709581 0.399375 1.971293 0.047555 -0.024289 836000.000000 0 0 1
-29.549519 -13.814154 -14.103310 35.537421 0.437304 1.978888 0.040696 -0.019324 -131825.000000 0 0 1
-29.667169 -13.724154 -15.507710 36.179862 0.433286 2.013770 0.038602 -0.023714 13796.400000 0 0 1
-30.054809 -14.971954 -16.064010 37.222350 0.462171 2.017028 0.035920 -0.019586 -881459.000000 0 0 1
-29.103599 -16.170354 -15.920410 36.904733 0.507143 2.016832 0.019056 -0.004983 14601.400000 0 0 1
-27.819409 -15.848054 -16.445110 35.993360 0.517824 2.045295 0.020514 -0.012569 -566694.000000 0 0 1
-27.151689 -17.002354 -16.718910 36.136079 0.559461 2.051796 0.012477 -0.012127 -15117.800000 0 0 1
-25.643289 -16.778454 -17.023210 35.055449 0.579393 2.077855 0.015520 -0.020451 483390.000000 0 0 1
-25.532979 -16.135654 -18.276310 35.303199 0.563584 2.114952 0.034677 -0.020977 371684.000000 0 0 1
-24.158209 -16.195554 -18.654610 34.552996 0.590580 2.141096 0.026203 -0.014120 109923.000000 0 0 1
-23.960209 -15.788654 -20.114810 35.042528 0.582643 2.182193 0.049471 -0.013921 -248006.000000 0 0 1
-24.485509 -16.608154 -21.086410 36.331909 0.596003 2.189995 0.049080 -0.026642 693061.000000 0 0 1
-25.893499 -16.420454 -21.311410 37.340070 0.565155 2.178201 0.050852 -0.029559 437117.000000 0 0 1
-26.528649 -17.570654 -22.105010 38.744400 0.584993 2.177953 0.055655 -0.031308 -42228.200000 0 0 1
-26.084479 -17.656754 -23.461810 39.276170 0.595058 2.210995 0.059059 -0.017404 166094.000000 0 0 1
-26.794549 -18.702854 -24.111310 40.609111 0.609389 2.206497 0.045871 -0.010107 49885.200000 0 0 1
-26.170529 -19.075154 -25.524780 41.234360 0.629846 2.238287 0.065492 -0.012068 1145240.000000 0 0 1
-24.830309 -19.597054 -25.560600 40.668576 0.668145 2.250432 0.089059 -0.019480 643151.000000 0 0 1
-24.704509 -20.928854 -25.069910 40.949116 0.702847 2.229663 0.062313 -0.014927 -1015670.000000 0 0 1
-23.232009 -21.212454 -24.844710 40.086832 0.739989 2.239249 0.058659 -0.009962 -638045.000000 0 0 1
-22.455609 -21.351954 -25.987060 40.441162 0.760210 2.268669 0.062314 -0.017571 -1081180.000000 0 0 1
-21.135009 -21.644754 -25.671300 39.676185 0.797313 2.274466 0.043078 -0.018871 -698540.000000 0 0 1
-20.231609 -21.423354 -26.887740 39.890208 0.814000 2.310466 0.036347 -0.020898 -313563.000000 0 0 1
-20.433309 -22.455554 -27.770700 41.145884 0.832514 2.311670 0.056953 -0.013502 -209025.000000 0 0 1
-20.881509 -21.997954 -29.043820 41.993939 0.811429 2.334525 0.068910 -0.012968 -531343.000000 0 0 1
-19.906409 -22.155754 -30.186720 42.407318 0.838824 2.362894 0.056921 -0.021177 -375953.000000 0 0 1
-19.634209 -23.481954 -30.622820 43.297361 0.874404 2.356422 0.044224 -0.026984 101719.000000 0 0 1
-19.133409 -23.563354 -31.943120 44.064520 0.888782 2.381710 0.040354 -0.024706 120311.000000 0 0 1
-18.798409 -24.976454 -32.573660 45.146946 0.925604 2.376767 0.045781 -0.024669 157484.000000 0 0 1
-18.091709 -25.050264 -33.800170 45.796039 0.945315 2.400985 0.041216 -0.021218 -196962.000000 0 0 1
-18.878709 -24.708154 33.662231 45.826241 0.918352 0.745775 0.048447 -0.017281 -666891.000000 0 0 1
-18.224109 -24.792854 32.302573 44.612330 0.936929 0.761107 0.043888 -0.009407 -1043260.000000 0 0 1
-17.377309 -23.734554 32.112543 43.549000 0.938816 0.741600 0.034491 -0.008468 -736955.000000 0 0 1
-16.884309 -23.774854 30.802503 42.416009 0.953274 0.758018 0.044156 -0.003173 -370547.000000 0 0 1
-16.013609 -22.552754 30.513613 41.184257 0.953356 0.736380 0.027528 0.003344 -13405.800000 0 0 1
-16.719709 -21.377654 30.079353 40.513211 0.907059 0.734064 0.023785 -0.007166 47191.700000 0 0 1
-15.795609 -20.353554 30.002913 39.546722 0.910823 0.709527 0.029531 -0.012147 -412723.000000 0 0 1
-15.511109 -19.472254 31.218043 39.929055 0.898147 0.673188 0.026987 -0.013937 -45415.000000 0 0 1
-14.828909 -18.301254 30.845913 38.811117 0.889826 0.652168 0.032525 -0.021414 -157201.000000 0 0 1
-14.393409 -17.602454 31.984963 39.243528 0.885359 0.618002 0.027260 -0.017017 145752.000000 0 0 1
-13.920709 -16.115154 31.781363 38.256233 0.858329 0.590343 0.037378 -0.012201 375988.000000 0 0 1
-12.768209 -16.007854 30.949213 37.109734 0.897507 0.584493 0.054921 -0.018980 218187.000000 0 0 1
-12.483209 -14.674554 30.638013 36.192001 0.865913 0.561343 0.046793 -0.016730 480841.000000 0 0 1
-10.996309 -14.487554 30.198163 35.252477 0.921549 0.542103 0.061695 -0.021673 668450.000000 0 0 1
-10.569609 -13.137154 30.195233 34.584008 0.893282 0.509275 0.073437 -0.026054 -643275.000000 0 0 1
-9.196209 -12.989954 30.372253 34.289692 0.954756 0.482679 0.065275 -0.027053 -384834.000000 0 0 1
-8.710409 -11.495654 30.273823 33.533948 0.922377 0.444603 0.067943 -0.025159 -139723.000000 0 0 1
-9.184209 -10.681254 31.316923 34.339315 0.860615 0.422700 0.068551 -0.021515 120658.000000 0 0 1
-8.876909 -9.296254 31.153583 33.701122 0.808469 0.391316 0.050863 -0.021972 -268126.000000 0 0 1
-9.596209 -8.509154 32.225533 34.683972 0.725430 0.378773 0.029808 -0.026471 131457.000000 0 0 1
-10.988509 -8.323054 31.997813 34.840790 0.648241 0.406777 0.038854 -0.026427 382001.000000 0 0 1
-11.745709 -7.782854 33.060619 35.937989 0.585191 0.402881 0.024081 -0.028540 29223.600000 0 0 1
-11.520409 -6.309254 33.450889 35.937285 0.501044 0.374166 0.008307 -0.019951 -427360.000000 0 0 1
-11.871309 -5.416354 32.436673 34.962875 0.428044 0.382469 0.020822 -0.023857 145097.000000 0 0 1
-12.143309 -4.156454 32.969155 35.379391 0.329784 0.371250 0.009845 -0.024443 -308391.000000 0 0 1
-11.928409 -2.992954 31.952973 34.237950 0.245835 0.367407 0.015635 -0.011656 -25027.800000 0 0 1
-10.574709 -2.598754 31.906223 33.713278 0.240976 0.328897 0.016375 -0.015671 96576.000000 0 0 1
-10.237609 -1.481754 31.060193 32.737438 0.143738 0.321486 0.007662 -0.010085 -89437.900000 0 0 1
-8.727009 -1.207654 31.152473 32.374306 0.137508 0.275611 0.034308 -0.011188 105443.000000 0 0 1
-8.307309 -0.553954 32.358123 33.412070 0.066584 0.251838 0.033769 -0.025140 1394840.000000 0 0 1
-6.860009 -0.358754 32.364393 33.085380 0.052249 0.209147 0.048264 -0.025175 1575270.000000 0 0 1
-6.446809 0.461646 33.632374 34.247789 -0.071486 0.189861 0.060583 -0.030400 -294197.000000 0 0 1
-6.964909 1.802446 33.796400 34.553661 -0.253234 0.209743 0.064583 -0.026532 195545.000000 0 0 1
-6.505809 2.767046 32.814474 33.567422 -0.402141 0.212204 0.078068 -0.026858 13459.100000 0 0 1
-7.320409 4.074446 32.981295 34.028743 -0.507886 0.248759 0.073383 -0.022525 -24877.100000 0 0 1
-8.615509 3.887546 32.453213 33.801643 -0.423873 0.283410 0.044705 -0.011643 -422751.000000 0 0 1
-9.323809 5.077746 32.597000 34.282377 -0.498688 0.314864 0.034354 -0.000287 -837489.000000 0 0 1
-10.803709 5.057646 32.270823 34.405028 -0.437836 0.354073 0.023505 0.008310 -456736.000000 0 0 1
-11.477709 6.314446 32.350763 34.902463 -0.502957 0.384755 0.018766 0.010846 190692.000000 0 0 1
-12.806409 6.238546 31.862613 34.902002 -0.453309 0.420423 0.005809 0.009285 27603.900000 0 0 1
-13.525809 7.578946 31.936913 35.501470 -0.510741 0.451957 0.011670 0.002747 -227720.000000 0 0 1
-13.995909 7.715546 33.284472 36.922503 -0.503819 0.447646 0.017939 -0.001438 216004.000000 0 0 1
-14.494909 9.053946 33.463024 37.574597 -0.558333 0.472187 0.020497 -0.002170 31178.600000 0 0 1
-15.235309 9.453346 -33.815550 38.274950 -0.555349 2.654058 0.021215 0.005972 -249357.000000 0 0 1
-14.428709 9.586146 -32.712020 37.015647 -0.586418 2.654580 0.030456 -0.009064 -171850.000000 0 0 1
-15.225509 9.971646 -31.588450 36.456550 -0.579833 2.618881 0.035947 -0.014718 -159171.000000 0 0 1
-14.396509 10.227446 -30.274320 35.048460 -0.617679 2.613529 0.046295 -0.017219 758233.000000 0 0 1
-13.456709 11.294846 -30.255830 34.986738 -0.698277 2.615508 0.053168 -0.018161 255350.000000 0 0 1
-12.223509 10.994146 -30.884200 34.987415 -0.732498 2.652423 0.038174 -0.030613 -454429.000000 0 0 1
-11.482409 12.254046 -31.273180 35.496748 -0.817895 2.648800 0.033920 -0.019681 -364354.000000 0 0 1
-12.084909 12.901046 -32.378940 36.890077 -0.818050 2.641867 0.029137 -0.018594 187812.000000 0 0 1
-11.513709 14.197946 -32.721580 37.481315 -0.889419 2.632138 0.020251 -0.022945 -54096.600000 0 0 1
-11.571509 15.425746 -31.813470 37.201483 -0.927204 2.596669 0.024331 -0.018890 -592121.000000 0 0 1
-12.857209 15.844746 -31.481160 37.515693 -0.889113 2.566508 0.031137 -0.015328 -462351.000000 0 0 1
-12.897009 17.032746 -30.761380 37.452767 -0.922710 2.534549 0.016253 -0.006104 983192.000000 0 0 1
-14.333309 17.704046 -30.807410 38.314142 -0.890225 2.504913 0.011349 -0.014563 732647.000000 0 0 1
-14.523509 18.514746 -31.968010 39.694859 -0.905622 2.507052 0.015577 -0.015081 1787600.000000 0 0 1
-15.884709 19.050346 -32.145960 40.602985 -0.875766 2.484406 0.014764 -0.017313 1944340.000000 0 0 1
-16.398909 20.106446 -31.149470 40.539892 -0.886613 2.447080 0.010595 -0.018083 -354840.000000 0 0 1
-15.709509 21.337646 -31.378170 41.069129 -0.936164 2.440338 0.013659 -0.014357 342947.000000 0 0 1
-16.323009 22.503346 -30.888100 41.556178 -0.943253 2.408764 0.004600 -0.018226 309810.000000 0 0 1
-17.723609 23.000246 -31.352900 42.733382 -0.914251 2.394528 0.020270 -0.021016 996105.000000 0 0 1
-18.870609 22.287246 -30.851330 42.480887 -0.868221 2.383633 0.022931 -0.025662 471576.000000 0 0 1
-19.983009 22.594246 -31.645170 43.717701 -0.846651 2.380166 0.041700 -0.028055 -972993.000000 0 0 1
-21.204809 21.669946 -31.399520 43.648143 -0.796246 2.373703 0.057407 -0.033617 -406535.000000 0 0 1
-22.138509 22.102946 -30.422320 43.636812 -0.784594 2.342240 0.073480 -0.028341 324239.000000 0 0 1
-23.007209 23.098146 -30.928850 44.938289 -0.787371 2.329873 0.079111 -0.027705 604994.000000 0 0 1
-24.283309 22.584046 -31.778190 45.930073 -0.749157 2.334889 0.084145 -0.037929 766377.000000 0 0 1
-23.899109 22.031246 -33.011560 46.328245 -0.744753 2.363934 0.100973 -0.034028 939191.000000 0 0 1
-25.066809 21.719546 -33.815990 47.366705 -0.713976 2.365875 0.115725 -0.031997 885586.000000 0 0 1
-24.799609 20.649346 33.653996 46.626254 -0.694334 0.764423 0.118772 -0.027805 -142545.000000 0 0 1
-24.629209 19.367546 34.135700 46.335147 -0.666371 0.742600 0.108618 -0.029387 288481.000000 0 0 1
-24.242709 18.510746 33.067808 44.987072 -0.652123 0.745054 0.099277 -0.031991 -288316.000000 0 0 1
-24.034309 16.998946 33.432332 44.545853 -0.615594 0.721955 0.083332 -0.022361 49876.900000 0 0 1
-25.168609 16.204546 33.785179 45.138504 -0.572032 0.725032 0.084717 -0.016533 591030.000000 0 0 1
-25.472629 15.407646 32.679317 44.206201 -0.543993 0.738844 0.080913 -0.011373 -257703.000000 0 0 1
-26.362409 14.164646 32.972367 44.528540 -0.493044 0.737016 0.055331 -0.004146 733687.000000 0 0 1
-27.656019 14.491946 33.526780 45.813938 -0.482668 0.749832 0.061251 -0.005481 892208.000000 0 0 1
-28.620089 13.470246 33.428177 46.021735 -0.439899 0.757791 0.036402 0.001447 3601.050000 0 0 1
-28.489319 12.387446 -34.029800 46.077298 -0.410151 2.401694 0.021849 0.002224 -621836.000000 0 0 1
-27.423519 11.483546 -34.127927 45.261867 -0.396563 2.424943 0.017095 -0.006665 -285167.000000 0 0 1
-27.867989 10.175246 34.116585 45.211745 -0.350083 0.715759 0.026597 -0.000202 -1332490.000000 0 0 1
-26.817729 9.091046 34.273008 44.457585 -0.326836 0.690520 0.017450 -0.004505 -400685.000000 0 0 1
-25.891149 8.908746 33.229178 43.056889 -0.331395 0.689207 0.016740 -0.002849 4455.740000 0 0 1
-24.947509 9.921446 33.063221 42.590961 -0.378516 0.682027 0.012000 -0.005815 -984522.000000 0 0 1
-23.693109 9.531146 32.242553 41.131356 -0.382466 0.669886 0.026826 -0.008360 14010.400000 0 0 1
-23.922509 9.481746 30.855113 40.177456 -0.377358 0.695129 0.044547 -0.007367 604687.000000 0 0 1
-22.724409 9.090546 30.177163 38.854832 -0.380536 0.681443 0.044616 -0.002620 622900.000000 0 0 1
-22.813309 8.954546 28.619033 37.678642 -0.374036 0.708166 0.070933 -0.012791 -75298.700000 0 0 1
-23.181809 10.160046 28.035663 37.770640 -0.413062 0.734359 0.062431 -0.012762 182189.000000 0 0 1
-23.093509 10.183646 26.662973 36.714179 -0.415323 0.757973 0.054266 -0.012005 -575433.000000 0 0 1
-23.356809 11.587046 26.036663 36.847090 -0.460514 0.786095 0.042369 -0.008149 -306583.000000 0 0 1
-24.571409 12.172046 26.357983 38.034933 -0.459940 0.805163 0.051454 -0.009829 -275701.000000 0 0 1
-25.698359 11.777746 25.586563 38.128640 -0.429741 0.835160 0.056309 -0.008445 116928.000000 0 0 1
-26.996959 12.540346 25.896663 39.455459 -0.434854 0.854823 0.043579 -0.003502 -100579.000000 0 0 1
-26.893439 13.902246 25.491863 39.577325 -0.477106 0.870947 0.053810 -0.009285 473868.000000 0 0 1
-28.107589 14.645146 25.665883 40.783017 -0.480337 0.890108 0.040471 -0.008688 308401.000000 0 0 1
-28.047889 16.048146 25.011993 40.863515 -0.519704 0.912100 0.041761 -0.013050 493133.000000 0 0 1
-27.196109 17.037246 25.672673 41.097229 -0.559648 0.896073 0.054010 -0.015148 805379.000000 0 0 1
-26.903629 18.187646 24.861583 40.898583 -0.594457 0.917404 0.031209 -0.026343 -286469.000000 0 0 1
-22.575709 -8.631954 32.232593 40.287881 0.365204 0.643406 0.015658 0.016928 -363825.000000 0 0 1
-21.639009 -8.667454 31.193103 38.940739 0.380978 0.641765 0.013683 -0.002508 -33609.100000 0 0 1
-22.233409 -8.927154 29.938263 38.344728 0.381816 0.674905 0.013638 -0.004014 -273101.000000 0 0 1
-21.284809 -8.597454 28.754243 36.793557 0.383885 0.673726 0.036078 -0.009846 -129799.000000 0 0 1
-20.790109 -7.267954 28.709653 36.184195 0.336307 0.654371 0.039549 -0.017088 1283950.000000 0 0 1
-19.442109 -6.957354 29.152763 35.725117 0.343651 0.616288 0.033760 -0.015309 1291980.000000 0 0 1
-18.240909 -7.437454 28.298353 34.479607 0.387156 0.608114 0.040628 -0.015718 -570580.000000 0 0 1
-17.972909 -8.813254 28.197853 34.580599 0.455909 0.617335 0.037780 -0.016222 96356.600000 0 0 1
-17.506609 -9.499554 29.339363 35.461544 0.497165 0.596410 0.047754 -0.018580 428586.000000 0 0 1
-16.175609 -9.047954 30.070773 35.323749 0.509999 0.552356 0.051651 -0.023198 -430581.000000 0 0 1
-15.028609 -9.257454 29.362613 34.259635 0.552093 0.541258 0.042587 -0.015376 -440942.000000 0 0 1
-13.848509 -9.071854 30.172773 34.416217 0.579937 0.501833 0.039865 -0.020849 847082.000000 0 0 1
-12.593409 -9.724554 29.577283 33.585363 0.657555 0.493543 0.046780 -0.026667 -172735.000000 0 0 1
-12.088109 -9.195154 28.358423 32.169449 0.650300 0.491697 0.064969 -0.019439 161668.000000 0 0 1
-11.229909 -10.178654 27.800613 31.663701 0.736333 0.499136 0.066364 -0.013938 104189.000000 0 0 1
-10.654909 -10.003154 26.375453 30.153851 0.753859 0.505988 0.051546 -0.010628 355600.000000 0 0 1
-11.599209 -10.385654 25.380943 29.775758 0.730255 0.550233 0.050749 -0.009208 298996.000000 0 0 1
-11.026909 -10.320954 24.070383 28.416512 0.752341 0.560374 0.039431 -0.006348 -77218.100000 0 0 1
-12.001609 -10.750054 22.984923 28.069717 0.730444 0.611389 0.044490 -0.008889 -813837.000000 0 0 1
-12.089009 -12.205754 22.984423 28.695092 0.790203 0.641853 0.050037 -0.005678 -112891.000000 0 0 1
-13.211709 -12.690754 22.291523 28.853362 0.765289 0.687902 0.043909 -0.002231 343811.000000 0 0 1
-14.560609 -12.510354 23.042223 29.991071 0.709806 0.694611 0.041985 0.000177 -547085.000000 0 0 1
-15.664009 -13.280754 22.609223 30.543683 0.703245 0.737390 0.030662 0.006157 -189483.000000 0 0 1
-16.719909 -13.032354 23.498673 31.647832 0.662085 0.733994 0.027167 0.004443 178381.000000 0 0 1
-18.085509 -13.634054 23.003523 32.282118 0.645971 0.777631 0.040145 -0.001748 130567.000000 0 0 1
-18.172809 -15.069254 22.910323 32.897057 0.692306 0.800393 0.039328 0.003048 861316.000000 0 0 1
-19.463609 -15.713154 22.999123 33.980803 0.679182 0.827353 0.034281 0.004472 705898.000000 0 0 1
-20.044209 -15.726654 24.445503 35.308364 0.665279 0.806065 0.029634 -0.000569 -440948.000000 0 0 1
-19.554509 -16.645354 25.386823 36.110074 0.705207 0.791133 0.029188 0.001690 -118206.000000 0 0 1
-20.347009 -16.715454 26.548253 37.392739 0.687725 0.781321 0.021484 -0.002006 -348811.000000 0 0 1
-19.849909 -17.651554 27.667183 38.354521 0.726845 0.765041 0.019037 -0.003059 -281162.000000 0 0 1
-19.986009 -19.045554 27.319953 38.840102 0.761308 0.790633 0.020319 -0.002412 86904.100000 0 0 1
-19.796809 -19.913654 28.426713 39.956793 0.788341 0.779256 0.012861 -0.000937 -276567.000000 0 0 1
-19.901509 -21.398154 28.047423 40.504432 0.821621 0.805912 0.023583 0.000640 -852054.000000 0 0 1
-21.181409 -21.737354 27.659203 41.063319 0.798351 0.831762 0.019155 0.001520 -918009.000000 0 0 1
-21.189009 -23.103654 27.234963 41.527053 0.828598 0.855506 0.026432 0.008249 264896.000000 0 0 1
-22.596909 -23.617254 26.806053 42.272444 0.807473 0.883919 0.034896 0.006120 -113076.000000 0 0 1
-23.241309 -24.045554 27.968023 43.595383 0.802404 0.874297 0.030336 0.009682 81141.000000 0 0 1
-24.376409 -24.839854 27.600023 44.418340 0.794814 0.900312 0.019572 0.014154 243402.000000 0 0 1
-24.855409 -25.679234 28.773203 45.881496 0.801699 0.892946 -0.000846 0.008987 -185594.000000 0 0 1
-25.501009 -24.920854 29.817453 46.480436 0.773893 0.874337 0.000057 0.014027 372858.000000 0 0 1
-26.091419 -25.795324 30.776153 47.888751 0.779692 0.872832 -0.000246 0.016501 121199.000000 0 0 1
-27.331739 -25.191594 31.465423 48.700239 0.744674 0.868327 -0.006004 0.011296 629662.000000 0 0 1
-28.423669 -24.841454 30.592233 48.588965 0.718247 0.889742 0.001891 0.012720 1163630.000000 0 0 1
-29.403579 -24.001154 31.270673 49.178053 0.684581 0.881666 0.008276 0.003954 281633.000000 0 0 1
-30.577719 -23.790154 30.286773 49.175776 0.661196 0.907284 0.011982 0.002249 -333038.000000 0 0 1
-31.267149 -25.025654 30.081293 50.087945 0.674974 0.926583 0.011003 0.001341 356443.000000 0 0 1
-32.552529 -24.756754 29.513373 50.434147 0.650198 0.945687 0.018049 -0.000031 170451.000000 0 0 1
-33.525839 -25.792774 30.085123 51.907261 0.655764 0.952566 0.025519 -0.009922 -449534.000000 0 0 1
-33.311619 -27.195304 29.872753 52.360576 0.684656 0.963658 0.031725 -0.012220 167734.000000 0 0 1
-34.322303 -27.944804 30.537693 53.772514 0.683332 0.966838 0.034081 -0.014097 210958.000000 0 0 1
-33.812309 -29.319354 30.844863 54.353495 0.714350 0.967347 0.036646 -0.019957 68589.100000 0 0 1
-32.925089 -29.291324 31.950193 54.432141 0.727059 0.943482 0.047657 -0.018057 79016.600000 0 0 1
-32.458359 -30.584034 32.325413 55.080492 0.755676 0.943601 0.041734 -0.025555 -250512.000000 0 0 1
-31.467699 -30.647694 33.486999 55.234738 0.772198 0.919438 0.028557 -0.019619 -311374.000000 0 0 1
-32.039349 -30.338774 -33.855130 55.615923 0.758143 2.225256 0.020946 -0.012120 232578.000000 0 0 1
-31.071389 -30.481974 -32.818100 54.512472 0.775823 2.216836 0.015841 -0.010389 17956.300000 0 0 1
-31.662589 -30.054194 -31.438220 53.797173 0.759343 2.194917 0.007832 -0.011466 105073.000000 0 0 1
-32.084139 -28.724424 -31.292400 53.232498 0.730204 2.199187 0.013257 -0.009044 290134.000000 0 0 1
-30.984819 -27.825594 -31.133100 51.996083 0.731731 2.212747 0.027540 -0.002012 147540.000000 0 0 1
-31.385859 -26.342854 -30.879930 51.308753 0.698262 2.216606 0.023944 0.006301 -323169.000000 0 0 1
-31.862489 -26.141784 -29.573020 50.726468 0.687091 2.193200 0.007415 -0.006275 -276050.000000 0 0 1
-31.924419 -24.784154 -29.320860 49.931309 0.660146 2.198421 0.020741 -0.003256 -104888.000000 0 0 1
-30.632629 -23.979754 -29.020990 48.534569 0.664176 2.211731 0.032904 -0.011147 -100741.000000 0 0 1
-30.787889 -22.603054 -28.869660 47.877442 0.633282 2.218041 0.027820 -0.001413 -251392.000000 0 0 1
-29.702359 -22.105354 -28.134970 46.502186 0.639797 2.220593 0.057126 -0.006047 -146660.000000 0 0 1
-29.526979 -20.577354 -28.372270 45.828547 0.608642 2.238387 0.059987 -0.013431 -37421.300000 0 0 1
-29.111749 -20.276254 -29.713190 46.276280 0.608371 2.268008 0.079833 -0.005014 287037.000000 0 0 1
-28.819219 -18.926754 -29.937340 45.661951 0.581099 2.285813 0.071317 -0.009183 -273867.000000 0 0 1
-28.277779 -18.493554 -31.401320 46.126860 0.579179 2.319596 0.090213 -0.008260 767218.000000 0 0 1
-29.165979 -18.377154 -32.561730 47.419831 0.562250 2.327693 0.072212 -0.015328 812718.000000 0 0 1
-30.158989 -17.365454 -32.326500 47.498697 0.522433 2.319346 0.044261 -0.012134 75677.100000 0 0 1
-30.812709 -16.789454 -33.595060 48.579181 0.498909 2.334433 0.036064 -0.016390 788013.000000 0 0 1
-31.759169 -17.649754 34.234345 49.921429 0.507237 0.815143 0.038458 -0.020186 490592.000000 0 0 1
-32.987299 -16.971854 34.167288 50.434208 0.475178 0.826489 0.033651 -0.010796 -603066.000000 0 0 1
-33.876309 -17.799554 33.233100 50.683996 0.483782 0.855697 0.036604 -0.020352 -677707.000000 0 0 1
-34.214870 -19.074854 33.781757 51.727309 0.508585 0.859160 0.007572 -0.012057 76612.400000 0 0 1
-34.874184 -19.838654 32.811083 51.829992 0.517210 0.885307 0.016092 -0.011658 -386954.000000 0 0 1
-35.349225 -21.244754 33.327588 53.024857 0.541152 0.891138 0.001161 -0.008095 -44518.000000 0 0 1
-34.254635 -22.112054 33.207491 52.583842 0.573219 0.887291 0.024397 -0.004348 -228688.000000 0 0 1
-34.539906 -23.460354 33.537282 53.555043 0.596646 0.894100 0.018161 -0.006801 26194.000000 0 0 1
-33.298739 -24.456454 33.676056 53.301041 0.633478 0.886912 0.017397 -0.001528 1679080.000000 0 0 1
-32.299789 -24.117654 -33.897370 52.668485 0.641374 2.269987 -0.006892 -0.001633 1049640.000000 0 0 1
-31.551029 -22.878754 -34.070850 51.766086 0.627397 2.289181 0.014140 -0.005186 -52136.900000 0 0 1
-30.260669 -22.866054 -33.182610 50.394941 0.647098 2.289555 0.027860 -0.001633 594896.000000 0 0 1
-29.309029 -23.880754 -33.567710 50.557895 0.683695 2.296880 0.024747 0.000132 -5391.140000 0 0 1
-27.997149 -23.655154 -33.172270 49.434868 0.701533 2.306393 0.043889 -0.005923 -331100.000000 0 0 1
-27.584279 -24.127054 -31.766900 48.498898 0.718641 2.284982 0.049443 0.000544 -509130.000000 0 0 1
-27.609139 -25.549044 -31.606410 49.132305 0.746663 2.269586 0.043550 -0.006991 48590.100000 0 0 1
-27.126139 -25.788964 -30.304040 48.158415 0.760133 2.251394 0.046723 -0.005587 1749.850000 0 0 1
-26.808619 -27.285354 -30.028830 48.630476 0.794211 2.236344 0.043535 -0.008821 645045.000000 0 0 1
-27.943669 -28.130814 -29.758640 49.575881 0.788736 2.214628 0.043868 -0.004826 732177.000000 0 0 1
-27.485709 -29.389324 -29.274470 49.761342 0.818856 2.199748 0.043419 -0.010076 211027.000000 0 0 1
-28.235529 -30.645824 -29.836760 51.250794 0.826310 2.192193 0.036366 0.002777 -47349.400000 0 0 1
-27.838249 -30.874964 -31.152850 51.949317 0.837073 2.213895 0.035032 -0.008542 355883.000000 0 0 1
-28.287199 -32.139254 -31.567530 53.194043 0.849060 2.206124 0.047440 -0.002214 -486493.000000 0 0 1
-27.821289 -32.512694 -32.990960 54.032424 0.862999 2.227585 0.037870 -0.009370 477988.000000 0 0 1
-26.427859 -32.795864 -33.124050 53.583609 0.892511 2.237215 0.028637 -0.008371 279067.000000 0 0 1
-26.065429 -33.105144 34.098360 54.203831 0.903815 0.890432 0.037903 -0.014498 544732.000000 0 0 1
-24.571409 -33.511894 33.913965 53.637284 0.938125 0.886299 0.036191 -0.013874 452714.000000 0 0 1
-24.419309 -34.083719 32.637198 53.133692 0.949115 0.909365 0.032490 -0.005509 180874.000000 0 0 1
-23.313309 33.730647 32.475443 52.306035 -0.966027 0.900940 0.030302 0.004127 -141560.000000 0 0 1
-23.399309 32.924895 31.101753 50.979363 -0.952934 0.914628 0.039964 -0.001945 -576050.000000 0 0 1
-24.561709 32.143476 31.105473 51.029708 -0.918315 0.915296 0.059904 -0.029974 -143876.000000 0 0 1
-24.457509 31.279636 29.963173 49.743111 -0.907191 0.924344 0.057105 -0.023111 -172643.000000 0 0 1
-25.816719 30.656566 29.625073 49.839472 -0.870891 0.934265 0.060785 -0.022750 -154666.000000 0 0 1
-26.363509 29.723766 30.538163 50.111040 -0.845238 0.915480 0.063275 -0.029251 767397.000000 0 0 1
-27.636879 29.205586 30.128593 50.244357 -0.812989 0.927743 0.056129 -0.034174 716416.000000 0 0 1
-28.220799 28.146646 31.102883 50.557260 -0.784083 0.908155 0.062272 -0.051083 -310940.000000 0 0 1
-27.461779 26.979656 31.152313 49.522901 -0.776543 0.890468 0.060874 -0.049441 105599.000000 0 0 1
-28.180159 25.831126 31.655463 49.633021 -0.741934 0.879170 0.058354 -0.038239 217042.000000 0 0 1
-29.109919 25.129746 30.649063 49.175772 -0.712148 0.897898 0.049488 -0.035752 -297359.000000 0 0 1
-28.540609 24.928966 29.364913 47.940774 -0.717955 0.911546 0.042308 -0.029220 22120.200000 0 0 1
-29.461729 24.227416 28.555943 47.648747 -0.688212 0.928169 0.023133 -0.023888 90927.400000 0 0 1
-28.778949 23.986616 27.180433 46.285652 -0.694824 0.943161 0.023816 -0.025949 -166372.000000 0 0 1
-27.706119 23.110506 27.460013 45.340675 -0.695208 0.920230 0.035913 -0.026256 -323281.000000 0 0 1
-26.941879 22.978806 26.273413 44.092886 -0.706177 0.932454 0.038486 -0.020671 -321365.000000 0 0 1
-25.650719 22.188906 26.560653 43.078710 -0.713161 0.906429 0.039883 -0.020422 -358406.000000 0 0 1
-25.722689 20.837506 26.984223 42.708391 -0.680859 0.886891 0.061555 -0.034439 89729.000000 0 0 1
-24.431509 20.264506 27.017303 41.683132 -0.692437 0.865632 0.069991 -0.025015 -83371.200000 0 0 1
-24.338109 18.924206 27.907683 41.584948 -0.660904 0.835104 0.083020 -0.028571 1045600.000000 0 0 1
-23.015409 18.374406 28.161623 40.748066 -0.673735 0.807765 0.072818 -0.020390 1498400.000000 0 0 1
-23.132809 17.383806 29.162813 41.082761 -0.644447 0.781504 0.071366 -0.016245 109499.000000 0 0 1
-21.852309 16.531306 29.174253 40.024299 -0.647649 0.754063 0.068656 -0.014806 -333027.000000 0 0 1
-20.717809 17.027106 29.803293 40.092222 -0.687928 0.732704 0.086119 -0.013594 -369634.000000 0 0 1
-19.650409 16.123006 29.681803 39.078118 -0.687112 0.708175 0.064869 -0.011749 -287801.000000 0 0 1
-18.437509 16.483606 30.543203 39.300614 -0.729505 0.680642 0.039068 -0.014416 -805615.000000 0 0 1
-18.546609 16.157006 31.902343 40.283806 -0.716649 0.656817 0.024249 -0.008673 471363.000000 0 0 1
-17.372009 16.406506 32.667410 40.473693 -0.756823 0.631527 0.022128 -0.014076 -708305.000000 0 0 1
-17.500209 16.210506 34.197610 41.695496 -0.747159 0.609079 0.018082 -0.021532 53152.500000 0 0 1
-18.445709 17.130406 -33.834260 42.171698 -0.748443 2.501931 0.040768 -0.024740 808726.000000 0 0 1
-19.781309 16.637306 -33.895160 42.626072 -0.699282 2.490091 0.061758 -0.021890 -48633.900000 0 0 1
-20.815009 17.500106 -33.113720 42.848999 -0.699096 2.454038 0.070673 -0.036948 114902.000000 0 0 1
-20.818109 17.166506 -31.734160 41.655006 -0.689559 2.436935 0.069568 -0.033472 -18952.300000 0 0 1
-21.865809 17.857406 -31.122040 42.018828 -0.684830 2.404862 0.063018 -0.031085 -476675.000000 0 0 1
-22.005809 17.689606 -29.582770 40.893986 -0.677091 2.379513 0.064088 -0.028597 71382.000000 0 0 1
-22.618809 16.534906 -29.058440 40.365908 -0.631246 2.374420 0.072568 -0.033779 1314200.000000 0 0 1
-24.070009 16.457206 -29.121090 41.209742 -0.599718 2.355556 0.081368 -0.031889 1604030.000000 0 0 1
-24.848809 15.593606 -28.107410 40.628196 -0.560423 2.334803 0.068801 -0.022388 140145.000000 0 0 1
-24.960909 14.194106 -28.428730 40.406835 -0.517052 2.351194 0.037645 -0.006960 366393.000000 0 0 1
-25.955559 13.487006 -27.683770 40.273831 -0.479219 2.328684 0.003108 0.000398 -2914.580000 0 0 1
-25.717669 11.938806 -27.690990 39.632367 -0.434621 2.344370 0.018205 -0.003535 76855.300000 0 0 1
-24.658509 11.446506 -26.890620 38.238332 -0.434601 2.350737 0.012443 -0.008995 -140644.000000 0 0 1
-23.863209 10.543706 -27.573480 37.959442 -0.416047 2.383856 0.003171 0.002251 -262160.000000 0 0 1
-22.758309 9.836606 -26.759650 36.479834 -0.407970 2.394322 0.038833 -0.004692 -45743.900000 0 0 1
-23.178409 8.895306 -25.825470 35.823456 -0.366442 2.375910 0.017835 0.003609 78063.600000 0 0 1
-22.040909 8.395306 -25.131130 34.465294 -0.363930 2.387908 0.058136 0.005516 152213.000000 0 0 1
-22.436709 7.186706 -24.214110 33.784283 -0.309984 2.369894 0.049909 0.010020 146545.000000 0 0 1
-22.820009 6.018406 -24.982510 34.367133 -0.257862 2.384637 0.049106 -0.007318 436363.000000 0 0 1
-23.067409 4.904906 -24.072310 33.699252 -0.209513 2.366459 0.045503 0.003136 -240844.000000 0 0 1
34.838416 24.715646 -10.407410 43.964674 0.617031 1.809787 0.006403 0.002226 -659820.000000 0 0 1
35.836876 24.070646 -9.718010 44.250620 0.591460 1.792214 0.022875 -0.010199 -642800.000000 0 0 1
-35.560694 22.977346 -10.419810 43.601535 -0.573660 1.812110 0.046519 -0.014367 -148917.000000 0 0 1
-34.542293 22.241946 -9.538410 42.176480 -0.572078 1.798925 0.044230 -0.022366 -220339.000000 0 0 1
-35.100776 21.571746 -8.441110 42.055405 -0.551061 1.772883 0.038071 -0.024630 1049730.000000 0 0 1
-34.004539 21.073846 -7.606010 40.721825 -0.554805 1.758679 0.026114 -0.015706 804827.000000 0 0 1
-34.501767 20.298446 -6.363310 40.532586 -0.531795 1.728441 0.028479 -0.016778 -363823.000000 0 0 1
-35.126671 19.124846 -6.683610 40.550134 -0.498575 1.736375 0.034693 -0.020432 42034.000000 0 0 1
-35.578880 18.349446 -5.633410 40.426405 -0.476160 1.710601 0.035831 -0.029116 -249826.000000 0 0 1
35.475186 17.180646 -6.093510 39.884763 0.451009 1.724175 0.036676 -0.015750 285084.000000 0 0 1
34.264636 17.585946 -6.720210 39.095933 0.474183 1.743544 0.044330 -0.023683 253911.000000 0 0 1
33.565506 16.506946 -7.328110 38.115924 0.457052 1.764259 0.062878 -0.017518 532698.000000 0 0 1
32.395676 16.996246 -8.251810 37.502594 0.483169 1.792645 0.061382 -0.019865 179798.000000 0 0 1
31.807406 15.935946 -8.962410 36.687740 0.464458 1.817583 0.069922 -0.008927 -47723.500000 0 0 1
31.202176 16.318446 -10.159310 36.648043 0.481871 1.851688 0.049977 -0.016055 -387362.000000 0 0 1
30.803226 15.106246 -11.068410 36.049232 0.455947 1.882873 0.038935 -0.004657 -3411.850000 0 0 1
29.652376 14.366846 -10.726110 34.651394 0.451178 1.885509 0.030336 -0.000808 59876.200000 0 0 1
29.800086 13.541246 -9.561810 34.100421 0.426509 1.855009 0.035798 -0.004976 -502323.000000 0 0 1
28.748906 12.449846 -9.338310 32.691012 0.408673 1.860485 0.023680 0.005579 -247695.000000 0 0 1
29.036326 11.287446 -10.030610 32.728089 0.370758 1.882293 0.035385 0.004610 497203.000000 0 0 1
27.974866 10.358446 -9.866810 31.420447 0.354623 1.890226 0.033753 0.006913 -219572.000000 0 0 1
28.290126 9.034846 -10.511510 31.503198 0.309126 1.910985 0.037925 0.004678 802176.000000 0 0 1
29.446256 8.457546 -9.816010 32.170889 0.279691 1.880862 0.048636 -0.004935 1377950.000000 0 0 1
29.498326 7.063946 -9.840910 31.888777 0.235043 1.884518 0.051687 -0.009279 20891.400000 0 0 1
30.675236 6.672646 -8.882210 32.624959 0.214189 1.846529 0.083732 -0.013370 -309007.000000 0 0 1
31.877046 7.191646 -9.330710 33.984231 0.221891 1.848928 0.085990 -0.017303 -1248160.000000 0 0 1
32.849416 7.095146 -8.333310 34.624692 0.212722 1.813858 0.100575 -0.021789 494683.000000 0 0 1
34.281016 7.315046 -8.965510 36.181187 0.210232 1.821200 0.099565 -0.022628 580811.000000 0 0 1
34.756406 6.225046 -9.689110 36.614721 0.177226 1.838610 0.103177 -0.024955 927184.000000 0 0 1
-35.792767 6.284546 -9.964410 37.681656 -0.173810 1.838416 0.097455 -0.026130 474225.000000 0 0 1
-35.365924 5.390046 -11.156610 37.473606 -0.151244 1.873099 0.091521 -0.029765 -700446.000000 0 0 1
-34.000629 5.270046 -11.424210 36.253672 -0.153775 1.891378 0.078206 -0.028231 -14073.600000 0 0 1
-33.398679 6.183646 -12.357810 36.144498 -0.183073 1.919735 0.061308 -0.027615 277011.000000 0 0 1
-32.383999 7.119546 -11.589010 35.124301 -0.216405 1.907039 0.053254 -0.012095 -263469.000000 0 0 1
-32.978459 8.091046 -10.746010 35.616296 -0.240591 1.877288 0.064920 -0.020061 271198.000000 0 0 1
-33.514979 9.209646 -11.400410 36.579239 -0.268173 1.887739 0.075396 -0.024553 40750.700000 0 0 1
-34.357608 10.135946 -10.448510 37.314260 -0.286875 1.854605 0.094450 -0.013301 177756.000000 0 0 1
-33.620489 10.846046 -9.478810 36.576247 -0.312062 1.832940 0.060881 -0.007268 -404974.000000 0 0 1
-34.411907 11.708646 -8.733510 37.383766 -0.327962 1.806593 0.074406 -0.008996 -526976.000000 0 0 1
-33.727039 12.525446 -7.618010 36.775454 -0.355591 1.779456 0.085482 -0.006365 13639.100000 0 0 1
-32.877079 13.515946 -8.187610 36.477666 -0.390043 1.797180 0.056052 -0.007039 -167223.000000 0 0 1
-32.363239 14.386146 -7.288210 36.158795 -0.418288 1.773748 0.049422 -0.010944 -468191.000000 0 0 1
-31.587569 15.523846 -7.951010 36.083000 -0.456788 1.792973 0.026446 -0.008432 230948.000000 0 0 1
-32.371849 16.423346 -8.778610 37.346043 -0.469498 1.808078 0.022472 -0.006945 290046.000000 0 0 1
-31.672749 17.615946 -8.976710 37.337192 -0.507580 1.813598 0.023319 -0.005007 301672.000000 0 0 1
-32.400349 18.437446 -10.095510 38.621773 -0.517352 1.835263 0.009605 -0.012070 411770.000000 0 0 1
-32.183879 18.156146 -11.477910 38.693541 -0.513633 1.871965 0.003249 -0.011781 81468.800000 0 0 1
-33.215379 18.771246 -12.246310 40.069854 -0.514391 1.881390 0.006489 -0.012723 135793.000000 0 0 1
-32.979679 18.909846 -13.781910 40.437391 -0.520615 1.918586 0.005238 -0.003715 -333005.000000 0 0 1
-32.096689 19.971046 -13.990110 40.308353 -0.556594 1.925249 0.010691 -0.009932 52577.300000 0 0 1
-31.725999 20.249146 -15.349110 40.646797 -0.568071 1.958023 0.004247 -0.008656 -129987.000000 0 0 1
-30.745009 21.405346 -15.529110 40.553640 -0.608186 1.963760 0.031320 -0.018690 -823004.000000 0 0 1
-29.423189 21.228046 -15.094910 39.296441 -0.624993 1.965061 0.030721 -0.018903 25341.200000 0 0 1
-28.700649 22.419446 -14.904110 39.350874 -0.663139 1.959241 0.044491 -0.023174 -292032.000000 0 0 1
-28.099649 22.973946 -16.198310 39.746418 -0.685374 1.990556 0.028547 -0.019639 -886389.000000 0 0 1
-28.970659 23.761946 -17.008910 41.148903 -0.686942 1.996927 0.034498 -0.009998 435454.000000 0 0 1
-28.299909 24.361646 -18.131010 41.510338 -0.710753 2.022816 0.021060 -0.002783 335933.000000 0 0 1
-27.389939 25.600446 -17.947110 41.565495 -0.751641 2.017261 0.026399 -0.000725 147478.000000 0 0 1
-28.091829 26.700946 -17.441310 42.500479 -0.760019 1.993666 0.034544 0.002293 -36033.400000 0 0 1
-27.245109 27.814346 -17.225410 42.575211 -0.795736 1.987324 0.041369 -0.000214 206964.000000 0 0 1
-28.056979 29.146146 -16.981310 43.875469 -0.804436 1.968209 0.036575 0.003539 449151.000000 0 0 1
-28.612549 29.418846 -15.680010 43.931870 -0.799291 1.935761 0.041408 -0.005815 675506.000000 0 0 1
-27.655959 29.228446 -14.633610 42.817014 -0.813035 1.919597 0.042668 -0.001440 194216.000000 0 0 1
-27.966239 30.094846 -13.396110 43.211874 -0.822043 1.886000 0.038873 -0.004637 -252005.000000 0 0 1
-27.564029 31.381746 -13.607410 43.928935 -0.850074 1.885737 0.041801 0.000335 -39372.700000 0 0 1
-27.780709 32.238246 -12.476610 44.347921 -0.859531 1.855981 0.024390 -0.002931 10387.500000 0 0 1
-27.058549 33.601846 -12.586610 44.940760 -0.892850 1.854665 0.008906 -0.002817 43987.500000 0 0 1
-27.607709 -34.283913 -13.619710 46.076771 0.892852 1.870867 -0.002994 -0.008791 7522.190000 0 0 1
-27.081859 -32.962513 -13.618610 44.781926 0.883025 1.879800 0.025851 -0.006018 182439.000000 0 0 1
-27.496049 -32.131813 -14.919210 44.844944 0.862987 1.909945 0.017462 -0.007290 -21971.400000 0 0 1
-26.848959 -32.702113 -16.039610 45.250016 0.883371 1.933140 0.020022 -0.011897 -22207.000000 0 0 1
-27.125339 -32.081513 -17.287410 45.429749 0.868913 1.961166 0.028939 -0.003503 91225.600000 0 0 1
-26.119319 -32.591513 -18.385710 45.633978 0.895193 1.985474 0.018702 -0.004879 147115.000000 0 0 1
-26.120059 -33.897813 -18.905310 46.783865 0.914271 1.986790 0.025415 -0.001559 -55406.700000 0 0 1
-25.846329 33.724446 -18.008210 46.148311 -0.916883 1.971672 0.003536 -0.010309 -443337.000000 0 0 1
-26.009329 32.338446 -18.669010 45.505958 -0.893448 1.993529 0.014878 -0.016855 319855.000000 0 0 1
-27.303729 31.787546 -18.844810 45.946366 -0.861133 1.993413 0.029887 -0.009485 -143754.000000 0 0 1
-28.027369 32.323146 -19.909010 47.187794 -0.856459 2.006347 0.035489 -0.006602 -643479.000000 0 0 1
-29.511579 31.957046 -19.926810 47.846252 -0.825161 2.000362 0.033091 -0.010287 -282406.000000 0 0 1
-29.814199 30.638546 -20.310510 47.329946 -0.799034 2.014321 0.024756 -0.006960 719977.000000 0 0 1
-31.214159 30.338746 -20.327510 48.041346 -0.771177 2.007688 0.030158 -0.011568 536356.000000 0 0 1
-31.539899 28.921746 -20.907610 47.627311 -0.742122 2.025263 0.024227 -0.008532 -1007690.000000 0 0 1
-32.913389 28.744046 -20.998710 48.481514 -0.717880 2.018757 0.029123 -0.016243 -589793.000000 0 0 1
-33.218189 27.552046 -21.700410 48.306015 -0.692428 2.036697 0.025925 -0.007685 906602.000000 0 0 1
-34.750641 27.323246 -21.968010 49.363552 -0.666310 2.031998 0.025747 -0.008896 773755.000000 0 0 1
-35.437497 28.029846 -22.929910 50.668227 -0.669208 2.040419 0.024739 -0.003005 33031.500000 0 0 1
35.522346 27.189546 -23.533310 50.546268 0.653298 2.055086 0.036416 -0.006830 284465.000000 0 0 1
34.781006 27.739646 -24.725010 50.897274 0.673246 2.078055 0.046465 -0.010741 157342.000000 0 0 1
35.590156 27.974346 -25.893890 52.150904 0.666154 2.090380 0.049731 -0.013191 -349944.000000 0 0 1
34.765816 28.076146 -27.018560 52.220059 0.679345 2.114604 0.073439 -0.009658 118836.000000 0 0 1
35.516686 28.223846 -28.376000 53.509045 0.671479 2.129754 0.079377 -0.015564 461711.000000 0 0 1
-35.731643 27.050546 -28.774160 53.258189 -0.647996 2.141562 0.062276 -0.001846 -158122.000000 0 0 1
-35.264609 27.151646 -30.082360 53.719204 -0.656141 2.165173 0.040900 -0.004709 -1273800.000000 0 0 1
-34.830360 25.905246 -30.820360 53.236551 -0.639492 2.188215 0.029990 -0.002579 359982.000000 0 0 1
-33.791419 25.197346 -30.189680 51.847691 -0.640726 2.192322 0.033973 -0.000449 146013.000000 0 0 1
-32.530829 25.858346 -30.082780 51.301877 -0.671616 2.197388 0.022548 0.009805 -542683.000000 0 0 1
-31.693759 25.097246 -29.008940 49.758263 -0.669762 2.193209 -0.004447 0.009633 -281120.000000 0 0 1
-31.148249 23.878246 -29.423590 49.052336 -0.654041 2.214098 0.023859 0.006863 53520.400000 0 0 1
-31.860499 22.808746 -28.878850 48.675644 -0.621314 2.205938 0.019293 0.006614 -383619.000000 0 0 1
-31.531569 21.459546 -29.513530 48.226553 -0.597569 2.229354 0.023934 0.001634 499299.000000 0 0 1
-30.217379 20.935646 -29.279620 46.996675 -0.605901 2.243387 0.049397 -0.003362 604495.000000 0 0 1
-30.110419 19.596446 -29.743130 46.640238 -0.576951 2.262323 0.046439 -0.013642 -1014630.000000 0 0 1
-28.686839 19.139746 -29.959420 45.681850 -0.588369 2.286075 0.071649 -0.022935 -1300490.000000 0 0 1
-28.093069 19.846346 -31.050010 46.337901 -0.615042 2.305110 0.084451 -0.025808 786583.000000 0 0 1
-26.756099 19.373446 -31.279460 45.493119 -0.626702 2.328926 0.090128 -0.032836 644637.000000 0 0 1
-26.528369 18.013246 -31.987060 45.292421 -0.596505 2.354961 0.087479 -0.027120 -600407.000000 0 0 1
-27.044299 16.939846 -31.213360 44.638843 -0.559587 2.345133 0.061973 -0.023185 169975.000000 0 0 1
-26.874729 15.713146 -31.880860 44.559435 -0.529079 2.368090 0.040156 -0.010260 2272.030000 0 0 1
-27.518919 14.479346 -31.120390 43.993420 -0.484356 2.356591 0.033654 -0.007573 44412.000000 0 0 1
-28.904049 14.628546 -30.867780 44.746601 -0.468521 2.332058 0.024192 -0.002282 245275.000000 0 0 1
-29.622449 13.398546 -30.779800 44.770600 -0.424774 2.328837 0.015018 -0.006625 -143961.000000 0 0 1
-29.254619 12.399046 -29.615540 43.435576 -0.400881 2.321053 -0.006122 -0.004027 -543157.000000 0 0 1
-29.525989 12.902846 -28.324940 42.901861 -0.411990 2.291916 -0.011598 -0.003864 284402.000000 0 0 1
-29.663349 11.858946 -27.380820 42.074436 -0.380321 2.279396 0.001704 0.005909 -135933.000000 0 0 1
-29.591729 12.381046 -25.939180 41.252900 -0.396263 2.250785 -0.003083 0.000465 -348810.000000 0 0 1
-28.259589 12.655646 -25.624910 40.192111 -0.421052 2.262124 -0.013414 -0.001456 -433774.000000 0 0 1
-28.205839 13.036146 -24.251410 39.416257 -0.432936 2.233517 -0.007621 0.002853 -598898.000000 0 0 1
-26.758019 13.343346 -23.930810 38.297782 -0.462581 2.245750 0.010554 -0.000606 -1164690.000000 0 0 1
-26.211489 14.524346 -24.517910 38.718558 -0.506002 2.256521 0.019288 0.003546 348999.000000 0 0 1
-24.798009 14.575046 -24.451610 37.752542 -0.531364 2.275333 0.034031 -0.006749 89742.700000 0 0 1
-24.331809 15.142646 -23.115910 36.819587 -0.556684 2.249540 0.037430 -0.005820 -1030740.000000 0 0 1
-24.601009 16.512246 -22.966510 37.487658 -0.591136 2.230195 0.052268 -0.007740 218490.000000 0 0 1
-24.678509 16.894646 -21.598610 36.891162 -0.600308 2.196254 0.048301 -0.003904 1115990.000000 0 0 1
-26.181869 16.974746 -21.085610 37.659464 -0.575207 2.165064 0.043554 -0.010207 1011910.000000 0 0 1
-26.805429 15.760846 -20.759010 37.388124 -0.531529 2.159436 0.033573 -0.006559 985741.000000 0 0 1
-28.079569 16.124246 -20.170510 38.148434 -0.521258 2.127909 0.028493 0.002024 477154.000000 0 0 1
-29.257139 15.100446 -20.269810 38.663534 -0.476467 2.122644 0.003211 -0.004391 391142.000000 0 0 1
-29.807459 14.867646 -21.557710 39.677026 -0.462679 2.145195 -0.004977 0.002645 390394.000000 0 0 1
-30.496229 15.995446 -22.084910 40.909871 -0.483059 2.141047 0.004022 0.001068 -632049.000000 0 0 1
-30.952449 15.932746 -23.540910 42.024766 -0.475377 2.165384 0.000307 0.006806 554938.000000 0 0 1
-32.087019 15.066746 -23.766810 42.678389 -0.439000 2.161423 0.005781 0.004600 594793.000000 0 0 1
-32.539719 15.304546 -25.060010 43.829973 -0.439635 2.179440 0.020550 -0.005558 -61620.100000 0 0 1
-33.819479 14.533046 -25.497980 44.778495 -0.405865 2.176602 0.013854 -0.003141 117831.000000 0 0 1
-33.942279 13.154946 -25.626070 44.517709 -0.369744 2.184180 0.026752 0.000034 -67269.600000 0 0 1
-33.628839 12.349846 -24.510310 43.407059 -0.351950 2.170820 0.015539 0.003526 -323994.000000 0 0 1
-33.611509 10.901046 -24.933710 43.246459 -0.313621 2.185295 0.023408 0.000751 -336443.000000 0 0 1
-34.817842 10.223746 -25.170150 44.162694 -0.285607 2.177231 0.041763 0.002039 -73409.200000 0 0 1
-34.600280 9.000246 -25.859010 44.123375 -0.254481 2.196986 0.036622 0.004906 590334.000000 0 0 1
35.954033 8.576646 -26.392540 45.418251 0.234169 2.190876 0.054484 0.002824 147883.000000 0 0 1
35.157336 7.859946 -25.524360 44.150991 0.219948 2.187213 0.026655 0.006905 331389.000000 0 0 1
34.130316 7.232846 -26.358470 43.725982 0.208829 2.217815 0.029696 0.005548 273122.000000 0 0 1
33.047026 6.431546 -25.690220 42.349240 0.192215 2.222608 0.029570 0.000598 -683562.000000 0 0 1
33.566976 5.287746 -25.126030 42.261324 0.156244 2.207489 0.032857 -0.009026 1531.130000 0 0 1
32.627886 4.424946 -24.528610 41.058639 0.134796 2.211057 0.032233 -0.007249 116804.000000 0 0 1
33.371416 3.495946 -23.492510 40.960604 0.104378 2.181616 0.031937 -0.009267 816002.000000 0 0 1
34.257466 2.512846 -24.077110 41.947534 0.073221 2.182156 0.032815 -0.015346 636652.000000 0 0 1
35.110476 1.985746 -23.074910 42.061148 0.056497 2.151490 0.042794 -0.021035 134593.000000 0 0 1
35.927966 0.749246 -23.609910 42.997767 0.020851 2.152079 0.068326 -0.025000 447053.000000 0 0 1
35.243336 -0.516554 -23.632910 42.436706 -0.014656 2.161443 0.035947 -0.023562 204449.000000 0 0 1
-35.916335 -1.438754 -24.357410 43.420462 0.040037 2.166349 0.054804 -0.026310 257381.000000 0 0 1
-22.817409 29.618446 27.055033 46.150421 -0.914380 0.944392 0.048750 -0.020030 496388.000000 0 0 1
-24.231109 29.960446 26.882693 46.983552 -0.890731 0.961644 0.036467 -0.023361 1996560.000000 0 0 1
-24.830609 29.423546 25.729203 46.306545 -0.869853 0.981678 0.025152 -0.017156 -255685.000000 0 0 1
-25.014909 27.899146 25.666653 45.418995 -0.839852 0.970232 0.029463 -0.015401 382146.000000 0 0 1
-26.265829 27.475746 26.278613 46.210128 -0.807908 0.965900 0.023993 -0.016786 1001580.000000 0 0 1
-26.183329 27.155946 27.665083 46.780006 -0.803631 0.938019 0.036494 -0.022873 -1385270.000000 0 0 1
-25.353419 25.975346 28.227743 45.981735 -0.797514 0.909817 0.040081 -0.017087 -163490.000000 0 0 1
-23.967909 26.184646 28.223313 45.350323 -0.829569 0.899068 0.046472 -0.022469 -492663.000000 0 0 1
-23.644609 26.980346 29.364973 46.360633 -0.851194 0.884853 0.046884 -0.024381 -1116340.000000 0 0 1
-22.469309 26.528046 30.227383 46.068447 -0.868045 0.855103 0.058983 -0.018718 -269670.000000 0 0 1
-21.200709 26.965046 29.717733 45.384220 -0.904509 0.856874 0.060284 -0.015016 883260.000000 0 0 1
-20.161509 26.336046 30.490493 45.052680 -0.917418 0.827424 0.076359 -0.012881 385583.000000 0 0 1
-19.621509 24.954946 29.943943 43.639348 -0.904479 0.814588 0.076099 -0.014112 -418176.000000 0 0 1
-18.999509 25.084446 28.663743 42.565490 -0.922562 0.831994 0.059695 -0.014591 246705.000000 0 0 1
-19.371609 24.093046 27.698333 41.508213 -0.893601 0.840222 0.060788 -0.014849 -14156.000000 0 0 1
-18.919809 22.574546 27.975513 40.622637 -0.873249 0.811146 0.038166 -0.004483 159194.000000 0 0 1
-19.811109 21.905946 28.838853 41.279898 -0.835571 0.797333 0.051016 -0.002545 203300.000000 0 0 1
-19.556509 20.526646 28.846743 40.446692 -0.809597 0.776738 0.053186 -0.003973 -46310.600000 0 0 1
-20.073609 19.969746 30.165253 41.372492 -0.782804 0.753770 0.064978 -0.007965 -317657.000000 0 0 1
-19.341409 20.436246 31.259063 42.057809 -0.812915 0.732895 0.053080 -0.013639 -47910.000000 0 0 1
-19.818909 20.039246 32.530875 43.042054 -0.790926 0.713932 0.058676 -0.008588 49514.900000 0 0 1
-18.963209 20.700746 33.658487 43.829419 -0.829177 0.695173 0.054086 -0.016434 -214274.000000 0 0 1
-19.074909 22.131846 33.590141 44.519303 -0.859448 0.715893 0.040732 -0.018143 280350.000000 0 0 1
-18.111209 22.829646 32.781217 43.861337 -0.900142 0.726682 0.046144 -0.002432 233367.000000 0 0 1
-16.685809 22.972846 33.375290 43.818693 -0.942619 0.704913 0.036598 0.000106 377034.000000 0 0 1
-15.994309 21.698646 33.428321 42.943007 -0.935595 0.678628 0.039673 -0.006788 -240728.000000 0 0 1
-14.603309 21.902646 33.526601 42.626465 -0.982745 0.665641 0.026132 -0.013979 -792808.000000 0 0 1
-13.897609 20.521346 33.360711 41.559671 -0.975518 0.638957 0.016346 -0.009670 1346210.000000 0 0 1
-12.509409 20.490546 33.817652 41.472659 -1.022694 0.617341 0.008993 -0.005049 1415790.000000 0 0 1
-12.298309 20.688346 -33.369360 41.143289 -1.034463 2.516745 0.019450 -0.011245 -1473320.000000 0 0 1
-10.865409 20.481746 -32.960270 40.298120 -1.083053 2.528567 0.004168 -0.011398 -657425.000000 0 0 1
-10.016609 21.567946 -33.323850 40.938829 -1.136015 2.521787 0.016007 -0.015524 -294534.000000 0 0 1
-8.792109 21.398846 -32.643410 40.010049 -1.180956 2.525046 0.007222 -0.010499 160198.000000 0 0 1
-7.839509 22.662346 -32.789840 40.622819 -1.237755 2.510152 0.005519 -0.012072 255591.000000 0 0 1
-8.017509 23.701546 -31.856190 40.507537 -1.244610 2.475798 0.016809 -0.010139 271612.000000 0 0 1
-7.574809 23.421246 -30.493930 39.189441 -1.257998 2.462457 0.012100 -0.014365 -378299.000000 0 0 1
-7.172209 24.606446 -29.644350 39.188075 -1.287177 2.428685 0.023181 -0.009819 683972.000000 0 0 1
-5.957609 25.215546 -30.125700 39.735056 -1.338784 2.431290 0.019841 -0.003042 699620.000000 0 0 1
-5.645509 26.399946 -29.424780 39.933026 -1.360124 2.399200 0.034391 0.002957 -405375.000000 0 0 1
-4.297009 27.019846 -29.771910 40.433934 -1.413085 2.398397 0.014402 0.001264 -754491.000000 0 0 1
-3.178109 26.405046 -29.131460 39.445770 -1.451013 2.401668 0.019312 0.003279 210075.000000 0 0 1
-1.978009 26.715446 -29.788130 40.061955 -1.496891 2.409162 0.024816 0.001933 -234836.000000 0 0 1
-1.335509 28.079846 -29.500690 40.749872 -1.523271 2.380301 0.021378 -0.001426 -966693.000000 0 0 1
-0.887109 28.172146 -28.172970 39.851888 -1.539318 2.355961 0.036990 -0.012865 206978.000000 0 0 1
-0.132409 29.335446 -27.943060 40.514202 -1.566283 2.331885 0.033866 -0.016127 -587317.000000 0 0 1
0.437991 29.601646 -26.474230 39.715666 1.556001 2.300427 0.048743 -0.031010 519817.000000 0 0 1
1.481091 28.776946 -25.957370 38.782616 1.519374 2.304068 0.078608 -0.039713 -452830.000000 0 0 1
2.679891 28.854146 -26.614950 39.345891 1.478185 2.313708 0.076452 -0.039235 -1000010.000000 0 0 1
3.945891 28.757646 -25.699210 38.768823 1.434436 2.295460 0.077342 -0.044136 231842.000000 0 0 1
4.228191 27.451146 -25.197050 37.501125 1.417971 2.307569 0.086516 -0.033999 -34442.700000 0 0 1
5.299991 27.564246 -24.290610 37.120228 1.380837 2.284154 0.059185 -0.024885 57428.900000 0 0 1
5.914691 26.157046 -23.903310 35.924126 1.348414 2.298803 0.060567 -0.023885 96083.500000 0 0 1
7.049691 26.309546 -23.068310 35.693659 1.308994 2.273504 0.055727 -0.021678 -320107.000000 0 0 1
7.597191 25.084946 -22.678310 34.659451 1.276719 2.284077 0.048235 -0.011926 -129668.000000 0 0 1
9.058891 25.222046 -22.242510 34.827351 1.225980 2.263540 0.045061 0.003266 -812361.000000 0 0 1
9.360491 25.969546 -21.037710 34.707656 1.224850 2.221995 0.045867 -0.004473 -411437.000000 0 0 1
10.730291 26.236646 -20.938710 35.241032 1.182572 2.207014 0.048763 -0.002804 -553998.000000 0 0 1
11.613991 25.179646 -20.340810 34.389648 1.138630 2.203690 0.025296 0.004681 -748800.000000 0 0 1
11.795891 24.095646 -21.272210 34.238138 1.115548 2.241199 0.025066 0.001648 -455678.000000 0 0 1
12.293691 22.993146 -20.592210 33.224369 1.079801 2.239274 0.019852 0.006679 -177181.000000 0 0 1
12.325091 21.830346 -21.616510 33.102045 1.056824 2.282370 0.029147 0.002669 -347754.000000 0 0 1
11.077091 21.528846 -22.158110 32.820344 1.095598 2.311942 0.034210 -0.010869 -414398.000000 0 0 1
11.241991 20.442346 -23.072210 32.811564 1.068002 2.350647 0.038984 -0.010466 224590.000000 0 0 1
10.379891 20.686846 -24.358510 33.600963 1.105739 2.381736 0.053011 -0.010033 879686.000000 0 0 1
8.992591 20.381646 -24.156110 32.860247 1.155276 2.396635 0.036840 -0.010924 253360.000000 0 0 1
8.407891 20.359146 -25.417610 33.633946 1.179152 2.427538 0.034409 -0.014111 -287453.000000 0 0 1
6.874291 20.210346 -25.528830 33.278148 1.242935 2.445159 0.033090 -0.017496 590261.000000 0 0 1
5.928391 21.198146 -25.097420 33.382446 1.298098 2.421607 0.052660 -0.014229 387845.000000 0 0 1
6.110191 21.692646 -23.766010 32.752535 1.296239 2.382736 0.055165 -0.014271 -272868.000000 0 0 1
4.802191 22.180946 -23.057510 32.352808 1.357586 2.364121 0.071099 -0.017060 443843.000000 0 0 1
4.382991 23.463846 -23.436210 33.451736 1.386127 2.347031 0.073799 -0.022930 761535.000000 0 0 1
2.945991 23.526046 -23.548710 33.416993 1.446222 2.352786 0.082177 -0.015643 925739.000000 0 0 1
2.415691 24.684846 -24.387010 34.783666 1.473246 2.347743 0.068364 -0.008756 41619.900000 0 0 1
0.998591 24.635946 -24.474410 34.740808 1.530285 2.352495 0.085283 -0.030268 113203.000000 0 0 1
0.709491 25.359546 -25.635450 36.066414 1.542826 2.361409 0.076217 -0.017382 458421.000000 0 0 1
-0.744709 25.116646 -26.150060 36.266047 -1.541155 2.376130 0.083969 -0.020126 490473.000000 0 0 1
-1.037209 23.829746 -26.588770 35.719677 -1.527298 2.410392 0.087928 -0.024694 -1129180.000000 0 0 1
-2.320909 23.796446 -27.078630 36.123533 -1.473572 2.418272 0.080668 -0.011554 -832559.000000 0 0 1
-2.831309 22.391846 -27.431660 35.523331 -1.445020 2.453117 0.069156 -0.010706 -129478.000000 0 0 1
-2.231709 21.881646 -28.630240 36.103706 -1.469158 2.486514 0.079372 -0.021169 83383.100000 0 0 1
-2.650609 20.568646 -28.920630 35.587888 -1.442636 2.519488 0.063566 -0.024142 965711.000000 0 0 1
-4.061809 20.392746 -29.645820 36.211007 -1.374190 2.529933 0.043005 -0.019670 766660.000000 0 0 1
-4.149709 20.631746 -31.084840 37.538731 -1.372312 2.546459 0.038198 -0.016511 -54594.200000 0 0 1
-3.981009 21.973746 -31.453510 38.574827 -1.391569 2.524198 0.053306 -0.021830 -342548.000000 0 0 1
-3.638609 22.116746 -32.909290 39.817224 -1.407739 2.543674 0.041522 -0.017966 -438044.000000 0 0 1
-2.309609 21.775646 -33.171790 39.747713 -1.465128 2.558127 0.041809 -0.014186 -223634.000000 0 0 1
-1.883409 22.139946 34.133811 40.728878 -1.485932 0.577053 0.043557 -0.002138 50618.900000 0 0 1
-0.712909 21.267446 33.600918 39.772280 -1.537288 0.564544 0.058949 0.003837 108800.000000 0 0 1
-1.048509 19.934146 33.213822 38.750839 -1.518246 0.541159 0.046188 0.009298 -60180.300000 0 0 1
0.071991 19.203046 32.800013 38.007934 1.567047 0.529662 0.053724 0.007329 -240178.000000 0 0 1
-0.350609 17.765546 32.463313 37.008165 -1.551064 0.500811 0.046402 0.017894 664673.000000 0 0 1
-1.172009 17.832146 31.246523 35.995892 -1.505166 0.519519 0.032761 0.012004 632162.000000 0 0 1
-1.337909 16.516046 30.724053 34.907553 -1.489966 0.494608 0.027481 0.010115 -139537.000000 0 0 1
-2.292709 16.469846 29.502663 33.866200 -1.432479 0.513249 0.029083 0.012241 1523750.000000 0 0 1
-3.719409 16.633846 29.725283 34.265308 -1.350810 0.520634 0.016871 0.010616 1412670.000000 0 0 1
-4.084309 18.016746 29.634253 34.920964 -1.347869 0.557445 0.014365 0.007904 -4052.560000 0 0 1
-5.620009 18.204246 29.719883 35.302274 -1.271359 0.570060 0.002191 0.001333 565370.000000 0 0 1
-6.356609 17.678146 28.616143 34.231667 -1.225618 0.580925 -0.000860 0.004153 -756938.000000 0 0 1
-7.704409 17.991346 28.668003 34.711682 -1.166194 0.599019 0.002946 0.005535 -504181.000000 0 0 1
-8.635309 17.126446 27.733873 33.720194 -1.103787 0.605055 0.002116 0.001742 288491.000000 0 0 1
-8.994309 15.771046 28.058123 33.419781 -1.052497 0.574312 0.019887 -0.008841 60611.000000 0 0 1
-9.888909 15.669446 29.136913 34.529434 -1.007826 0.566418 0.013417 -0.004595 -594707.000000 0 0 1
-10.257109 14.206946 29.566613 34.369030 -0.945472 0.534999 0.013328 -0.010879 -10926.200000 0 0 1
-9.240409 13.322046 30.028913 34.126203 -0.964367 0.495066 0.024825 -0.009537 133115.000000 0 0 1
-8.786709 13.574346 31.325583 35.252820 -0.996320 0.476517 0.024068 -0.004886 -1396.900000 0 0 1
-9.690109 12.901246 32.451083 36.241043 -0.926592 0.461415 0.044152 -0.019802 170027.000000 0 0 1
-9.784209 11.502746 32.435413 35.778485 -0.865955 0.435730 0.022087 -0.014130 392132.000000 0 0 1
-10.111909 11.074246 33.777082 36.956474 -0.830790 0.417836 0.015041 -0.012816 -267043.000000 0 0 1
-10.193509 9.544946 34.056629 36.808527 -0.752552 0.389135 0.010691 -0.002286 -560646.000000 0 0 1
-9.010609 8.780446 34.122773 36.368269 -0.772462 0.353240 0.018754 -0.005235 -228511.000000 0 0 1
-8.733209 8.133546 -33.250050 35.326893 -0.749860 2.796993 0.042234 -0.018682 -480304.000000 0 0 1
-8.021509 8.928446 -32.186980 34.352051 -0.838854 2.784663 0.043410 -0.017721 -862546.000000 0 0 1
-8.835109 9.894546 -31.553520 34.228436 -0.841903 2.743626 0.033852 -0.014012 88723.700000 0 0 1
-8.134909 10.717346 -30.628020 33.453159 -0.921534 2.727668 0.026747 -0.010765 -170613.000000 0 0 1
-7.294309 11.806546 -31.384950 34.316418 -1.017378 2.725253 0.012185 -0.007704 10751.700000 0 0 1
-7.939509 12.962246 -31.842650 35.284699 -1.021229 2.696218 0.010903 -0.014796 23462.700000 0 0 1
-6.959809 13.844346 -32.352870 35.872177 -1.104976 2.694929 0.006273 -0.013429 41444.400000 0 0 1
-7.467809 15.251946 -32.588480 36.747776 -1.115479 2.661203 0.000782 -0.005966 -214247.000000 0 0 1
-8.341009 15.391846 -33.689480 37.966596 -1.074185 2.662352 0.016047 -0.010737 104242.000000 0 0 1
-8.727409 16.767146 -33.875840 38.792749 -1.090878 2.632633 0.020178 -0.011938 -684136.000000 0 0 1
-9.229809 17.135646 33.293520 38.565247 -1.076723 0.529017 0.022432 -0.011308 701659.000000 0 0 1
-10.359709 16.411246 32.803413 38.114518 -1.007710 0.534244 0.008134 -0.011407 668563.000000 0 0 1
-11.644109 16.812946 33.234109 39.022640 -0.965076 0.551647 0.003968 -0.018525 147264.000000 0 0 1
-12.798809 16.212446 32.356713 38.387626 -0.902526 0.568156 0.008052 -0.024997 230021.000000 0 0 1
-13.014009 14.824446 32.236133 37.792816 -0.850340 0.549147 0.000292 -0.023036 -397340.000000 0 0 1
-14.182409 14.565246 32.928384 38.698393 -0.798715 0.553104 0.013384 -0.017729 -1056910.000000 0 0 1
-14.422609 13.070346 33.212516 38.495673 -0.736252 0.530094 0.014597 -0.010387 -194512.000000 0 0 1
-14.510709 12.270846 32.055153 37.264825 -0.701958 0.535137 -0.003517 -0.013700 894734.000000 0 0 1
-13.212309 11.792946 31.649713 36.267659 -0.728696 0.510152 0.013275 -0.005473 338040.000000 0 0 1
-13.064109 11.386746 30.166873 34.790361 -0.716904 0.521437 0.011197 0.003158 -508145.000000 0 0 1
-13.823309 10.323746 29.729883 34.373385 -0.641473 0.525825 0.003775 0.009451 -237650.000000 0 0 1
-13.479609 9.926646 28.384023 32.952860 -0.634753 0.532871 -0.011796 0.012304 -6471.050000 0 0 1
-14.389309 8.818146 27.805683 32.526419 -0.549797 0.545507 0.009926 0.012084 71551.600000 0 0 1
-14.161209 7.465946 28.178983 32.408877 -0.485179 0.516641 -0.013100 0.016000 148520.000000 0 0 1
-15.042009 6.610346 27.456243 31.996938 -0.414054 0.539258 0.008808 0.018870 5857.400000 0 0 1
-14.581109 5.122446 27.679853 31.702090 -0.337839 0.509222 0.012236 0.020862 933060.000000 0 0 1
-13.383409 4.827846 26.955913 30.480240 -0.346205 0.485646 0.003880 0.007136 606632.000000 0 0 1
-13.798009 4.495646 25.637323 29.459604 -0.314972 0.515080 0.008445 0.006658 -221697.000000 0 0 1
-12.648409 4.175346 24.652523 28.020754 -0.318845 0.495365 0.018867 0.008338 -365014.000000 0 0 1
-12.071609 2.948246 24.940023 27.864326 -0.239541 0.462248 0.013454 0.000524 -153894.000000 0 0 1
-11.374109 2.483546 23.820663 26.513438 -0.214977 0.454599 0.025077 -0.010797 138866.000000 0 0 1
-10.307609 1.363446 24.168843 26.310431 -0.131512 0.406265 0.031998 -0.008084 1203030.000000 0 0 1
-8.941009 1.807146 24.091613 25.760692 -0.199432 0.361949 0.032271 -0.015909 1042290.000000 0 0 1
-8.101009 0.847846 24.741953 26.048214 -0.104280 0.318033 0.028042 -0.006921 -650645.000000 0 0 1
-6.615809 1.109346 24.651523 25.547939 -0.166136 0.265687 0.030959 -0.009100 -2082420.000000 0 0 1
-6.149009 0.796546 23.366023 24.174694 -0.128823 0.259381 0.020530 -0.003991 702830.000000 0 1 0
-4.783509 1.207446 23.135423 23.655606 -0.247254 0.210099 0.012921 -0.003963 963270.000000 0 1 0
-4.432509 2.702246 23.404023 23.972851 -0.547479 0.218277 0.029010 -0.007280 -1202960.000000 0 1 0
-4.194809 2.875546 24.774223 25.290855 -0.600929 0.202472 0.036593 -0.007261 -178654.000000 0 0 1
-4.024209 4.194146 25.238363 25.899037 -0.806073 0.226357 0.037669 -0.010297 87171.100000 0 0 1
4.149991 -23.206554 13.170990 27.004473 -1.393838 1.061305 0.046484 -0.005057 274091.000000 0 0 1
3.935091 -24.564954 13.480090 28.295490 -1.411955 1.074236 0.045156 -0.007836 -1731490.000000 0 0 1
2.615091 -24.870754 13.301290 28.325208 -1.466034 1.081968 0.032512 -0.006768 -1226650.000000 0 0 1
2.208291 -26.189074 13.889290 29.726361 -1.486674 1.084632 0.024207 -0.009397 -48183.500000 0 0 1
2.194391 -26.261664 15.315590 30.480447 -1.487431 1.044340 0.033874 -0.008167 -112200.000000 0 0 1
2.372991 -27.553534 15.768290 31.835001 -1.484885 1.052601 0.036194 -0.010085 -299460.000000 0 0 1
2.087491 -27.897334 17.293590 32.889012 -1.496108 1.017121 0.022478 -0.009419 -372663.000000 0 0 1
2.818891 -27.135564 18.228490 32.811017 -1.467286 0.981760 0.035919 -0.005545 112062.000000 0 0 1
2.766491 -27.649084 19.542390 33.971022 -1.471071 0.957866 0.024975 -0.004928 -325798.000000 0 0 1
3.334791 -26.581694 20.475090 33.718490 -1.445994 0.918219 0.029267 -0.008221 -123289.000000 0 0 1
2.575191 -25.447214 20.860790 33.005528 -1.469942 0.886614 0.020224 -0.005162 -240467.000000 0 0 1
3.387591 -24.682054 21.715190 33.048889 -1.434399 0.853881 0.046435 -0.007726 -27251.100000 0 0 1
2.822291 -23.412554 22.431090 32.546379 -1.450829 0.810407 0.057702 -0.012018 -312633.000000 0 0 1
2.320691 -22.430454 21.503190 31.159237 -1.467702 0.809160 0.059341 -0.008985 286665.000000 0 0 1
3.238991 -21.695854 20.721390 30.175771 -1.422600 0.813871 0.054619 -0.001951 -114028.000000 0 0 1
2.421491 -20.607054 20.012890 28.827592 -1.453825 0.803451 0.029491 -0.009205 225903.000000 0 0 1
2.213591 -19.400354 20.852190 28.567246 -1.457187 0.752572 0.022953 -0.009328 -88053.100000 0 0 1
1.164391 -18.610254 20.360090 27.608524 -1.508311 0.741499 0.017516 -0.007924 -294105.000000 0 0 1
1.035691 -17.203954 20.999490 27.166657 -1.510668 0.687259 0.014193 -0.012129 -271419.000000 0 0 1
2.063091 -16.290054 20.753490 26.463740 -1.444820 0.669352 0.003221 -0.002744 -298651.000000 0 0 1
1.706291 -15.037154 21.177890 26.029415 -1.457808 0.620455 0.009206 -0.000350 -81995.800000 0 0 1
2.757191 -14.002454 20.772290 25.202358 -1.376376 0.601973 -0.008285 -0.003904 -554727.000000 0 0 1
2.728891 -13.551754 19.438490 23.852710 -1.372086 0.618173 -0.014179 -0.003680 340002.000000 0 1 0
1.557391 -12.949554 18.856990 22.928203 -1.451105 0.605115 -0.002690 0.007474 516115.000000 0 1 0
0.951291 -11.665154 19.434590 22.686649 -1.489427 0.542049 -0.014937 0.005827 -220377.000000 0 1 0
1.644491 -10.459054 19.137090 21.870628 -1.414842 0.505333 -0.011327 0.004272 -210855.000000 0 1 0
1.379491 -9.367354 20.073290 22.194308 -1.424581 0.440745 -0.009376 -0.005100 157186.000000 0 1 0
-0.075209 -8.843154 20.114790 21.972979 1.562292 0.414214 0.003311 -0.011793 -31494.300000 0 1 0
-0.392509 -8.128754 21.306390 22.807739 1.522547 0.364860 0.000555 -0.013212 76201.700000 0 1 0
-1.713509 -7.602954 21.329790 22.709050 1.349126 0.350317 0.005651 -0.013705 186253.000000 0 1 0
-1.968909 -6.865954 22.687790 23.785578 1.291526 0.305002 0.011331 -0.009464 -217792.000000 0 1 0
-2.004409 -7.872054 23.688590 25.042687 1.321471 0.330351 0.015562 -0.005723 61160.900000 0 0 1
-1.964809 -7.216454 24.941590 26.038829 1.304972 0.291334 0.024430 -0.001909 -29698.500000 0 0 1
-2.133609 -8.274454 26.101690 27.464834 1.318439 0.316381 0.026345 -0.004401 243346.000000 0 0 1
-0.992409 -9.091254 26.146590 27.699818 1.462066 0.336469 0.022597 -0.005009 56493.600000 0 0 1
-1.315109 -10.110454 27.053790 28.911215 1.441448 0.360405 0.024478 -0.007056 -66927.700000 0 0 1
-0.120609 -10.997654 27.397590 29.522718 1.559830 0.381742 0.025652 -0.012354 218294.000000 0 0 1
0.925691 -10.400754 28.167290 30.040453 -1.482028 0.355003 0.014550 -0.008782 630459.000000 0 0 1
1.947091 -11.375254 28.443090 30.695227 -1.401270 0.385451 0.023266 -0.008962 174696.000000 0 0 1
2.862991 -10.851454 29.552190 31.611433 -1.312840 0.362938 0.032245 -0.011197 -563741.000000 0 0 1
2.229491 -10.760454 30.767390 32.670939 -1.366494 0.343042 0.026726 -0.016000 -497207.000000 0 0 1
3.061391 -10.238554 31.773490 33.522452 -1.280252 0.324447 0.048655 -0.011860 -251617.000000 0 0 1
2.346091 -10.014154 33.125890 34.685905 -1.340669 0.301054 0.038973 -0.014109 -562194.000000 0 0 1
2.067591 -11.169854 33.862690 35.717256 -1.387763 0.323664 0.042024 -0.019992 -26814.500000 0 0 1
1.867491 -11.031054 -33.321443 35.149541 -1.403092 2.817660 0.027812 -0.019343 -287554.000000 0 0 1
2.954791 -10.330654 -32.436843 34.170192 -1.292213 2.821712 0.023815 -0.006404 96662.600000 0 0 1
2.857891 -8.903454 -32.497343 33.815919 -1.260199 2.861418 0.029007 -0.007973 177228.000000 0 0 1
3.791391 -8.235154 -31.659543 32.932038 -1.139335 2.862697 0.029389 -0.007376 -2251.000000 0 0 1
3.430491 -6.793054 -31.253343 32.166525 -1.103157 2.902743 0.020299 -0.010671 -192082.000000 0 0 1
3.581891 -5.836054 -32.310043 33.027691 -1.020326 2.932749 0.035935 -0.005967 10767.000000 0 0 1
3.346391 -4.518854 -31.852943 32.345454 -0.933377 2.966862 0.029898 -0.009784 125101.000000 0 0 1
3.404791 -3.486854 -32.952243 33.310675 -0.797305 2.994762 0.028634 -0.002497 646012.000000 0 0 1
2.299691 -3.582154 -33.869843 34.136296 -1.000076 3.016567 0.025340 -0.005859 362313.000000 0 0 1
2.405691 -2.684054 33.668790 33.861171 -0.840035 0.106648 0.035914 -0.010542 -75532.100000 0 0 1
1.846091 -3.103854 32.297090 32.498369 -1.034229 0.111355 0.037729 -0.014276 -960213.000000 0 0 1
0.481391 -2.943054 32.275890 32.413367 -1.408664 0.092134 0.037748 -0.018647 -1656250.000000 0 0 1
-0.009509 -3.672154 31.185690 31.401148 1.568207 0.117212 0.032896 -0.014718 256163.000000 0 0 1
-1.540009 -3.888054 31.101890 31.381781 1.193667 0.133658 0.038090 -0.019535 351974.000000 0 0 1
-2.240309 -2.721754 30.641590 30.843702 0.882121 0.114542 0.043331 -0.023977 299588.000000 0 0 1
-3.656909 -2.854154 30.614790 30.964246 0.662726 0.150380 0.036318 -0.020267 562551.000000 0 0 1
-4.372309 -1.646454 29.992290 30.354001 0.360141 0.154533 0.050036 -0.025035 -314846.000000 0 0 1
-4.140009 -1.515854 28.630390 28.967857 0.350987 0.152790 0.049611 -0.022219 451713.000000 0 0 1
-5.101909 -0.764354 27.826890 28.301052 0.148711 0.183310 0.048272 -0.021759 705025.000000 0 0 1
-5.385809 0.747446 28.189890 28.709502 -0.137900 0.190546 0.052816 -0.019701 99286.000000 0 0 1
-6.417809 0.922246 29.136090 29.848795 -0.142724 0.218965 0.055721 -0.020814 -392444.000000 0 0 1
-6.902509 2.224646 29.207790 30.094662 -0.311784 0.243373 0.061684 -0.021175 538548.000000 0 0 1
-8.382909 2.241246 29.734290 30.974576 -0.261249 0.283944 0.048607 -0.017412 362604.000000 0 0 1
-9.278309 1.906346 28.705190 30.227622 -0.202643 0.318729 0.032910 -0.004394 -84254.900000 0 0 1
-10.529309 2.548446 28.921390 30.883778 -0.237467 0.358401 0.012080 0.005023 -375368.000000 0 0 1
-11.675809 1.993146 28.118090 30.511049 -0.169078 0.398689 0.003057 0.011060 -685137.000000 0 0 1
-11.938809 0.667046 28.557190 30.959542 -0.055814 0.396538 0.003338 0.007114 31561.200000 0 0 1
-12.486809 -0.104654 27.501590 30.203788 0.008381 0.426221 0.004890 0.008242 -1668880.000000 0 0 1
-12.367509 -1.574154 27.852090 30.515114 0.126601 0.420877 -0.000807 0.002223 608895.000000 0 0 1
-11.049509 -2.033954 28.163190 30.321509 0.182039 0.379584 0.014482 -0.011174 1065610.000000 0 0 1
-9.943209 -1.748354 27.294390 29.101682 0.174055 0.354278 0.010850 -0.008111 -428377.000000 0 0 1
-9.880909 -2.397854 25.865690 27.792373 0.238073 0.374540 0.010850 -0.007418 -522613.000000 0 0 1
-10.889709 -2.026354 24.936590 27.285993 0.183976 0.418014 0.006118 -0.006973 307010.000000 0 0 1
-10.719909 -2.817754 23.756590 26.215106 0.257038 0.436546 0.016717 -0.007362 166598.000000 0 0 1
-9.606409 -2.435054 22.708890 24.777132 0.248253 0.411489 0.035391 -0.011106 944233.000000 0 1 0
-8.294509 -2.540554 23.249790 24.815439 0.297221 0.357118 0.035198 -0.011080 479820.000000 0 1 0
-7.304909 -2.477154 22.206690 23.508192 0.326939 0.334312 0.028743 -0.009914 791191.000000 0 1 0
-5.848109 -2.274054 22.757190 23.606385 0.370860 0.269039 0.023657 -0.010526 1143280.000000 0 1 0
-4.979109 -3.418254 22.789990 23.576676 0.601621 0.259053 0.016763 -0.011461 397909.000000 0 1 0
-5.449609 -4.427354 23.682990 24.701897 0.682266 0.288218 0.023978 -0.009449 -354612.000000 0 1 0
-5.585809 -5.888754 23.150890 24.532476 0.811793 0.337204 0.035535 -0.010267 98650.100000 0 1 0
-6.577909 -6.227854 22.179390 23.957888 0.758069 0.387741 0.045342 -0.017590 222122.000000 0 1 0
-6.267009 -5.762754 20.878590 22.547733 0.743505 0.387192 0.042929 -0.019507 -146508.000000 0 1 0
-7.444709 -5.783254 19.875490 21.997837 0.660451 0.442882 0.044850 -0.020956 -873330.000000 0 1 0
-8.479909 -4.970454 20.224190 22.486265 0.530169 0.452397 0.058176 -0.016689 -1268680.000000 0 1 0
-9.322509 -4.767254 19.130190 21.808257 0.472702 0.500799 0.055764 -0.018052 -98457.900000 0 1 0
-9.885609 -3.348254 19.200690 21.854120 0.326573 0.497906 0.041945 -0.024712 -95112.100000 0 1 0
-8.853609 -2.423054 18.983090 21.085903 0.267138 0.450398 0.035323 -0.018407 355651.000000 0 1 0
-9.397609 -1.101154 18.676090 20.936187 0.116642 0.468939 0.026947 -0.019072 272875.000000 0 1 0
-8.228009 -0.127154 18.533990 20.278686 0.015453 0.417849 0.012311 -0.009071 172358.000000 0 1 0
-7.368309 0.082446 19.662190 20.997631 -0.011189 0.358568 0.021250 0.008130 708989.000000 0 1 0
-7.873509 1.007146 20.682690 22.153559 -0.127225 0.366448 0.040223 0.005847 76286.200000 0 1 0
-7.511209 2.445646 20.372290 21.850164 -0.314774 0.369901 0.026926 -0.003734 -35983.300000 0 1 0
-8.309309 2.901846 19.282790 21.196493 -0.335987 0.428197 0.023139 -0.012921 214883.000000 0 1 0
-8.038709 4.239046 18.914790 20.984748 -0.485271 0.447899 0.016994 -0.012660 -315156.000000 0 1 0
-8.944909 4.727546 17.776790 20.454226 -0.486201 0.517414 0.022519 -0.008382 336997.000000 0 1 0
-10.341809 4.598646 18.127890 21.371031 -0.418409 0.558132 0.016870 -0.000817 735809.000000 0 1 0
-11.195409 5.038646 17.105790 21.055479 -0.422907 0.622514 0.024265 0.003375 -31491.300000 0 1 0
-11.508009 6.558346 17.038990 21.581783 -0.517989 0.660789 0.029827 -0.001559 -387585.000000 0 1 0
-10.347509 7.347546 16.930890 21.159216 -0.617458 0.643224 0.030787 -0.000274 123168.000000 0 1 0
-10.749409 8.710846 16.837290 21.792727 -0.681024 0.687854 0.042319 -0.013836 -232325.000000 0 1 0
-9.541209 9.619346 16.779090 21.566278 -0.789476 0.679281 0.031808 -0.016811 -458494.000000 0 1 0
-8.882409 9.808546 18.018590 22.355634 -0.834908 0.633437 0.044027 -0.006562 -218671.000000 0 1 0
-7.821309 10.728646 17.970890 22.343447 -0.940864 0.636296 0.037936 -0.017803 -144047.000000 0 1 0
-8.147109 12.210846 17.666090 22.968911 -0.982423 0.693317 0.030757 -0.016801 -377741.000000 0 1 0
-8.424109 12.447446 16.361090 22.216881 -0.975829 0.743024 0.037848 -0.026231 -318582.000000 0 1 0
-8.858309 13.797846 16.297290 23.118215 -1.000061 0.788437 0.033849 -0.026115 -88262.500000 0 1 0
-8.844809 14.428046 14.896490 22.545611 -1.020852 0.849010 0.028619 -0.019541 947843.000000 0 1 0
-7.482209 14.641746 14.496590 21.920659 -1.098372 0.848218 0.036690 -0.017000 652470.000000 0 1 0
-7.434209 15.237546 13.193790 21.483165 -1.116886 0.909494 0.025016 -0.027199 -72526.900000 0 1 0
-6.662609 16.565246 13.184690 22.195355 -1.188391 0.934738 0.003186 -0.007641 -45054.800000 0 1 0
-5.273509 16.374946 13.295390 21.742037 -1.259237 0.912834 0.008111 -0.009406 -108558.000000 0 1 0
-4.520809 17.612546 13.263490 22.506880 -1.319539 0.940594 0.008696 -0.012882 564118.000000 0 1 0
-2.984009 17.471446 13.162790 22.077472 -1.401635 0.932025 0.006262 -0.013551 498519.000000 0 1 0
-2.255509 17.047946 14.358790 22.403005 -1.439256 0.875085 0.013006 -0.009500 286916.000000 0 1 0
-2.246609 15.653946 14.334590 21.344174 -1.428253 0.834440 0.021933 -0.007146 -223246.000000 0 1 0
-1.416709 15.058246 15.506690 21.661378 -1.476991 0.772930 0.007812 -0.002954 1413600.000000 0 1 0
-0.001109 14.889546 15.226990 21.296944 -1.570722 0.774194 -0.008034 0.001131 891916.000000 0 1 0
0.672391 14.136746 16.198790 21.510474 1.523269 0.718088 -0.002858 0.001998 187908.000000 0 1 0
1.677391 14.891746 17.078890 22.721493 1.458630 0.720217 -0.010503 0.004115 -183472.000000 0 1 0
1.027291 15.921146 17.803990 23.906490 1.506362 0.730659 -0.011601 0.003995 -200784.000000 0 1 0
1.871391 16.862846 18.470590 25.080279 1.460271 0.742976 -0.002169 0.003230 -308356.000000 0 0 1
1.138491 18.157246 18.923390 26.250265 1.508177 0.765720 0.004585 -0.000955 171842.000000 0 0 1
0.616091 18.999846 17.934890 26.134919 1.538382 0.814486 0.004948 0.004444 388729.000000 0 0 1
-0.609509 18.522146 17.359590 25.392849 -1.537901 0.818056 0.011578 0.002922 -262774.000000 0 0 1
-1.359809 19.564446 16.545790 25.658913 -1.501404 0.869988 0.007083 0.003210 -187223.000000 0 0 1
-1.867609 20.622146 17.415590 27.056675 -1.480479 0.871511 0.003385 0.001755 -241578.000000 0 0 1
-2.699709 21.440146 16.669190 27.291577 -1.445537 0.913749 0.016993 -0.009129 -848380.000000 0 0 1
-3.406109 22.526346 17.476290 28.713386 -1.420728 0.916443 0.012958 0.003805 -583783.000000 0 0 1
-4.399909 22.081646 18.329590 29.033294 -1.374116 0.887529 0.023018 0.003125 -527316.000000 0 0 1
-4.993009 23.128446 19.067790 30.388086 -1.358178 0.892489 0.030471 0.012419 160859.000000 0 0 1
-6.176809 22.706046 19.989190 30.875317 -1.305190 0.866607 0.030345 0.006177 -543109.000000 0 0 1
-7.246809 22.343046 19.200290 30.337750 -1.257159 0.885523 0.020965 0.001221 -1199750.000000 0 0 1
-8.222709 21.723246 20.007690 30.656484 -1.208942 0.859731 -0.003422 0.002661 24900.100000 0 0 1
-9.675909 22.060246 19.620490 31.068333 -1.157452 0.887275 0.002944 -0.007026 -118719.000000 0 0 1
-9.965309 23.413246 19.890290 32.297231 -1.168395 0.907330 0.005316 -0.003458 622421.000000 0 0 1
-11.190109 23.729146 19.192490 32.506039 -1.130145 0.939207 0.002902 -0.004504 682544.000000 0 0 1
-11.614409 25.177346 19.429790 33.857200 -1.138582 0.959567 0.005464 0.005327 102719.000000 0 0 1
-12.391809 25.330446 20.626990 34.937961 -1.115821 0.939256 0.005428 -0.005216 193847.000000 0 0 1
-12.816209 26.661046 20.662790 36.083479 -1.122700 0.961076 0.001634 0.003496 -614462.000000 0 0 1
-13.735409 26.916746 21.847390 37.289156 -1.098949 0.944817 0.025078 -0.002867 -720393.000000 0 0 1
-15.039609 26.411546 21.740390 37.368492 -1.053156 0.949876 0.020346 -0.007169 -180533.000000 0 0 1
-15.632709 26.518046 23.042490 38.451849 -1.038124 0.928225 0.015651 -0.006265 -86853.300000 0 0 1
-17.172009 26.492246 23.027390 39.076562 -0.995695 0.940618 0.033042 -0.004189 41701.800000 0 0 1
-17.744209 25.204746 22.796690 38.338300 -0.957389 0.934004 0.050104 -0.006954 -437375.000000 0 0 1
-19.078009 25.153646 23.196490 39.175930 -0.921903 0.937121 0.057285 -0.008883 -560152.000000 0 0 1
27.054991 24.422446 23.542663 43.389923 0.734303 0.997286 0.038304 -0.006870 52126.100000 0 0 1
26.853791 23.756546 24.769483 43.577826 0.724277 0.966241 0.052233 -0.020049 120739.000000 0 0 1
27.032091 22.366446 24.649793 42.878948 0.691228 0.958352 0.054662 -0.012840 -491214.000000 0 0 1
26.758991 21.648446 25.994853 43.132716 0.680214 0.923952 0.074231 -0.022622 656231.000000 0 0 1
25.477391 21.860146 26.619903 42.843701 0.709132 0.900363 0.072593 -0.014910 793323.000000 0 0 1
25.427591 21.149446 27.816763 43.216129 0.693804 0.871517 0.076625 -0.019725 -950475.000000 0 0 1
24.129691 21.292546 28.539293 43.012856 0.723018 0.845301 0.069830 -0.018973 -1114260.000000 0 0 1
23.876391 22.586146 29.008433 43.837259 0.757636 0.847672 0.065577 -0.023547 111464.000000 0 0 1
22.554391 22.540246 29.515293 43.450153 0.785084 0.824000 0.066344 -0.029618 -90306.000000 0 0 1
22.255491 23.791546 30.371213 44.539366 0.818744 0.820445 0.067956 -0.038206 -544613.000000 0 0 1
22.137191 24.935246 29.488303 44.512715 0.844770 0.846686 0.060574 -0.031807 -6825.490000 0 0 1
21.655791 26.119646 30.072023 45.338017 0.878562 0.845597 0.062484 -0.035145 134540.000000 0 0 1
20.187391 26.136246 30.563563 44.997395 0.913119 0.824084 0.068061 -0.033955 -98122.700000 0 0 1
19.193091 26.176946 29.521793 43.876458 0.938130 0.832757 0.066783 -0.036473 1129630.000000 0 0 1
17.869991 26.555646 29.904593 43.804379 0.978473 0.819365 0.062829 -0.033727 885282.000000 0 0 1
16.961091 25.567146 30.690013 43.396250 0.985063 0.785260 0.062554 -0.024179 -425080.000000 0 0 1
17.445191 24.981146 31.838113 44.068785 0.961189 0.763437 0.049410 -0.030767 -525056.000000 0 0 1
16.376591 24.381046 32.522439 43.821652 0.979322 0.734517 0.037553 -0.028847 8132.480000 0 0 1
16.614891 23.998846 33.940643 44.765684 0.965243 0.710272 0.033478 -0.019426 -228556.000000 0 0 1
16.826391 25.163046 -33.891790 45.441828 0.981391 2.412573 0.029696 -0.021027 8552.240000 0 0 1
16.891091 24.930046 -32.497710 44.304823 0.975304 2.394258 0.004888 -0.003830 -598157.000000 0 0 1
17.440591 26.082946 -31.650650 44.567454 0.981416 2.360542 0.003982 0.005234 -176394.000000 0 0 1
16.479491 27.009146 -31.221290 44.450383 1.022951 2.349539 0.012428 -0.004566 6475.260000 0 0 1
17.116291 28.113746 -30.595890 44.938387 1.023915 2.319706 0.017875 -0.008035 -26076.400000 0 0 1
16.560491 28.508646 -29.229110 44.060568 1.044544 2.296129 0.022758 -0.008784 -288929.000000 0 0 1
17.065991 27.638946 -28.225230 43.032813 1.017636 2.286171 0.002980 0.001354 -52007.300000 0 0 1
16.620191 28.087846 -27.027400 42.374971 1.036486 2.262455 -0.004100 0.008800 -159297.000000 0 0 1
17.403191 27.475946 -25.851500 41.546344 1.006181 2.242388 -0.005859 0.014165 849257.000000 0 0 1
18.831091 27.554446 -25.853180 42.216637 0.971289 2.229881 0.006309 0.011375 482389.000000 0 0 1
19.390491 26.959646 -24.672110 41.370601 0.947273 2.209765 0.015326 0.011503 129635.000000 0 0 1
20.921591 26.837746 -24.712810 42.055922 0.908645 2.198908 0.023288 0.010312 -33289.300000 0 0 1
21.469291 26.104546 -23.644710 41.248637 0.882524 2.181231 0.020329 0.012421 372332.000000 0 0 1
22.894691 26.168046 -23.568210 42.004691 0.852017 2.166493 0.030152 0.012864 929878.000000 0 0 1
23.419391 26.149846 -22.058410 41.459086 0.840426 2.131819 0.037325 0.010810 282993.000000 0 0 1
23.156391 24.887746 -21.486010 40.215258 0.821419 2.134446 0.030283 0.007911 165779.000000 0 0 1
23.451391 24.990546 -20.124210 39.742659 0.817161 2.101758 0.021826 0.002244 -227968.000000 0 0 1
23.043191 23.747246 -19.320810 38.317281 0.800444 2.099289 0.023998 -0.002614 -276459.000000 0 0 1
23.923991 22.656646 -19.582110 38.329362 0.758197 2.107017 0.029611 0.008486 20003.000000 0 0 1
23.654391 21.612146 -18.663910 37.080407 0.740313 2.098252 0.036933 0.006138 -1132490.000000 0 0 1
23.827191 20.215946 -19.290010 36.722255 0.703588 2.123858 0.048774 0.000612 195710.000000 0 0 1
22.846591 19.842546 -20.225710 36.397427 0.715144 2.159990 0.020703 0.000970 -703637.000000 0 0 1
21.520091 19.878746 -19.824110 35.373354 0.745772 2.165695 0.020490 0.003496 -1641530.000000 0 0 1
20.560291 19.861246 -21.015910 35.480461 0.768106 2.204736 0.019919 0.007387 -260977.000000 0 0 1
20.677691 20.894046 -22.020310 36.729036 0.790602 2.213715 0.014424 0.012964 -198474.000000 0 0 1
20.534391 22.246546 -21.632010 37.209056 0.825398 2.191201 0.014240 0.012817 -192386.000000 0 0 1
19.990591 23.137046 -22.745910 38.109356 0.858226 2.210377 0.019279 0.009007 -90619.900000 0 0 1
18.674491 22.868846 -23.144510 37.515185 0.886021 2.235641 0.029198 0.012428 -875240.000000 0 0 1
18.339391 23.476346 -24.369610 38.488310 0.907633 2.256437 0.024181 0.005415 108582.000000 0 0 1
16.851291 23.317646 -24.774410 37.966433 0.945008 2.281721 0.018847 0.008479 85912.200000 0 0 1
16.097191 24.105846 -23.899110 37.568322 0.982029 2.260295 0.015136 0.002901 -1449380.000000 0 0 1
14.736291 23.976546 -24.046510 37.017127 1.019701 2.277861 0.016330 -0.000963 -954873.000000 0 0 1
13.928391 25.104746 -23.418410 37.049565 1.064267 2.255035 0.017851 0.004414 -298168.000000 0 0 1
14.181291 26.302646 -24.058110 38.363145 1.076315 2.248640 0.001452 0.012619 -176460.000000 0 0 1
13.280691 27.330546 -23.720610 38.548707 1.118469 2.233615 0.019464 0.008193 -176962.000000 0 0 1
13.525491 28.684846 -24.369710 39.995526 1.130191 2.225988 0.014281 -0.002155 -78881.500000 0 0 1
13.322691 28.691846 -25.765220 40.799053 1.136084 2.254302 0.014149 -0.011100 115271.000000 0 0 1
12.576891 29.768046 -26.346840 41.694972 1.171048 2.254792 0.035751 -0.025436 -250397.000000 0 0 1
13.294691 31.114346 -26.421160 42.929349 1.166992 2.233762 0.041427 -0.029030 -1078740.000000 0 0 1
14.453791 31.039946 -27.139600 43.691512 1.135003 2.241024 0.022903 -0.010089 -1266880.000000 0 0 1
15.072391 32.294446 -27.265010 44.871918 1.134127 2.223855 0.026031 -0.018131 -1240590.000000 0 0 1
16.487691 32.252146 -27.732190 45.619286 1.098219 2.224216 0.013048 0.004138 -1308610.000000 0 0 1
17.346491 31.588946 -26.845470 44.938197 1.068620 2.211034 -0.010309 0.014153 750625.000000 0 0 1
18.716891 31.668246 -27.311570 45.816173 1.036998 2.209446 0.019400 0.011907 705527.000000 0 0 1
19.672591 30.754246 -26.523310 45.125608 1.001717 2.199091 0.012804 0.022966 -1317280.000000 0 0 1
19.961591 31.211246 -25.228610 44.822871 1.001792 2.168628 0.015737 0.019932 168692.000000 0 0 1
20.907891 32.256846 -25.096520 45.907291 0.995709 2.149188 0.021634 0.011481 -461737.000000 0 0 1
22.348591 32.054346 -25.551090 46.688316 0.961946 2.149895 0.007276 0.017606 -1062920.000000 0 0 1
22.363091 31.882146 -26.957040 47.363077 0.959111 2.176277 0.007854 0.026201 639909.000000 0 0 1
23.618591 31.404946 -27.530460 47.979524 0.925974 2.181930 0.010753 0.021557 969376.000000 0 0 1
23.433991 30.632646 -28.840960 48.159235 0.917764 2.212882 0.005141 0.015367 78239.800000 0 0 1
22.860791 31.405346 -29.882860 49.009151 0.941572 2.226529 0.015237 0.017732 -117407.000000 0 0 1
21.573291 30.935546 -30.198080 48.314997 0.961843 2.245960 0.012818 0.006234 -95999.700000 0 0 1
20.647291 31.894046 -31.014030 49.044988 0.996271 2.255391 -0.008622 0.005985 -254949.000000 0 0 1
20.023491 32.922446 -30.211750 48.965064 1.024368 2.235729 -0.006534 0.005845 105669.000000 0 0 1
19.144891 33.715946 -30.989810 49.635272 1.054368 2.245096 0.000415 -0.001140 938615.000000 0 0 1
17.624991 33.312946 -30.970240 48.780615 1.084161 2.258660 0.017559 -0.010316 334306.000000 0 0 1
17.117191 32.064246 -31.391600 48.026520 1.080444 2.283168 0.026759 -0.018770 61528.000000 0 0 1
17.507491 31.473646 -32.633890 48.601167 1.063161 2.306978 0.031319 -0.019756 -793432.000000 0 0 1
17.178191 32.241646 -33.924440 49.854605 1.081258 2.319197 0.052860 -0.025615 -462544.000000 0 0 1
17.762591 33.548146 -34.235764 51.118248 1.083855 2.304650 0.035588 -0.019964 136009.000000 0 0 1
17.406191 34.152646 33.077311 50.630892 1.099452 0.858857 0.031745 -0.023090 -83643.200000 0 0 1
15.903491 -34.158213 32.928550 50.039924 -1.135059 0.852576 0.038708 -0.025860 -1197800.000000 0 0 1
15.099291 33.373246 32.758849 49.141676 1.145918 0.841131 0.049279 -0.028941 -407284.000000 0 0 1
13.750091 33.785146 32.864440 49.097582 1.184282 0.837436 0.038871 -0.029601 -34431.900000 0 0 1
13.105691 -34.237413 31.660093 48.438839 -1.205215 0.858452 0.034042 -0.026669 -1288210.000000 0 0 1
13.785991 -33.058713 31.306923 47.571583 -1.175708 0.852502 0.037138 -0.016545 12069.900000 0 0 1
13.056591 -32.441613 30.271623 46.252611 -1.188167 0.857296 0.039948 -0.014408 -48037.300000 0 0 1
13.668591 -31.091613 29.836183 45.207484 -1.156605 0.850000 0.033883 -0.007525 -198333.000000 0 0 1
13.345091 -30.074213 30.700743 45.000949 -1.153162 0.819996 0.024178 -0.004274 325046.000000 0 0 1
13.759991 -28.721913 30.307563 43.964009 -1.124027 0.810174 0.036332 -0.015507 -308605.000000 0 0 1
13.467891 -27.625913 31.393563 43.933256 -1.117191 0.774781 0.041813 -0.013952 1526570.000000 0 0 1
12.049591 -27.281613 31.403383 43.308793 -1.154887 0.759611 0.036482 -0.010455 1596980.000000 0 0 1
11.541391 -26.417613 30.344773 41.855696 -1.158904 0.759783 0.024205 -0.011289 -113524.000000 0 0 1
11.817691 -24.930013 30.695313 41.271851 -1.128136 0.732156 0.029522 -0.011077 -11054.600000 0 0 1
10.989091 -24.533113 31.765773 41.613677 -1.149666 0.702314 0.043381 -0.012130 208553.000000 0 0 1
11.456791 -23.344113 32.372623 41.523396 -1.114553 0.676732 0.048581 -0.014575 95607.000000 0 0 1
10.557991 -23.004613 33.577116 42.048854 -1.140524 0.645953 0.054135 -0.016874 -369800.000000 0 0 1
10.622291 -23.769413 -33.782560 42.650667 -1.150532 2.484998 0.067751 -0.015093 724502.000000 0 0 1
11.871791 -23.793613 -33.065550 42.431192 -1.107990 2.464304 0.057578 -0.014521 842168.000000 0 0 1
12.346691 -22.445913 -32.419910 41.319612 -1.067904 2.472868 0.071393 -0.023009 -224902.000000 0 0 1
12.716491 -21.465613 -33.372210 41.667566 -1.035975 2.499619 0.050982 -0.020495 285489.000000 0 0 1
13.626591 -20.559113 -32.762320 41.008910 -0.985475 2.496273 0.055748 -0.027891 -96051.200000 0 0 1
13.972391 -19.247113 -33.530470 41.109263 -0.942867 2.524636 0.036666 -0.028767 -282346.000000 0 0 1
14.678091 -19.515813 33.836141 41.727662 -0.925944 0.625141 0.047347 -0.026537 318502.000000 0 0 1
14.402091 -18.588013 32.804467 40.361709 -0.911608 0.621919 0.021310 -0.023544 -235476.000000 0 0 1
15.216891 -17.279613 32.817853 40.089279 -0.848788 0.611794 0.029378 -0.022749 -640489.000000 0 0 1
14.877091 -16.421713 33.908771 40.506855 -0.834709 0.578814 0.011888 -0.013370 360999.000000 0 0 1
15.604191 -15.227013 33.881696 40.290471 -0.773165 0.571786 0.029078 -0.016057 199736.000000 0 0 1
17.123491 -15.200713 34.238570 41.189262 -0.725984 0.589444 0.039662 -0.013850 348862.000000 0 0 1
17.950791 -15.756713 33.221510 40.916667 -0.720398 0.623344 0.041336 -0.009027 794844.000000 0 0 1
19.315091 -15.578613 33.654241 41.813561 -0.678723 0.635350 0.051339 -0.004237 1011350.000000 0 0 1
20.405091 -16.113813 32.668003 41.751900 -0.668426 0.672235 0.053325 -0.007104 -176.321000 0 0 1
20.424891 -15.549413 31.390663 40.550391 -0.650692 0.685481 0.042779 -0.005086 52335.300000 0 0 1
21.321391 -16.134413 30.501913 40.562147 -0.647791 0.719736 0.038375 -0.000199 -416440.000000 0 0 1
21.590891 -15.407413 29.148373 39.410438 -0.619800 0.738305 0.040326 0.009103 -24018.600000 0 0 1
22.220691 -14.130213 29.320503 39.409567 -0.566402 0.731767 0.036539 0.007704 521578.000000 0 0 1
22.500891 -13.493713 28.053553 38.410575 -0.540197 0.751947 0.037253 0.007764 -125966.000000 0 0 1
23.166091 -12.143513 28.199283 38.462089 -0.482815 0.747823 0.025050 0.015768 32723.600000 0 0 1
22.207591 -11.170913 28.581693 37.879805 -0.466063 0.715849 0.018885 0.010420 241237.000000 0 0 1
22.777991 -9.954913 28.987093 38.186238 -0.412025 0.708870 0.030653 0.002489 376030.000000 0 0 1
21.739691 -8.785013 28.904553 37.219133 -0.384036 0.681538 0.032328 0.000889 276289.000000 0 0 1
20.764991 -8.772013 29.900963 37.445970 -0.399702 0.645981 0.034419 -0.000504 -887908.000000 0 0 1
19.816591 -7.780013 29.579393 36.444017 -0.374112 0.623844 0.024166 -0.010243 8531.860000 0 0 1
18.658191 -7.888813 30.641163 36.732035 -0.400012 0.584150 0.023742 0.003094 -24728.100000 0 0 1
18.919591 -7.444413 31.991863 37.905798 -0.374870 0.566129 0.031091 -0.004374 -172689.000000 0 0 1
19.573991 -8.454213 32.675367 39.016592 -0.407709 0.578153 0.036057 -0.018120 -766190.000000 0 0 1
19.509091 -8.221513 34.203919 40.225689 -0.398834 0.554240 0.046829 -0.024615 593489.000000 0 0 1
18.211391 -8.235913 -33.756390 39.229821 -0.424715 2.607003 0.046100 -0.034480 820294.000000 0 0 1
18.458991 -7.975213 -32.423560 38.152662 -0.407827 2.586473 0.049633 -0.041384 180743.000000 0 0 1
17.167291 -7.577413 -31.697000 36.835212 -0.415668 2.607063 0.038184 -0.033540 120388.000000 0 0 1
17.574391 -6.821113 -30.569880 35.915239 -0.370230 2.589002 0.033051 -0.026477 -301910.000000 0 0 1
16.482191 -6.240313 -29.976040 34.773080 -0.361931 2.610092 0.034149 -0.014347 -649457.000000 0 0 1
16.846791 -5.067013 -29.040860 33.953800 -0.292163 2.596936 0.026289 -0.007360 151693.000000 0 0 1
17.622791 -5.339713 -27.845570 33.383395 -0.294207 2.557322 0.026993 0.001394 493897.000000 0 0 1
17.032491 -6.152313 -26.843270 32.380825 -0.346627 2.548090 0.024226 -0.006332 180014.000000 0 0 1
15.695191 -5.792813 -26.123880 31.021812 -0.353572 2.571986 0.023614 -0.005935 385642.000000 0 0 1
15.719291 -4.656113 -25.267060 30.119758 -0.287970 2.566031 -0.002698 -0.004509 205235.000000 0 0 1
14.464391 -4.569813 -24.582810 28.886266 -0.306012 2.588722 0.036630 -0.010595 469405.000000 0 0 1
14.149491 -3.315213 -23.753510 27.846507 -0.230148 2.592533 0.037681 -0.008415 -1232.330000 0 0 1
13.976591 -2.065213 -24.474710 28.259894 -0.146701 2.618059 0.033138 -0.015902 148223.000000 0 0 1
13.401491 -1.086213 -23.637610 27.194051 -0.080875 2.624419 0.041431 -0.013497 -36330.900000 0 0 1
13.826291 0.319787 -24.036610 27.731340 0.023125 2.619479 0.040356 -0.020017 -257739.000000 0 0 1
13.264191 0.743787 -25.296440 28.572747 0.056016 2.658009 0.055685 -0.024239 158300.000000 0 0 1
13.689891 2.055787 -25.535630 29.046648 0.149054 2.644819 0.054325 -0.007379 70608.300000 0 0 1
12.875491 2.720787 -26.693790 29.761374 0.208251 2.683567 0.046681 -0.010601 287138.000000 0 0 1
11.570891 3.100787 -26.296260 28.896257 0.261830 2.714136 0.047510 -0.023079 -149797.000000 0 0 1
10.811391 3.421787 -27.411690 29.664719 0.306523 2.749340 0.044114 -0.026062 -719169.000000 0 0 1
9.618291 4.286787 -27.021030 29.000416 0.419265 2.769989 0.036859 -0.026684 -477379.000000 0 0 1
9.870391 5.652787 -26.661780 28.986706 0.520105 2.738350 0.039180 -0.026856 615892.000000 0 0 1
8.600491 6.303787 -26.498120 28.563202 0.632504 2.759004 0.044493 -0.029793 540886.000000 0 0 1
7.604991 5.490946 -30.721190 32.121300 0.625351 2.845253 0.032693 -0.009811 -230118.000000 0 0 1
7.419191 4.243546 -30.081180 31.271864 0.519553 2.864756 0.036284 -0.013544 249492.000000 0 0 1
7.948091 3.256246 -30.913270 32.084351 0.388831 2.870579 0.019418 -0.007092 -161029.000000 0 0 1
7.714591 1.936846 -30.242310 31.270811 0.245979 2.884408 0.018839 -0.014843 -430835.000000 0 0 1
8.526691 1.747246 -29.140460 30.412559 0.202117 2.851341 0.031853 -0.022593 -147731.000000 0 0 1
8.143791 0.580046 -28.436120 29.584974 0.071105 2.861999 0.031355 -0.028299 -869757.000000 0 0 1
9.055291 0.176946 -27.309900 28.772561 0.019538 2.821368 0.035302 -0.028692 453568.000000 0 0 1
10.315491 -0.228054 -27.911020 29.757123 -0.022104 2.787498 0.054802 -0.013689 529983.000000 0 0 1
11.164391 -0.702354 -26.923950 29.155377 -0.062827 2.747810 0.056469 -0.017398 -257431.000000 0 0 1
12.168091 -1.810654 -27.333100 29.973976 -0.147720 2.718673 0.042969 -0.009744 129724.000000 0 0 1
11.496391 -3.022154 -27.564440 30.018307 -0.257062 2.734446 0.048115 -0.011667 -92173.500000 0 0 1
12.350891 -4.062954 -27.967810 30.842349 -0.317810 2.706424 0.050726 -0.014030 -185697.000000 0 0 1
11.860291 -5.482554 -27.650750 30.582493 -0.433004 2.700151 0.053559 -0.006744 -84871.000000 0 0 1
11.714691 -5.652254 -26.274020 29.317334 -0.449544 2.681912 0.047936 -0.005680 53239.500000 0 0 1
11.221791 -6.954354 -25.975600 29.138007 -0.554793 2.671371 0.049401 -0.010498 27798.500000 0 0 1
10.886191 -7.049654 -24.450810 27.677588 -0.574670 2.653898 0.056527 -0.011921 -111377.000000 0 0 1
12.026191 -6.772854 -23.682410 27.410899 -0.512902 2.613913 0.023718 -0.005114 -98260.300000 0 0 1
11.669591 -6.749854 -22.273010 26.035108 -0.524396 2.597310 0.039763 -0.008042 192707.000000 0 0 1
12.803291 -6.531554 -21.246010 25.651090 -0.471732 2.546808 0.036616 -0.007190 228767.000000 0 0 1
13.318191 -5.233754 -20.942410 25.364363 -0.374438 2.542172 0.024103 -0.009048 -175741.000000 0 0 1
14.308691 -5.295654 -19.961010 25.124182 -0.354468 2.488970 0.016005 -0.007381 -276604.000000 0 0 1
14.825291 -3.944454 -19.448110 24.770485 -0.260038 2.473706 0.029544 -0.007405 -175042.000000 0 1 0
15.758391 -3.242254 -20.254110 25.866350 -0.202916 2.470318 0.026993 -0.003852 158318.000000 0 0 1
16.133191 -2.091054 -19.565010 25.444881 -0.128893 2.447942 0.028691 -0.012742 -62195.400000 0 0 1
17.244291 -1.332254 -20.357110 26.712402 -0.077105 2.437323 0.004910 -0.003489 98061.800000 0 0 1
18.371991 -2.166454 -20.452410 27.577611 -0.117379 2.406295 0.013060 -0.002757 -129454.000000 0 0 1
19.299791 -1.634954 -21.396910 28.861441 -0.084512 2.405901 0.017842 -0.002250 -150874.000000 0 0 1
20.514291 -2.520654 -21.659810 29.938891 -0.122260 2.379608 0.016211 -0.004844 -1549750.000000 0 0 1
21.445491 -2.485754 -20.605310 29.844042 -0.115395 2.332884 0.021119 -0.011259 313462.000000 0 0 1
22.709991 -3.015454 -20.977110 31.062450 -0.132009 2.312196 0.028667 -0.012991 676442.000000 0 0 1
23.598391 -2.177454 -21.993610 32.331784 -0.092011 2.318896 0.040830 -0.016236 -1182150.000000 0 0 1
23.065491 -2.032054 -23.280910 32.835147 -0.087872 2.358910 0.039057 -0.013224 176571.000000 0 0 1
23.947691 -1.469754 -24.236010 34.103317 -0.061297 2.361238 0.043428 -0.007031 495025.000000 0 0 1
25.192091 -2.268154 -24.753210 35.390781 -0.089792 2.345389 0.052689 -0.015501 -181749.000000 0 0 1
26.187691 -2.506154 -23.778510 35.461155 -0.095409 2.305747 0.054657 -0.015922 278098.000000 0 0 1
27.315091 -3.209854 -24.281110 36.687732 -0.116976 2.294056 0.044449 -0.011578 445668.000000 0 0 1
28.418291 -2.362054 -24.914110 37.866759 -0.082927 2.288878 0.043231 -0.017154 -693649.000000 0 0 1
27.931491 -1.962554 -26.219870 38.360154 -0.070148 2.323368 0.042532 -0.017060 321627.000000 0 0 1
28.670791 -0.921754 -26.805410 39.260589 -0.032139 2.322325 0.041176 -0.020384 -666956.000000 0 0 1
28.150291 -0.613154 -28.211780 39.858743 -0.021778 2.357167 0.043269 -0.024617 44420.300000 0 0 1
26.820591 -0.146754 -28.291480 38.984272 -0.005472 2.382870 0.033672 -0.017451 17539.700000 0 0 1
26.612391 1.171846 -27.918480 38.588005 0.044005 2.379658 0.024660 -0.014242 355592.000000 0 0 1
25.080991 1.532046 -28.077890 37.679851 0.061008 2.411586 0.007715 -0.008892 1237440.000000 0 0 1
24.256491 1.126246 -26.981390 36.299328 0.046397 2.408790 0.010663 -0.008345 743491.000000 0 0 1
22.882891 1.376046 -27.271490 35.626596 0.060062 2.442585 0.000102 0.000681 66562.000000 0 0 1
21.843391 0.935646 -26.265690 34.174488 0.042808 2.447409 0.002189 0.005851 -374559.000000 0 0 1
21.771391 1.929246 -25.233620 33.383395 0.088383 2.427783 0.008557 0.001571 439003.000000 0 0 1
20.907991 1.546846 -24.170010 31.995722 0.073849 2.427082 0.010782 -0.005196 -8765.200000 0 0 1
21.299491 2.169646 -22.815310 31.287602 0.101514 2.387967 0.018398 -0.013313 -215044.000000 0 0 1
21.325191 3.602546 -22.713510 31.363125 0.167354 2.380685 0.025452 -0.020320 452382.000000 0 0 1
21.698891 3.918646 -21.401710 30.728339 0.178666 2.341278 0.020626 -0.015800 -743577.000000 0 0 1
21.237991 5.289746 -20.934410 30.286683 0.244103 2.333956 0.033468 -0.012423 15784.800000 0 0 1
22.077491 6.359646 -21.396210 31.395199 0.280467 2.320623 0.025969 -0.015294 663839.000000 0 0 1
21.698791 7.596846 -20.809110 31.009170 0.336768 2.306438 0.025678 -0.016331 -351084.000000 0 0 1
22.142391 7.883046 -19.334410 30.434311 0.342024 2.259172 0.029501 -0.017169 -1392250.000000 0 0 1
23.494891 8.147946 -19.265010 31.456947 0.333818 2.229920 0.023068 -0.013889 -785275.000000 0 0 1
23.986491 8.426346 -17.957710 31.126105 0.337828 2.185766 0.040960 -0.019498 33297.800000 0 0 1
23.810591 9.908946 -17.518710 31.177502 0.394357 2.167480 0.039999 -0.024101 -88287.200000 0 0 1
22.440791 10.206146 -17.327710 30.133105 0.426841 2.183448 0.049498 -0.027627 -164243.000000 0 0 1
22.319591 11.563746 -17.051610 30.375019 0.478021 2.166836 0.057084 -0.020367 79423.900000 0 0 1
20.844391 12.035646 -16.745410 29.321565 0.523639 2.178636 0.044076 -0.021127 1491580.000000 0 0 1
19.935091 11.806846 -17.873510 29.262123 0.534712 2.227876 0.044301 -0.023106 671912.000000 0 0 1
19.489591 10.448546 -17.857910 28.423955 0.492116 2.250124 0.046491 -0.025560 -941447.000000 0 0 1
18.539291 10.205846 -19.068410 28.486292 0.503226 2.304182 0.064026 -0.015708 54992.800000 0 0 1
19.221691 10.227346 -20.305410 29.772163 0.488976 2.321327 0.064722 -0.017726 122632.000000 0 0 1
18.486791 9.671246 -21.382210 29.874627 0.481991 2.368467 0.054180 -0.025957 -154749.000000 0 0 1
19.186291 9.859146 -22.753610 31.353521 0.474677 2.382864 0.067851 -0.031411 -59786.800000 0 0 1
19.124691 11.163746 -23.245810 32.105307 0.528374 2.380451 0.064707 -0.033650 333042.000000 0 0 1
19.910791 11.333346 -24.399510 33.469694 0.517469 2.387661 0.061868 -0.037886 -38738.700000 0 0 1
19.789091 12.796446 -24.902510 34.285451 0.574011 2.383762 0.065090 -0.027723 480625.000000 0 0 1
20.776491 13.086946 -25.914700 35.700174 0.562109 2.383136 0.048635 -0.027015 649220.000000 0 0 1
20.989291 14.469746 -26.092540 36.479371 0.603568 2.367804 0.043974 -0.023752 -679628.000000 0 0 1
19.925991 15.238246 -26.861170 36.752846 0.652870 2.390377 0.047590 -0.024398 -891400.000000 0 0 1
18.737991 15.191746 -26.155800 35.581278 0.681259 2.396611 0.047101 -0.018900 -778240.000000 0 0 1
17.631291 15.695546 -26.894380 35.784358 0.727380 2.421232 0.044461 -0.030095 775493.000000 0 0 1
16.248391 15.139346 -26.438570 34.528365 0.750079 2.442934 0.046204 -0.032141 273088.000000 0 0 1
16.084091 13.711746 -26.579980 33.958877 0.705946 2.469806 0.046355 -0.027192 614655.000000 0 0 1
14.755691 13.375846 -26.169860 32.886247 0.736388 2.491073 0.049593 -0.027733 453461.000000 0 0 1
14.520091 11.846646 -26.121180 32.147972 0.684349 2.519275 0.050288 -0.033439 179773.000000 0 0 1
13.143591 11.632146 -25.854840 31.249537 0.724469 2.545200 0.042785 -0.027028 215016.000000 0 0 1
12.949191 10.246146 -25.536690 30.410320 0.669387 2.567596 0.061888 -0.026312 256756.000000 0 0 1
11.449691 9.843446 -25.541340 29.670674 0.710106 2.607690 0.047780 -0.026578 25526.800000 0 0 1
10.735191 10.345446 -24.466310 28.650880 0.766912 2.594319 0.048237 -0.030473 -553259.000000 0 0 1
9.622791 9.580746 -24.126510 27.685326 0.783209 2.628957 0.044029 -0.028216 -724825.000000 0 0 1
8.761591 10.150046 -23.023110 26.643057 0.858685 2.614219 0.039276 -0.030168 -300217.000000 0 0 1
8.005691 11.261546 -23.487310 27.250087 0.952801 2.609834 0.036267 -0.028703 -158841.000000 0 0 1
7.360591 12.085946 -22.542610 26.616116 1.023770 2.581025 0.040105 -0.018077 227017.000000 0 0 1
8.253891 13.059646 -21.708710 26.644871 1.007168 2.523081 0.050366 -0.022270 -194049.000000 0 0 1
9.121191 12.411946 -20.857510 25.928522 0.937048 2.505501 0.053996 -0.023389 -589523.000000 0 0 1
10.040991 13.311546 -20.250610 26.231774 0.924545 2.452759 0.060672 -0.019549 39052.900000 0 0 1
11.154991 12.615946 -19.389010 25.681309 0.846781 2.426428 0.074313 -0.023040 695724.000000 0 0 1
12.164791 11.919146 -20.119410 26.359796 0.775199 2.439142 0.078751 -0.028082 505526.000000 0 0 1
11.635691 10.721946 -20.670210 26.030886 0.744551 2.488264 0.075688 -0.034415 -490864.000000 0 0 1
12.679891 9.885246 -21.446810 26.804167 0.662178 2.498308 0.073162 -0.038531 -340391.000000 0 0 1
13.544691 9.071646 -20.750610 26.388278 0.590139 2.475686 0.093276 -0.040367 -267749.000000 0 0 1
14.472691 8.571546 -21.685410 27.444256 0.534706 2.481870 0.091807 -0.034371 -122234.000000 0 0 1
15.224791 7.325446 -21.187410 27.099128 0.448456 2.468421 0.105865 -0.035449 183974.000000 0 0 1
15.965591 7.384146 -19.955910 26.601956 0.433203 2.419111 0.095236 -0.034107 442353.000000 0 0 1
16.588291 6.145646 -19.748210 26.512868 0.354803 2.411112 0.084570 -0.025826 131313.000000 0 0 1
17.459291 6.007546 -18.462910 26.111233 0.331399 2.356166 0.082229 -0.028623 -545148.000000 0 0 1
18.761491 6.511546 -18.510410 27.148279 0.334062 2.321053 0.058490 -0.037800 -24215.100000 0 0 1
19.486691 6.479446 -17.296810 26.849469 0.321006 2.270792 0.056686 -0.038685 -158638.000000 0 0 1
20.006091 5.138746 -16.813910 26.633775 0.251424 2.254025 0.051600 -0.041709 -747632.000000 0 0 1
21.286691 4.850946 -17.329510 27.874124 0.224060 2.241715 0.037720 -0.031609 88297.900000 0 0 1
22.087791 4.223546 -16.362310 27.810682 0.188936 2.199808 0.047918 -0.034218 283578.000000 0 0 1
23.462091 3.758646 -16.954110 29.189707 0.158851 2.190538 0.018136 -0.009021 73784.000000 0 0 1
24.120291 2.850546 -16.131510 29.157155 0.117635 2.157070 0.012422 -0.012091 200816.000000 0 0 1
25.294291 2.379046 -16.776510 30.445234 0.093779 2.154405 0.015506 -0.013929 246141.000000 0 0 1
25.991291 1.246046 -16.024510 30.559528 0.047904 2.122772 0.035865 -0.024610 -14871.200000 0 0 1
25.287891 0.036846 -16.311710 30.092369 0.001457 2.143677 0.039683 -0.022366 833342.000000 0 0 1
26.196991 -1.087654 -16.206810 30.824114 -0.041494 2.124432 0.045815 -0.016710 274553.000000 0 0 1
25.604791 -2.512654 -16.453810 30.539263 -0.097819 2.139779 0.035317 -0.018976 -242447.000000 0 0 1
24.986491 -3.061254 -15.301810 29.459148 -0.121909 2.116974 0.034452 -0.018160 375796.000000 0 0 1
24.831291 -4.480554 -15.474110 29.599264 -0.178519 2.120913 0.033658 -0.013747 -859652.000000 0 0 1
24.316491 -5.269354 -14.201510 28.648572 -0.213399 2.089454 0.028517 -0.014103 522911.000000 0 0 1
22.982191 -5.124354 -13.717910 27.251076 -0.219382 2.098314 0.027761 -0.007678 344614.000000 0 0 1
22.035091 -5.605654 -14.651710 27.048867 -0.249112 2.143225 0.031624 -0.006130 -1319220.000000 0 0 1
20.606491 -5.463754 -14.135110 25.578925 -0.259183 2.156286 0.039693 -0.015609 -861586.000000 0 0 1
20.209691 -6.366454 -13.144510 24.934745 -0.305179 2.126047 0.037983 -0.012302 311876.000000 0 1 0
20.729291 -6.110954 -11.864710 24.653977 -0.286678 2.072876 0.050928 -0.009346 -574191.000000 0 1 0
20.488291 -7.411454 -10.972710 24.394673 -0.347096 2.037337 0.050463 -0.005833 188660.000000 0 1 0
19.132591 -7.842054 -10.904010 23.376297 -0.388994 2.056076 0.056767 -0.006046 871500.000000 0 1 0
18.897491 -8.951754 -11.769910 23.995413 -0.442388 2.083467 0.045880 -0.013131 -1511610.000000 0 1 0
17.538991 -9.529854 -11.506910 23.040037 -0.497725 2.093738 0.070454 -0.017886 -975268.000000 0 1 0
16.555591 -8.514554 -11.695810 21.985841 -0.475023 2.131722 0.059219 -0.018102 -88091.500000 0 1 0
15.318991 -9.086854 -12.074210 21.518107 -0.535387 2.166533 0.059601 -0.016882 328887.000000 0 1 0
14.202491 -8.013254 -12.289910 20.419718 -0.513691 2.216631 0.047997 -0.017139 -75667.200000 0 1 0
14.359391 -7.171754 -13.423310 20.923943 -0.463205 2.267286 0.041888 -0.018363 391949.000000 0 1 0
15.355991 -6.164454 -13.305910 21.233327 -0.381744 2.248046 0.035371 -0.019188 48467.000000 0 1 0
15.189291 -5.019154 -14.333710 21.479332 -0.319145 2.301408 0.028268 -0.017999 151565.000000 0 1 0
14.085891 -4.195654 -13.977910 20.282944 -0.289494 2.331106 0.035568 -0.023697 162460.000000 0 1 0
13.642291 -3.383754 -15.027310 20.576247 -0.243128 2.389591 0.026724 -0.026809 -368606.000000 0 1 0
14.522291 -2.165554 -15.430110 21.299644 -0.148029 2.381004 0.033005 -0.024014 100893.000000 0 1 0
15.683491 -2.538554 -16.176110 22.673391 -0.160470 2.365192 0.024712 -0.020077 403089.000000 0 1 0
16.693891 -1.550754 -16.093810 23.240085 -0.092628 2.335748 0.032294 -0.021561 977605.000000 0 1 0
17.898791 -1.958854 -15.143210 23.527019 -0.109007 2.270057 0.032915 -0.019850 230435.000000 0 1 0
17.550391 -1.921854 -13.771010 22.390857 -0.109070 2.233218 0.027300 -0.013643 -498924.000000 0 1 0
18.629791 -2.311954 -13.012410 22.841564 -0.123469 2.176914 0.024254 -0.011949 -799779.000000 0 1 0
18.328491 -2.679454 -11.547010 21.827654 -0.145162 2.128228 0.029733 -0.007013 -578311.000000 0 1 0
18.048891 -1.494654 -10.888510 21.131874 -0.082623 2.112113 0.027560 -0.008314 605264.000000 0 1 0
17.440091 -1.776554 -9.633910 20.003128 -0.101516 2.073299 0.024718 -0.009105 -1407860.000000 0 1 0
17.326491 -0.543454 -8.634510 19.366399 -0.031355 2.032920 0.015891 -0.008835 230681.000000 0 1 0
18.583091 -0.146654 -8.061510 20.256868 -0.007892 1.980093 0.012389 -0.004253 1177220.000000 0 1 0
19.634791 0.306646 -8.871310 21.548067 0.015616 1.995114 0.009442 -0.002666 -483614.000000 0 1 0
19.375191 1.732446 -9.519310 21.656792 0.089179 2.025897 0.013673 -0.008468 -689766.000000 0 1 0
19.311391 2.819746 -8.676610 21.358004 0.144990 1.989139 0.014882 -0.002441 564881.000000 0 1 0
18.730591 3.820246 -9.485810 21.340335 0.201198 2.031414 0.014976 -0.007089 -181903.000000 0 1 0
18.998091 5.283146 -9.007310 21.678808 0.271235 1.999277 0.058055 0.002123 -122843.000000 0 1 0
18.318391 6.106246 -9.963610 21.728396 0.321756 2.047162 0.062584 0.002419 674930.000000 0 1 0
18.325891 7.504846 -9.613010 22.012972 0.388688 2.022721 0.053590 0.005633 -85744.700000 0 1 0
-26.209249 -29.955264 6.045190 40.258998 0.851997 1.420069 0.056691 -0.009931 -140184.000000 0 0 1
-26.400299 -28.676114 6.631390 39.538217 0.826696 1.402279 0.029679 -0.006206 -189562.000000 0 0 1
-25.434499 -27.713894 6.234790 38.129336 0.828259 1.406542 0.066076 -0.013148 -525185.000000 0 0 1
-25.471589 -26.407694 7.077290 37.366512 0.803440 1.380243 0.035674 0.000708 -675650.000000 0 0 1
-26.600479 -25.582114 6.981690 37.560272 0.765885 1.383829 0.016886 -0.006180 -569187.000000 0 0 1
-27.814819 -26.066034 7.495890 38.849590 0.752953 1.376632 0.030532 -0.005089 -371893.000000 0 0 1
-27.881649 -26.115194 9.055390 39.260537 0.752696 1.338052 0.019069 -0.001837 -310604.000000 0 0 1
-26.933189 -26.958804 9.697290 39.321892 0.785873 1.321613 0.019925 -0.005503 226899.000000 0 0 1
-27.372959 -27.057704 11.041890 40.041498 0.779606 1.291415 0.020751 -0.007290 -181852.000000 0 0 1
-26.444519 -27.942804 11.878190 40.264181 0.812940 1.271334 0.026611 -0.015455 522396.000000 0 0 1
-25.234449 -27.373384 12.373790 39.232515 0.826034 1.249922 0.024821 -0.016173 332000.000000 0 0 1
-25.427109 -26.471364 13.438690 39.087970 0.805517 1.219829 0.025523 -0.003080 -705410.000000 0 0 1
-24.141609 -26.128234 14.209690 38.306882 0.824897 1.190771 0.033033 -0.004087 247075.000000 0 0 1
-23.516509 -27.234694 14.932690 38.958183 0.858530 1.177429 0.037843 -0.011406 -228424.000000 0 0 1
-22.244709 -26.811564 15.341290 38.066287 0.878225 1.155987 0.045916 -0.012646 -450732.000000 0 0 1
-21.433509 -28.034024 15.842590 38.681901 0.918046 1.148824 0.051217 -0.027673 -240664.000000 0 0 1
-21.886309 -28.583154 17.066890 39.840757 0.917319 1.128100 0.062208 -0.024052 303754.000000 0 0 1
-21.222209 -29.831644 17.341290 40.509622 0.952461 1.128431 0.060015 -0.017311 66522.300000 0 0 1
-22.018909 -30.731964 18.299690 42.001960 0.949094 1.119995 0.069449 -0.026553 -34308.500000 0 0 1
-23.296709 -31.129624 17.832090 42.775853 0.928334 1.140794 0.056818 -0.015832 70521.700000 0 0 1
-23.739109 -32.193324 18.608890 44.116280 0.935413 1.135351 0.059813 -0.010631 -91058.100000 0 0 1
-24.942709 -32.825334 17.853790 44.926597 0.921014 1.162116 0.051133 -0.011867 53523.300000 0 0 1
-24.570609 -33.515934 16.654990 44.770764 0.938198 1.189627 0.057622 -0.012905 -350047.000000 0 0 1
-25.503779 34.217309 16.324090 45.691825 -0.930280 1.205458 0.051982 -0.009664 -1097650.000000 0 0 1
-25.194439 33.520836 14.920190 44.508631 -0.926269 1.228957 0.048218 -0.016424 1105340.000000 0 0 1
-23.991609 32.713398 14.896490 43.216537 -0.938012 1.218883 0.041391 -0.016980 1110540.000000 0 0 1
-22.768909 33.425273 14.888790 43.096962 -0.972807 1.218055 0.042375 -0.017354 347672.000000 0 0 1
-21.486009 32.517746 14.700590 41.655248 -0.986903 1.210116 0.051492 -0.022738 825951.000000 0 0 1
-21.487009 31.908026 13.413790 40.739949 -0.978144 1.235283 0.041195 -0.018353 210386.000000 0 0 1
-20.604509 30.790356 13.422190 39.404911 -0.981051 1.223218 0.033202 -0.015765 227475.000000 0 0 1
-20.498709 30.075466 12.057690 38.342126 -0.972543 1.250891 0.031560 -0.012845 -128667.000000 0 0 1
-19.626509 30.657716 11.153390 38.072214 -1.001354 1.273482 0.016537 -0.011435 -289646.000000 0 0 1
-19.765609 30.053606 9.883990 37.304045 -0.989042 1.302636 0.016873 -0.013491 -78074.900000 0 0 1
-19.330109 30.928926 8.705590 37.497185 -1.012208 1.336492 0.004573 -0.009532 -1763950.000000 0 0 1
-17.980909 31.148346 8.742990 37.013138 -1.047260 1.332329 0.012609 -0.015782 -1564380.000000 0 0 1
-17.468109 31.716416 7.526490 36.982616 -1.067370 1.365850 0.016142 -0.013228 167609.000000 0 0 1
-16.915909 30.634546 6.539090 35.600324 -1.066278 1.386067 0.011071 -0.013585 42681.500000 0 0 1
-17.860609 29.628966 6.120690 35.133172 -1.028314 1.395689 0.007398 -0.007130 271409.000000 0 0 1
-17.498909 28.337376 6.604890 33.953545 -1.017594 1.375021 0.013163 -0.006326 -449582.000000 0 0 1
-18.580509 27.305526 6.292990 33.621850 -0.973300 1.382516 0.019225 -0.000398 -394359.000000 0 0 1
-18.520209 27.011496 4.925090 33.119112 -0.969772 1.421534 0.019435 -0.004421 214423.000000 0 0 1
-19.531309 26.170216 4.386490 32.948346 -0.929656 1.437268 0.036281 -0.008035 -370494.000000 0 0 1
-19.096109 25.325186 3.161490 31.875091 -0.924717 1.471449 0.046426 -0.014179 -1228700.000000 0 0 1
-18.809709 26.013116 1.961790 32.161094 -0.944744 1.509760 0.050645 -0.021815 896152.000000 0 0 1
-17.544609 26.699096 1.844290 32.000882 -0.989430 1.513132 0.035457 -0.021654 980643.000000 0 0 1
-16.263109 25.788196 1.980690 30.552297 -1.008150 1.505921 0.022125 -0.017189 -427480.000000 0 0 1
-16.037709 24.686556 1.125390 29.460153 -0.994665 1.532587 0.035188 -0.018604 71346.600000 0 0 1
-15.830809 24.959806 -0.196110 29.557484 -1.005571 1.577431 0.039989 -0.023256 -248465.000000 0 0 1
-15.453609 23.721896 -1.015710 28.329738 -0.993403 1.606657 0.042882 -0.029989 693360.000000 0 0 1
-16.570709 22.830906 -1.303210 28.240698 -0.942963 1.616959 0.058705 -0.038303 857423.000000 0 0 1
-16.337009 21.710706 -2.183310 27.258383 -0.925706 1.650979 0.060166 -0.034022 -646469.000000 0 0 1
-15.399409 20.619806 -1.694910 25.791295 -0.929330 1.636560 0.051828 -0.029952 -293616.000000 0 0 1
-15.876809 19.847006 -0.558310 25.422203 -0.896080 1.592760 0.066092 -0.033707 151950.000000 0 0 1
-14.965809 18.933906 -0.035610 24.134405 -0.901922 1.572272 0.069234 -0.029333 -200397.000000 0 1 0
-15.801209 17.953706 0.852590 23.932001 -0.849080 1.535163 0.070195 -0.014649 685812.000000 0 1 0
-16.515509 16.907406 0.185290 23.635920 -0.797123 1.562957 0.066602 -0.010854 279072.000000 0 1 0
-17.158309 16.142306 1.177090 23.587436 -0.754898 1.520872 0.069104 -0.022709 -124709.000000 0 1 0
-17.868309 14.963706 0.492490 23.311617 -0.697159 1.549668 0.083562 -0.018284 -313795.000000 0 1 0
-18.883209 15.312306 -0.423410 24.315048 -0.681349 1.588211 0.087190 -0.014994 -68594.400000 0 1 0
-19.566909 14.153306 -0.777410 24.161630 -0.626212 1.602977 0.099306 -0.005419 1060710.000000 0 1 0
-20.838309 14.403706 -1.734810 25.391168 -0.604804 1.639173 0.120374 0.001973 1170440.000000 0 0 1
-21.637009 13.270306 -2.232910 25.480327 -0.550153 1.658542 0.107200 -0.006228 1724680.000000 0 0 1
-22.677209 12.747806 -1.388210 26.051670 -0.512117 1.624108 0.099403 -0.009784 322737.000000 0 0 1
-23.906509 13.605706 -1.074410 27.528000 -0.517405 1.609836 0.080890 -0.007042 -704126.000000 0 0 1
-23.537509 14.604206 -0.170310 27.700653 -0.555332 1.576945 0.072415 -0.016700 658637.000000 0 0 1
-24.487309 15.687406 -0.157410 29.081743 -0.569763 1.576209 0.068736 -0.011491 269934.000000 0 0 1
-24.122909 16.884706 0.775290 29.455205 -0.610689 1.544472 0.063609 -0.018408 44832.800000 0 0 1
-23.897509 16.539106 2.100890 29.138406 -0.605394 1.498633 0.066475 -0.027088 288198.000000 0 0 1
-23.305209 17.519906 2.899890 29.299987 -0.644626 1.471662 0.050064 -0.026430 76159.200000 0 0 1
-24.357909 18.515706 3.453290 30.790653 -0.649967 1.458406 0.053958 -0.030252 249164.000000 0 0 1
-25.314139 17.899106 4.347790 31.306340 -0.615461 1.431467 0.058721 -0.028634 1411290.000000 0 0 1
-26.597539 18.537206 4.425690 32.720694 -0.608677 1.435124 0.058658 -0.040397 687114.000000 0 0 1
-27.563249 18.365306 3.237290 33.279080 -0.587747 1.473365 0.068316 -0.029097 -971502.000000 0 0 1
-28.741769 19.122106 3.298790 34.678902 -0.587061 1.475528 0.076691 -0.025315 252650.000000 0 0 1
-29.457279 18.763606 2.081490 34.987666 -0.567166 1.511269 0.080665 -0.020705 631406.000000 0 0 1
-30.804769 19.438206 1.673090 36.463363 -0.562911 1.524896 0.086472 -0.027258 1057460.000000 0 0 1
-31.973809 18.962106 2.355790 37.248297 -0.535294 1.507509 0.084663 -0.019224 933674.000000 0 0 1
-33.119309 19.793306 2.204890 38.646153 -0.538680 1.513712 0.076337 -0.022984 420803.000000 0 0 1
-33.563949 20.403406 3.582490 39.442006 -0.546205 1.479842 0.064315 -0.018577 -255779.000000 0 0 1
-32.607519 21.333406 4.061090 39.177250 -0.579356 1.466950 0.078837 -0.027100 319248.000000 0 0 1
-32.772999 21.749006 5.425690 39.705501 -0.585894 1.433719 0.071379 -0.021297 -9743.610000 0 0 1
-31.611129 22.694806 5.884090 39.356578 -0.622663 1.420727 0.073151 -0.021617 -10934.900000 0 0 1
-31.544899 23.996966 5.357190 39.995431 -0.650329 1.436447 0.069143 -0.019588 338679.000000 0 0 1
-30.727829 24.890406 6.098690 40.011571 -0.680826 1.417777 0.058579 -0.019419 -213122.000000 0 0 1
-30.905059 26.355586 5.648990 41.007934 -0.706113 1.432603 0.054132 -0.016352 -556029.000000 0 0 1
-32.104259 26.838676 6.178790 42.298645 -0.696301 1.424196 0.053686 -0.009879 -59815.900000 0 0 1
-32.249789 28.217946 6.045090 43.276373 -0.718819 1.430652 0.047267 -0.005179 -318313.000000 0 0 1
-33.311839 28.715016 6.999190 44.533352 -0.711423 1.412975 0.043395 -0.004234 -474338.000000 0 0 1
-32.740869 28.771646 8.326590 44.374590 -0.720960 1.382034 0.055655 -0.007683 616481.000000 0 0 1
-33.531259 29.502836 9.279090 45.616490 -0.721576 1.365951 0.064009 -0.005462 -770290.000000 0 0 1
-34.730640 28.712876 9.778590 46.111467 -0.690829 1.357110 0.059688 -0.006394 -908578.000000 0 0 1
-34.521703 27.593916 10.592290 45.446328 -0.674327 1.335560 0.064382 -0.009461 -222090.000000 0 0 1
-35.678734 27.083016 11.204390 46.173587 -0.649287 1.325692 0.059516 -0.013498 -148654.000000 0 0 1
-35.368684 25.831056 12.032590 45.419935 -0.630798 1.302677 0.054658 -0.007843 -99602.600000 0 0 1
-34.453044 26.182066 13.046490 45.196501 -0.649829 1.277968 0.055084 -0.014104 -46023.200000 0 0 1
-34.265068 25.138576 13.918890 44.718882 -0.632955 1.254285 0.058992 -0.008745 134325.000000 0 0 1
-32.960829 25.448746 14.705490 44.162273 -0.657490 1.231326 0.056253 -0.005591 126989.000000 0 0 1
-33.085639 26.510206 15.581490 45.168942 -0.675509 1.218600 0.054038 -0.012235 191360.000000 0 0 1
-31.925249 26.619276 16.384590 44.679550 -0.695014 1.195322 0.077552 -0.013591 3288.170000 0 0 1
-32.126589 27.752476 17.419190 45.888406 -0.712479 1.181434 0.069494 -0.021449 -281302.000000 0 0 1
-32.195869 28.970286 16.788290 46.451029 -0.732712 1.201007 0.085301 -0.021969 46478.400000 0 0 1
-32.512989 30.055636 17.592890 47.643945 -0.746144 1.192586 0.074833 -0.019862 -116942.000000 0 0 1
-32.060949 31.368346 16.956690 47.952131 -0.774479 1.209361 0.071149 -0.015580 256085.000000 0 0 1
-30.658029 31.433256 16.754290 46.996495 -0.797883 1.206276 0.065236 -0.012931 34203.500000 0 0 1
-30.278829 32.604806 16.082690 47.313146 -0.822370 1.223964 0.072401 -0.003231 -502267.000000 0 0 1
-28.916749 32.515086 15.396290 46.156851 -0.843906 1.230714 0.079791 -0.008475 -537654.000000 0 0 1
-28.822529 31.620736 14.301790 45.112640 -0.831660 1.248206 0.065376 -0.007182 -4987.520000 0 0 1
-28.626139 30.259136 14.626690 44.147607 -0.813123 1.233101 0.063800 -0.013575 482868.000000 0 0 1
-29.834339 29.274936 14.329190 44.186370 -0.775935 1.240535 0.073219 -0.011482 728180.000000 0 0 1
-29.994609 29.188036 12.973190 43.816911 -0.771770 1.270213 0.067065 -0.016231 -497178.000000 0 0 1
-30.986049 28.309396 12.544590 43.805523 -0.740288 1.280360 0.084898 -0.011538 -174401.000000 0 0 1
-30.960489 28.082516 11.004990 43.223713 -0.736693 1.313357 0.072741 -0.008072 -240710.000000 0 0 1
-29.778319 27.435416 10.571790 41.847498 -0.744471 1.315402 0.053604 -0.001304 -68753.100000 0 0 1
-29.519519 27.803816 9.229490 41.588913 -0.755477 1.347011 0.046228 -0.012907 -228376.000000 0 0 1
-28.406979 27.045896 8.515290 40.136605 -0.760858 1.357014 0.042527 -0.016276 -72494.700000 0 0 1
-28.109549 27.600226 7.208590 40.048508 -0.776256 1.389813 0.041079 -0.018891 161698.000000 0 0 1
-27.152129 26.766796 6.533190 38.683097 -0.778252 1.401093 0.037867 -0.016574 -33617.600000 0 0 1
-26.937009 27.252056 5.125990 38.659446 -0.791212 1.437811 0.044328 -0.025405 -217933.000000 0 0 1
-26.094419 28.384966 5.002190 38.879903 -0.827418 1.441781 0.033041 -0.018221 265468.000000 0 0 1
-25.725119 28.451486 3.636990 38.529164 -0.835679 1.476260 0.034596 -0.016668 -308148.000000 0 0 1
-24.582109 29.400286 3.235290 38.459381 -0.874417 1.486575 0.032683 -0.018232 178987.000000 0 0 1
-23.272209 28.908026 3.529990 37.279089 -0.892988 1.475963 0.029636 -0.019480 113904.000000 0 0 1
-22.413309 29.910346 3.042890 37.499925 -0.927712 1.489563 0.028739 -0.011564 -1223370.000000 0 0 1
-20.950309 29.644916 3.258990 36.446639 -0.955582 1.481259 0.022853 -0.012625 -1137570.000000 0 0 1
-20.144809 30.673206 2.756390 36.800225 -0.989686 1.495825 0.019054 -0.010778 444106.000000 0 0 1
-18.764509 30.317006 3.019790 35.781933 -1.016564 1.486302 0.020554 -0.019991 1403970.000000 0 0 1
-17.735309 31.351506 2.461590 36.104259 -1.055985 1.502563 0.017881 -0.017702 304611.000000 0 0 1
-17.709509 32.574676 3.224790 37.217408 -1.072835 1.484040 0.021959 -0.017774 -370956.000000 0 0 1
-16.464109 33.174405 3.034790 37.159359 -1.110122 1.489036 0.048740 -0.017790 -370109.000000 0 0 1
-16.261809 -34.166987 3.851490 38.035029 1.126572 1.469361 0.045073 -0.019147 -114699.000000 0 0 1
-16.901909 -33.025254 3.294490 37.245075 1.097763 1.482226 0.050927 -0.021243 175458.000000 0 0 1
-16.715809 -31.935994 4.180190 36.287739 1.088592 1.455344 0.052369 -0.018775 -253156.000000 0 0 1
-17.992209 -31.092214 4.299290 36.179127 1.046206 1.451681 0.038878 -0.013928 -134334.000000 0 0 1
-18.212609 -30.198274 3.206590 35.410692 1.028100 1.480118 0.052054 -0.021027 1260.320000 0 0 1
-19.441009 -29.543214 3.429190 35.531868 0.988781 1.474136 0.054965 -0.020717 -147617.000000 0 0 1
-19.812509 -28.488024 2.369090 34.780966 0.963118 1.502629 0.054271 -0.024222 244501.000000 0 0 1
-18.909109 -27.385404 2.352190 33.362367 0.966487 1.500233 0.054805 -0.023970 235468.000000 0 0 1
-19.323609 -26.410594 1.425690 32.755976 0.939136 1.527258 0.054920 -0.024804 30736.800000 0 0 1
-18.329009 -25.249764 1.449090 31.234644 0.942893 1.524386 0.046321 -0.020056 -650092.000000 0 0 1
-17.035809 -25.545804 1.073790 30.723931 0.982651 1.535840 0.048656 -0.025822 -640785.000000 0 0 1
-16.140409 -24.408954 1.147490 29.285262 0.986553 1.531603 0.041870 -0.022413 383577.000000 0 0 1
-14.760009 -24.617554 0.532490 28.708281 1.030691 1.552247 0.035066 -0.023532 -474444.000000 0 0 1
-14.712509 -24.733454 -0.878510 28.791899 1.034178 1.601313 0.031582 -0.018008 34661.800000 0 0 1
-14.800709 -23.500854 -1.567410 27.817403 1.008757 1.627173 0.040935 -0.017742 -286625.000000 0 0 1
-14.912009 -23.623954 -3.084010 28.106411 1.007734 1.680744 0.042305 -0.003757 314159.000000 0 0 1
-13.697009 -24.102854 -3.664610 27.963995 1.054032 1.702222 0.038674 -0.001141 322760.000000 0 0 1
-13.672009 -24.136954 -5.073110 28.200227 1.055423 1.751677 0.059802 -0.000404 1439590.000000 0 0 1
-12.410609 -24.872754 -5.775210 28.390670 1.107978 1.775645 0.045071 -0.002021 1461910.000000 0 0 1
-12.698109 -26.237534 -6.012710 29.762440 1.120057 1.774220 0.027938 -0.007618 72196.800000 0 0 1
-11.813909 -26.754954 -7.021210 30.078122 1.154983 1.806403 0.033319 -0.005590 424550.000000 0 0 1
23.518991 13.475746 28.380073 39.244964 0.520310 0.762441 0.017957 -0.008033 -392439.000000 0 0 1
24.047191 12.203246 28.173883 38.999414 0.469606 0.763503 0.009426 -0.010034 71960.800000 0 0 1
23.425291 11.137746 28.890013 38.825591 0.443822 0.731614 0.016528 -0.017866 -384513.000000 0 0 1
23.384691 11.104646 30.424823 39.947801 0.443341 0.704995 0.019766 0.000397 -99535.700000 0 0 1
22.561591 12.068646 31.045913 40.230913 0.491192 0.689297 0.018979 -0.002718 181909.000000 0 0 1
23.023091 12.361546 32.351433 41.587087 0.492745 0.679447 0.011554 -0.000898 -8318.990000 0 0 1
22.142691 13.407346 33.125963 42.040280 0.544452 0.663311 0.015720 0.002506 953921.000000 0 0 1
20.847991 12.929746 33.551590 41.563521 0.555134 0.631341 0.026223 0.002542 744147.000000 0 0 1
20.309791 13.879446 -34.116556 42.060267 0.599489 2.516887 0.018631 0.005454 -935071.000000 0 0 1
19.065991 13.322346 -33.496090 40.779713 0.609886 2.534642 0.027079 0.008574 -948976.000000 0 0 1
17.919591 13.249646 34.266140 40.875827 0.636679 0.576642 0.031044 0.010121 106089.000000 0 0 1
16.871591 12.593346 -33.599080 39.650235 0.641208 2.581840 0.028542 0.006639 609503.000000 0 0 1
15.539191 12.487846 34.167696 39.558112 0.676954 0.528163 0.025752 0.014081 587044.000000 0 0 1
15.693691 11.470746 33.215025 38.485164 0.631174 0.529498 0.022870 0.016144 25263.800000 0 0 1
14.420591 10.985546 32.852299 37.522117 0.651008 0.504234 0.028820 0.018990 131535.000000 0 0 1
14.482291 9.901946 31.712613 36.241898 0.599721 0.505306 0.032897 0.019441 110815.000000 0 0 1
14.762291 8.571846 32.170813 36.419267 0.526076 0.487843 0.023013 0.012628 39707.800000 0 0 1
15.216891 7.763646 31.091963 35.475881 0.471774 0.502408 0.014231 -0.000928 -43495.100000 0 0 1
15.497591 6.346046 31.594083 35.757988 0.388657 0.487401 0.028062 -0.008806 1059660.000000 0 0 1
14.352491 5.467246 31.853833 35.363137 0.363956 0.449271 0.033924 -0.009048 1112530.000000 0 0 1
14.806591 4.237146 32.393893 35.868550 0.278717 0.443797 0.046989 -0.019196 637697.000000 0 0 1
13.575391 3.299646 32.436863 35.317545 0.238437 0.406691 0.029202 -0.014241 326716.000000 0 0 1
13.994191 2.044546 32.943864 35.851301 0.145073 0.405506 0.044662 -0.026602 55097.000000 0 0 1
12.873591 1.242346 33.205079 35.634956 0.096206 0.371423 0.041684 -0.029870 -338900.000000 0 0 1
13.322791 -0.061854 33.890351 36.415059 -0.004643 0.374560 0.021542 -0.024755 10695.200000 0 0 1
13.771491 -0.966554 32.895250 35.674721 -0.070070 0.397353 0.015723 -0.015957 39785.200000 0 0 1
14.056191 -2.257954 33.380769 36.289814 -0.159277 0.403128 0.045989 -0.020153 -288428.000000 0 0 1
14.451591 -3.235054 32.274103 35.509602 -0.220224 0.430196 0.043802 -0.022226 -1031850.000000 0 0 1
14.659891 -4.574354 32.680972 36.109321 -0.302458 0.439284 0.047656 -0.024175 356002.000000 0 0 1
15.900191 -4.934454 33.285942 37.217185 -0.300915 0.463775 0.025654 -0.016837 704192.000000 0 0 1
17.208491 -4.766454 32.453213 37.041359 -0.270209 0.503012 0.035788 -0.021262 -369213.000000 0 0 1
17.473791 -3.370154 32.357253 36.928081 -0.190530 0.502827 0.047214 -0.025211 -810253.000000 0 0 1
18.569391 -3.112254 31.553943 36.744520 -0.166058 0.537993 0.068102 -0.035430 -741085.000000 0 0 1
18.569591 -1.595554 31.378073 36.496013 -0.085712 0.535983 0.078884 -0.034263 -405345.000000 0 0 1
19.020291 -0.853754 32.500980 37.667149 -0.044856 0.529921 0.069475 -0.026850 344998.000000 0 0 1
18.722291 0.548946 32.413753 37.436305 0.029312 0.523975 0.069534 -0.024398 -557392.000000 0 0 1
19.931091 1.315146 31.915243 37.650508 0.065889 0.559217 0.071519 -0.026175 -705233.000000 0 0 1
20.128291 1.156146 30.516433 36.575094 0.057376 0.583844 0.073411 -0.027310 90771.400000 0 0 1
21.034091 2.153246 29.997433 36.700347 0.102014 0.613981 0.065514 -0.024257 79593.300000 0 0 1
20.563391 3.614546 29.909563 36.476019 0.173998 0.609422 0.055493 -0.013192 -339625.000000 0 0 1
20.354191 4.163046 31.208353 37.491137 0.201748 0.587337 0.058306 -0.022950 372156.000000 0 0 1
19.955491 5.507946 31.153003 37.404127 0.269306 0.586512 0.038577 -0.012814 -438875.000000 0 0 1
19.616491 6.060246 32.605408 38.531104 0.299635 0.561964 0.030715 -0.002657 -596747.000000 0 0 1
18.384591 5.734346 33.163276 38.349430 0.302348 0.526112 0.038056 -0.010534 -297600.000000 0 0 1
18.391191 6.024346 -34.027490 39.145865 0.316552 2.624477 0.038266 -0.006011 411397.000000 0 0 1
17.321691 5.278946 -33.150260 37.773641 0.295817 2.641635 0.047626 -0.006285 105000.000000 0 0 1
17.504491 3.911246 -33.197450 37.732953 0.219831 2.646238 0.046001 -0.014558 1288760.000000 0 0 1
16.284991 3.153846 -32.903100 36.847818 0.191298 2.674643 0.057534 -0.022619 1274630.000000 0 0 1
16.393991 1.658846 -33.328850 37.179658 0.100843 2.682437 0.057142 -0.028997 -274623.000000 0 0 1
17.318991 0.856246 -32.650910 36.969751 0.049399 2.653394 0.039653 -0.015266 -42612.900000 0 0 1
17.060391 -0.532254 -32.922950 37.084510 -0.031188 2.663299 0.048403 -0.014330 -178664.000000 0 0 1
18.153291 -1.450754 -32.321280 37.098676 -0.079747 2.628488 0.046791 -0.012410 11523.200000 0 0 1
18.174891 -1.545854 -30.912770 35.893115 -0.084850 2.608511 0.045220 -0.014441 261815.000000 0 0 1
18.398791 -0.339754 -30.148150 35.320559 -0.018464 2.593573 0.043245 -0.004187 -406452.000000 0 0 1
18.162791 -0.521354 -28.593710 33.878593 -0.028697 2.575504 0.024517 0.007271 183549.000000 0 0 1
16.801191 -0.741354 -28.248470 32.875609 -0.044096 2.604604 0.032192 -0.002618 354338.000000 0 0 1
16.387691 -0.699454 -26.867310 31.478532 -0.042656 2.593485 0.027417 -0.003001 272043.000000 0 0 1
17.069291 -1.675154 -25.819010 30.996582 -0.097825 2.555238 0.018521 0.003311 -449565.000000 0 0 1
18.392591 -1.351754 -25.463200 31.440248 -0.073363 2.514764 0.020877 0.002227 -334945.000000 0 0 1
19.140091 -2.497154 -25.166340 31.716297 -0.129734 2.487307 0.009898 0.004259 129443.000000 0 0 1
19.809991 -3.238554 -26.366770 33.138053 -0.162047 2.490900 0.020152 0.000917 -753702.000000 0 0 1
20.797591 -2.448654 -26.940170 34.121964 -0.117198 2.480832 0.027023 0.001226 -569092.000000 0 0 1
21.093491 -2.838654 -28.274510 35.389846 -0.133771 2.496334 0.033259 -0.005202 1213620.000000 0 0 1
22.579991 -2.432954 -28.663710 36.570255 -0.107334 2.471555 0.024587 -0.013097 1431570.000000 0 0 1
23.591791 -3.264154 -28.114500 36.846335 -0.137487 2.438769 0.028533 -0.019735 398626.000000 0 0 1
24.875891 -2.807954 -28.549210 37.970409 -0.112403 2.421706 0.027482 -0.025007 962115.000000 0 0 1
26.059991 -3.784854 -28.209250 38.590284 -0.144228 2.390573 0.056686 -0.024478 158365.000000 0 0 1
26.025091 -5.081554 -28.786820 39.138326 -0.192830 2.397223 0.064980 -0.031347 484927.000000 0 0 1
27.247991 -5.814654 -28.742180 40.029690 -0.210244 2.371752 0.063520 -0.031933 293342.000000 0 0 1
27.353591 -6.740154 -27.555390 39.407463 -0.241595 2.345134 0.056105 -0.021077 -83959.600000 0 0 1
27.282891 -6.137454 -26.268760 38.367593 -0.221273 2.324934 0.052844 -0.013423 324491.000000 0 0 1
27.302391 -7.185854 -25.359700 37.949591 -0.257358 2.302646 0.042107 -0.014967 -169614.000000 0 0 1
27.413991 -6.840854 -23.884710 36.997345 -0.244545 2.272578 0.037817 -0.012261 212693.000000 0 0 1
28.746491 -6.491254 -23.543910 37.720191 -0.222086 2.244868 0.032768 -0.009807 494833.000000 0 0 1
28.871891 -6.313054 -22.171410 36.946071 -0.215269 2.214425 0.043530 -0.014041 -886337.000000 0 0 1
30.201091 -5.755254 -21.726710 37.646763 -0.188307 2.185994 0.047493 -0.013533 -1089380.000000 0 0 1
30.492391 -4.494254 -22.278210 38.030289 -0.146336 2.196665 0.037276 -0.014030 1097590.000000 0 0 1
31.840991 -4.098054 -21.936810 38.882726 -0.128000 2.170235 0.030257 -0.009285 1048840.000000 0 0 1
32.369391 -2.943454 -22.754010 39.676017 -0.090684 2.181563 0.045897 -0.021020 -160664.000000 0 0 1
31.589791 -1.782454 -22.510510 38.830595 -0.056365 2.189170 0.050386 -0.022676 346277.000000 0 0 1
32.071691 -0.554854 -23.076210 39.514715 -0.017299 2.194432 0.035036 -0.022950 -460490.000000 0 0 1
30.984791 0.483946 -22.912910 38.539498 0.015618 2.207478 0.039089 -0.015967 -176657.000000 0 0 1
29.797591 0.274646 -23.654710 38.046250 0.009217 2.241753 0.033441 -0.014016 243803.000000 0 0 1
28.765291 1.050246 -23.070210 36.888746 0.036495 2.246440 0.021418 -0.002841 533452.000000 0 0 1
27.535091 1.250046 -24.039810 36.573984 0.045367 2.288017 0.021492 -0.005419 816414.000000 0 0 1
26.671491 2.333046 -23.614510 35.699532 0.087251 2.293586 0.006896 0.001174 310419.000000 0 0 1
25.760491 2.647846 -24.625210 35.735346 0.102427 2.331042 0.010714 -0.001193 -40993.200000 0 0 1
24.703791 3.720046 -24.170810 34.761244 0.149463 2.339686 0.009212 0.002088 44948.400000 0 0 1
25.248291 5.006846 -23.926710 35.143024 0.195765 2.319703 -0.005069 0.002649 355112.000000 0 0 1
24.277591 6.051246 -23.700710 34.463642 0.244275 2.329115 0.015332 -0.013577 -116533.000000 0 0 1
24.780991 7.370846 -23.044410 34.633390 0.289106 2.298801 0.026959 -0.014945 -68124.000000 0 0 1
25.547791 8.170146 -23.952410 35.960518 0.309520 2.299731 0.023644 -0.011955 265817.000000 0 0 1
25.705691 9.386446 -23.292010 35.936133 0.350108 2.275949 0.027503 -0.019905 -191665.000000 0 0 1
26.602191 10.404046 -24.036610 37.332015 0.372808 2.270329 0.046271 -0.017132 -164134.000000 0 0 1
26.140191 10.869946 -25.280930 37.955115 0.394080 2.299730 0.042800 -0.014291 326875.000000 0 0 1
24.905991 11.592346 -25.269370 37.326022 0.435623 2.314462 0.047055 -0.018173 490886.000000 0 0 1
24.375791 11.753946 -26.737450 38.042419 0.449304 2.350168 0.036572 -0.020310 -236009.000000 0 0 1
23.924691 10.575746 -27.420840 37.896434 0.416217 2.379761 0.027929 -0.009877 741716.000000 0 0 1
24.912591 9.574346 -27.808680 38.543845 0.366914 2.376736 0.021663 -0.012775 582138.000000 0 0 1
25.856191 9.987446 -28.968500 40.093212 0.368614 2.378249 0.012753 0.001394 -1332180.000000 0 0 1
26.768591 11.065246 -28.726160 40.794478 0.391976 2.352047 0.007299 0.009365 306208.000000 0 0 1
27.577391 11.431546 -29.780310 42.167044 0.392966 2.354978 -0.003800 0.026165 -558363.000000 0 0 1
28.514991 10.358446 -30.283890 42.866258 0.348441 2.355300 -0.001085 0.026086 -1562210.000000 0 0 1
27.814491 9.418846 -31.091830 42.767540 0.326511 2.384733 -0.001951 0.018119 366308.000000 0 0 1
28.740691 8.461846 -31.576410 43.528150 0.286330 2.382448 0.005940 0.014563 21154.900000 0 0 1
28.196791 7.446246 -32.608550 43.747264 0.258187 2.411908 0.010707 0.002485 263563.000000 0 0 1
27.184991 6.540146 -32.142110 42.601790 0.236093 2.425655 0.012979 -0.001757 217704.000000 0 0 1
26.662891 5.802946 -33.206780 42.979928 0.214299 2.453740 0.029523 -0.002358 -661942.000000 0 0 1
25.422891 4.978146 -32.862830 41.845799 0.193367 2.474028 0.024529 -0.004986 -922921.000000 0 0 1
24.200291 5.611546 -32.733030 41.092515 0.227853 2.492395 0.023310 0.001680 -517026.000000 0 0 1
23.979691 6.477246 -31.622300 40.211319 0.263818 2.475760 0.014375 0.006542 -1282300.000000 0 0 1
22.495591 6.771946 -31.455540 39.260182 0.292405 2.500106 0.019724 0.005679 -435274.000000 0 0 1
22.013591 7.582646 -32.544900 40.015812 0.331725 2.520600 0.026087 0.006810 209285.000000 0 0 1
20.808891 8.257546 -32.204740 39.221707 0.377769 2.534123 0.031293 0.004273 -136659.000000 0 0 1
20.423091 9.416346 -33.134560 40.045840 0.432016 2.545287 0.025845 0.007226 -284339.000000 0 0 1
19.938091 8.987246 34.179384 40.577437 0.423484 0.569214 0.024419 0.008899 -4030.380000 0 0 1
19.903791 10.040146 33.283083 40.059070 0.467188 0.590163 0.023455 0.006975 579652.000000 0 0 1
18.776691 10.028946 32.148373 38.557254 0.490567 0.584872 0.029832 0.005651 587700.000000 0 0 1
18.889991 9.057946 31.105263 37.502207 0.447122 0.592719 0.032989 -0.002927 200078.000000 0 0 1
19.989991 9.133746 30.209803 37.358497 0.428590 0.628949 0.040378 -0.004995 -466016.000000 0 0 1
19.734191 10.123146 29.011853 36.518543 0.473974 0.652709 0.051010 -0.008866 293706.000000 0 0 1
18.756991 9.748146 28.018563 35.098304 0.479289 0.646349 0.035432 -0.002980 1130550.000000 0 0 1
17.418291 9.984446 28.467273 34.834920 0.520493 0.614252 0.037369 -0.012093 507060.000000 0 0 1
16.325091 9.197946 27.648103 33.399527 0.513091 0.595623 0.045638 -0.008314 94068.500000 0 0 1
16.077091 9.732346 26.319573 32.340553 0.544348 0.620091 0.057935 -0.011396 217622.000000 0 0 1
14.809591 9.440746 25.766773 31.182981 0.567520 0.598274 0.065449 -0.014749 36362.800000 0 0 1
14.566791 7.959846 25.309723 30.267683 0.500104 0.580486 0.057777 -0.001726 -182330.000000 0 0 1
14.515791 7.051046 26.424983 30.962965 0.452183 0.548249 0.040583 -0.001290 -44561.100000 0 0 1
14.026191 5.774046 26.075783 30.166540 0.390519 0.526852 0.039630 0.001724 40290.300000 0 0 1
13.974891 4.775546 27.253353 30.997559 0.329282 0.496596 0.052235 0.002161 303546.000000 0 0 1
15.304991 4.442346 27.636223 31.902007 0.282492 0.523080 0.034748 0.004160 347359.000000 0 0 1
15.242391 3.653846 28.838823 32.823144 0.235277 0.497848 0.018408 -0.000669 -319199.000000 0 0 1
16.459891 2.831646 29.241253 33.674874 0.170365 0.518950 0.049942 -0.009893 -432490.000000 0 0 1
16.359691 1.425246 29.054563 33.374219 0.086900 0.514439 0.037606 -0.011572 63222.700000 0 0 1
15.627391 0.933046 30.181103 33.999778 0.059635 0.478503 0.026929 -0.015404 81251.100000 0 0 1
15.333491 -0.550054 30.016613 33.710764 -0.035857 0.472537 0.032912 -0.017390 -202829.000000 0 0 1
14.534491 -0.883954 28.882753 32.345730 -0.060743 0.466965 0.021604 -0.012517 702804.000000 0 0 1
15.229491 -0.914454 27.576523 31.515683 -0.059973 0.505341 0.029184 -0.007194 -956301.000000 0 0 1
16.183891 -2.107154 27.273343 31.783544 -0.129472 0.539245 0.025960 -0.006961 1089640.000000 0 0 1
17.507591 -2.041254 27.839813 32.950534 -0.116068 0.564423 0.041687 -0.014974 919659.000000 0 0 1
18.268891 -0.937054 27.390063 32.937001 -0.051247 0.588833 0.054264 -0.012189 -945814.000000 0 0 1
19.767791 -0.753254 27.750593 34.079736 -0.038087 0.619301 0.075633 -0.011923 405220.000000 0 0 1
20.616491 -1.672454 27.080593 34.076316 -0.080945 0.652276 0.061633 -0.012339 -1491070.000000 0 0 1
21.880091 -1.176054 27.226753 34.948785 -0.053698 0.677652 0.063103 -0.018034 -1170510.000000 0 0 1
22.910691 -1.777854 26.238853 34.878904 -0.077444 0.719274 0.065132 -0.012044 -118201.000000 0 0 1
22.716991 -1.145254 24.953083 33.764325 -0.050371 0.739157 0.072478 -0.001797 295934.000000 0 0 1
22.094391 -1.996154 24.015843 32.694151 -0.090102 0.745777 0.074467 0.001332 15217.200000 0 0 1
22.023891 -1.301554 22.623223 31.599938 -0.059029 0.772847 0.064372 -0.013986 -18726.000000 0 0 1
21.049391 -0.276654 22.607723 30.891140 -0.013142 0.749762 0.052604 -0.001532 116867.000000 0 0 1
20.963091 0.355846 21.389823 29.951667 0.016973 0.775395 0.054982 0.003140 -111333.000000 0 0 1
-30.553869 -27.216213 -10.272910 42.187603 0.727688 1.816775 -0.021866 0.022987 -75038.700000 0 0 1
-30.237649 -26.145613 -9.407110 41.065828 0.712950 1.801923 -0.006375 0.019334 -469599.000000 0 0 1
-30.790609 -26.342313 -8.183610 41.339455 0.707696 1.770074 -0.000067 0.015208 -781496.000000 0 0 1
-31.032079 -24.967613 -7.443010 40.518762 0.677524 1.755538 0.024570 0.007585 1197810.000000 0 0 1
-29.847439 -24.323213 -6.862110 39.109805 0.683771 1.747167 0.019529 -0.000581 956154.000000 0 0 1
-29.160579 -25.088113 -5.846910 38.909371 0.710468 1.721638 0.014744 0.001001 1386190.000000 0 0 1
-27.838559 -24.346013 -5.324510 37.363942 0.718571 1.713787 0.022644 -0.002384 915095.000000 0 0 1
-28.032739 -23.254213 -4.436010 36.691567 0.692494 1.691993 0.034740 -0.008991 -240992.000000 0 0 1
-28.774019 -22.167413 -4.968910 36.660994 0.656428 1.706751 0.043765 -0.013484 10233.900000 0 0 1
-28.818779 -20.935413 -3.999410 35.844230 0.628258 1.682607 0.049898 -0.021338 664459.000000 0 0 1
-27.598059 -20.173513 -3.926410 34.409885 0.631214 1.685152 0.058158 -0.033718 754523.000000 0 0 1
-27.783879 -19.008713 -3.128510 33.809210 0.600018 1.663463 0.059534 -0.027564 -589111.000000 0 0 1
-26.639819 -18.016213 -3.198010 32.318589 0.594635 1.669911 0.049756 -0.023069 -249026.000000 0 0 1
-26.705669 -17.272413 -4.384410 32.105328 0.574101 1.707788 0.055494 -0.029443 385804.000000 0 0 1
-25.577259 -16.408013 -4.392410 30.703621 0.570382 1.714347 0.051700 -0.030057 291212.000000 0 0 1
-25.624549 -15.311513 -5.493610 30.351931 0.538604 1.752796 0.040206 -0.039233 -476178.000000 0 0 1
-26.790379 -14.528813 -5.453410 30.960467 0.496924 1.747861 0.050766 -0.037193 -173400.000000 0 0 1
-27.008679 -13.590113 -6.482210 30.922144 0.466185 1.781993 0.062675 -0.055092 -942492.000000 0 0 1
-28.293259 -12.849213 -6.193910 31.685570 0.426295 1.767544 0.071588 -0.043052 -525442.000000 0 0 1
-29.427189 -13.632513 -6.519210 33.080281 0.433828 1.769167 0.075810 -0.038534 259948.000000 0 0 1
-30.640769 -12.989413 -6.154210 33.844584 0.400960 1.753651 0.075942 -0.039258 -303726.000000 0 0 1
-31.835149 -13.550713 -6.888310 35.278143 0.402423 1.767316 0.058510 -0.036900 -428515.000000 0 0 1
-32.485239 -14.726513 -6.323510 36.223580 0.425619 1.746264 0.059056 -0.033294 351922.000000 0 0 1
-32.758729 -15.527113 -7.429210 37.005658 0.442619 1.772929 0.060640 -0.032152 -864751.000000 0 0 1
-33.465679 -16.800213 -6.924910 38.080877 0.465257 1.753661 0.046326 -0.025909 2375810.000000 0 0 1
-34.939617 -16.731113 -6.768510 39.325815 0.446591 1.743771 0.036740 -0.023487 2244320.000000 0 0 1
-35.361118 -15.919313 -5.718610 39.198670 0.423014 1.717207 0.029814 -0.024730 -1290190.000000 0 0 1
35.076986 -15.863413 -5.671910 38.912895 -0.424720 1.717077 0.032451 -0.024449 -1386460.000000 0 0 1
34.503686 -15.094213 -6.729810 38.257417 -0.412382 1.747625 0.034895 -0.029764 1206190.000000 0 0 1
33.059466 -15.139213 -6.693810 36.972032 -0.429436 1.752851 0.047150 -0.025163 1335210.000000 0 0 1
32.318656 -14.412713 -5.477710 35.808199 -0.419486 1.724373 0.072789 -0.031718 -786117.000000 0 0 1
32.360966 -15.150613 -4.270010 35.986194 -0.437865 1.689733 0.057129 -0.028348 411399.000000 0 0 1
31.748696 -14.462713 -3.189410 35.033157 -0.427449 1.661962 0.081491 -0.028583 -965485.000000 0 0 1
31.897376 -15.255213 -1.866110 35.406871 -0.446104 1.623525 0.079522 -0.022597 -543781.000000 0 0 1
33.167886 -15.486713 -1.287510 36.627922 -0.436834 1.605955 0.084471 -0.015351 -169703.000000 0 0 1
34.016596 -16.349413 -1.975710 37.793327 -0.448032 1.623097 0.064977 -0.011683 -870419.000000 0 0 1
33.473446 -17.808113 -2.250910 37.982458 -0.488924 1.630093 0.060745 -0.013646 -832181.000000 0 0 1
33.827126 -18.762213 -1.244910 38.702001 -0.506406 1.602968 0.059926 -0.010813 251783.000000 0 0 1
33.487016 -20.133513 -1.512610 39.102770 -0.541326 1.609489 0.041680 -0.011930 -56625.100000 0 0 1
34.169466 -20.926313 -2.689110 40.158365 -0.549507 1.637809 0.040754 -0.016310 -19482.600000 0 0 1
34.116146 -20.265713 -3.960210 39.878488 -0.536012 1.670267 0.035439 -0.022026 84192.400000 0 0 1
35.244616 -20.573513 -4.755810 41.086131 -0.528374 1.686809 0.029304 -0.028578 36567.800000 0 0 1
35.400416 -19.714713 -6.043110 40.968019 -0.508130 1.718845 0.033442 -0.028830 50101.200000 0 0 1
34.279456 -19.989813 -6.864810 40.271570 -0.527932 1.742096 0.033308 -0.027484 402023.000000 0 0 1
34.195166 -19.135413 -7.990310 39.991480 -0.510179 1.771950 0.033182 -0.032186 -12860.800000 0 0 1
33.087476 -19.542213 -8.986110 39.464279 -0.533496 1.800514 0.045528 -0.035970 40097.000000 0 0 1
33.457806 -20.724413 -9.608810 40.512409 -0.554576 1.810260 0.041753 -0.032082 -50774.300000 0 0 1
32.445036 -21.073913 -10.489310 40.085107 -0.576042 1.835555 0.048151 -0.034432 -411162.000000 0 0 1
32.422796 -22.581213 -10.872310 40.979947 -0.608347 1.839320 0.039696 -0.027868 -380860.000000 0 0 1
31.989416 -23.309713 -9.790910 40.774102 -0.629709 1.813292 0.030126 -0.022710 -144431.000000 0 0 1
31.884226 -24.671413 -10.080010 41.555855 -0.658548 1.815806 0.016036 -0.006498 159796.000000 0 0 1
30.966376 -25.473813 -9.096210 41.116574 -0.688387 1.793872 0.021109 -0.011344 854304.000000 0 0 1
29.606346 -25.051813 -9.105610 39.837686 -0.702263 1.801403 0.026577 -0.016970 375936.000000 0 0 1
28.616666 -25.941013 -8.639810 39.578985 -0.736395 1.790861 0.011403 -0.011948 -312131.000000 0 0 1
27.240396 -25.324113 -8.562610 38.166323 -0.748958 1.797072 0.028295 -0.029246 -712747.000000 0 0 1
26.741956 -25.059913 -9.844310 37.947884 -0.752939 1.833214 0.032670 -0.030280 938086.000000 0 0 1
25.464656 -24.369113 -9.867510 36.601505 -0.763418 1.843767 0.051543 -0.041754 1145330.000000 0 0 1
24.707156 -24.280513 -11.217210 36.411711 -0.776689 1.883956 0.079530 -0.043585 -64791.900000 0 0 1
24.167156 -25.524413 -11.622910 37.022144 -0.812705 1.890141 0.084497 -0.034189 54103.400000 0 0 1
23.350456 -25.312813 -12.730410 36.715741 -0.825702 1.924878 0.087600 -0.019746 -406448.000000 0 0 1
22.766656 -26.627213 -13.224010 37.446009 -0.863398 1.931731 0.085785 -0.016210 -487145.000000 0 0 1
23.669756 -27.297113 -14.035010 38.760434 -0.856449 1.941312 0.069121 -0.012259 -191088.000000 0 0 1
23.427156 -28.691413 -14.058410 39.619032 -0.886062 1.933539 0.091868 -0.017968 -54759.700000 0 0 1
24.390956 -29.620913 -14.875510 41.153348 -0.881927 1.940635 0.084578 -0.023180 -60259.600000 0 0 1
24.272756 -29.481513 -16.256910 41.504379 -0.881996 1.973266 0.067613 -0.019651 176832.000000 0 0 1
24.582456 -30.730413 -16.757810 42.772417 -0.896093 1.973373 0.071812 -0.024341 -361296.000000 0 0 1
24.199256 -30.914113 -18.253710 43.295315 -0.906638 2.006016 0.041904 -0.009797 -268499.000000 0 0 1
22.839256 -30.806913 -18.590810 42.618256 -0.932843 2.022187 0.050186 -0.009309 -412016.000000 0 0 1
22.641256 -30.869713 -19.974310 43.180305 -0.937974 2.051698 0.030081 -0.007500 752358.000000 0 0 1
21.160756 -30.581413 -20.411110 42.421856 -0.965495 2.072758 0.032999 -0.004553 798909.000000 0 0 1
21.196456 -30.436913 -21.818110 43.031679 -0.962486 2.102525 0.018279 -0.002267 525314.000000 0 0 1
19.853056 -30.374013 -22.274710 42.578013 -0.991881 2.121340 0.030378 -0.002572 21168.800000 0 0 1
19.780956 -30.459213 -23.797710 43.420973 -0.994826 2.150851 0.026278 -0.004945 -313464.000000 0 0 1
20.427956 -29.387913 -24.460710 43.350631 -0.963357 2.170324 0.030398 -0.002701 333771.000000 0 0 1
20.497656 -29.453313 -25.844250 44.221904 -0.962802 2.194964 0.017013 -0.015024 -433993.000000 0 0 1
21.056956 -28.174913 -26.540120 44.063580 -0.928983 2.217193 0.020747 -0.013468 429588.000000 0 0 1
20.111856 -27.114713 -26.701560 43.042627 -0.932608 2.239987 0.054930 -0.025685 842194.000000 0 0 1
19.046856 -27.324013 -27.655220 43.291981 -0.962037 2.263743 0.070660 -0.028042 441302.000000 0 0 1
18.227756 -26.075413 -28.030430 42.401454 -0.960715 2.293043 0.076247 -0.030313 222360.000000 0 0 1
17.264056 -25.711013 -27.026410 41.103901 -0.979479 2.288311 0.072209 -0.012920 271707.000000 0 0 1
16.729556 -24.417013 -27.282060 40.253936 -0.970100 2.315493 0.062155 -0.004293 494065.000000 0 0 1
15.469156 -24.150913 -26.396640 38.978764 -1.001114 2.314755 0.064382 -0.001399 43468.000000 0 0 1
14.245356 -24.748513 -26.801840 39.163219 -1.048508 2.324525 0.083829 -0.020451 1026510.000000 0 0 1
13.053656 -24.246413 -26.134070 37.964142 -1.076922 2.330061 0.055042 -0.012241 1245600.000000 0 0 1
13.006256 -24.510713 -24.574210 37.065207 -1.082942 2.295615 0.051330 -0.006344 -771715.000000 0 0 1
14.005856 -23.817913 -23.853310 36.502567 -1.039218 2.282955 0.050704 -0.007354 -273192.000000 0 0 1
13.926456 -24.066313 -22.457510 35.741759 -1.046208 2.250197 0.062663 -0.015280 -718739.000000 0 0 1
15.106856 -23.516813 -21.691810 35.380676 -0.999793 2.230772 0.024146 -0.015600 -405947.000000 0 0 1
15.050056 -22.117813 -21.397010 34.256881 -0.973312 2.245422 0.020028 -0.010964 917655.000000 0 0 1
16.339256 -21.646313 -20.936210 34.261627 -0.924212 2.228206 0.023195 -0.012033 545843.000000 0 0 1
16.319756 -20.317913 -20.090410 32.905571 -0.894095 2.227548 0.042747 -0.005903 -60581.400000 0 0 1
15.662556 -20.509413 -18.846410 31.955264 -0.918600 2.201576 0.051278 -0.017051 -129104.000000 0 0 1
14.299756 -20.207713 -19.001310 31.207122 -0.954962 2.225441 0.045690 -0.015872 -780724.000000 0 0 1
13.430856 -20.055713 -17.759810 29.967155 -0.980712 2.205132 0.053280 -0.015191 -311234.000000 0 0 1
13.721756 -18.940513 -16.939810 28.878830 -0.943838 2.197629 0.068196 -0.019937 425626.000000 0 0 1
12.863056 -18.906313 -15.789310 27.788652 -0.973375 2.175104 0.071609 -0.021594 199976.000000 0 0 1
13.035356 -17.631913 -14.884410 26.501897 -0.934175 2.167158 0.067411 -0.017314 -249651.000000 0 0 1
12.252456 -16.537913 -15.369110 25.687250 -0.933164 2.212195 0.065583 -0.030434 251438.000000 0 0 1
12.249056 -15.469113 -14.412610 24.434733 -0.901051 2.201658 0.051790 -0.028633 -474738.000000 0 1 0
10.822256 -15.049413 -14.060210 23.265760 -0.947356 2.219722 0.047971 -0.015652 -384664.000000 0 1 0
10.128656 -14.561413 -15.173110 23.341973 -0.963042 2.278427 0.062804 -0.012253 -801805.000000 0 1 0
8.862956 -14.060513 -14.885610 22.312136 -1.008364 2.301177 0.055950 -0.007447 -421634.000000 0 1 0
8.165756 -13.548813 -16.162310 22.615706 -1.028400 2.366920 0.049022 -0.000026 21238.800000 0 1 0
8.701256 -12.320313 -16.729710 22.525212 -0.955886 2.407905 0.048286 -0.003713 994671.000000 0 1 0
10.036956 -12.254413 -17.265510 23.430940 -0.884548 2.399222 0.065302 -0.010079 879247.000000 0 1 0
10.040256 -11.057213 -18.260710 23.590724 -0.833564 2.456030 0.054161 -0.006495 4772.420000 0 1 0
9.419156 -11.278913 -19.488610 24.407792 -0.875009 2.495527 0.060487 -0.006863 76335.500000 0 1 0
9.300456 -10.054613 -20.217910 24.420434 -0.824343 2.546166 0.045035 -0.004776 180886.000000 0 1 0
8.902556 -10.267013 -21.681010 25.587756 -0.856457 2.581714 0.050035 -0.002499 631229.000000 0 0 1
10.051656 -10.761013 -22.372210 26.783409 -0.819468 2.559476 0.041209 -0.002309 321836.000000 0 0 1
9.834056 -10.665313 -23.758310 27.837293 -0.825926 2.593405 0.042601 -0.000112 -397983.000000 0 0 1
10.963956 -11.338213 -24.495110 29.133723 -0.802178 2.569522 0.063232 -0.001835 -436223.000000 0 0 1
10.961456 -12.759413 -24.356010 29.600192 -0.861050 2.537174 0.054180 -0.002654 491897.000000 0 0 1
12.094656 -13.398313 -24.979110 30.818038 -0.836492 2.515862 0.031708 -0.004097 382470.000000 0 0 1
12.104556 -14.941713 -24.854010 31.424463 -0.889916 2.483096 0.033167 -0.010507 -194422.000000 0 0 1
11.179956 -15.584613 -25.706030 32.072910 -0.948507 2.500574 0.043157 -0.012000 -179495.000000 0 0 1
10.967056 -16.928613 -25.261550 32.326462 -0.995940 2.467784 0.046327 -0.018105 -308732.000000 0 0 1
9.843356 -17.771613 -25.840340 32.870124 -1.064978 2.475326 0.053068 -0.018342 -329455.000000 0 0 1
10.024156 -18.380813 -27.075020 34.225644 -1.071523 2.483359 0.057994 -0.035505 244931.000000 0 0 1
8.802056 -19.037213 -27.408090 34.512245 -1.137711 2.488413 0.053508 -0.032328 258381.000000 0 0 1
9.001356 -20.055213 -28.530770 36.017230 -1.148917 2.485107 0.054222 -0.033161 -483860.000000 0 0 1
9.615356 -21.227713 -28.109250 36.513023 -1.145482 2.449390 0.052624 -0.032842 -25861.400000 0 0 1
9.398756 -22.213313 -29.076540 37.778474 -1.170525 2.449103 0.057058 -0.024527 273336.000000 0 0 1
10.200056 -23.479613 -28.677100 38.440987 -1.160972 2.412836 0.061516 -0.022589 47961.700000 0 0 1
9.751556 -24.550313 -29.479190 39.583246 -1.192700 2.410940 0.072566 -0.023173 18946.600000 0 0 1
10.102956 -25.866513 -29.124050 40.241229 -1.198436 2.379998 0.077257 -0.022778 -48092.800000 0 0 1
9.482956 -26.412313 -27.833800 39.525399 -1.226095 2.352093 0.076379 -0.024224 4198.370000 0 0 1
10.283956 -26.112713 -26.707090 38.741479 -1.195621 2.331411 0.062286 -0.019210 -341030.000000 0 0 1
9.563456 -26.193213 -25.484170 37.775482 -1.220723 2.311249 0.060226 -0.019162 508562.000000 0 0 1
8.743856 -24.882813 -25.150220 36.443696 -1.232874 2.332440 0.052065 -0.015942 -128319.000000 0 0 1
9.617156 -23.802113 -24.839010 35.721236 -1.186807 2.339713 0.049414 -0.014301 319046.000000 0 0 1
8.936156 -22.531213 -24.807210 34.682966 -1.193214 2.367787 0.036626 -0.017146 -533440.000000 0 0 1
9.927556 -21.414913 -24.723210 34.181749 -1.136706 2.379347 0.048606 -0.023388 -428652.000000 0 0 1
10.533556 -21.231913 -23.477110 33.360525 -1.110258 2.351443 0.043427 -0.018223 106508.000000 0 0 1
11.653756 -20.345313 -23.529410 33.217088 -1.050618 2.357958 0.049574 -0.015021 237001.000000 0 0 1
12.321156 -20.267713 -22.118810 32.431973 -1.024573 2.321299 0.044358 -0.017048 -435372.000000 0 0 1
11.511356 -19.797113 -21.072810 31.120738 -1.044116 2.314653 0.039614 -0.004519 89872.800000 0 0 1
10.970156 -18.441313 -21.186210 30.154301 -1.034159 2.349832 0.045890 -0.005192 439894.000000 0 0 1
12.042456 -17.291513 -21.077310 29.803862 -0.962465 2.356327 0.043736 -0.008931 477365.000000 0 0 1
12.981456 -17.310513 -22.108310 30.934599 -0.927348 2.366961 0.039794 0.001327 -578529.000000 0 0 1
14.310556 -17.348413 -21.647110 31.214689 -0.881061 2.337120 0.046981 -0.005677 -307446.000000 0 0 1
15.317956 -17.238913 -22.829310 32.449920 -0.844333 2.351141 0.030174 0.001929 18493.600000 0 0 1
16.616356 -17.579413 -22.368810 32.946968 -0.813554 2.317106 0.040136 0.004281 -146080.000000 0 0 1
17.548356 -17.389513 -23.393810 34.023673 -0.780852 2.328940 0.027923 0.000921 -854818.000000 0 0 1
18.953756 -17.651613 -22.870510 34.552634 -0.749841 2.294152 0.033726 -0.000062 -815039.000000 0 0 1
19.178956 -18.987713 -22.496010 35.134543 -0.780387 2.265661 0.036107 -0.000865 562847.000000 0 0 1
20.545656 -19.104113 -22.113810 35.722706 -0.749057 2.238317 0.033231 -0.005707 354279.000000 0 0 1
20.979256 -20.377213 -21.385410 36.231144 -0.770842 2.202164 0.033596 -0.002483 -105414.000000 0 0 1
20.731056 -20.359613 -19.963810 35.253996 -0.776359 2.172788 0.051595 -0.008382 436528.000000 0 0 1
21.270156 -21.532713 -19.338310 35.917231 -0.791532 2.139349 0.049065 0.015700 -82349.800000 0 0 1
-16.167809 12.927446 28.687633 35.376507 -0.674484 0.625068 0.020289 -0.012270 -121943.000000 0 0 1
-17.167809 13.752446 28.131733 35.710753 -0.675387 0.663622 0.031941 -0.015390 -12441.200000 0 0 1
-17.602509 13.357346 26.845393 34.769846 -0.649130 0.688676 0.023115 -0.013866 -256462.000000 0 0 1
-18.812009 14.153846 26.351973 35.336236 -0.645025 0.729137 0.038052 -0.011989 -294273.000000 0 0 1
-18.608509 15.567946 26.314863 35.792591 -0.696665 0.744828 0.041785 -0.012610 -31003.400000 0 0 1
-19.704109 16.262646 25.748953 36.273050 -0.690004 0.781490 0.054213 -0.013756 -502418.000000 0 0 1
-19.756609 17.751646 26.101603 37.238935 -0.731995 0.794106 0.064907 -0.011570 -44421.100000 0 0 1
-18.817809 18.633946 25.495043 36.760456 -0.780489 0.804398 0.036653 -0.013924 926003.000000 0 0 1
-17.557509 18.539746 26.192233 36.578975 -0.812602 0.772675 0.022924 -0.006329 1080640.000000 0 0 1
-16.336109 19.432046 25.733993 36.148462 -0.871739 0.778600 0.028473 -0.006414 880631.000000 0 0 1
-16.618009 20.817146 25.923423 37.169015 -0.897102 0.798967 0.038237 -0.004435 149185.000000 0 0 1
-15.629409 21.566946 25.247913 36.699710 -0.943690 0.812123 0.049673 -0.010917 162993.000000 0 0 1
-15.917509 23.082346 25.309623 37.772197 -0.967087 0.836507 0.045080 -0.011084 -3035.040000 0 0 1
-15.531709 23.732446 26.525853 38.834056 -0.991299 0.818857 0.046349 -0.006728 43386.600000 0 0 1
-15.873309 25.096846 26.532023 39.821626 -1.006835 0.841598 0.044783 -0.009318 -225917.000000 0 0 1
-15.241709 25.988746 27.632403 40.881222 -1.040382 0.828585 0.045116 -0.005960 -68741.700000 0 0 1
-13.884109 26.312546 27.460393 40.486933 -1.085265 0.825413 0.046233 -0.005362 -211123.000000 0 0 1
-13.376909 27.093146 28.540683 41.563817 -1.112171 0.813896 0.052197 -0.003116 54176.500000 0 0 1
-11.840909 27.144546 28.636663 41.195777 -1.159463 0.802187 0.062465 -0.005237 -5321.540000 0 0 1
-11.213909 27.699146 27.500873 40.611482 -1.186119 0.826887 0.049568 -0.010417 -632332.000000 0 0 1
-9.837009 27.597146 27.759683 40.360491 -1.228387 0.812351 0.044065 -0.007479 -286226.000000 0 0 1
-8.972109 28.251146 26.656743 39.864871 -1.263287 0.838368 0.048660 -0.009009 988233.000000 0 0 1
-7.586409 27.821146 26.602213 39.233245 -1.304584 0.825686 0.054086 -0.010819 1213210.000000 0 0 1
-6.977409 28.627746 25.615653 39.043486 -1.331729 0.855183 0.067714 -0.018163 407298.000000 0 0 1
-5.454309 28.307946 25.440483 38.448765 -1.380451 0.847749 0.056102 -0.016561 -528489.000000 0 0 1
-4.662609 28.804146 26.506613 39.421052 -1.410316 0.833353 0.071657 -0.021176 1280610.000000 0 0 1
-3.261909 28.513746 26.210533 38.867285 -1.456894 0.830699 0.061334 -0.013966 1250350.000000 0 0 1
-2.561609 29.352846 25.183793 38.760481 -1.483747 0.863569 0.046335 -0.010976 -1462650.000000 0 0 1
-2.743709 28.973646 23.820103 37.608476 -1.476381 0.884895 0.034955 -0.006051 31246.100000 0 0 1
-2.292309 30.005346 22.929823 37.833217 -1.494548 0.919678 0.032864 -0.012562 -587090.000000 0 0 1
-2.836609 29.920346 21.514223 36.961267 -1.476273 0.949518 0.024744 0.001611 234807.000000 0 0 1
-4.209509 30.153146 21.270223 37.139663 -1.432088 0.960990 0.021238 0.003593 508125.000000 0 0 1
-5.002509 28.957746 21.567423 36.451748 -1.399733 0.937667 0.029613 0.001677 232576.000000 0 0 1
-6.480409 28.900646 21.110123 36.371422 -1.350214 0.951571 0.029486 -0.001515 203108.000000 0 0 1
-6.582109 28.868046 19.675723 35.550279 -1.346622 0.984281 0.006346 0.006056 367856.000000 0 0 1
-7.521409 27.895446 19.207523 34.693753 -1.307431 0.984079 0.007109 0.007605 -174662.000000 0 0 1
-6.855009 26.500546 18.894323 33.260571 -1.317670 0.966638 0.000182 0.004579 743591.000000 0 0 1
-5.920509 26.502846 17.804223 32.472198 -1.351013 0.990477 -0.001221 0.007452 946621.000000 0 0 1
-4.575809 26.859646 18.160823 32.744376 -1.402056 0.982885 0.019078 0.007626 680729.000000 0 0 1
-3.607009 27.081646 16.952423 32.152927 -1.438385 1.015443 0.017970 0.005860 193728.000000 0 0 1
-3.165109 25.854146 16.453723 30.808762 -1.448981 1.007401 0.016078 0.002191 -328988.000000 0 0 1
-2.256209 26.085646 15.408023 30.380234 -1.484519 1.038895 0.023157 -0.009991 -147870.000000 0 0 1
-1.592809 24.787246 14.887623 28.958348 -1.506625 1.030833 0.031970 -0.008061 -365111.000000 0 0 1
-0.573709 24.311046 15.700323 28.945747 -1.547202 0.997499 0.031242 -0.007308 -402670.000000 0 0 1
0.091691 23.166046 15.210623 27.713483 1.566838 0.989805 0.022969 -0.016657 42153.500000 0 0 1
1.531691 22.980846 15.739623 27.896256 1.504244 0.971308 0.021696 -0.017717 491184.000000 0 0 1
2.447491 24.065846 15.489023 28.723945 1.469445 1.001265 0.030385 -0.023174 627129.000000 0 0 1
3.718291 23.676546 16.009223 28.821863 1.415023 0.981887 0.042852 -0.025365 -439134.000000 0 0 1
4.871591 24.475946 15.452923 29.352976 1.374328 1.016375 0.051104 -0.023655 94672.500000 0 0 1
6.090491 23.768146 15.759323 29.161192 1.319948 0.999859 0.044504 -0.019954 6154.440000 0 0 1
7.215291 24.571546 15.584923 29.978511 1.285181 1.024098 0.044190 -0.018008 -1139030.000000 0 0 1
8.515591 23.794846 15.761523 29.784822 1.227123 1.013163 0.041870 -0.017627 -437194.000000 0 0 1
9.011891 23.101246 14.644423 28.798279 1.198850 1.037334 0.040652 -0.021716 -173885.000000 0 0 1
9.642691 23.902546 13.692923 29.185773 1.187348 1.082452 0.036055 -0.022182 -621442.000000 0 0 1
10.180491 23.087246 12.498823 28.158194 1.155488 1.110874 0.033794 -0.015064 -124220.000000 0 0 1
11.205691 22.177746 12.869023 27.982704 1.102944 1.092923 0.038539 -0.014751 -118143.000000 0 0 1
11.529691 21.346946 11.856423 27.003716 1.075578 1.116237 0.050417 -0.017886 409660.000000 0 0 1
12.750691 20.420646 12.159523 26.971038 1.012627 1.103094 0.036494 -0.007400 510170.000000 0 0 1
12.377891 19.312846 12.975023 26.354306 1.000834 1.056031 0.040697 -0.016749 769253.000000 0 0 1
13.543591 18.488746 13.216923 26.456562 0.938569 1.047693 0.042130 -0.015997 734128.000000 0 0 1
14.013391 18.439946 14.687923 27.425204 0.920959 1.005622 0.050554 -0.019621 -426970.000000 0 0 1
15.250291 17.787146 14.812523 27.719394 0.862035 1.007029 0.044790 -0.009879 -211401.000000 0 0 1
15.671291 17.687146 16.157723 28.626850 0.845755 0.971059 0.043619 -0.024892 -536734.000000 0 0 1
16.957791 16.868846 16.149223 28.860389 0.782769 0.976937 0.030731 -0.025264 -539257.000000 0 0 1
17.394491 16.588846 17.446423 29.700771 0.761696 0.942946 0.031791 -0.028145 36116.500000 0 0 1
18.593891 15.835346 17.366323 29.967986 0.705447 0.952686 0.033887 -0.028254 80643.300000 0 0 1
19.230391 15.595546 18.745423 31.055111 0.681403 0.922765 0.029676 -0.027666 -213301.000000 0 0 1
19.684491 16.799046 19.414123 32.351126 0.706473 0.927162 0.037872 -0.019099 257025.000000 0 0 1
18.703691 17.444246 20.194823 32.587738 0.750571 0.902428 0.029302 -0.019137 -224411.000000 0 0 1
19.235091 18.591846 21.061923 34.047762 0.768395 0.903838 0.030750 -0.017604 434230.000000 0 0 1
18.168491 19.165546 21.829923 34.263067 0.812098 0.880031 0.050765 -0.019437 673750.000000 0 0 1
18.653091 20.434446 22.259223 35.510244 0.830940 0.893306 0.060292 -0.014304 334759.000000 0 0 1
17.567691 21.458946 22.698323 35.837467 0.884777 0.884898 0.070766 -0.020931 168302.000000 0 0 1
16.799691 21.075146 23.831063 35.976534 0.897806 0.846771 0.070895 -0.022323 59480.100000 0 0 1
15.942991 22.140046 24.203113 36.471239 0.946709 0.845146 0.077108 -0.033670 433502.000000 0 0 1
14.979491 21.866346 25.400643 36.711237 0.970176 0.806674 0.086022 -0.036568 511362.000000 0 0 1
14.051491 20.805846 25.241483 35.601406 0.976798 0.782714 0.074127 -0.035732 78913.300000 0 0 1
13.305691 20.532646 26.427413 36.014430 0.995810 0.746897 0.065875 -0.025931 -187602.000000 0 0 1
12.408691 19.312946 26.172853 34.813557 0.999707 0.720008 0.057836 -0.024866 -330447.000000 0 0 1
12.994491 18.017446 26.089013 34.265460 0.945972 0.705358 0.069269 -0.032148 -320344.000000 0 0 1
13.812091 17.650046 25.014043 33.585717 0.906785 0.730588 0.078394 -0.030752 -544479.000000 0 0 1
13.203791 17.527246 23.623783 32.243257 0.925168 0.748554 0.090486 -0.030120 -781096.000000 0 0 1
12.998891 18.693646 22.845323 32.254184 0.963188 0.783723 0.091400 -0.028787 486450.000000 0 0 1
14.189491 19.203546 22.227323 32.621645 0.934437 0.821167 0.084483 -0.030255 841611.000000 0 0 1
14.798691 18.231246 21.127123 31.586942 0.888949 0.838127 0.080922 -0.024560 -60628.400000 0 0 1
13.831191 17.989146 20.117323 30.325203 0.915332 0.845461 0.092628 -0.027961 339280.000000 0 0 1
14.304491 16.950746 19.270523 29.381956 0.869863 0.855472 0.067809 -0.029729 348710.000000 0 0 1
13.149491 16.197646 18.534523 27.907014 0.888893 0.844436 0.066152 -0.018591 241033.000000 0 0 1
12.535291 16.958746 17.546023 27.433475 0.934267 0.876839 0.066708 -0.022663 478253.000000 0 0 1
11.267591 16.379346 17.188623 26.280989 0.968228 0.857893 0.063161 -0.020120 937712.000000 0 0 1
10.662791 16.873646 15.828923 25.474887 1.007236 0.900327 0.055471 -0.020192 98698.100000 0 0 1
10.139791 18.223546 15.758323 26.138817 1.063044 0.923702 0.054289 -0.021708 270955.000000 0 0 1
9.647191 18.575346 14.472223 25.447142 1.091785 0.965851 0.039439 -0.015820 -189266.000000 0 0 1
8.663491 19.787946 14.425323 25.975158 1.158120 0.982012 0.042871 -0.019320 864795.000000 0 0 1
7.401791 19.404346 15.013123 25.626335 1.206383 0.944871 0.025743 -0.019125 -115865.000000 0 0 1
6.593091 20.533146 15.061823 26.304704 1.260100 0.961134 0.034356 -0.022724 -1247910.000000 0 0 1
5.319891 20.219746 15.785323 26.197630 1.313523 0.924107 0.033350 -0.024276 -1259990.000000 0 0 1
4.399091 19.559346 14.986423 25.030240 1.349568 0.928878 0.032163 -0.025360 -676728.000000 0 0 1
3.192691 19.257946 15.660623 25.026324 1.406505 0.894683 0.015109 -0.016424 71742.100000 0 0 1
2.179791 18.579746 14.747723 23.821289 1.454009 0.903202 0.006918 -0.020940 -257971.000000 0 1 0
1.563091 19.513746 13.898123 24.008069 1.490865 0.953425 0.010891 -0.033467 -655329.000000 0 1 0
0.478591 18.983946 13.210523 23.133032 1.545591 0.962991 0.009093 -0.034827 -159503.000000 0 1 0
-0.366809 20.000746 12.334823 23.501325 -1.552459 1.018250 0.015172 -0.034499 115689.000000 0 1 0
-1.274209 20.691546 13.142623 24.545717 -1.509293 1.005774 0.018036 -0.025941 37851.500000 0 1 0
-2.353409 21.203046 12.362523 24.656433 -1.460255 1.045590 0.018333 -0.019283 1512290.000000 0 1 0
-3.606909 21.904146 13.043823 25.747674 -1.407593 1.039557 0.015318 -0.016884 1060550.000000 0 0 1
-4.378009 21.057646 13.832023 25.571787 -1.365811 0.999278 0.024232 -0.019046 -588948.000000 0 0 1
-5.497009 21.697946 14.354323 26.590686 -1.322674 1.000567 0.026393 -0.009106 -448462.000000 0 0 1
-6.362409 20.914446 15.371423 26.724052 -1.275481 0.957959 0.018967 -0.009631 -1178300.000000 0 0 1
-7.008609 19.803146 14.934123 25.774275 -1.230639 0.952780 0.018615 -0.011099 -349868.000000 0 0 1
-7.525409 19.098046 16.076223 26.073207 -1.195438 0.906405 0.021239 -0.003197 546071.000000 0 0 1
-8.757309 19.683846 16.843123 27.346573 -1.152193 0.907251 0.019597 -0.002324 69787.500000 0 0 1
-9.984109 19.600046 16.123623 27.272981 -1.099663 0.938258 0.011054 -0.011375 48638.400000 0 0 1
-11.046509 19.839646 17.037123 28.388387 -1.062755 0.927115 0.012385 -0.006853 -65593.900000 0 0 1
-12.423309 19.517846 16.437323 28.380813 -1.003963 0.953086 0.024287 -0.021392 -460151.000000 0 0 1
-12.916809 20.586946 15.688223 28.927265 -1.010454 0.997584 0.020597 -0.008540 109625.000000 0 0 1
-13.769009 20.065146 14.657823 28.408581 -0.969382 1.028663 0.024685 -0.012053 480552.000000 0 0 1
-14.853709 21.085846 14.156723 29.422073 -0.957097 1.068819 0.023093 -0.020353 381490.000000 0 0 1
-15.945709 21.286446 15.040523 30.554800 -0.927870 1.056126 0.013421 -0.013668 150312.000000 0 0 1
-16.841309 22.264846 14.538123 31.475548 -0.923207 1.090676 0.036284 -0.016022 -83859.200000 0 0 1
-18.182709 22.391946 15.240523 32.623362 -0.888769 1.084714 0.094005 -0.022961 -727942.000000 0 0 1
-19.124109 21.419946 14.925623 32.362322 -0.841963 1.091445 0.077776 -0.027199 325730.000000 0 0 1
-20.309309 21.353646 15.718323 33.399280 -0.810459 1.080805 0.078137 -0.021210 1039610.000000 0 0 1
-21.429909 22.418246 15.777123 34.795637 -0.807934 1.100195 0.082227 -0.021770 -330670.000000 0 0 1
-22.269909 22.489246 14.653523 34.877511 -0.790299 1.137194 0.078289 -0.016697 -120660.000000 0 0 1
-23.185509 23.533046 14.733323 36.172405 -0.792837 1.151291 0.087934 -0.021824 -179638.000000 0 0 1
-22.632309 24.837246 14.067523 36.428086 -0.831814 1.174318 0.073722 -0.015121 163230.000000 0 0 1
-21.383809 25.215846 14.622423 36.151369 -0.867447 1.154389 0.075316 -0.021464 4452.660000 0 0 1
-20.964409 26.366046 13.891723 36.436998 -0.899033 1.179645 0.051562 -0.013986 -457201.000000 0 0 1
-19.491709 26.705746 14.084623 35.937449 -0.940304 1.168078 0.053477 -0.016364 -166292.000000 0 0 1
-18.544009 25.925446 13.349623 34.557510 -0.949887 1.174178 0.050973 -0.002390 -491139.000000 0 0 1
-17.323409 26.589646 13.346923 34.427462 -0.993361 1.172680 0.026029 -0.004793 -1144570.000000 0 0 1
-16.290509 25.735946 12.614823 32.967459 -1.006474 1.178139 0.024327 -0.000072 -754680.000000 0 0 1
-15.027609 26.321146 12.708523 32.865458 -1.052024 1.173764 0.018379 0.004540 -36777.500000 0 0 1
-14.075409 25.803346 11.742423 31.651451 -1.071424 1.190720 0.016898 -0.000937 472830.000000 0 0 1
-12.736209 26.547146 11.897523 31.757095 -1.123473 1.186786 0.015874 0.007965 -1355010.000000 0 0 1
-11.627509 25.800946 11.544923 30.564245 -1.147392 1.183457 0.012789 0.002777 108274.000000 0 0 1
-10.382309 26.367846 11.978423 30.765862 -1.195690 1.170880 0.025807 -0.001710 677071.000000 0 0 1
-9.814209 27.489146 11.130323 31.238693 -1.227880 1.206492 0.024019 -0.007050 -639997.000000 0 0 1
-8.645709 28.078846 11.667423 31.611685 -1.272100 1.192771 0.045090 -0.015902 199450.000000 0 0 1
-8.151509 29.129446 10.900423 32.152620 -1.297938 1.224920 0.048328 -0.016047 -386990.000000 0 0 1
-6.918509 29.836546 11.516923 32.721931 -1.342943 1.211128 0.040786 -0.012904 -499023.000000 0 0 1
-5.770409 29.067246 11.320923 31.723268 -1.374825 1.205887 0.045192 -0.016027 -1136620.000000 0 0 1
-4.706709 29.799946 11.844423 32.411113 -1.414147 1.196687 0.033906 -0.011481 -941406.000000 0 0 1
-3.362909 29.450646 11.223523 31.695697 -1.457101 1.208842 0.029606 -0.018469 -650524.000000 0 0 1
-3.246409 29.853246 9.916723 31.624308 -1.462476 1.251836 0.041920 -0.022411 109161.000000 0 0 1
-1.982309 29.504746 9.384423 31.024619 -1.503711 1.263500 0.036204 -0.021751 385841.000000 0 0 1
-1.622509 30.305346 8.117823 31.415690 -1.517309 1.309430 0.033976 -0.027671 -25896.100000 0 0 1
-2.494809 29.877646 7.126423 30.816939 -1.487489 1.337434 0.052737 -0.028057 12836.300000 0 0 1
-2.259309 30.687146 5.986423 31.347132 -1.497305 1.378644 0.054165 -0.023278 108663.000000 0 0 1
11.111391 -34.303213 -26.691240 44.861963 -1.257544 2.208017 0.074100 -0.035297 -135853.000000 0 0 1
11.808691 -34.023313 -25.494990 44.125112 -1.236728 2.186813 0.066228 -0.030003 -331305.000000 0 0 1
13.011791 -33.363113 -25.759090 44.112750 -1.198936 2.194367 0.067825 -0.022389 -323478.000000 0 0 1
13.934791 -33.241013 -24.525110 43.596151 -1.173845 2.168266 0.062726 -0.006278 -712960.000000 0 0 1
13.386091 -32.471313 -23.487810 42.252229 -1.179780 2.160236 0.062637 -0.005667 51964.500000 0 0 1
13.923891 -32.500913 -22.156810 41.726590 -1.166036 2.130576 0.049010 -0.003803 -1067720.000000 0 0 1
15.395091 -32.312113 -21.877810 41.949017 -1.126166 2.119443 0.031489 0.004271 -1018510.000000 0 0 1
16.154391 -33.433513 -22.259510 43.292608 -1.120695 2.110829 0.031658 -0.002043 142807.000000 0 0 1
17.515591 -33.177913 -21.943210 43.463483 -1.085056 2.100022 0.024128 -0.009020 5602.100000 0 0 1
18.538091 -34.314413 -22.146610 44.850999 -1.075476 2.087230 0.016078 0.002388 355261.000000 0 0 1
19.843291 -33.894913 -21.734910 44.889059 -1.041155 2.076235 0.007879 0.008226 764572.000000 0 0 1
20.722891 33.671346 -21.705710 45.103610 1.019097 2.072866 0.013654 0.016990 -287361.000000 0 0 1
22.163991 34.000246 -21.352410 45.860491 0.993102 2.055103 0.024478 0.020381 -437792.000000 0 0 1
22.912791 -34.044113 -22.378410 46.741747 -0.978400 2.070046 0.021506 0.016386 -183082.000000 0 0 1
24.233691 -33.838913 -21.934010 47.047259 -0.949314 2.055801 0.019474 0.020641 190776.000000 0 0 1
25.111691 -33.456113 -23.196510 47.832903 -0.926920 2.077101 0.029231 0.009770 141777.000000 0 0 1
25.064591 -32.075513 -23.550910 47.028902 -0.907485 2.095291 0.029041 0.004211 -131599.000000 0 0 1
23.876691 -31.605713 -24.170810 46.403077 -0.923813 2.118687 0.023604 0.005850 273729.000000 0 0 1
23.650691 -30.057113 -23.988510 45.146803 -0.904120 2.130983 0.017751 -0.013933 -136076.000000 0 0 1
24.545991 -29.364613 -24.849710 45.632163 -0.874543 2.146668 0.022031 -0.015465 189366.000000 0 0 1
24.549491 -28.007213 -24.473210 44.564779 -0.851094 2.152156 0.027285 -0.007858 110351.000000 0 0 1
25.161891 -27.145413 -25.606100 45.007406 -0.823301 2.176001 0.021515 -0.006776 166254.000000 0 0 1
24.238291 -26.789613 -26.600270 44.863710 -0.835355 2.205468 0.020014 -0.013666 -559687.000000 0 0 1
24.926791 -26.444913 -27.773530 45.738904 -0.814941 2.223352 0.014553 -0.012138 -907635.000000 0 0 1
24.061591 -25.961213 -28.952490 45.729547 -0.823355 2.256379 0.020802 -0.016512 -25951.000000 0 0 1
23.359191 -24.773113 -28.673910 44.514627 -0.814765 2.270702 0.034770 -0.018945 152592.000000 0 0 1
22.223991 -24.921413 -27.814840 43.458577 -0.842551 2.265335 0.030666 -0.019193 -911601.000000 0 0 1
21.498491 -23.590113 -27.737120 42.285061 -0.831754 2.286244 0.034091 -0.009889 -209364.000000 0 0 1
20.817191 -23.246513 -28.943560 42.561549 -0.840474 2.318614 0.037274 -0.017991 445595.000000 0 0 1
20.183091 -21.960613 -28.850920 41.497003 -0.827551 2.339568 0.036552 -0.009177 49959.000000 0 0 1
19.288391 -21.534213 -30.059430 41.705320 -0.840357 2.375691 0.057966 -0.025316 -309208.000000 0 0 1
18.038691 -22.133613 -29.905440 41.347631 -0.886981 2.379320 0.066199 -0.026231 -570411.000000 0 0 1
17.065891 -21.570513 -30.757470 41.262012 -0.901464 2.411959 0.058429 -0.035339 -32474.600000 0 0 1
15.753291 -22.379113 -30.609550 41.060144 -0.957439 2.412052 0.068578 -0.036137 -448773.000000 0 0 1
15.907491 -23.648013 -31.257670 42.300340 -0.978644 2.402301 0.070465 -0.020952 244343.000000 0 0 1
15.066091 -24.651413 -30.720110 42.171133 -1.022207 2.386872 0.086199 -0.032328 -83756.500000 0 0 1
15.283091 -26.001013 -31.328970 43.487124 -1.039404 2.375203 0.092575 -0.031833 -261757.000000 0 0 1
14.534491 -26.953313 -30.698970 43.360804 -1.076246 2.357443 0.105730 -0.028552 -351100.000000 0 0 1
15.022791 -28.210013 -31.075290 44.577604 -1.081462 2.342149 0.111272 -0.027557 311565.000000 0 0 1
14.260891 -29.361513 -30.318430 44.549733 -1.118654 2.319313 0.112814 -0.032442 114620.000000 0 0 1
14.519791 -29.554813 -28.954350 43.848212 -1.114146 2.292056 0.124714 -0.033482 -122272.000000 0 0 1
14.173191 -28.478013 -28.036480 42.401896 -1.108999 2.293224 0.111687 -0.028195 -380676.000000 0 0 1
15.155291 -28.227013 -26.903980 41.836243 -1.078061 2.269308 0.079131 -0.018243 -411604.000000 0 0 1
15.242091 -29.282613 -25.995890 42.018794 -1.090870 2.237849 0.079236 -0.022530 -79950.800000 0 0 1
16.025491 -29.007913 -24.847310 41.420577 -1.066072 2.214145 0.082573 -0.020889 -1061580.000000 0 0 1
15.452891 -28.006813 -23.788710 39.863218 -1.066607 2.210252 0.067025 -0.017025 214748.000000 0 0 1
14.506891 -28.511913 -22.866410 39.322408 -1.100133 2.191381 0.063049 -0.010917 -121658.000000 0 0 1
13.274391 -28.832413 -23.486110 39.485629 -1.139329 2.207815 0.063971 -0.004328 -1789120.000000 0 0 1
12.110891 -28.500113 -22.596210 38.334304 -1.168975 2.201176 0.043410 0.000388 -903860.000000 0 0 1
11.926591 -27.132913 -22.327010 37.107060 -1.156657 2.216414 0.036171 -0.004530 -428459.000000 0 0 1
10.883891 -27.028113 -21.418710 36.162676 -1.187975 2.204692 0.033873 -0.007885 -583334.000000 0 0 1
10.379291 -25.559613 -21.376310 34.899429 -1.185058 2.230031 0.032223 -0.013937 115928.000000 0 0 1
11.289391 -24.801313 -20.571710 34.143092 -1.143632 2.217444 0.025246 -0.009619 608756.000000 0 0 1
10.921191 -23.432413 -20.564210 33.033879 -1.134658 2.242753 0.020241 -0.015482 -460445.000000 0 0 1
11.135891 -22.675113 -19.241610 31.755447 -1.114289 2.221732 0.037565 -0.011215 -31100.200000 0 0 1
10.435691 -23.185513 -18.114210 31.218525 -1.147863 2.189819 0.035248 -0.009654 233320.000000 0 0 1
10.539791 -22.230613 -17.105610 29.964800 -1.128073 2.178345 0.028887 -0.008326 -432963.000000 0 0 1
9.679591 -22.516613 -15.876610 29.202039 -1.164794 2.145614 0.028811 -0.004640 -279834.000000 0 0 1
9.943091 -23.772913 -15.275310 29.955827 -1.174654 2.105897 0.036632 -0.000684 -52627.200000 0 0 1
9.231291 -24.101713 -14.112810 29.415654 -1.205018 2.071191 0.037320 0.002955 -193620.000000 0 0 1
9.458591 -25.583813 -13.837210 30.585370 -1.216672 2.040265 0.042403 0.001428 47825.000000 0 0 1
10.665591 -26.128613 -13.347010 31.218615 -1.183245 2.012559 0.021437 0.005708 -270986.000000 0 0 1
10.635991 -27.541913 -13.487310 32.459033 -1.202265 1.999308 0.028071 -0.002953 -679565.000000 0 0 1
11.861891 -28.242013 -12.884510 33.231406 -1.173161 1.968954 0.034641 -0.012968 823167.000000 0 0 1
13.174191 -27.854613 -13.315410 33.566932 -1.129012 1.978696 0.033339 -0.002213 844413.000000 0 0 1
13.470991 -28.125713 -14.692110 34.472909 -1.124125 2.011076 0.044696 -0.007425 -672406.000000 0 0 1
14.844591 -27.727813 -15.251010 34.954067 -1.079256 2.022296 0.034173 -0.006284 -30583.200000 0 0 1
15.990991 -28.474913 -14.933810 35.910321 -1.059105 1.999689 0.072106 -0.013407 1603.570000 0 0 1
17.120991 -27.846213 -15.502610 36.178320 -1.019536 2.013634 0.091463 -0.020941 -66857.600000 0 0 1
18.497191 -28.474013 -15.285010 37.236367 -0.994691 1.993783 0.079483 -0.021794 -23029.600000 0 0 1
18.715091 -29.631913 -16.046310 38.545933 -1.007475 2.000158 0.074184 -0.009746 -476987.000000 0 0 1
20.002991 -30.151213 -15.871410 39.510973 -0.985043 1.984165 0.075263 -0.009610 -123055.000000 0 0 1
20.291391 -31.299513 -16.877510 40.942037 -0.995619 1.995696 0.058668 -0.014249 42591.400000 0 0 1
19.664191 -32.564813 -16.630510 41.517723 -1.027552 1.982929 0.058860 -0.005135 46690.600000 0 0 1
20.166791 -33.487413 -17.563810 42.855498 -1.028746 1.993073 0.045722 -0.006852 157143.000000 0 0 1
19.899691 33.738346 -17.254010 42.801572 1.037893 1.985716 0.024204 0.004936 -294757.000000 0 0 1
20.767091 33.180246 -16.327310 42.412048 1.011559 1.965970 0.040674 -0.005061 -231878.000000 0 0 1
20.335691 31.914146 -15.967310 41.073203 1.003472 1.970074 0.026852 -0.004535 -60353.500000 0 0 1
21.237491 31.344746 -14.807510 40.654477 0.975300 1.943600 0.036200 -0.009113 984640.000000 0 0 1
22.611091 31.224546 -15.264110 41.463559 0.944049 1.947797 0.037346 -0.006710 1292570.000000 0 0 1
23.586991 30.925546 -14.269710 41.428977 0.919215 1.922436 0.044313 -0.011683 438272.000000 0 0 1
23.369391 29.634346 -13.426310 40.057318 0.903051 1.912590 0.042974 -0.002180 -1172310.000000 0 0 1
23.554091 28.501346 -14.173210 39.598003 0.880152 1.936844 0.040345 0.001991 121147.000000 0 0 1
23.180491 27.273046 -13.527310 38.264113 0.866336 1.932133 0.016646 0.004465 113970.000000 0 0 1
21.714891 27.071746 -13.052910 37.078220 0.894762 1.930543 0.022705 0.002916 -201076.000000 0 0 1
20.870691 26.772446 -14.167210 36.783956 0.908645 1.966163 0.020957 -0.002827 89799.600000 0 0 1
19.491291 26.709346 -13.858010 35.851695 0.940378 1.967670 0.019443 -0.005167 427576.000000 0 0 1
18.760491 28.121846 -13.981310 36.582390 0.982484 1.962958 0.015117 -0.006363 -228375.000000 0 0 1
18.877691 28.856346 -15.197710 37.683236 0.991477 1.985918 0.013883 -0.006121 -9753.130000 0 0 1
18.111591 28.289646 -16.249810 37.314744 1.001327 2.021367 0.004131 -0.000263 -177362.000000 0 0 1
18.213091 29.009446 -17.554310 38.489199 1.010162 2.044386 0.003822 0.010517 -68190.700000 0 0 1
17.300891 30.076346 -17.548810 38.882749 1.048787 2.039047 0.007457 0.009182 -33099.800000 0 0 1
17.616891 30.898146 -18.703110 40.185278 1.052607 2.054908 -0.003302 0.015259 -500955.000000 0 0 1
16.692091 32.020646 -19.090910 40.846181 1.090261 2.057127 -0.004071 0.019987 -463905.000000 0 0 1
16.763291 33.174446 -18.219210 41.394340 1.102912 2.026548 0.014764 -0.002559 246355.000000 0 0 1
15.788391 34.129146 -18.628010 41.965160 1.137508 2.030734 0.022569 0.000195 288004.000000 0 0 1
15.800091 -33.368113 -17.630110 40.913257 -1.128565 2.016302 0.028184 0.002558 -158721.000000 0 0 1
14.910891 -32.415113 -18.111510 40.013761 -1.139659 2.040511 0.024338 0.001745 -420285.000000 0 0 1
14.573291 -31.548613 -17.068310 38.717219 -1.138065 2.027337 0.035445 0.000108 255284.000000 0 0 1
13.375691 -30.619813 -17.437810 37.690308 -1.158947 2.051790 0.042732 -0.003722 940728.000000 0 0 1
12.076191 -31.193913 -17.271010 37.645483 -1.201431 2.047418 0.037438 -0.002614 362483.000000 0 0 1
11.062091 -30.231413 -17.557410 36.668390 -1.220015 2.070102 0.025635 0.008041 263570.000000 0 0 1
9.741791 -30.922513 -17.944110 37.055302 -1.265600 2.076305 0.038511 0.000275 -1414000.000000 0 0 1
9.092891 -31.617613 -16.874910 36.974542 -1.290764 2.044733 0.044423 -0.002365 169405.000000 0 0 1
8.037191 -32.427813 -17.348710 37.644884 -1.327843 2.049751 0.059688 0.001920 22991.400000 0 0 1
6.788991 -31.782713 -17.974210 37.138975 -1.360353 2.075984 0.056392 0.006565 -1093140.000000 0 0 1
6.975791 -31.291313 -19.304110 37.422675 -1.351452 2.112784 0.048396 0.010509 -115718.000000 0 0 1
6.986391 -32.391013 -20.211010 38.813301 -1.358362 2.118495 0.054769 0.000393 -941100.000000 0 0 1
7.076791 -31.923513 -21.664910 39.224482 -1.352645 2.155955 0.055722 0.015402 668010.000000 0 0 1
8.361191 -31.461113 -22.149510 39.374001 -1.311038 2.168253 0.057211 0.004070 843621.000000 0 0 1
9.496691 -32.272013 -22.134410 40.269121 -1.284605 2.152756 0.063377 -0.007798 -349848.000000 0 0 1
9.473591 -33.421313 -23.127410 41.732604 -1.294582 2.158175 0.071759 -0.009194 -121784.000000 0 0 1
8.330591 -34.237113 -22.879710 42.012615 -1.332114 2.146698 0.075633 -0.022175 97882.200000 0 0 1
8.126391 33.519046 -23.869110 41.943999 1.332945 2.176172 0.071949 -0.034158 498323.000000 0 0 1
6.924491 32.546446 -23.512910 40.744038 1.361165 2.185955 0.074787 -0.039575 1896400.000000 0 0 1
5.598191 33.097146 -23.653710 41.064082 1.403238 2.184647 0.078568 -0.040269 1037440.000000 0 0 1
5.100191 33.873646 -22.544310 41.008313 1.421354 2.152861 0.059347 -0.028869 -450872.000000 0 0 1
3.744791 -34.172113 -22.827010 41.265351 -1.461646 2.156968 0.046431 -0.021554 -305943.000000 0 0 1
2.611091 33.687646 -22.804110 40.763988 1.493442 2.164480 0.040967 -0.034809 -269296.000000 0 0 1
1.504891 -34.218413 -23.132510 41.331314 -1.526846 2.164802 0.036112 -0.023278 -943330.000000 0 0 1
0.108991 33.931146 -22.917510 40.945657 1.567584 2.164827 0.020595 -0.027899 -634117.000000 0 0 1
-0.261109 34.156046 -21.572710 40.399078 -1.563152 2.134109 0.008357 -0.025725 477869.000000 0 0 1
-1.465909 33.424446 -21.252710 39.636097 -1.526967 2.136720 0.009198 -0.019566 805304.000000 0 0 1
-1.862009 33.582446 -19.729710 38.993707 -1.515407 2.101304 0.011464 -0.018692 429970.000000 0 0 1
-0.909609 32.972646 -18.867710 38.000174 -1.543217 2.090377 0.010754 -0.021834 59107.000000 0 0 1
-1.417009 32.899946 -17.506210 37.294527 -1.527753 2.059412 -0.007645 -0.012544 73750.400000 0 0 1
-0.728109 31.975446 -16.521810 35.999021 -1.548029 2.047611 -0.004439 0.000386 -213992.000000 0 0 1
0.471191 32.445346 -15.983910 36.171921 1.556275 2.028498 0.000572 -0.002066 -236864.000000 0 0 1
1.234691 31.354546 -15.408010 34.957671 1.531438 2.027244 0.020624 0.003167 189853.000000 0 0 1
2.210091 31.733846 -14.318410 34.884644 1.501264 1.993744 0.035281 -0.005092 -410339.000000 0 0 1
3.391991 32.338546 -14.774210 35.715045 1.466288 1.997277 0.048663 -0.010859 -358856.000000 0 0 1
3.984691 33.085246 -13.727410 36.040991 1.450937 1.961548 0.054183 -0.018382 -294687.000000 0 0 1
5.444991 33.428346 -14.033710 36.661250 1.409329 1.963615 0.066599 -0.027724 19546.300000 0 0 1
6.378891 32.356846 -14.085410 35.861602 1.376150 1.974440 0.066829 -0.020780 -404108.000000 0 0 1
7.534991 32.743046 -14.767810 36.701109 1.344609 1.984912 0.054204 -0.015775 -512809.000000 0 0 1
8.493291 31.591646 -15.068310 36.016969 1.308160 2.002443 0.042390 -0.015711 -21147.000000 0 0 1
9.325991 31.266646 -13.977510 35.495747 1.280925 1.975536 0.032289 -0.022507 -657416.000000 0 0 1
10.204791 30.217146 -14.204610 34.913960 1.245107 1.989795 0.035903 -0.022955 -414631.000000 0 0 1
9.686791 28.816546 -13.956710 33.451711 1.246510 2.001180 0.045822 -0.027762 -210343.000000 0 0 1
8.791191 28.426946 -15.008010 33.325916 1.270870 2.037943 0.052941 -0.027721 200022.000000 0 0 1
8.295091 27.145246 -14.722710 31.975477 1.274227 2.049284 0.041404 -0.019055 -517870.000000 0 0 1
7.618491 26.387646 -15.850010 31.710757 1.289725 2.094200 0.054869 -0.016720 455327.000000 0 0 1
8.484991 25.850146 -16.882210 32.019278 1.253639 2.126159 0.053326 -0.011861 408990.000000 0 0 1
7.718791 24.954346 -17.708210 31.557564 1.270814 2.166559 0.046469 -0.009819 551594.000000 0 0 1
8.580791 23.830646 -18.367310 31.287182 1.225175 2.198213 0.048355 -0.005732 -87641.600000 0 0 1
7.854691 22.877546 -19.102510 30.821813 1.240070 2.239249 0.056621 -0.012488 -207137.000000 0 0 1
8.631391 21.712846 -19.412110 30.377271 1.192426 2.264038 0.043678 -0.009973 -24868.100000 0 0 1
8.063391 20.848146 -20.513410 30.339141 1.201749 2.313303 0.033382 -0.016494 501802.000000 0 0 1
6.928791 20.088146 -20.029010 29.201079 1.238655 2.326636 0.041033 -0.019164 626934.000000 0 0 1
6.488691 19.244646 -21.118710 29.299478 1.245598 2.375735 0.037678 -0.020501 128902.000000 0 0 1
24.954491 -13.101754 -9.638210 29.787206 -0.483467 1.900295 0.079946 -0.013000 -267425.000000 0 0 1
25.307391 -12.133454 -8.659410 29.371246 -0.447067 1.870070 0.087698 -0.022621 -85353.900000 0 0 1
24.328091 -11.955754 -7.692910 28.177596 -0.456775 1.847322 0.080484 -0.012531 -1125480.000000 0 0 1
24.751391 -11.312054 -6.339510 27.942500 -0.428682 1.799666 0.059859 -0.014713 -592964.000000 0 0 1
25.008891 -9.922554 -6.185510 27.607286 -0.377711 1.796768 0.057938 -0.010090 292068.000000 0 0 1
26.097491 -9.407754 -6.919810 28.591408 -0.345985 1.815248 0.051282 -0.012020 -1076700.000000 0 0 1
26.524391 -7.991854 -6.491710 28.452686 -0.292651 1.800982 0.085975 -0.008393 -301690.000000 0 0 1
27.253491 -7.919554 -5.271110 28.866186 -0.282800 1.754432 0.092963 -0.018226 523809.000000 0 0 1
28.627791 -8.240154 -5.427610 30.280513 -0.280262 1.751015 0.099899 -0.020052 -292861.000000 0 0 1
29.343591 -8.474254 -4.083210 30.814476 -0.281145 1.703697 0.110874 -0.031815 -694444.000000 0 0 1
29.505291 -7.261354 -3.472010 30.583399 -0.241308 1.684568 0.104770 -0.019140 224986.000000 0 0 1
29.731591 -7.351654 -2.092010 30.698385 -0.242405 1.638996 0.103033 -0.023033 43109.400000 0 0 1
30.026891 -5.981254 -1.415410 30.649518 -0.196623 1.616993 0.094252 -0.029715 -383793.000000 0 0 1
28.821691 -5.270554 -1.306010 29.328728 -0.180869 1.615341 0.094484 -0.012753 -169096.000000 0 0 1
28.900491 -3.860154 -1.071110 29.176813 -0.132781 1.607516 0.098603 -0.005434 -145712.000000 0 0 1
29.555391 -3.351454 0.262090 29.745959 -0.112913 1.561985 0.096205 -0.021881 382823.000000 0 0 1
28.859891 -3.807854 1.422990 29.144776 -0.131185 1.521952 0.092332 -0.029815 389456.000000 0 0 1
29.746991 -3.618154 2.494090 30.069835 -0.121036 1.487758 0.083710 -0.022935 -134546.000000 0 0 1
29.298491 -4.165754 3.895890 29.848501 -0.141237 1.439901 0.091429 -0.019241 -261199.000000 0 0 1
29.527391 -5.588854 3.925090 30.306904 -0.187064 1.440920 0.095122 -0.029756 310469.000000 0 0 1
29.553691 -6.101954 5.259090 30.631887 -0.203609 1.398255 0.094539 -0.033403 -189807.000000 0 0 1
30.221691 -7.508654 5.357190 31.597942 -0.243522 1.400431 0.073593 -0.026529 164756.000000 0 0 1
31.620891 -7.317954 5.289890 32.884892 -0.227424 1.409234 0.076111 -0.020100 -260635.000000 0 0 1
32.372491 -8.471054 5.443190 33.902290 -0.255936 1.409543 0.076902 -0.022176 -107485.000000 0 0 1
33.884491 -8.151654 5.471290 35.278084 -0.236086 1.415077 0.070808 -0.021361 -10935.100000 0 0 1
34.409391 -7.894754 4.202290 35.552673 -0.225533 1.452320 0.084230 -0.027741 40835.500000 0 0 1
35.738291 -7.404054 4.284890 36.747867 -0.204284 1.453928 0.087484 -0.028113 399641.000000 0 0 1
-35.485674 -7.219154 2.945890 36.332183 0.200700 1.489625 0.079762 -0.029673 23038.400000 0 0 1
-35.103474 -8.391754 2.222090 36.160934 0.234654 1.509308 0.100123 -0.035226 311553.000000 0 0 1
-34.234174 -8.144154 1.135990 35.207903 0.233554 1.538526 0.121596 -0.038937 -17189.200000 0 0 1
-33.804074 -9.469854 0.437890 35.108194 0.273138 1.558323 0.114678 -0.035087 -118314.000000 0 0 1
-33.103974 -10.292854 1.339890 34.693101 0.301449 1.532165 0.111145 -0.030652 103774.000000 0 0 1
-33.046274 -11.598554 0.877790 35.033601 0.337547 1.545738 0.104994 -0.034090 -1002430.000000 0 0 1
-32.531174 -12.484454 2.010190 34.902432 0.366436 1.513170 0.087229 -0.044037 680354.000000 0 0 1
-31.141774 -12.464854 2.347890 33.625813 0.380732 1.500915 0.088614 -0.031483 795040.000000 0 0 1
-30.304374 -13.033654 1.340190 33.015562 0.406175 1.530192 0.090138 -0.016049 -1355220.000000 0 0 1
-29.011774 -13.557254 1.915590 32.080394 0.437149 1.511049 0.079213 -0.014646 -940847.000000 0 0 1
-28.120474 -12.549354 2.303690 30.879675 0.419749 1.496125 0.070445 -0.016549 -511901.000000 0 0 1
-26.915174 -13.107854 2.728090 30.061352 0.453199 1.479921 0.068116 -0.006538 -549982.000000 0 0 1
-26.097274 -12.016154 3.429490 28.934704 0.431499 1.451992 0.051758 0.003756 -214747.000000 0 0 1
-24.898874 -12.423254 4.055490 28.120067 0.462806 1.426071 0.039796 0.012400 166115.000000 0 0 1
-24.308574 -11.369054 4.789590 27.259904 0.437473 1.394179 0.045035 0.015452 89356.600000 0 0 1
-23.053174 -11.898854 5.523090 26.524255 0.476483 1.361034 0.042319 0.027413 -149146.000000 0 0 1
-23.275874 -12.743254 6.602490 27.345013 0.500912 1.326935 0.046143 0.020070 -282335.000000 0 0 1
-22.050274 -13.100454 7.184790 26.635647 0.536083 1.297670 0.047077 0.021370 -125806.000000 0 0 1
-21.816074 -12.581454 8.641390 26.625321 0.523115 1.240255 0.065673 0.016318 -601741.000000 0 0 1
-21.420174 -11.187954 8.706290 25.686449 0.481335 1.225001 0.059788 0.012942 223305.000000 0 0 1
-22.394374 -10.272854 9.138690 26.278417 0.430086 1.215611 0.069471 0.011939 -388542.000000 0 0 1
-22.990374 -10.487454 10.603790 27.404094 0.427971 1.173484 0.069329 0.009206 25719.900000 0 0 1
-23.760374 -11.693854 10.752590 28.581809 0.457354 1.185100 0.061224 0.005387 -232097.000000 0 0 1
-25.121174 -11.645754 10.467390 29.601744 0.434092 1.209372 0.065595 0.003307 -597164.000000 0 0 1
-26.021174 -11.183154 11.641690 30.621780 0.405905 1.180809 0.065522 0.001393 -673165.000000 0 0 1
-26.032974 -12.122454 12.709590 31.403874 0.435798 1.154130 0.059150 -0.000592 -103839.000000 0 0 1
-26.927274 -11.902454 13.760390 32.497613 0.416200 1.133571 0.036623 -0.004604 -268997.000000 0 0 1
-26.741374 -12.860754 14.986090 33.242788 0.448276 1.103127 0.030765 -0.007379 -140216.000000 0 0 1
-27.141274 -14.228054 14.724590 33.998527 0.482837 1.122873 0.021700 -0.002645 412713.000000 0 0 1
-26.598674 -15.014054 15.761790 34.370704 0.513882 1.094397 -0.011927 0.012685 -638226.000000 0 0 1
-26.604474 -16.483954 15.353990 34.860634 0.554702 1.114708 -0.002794 0.008139 312383.000000 0 0 1
-27.759474 -17.268154 15.757690 36.291629 0.556485 1.121650 -0.014927 0.017273 780841.000000 0 0 1
-27.520974 -18.648454 15.639990 36.739327 0.595540 1.131059 -0.014673 0.025093 -629593.000000 0 0 1
-28.570874 -19.456754 16.357890 38.241871 0.597860 1.128796 -0.028144 0.026603 -485313.000000 0 0 1
-28.602474 -19.331354 17.752790 38.819638 0.594342 1.095823 -0.008644 0.023397 -273517.000000 0 0 1
-29.203174 -20.405154 18.441890 40.116069 0.609874 1.093124 -0.006048 0.017829 -67037.600000 0 0 1
-28.291274 -21.659554 18.625590 40.205038 0.653405 1.089120 -0.012553 0.014584 205832.000000 0 0 1
-27.270274 -21.437054 19.580190 39.832135 0.666205 1.056907 -0.005121 0.015364 368195.000000 0 0 1
-26.493274 -22.640954 19.788390 40.076012 0.707154 1.054375 0.001002 0.007710 -446358.000000 0 0 1
-25.106774 -22.410454 20.340790 39.323356 0.728715 1.027138 0.018724 0.011982 -730725.000000 0 0 1
-24.154974 -21.941154 19.406190 37.966791 0.737409 1.034290 0.022952 0.011714 -495180.000000 0 0 1
-22.899374 -22.004654 20.013290 37.538219 0.765476 1.008483 0.023810 0.015682 211672.000000 0 0 1
-21.675474 -21.769554 19.042890 36.143759 0.787564 1.015888 0.030824 0.011760 626533.000000 0 0 1
-21.477474 -22.849054 18.108590 36.211631 0.816331 1.047109 0.029879 0.005918 483539.000000 0 0 1
-20.388474 -22.536154 17.234590 34.937075 0.835390 1.054913 0.029360 -0.000346 317241.000000 0 0 1
-20.090074 -23.526754 16.101690 34.876692 0.864028 1.090914 0.028544 -0.001583 -361903.000000 0 0 1
-19.875374 -24.858754 16.518990 35.858962 0.896341 1.092051 0.036558 -0.013480 283022.000000 0 0 1
-18.705674 -25.244654 17.227890 35.832876 0.933096 1.069247 0.032671 -0.014572 1289810.000000 0 0 1
-17.298174 -25.238174 16.484290 34.755202 0.969938 1.076631 0.018014 -0.006541 964929.000000 0 0 1
-16.808474 -23.973254 16.261290 33.491361 0.959309 1.063819 0.018179 -0.001641 141593.000000 0 0 1
-15.437074 -24.053054 15.875890 32.693983 1.000212 1.063758 0.026236 -0.010847 249913.000000 0 0 1
-14.746774 -22.692254 15.729390 31.302068 0.994520 1.044305 0.036675 -0.006021 -306244.000000 0 0 1
-15.312174 -21.793754 14.783490 30.462796 0.958331 1.064094 0.029077 0.002949 -485963.000000 0 0 1
-16.363074 -20.987854 15.226090 30.660627 0.908591 1.051118 0.038597 0.004629 -576950.000000 0 0 1
-16.065874 -19.798054 16.209490 30.212958 0.889090 1.004503 0.042393 0.004015 -354680.000000 0 0 1
-15.400174 -18.707254 15.584090 28.809557 0.882057 0.999248 0.038970 0.006209 127317.000000 0 0 1
-15.190174 -17.581554 16.435890 28.460339 0.858240 0.955131 0.029071 0.004433 -726424.000000 0 0 1
-14.491274 -16.421954 15.699090 26.946967 0.847772 0.948882 0.034245 0.003229 54055.800000 0 0 1
-15.222174 -15.749254 14.673390 26.364028 0.802415 0.980546 0.036455 -0.002766 34141.600000 0 0 1
-15.234174 -16.375154 13.441990 26.094306 0.821479 1.029636 0.040526 -0.007772 -591537.000000 0 0 1
-16.115874 -15.594454 12.497890 25.673053 0.768956 1.062363 0.044537 -0.004445 -1120540.000000 0 0 1
-17.415374 -15.625454 12.973690 26.753817 0.731278 1.064515 0.040131 -0.006039 -1122740.000000 0 0 1
-18.259174 -14.734954 12.308790 26.495710 0.678988 1.087661 0.052193 -0.002967 -376004.000000 0 0 1
-19.746374 -14.866354 12.745090 27.809443 0.645332 1.094714 0.047893 -0.005898 681612.000000 0 0 1
-20.503674 -15.921954 12.094890 28.639058 0.660272 1.134791 0.051606 -0.002606 408688.000000 0 0 1
-20.773774 -15.727454 10.687490 28.162474 0.648018 1.181547 0.058558 0.006707 -304844.000000 0 0 1
-21.573574 -16.919154 10.026790 29.192694 0.665065 1.220188 0.056462 0.004584 181991.000000 0 0 1
-20.879874 -18.097254 9.892190 29.348512 0.714128 1.227005 0.054321 0.012329 19636.000000 0 0 1
-21.661174 -18.934154 9.037190 30.155919 0.718323 1.266437 0.047965 0.010839 507276.000000 0 0 1
-21.116974 -20.423854 9.070390 30.746258 0.768714 1.271333 0.050829 0.010208 599962.000000 0 0 1
-19.952874 -20.620154 8.284490 29.865376 0.801843 1.289715 0.051643 0.004746 -66039.300000 0 0 1
-19.586774 -21.982254 8.283290 30.585521 0.842961 1.296548 0.036991 -0.001547 76785.000000 0 0 1
-18.390374 -22.332054 7.358790 29.850934 0.881891 1.321711 0.037144 -0.009992 -296976.000000 0 0 1
-17.299074 -21.583554 7.768490 28.730771 0.895145 1.296999 0.028462 -0.007579 -373534.000000 0 0 1
-16.051274 -22.068054 7.301490 28.248082 0.941947 1.309351 0.042002 -0.013140 572134.000000 0 0 1
-14.784874 -21.667854 8.097490 27.452828 0.972020 1.271383 0.021474 -0.003382 -247147.000000 0 0 1
-13.614174 -22.245954 7.631890 27.174877 1.021611 1.286123 0.029376 0.006301 -640647.000000 0 0 1
-12.449674 -22.028154 8.364990 26.649709 1.056380 1.251512 0.032001 0.012889 -63273.600000 0 0 1
-11.146474 -22.560754 7.762890 26.334274 1.111908 1.271568 0.032256 0.016630 -15090.400000 0 0 1
-11.039974 -23.947454 7.763590 27.488814 1.138826 1.284473 0.034810 0.013369 -420143.000000 0 0 1
-9.724174 -24.388054 7.529090 27.313439 1.191388 1.291525 0.043900 0.013724 -94723.600000 0 0 1
-9.483974 -25.869554 7.469490 28.547730 1.219404 1.306066 0.034835 0.011484 -187574.000000 0 0 1
-10.006374 -26.517444 6.346990 29.044563 1.209966 1.350493 0.034612 0.003143 -164751.000000 0 0 1
-10.003674 -27.939484 6.576390 30.396335 1.226970 1.352717 0.045210 -0.001759 257229.000000 0 0 1
-8.990074 -28.645814 5.624590 30.545705 1.266695 1.385603 0.057073 -0.006291 427109.000000 0 0 1
-7.652474 -28.221964 5.908290 29.831988 1.306010 1.371426 0.050344 -0.005594 1147860.000000 0 0 1
-6.532474 -28.956844 5.346790 30.162231 1.348917 1.392587 0.045408 -0.000954 1360360.000000 0 0 1
-6.437474 -30.431624 5.807590 31.642581 1.362331 1.386213 0.043764 -0.013573 -688504.000000 0 0 1
-6.599474 -30.417344 7.257290 31.959914 1.357144 1.341723 0.041518 -0.006519 32648.600000 0 0 1
-6.349474 -31.660194 7.817690 33.223485 1.372871 1.333263 0.053713 -0.014691 -104517.000000 0 0 1
-6.741474 -31.891274 9.291790 33.894516 1.362474 1.293103 0.039731 -0.015655 -205091.000000 0 0 1
-5.816474 -31.366044 10.204090 33.493037 1.387441 1.261212 0.026316 -0.009029 53666.700000 0 0 1
-6.292474 -31.586604 11.501690 34.199381 1.374157 1.227797 0.014893 -0.006189 -224649.000000 0 0 1
-5.446474 -30.868044 12.571390 33.771883 1.396150 1.189370 0.021727 -0.004712 -44210.400000 0 0 1
-5.585474 -29.430334 12.598290 32.497061 1.383241 1.172689 0.028945 -0.005536 121066.000000 0 0 1
-4.653474 -28.705164 13.390390 32.014744 1.410082 1.139271 0.014343 -0.009185 -672136.000000 0 0 1
-5.296474 -28.013114 14.639190 32.048293 1.383931 1.096418 0.025803 -0.012631 -49313.900000 0 0 1
-5.976474 -28.911274 15.509890 33.348713 1.366950 1.087069 0.031174 -0.013635 112648.000000 0 0 1
-5.164474 -29.700274 16.363590 34.300804 1.398631 1.073488 0.013842 -0.017752 -4319.380000 0 0 1
-5.833474 -31.062434 16.645890 35.721000 1.385160 1.086035 0.015192 -0.022105 52372.300000 0 0 1
-5.744474 -32.034364 15.677090 36.124377 1.393360 1.121896 0.007672 -0.011545 -19957.900000 0 0 1
-6.410474 -33.104204 16.226690 37.420422 1.379518 1.122277 0.012115 -0.012804 -76338.700000 0 0 1
-5.811474 34.242680 15.686690 38.110452 -1.402684 1.146575 0.004006 -0.011991 111779.000000 0 0 1
-6.092474 34.106396 14.311390 37.485735 -1.394029 1.179072 0.003707 -0.009702 140627.000000 0 0 1
-5.415474 33.028901 13.704090 36.166804 -1.408281 1.182174 0.013205 -0.008560 248256.000000 0 0 1
-4.177474 33.443044 12.838990 36.065609 -1.446527 1.206823 0.018140 -0.012705 115876.000000 0 0 1
-4.492474 33.998542 11.603490 36.203924 -1.439420 1.244535 0.017152 -0.014838 -161944.000000 0 0 1
-3.344474 -34.344469 10.890590 36.184707 1.473722 1.265084 0.024133 -0.021830 -781700.000000 0 0 1
-3.758474 -33.990034 9.442490 35.476882 1.460668 1.301390 0.017047 -0.023796 -588016.000000 0 0 1
-3.951474 33.696362 8.488690 34.973088 -1.454062 1.325627 0.032995 -0.030165 209970.000000 0 0 1
-4.816474 32.609306 8.797790 34.116951 -1.424154 1.309978 0.044847 -0.029997 548966.000000 0 0 1
-6.308474 32.857464 9.171690 34.691925 -1.381109 1.303240 0.050778 -0.020443 454381.000000 0 0 1
-7.123574 33.335411 8.096690 35.036428 -1.360269 1.337595 0.058576 -0.018636 176417.000000 0 0 1
-8.525474 33.329410 8.346890 35.400619 -1.320372 1.332771 0.051539 -0.018355 250133.000000 0 0 1
-9.237274 33.687785 7.059190 35.637428 -1.303172 1.371394 0.065306 -0.022451 -370602.000000 0 0 1
-9.170074 -33.599414 6.699590 35.466821 1.304362 1.380757 0.052216 -0.017925 44013.900000 0 0 1
-9.759174 -33.504444 5.422690 35.315645 1.287359 1.416637 0.050296 -0.011454 -308005.000000 0 0 1
-9.811174 -32.041214 4.797590 33.851372 1.273657 1.428592 0.049867 -0.008791 797297.000000 0 0 1
-10.821574 -31.165904 5.381590 33.427258 1.236596 1.409099 0.064279 -0.014674 143833.000000 0 0 1
-12.096474 -31.293824 4.815190 33.894161 1.201943 1.428249 0.060938 -0.012684 -145204.000000 0 0 1
-13.130174 -30.376664 5.556290 33.556155 1.162805 1.404448 0.063401 -0.017048 73883.700000 0 0 1
-13.540774 -31.015594 6.745190 34.508220 1.159159 1.374064 0.062735 -0.011339 142082.000000 0 0 1
-14.206674 -30.001434 7.565590 34.046348 1.128545 1.346711 0.043872 -0.008133 355164.000000 0 0 1
33.314736 -12.894154 -12.982210 38.008797 -0.369285 1.919370 0.034506 -0.032432 245061.000000 0 0 1
32.275936 -12.826454 -11.983310 36.740355 -0.378263 1.903037 0.053938 -0.034394 762512.000000 0 0 1
31.985886 -14.138654 -11.463510 36.802316 -0.416205 1.887556 0.057456 -0.033363 19048.400000 0 0 1
33.022546 -14.608154 -10.411710 37.580452 -0.416490 1.851520 0.046206 -0.024994 -542699.000000 0 0 1
34.303266 -14.779654 -10.900110 38.909698 -0.406817 1.854735 0.050866 -0.029338 -677543.000000 0 0 1
35.185726 -15.343154 -9.923110 39.647393 -0.411203 1.823770 0.039083 -0.024557 1197660.000000 0 0 1
-35.293524 -15.524754 -10.437310 39.944815 0.414403 1.835158 0.028787 -0.027784 802041.000000 0 0 1
-34.677523 -14.314254 -10.758610 39.027890 0.391476 1.850077 0.031455 -0.027295 128873.000000 0 0 1
-33.303769 -14.421454 -11.085210 37.947348 0.408650 1.867240 0.044021 -0.030674 561545.000000 0 0 1
-32.565049 -13.058754 -11.353910 36.877158 0.381373 1.883765 0.054141 -0.041069 -9496.290000 0 0 1
-32.455339 -12.266654 -10.188610 36.161134 0.361359 1.856420 0.069520 -0.041005 468474.000000 0 0 1
-31.789649 -11.006054 -10.408710 35.214433 0.333299 1.870860 0.077606 -0.036676 -231891.000000 0 0 1
-32.393899 -9.874954 -9.645910 35.212540 0.295891 1.848277 0.079442 -0.040544 -306677.000000 0 0 1
-31.840889 -9.724354 -8.353510 34.324720 0.296408 1.816632 0.087372 -0.034055 -48608.500000 0 0 1
-32.617249 -9.011154 -7.455010 34.650585 0.269546 1.787640 0.091528 -0.039094 -503784.000000 0 0 1
-32.055389 -9.117454 -6.020210 33.866191 0.277110 1.749511 0.086420 -0.030742 -174682.000000 0 0 1
-30.800189 -8.455854 -5.998610 32.498253 0.267938 1.756443 0.096750 -0.047497 121948.000000 0 0 1
-30.149179 -8.373354 -4.732710 31.646241 0.270903 1.720910 0.099680 -0.044944 123697.000000 0 0 1
-29.335589 -9.647054 -4.303110 31.179467 0.317712 1.709249 0.095545 -0.041975 -553741.000000 0 0 1
-30.065549 -10.776154 -3.906010 32.176383 0.344158 1.692490 0.113141 -0.042618 2114.750000 0 0 1
-30.705639 -10.632554 -2.665310 32.603548 0.333351 1.652637 0.092164 -0.041346 -395496.000000 0 0 1
-31.511559 -11.872554 -2.273810 33.750646 0.360320 1.638218 0.091399 -0.028663 -483297.000000 0 0 1
-32.770829 -12.061454 -2.869410 35.037686 0.352668 1.652783 0.091146 -0.036940 -199173.000000 0 0 1
-33.339309 -13.151454 -2.232810 35.908992 0.375733 1.633016 0.093682 -0.045947 -1385580.000000 0 0 1
-34.835097 -13.285254 -2.386510 37.358766 0.364348 1.634721 0.072303 -0.030039 -1116730.000000 0 0 1
-35.396042 -12.263054 -1.616110 37.494988 0.333511 1.613912 0.089031 -0.042797 -822603.000000 0 0 1
35.190156 -12.414354 -1.478210 37.344991 -0.339149 1.610389 0.089742 -0.035121 -743629.000000 0 0 1
34.614536 -11.454254 -0.398410 36.462649 -0.319567 1.581723 0.091935 -0.034186 -94257.600000 0 0 1
35.009236 -11.943454 0.891190 37.001175 -0.328770 1.546709 0.108197 -0.031662 334530.000000 0 0 1
34.776976 -10.928254 1.875190 36.501796 -0.304468 1.519401 0.097840 -0.032107 -170820.000000 0 0 1
35.248696 -11.222254 3.313490 37.140123 -0.308227 1.481462 0.099248 -0.037536 -76393.200000 0 0 1
34.271806 -11.904454 4.049490 36.505768 -0.334316 1.459640 0.096855 -0.039118 -106619.000000 0 0 1
34.690846 -12.022054 5.414590 37.112024 -0.333597 1.424375 0.091666 -0.031819 -359784.000000 0 0 1
33.600586 -12.453454 6.383190 36.398256 -0.354936 1.394514 0.086177 -0.026363 21078.300000 0 0 1
32.651016 -11.472154 6.777690 35.265227 -0.337883 1.377401 0.082429 -0.022381 339655.000000 0 0 1
32.487686 -11.391454 8.222090 35.395165 -0.337244 1.336361 0.065971 -0.008748 -397371.000000 0 0 1
31.697496 -10.184854 8.692890 34.409720 -0.310895 1.315400 0.069169 -0.014257 -594311.000000 0 0 1
30.308726 -10.227254 8.514890 33.101646 -0.325438 1.310637 0.071856 -0.011494 -200815.000000 0 0 1
29.698876 -9.318654 9.391690 32.512527 -0.304043 1.277757 0.082839 -0.002690 -118622.000000 0 0 1
28.157256 -9.402754 9.460090 31.156639 -0.322294 1.262296 0.067301 -0.009909 274165.000000 0 0 1
27.508046 -8.772154 8.355790 30.057653 -0.308699 1.289093 0.088330 -0.014581 595681.000000 0 0 1
26.829656 -9.667454 7.445990 29.474275 -0.345845 1.315402 0.092570 -0.027631 -132476.000000 0 0 1
25.858256 -9.089454 6.434390 28.154377 -0.338020 1.340219 0.097419 -0.030993 -550334.000000 0 0 1
24.716856 -8.474854 6.993590 27.049148 -0.330316 1.309274 0.089442 -0.024601 -27219.100000 0 0 1
23.741056 -8.125054 6.069790 25.816595 -0.329742 1.333463 0.072553 -0.025207 -534909.000000 0 0 1
23.986356 -6.814554 5.358790 25.504902 -0.276808 1.359111 0.077532 -0.024098 -901502.000000 0 0 1
24.859556 -6.887554 4.236890 26.141675 -0.270279 1.408004 0.068065 -0.025971 348935.000000 0 0 1
25.347756 -5.622854 3.931990 26.259965 -0.218294 1.420498 0.085195 -0.031389 -131135.000000 0 0 1
26.165556 -5.620054 2.634390 26.891659 -0.211574 1.472676 0.107286 -0.032687 74939.900000 0 0 1
25.305756 -5.825654 1.525590 26.012438 -0.226268 1.512114 0.094291 -0.028377 422619.000000 0 0 1
26.057256 -5.741554 0.299190 26.683994 -0.216878 1.559584 0.096303 -0.025063 -195456.000000 0 0 1
25.374256 -6.202854 -1.011110 26.140976 -0.239753 1.609485 0.091992 -0.023106 23919.000000 0 0 1
24.281556 -5.326754 -1.273110 24.891546 -0.215954 1.621965 0.083084 -0.012188 120227.000000 0 1 0
23.882456 -5.650954 -2.625810 24.681974 -0.232342 1.677384 0.078884 -0.004130 105741.000000 0 1 0
22.537756 -4.976354 -3.024610 23.277947 -0.217314 1.701099 0.043987 0.002961 32989.400000 0 1 0
22.335156 -3.580854 -3.169810 22.841397 -0.158971 1.710020 0.022091 0.003106 437401.000000 0 1 0
23.197356 -2.979354 -4.161210 23.755200 -0.127736 1.746875 0.038842 0.000598 -20111.700000 0 1 0
22.616556 -1.890554 -5.050810 23.250666 -0.083398 1.789775 0.035211 0.009932 -285514.000000 0 1 0
22.160956 -0.719554 -4.425710 22.610012 -0.032458 1.767810 0.025269 0.017559 503840.000000 0 1 0
21.529256 0.119146 -5.377410 22.190980 0.005534 1.815557 0.042512 0.016458 -95937.800000 0 1 0
21.307156 1.569446 -4.924810 21.925141 0.073525 1.797349 0.053333 0.022178 -448162.000000 0 1 0
22.499356 2.273846 -4.766410 23.110821 0.100721 1.778529 0.058979 0.019087 17718.900000 0 1 0
22.900656 2.409346 -3.420210 23.279666 0.104823 1.718248 0.068616 0.010973 -172560.000000 0 1 0
23.988156 3.468146 -3.186210 24.446096 0.143583 1.701504 0.041820 0.011575 -263156.000000 0 1 0
23.602756 4.761846 -3.491710 24.330173 0.199077 1.714807 0.042728 0.014075 652318.000000 0 1 0
24.562056 5.664046 -2.914110 25.374555 0.226640 1.685894 0.035065 0.008749 272375.000000 0 0 1
24.211356 7.182846 -2.962210 25.427499 0.288401 1.687558 0.039744 0.002392 -485184.000000 0 0 1
23.179656 7.493446 -2.081810 24.449583 0.312673 1.656047 0.054877 0.000856 171682.000000 0 1 0
22.504256 8.705946 -2.430110 24.251608 0.369126 1.671169 0.045699 0.003923 457450.000000 0 1 0
21.299056 9.059946 -1.513310 23.195312 0.402183 1.636085 0.033961 0.007139 89105.300000 0 1 0
21.832756 9.455046 -0.267710 23.793671 0.408684 1.582048 0.023573 0.001407 1332300.000000 0 1 0
20.805156 9.977646 0.606390 23.081933 0.447175 1.544522 0.010104 0.000099 279045.000000 0 1 0
21.344356 10.227146 2.036990 23.755534 0.446829 1.484943 0.034262 -0.007765 -381854.000000 0 1 0
22.305656 11.250246 2.204390 25.079268 0.467135 1.482786 0.053568 -0.017184 437889.000000 0 0 1
21.849256 12.572046 2.016290 25.288570 0.522134 1.490980 0.054368 -0.006677 -243518.000000 0 0 1
20.842256 13.147546 3.048090 24.830394 0.562768 1.447730 0.043429 0.000184 780327.000000 0 1 0
19.508056 12.577946 2.996690 23.404041 0.572680 1.442402 0.085057 -0.011447 1282090.000000 0 1 0
18.592956 13.463846 3.625990 23.240503 0.626742 1.414136 0.067408 -0.007499 2690.630000 0 1 0
18.469756 13.342146 5.182890 23.366795 0.625587 1.347130 0.044541 -0.002687 -712908.000000 0 1 0
18.034456 12.114546 5.517590 22.415344 0.591510 1.322088 0.037364 -0.004997 269063.000000 0 1 0
18.157156 12.008546 6.939490 22.848283 0.584325 1.262201 0.031670 -0.010644 -74014.000000 0 1 0
18.203056 10.535646 7.384590 22.290878 0.524674 1.233133 0.022189 -0.025154 -342254.000000 0 1 0
19.371356 9.828646 7.055090 22.839133 0.469534 1.256756 0.017939 -0.024653 113762.000000 0 1 0
19.382056 8.537146 7.456690 22.453267 0.414898 1.232269 0.027749 -0.021192 -355039.000000 0 1 0
20.466456 7.830446 6.676690 22.907857 0.365416 1.275045 0.044549 -0.021701 -346732.000000 0 1 0
20.044956 7.696146 5.346090 22.127169 0.366589 1.326774 0.032046 -0.026986 176610.000000 0 1 0
21.021656 7.151846 4.532590 22.662817 0.327930 1.369437 0.045579 -0.021590 -359903.000000 0 1 0
20.482256 6.712446 3.131390 21.780389 0.316690 1.426525 0.038495 -0.019627 954237.000000 0 1 0
21.565556 6.007246 2.458390 22.521188 0.271671 1.461419 0.046192 -0.017570 1276950.000000 0 1 0
21.206356 5.724046 1.097590 21.992702 0.263638 1.520869 0.043639 -0.005140 -351573.000000 0 1 0
22.094256 4.748546 0.326990 22.601145 0.211702 1.556328 0.047666 -0.001349 -178389.000000 0 1 0
21.988756 3.419246 0.756690 22.265876 0.154264 1.536805 0.042997 0.001729 363252.000000 0 1 0
23.192656 2.743946 0.466590 23.359072 0.117764 1.550820 0.052148 0.008046 86274.500000 0 1 0
23.100156 1.157846 0.566890 23.136101 0.050081 1.546291 0.070410 0.000843 59004.100000 0 1 0
22.225856 0.672446 -0.460210 22.240788 0.030246 1.591490 0.046295 -0.000988 760795.000000 0 1 0
22.513056 -0.644754 -0.868710 22.539034 -0.028631 1.609348 0.053762 0.000197 -975054.000000 0 1 0
22.334256 -1.873054 0.081390 22.412808 -0.083669 1.567165 0.078773 -0.002459 172945.000000 0 1 0
23.294156 -2.002254 1.127390 23.407215 -0.085744 1.522613 0.088030 -0.007866 706764.000000 0 1 0
24.602156 -2.298554 0.653690 24.717944 -0.093159 1.544347 0.096064 -0.009259 -40050.600000 0 1 0
25.699756 -2.041854 1.736690 25.839170 -0.079284 1.503534 0.104949 -0.012931 115876.000000 0 0 1
25.780856 -0.722354 2.108890 25.877051 -0.028012 1.489209 0.101792 -0.014845 503085.000000 0 0 1
26.733556 -0.472454 3.138790 26.921334 -0.017671 1.453939 0.099156 -0.012940 -116485.000000 0 0 1
26.509756 0.882946 3.897390 26.809260 0.033294 1.424905 0.113588 -0.005792 36521.000000 0 0 1
26.756856 2.038146 3.157590 27.019507 0.076026 1.453665 0.117213 -0.002682 2031270.000000 0 0 1
28.109746 2.218346 2.572290 28.314229 0.078754 1.479823 0.120088 -0.011214 1688430.000000 0 0 1
28.269656 3.411846 1.559690 28.517482 0.120108 1.516077 0.126015 -0.016984 -360395.000000 0 0 1
27.534136 3.252746 0.370590 27.728079 0.117590 1.557431 0.121174 -0.002797 117764.000000 0 0 1
27.818306 4.135546 -0.699210 28.132717 0.147582 1.595653 0.107393 -0.000664 -448130.000000 0 0 1
29.082996 3.878946 -1.522010 29.379983 0.132593 1.622624 0.088637 -0.005300 -720805.000000 0 0 1
30.269876 4.044746 -0.810810 30.549677 0.132836 1.597340 0.109250 -0.017865 -1353610.000000 0 0 1
31.339556 3.628446 -1.580710 31.588479 0.115265 1.620858 0.084658 -0.021643 52578.300000 0 0 1
32.676666 3.879246 -0.767310 32.915070 0.118163 1.594110 0.046305 -0.025558 190216.000000 0 0 1
32.873926 3.113046 0.377390 33.023151 0.094415 1.559368 0.039871 -0.019035 416752.000000 0 0 1
32.230326 3.679646 1.544290 32.476431 0.113675 1.523227 0.049002 -0.007209 57711.600000 0 0 1
32.323166 2.733146 2.761290 32.555827 0.084356 1.485877 0.052210 0.001007 -367251.000000 0 0 1
31.361446 1.717146 2.745590 31.528196 0.054699 1.483602 0.068270 -0.003486 -135506.000000 0 0 1
31.420406 0.831346 3.843190 31.665488 0.026453 1.449128 0.051305 -0.003383 113317.000000 0 0 1
32.631496 -0.148254 3.712290 32.842314 -0.004543 1.457520 0.058369 -0.009590 782910.000000 0 0 1
33.881086 0.482946 3.997890 34.119560 0.014253 1.453354 0.053546 -0.009750 -262928.000000 0 0 1
34.931736 -0.404654 3.915890 35.152868 -0.011584 1.459169 0.052783 -0.015673 -809444.000000 0 0 1
-35.663023 0.292046 4.195690 35.910170 -0.008189 1.453690 0.067731 -0.026766 209241.000000 0 0 1
-35.274089 1.394946 3.342790 35.459575 -0.039525 1.476386 0.057109 -0.023116 248120.000000 0 0 1
-35.029158 1.043946 1.987490 35.101024 -0.029793 1.514144 0.070705 -0.026337 -810662.000000 0 0 1
-35.101161 2.357946 1.076390 35.196733 -0.067075 1.540209 0.054847 -0.021126 4455.740000 0 0 1
-34.082244 3.326246 1.208090 34.265475 -0.097287 1.535532 0.069161 -0.021989 52522.000000 0 0 1
-32.883509 2.918646 0.562990 33.017581 -0.088525 1.553744 0.091558 -0.016985 -400443.000000 0 0 1
-31.715599 3.750046 1.148890 31.957190 -0.117693 1.534838 0.084894 -0.018005 -201918.000000 0 0 1
-31.353419 3.438146 2.494990 31.639891 -0.109221 1.491859 0.089867 -0.022621 49251.500000 0 0 1
-30.404349 4.298146 3.081690 30.860903 -0.140436 1.470772 0.087725 -0.016537 -512538.000000 0 0 1
-30.258339 4.221246 4.664990 30.905471 -0.138612 1.419273 0.088601 -0.015481 -569775.000000 0 0 1
-31.362889 4.689346 5.374490 32.163736 -0.148419 1.402911 0.082376 -0.002214 -540414.000000 0 0 1
-32.506759 3.885246 5.338790 33.170577 -0.118957 1.409144 0.078945 0.002231 -708831.000000 0 0 1
-32.501499 2.748746 6.386390 33.236862 -0.084372 1.377446 0.073789 -0.004017 -647270.000000 0 0 1
-32.688859 3.200346 7.726190 33.741632 -0.097592 1.339766 0.069766 -0.001752 148500.000000 0 0 1
-32.754459 2.139846 8.667490 33.949358 -0.065237 1.312632 0.069468 -0.004428 -636381.000000 0 0 1
-34.071362 1.408646 8.858190 35.232223 -0.041320 1.316646 0.059363 0.001086 -784527.000000 0 0 1
-34.211548 0.324546 7.959790 35.126822 -0.009486 1.342209 0.064762 -0.005781 995385.000000 0 0 1
-35.215836 -0.689054 8.339490 36.196367 0.019564 1.338312 0.073227 -0.007745 793419.000000 0 0 1
-34.981337 -1.527654 9.665090 36.324119 0.043643 1.301473 0.066567 0.000406 -353797.000000 0 0 1
-33.701069 -2.111954 9.665490 35.123270 0.062585 1.292011 0.063631 -0.004985 -3704.830000 0 0 1
-33.462389 -3.093554 10.637690 35.248575 0.092187 1.264226 0.048815 0.008457 605691.000000 0 0 1
-32.084139 -3.802154 10.368990 33.931760 0.117956 1.260245 0.058221 0.014604 615824.000000 0 0 1
-32.101049 -4.522954 9.160590 33.687548 0.139976 1.295400 0.053328 -0.003778 -367219.000000 0 0 1
-30.988349 -5.339354 9.080390 32.729802 0.170627 1.289673 0.047542 -0.015672 -580667.000000 0 0 1
-31.214859 -6.404954 7.969390 32.846644 0.202380 1.325726 0.054724 -0.004202 547640.000000 0 0 1
-32.254009 -7.315554 8.339490 34.108438 0.223037 1.323793 0.059434 -0.004975 334587.000000 0 0 1
-32.494889 -8.245054 7.363290 34.323706 0.248490 1.354591 0.057022 -0.013838 302471.000000 0 0 1
-33.510029 -9.380854 7.710590 35.642330 0.272955 1.352740 0.061562 -0.013405 596991.000000 0 0 1
-34.880906 -9.028654 7.614890 36.826359 0.253283 1.362515 0.066319 -0.018736 -168405.000000 0 0 1
-35.648759 -10.040754 8.122090 37.915948 0.274545 1.354910 0.073064 -0.014964 -637544.000000 0 0 1
7.549991 -23.716954 11.058690 27.235838 -1.262602 1.152686 0.073393 -0.012731 -151433.000000 0 0 1
7.055591 -24.299954 9.886090 27.166227 -1.288212 1.198333 0.065992 -0.008549 -67131.900000 0 0 1
5.826591 -24.954754 10.168890 27.569825 -1.341419 1.193034 0.063724 -0.013338 459183.000000 0 0 1
5.466091 -26.010794 9.122490 28.100879 -1.363663 1.240172 0.060759 -0.007008 36815.800000 0 0 1
5.059191 -25.417834 7.863090 27.083018 -1.374323 1.276222 0.062927 -0.004280 -196736.000000 0 0 1
5.112391 -26.400534 6.825890 27.743783 -1.379517 1.322211 0.056847 -0.001320 -364866.000000 0 0 1
4.500191 -25.945404 5.501190 26.901279 -1.399056 1.364848 0.049811 -0.004734 1460080.000000 0 0 1
3.054991 -25.794444 5.553790 26.561831 -1.452909 1.360153 0.043620 -0.012439 780308.000000 0 0 1
2.408591 -26.919844 5.042390 27.493727 -1.481561 1.386351 0.040214 -0.010638 194559.000000 0 0 1
0.853391 -26.746264 5.119090 27.245109 -1.538900 1.381783 0.041301 -0.018503 477414.000000 0 0 1
0.359191 -26.663484 6.457390 27.436623 -1.557326 1.333211 0.029704 -0.013139 995874.000000 0 0 1
-1.085509 -26.624714 6.556790 27.441669 1.530048 1.329527 0.023229 -0.014992 1699120.000000 0 0 1
-1.925109 -27.914844 6.420690 28.708358 1.501942 1.345236 0.021911 -0.011426 -332807.000000 0 0 1
-1.853409 -28.642354 7.639490 29.701538 1.506178 1.310664 0.021328 -0.016631 37972.600000 0 0 1
-2.688309 -29.774994 7.726190 30.878330 1.480753 1.317895 0.014796 -0.012417 -240807.000000 0 0 1
-2.578809 -30.549814 9.030790 31.960860 1.486583 1.284337 0.013259 -0.012915 1315000.000000 0 0 1
-1.301109 -31.217674 9.278890 32.593463 1.529142 1.282118 0.010702 -0.009077 1305900.000000 0 0 1
-0.793609 -30.996274 10.620590 32.774926 1.545199 1.240793 0.005046 -0.008221 1499350.000000 0 0 1
0.727691 -31.376624 10.868690 33.213709 -1.547608 1.237420 0.004450 -0.006423 1238570.000000 0 0 1
1.077891 -32.755794 10.736190 34.487239 -1.537901 1.254226 0.013982 -0.006358 485220.000000 0 0 1
2.481091 -32.978324 10.902890 34.822387 -1.495704 1.252341 0.035623 -0.006595 685991.000000 0 0 1
2.863291 -33.689914 12.269390 35.968690 -1.486011 1.222696 0.033139 -0.011900 -269896.000000 0 0 1
2.640691 -32.791854 13.290590 35.481245 -1.490441 1.186852 0.017652 -0.003354 219912.000000 0 0 1
3.284291 -33.309304 14.458790 36.460292 -1.472514 1.163027 0.030092 -0.009547 -81619.400000 0 0 1
2.847591 -32.507664 15.748590 36.233618 -1.483422 1.121158 0.031372 -0.015394 -32635.400000 0 0 1
3.241091 -31.152684 15.709090 35.039548 -1.467130 1.105906 0.035639 -0.016071 291331.000000 0 0 1
4.624591 -31.023594 16.013390 35.217593 -1.422819 1.098763 0.043854 -0.012946 212530.000000 0 0 1
5.248191 -29.724654 15.444090 33.906024 -1.396037 1.097866 0.060380 -0.011560 -297741.000000 0 0 1
5.494191 -29.773724 14.009790 33.360680 -1.388318 1.137407 0.061450 -0.010413 792405.000000 0 0 1
4.331591 -29.809734 13.136190 32.862477 -1.426498 1.159572 0.048833 -0.006753 389487.000000 0 0 1
4.725591 -29.780084 11.639290 32.321165 -1.413426 1.202407 0.042882 -0.003263 74443.300000 0 0 1
5.184391 -30.980814 11.090390 33.311942 -1.404991 1.231392 0.048568 -0.000632 1251110.000000 0 0 1
6.586991 -31.237894 11.395890 33.897799 -1.362975 1.227934 0.064016 -0.002418 922887.000000 0 0 1
6.922691 -32.718904 11.009390 35.208763 -1.362291 1.252774 0.055059 -0.001519 -21388.900000 0 0 1
6.431991 -33.732874 11.885990 36.339428 -1.382384 1.237582 0.041287 -0.018433 112890.000000 0 0 1
6.696791 33.705862 11.295190 36.173380 1.374667 1.253234 0.046433 -0.016156 157986.000000 0 0 1
6.163791 32.486376 12.125090 35.218954 1.383291 1.219327 0.048787 -0.018188 -119558.000000 0 0 1
4.784891 32.498986 12.370090 35.101259 1.424615 1.210650 0.048539 -0.009125 -368683.000000 0 0 1
4.350591 31.278226 12.930990 34.124266 1.432590 1.182148 0.059947 -0.004510 270344.000000 0 0 1
3.255991 31.363036 14.024090 34.509659 1.467351 1.152306 0.064745 -0.016012 374732.000000 0 0 1
3.789191 31.735906 15.306590 35.437514 1.451961 1.124163 0.073810 -0.017193 11098.600000 0 0 1
2.776391 31.735716 16.257990 35.765713 1.483534 1.098908 0.046078 -0.012637 -144605.000000 0 0 1
3.355391 32.051166 17.656190 36.746114 1.466488 1.069581 0.044450 -0.008406 90769.700000 0 0 1
3.674291 33.414249 17.848990 38.060463 1.461275 1.082679 0.050034 -0.008669 1139.920000 0 0 1
4.340291 33.605915 19.069790 38.882548 1.442355 1.058195 0.050323 -0.013598 60937.800000 0 0 1
4.558391 -33.568624 19.501790 39.089017 -1.435829 1.048459 0.041248 -0.018660 -375208.000000 0 0 1
3.338491 -32.950764 19.782590 38.577833 -1.469823 1.032357 0.025483 -0.015393 -622197.000000 0 0 1
3.488391 -32.010504 20.827890 38.348953 -1.462248 0.996654 0.023151 -0.012230 -289219.000000 0 0 1
2.196091 -31.376004 21.321790 37.998621 -1.500918 0.975058 0.017821 -0.008824 -448885.000000 0 0 1
1.279991 -32.254614 21.896890 39.006054 -1.531133 0.974754 0.027218 -0.010935 -330058.000000 0 0 1
0.263391 -31.714194 22.707890 39.006509 -1.562491 0.949418 0.024809 -0.017361 -388759.000000 0 0 1
-0.711509 -32.805674 23.146090 40.155448 1.549111 0.956465 0.036634 -0.015749 -1291500.000000 0 0 1
-1.508209 -33.158344 22.048590 39.848347 1.525343 0.984461 0.032686 -0.016713 -341150.000000 0 0 1
-2.312309 -34.263661 22.389590 40.995597 1.503413 0.993040 0.039431 -0.014973 147751.000000 0 0 1
-3.677809 -33.977014 23.086990 41.242852 1.462972 0.976674 0.053010 -0.015037 16440.300000 0 0 1
-4.673109 -33.489724 22.221990 40.462531 1.432153 0.989391 0.039987 -0.017583 -672929.000000 0 0 1
-5.803109 -33.051194 22.915490 40.634679 1.396989 0.971648 0.049894 -0.009792 339676.000000 0 0 1
-7.039209 -32.700904 22.004690 40.038806 1.358771 0.988930 0.027284 -0.009932 323729.000000 0 0 1
-7.666609 -33.868284 21.536790 40.861606 1.348183 1.015651 0.006484 0.000478 150726.000000 0 0 1
-8.693509 -33.532814 20.588490 40.297799 1.317127 1.034555 0.002798 -0.015976 356176.000000 0 0 1
-9.920909 34.238354 20.684790 41.213467 -1.288760 1.045009 0.022519 -0.013651 -103281.000000 0 0 1
-10.435109 34.219435 21.989290 41.992738 -1.274807 1.019672 0.035798 -0.014654 -243444.000000 0 0 1
-11.725809 33.663787 22.060890 41.921689 -1.235618 1.016623 0.018370 -0.003644 -238900.000000 0 0 1
-12.264809 33.456196 23.516290 42.693775 -1.219416 0.987458 0.018435 -0.005467 -134771.000000 0 0 1
-12.503309 -34.072208 24.260290 43.655581 1.219089 0.981567 0.010315 -0.004408 802852.000000 0 0 1
-11.354809 -33.260944 24.623490 42.913149 1.241816 0.959660 0.007794 -0.007435 792219.000000 0 0 1
-11.841209 -31.916344 25.282190 42.403495 1.215530 0.932001 0.006030 -0.004460 -69809.600000 0 0 1
-12.357209 -31.979854 26.579790 43.380836 1.202064 0.911314 0.009835 0.000123 140922.000000 0 0 1
-12.956009 -30.709194 26.796790 42.766584 1.171560 0.893636 0.021772 -0.008377 270873.000000 0 0 1
-13.683709 -30.575264 28.176190 43.772004 1.149989 0.871468 0.021100 -0.011132 249556.000000 0 0 1
-12.717709 -30.280084 29.176990 43.930859 1.173166 0.844431 0.014687 -0.001214 345332.000000 0 0 1
-13.358509 -30.156874 30.412590 44.864378 1.153806 0.825923 0.017913 -0.005632 -328932.000000 0 0 1
-12.574209 -29.564864 31.573590 45.045349 1.168664 0.794097 0.025818 -0.006320 -56346.800000 0 0 1
-13.502309 -29.126864 32.616490 45.765948 1.136716 0.777485 0.030315 -0.009173 1226110.000000 0 0 1
-12.927409 -28.684294 33.872990 46.230791 1.147378 0.748525 0.038706 -0.009223 -138823.000000 0 0 1
-12.179709 -29.766714 -33.839143 46.685010 1.182408 2.381598 0.041986 -0.006297 1947600.000000 0 0 1
-10.811709 -30.109404 -34.255143 46.870930 1.226055 2.390348 0.032575 -0.006071 1476500.000000 0 0 1
-10.433909 -31.345504 -33.710543 47.199659 1.249465 2.366293 0.035687 -0.006516 12475.600000 0 0 1
-8.915109 -31.586384 -33.624843 46.987327 1.295707 2.368301 0.047511 -0.014873 175431.000000 0 0 1
-8.143509 -30.666444 -32.843643 45.666754 1.311236 2.373450 0.064547 -0.015744 -32655.300000 0 0 1
-6.838709 -31.177584 -32.701943 45.697120 1.354869 2.368313 0.059844 -0.021096 -287775.000000 0 0 1
-5.949409 -30.333744 -31.845643 44.381038 1.377123 2.371076 0.053393 -0.011315 -427035.000000 0 0 1
-6.570309 -30.338164 -30.595143 43.584813 1.357521 2.348953 0.057518 -0.024306 13429.100000 0 0 1
-5.810009 -29.800884 -29.531543 42.355176 1.378251 2.342330 0.051079 -0.015150 -106167.000000 0 0 1
-6.352509 -30.250154 -28.148643 41.806367 1.363805 2.309473 0.051305 -0.028270 50148.400000 0 0 1
-5.966609 -31.528524 -27.746243 42.420541 1.383763 2.283756 0.042364 -0.016783 -212842.000000 0 0 1
-6.924609 -32.029274 -26.862243 42.372216 1.357877 2.257458 0.045864 -0.025733 -388223.000000 0 0 1
-6.311909 -33.164894 -26.048743 42.641382 1.382727 2.227967 0.041917 -0.024513 890872.000000 0 0 1
-5.272409 -32.644804 -25.175443 41.560612 1.410671 2.221508 0.014549 -0.025843 524731.000000 0 0 1
-4.779109 -33.663904 -24.364943 41.829999 1.429773 2.192567 0.031344 -0.028119 -342572.000000 0 0 1
-3.925709 -33.210834 -23.171543 40.685269 1.453137 2.176732 0.033605 -0.037880 49381.300000 0 0 1
-4.624009 -32.555444 -22.069443 39.601752 1.429705 2.161908 0.047080 -0.030789 304249.000000 0 0 1
-4.864809 -31.187764 -22.371343 38.688758 1.416059 2.187365 0.031448 -0.018351 -158136.000000 0 0 1
-5.423309 -30.427034 -21.114043 37.430195 1.394409 2.170129 0.063760 -0.032971 -348199.000000 0 0 1
-6.815909 -30.631104 -20.989743 37.753019 1.351847 2.160332 0.073383 -0.036817 120467.000000 0 0 1
-7.524409 -29.541404 -20.407443 36.684806 1.321392 2.160713 0.075456 -0.032954 193236.000000 0 0 1
-7.856209 -28.413914 -21.387843 36.421290 1.301044 2.198434 0.084170 -0.041849 -611872.000000 0 0 1
-6.712609 -27.698884 -21.846943 35.910670 1.333038 2.224800 0.070939 -0.024456 159657.000000 0 0 1
-7.022309 -26.815904 -22.927043 35.972974 1.314676 2.261839 0.085347 -0.042792 -419561.000000 0 0 1
-6.132009 -27.259864 -24.117343 36.909998 1.349533 2.282876 0.081658 -0.037786 1792010.000000 0 0 1
-4.723409 -26.891454 -24.154943 36.454385 1.396923 2.295091 0.092736 -0.032628 2014540.000000 0 0 1
-3.893309 -27.369064 -23.066143 36.003757 1.429492 2.266153 0.066048 -0.023332 979048.000000 0 0 1
-2.331109 -27.068904 -23.182643 35.715467 1.484891 2.277187 0.062684 -0.024713 1583390.000000 0 0 1
-1.883909 -25.697494 -23.203743 34.674544 1.497616 2.303910 0.072811 -0.027026 148190.000000 0 0 1
-2.176009 -24.899554 -22.047843 33.329119 1.483626 2.293639 0.083035 -0.029284 -646178.000000 0 0 1
-2.032009 -23.360654 -22.370043 32.407839 1.484030 2.332654 0.081513 -0.024399 -74172.500000 0 0 1
-2.843909 -22.796654 -23.364143 32.766728 1.446686 2.364628 0.080577 -0.032148 -172446.000000 0 0 1
-4.227109 -22.748954 -23.078843 32.680520 1.387076 2.354907 0.076325 -0.034767 -570654.000000 0 0 1
-5.034809 -22.963854 -24.353243 33.849200 1.354962 2.373825 0.067279 -0.028285 -362562.000000 0 0 1
-4.999309 -21.820554 -25.134743 33.658357 1.345573 2.413975 0.071281 -0.027176 60865.500000 0 0 1
-5.503309 -22.131554 -26.374343 34.866862 1.327076 2.428634 0.072946 -0.026343 -105035.000000 0 0 1
-5.714509 -20.920754 -27.322643 34.883526 1.304151 2.470678 0.071099 -0.018489 -136272.000000 0 0 1
-5.977109 -21.253454 -28.642743 36.164097 1.296647 2.484910 0.067272 -0.016787 198622.000000 0 0 1
-4.836809 -21.410754 -29.471443 36.747532 1.348620 2.501429 0.063970 -0.025510 -42269.900000 0 0 1
-5.291509 -21.875154 -30.886643 38.216582 1.333460 2.511886 0.063592 -0.027378 166435.000000 0 0 1
-5.935709 -20.874254 -31.637643 38.365448 1.293753 2.540360 0.066292 -0.034409 -358585.000000 0 0 1
-6.725109 -21.396954 -32.633943 39.598371 1.266270 2.539449 0.059784 -0.030020 -450935.000000 0 0 1
-6.839209 -20.574854 -33.916343 40.254413 1.249880 2.572796 0.054715 -0.023805 425064.000000 0 0 1
-5.699709 -20.823354 33.844990 40.144515 1.303623 0.567814 0.066624 -0.027773 -45089.200000 0 0 1
-5.855309 -20.301954 32.547290 38.804382 1.290005 0.575807 0.060739 -0.015101 444379.000000 0 0 1
-4.555309 -20.542154 31.716190 38.061104 1.352573 0.585752 0.054689 -0.018175 -219465.000000 0 0 1
-4.307509 -21.926254 31.508690 38.627876 1.376812 0.616861 0.065198 -0.017001 1484640.000000 0 0 1
-3.124809 -22.314554 30.709790 38.089302 1.431666 0.632998 0.056665 -0.014431 2221320.000000 0 0 1
-1.690609 -21.922954 31.201890 38.171089 1.493833 0.613875 0.046594 -0.024530 -65798.400000 0 0 1
-1.311609 -20.589054 31.117190 37.335090 1.507178 0.585462 0.043547 -0.026094 401152.000000 0 0 1
-0.288709 -20.254854 32.086990 37.946243 1.556543 0.563126 0.054737 -0.023017 426773.000000 0 0 1
-0.821209 -19.876554 33.456190 38.923880 1.529504 0.536450 0.042811 -0.024620 140712.000000 0 0 1
-1.699109 -18.735654 33.378090 38.314600 1.480355 0.513239 0.039813 -0.030209 298902.000000 0 0 1
-2.181509 -18.366454 -33.900843 38.618037 1.452573 2.642151 0.046890 -0.031101 566043.000000 0 0 1
-3.234009 -17.199654 -34.003443 38.242922 1.384939 2.666266 0.055266 -0.035110 450167.000000 0 0 1
-2.717609 -15.864454 -34.088543 37.697415 1.401141 2.700457 0.049337 -0.036047 -581271.000000 0 0 1
-3.702709 -14.889454 -34.065043 37.360850 1.327060 2.718405 0.048627 -0.029398 -756440.000000 0 0 1
-3.230909 -13.453754 34.173890 36.868646 1.335110 0.384705 0.040154 -0.036416 -483700.000000 0 0 1
-2.242409 -12.993154 -33.495643 35.997341 1.399896 2.766581 0.041172 -0.034151 -38402.000000 0 0 1
-1.949109 -11.626454 -33.615843 35.623004 1.404697 2.804304 0.035090 -0.029067 -233380.000000 0 0 1
-1.304209 -11.095854 33.637390 35.444223 1.453793 0.320674 0.030022 -0.024130 -1099510.000000 0 0 1
-2.087109 -11.273454 32.504290 34.467023 1.387734 0.339099 0.025396 -0.029332 -112671.000000 0 0 1
-1.302109 -11.100254 31.331890 33.265575 1.454026 0.342639 0.030852 -0.018579 533587.000000 0 0 1
-0.472409 -12.370454 30.912090 33.298778 1.532626 0.380914 0.019587 -0.020794 -519434.000000 0 0 1
-1.245509 -13.369054 30.352990 33.190163 1.477901 0.416482 0.037657 -0.027221 -274492.000000 0 0 1
-0.456709 -14.433554 29.909590 33.213245 1.539165 0.449805 0.025833 -0.024312 -85924.100000 0 0 1
-0.996709 -15.802354 30.422290 34.296116 1.507806 0.479886 0.026542 -0.030721 252952.000000 0 0 1
-2.226409 -16.246354 29.872590 34.077449 1.434604 0.502027 0.043404 -0.028122 350134.000000 0 0 1
-2.493009 -17.529454 30.294790 35.089474 1.429525 0.528908 0.053114 -0.022747 -252767.000000 0 0 1
-2.826809 -18.530654 29.157490 34.663168 1.419416 0.571360 0.058178 -0.021263 -672225.000000 0 0 1
-4.101909 -18.397454 28.618990 34.268624 1.351424 0.582415 0.058346 -0.020802 -782507.000000 0 0 1
-4.525409 -19.399354 27.795490 34.196543 1.341619 0.621827 0.066630 -0.016183 7390.460000 0 0 1
-3.814309 -19.583554 26.412990 33.101519 1.378434 0.646928 0.062768 -0.017158 -669320.000000 0 0 1
-4.480809 -20.414754 25.503290 32.973590 1.354734 0.686537 0.082936 -0.007943 -49978.900000 0 0 1
-4.282709 -21.801554 25.626190 33.916824 1.376826 0.714288 0.083470 -0.012630 -619794.000000 0 0 1
-28.992319 34.160146 -0.385310 44.806457 -0.867047 1.579396 0.005737 0.003265 -694482.000000 0 0 1
-28.308689 -33.306513 -0.159510 43.711911 0.866334 1.574445 0.010461 0.015788 98753.400000 0 0 1
-28.750399 -32.646713 1.008390 43.513334 0.848774 1.547620 0.013290 0.012391 -285617.000000 0 0 1
-28.214439 -31.239213 1.279090 42.113882 0.836231 1.540419 0.025457 0.007761 509365.000000 0 0 1
-26.834659 -31.212213 1.647990 41.194867 0.860670 1.530781 0.024570 0.005835 166744.000000 0 0 1
-26.402829 -29.948813 2.061490 39.978626 0.848241 1.519209 0.036556 -0.009855 1086910.000000 0 0 1
-24.856409 -29.954513 2.383090 38.997347 0.878144 1.509649 0.051738 -0.009392 1078930.000000 0 0 1
-24.503009 -30.586513 3.635390 39.359221 0.895382 1.478300 0.044651 -0.002327 -810023.000000 0 0 1
-23.116009 -30.640413 3.721990 38.562132 0.924467 1.474127 0.045540 -0.003225 -792475.000000 0 0 1
-22.619909 -31.056613 5.114890 38.759974 0.941299 1.438447 0.040974 -0.003721 -188566.000000 0 0 1
-22.634509 -30.057913 6.139390 38.124681 0.925359 1.409058 0.038412 -0.005198 -136338.000000 0 0 1
-22.135609 -30.586513 7.347890 38.464418 0.944338 1.378584 0.035588 -0.003458 28255.200000 0 0 1
-22.722009 -29.877913 8.593790 38.507566 0.920612 1.345730 0.035605 -0.012882 193062.000000 0 0 1
-21.937609 -28.791513 9.085290 37.319598 0.919693 1.324880 0.044653 -0.006865 -142188.000000 0 0 1
-22.548209 -28.201913 10.181190 37.515680 0.896343 1.295965 0.033352 -0.000121 -53047.700000 0 0 1
-21.670209 -27.235913 11.006890 36.504035 0.898714 1.264504 0.040478 -0.010311 -157938.000000 0 0 1
-20.556209 -27.809313 11.629690 36.485139 0.934253 1.246384 0.023059 -0.005152 -869273.000000 0 0 1
-19.818909 -26.831013 12.260390 35.538846 0.934595 1.218573 0.026056 -0.011600 -273157.000000 0 0 1
-18.548509 -27.466913 12.889490 35.561461 0.976838 1.199894 0.035512 -0.011965 -80168.700000 0 0 1
-18.635309 -28.159313 14.085290 36.587116 0.986183 1.175611 0.043338 -0.032400 -672741.000000 0 0 1
-17.357409 -28.488913 14.541990 36.391858 1.023589 1.159722 0.053696 -0.022778 -597667.000000 0 0 1
-17.421909 -29.728513 15.418490 37.749666 1.040710 1.150051 0.052820 -0.027528 -514993.000000 0 0 1
-17.449109 -30.932013 14.648790 38.416766 1.057183 1.179581 0.065197 -0.025782 -35588.600000 0 0 1
-17.325109 -32.093413 15.483190 39.621658 1.075792 1.169322 0.078746 -0.023028 102530.000000 0 0 1
-17.290409 -33.383213 14.649190 40.348432 1.092902 1.199239 0.069248 -0.023955 -182589.000000 0 0 1
-17.213109 34.280546 15.637390 41.424328 -1.105450 1.183709 0.078466 -0.007264 101846.000000 0 0 1
-17.047909 32.971646 15.112490 40.076776 -1.093604 1.184146 0.057227 -0.008515 -77261.700000 0 0 1
-16.776509 31.844046 16.147690 39.449239 -1.085913 1.149079 0.062087 -0.005621 217661.000000 0 0 1
-17.913409 31.671946 16.980090 40.153778 -1.056061 1.134179 0.075128 -0.011025 371574.000000 0 0 1
-17.837609 30.380346 17.668290 39.412107 -1.039884 1.105938 0.050635 -0.003082 208513.000000 0 0 1
-18.577809 30.500146 19.011490 40.457764 -1.023708 1.081608 0.059602 0.001303 215145.000000 0 0 1
-17.987609 31.520046 19.760090 41.322252 -1.052221 1.072198 0.052034 0.007477 246658.000000 0 0 1
-18.872109 31.801446 20.835990 42.445576 -1.035218 1.057689 0.053197 0.004475 -29.685600 0 0 1
-18.579209 32.990446 21.767590 43.673614 -1.057899 1.049027 0.034554 0.007478 376532.000000 0 0 1
-17.518709 32.795546 22.720990 43.574034 -1.080180 1.022265 0.021990 0.000786 418362.000000 0 0 1
-17.493009 33.709346 23.816690 44.828117 -1.092115 1.010675 0.013053 0.000525 257312.000000 0 0 1
-18.407109 33.236646 25.024490 45.494191 -1.065025 0.988361 0.014330 -0.010027 886263.000000 0 0 1
-19.785509 33.387246 24.685990 45.995355 -1.035831 1.004268 0.028473 -0.008946 654424.000000 0 0 1
-20.666209 32.714246 25.609690 46.402266 -1.007380 0.986148 0.037302 -0.013325 383096.000000 0 0 1
-22.128209 32.892946 25.150190 46.948223 -0.978605 1.005459 0.053066 -0.022039 -498971.000000 0 0 1
-22.446809 32.166946 23.989990 45.979248 -0.961533 1.021887 0.066686 -0.007363 878603.000000 0 0 1
-23.793909 32.465046 23.594690 46.656604 -0.938324 1.040592 0.058377 -0.008292 587385.000000 0 0 1
-24.036109 32.119746 22.117990 45.810677 -0.928366 1.066932 0.043177 -0.013368 -532662.000000 0 0 1
-23.292809 32.821746 21.192690 45.485735 -0.953606 1.086123 0.048992 -0.019134 -200899.000000 0 0 1
-23.081309 32.057946 20.040190 44.295236 -0.946782 1.101316 0.034395 -0.000889 57903.100000 0 0 1
-22.405509 32.801746 18.850690 43.969420 -0.971531 1.127718 0.042330 0.004234 692811.000000 0 0 1
-21.095509 33.295346 19.137790 43.816157 -1.006046 1.118786 0.053315 0.004135 374066.000000 0 0 1
-20.482809 33.958346 18.057890 43.575247 -1.028046 1.143505 0.073686 0.002781 9722.950000 0 0 1
-19.269209 -33.900413 18.490390 43.155938 1.053931 1.128014 0.088751 -0.011890 -28189.300000 0 0 1
-19.598209 -32.766313 19.260990 42.763382 1.031760 1.103574 0.085531 -0.023000 208351.000000 0 0 1
-18.450309 -31.958413 19.313890 41.650696 1.047218 1.088617 0.065292 -0.022890 -187841.000000 0 0 1
-18.510609 -30.976113 20.528490 41.516035 1.032160 1.053570 0.066673 -0.026525 -32548.800000 0 0 1
-19.401409 -29.895113 20.324290 41.026933 0.995137 1.052514 0.076802 -0.026211 224410.000000 0 0 1
-19.855409 -29.398613 21.559790 41.513134 0.976782 1.024708 0.071568 -0.023854 -714929.000000 0 0 1
-20.709909 -28.184513 21.361090 40.982475 0.937096 1.022511 0.063008 -0.027024 -1224150.000000 0 0 1
-20.025009 -27.121813 20.751790 39.588263 0.934802 1.019032 0.055923 -0.030474 19931.100000 0 0 1
-20.732909 -25.958813 20.383690 38.977023 0.896858 1.020468 0.044323 -0.020793 -366180.000000 0 0 1
-21.823409 -26.065913 19.275990 39.080133 0.873757 1.054983 0.038515 -0.021375 242269.000000 0 0 1
-23.169609 -26.223013 19.693490 40.153590 0.847139 1.058186 0.031817 -0.015973 128745.000000 0 0 1
-23.996209 -26.087613 18.563690 40.012401 0.827132 1.088349 0.025934 -0.009882 -586924.000000 0 0 1
-25.487479 -26.245113 18.903690 41.179692 0.800042 1.093867 0.006715 -0.002333 -176355.000000 0 0 1
-25.936569 -27.554213 19.096190 42.386375 0.815631 1.103441 0.008368 -0.014256 -183586.000000 0 0 1
-25.992809 -28.436713 17.985190 42.517524 0.830268 1.134036 0.022345 -0.015926 -780336.000000 0 0 1
-26.668309 -29.761513 18.334790 43.967157 0.840158 1.140642 0.028339 -0.018045 -185248.000000 0 0 1
-28.040929 -29.794913 18.590690 44.940453 0.815716 1.144311 0.028510 -0.011634 -85886.800000 0 0 1
-28.894509 -29.808213 17.426390 45.023342 0.800962 1.173364 0.025370 -0.010299 -345695.000000 0 0 1
-30.343189 -29.455513 17.733390 45.856401 0.770555 1.173729 0.025738 -0.007612 -399868.000000 0 0 1
-30.524579 -28.029313 17.858590 45.125620 0.742809 1.163909 0.028303 -0.004149 957149.000000 0 0 1
-31.948339 -27.784613 17.918190 45.975457 0.715805 1.170454 0.040453 0.009094 1017330.000000 0 0 1
-32.433819 -26.513713 17.161990 45.271001 0.685304 1.181979 0.029210 0.005823 -176093.000000 0 0 1
-32.687409 -26.671213 15.772390 45.039856 0.684390 1.213025 0.053359 -0.014239 210925.000000 0 0 1
-33.435979 -25.603913 15.207390 44.774879 0.653511 1.224261 0.059219 -0.010488 12122.500000 0 0 1
-32.683449 -24.273713 14.860290 43.338773 0.638807 1.220808 0.029660 -0.003504 96059.700000 0 0 1
-32.215549 -23.610913 16.030990 43.038465 0.632470 1.189116 0.005568 0.002181 69321.500000 0 0 1
-31.453019 -22.472113 15.730990 41.734306 0.620369 1.184315 0.008655 0.007695 -219871.000000 0 0 1
-32.111829 -21.082913 16.006490 41.615701 0.580964 1.175993 0.012921 0.003490 -93838.400000 0 0 1
-32.509409 -20.965213 17.332790 42.389002 0.572779 1.149550 0.011528 0.005976 -335068.000000 0 0 1
-33.364429 -19.898113 17.452290 42.587586 0.537759 1.148564 0.009918 -0.001521 -453990.000000 0 0 1
-33.789349 -19.547413 18.903890 43.372555 0.524467 1.119815 0.009936 0.001178 345183.000000 0 0 1
-35.069091 -20.011013 19.325690 44.763424 0.518534 1.124387 0.022422 0.007037 469145.000000 0 0 1
-35.099692 -19.925213 20.713590 45.365795 0.516312 1.096637 0.015796 0.012016 -1057050.000000 0 0 1
35.524206 -19.797213 21.418290 45.963486 -0.508421 1.086049 0.019110 0.009483 -434348.000000 0 0 1
34.804946 -21.062713 21.618990 46.069544 -0.544208 1.082334 0.038135 0.012234 440249.000000 0 0 1
35.426026 -21.985013 22.500090 47.377191 -0.555421 1.075930 0.024959 0.015526 -555279.000000 0 0 1
34.644266 -23.291313 22.774890 47.554243 -0.591892 1.071367 0.038447 0.016607 -270530.000000 0 0 1
33.635976 -23.049013 23.722290 47.173965 -0.600757 1.043882 0.048126 0.005835 -60637.000000 0 0 1
33.299426 -24.229013 24.422890 47.878747 -0.629017 1.035497 0.046293 -0.003728 -347833.000000 0 0 1
32.314296 -24.134813 25.591390 47.766329 -0.641500 1.005386 0.056256 -0.007468 -608957.000000 0 0 1
30.996716 -24.341713 25.213990 46.787399 -0.665713 1.001659 0.056122 -0.005657 -627420.000000 0 0 1
30.134066 -24.537913 26.310790 46.930042 -0.683395 0.975640 0.031727 -0.011666 -1625200.000000 0 0 1
28.804746 -25.111813 26.048390 46.247542 -0.717011 0.972497 0.028729 -0.015840 -1767080.000000 0 0 1
28.019436 -24.190613 25.356390 44.868932 -0.712194 0.970216 0.038015 -0.014408 -421355.000000 0 0 1
26.672256 -24.621413 25.398890 44.302673 -0.745437 0.960264 0.029030 -0.007197 -50319.200000 0 0 1
25.633356 -23.551713 25.056990 42.890615 -0.743101 0.946894 0.033082 -0.005492 -552529.000000 0 0 1
25.643956 -23.062813 23.706090 41.850741 -0.732454 0.968612 0.037848 -0.003972 -491396.000000 0 0 1
26.682456 -22.211613 23.318990 41.822058 -0.694212 0.979333 0.036915 0.000845 -314633.000000 0 0 1
26.670556 -21.582913 21.918990 40.713423 -0.680350 1.002292 0.046764 -0.006478 -11612.200000 0 0 1
25.771056 -20.509813 21.840290 39.519591 -0.672203 0.985262 0.040272 -0.008884 -120660.000000 0 0 1
25.661056 -20.012013 20.493590 38.457219 -0.662339 1.008780 0.029706 -0.008485 239602.000000 0 0 1
24.689056 -18.789213 20.381590 37.121331 -0.650526 0.989565 0.036808 -0.000336 264453.000000 0 0 1
25.159556 -17.461813 20.876090 37.063855 -0.606717 0.972487 0.037699 -0.012157 253078.000000 0 0 1
25.343856 -17.486213 22.317090 38.028032 -0.603955 0.943622 0.035450 -0.000781 -6134.270000 0 0 1
25.537556 -16.173213 23.043190 38.009580 -0.564553 0.919464 0.045307 0.002920 384125.000000 0 0 1
24.290356 -15.461113 23.078090 36.900754 -0.566835 0.895140 0.030991 0.004479 622291.000000 0 0 1
24.355156 -14.248113 23.800290 36.913902 -0.529328 0.870098 0.028373 0.008947 -594485.000000 0 0 1
23.023656 -13.519113 23.785690 35.757715 -0.530942 0.843048 0.027599 0.005760 -486482.000000 0 0 1
22.085156 -14.174413 24.613390 35.978981 -0.570594 0.817421 0.043181 0.009648 -129096.000000 0 0 1
20.782856 -13.693113 24.371290 34.833723 -0.582583 0.795894 0.045141 0.001838 178151.000000 0 0 1
19.638456 -14.593213 24.896890 34.906818 -0.639066 0.776688 0.038407 0.011490 -45698.400000 0 0 1
19.135756 -15.659813 24.167690 34.575774 -0.685832 0.796830 0.051496 0.014071 -338063.000000 0 0 1
17.787856 -15.894913 24.452690 34.161237 -0.729258 0.773024 0.029598 0.016389 -442049.000000 0 0 1
17.261056 -17.014513 23.544490 33.790246 -0.778205 0.799893 0.034710 -0.001178 -70395.900000 0 0 1
17.766256 -18.325713 23.881090 34.953942 -0.800898 0.818639 0.028013 0.001977 130855.000000 0 0 1
17.307856 -19.246613 22.972090 34.607960 -0.838386 0.844934 0.032252 -0.010729 -249887.000000 0 0 1
17.947656 -20.628913 23.154390 35.830102 -0.854791 0.868166 0.020422 -0.008194 -9763.600000 0 0 1
17.352056 -21.213613 24.324690 36.644260 -0.885195 0.844900 0.018992 -0.015383 473572.000000 0 0 1
17.724756 -22.555513 24.565190 37.767270 -0.904757 0.862638 0.028152 -0.013367 -362413.000000 0 0 1
17.149956 -23.619313 23.562390 37.512387 -0.942768 0.891658 0.024895 -0.003899 83530.300000 0 0 1
17.729256 -23.732613 22.256390 37.052805 -0.929191 0.926461 0.025353 0.002532 326506.000000 0 0 1
18.986456 -24.412813 22.242190 38.094435 -0.909786 0.947309 0.029520 -0.003750 204166.000000 0 0 1
19.739856 -24.426213 20.925590 37.738338 -0.891110 0.983044 0.033590 0.004405 -224715.000000 0 0 1
19.118956 -25.231413 19.954290 37.421015 -0.922357 1.008373 0.042234 0.000032 413631.000000 0 0 1
20.016256 -25.483713 18.842090 37.484590 -0.904989 1.044121 0.034623 0.008913 608010.000000 0 0 1
19.458256 -26.330113 17.651690 37.195171 -0.934365 1.076322 0.028410 0.003569 146782.000000 0 0 1
19.071356 -27.610813 18.116490 38.135034 -0.966325 1.075762 0.049273 -0.010305 -66442.800000 0 0 1
18.097656 -28.186213 17.284990 37.692952 -1.000013 1.094407 0.053331 -0.011834 -364349.000000 0 0 1
17.265556 -29.272713 17.977390 38.447077 -1.037898 1.084236 0.051972 -0.007330 -142717.000000 0 0 1
16.345656 -28.863313 18.974690 38.214005 -1.055515 1.051191 0.051071 -0.008450 -76089.000000 0 0 1
15.829456 -30.012813 19.586690 39.178809 -1.085452 1.047278 0.060611 -0.012984 -75694.500000 0 0 1
14.604156 -29.732013 20.498990 38.954879 -1.114219 1.016643 0.047981 -0.005404 283055.000000 0 0 1
13.550556 -29.198313 19.723790 37.751648 -1.136290 1.021061 0.046977 -0.002411 -832841.000000 0 0 1
12.325756 -29.055413 20.368890 37.563719 -1.169590 0.997685 0.022007 0.003109 -309752.000000 0 0 1
11.314556 -28.395513 19.410990 36.209265 -1.191616 1.005012 0.040037 -0.004265 -247583.000000 0 0 1
11.144656 -29.224013 18.261790 36.217942 -1.206468 1.042318 0.043087 -0.010059 -130837.000000 0 0 1
10.704756 -28.529613 17.151990 34.967433 -1.211837 1.058118 0.050243 -0.007685 -147117.000000 0 0 1
10.492756 -29.344713 15.864790 34.970011 -1.227395 1.099919 0.056630 -0.009015 -360169.000000 0 0 1
9.380256 -30.181013 15.872090 35.366736 -1.269461 1.105390 0.065356 -0.009873 -435578.000000 0 0 1
9.503756 -31.133413 14.824490 35.768370 -1.274522 1.143449 0.061286 -0.012299 -71579.900000 0 0 1
8.266056 -31.990013 14.457690 36.065405 -1.317932 1.158325 0.065173 -0.013206 -198063.000000 0 0 1
8.030156 -32.971613 15.458690 37.290505 -1.331900 1.143351 0.064874 -0.013917 -94923.000000 0 0 1
7.146356 -33.906513 14.883590 37.712641 -1.363070 1.165101 0.047905 -0.015777 -33416.300000 0 0 1
6.869056 33.629946 15.867790 37.814600 1.369314 1.137769 0.067019 -0.026504 -262285.000000 0 0 1
8.059256 32.909046 16.010590 37.473936 1.330628 1.129352 0.066854 -0.024120 -346459.000000 0 0 1
7.889756 31.879046 16.933690 36.949583 1.328181 1.094724 0.066525 -0.028741 348052.000000 0 0 1
9.173556 31.052146 17.227890 36.676833 1.283543 1.081821 0.060742 -0.025249 111644.000000 0 0 1
9.647056 30.318046 16.132990 35.672440 1.262731 1.101506 0.057133 -0.025428 51212.600000 0 0 1
10.784756 29.580546 16.576390 35.582248 1.221184 1.086189 0.048252 -0.019789 379385.000000 0 0 1
11.651756 28.754346 15.604490 34.728604 1.185800 1.104785 0.035517 -0.012025 85457.200000 0 0 1
10.947556 27.697446 14.964590 33.330713 1.194387 1.105181 0.043910 -0.012879 707882.000000 0 0 1
11.825356 26.899146 14.083290 32.584385 1.156609 1.123855 0.037233 -0.008273 826945.000000 0 0 1
-9.544909 -8.633154 19.178023 23.096173 0.735283 0.591052 0.063627 -0.021704 -15143.400000 0 1 0
-9.657309 -9.012754 17.821523 22.183328 0.750888 0.637855 0.058310 -0.024209 -68671.900000 0 1 0
-9.616309 -10.418454 17.725323 22.698121 0.825414 0.674666 0.054550 -0.018910 -349.098000 0 1 0
-10.020509 -10.954554 16.356723 22.089709 0.829900 0.737030 0.061218 -0.011607 -891542.000000 0 1 0
-11.382409 -10.837154 16.131923 22.522036 0.760864 0.772350 0.062168 -0.009949 -660213.000000 0 1 0
-11.847409 -11.131654 14.804123 21.987198 0.754260 0.832125 0.065706 -0.014139 193533.000000 0 1 0
-11.790309 -12.633954 14.390523 22.488116 0.819926 0.876406 0.050346 -0.021343 169197.000000 0 1 0
-10.488109 -13.052554 13.953023 21.795790 0.893907 0.876076 0.053348 -0.023294 629887.000000 0 1 0
-10.263109 -14.456354 14.170523 22.696284 0.953432 0.896492 0.051883 -0.019014 184974.000000 0 1 0
-9.986509 -14.988554 15.621223 23.841345 0.983064 0.856328 0.062006 -0.020049 8854.340000 0 1 0
-11.127209 -15.166454 16.425823 24.972861 0.937827 0.852973 0.061209 -0.005258 -355870.000000 0 1 0
-10.722609 -15.226054 17.764823 25.737055 0.957239 0.808971 0.083109 -0.011778 -41201.400000 0 0 1
-11.802209 -14.860854 18.839023 26.740343 0.899614 0.789054 0.057114 -0.008826 -9971.950000 0 0 1
-12.310609 -13.553254 18.765123 26.217774 0.833407 0.773112 0.059795 -0.005247 152437.000000 0 0 1
-13.417409 -13.406854 17.897523 26.078573 0.785005 0.814417 0.063501 -0.010122 -473302.000000 0 0 1
-14.824609 -13.549554 18.472523 27.287242 0.740491 0.827164 0.021417 -0.001176 -596924.000000 0 0 1
-15.128409 -14.847654 18.820423 28.346603 0.776032 0.844722 0.026243 0.006178 -46146.900000 0 0 1
-16.046109 -14.912954 19.899423 29.594947 0.748813 0.833360 0.035924 0.001256 -7359.080000 0 0 1
-16.453209 -16.357654 20.264123 30.804474 0.782486 0.852862 0.040367 -0.001363 278913.000000 0 0 1
-17.494209 -16.909554 19.445423 31.146506 0.768406 0.896534 0.036919 0.008455 432659.000000 0 0 1
-17.676009 -18.271954 19.704423 32.164731 0.801975 0.911438 0.026144 0.002830 -368889.000000 0 0 1
-18.976509 -18.814754 19.099223 32.846357 0.781118 0.950260 0.028433 0.010937 -204888.000000 0 0 1
-18.981509 -18.867054 17.650223 32.059223 0.782374 0.987773 0.033036 0.010404 104988.000000 0 0 1
-19.439909 -17.681554 17.050223 31.325031 0.738066 0.995242 0.025027 0.008135 -496770.000000 0 0 1
-19.110009 -17.674254 15.538523 30.315300 0.746386 1.032628 0.030921 0.006442 -324998.000000 0 0 1
-19.704409 -18.716054 14.828123 30.958483 0.759679 1.071318 0.035124 0.007889 -143250.000000 0 0 1
-19.360009 -18.766354 13.456023 30.133877 0.769829 1.107900 0.046698 -0.001551 -22654.100000 0 0 1
-19.560509 -20.113654 12.640223 30.772518 0.799339 1.147505 0.042954 0.004595 15255.800000 0 0 1
-18.567809 -21.085254 12.932323 30.928894 0.848800 1.139410 0.035094 0.003767 149322.000000 0 0 1
-18.558109 -22.259854 12.091723 31.402457 0.875840 1.175527 0.026182 0.005728 -9194.700000 0 0 1
-17.513709 -23.340154 12.586323 31.779055 0.927060 1.163577 0.028299 0.001444 371232.000000 0 0 1
-17.356609 -24.565454 11.900323 32.347042 0.955691 1.194052 0.025719 -0.012849 157743.000000 0 0 1
-16.786709 -24.470054 10.585823 31.506139 0.969521 1.228138 0.022768 -0.012102 -341701.000000 0 0 1
-17.107609 -25.671694 9.719323 32.344573 0.982979 1.265587 0.035600 -0.012987 -654279.000000 0 0 1
-18.413909 -25.599464 9.214423 32.852857 0.947229 1.286507 0.033003 -0.006383 -464708.000000 0 0 1
-18.547909 -26.617204 8.221423 33.467780 0.962195 1.322604 0.046195 -0.012611 566408.000000 0 0 1
-19.820309 -26.477584 7.355823 33.882374 0.928211 1.351955 0.044684 -0.019070 432202.000000 0 0 1
-19.494709 -25.427474 6.468923 32.687109 0.916706 1.371577 0.047020 -0.015753 242418.000000 0 0 1
-20.455809 -25.288604 5.433223 32.976864 0.890655 1.405283 0.052241 -0.017794 121131.000000 0 0 1
-20.345409 -23.960754 4.697123 31.782328 0.866817 1.422463 0.050674 -0.016970 -45107.100000 0 0 1
-20.842909 -24.082854 3.361323 32.026695 0.857391 1.465649 0.052704 -0.024931 23647.800000 0 0 1
-20.906309 -22.799854 2.754623 31.056321 0.828696 1.481982 0.049971 -0.020809 -159097.000000 0 0 1
-21.712109 -22.795854 1.450423 31.514606 0.809743 1.524756 0.037003 -0.020766 -274644.000000 0 0 1
-21.105609 -23.549054 0.451123 31.626068 0.840062 1.556532 0.029920 -0.030617 -106217.000000 0 0 1
-21.611509 -23.283354 -0.837177 31.778495 0.822620 1.597143 0.040991 -0.032010 -398550.000000 0 0 1
-20.978709 -24.123454 -1.956077 32.029260 0.855010 1.631906 0.047777 -0.032356 -599025.000000 0 0 1
-19.594309 -23.907854 -2.035177 30.978450 0.884232 1.636540 0.062583 -0.026456 -189807.000000 0 0 1
-18.838909 -24.601554 -3.014677 31.132447 0.917284 1.667782 0.056818 -0.018077 280768.000000 0 0 1
-18.758009 -26.156964 -2.911877 32.319169 0.948664 1.661016 0.062357 -0.021959 -937613.000000 0 0 1
-19.893809 -26.829254 -3.341777 33.566948 0.932759 1.670517 0.084255 -0.028873 -432033.000000 0 0 1
-19.492209 -28.109704 -3.832477 34.420772 0.964491 1.682370 0.087732 -0.017731 -340891.000000 0 0 1
-20.680009 -28.933234 -4.284977 35.821164 0.950240 1.690705 0.099540 -0.015517 -308156.000000 0 0 1
-21.296609 -28.393894 -5.444777 35.908277 0.927268 1.723014 0.089955 -0.014361 -90306.900000 0 0 1
-22.038309 -29.345894 -6.166177 37.214114 0.926665 1.737259 0.077396 -0.024783 116556.000000 0 0 1
-22.702509 -28.905584 -7.511477 37.514783 0.905020 1.772386 0.074080 0.002949 -51858.000000 0 0 1
-21.725409 -28.659654 -8.483977 36.950602 0.922164 1.802466 0.102486 0.000360 -72532.800000 0 0 1
-22.221809 -28.397014 -9.756477 37.354893 0.906793 1.835044 0.093327 -0.000340 -3045.250000 0 0 1
-22.848309 -26.980374 -10.062377 36.759179 0.868134 1.848073 0.066228 0.003449 -253677.000000 0 0 1
-21.955709 -25.945834 -10.315777 35.519779 0.868505 1.865466 0.062190 0.001194 -142154.000000 0 0 1
-21.742609 -25.044354 -9.228277 34.425598 0.855851 1.842180 0.053710 0.000542 160348.000000 0 0 1
-21.438209 -23.560754 -9.695277 33.297212 0.832532 1.866250 0.045077 0.001521 -761736.000000 0 0 1
-22.574809 -22.949154 -10.142977 33.751528 0.793621 1.876033 0.042793 0.008235 -897332.000000 0 0 1
-22.335309 -21.606954 -10.523077 32.809475 0.768824 1.897299 0.026809 0.015505 727860.000000 0 0 1
-23.625509 -20.728354 -10.749877 33.217302 0.720172 1.900352 0.020840 0.018670 193379.000000 0 0 1
-24.474109 -21.062954 -11.867677 34.401625 0.710628 1.923008 0.001852 0.021318 2023230.000000 0 0 1
-25.786619 -20.410554 -11.811777 34.943648 0.669547 1.915612 0.006399 0.021195 1484390.000000 0 0 1
-25.717679 -18.841454 -11.871377 34.019538 0.632289 1.927255 0.008413 0.008169 -1560800.000000 0 0 1
-25.274819 -18.414754 -13.114477 33.910310 0.629651 1.967890 -0.000433 0.007805 210075.000000 0 0 1
-25.096429 -16.980554 -13.219677 33.059489 0.594857 1.982177 0.016672 0.000499 -460828.000000 0 0 1
-23.967409 -16.334754 -12.439277 31.559412 0.598229 1.975944 0.006835 0.005875 -924970.000000 0 0 1
-24.346909 -16.287954 -11.099777 31.325301 0.589613 1.933003 0.006550 -0.004487 155349.000000 0 0 1
-23.278309 -16.133454 -10.189677 30.099793 0.606059 1.916150 0.005988 0.000406 -162680.000000 0 0 1
-23.633609 -16.564054 -8.770877 30.163614 0.611309 1.865835 -0.001111 -0.010403 25175.400000 0 0 1
-23.674309 -17.970354 -8.695377 30.967985 0.649278 1.855409 0.000215 -0.003288 152536.000000 0 0 1
-24.596809 -18.257354 -7.672577 31.578512 0.638532 1.816221 0.017269 -0.011166 28961.200000 0 0 1
-24.586709 -19.657354 -7.110777 32.271984 0.674443 1.792958 0.042587 -0.009451 -43630.700000 0 0 1
-25.130259 -20.586454 -8.033477 33.464440 0.686333 1.813224 0.015113 -0.015274 126015.000000 0 0 1
-25.343119 -21.823854 -7.459977 34.266683 0.710923 1.790257 0.012456 0.004064 78273.900000 0 0 1
-25.553849 -22.864054 -8.549577 35.339205 0.729901 1.815150 0.001658 0.013390 -84009.600000 0 0 1
-25.947269 -24.068754 -8.015077 36.287837 0.747858 1.793508 0.009984 0.010482 -332602.000000 0 0 1
-25.897109 -25.078234 -8.999577 37.156029 0.769335 1.815440 0.008345 0.020130 -143541.000000 0 0 1
-26.601109 -26.312634 -8.466877 38.362243 0.779946 1.793337 -0.001217 0.016062 -292259.000000 0 0 1
-26.001269 -26.917074 -7.385177 38.146241 0.802702 1.765628 0.016676 0.004700 -308459.000000 0 0 1
-26.687529 -28.083484 -7.041377 39.376227 0.810880 1.750586 -0.006186 0.004346 56427.600000 0 0 1
-26.133419 -28.442194 -5.634477 39.034105 0.827677 1.715650 0.010252 -0.006777 100344.000000 0 0 1
-26.515819 -27.694274 -4.491477 38.603560 0.807133 1.687409 -0.004585 -0.004813 -362982.000000 0 0 1
-25.675319 -27.869404 -3.409077 38.046649 0.826352 1.660519 0.016218 -0.012228 -491644.000000 0 0 1
-25.925049 -29.139634 -2.561077 39.086897 0.843710 1.636366 0.005812 -0.002065 -342590.000000 0 0 1
-25.541509 -30.326544 -3.221877 39.780001 0.870839 1.651878 0.017882 -0.000308 -75381.300000 0 0 1
-25.721609 -31.480654 -2.406677 40.723763 0.885739 1.629928 0.014164 -0.002252 -154170.000000 0 0 1
-24.638609 -31.675084 -1.331777 40.151533 0.909705 1.603971 0.034327 -0.012400 -387412.000000 0 0 1
-23.385109 -31.908674 -1.942377 39.608075 0.938345 1.619856 0.046387 -0.025583 76499.700000 0 0 1
-22.340609 -32.045464 -0.974477 39.076389 0.961983 1.595737 0.041143 -0.011498 762622.000000 0 0 1
-21.387509 -30.828684 -0.738077 37.528363 0.964275 1.590465 0.064397 -0.014690 83934.200000 0 0 1
-22.032909 -29.683444 -0.176877 36.967380 0.932266 1.575581 0.065876 -0.017973 183322.000000 0 0 1
-22.349409 -28.673604 -1.151277 36.373027 0.908717 1.602454 0.073181 -0.027516 -222350.000000 0 0 1
-23.020709 -27.443944 -0.519577 35.824476 0.872825 1.585300 0.044488 -0.015432 3441.820000 0 0 1
-24.313209 -27.644004 0.026923 36.814723 0.849417 1.570065 0.042911 -0.015914 149676.000000 0 0 1
-25.076009 -26.476034 0.244323 36.467058 0.812549 1.564096 0.047685 -0.029623 48216.400000 0 0 1
-24.530209 -25.542974 1.347723 35.439964 0.805621 1.532759 0.054778 -0.020280 -474365.000000 0 0 1
-24.604609 -26.059104 2.645123 35.936894 0.814099 1.497125 0.048112 -0.016079 -100021.000000 0 0 1
-24.293909 -25.132144 3.706323 35.150470 0.802356 1.465158 0.056907 -0.021847 160346.000000 0 0 1
-25.331659 -24.004654 3.971523 35.123914 0.758508 1.457482 0.046593 -0.013117 -50388.200000 0 0 1
-25.259599 -23.032654 2.971723 34.312995 0.739317 1.484081 0.043553 -0.016841 731556.000000 0 0 1
-26.371119 -22.110654 3.049723 34.548774 0.697746 1.482408 0.029136 -0.018768 476272.000000 0 0 1
-26.241979 -20.905554 2.082923 33.615803 0.672692 1.508794 0.037961 -0.019307 -290771.000000 0 0 1
-25.163679 -20.026954 2.179923 32.234170 0.672216 1.503117 0.037628 -0.011979 -478447.000000 0 0 1
-25.059649 -19.099254 1.110023 31.527760 0.651233 1.535581 0.028797 -0.017718 354879.000000 0 0 1
-23.641509 -18.464754 1.177123 30.020888 0.663067 1.531576 0.045183 -0.008268 281357.000000 0 0 1
-22.552609 -19.347354 0.956023 29.729687 0.709049 1.538634 0.047524 -0.011779 -585011.000000 0 0 1
-21.404709 -18.586254 1.161423 28.371805 0.715037 1.529849 0.044724 -0.006600 -692486.000000 0 0 1
-20.118309 -19.414654 0.979123 27.975593 0.767601 1.535790 0.037313 -0.011230 -288456.000000 0 0 1
-19.701009 -19.622354 -0.357977 27.808177 0.783398 1.583670 0.030622 -0.015595 8265.270000 0 0 1
-18.658909 -20.573454 -0.390677 27.777230 0.834160 1.584861 0.044866 -0.012823 -8349.890000 0 0 1
-18.275409 -20.933154 -1.864077 27.850714 0.853079 1.637777 0.054523 -0.014627 -33813.000000 0 0 1
-17.518209 -19.899054 -2.443577 26.623881 0.848942 1.662707 0.036897 -0.009495 25955.700000 0 0 1
-17.619609 -20.121554 -3.860177 27.022741 0.851594 1.714136 0.059980 -0.005058 364142.000000 0 0 1
-16.732209 -19.128254 -4.703977 25.845393 0.852115 1.753821 0.052875 0.003861 897110.000000 0 0 1
-15.323609 -19.261054 -4.484077 25.018156 0.898760 1.751003 0.058424 0.002410 389588.000000 0 0 1
-14.705409 -18.355754 -5.363877 24.123721 0.895365 1.795019 0.059780 -0.000827 169.426000 0 1 0
-13.168009 -18.287154 -5.157777 23.117507 0.946728 1.795801 0.063935 -0.008103 478682.000000 0 1 0
-12.507909 -19.481954 -5.648077 23.830549 1.000048 1.810083 0.055643 -0.012697 -391864.000000 0 1 0
-11.119809 -19.353254 -5.645377 23.023225 1.049285 1.818526 0.041850 -0.014479 -364767.000000 0 1 0
-10.226409 -20.586554 -5.747877 23.694382 1.109751 1.815825 0.036772 -0.015435 -72606.400000 0 1 0
-10.257909 -21.261354 -6.978677 24.616494 1.121273 1.858234 0.044489 -0.014333 -134021.000000 0 1 0
-9.387909 -22.382954 -7.033477 25.270521 1.173660 1.852849 0.039581 -0.011102 -176887.000000 0 0 1
-9.833509 -23.437654 -8.022577 26.653016 1.173542 1.876538 0.048536 -0.002968 -272817.000000 0 0 1
-9.840409 -23.056154 -9.359177 26.758439 1.167400 1.928117 0.052248 0.003314 32805.600000 0 0 1
-10.463609 -24.002854 -10.205977 28.103133 1.159703 1.942455 0.060587 0.003755 7997.030000 0 0 1
-11.234809 -23.373354 -11.401877 28.329091 1.122734 1.985020 0.091988 -0.004394 -342949.000000 0 0 1
-10.473309 -22.771254 -12.402177 27.964874 1.139711 2.030287 0.082958 0.000562 -190237.000000 0 0 1
-11.277909 -22.257354 -13.471877 28.356172 1.101799 2.065868 0.088190 -0.007575 -302174.000000 0 0 1
-10.665609 -21.104554 -14.278777 27.623194 1.102862 2.114037 0.077580 -0.001944 -323038.000000 0 0 1
-10.545609 -19.919554 -13.553977 26.300357 1.083899 2.112216 0.084903 -0.005101 -6192.980000 0 0 1
-10.378409 -18.734354 -14.312877 25.759383 1.064905 2.159926 0.079049 0.001759 -33964.000000 0 0 1
-10.088109 -17.446054 -13.493377 24.252958 1.046526 2.160795 0.076243 -0.003174 320887.000000 0 1 0
-11.253509 -16.949354 -12.816377 24.045406 0.984677 2.132947 0.084266 -0.005440 493496.000000 0 1 0
-11.041209 -15.987054 -11.820777 22.742580 0.966384 2.117371 0.070104 -0.010676 -192825.000000 0 1 0
-10.422509 -14.657754 -12.218277 21.743154 0.952688 2.167522 0.061120 -0.007246 50288.300000 0 1 0
-11.312209 -13.702554 -12.786477 21.891095 0.880666 2.194561 0.053573 -0.005687 115292.000000 0 1 0
-11.433009 -13.730054 -14.266977 22.864267 0.876432 2.244629 0.064285 -0.010323 693205.000000 0 1 0
-12.839409 -13.258554 -14.803377 23.659663 0.801457 2.246799 0.067310 -0.007330 525034.000000 0 1 0
-12.911309 -11.872254 -14.630277 22.840694 0.743498 2.265992 0.041057 0.006530 -201508.000000 0 1 0
-14.098309 -11.262854 -15.060477 23.503875 0.674057 2.266291 0.035560 -0.001950 -278314.000000 0 1 0
-14.288309 -9.907354 -14.262577 22.488498 0.606275 2.257791 0.028324 -0.013668 420862.000000 0 1 0
-13.240409 -8.949854 -14.443877 21.541446 0.594402 2.305700 0.028220 -0.012360 479391.000000 0 1 0
-13.303509 -8.265554 -15.681977 22.163644 0.555939 2.356827 0.030161 -0.015592 -180735.000000 0 1 0
-12.284409 -7.098154 -15.753877 21.200828 0.523950 2.408455 0.029823 -0.008530 -742931.000000 0 1 0
-11.024809 -7.613954 -15.919277 20.807260 0.604403 2.441966 0.028445 -0.005946 -440999.000000 0 1 0
-9.939609 -6.688054 -15.733177 19.775205 0.592284 2.490796 0.015569 0.001564 889552.000000 0 1 0
11.948991 21.321246 15.796823 29.101779 1.059983 0.997013 0.043560 -0.019164 -48137.400000 0 0 1
12.728991 21.642846 16.927123 30.281471 1.039144 0.977626 0.067656 -0.018204 -114468.000000 0 0 1
13.131491 20.518146 17.664823 30.091134 1.001487 0.943394 0.064141 -0.025080 -539826.000000 0 0 1
14.116391 20.955746 18.758723 31.469120 0.977989 0.932162 0.075335 -0.036246 -178216.000000 0 0 1
15.331391 21.367146 18.139623 31.947651 0.948407 0.966975 0.059021 -0.027577 547897.000000 0 0 1
16.373491 21.273746 19.154723 32.978279 0.914833 0.951050 0.060800 -0.034942 -37024.100000 0 0 1
17.757091 21.639246 18.673723 33.649357 0.883622 0.982493 0.048931 -0.022834 -1450850.000000 0 0 1
18.034791 23.034046 18.630223 34.682938 0.906531 1.003732 0.051673 -0.016722 818925.000000 0 0 1
19.219191 23.436046 17.888123 35.193899 0.883937 1.037618 0.050033 -0.012437 691538.000000 0 0 1
20.603491 23.018546 18.378323 35.946072 0.840705 1.034129 0.058047 -0.017463 -896696.000000 0 0 1
20.874991 21.643546 18.322623 35.212595 0.803472 1.023544 0.047440 -0.012099 352714.000000 0 0 1
22.102991 21.250746 18.930323 36.034616 0.765743 1.017685 0.053388 -0.010331 93816.100000 0 0 1
22.371791 19.767346 18.787323 35.273340 0.723671 1.009102 0.047335 -0.005918 -54697.500000 0 0 1
22.365991 19.304646 17.456723 34.316820 0.712065 1.037130 0.030948 -0.006721 30666.500000 0 0 1
22.115091 17.913246 17.253723 33.281415 0.680809 1.025795 0.030218 -0.005617 -156308.000000 0 0 1
23.129191 16.802246 17.679223 33.612942 0.628259 1.016947 0.018860 0.004338 92227.700000 0 0 1
24.248591 16.799546 16.815923 33.955768 0.605881 1.052696 0.024657 0.003975 345052.000000 0 0 1
25.303591 15.979346 17.333923 34.584333 0.563263 1.045803 0.018153 0.002139 857879.000000 0 0 1
26.530291 15.888346 16.331523 34.971625 0.539592 1.084909 0.065297 -0.004477 -244907.000000 0 0 1
27.248491 17.127646 16.278323 36.066887 0.561164 1.102533 0.058667 -0.002309 558971.000000 0 0 1
28.574291 17.250146 16.781223 37.358628 0.543132 1.104935 0.053914 -0.011403 691149.000000 0 0 1
29.605691 16.227046 16.207223 37.449807 0.501388 1.123231 0.050818 -0.016595 -891675.000000 0 0 1
29.623491 16.466346 14.834423 36.996647 0.507327 1.158224 0.074728 -0.022125 -45913.800000 0 0 1
29.785791 15.213346 14.216323 36.342029 0.472217 1.168881 0.102248 -0.025167 41410.900000 0 0 1
29.207891 15.173546 12.788623 35.311277 0.479127 1.200203 0.090330 -0.014845 -76365.600000 0 0 1
29.910891 16.092146 11.962323 36.009939 0.493586 1.232166 0.085282 -0.018140 -57337.500000 0 0 1
29.346191 16.179346 10.697723 35.176860 0.503861 1.261790 0.072294 -0.010303 199184.000000 0 0 1
27.993791 16.953446 10.657323 34.418748 0.544538 1.255985 0.060931 -0.012303 -185974.000000 0 0 1
27.816391 18.330246 10.840623 35.032394 0.582657 1.256186 0.060465 -0.008273 -28152.800000 0 0 1
28.428591 18.911046 12.007323 36.193760 0.586995 1.232637 0.064073 -0.012472 -126421.000000 0 0 1
27.714091 18.643446 13.401223 35.989467 0.592172 1.189240 0.059851 -0.016236 323405.000000 0 0 1
26.551391 19.466146 13.505623 35.585237 0.632629 1.181509 0.059076 -0.015371 523598.000000 0 0 1
25.828091 19.283546 14.729523 35.438740 0.641329 1.142157 0.062026 -0.016738 -28582.500000 0 0 1
26.469491 20.004246 15.918923 36.799673 0.647169 1.123440 0.045775 -0.004385 -383931.000000 0 0 1
26.360291 21.399446 15.829923 37.461817 0.681898 1.134527 0.035358 -0.007810 603095.000000 0 0 1
25.159291 21.914446 16.427823 37.190136 0.716576 1.113275 0.045810 -0.009820 399708.000000 0 0 1
24.986591 23.395746 16.353723 37.935932 0.752529 1.125098 0.032496 -0.011782 -79037.700000 0 0 1
24.923091 23.846146 14.988923 37.609400 0.763319 1.160870 0.044431 -0.016028 -30849.300000 0 0 1
24.912591 25.286146 14.969923 38.524343 0.792840 1.171703 0.049656 -0.020488 -542686.000000 0 0 1
24.534191 25.878046 13.580923 38.158109 0.812049 1.206907 0.044181 -0.027390 81368.600000 0 0 1
23.229491 25.561446 13.116223 36.946341 0.833157 1.207874 0.045321 -0.021849 181736.000000 0 0 1
23.091791 25.769346 11.737823 36.538562 0.840143 1.243753 0.036816 -0.024999 187637.000000 0 0 1
22.270591 24.642246 11.002923 34.989768 0.835910 1.250907 0.038416 -0.018394 633784.000000 0 0 1
20.906091 24.475946 11.422023 34.155515 0.863899 1.229815 0.049682 -0.016999 525933.000000 0 0 1
20.371091 23.203546 11.144023 32.826440 0.850309 1.224429 0.067596 -0.014194 95608.400000 0 0 1
20.130891 22.774346 9.668123 31.896649 0.846932 1.262844 0.056938 0.003417 636457.000000 0 0 1
19.074891 23.498946 8.965423 31.566291 0.888941 1.282813 0.044291 0.017236 1099500.000000 0 0 1
19.598891 23.835046 7.677923 31.799001 0.882622 1.326935 0.047894 0.005913 576867.000000 0 0 1
18.513191 24.097346 6.572323 31.090445 0.915707 1.357796 0.040287 0.011600 124413.000000 0 0 1
17.711491 22.920146 6.377023 29.659677 0.912895 1.354098 0.041581 0.019272 1089420.000000 0 0 1
16.667591 23.018946 5.386123 28.925608 0.944091 1.383497 0.062942 0.011312 1100450.000000 0 0 1
15.415791 23.915046 5.629823 29.004671 0.998222 1.375456 0.044562 0.008328 -81657.000000 0 0 1
15.665591 25.287746 5.352723 30.224700 1.016167 1.392760 0.059785 -0.002752 221843.000000 0 0 1
14.493091 26.035746 5.571223 30.314160 1.062853 1.385963 0.042763 -0.003287 -133025.000000 0 0 1
14.613191 27.535046 5.187523 31.601179 1.082882 1.405894 0.040286 -0.010533 -178661.000000 0 0 1
14.162491 27.635946 3.860123 31.292527 1.097225 1.447125 0.038143 0.006456 338795.000000 0 0 1
13.907491 28.974146 3.403323 32.318757 1.123279 1.465296 0.032906 0.002513 97764.000000 0 0 1
12.998591 28.993146 2.113223 31.843863 1.149329 1.504385 0.035690 -0.001210 21311.200000 0 0 1
13.618391 28.552146 0.903523 31.646516 1.125745 1.542242 0.073314 -0.007809 130846.000000 0 0 1
13.934591 27.177846 0.785323 30.552003 1.097026 1.545089 0.046881 0.001088 112527.000000 0 0 1
15.072891 26.950946 -0.263577 30.880657 1.060863 1.579332 0.052810 -0.007567 73341.200000 0 0 1
14.814891 27.205746 -1.617477 31.020152 1.072147 1.622963 0.062083 -0.008584 81454.700000 0 0 1
16.000091 27.069946 -2.412677 31.537373 1.036973 1.647373 0.063279 -0.004820 515771.000000 0 0 1
15.831491 27.702846 -3.790277 32.131760 1.051615 1.689032 0.073034 -0.009916 -74987.200000 0 0 1
14.976091 27.010546 -4.727677 31.244261 1.064540 1.722693 0.086088 -0.015841 76372.800000 0 0 1
14.929191 27.627146 -6.001777 31.971257 1.075368 1.759641 0.075750 -0.013979 -500216.000000 0 0 1
13.718491 27.301446 -6.838377 31.310212 1.105165 1.790978 0.087495 -0.025918 -420753.000000 0 0 1
13.579891 25.928446 -7.207977 30.143866 1.088334 1.812255 0.075188 -0.023851 533108.000000 0 0 1
12.213491 25.600046 -7.507177 29.340917 1.125645 1.829534 0.052233 -0.024399 923532.000000 0 0 1
11.902191 24.125946 -7.983877 28.061819 1.112494 1.859292 0.060724 -0.012511 -85000.000000 0 0 1
12.326691 23.823146 -9.275077 28.381625 1.093306 1.903711 0.052564 -0.014709 105806.000000 0 0 1
11.814191 22.502946 -9.673577 27.194407 1.087344 1.934480 0.058625 -0.004708 311767.000000 0 0 1
12.375391 21.958746 -11.042577 27.518636 1.057591 1.983706 0.049301 -0.000827 270299.000000 0 0 1
11.564591 20.953546 -11.654777 26.620005 1.066484 2.023969 0.049541 0.002187 203701.000000 0 0 1
11.978491 20.723946 -13.014477 27.245968 1.046709 2.068793 0.047886 0.001116 1031650.000000 0 0 1
13.308091 19.897546 -13.309977 27.389288 0.981297 2.078252 0.042237 0.010656 1350690.000000 0 0 1
14.463691 20.651946 -12.927677 28.334185 0.959832 2.044581 0.030229 0.007506 -837691.000000 0 0 1
15.591491 19.976646 -13.375777 28.654360 0.908068 2.056462 0.024774 0.015540 -217782.000000 0 0 1
16.834791 20.911146 -13.445677 30.024531 0.892976 2.035125 0.036219 0.013512 38850.400000 0 0 1
16.789191 21.993546 -14.380577 31.183232 0.918794 2.050103 0.036150 0.004940 408307.000000 0 0 1
15.796891 22.999746 -14.138777 31.279947 0.968965 2.039811 0.035206 0.002978 531907.000000 0 0 1
16.401391 24.333946 -14.682777 32.813572 0.977725 2.034720 0.030691 -0.003105 354473.000000 0 0 1
16.736591 24.353146 -16.031377 33.618362 0.968682 2.067879 0.017574 -0.004099 192935.000000 0 0 1
15.607491 24.578046 -16.877477 33.652984 1.005026 2.096145 0.020927 -0.000386 330496.000000 0 0 1
15.899491 24.553946 -18.387177 34.551098 0.996157 2.131962 0.010755 0.011698 -108631.000000 0 0 1
16.387991 23.366046 -18.965877 34.267227 0.959159 2.157321 0.009697 0.013309 138513.000000 0 0 1
16.347991 23.428646 -20.365677 35.084456 0.961563 2.190109 0.013903 0.019073 -243622.000000 0 0 1
16.711991 22.032746 -20.991277 34.718385 0.921873 2.220079 0.027284 0.020121 -1432.260000 0 0 1
15.613891 21.143046 -21.076277 33.690227 0.934704 2.246684 0.045145 0.019307 310401.000000 0 0 1
16.087391 20.019946 -21.769577 33.667742 0.893883 2.273916 0.034727 0.016072 303191.000000 0 0 1
14.992591 18.939446 -21.998177 32.671091 0.901194 2.309490 0.043273 0.005330 -452214.000000 0 0 1
14.691791 18.176646 -20.823177 31.302458 0.891028 2.298591 0.042108 0.001911 -62333.800000 0 0 1
13.931191 17.018546 -21.010777 30.416471 0.884823 2.333349 0.051170 -0.005439 -301640.000000 0 0 1
12.438691 17.337146 -21.170477 30.058056 0.948449 2.352260 0.054714 -0.012465 -803993.000000 0 0 1
11.650491 17.310346 -19.992177 28.897563 0.978397 2.334816 0.040490 -0.008740 623180.000000 0 0 1
10.267391 17.540246 -20.252277 28.692059 1.041210 2.354418 0.045456 -0.014814 454809.000000 0 0 1
9.293591 17.212246 -19.126677 27.358034 1.075709 2.344969 0.043813 -0.018287 -436079.000000 0 0 1
9.234491 15.782046 -18.859477 26.268397 1.041385 2.371654 0.045699 -0.032694 408773.000000 0 0 1
7.926491 15.369746 -18.467077 25.300025 1.094652 2.389006 0.060084 -0.023570 514179.000000 0 0 1
7.361391 15.704246 -17.067977 24.333706 1.132458 2.348174 0.056309 -0.022376 -17453.100000 0 1 0
7.129291 17.057046 -16.760677 24.953755 1.174897 2.307256 0.060373 -0.019568 -184393.000000 0 1 0
6.481591 17.063546 -15.496077 23.943768 1.207780 2.274684 0.057371 -0.023909 -153307.000000 0 1 0
6.242491 18.483046 -15.001477 24.609673 1.245084 2.226322 0.057735 -0.025320 588787.000000 0 1 0
7.439491 19.283246 -14.853277 25.452101 1.202590 2.193924 0.047009 -0.017369 592671.000000 0 0 1
7.986391 19.804946 -16.024777 26.698535 1.187489 2.214562 0.061814 -0.010366 -533823.000000 0 0 1
8.985791 20.907246 -15.762177 27.682189 1.164873 2.176569 0.044367 -0.001173 -395084.000000 0 0 1
8.465391 22.117546 -15.239577 28.161914 1.205252 2.142590 0.042164 -0.016377 -14745.800000 0 0 1
8.375291 22.138446 -13.832977 27.415462 1.209123 2.099678 0.033748 -0.005936 -23237.300000 0 0 1
8.125491 23.555246 -13.187377 28.191845 1.238623 2.057565 0.045699 -0.019737 -259611.000000 0 0 1
6.843991 24.106046 -13.448177 28.439323 1.294164 2.063344 0.037617 -0.013640 19529.800000 0 0 1
6.484091 25.013446 -12.431277 28.674946 1.317155 2.019196 0.033874 -0.016072 1141.310000 0 0 1
5.779291 24.371146 -11.241077 27.453866 1.337961 1.992651 0.024163 -0.015112 -177399.000000 0 0 1
6.737691 23.877046 -10.278577 26.854403 1.295765 1.963570 0.013892 -0.014692 396347.000000 0 0 1
6.119291 23.049446 -9.366277 25.621277 1.311297 1.945038 0.021028 -0.015271 16744.700000 0 0 1
6.969291 22.846446 -8.092277 25.219359 1.274714 1.897450 0.009015 -0.017417 70960.300000 0 0 1
7.067191 24.004146 -7.359977 26.082819 1.284471 1.856859 0.006508 -0.016919 268569.000000 0 0 1
8.078691 24.024046 -6.361377 26.132110 1.246400 1.816698 0.024542 -0.014800 119058.000000 0 0 1
8.134691 25.402846 -5.704177 27.276646 1.260887 1.781474 0.016698 -0.015286 104387.000000 0 0 1
8.624491 26.434346 -6.610477 28.580673 1.255425 1.804202 0.044920 -0.024930 310649.000000 0 0 1
9.050991 27.511246 -5.799677 29.536847 1.252958 1.768434 0.024796 -0.007352 -27205.500000 0 0 1
9.320691 28.767846 -6.566377 30.944815 1.257472 1.784618 0.031544 -0.009970 -199218.000000 0 0 1
10.585391 28.912046 -7.149877 31.608190 1.219830 1.798974 0.051608 -0.018936 -426313.000000 0 0 1
10.656391 30.097046 -7.934577 32.899063 1.230502 1.814377 0.052481 -0.018857 852073.000000 0 0 1
12.017191 30.342046 -8.706077 33.776448 1.193693 1.831495 0.056984 -0.024143 1614410.000000 0 0 1
13.165991 30.450746 -7.875377 34.097109 1.162700 1.803870 0.059610 -0.013697 913093.000000 0 0 1
14.396191 30.835846 -8.516677 35.080386 1.134006 1.816023 0.045321 -0.015338 1888570.000000 0 0 1
15.611391 31.221646 -7.593277 35.723445 1.107134 1.784988 0.044994 -0.008579 452289.000000 0 0 1
16.372391 30.196346 -7.063277 35.067996 1.073963 1.773600 0.047187 -0.010571 -384283.000000 0 0 1
17.548791 30.733146 -6.475977 35.978113 1.051969 1.751780 0.044661 -0.000640 1201480.000000 0 0 1
18.685991 29.639946 -6.229777 35.587958 1.008300 1.746756 0.040805 0.002043 533395.000000 0 0 1
18.337291 28.695046 -5.211677 34.450304 1.002164 1.722660 0.061573 -0.008490 -197419.000000 0 0 1
19.339191 27.737446 -4.879277 34.163980 0.961936 1.714106 0.046407 -0.001295 -48518.800000 0 0 1
19.592391 26.668446 -6.034377 33.637501 0.937182 1.751167 0.042305 0.008623 -161080.000000 0 0 1
20.082991 27.209946 -7.201977 34.577104 0.934971 1.780620 0.032990 0.009837 -57153.000000 0 0 1
19.912191 26.242246 -8.274377 33.964925 0.921697 1.816888 0.028061 0.004364 -779713.000000 0 0 1
20.492991 26.716946 -9.621077 35.018895 0.916478 1.849115 0.025214 0.003483 1638140.000000 0 0 1
21.948191 26.725746 -9.706377 35.919387 0.883239 1.844425 0.013011 0.009092 1670140.000000 0 0 1
22.578691 25.447446 -9.689677 35.373148 0.845060 1.848271 0.017527 0.009026 1794390.000000 0 0 1
24.196691 25.533946 -9.670377 36.482577 0.812282 1.839071 -0.003951 0.017838 2370790.000000 0 0 1
24.792991 25.849946 -10.908077 37.441932 0.806266 1.866416 0.008429 0.012766 145727.000000 0 0 1
26.199991 25.993546 -10.789077 38.451374 0.781443 1.855205 0.006594 0.027322 210330.000000 0 0 1
26.885291 26.138546 -12.160877 39.419911 0.771316 1.884408 0.013636 0.011471 -94410.800000 0 0 1
26.790291 27.445146 -12.765377 40.421660 0.797472 1.892102 0.020086 0.015161 -96373.600000 0 0 1
27.318291 27.449046 -14.072777 41.204153 0.787786 1.919349 0.011386 0.016952 94505.500000 0 0 1
27.109091 28.764546 -14.888777 42.237159 0.815018 1.931042 0.018803 0.001693 -34941.400000 0 0 1
27.937291 29.821646 -14.462477 43.347272 0.818011 1.910961 0.031816 -0.005047 76119.500000 0 0 1
27.797791 30.850046 -15.421077 44.297315 0.837395 1.926368 0.045203 -0.004056 79574.100000 0 0 1
28.361691 32.188746 -14.876277 45.407097 0.848519 1.904580 0.046993 -0.016540 224933.000000 0 0 1
29.751391 32.234446 -14.613877 46.236027 0.825435 1.892382 0.041221 -0.016969 181345.000000 0 0 1
30.234991 33.523546 -14.312877 47.358645 0.836931 1.877820 0.043860 -0.023708 -330705.000000 0 0 1
15.411591 -32.868113 -28.877450 46.386821 -1.132343 2.242775 0.062393 -0.031256 -779836.000000 0 0 1
16.490191 -33.298413 -28.155160 46.619993 -1.110976 2.219218 0.030158 -0.023384 -537886.000000 0 0 1
16.788791 -32.349213 -27.141870 45.442449 -1.092075 2.210902 0.039809 -0.024183 -273947.000000 0 0 1
17.894991 -32.730413 -26.083740 45.517822 -1.070460 2.181012 0.011643 -0.015591 847553.000000 0 0 1
19.246891 -32.471213 -26.422440 46.075675 -1.035734 2.181516 0.009234 -0.015561 377004.000000 0 0 1
19.785291 -33.340413 -27.425580 47.488981 -1.035220 2.186477 0.010244 -0.010333 -382881.000000 0 0 1
21.284091 -33.030613 -27.678320 48.063742 -0.998386 2.184460 0.030335 0.000154 227324.000000 0 0 1
21.590491 -31.798213 -28.326580 47.745898 -0.974314 2.205921 0.027855 -0.010442 -349101.000000 0 0 1
22.949691 -31.578213 -28.047880 48.068237 -0.942337 2.193830 0.017374 -0.000275 -477463.000000 0 0 1
23.487891 -30.240613 -28.604730 47.795463 -0.910425 2.212401 0.012308 0.004084 -192062.000000 0 0 1
23.825791 -30.355713 -29.965990 48.857939 -0.905339 2.231065 0.003324 0.001585 -72827.800000 0 0 1
23.938791 -29.127813 -30.684540 48.611071 -0.882871 2.253928 0.014312 -0.012422 -189569.000000 0 0 1
24.227791 -29.324113 -32.160950 49.811808 -0.880278 2.272669 0.015107 -0.001920 -224520.000000 0 0 1
25.499591 -29.842913 -32.403060 50.899773 -0.863718 2.260885 0.022797 -0.015597 -475919.000000 0 0 1
25.831091 -30.169513 -33.763170 52.128653 -0.862715 2.275344 0.017322 -0.016183 540428.000000 0 0 1
27.144491 -30.938713 -34.095537 53.446543 -0.850629 2.262613 0.004442 -0.014742 146081.000000 0 0 1
28.340391 -30.268413 -33.912260 53.566743 -0.818283 2.256327 0.026526 -0.026155 -543624.000000 0 0 1
29.502391 -31.049513 -34.169026 54.790379 -0.810943 2.244176 0.027344 -0.028022 723335.000000 0 0 1
30.736691 -30.101913 -34.235304 54.981137 -0.774965 2.242951 0.039439 -0.035484 67536.300000 0 0 1
30.635891 -29.289013 33.182161 53.828059 -0.762926 0.906574 0.030049 -0.034275 1141190.000000 0 0 1
31.883691 -28.567113 32.976130 54.037717 -0.730589 0.914429 0.039003 -0.034942 1023580.000000 0 0 1
31.903391 -27.765913 31.711973 52.862289 -0.716169 0.927423 0.032433 -0.032914 -227030.000000 0 0 1
33.070791 -26.973713 31.505393 53.045718 -0.684202 0.934862 0.033935 -0.029134 344370.000000 0 0 1
33.036591 -26.240113 30.325523 51.957649 -0.671240 0.947569 0.033637 -0.023456 -476110.000000 0 0 1
33.611791 -26.872313 29.020793 51.904529 -0.674430 0.977474 0.042400 -0.017900 -403554.000000 0 0 1
32.892291 -27.900013 28.429563 51.658045 -0.703462 0.988023 0.033108 -0.026243 85890.800000 0 0 1
31.844991 -27.411513 27.605153 50.274636 -0.710719 0.989525 0.041949 -0.025026 -319679.000000 0 0 1
31.200991 -28.537513 26.799543 50.061033 -0.740842 1.005889 0.029417 -0.015408 -225692.000000 0 0 1
30.011391 -28.118513 26.153363 48.737386 -0.752847 1.004372 0.022204 -0.008824 201168.000000 0 0 1
29.457591 -29.210513 25.427683 48.657690 -0.781187 1.020919 0.007557 0.000660 -412984.000000 0 0 1
28.132391 -28.913213 24.728783 47.317207 -0.799085 1.020879 0.010681 0.000430 -222794.000000 0 0 1
27.056491 -28.875713 25.654693 47.159557 -0.817912 0.995602 0.019664 0.001406 -288039.000000 0 0 1
25.859091 -28.680013 24.947233 45.973908 -0.837075 0.997221 0.031110 0.013914 456166.000000 0 0 1
24.579191 -28.323113 25.771923 45.503048 -0.856051 0.968692 0.046409 0.004105 154823.000000 0 0 1
24.682791 -27.040413 26.428713 45.154192 -0.830948 0.945547 0.040345 -0.000595 -362997.000000 0 0 1
23.531891 -26.825113 27.181613 44.857293 -0.850703 0.919827 0.040034 -0.006320 -586313.000000 0 0 1
23.670391 -25.830813 28.388763 45.093683 -0.829014 0.889821 0.041091 -0.000899 -198503.000000 0 0 1
22.511991 -25.820513 29.218603 45.024609 -0.853745 0.864596 0.038403 0.002433 492685.000000 0 0 1
22.484491 -24.779013 30.127683 45.024761 -0.833908 0.837751 0.029337 -0.000837 -361317.000000 0 0 1
21.923891 -23.447513 29.553673 43.633273 -0.818967 0.826683 0.034079 -0.005365 -487215.000000 0 0 1
22.765191 -22.869413 28.570653 43.099260 -0.787682 0.846106 0.046118 -0.010184 294371.000000 0 0 1
22.440891 -21.528613 28.194083 41.975959 -0.764653 0.834333 0.046863 -0.006929 -18451.900000 0 0 1
23.081291 -20.437913 29.122223 42.409412 -0.724732 0.813867 0.040167 -0.000655 -74363.900000 0 0 1
22.670591 -20.384413 30.472163 43.104904 -0.732349 0.785648 0.043654 -0.000180 165970.000000 0 0 1
23.379291 -19.428513 31.289103 43.624149 -0.693368 0.770959 0.039203 0.002229 -165390.000000 0 0 1
22.862391 -19.209613 32.747132 44.317862 -0.698793 0.739338 0.050965 -0.000364 -98016.800000 0 0 1
23.294391 -20.197013 33.695647 45.672143 -0.714300 0.741032 0.036318 -0.004699 188398.000000 0 0 1
22.608591 -20.047313 -33.626710 45.208393 -0.725425 2.409557 0.044699 -0.008013 -132674.000000 0 0 1
22.572091 -21.160413 -32.548430 44.907268 -0.753130 2.381529 0.017457 -0.004420 -575172.000000 0 0 1
23.825491 -21.429913 -31.994240 45.282741 -0.732513 2.355399 0.018058 -0.003883 -391624.000000 0 0 1
23.768291 -22.357313 -30.939180 44.966810 -0.754818 2.329588 0.021443 -0.009775 -501146.000000 0 0 1
25.071191 -22.572013 -30.184870 45.267944 -0.732990 2.300709 0.027653 -0.007543 -276474.000000 0 0 1
26.116391 -23.207313 -30.918010 46.653709 -0.726487 2.295232 0.028635 -0.005115 -65485.400000 0 0 1
27.005791 -23.846113 -30.043550 46.910178 -0.723343 2.265878 0.031249 -0.018157 -775001.000000 0 0 1
27.975891 -24.725113 -30.823350 48.415500 -0.723793 2.260932 0.010879 -0.018710 -361595.000000 0 0 1
29.015191 -24.035613 -31.509160 49.116384 -0.691808 2.267275 0.012178 -0.014136 116930.000000 0 0 1
28.767791 -23.686713 -32.850630 49.677058 -0.688833 2.293325 0.017321 -0.009448 -339944.000000 0 0 1
28.726691 -24.818813 -33.901130 50.896787 -0.712545 2.299732 0.021335 -0.014007 -304707.000000 0 0 1
27.676191 -25.731413 -33.744730 50.663438 -0.749000 2.299706 0.033299 -0.025320 -277488.000000 0 0 1
28.021291 -27.073413 -34.123760 51.793759 -0.768195 2.290071 0.036314 -0.021895 64544.800000 0 0 1
27.704791 -27.373013 32.956852 51.019520 -0.779374 0.868509 0.024074 -0.019379 382492.000000 0 0 1
28.518491 -26.576413 32.062053 50.473610 -0.750163 0.882498 0.016917 -0.024610 406204.000000 0 0 1
28.065891 -26.683713 30.746483 49.447558 -0.760158 0.899758 0.011596 -0.014307 -301360.000000 0 0 1
29.192691 -26.236413 29.778463 49.267834 -0.732114 0.921759 0.013617 -0.018836 -146333.000000 0 0 1
29.561491 -24.872013 29.743083 48.756023 -0.699460 0.914686 0.023520 -0.014972 341900.000000 0 0 1
29.969691 -24.228013 30.941923 49.422481 -0.679852 0.894294 0.021702 -0.012403 -1382640.000000 0 0 1
30.232191 -22.692113 30.887093 48.815263 -0.643881 0.885717 0.001138 0.000741 168477.000000 0 0 1
31.414391 -22.149913 30.347463 48.973984 -0.614133 0.902481 0.009604 -0.004440 772775.000000 0 0 1
32.607291 -22.511013 31.067873 50.350709 -0.604232 0.905834 0.012534 -0.000618 229022.000000 0 0 1
33.938891 -21.917013 30.556913 50.654997 -0.573402 0.923244 0.014418 0.001502 -201405.000000 0 0 1
34.372991 -22.449313 29.335343 50.458265 -0.578558 0.950375 0.022554 -0.010037 177668.000000 0 0 1
35.681591 -21.975113 29.082293 51.008444 -0.552005 0.964112 0.008289 -0.005855 -2109.740000 0 0 1
-35.815574 -22.455713 27.657063 50.516607 0.560023 0.991441 0.030543 -0.002245 -121748.000000 0 0 1
-35.648274 -23.892113 27.508473 50.974000 0.590457 1.000767 0.033843 -0.006797 305074.000000 0 0 1
-35.149974 -24.103013 26.206313 50.032458 0.601077 1.019507 0.029685 0.005131 -117121.000000 0 0 1
-34.930074 -25.538113 25.813243 50.384808 0.631309 1.032910 0.032001 -0.007240 -121278.000000 0 0 1
35.809691 -26.249913 25.697973 51.300855 -0.632558 1.046127 0.044462 -0.009402 184141.000000 0 0 1
-35.967674 -27.627813 25.316383 51.941207 0.655003 1.061681 0.051480 -0.007312 483683.000000 0 0 1
-35.200874 -28.520013 26.415553 52.443057 0.680934 1.042920 0.045362 -0.014870 -529473.000000 0 0 1
-34.986874 -29.869713 25.921823 52.803618 0.706662 1.057662 0.054622 -0.016948 825776.000000 0 0 1
-33.893474 -30.543813 26.594563 52.810633 0.733462 1.043055 0.054915 -0.026547 1827600.000000 0 0 1
-32.480474 -29.872813 26.349853 51.397286 0.743602 1.032504 0.057358 -0.023159 -496528.000000 0 0 1
-32.034274 -29.920513 25.034083 50.479077 0.751294 1.051891 0.053427 -0.018731 -686550.000000 0 0 1
-30.779974 -29.347213 24.875873 49.269411 0.761574 1.041536 0.029280 -0.013351 -518091.000000 0 0 1
-30.363874 -29.474613 23.392823 48.352269 0.770538 1.065805 0.025948 -0.007863 -314025.000000 0 0 1
-30.076074 -30.777213 22.956223 48.772895 0.796919 1.080740 0.036338 -0.009903 354301.000000 0 0 1
-29.525774 -30.739113 21.642923 47.802516 0.805529 1.100941 0.027098 -0.007609 -402057.000000 0 0 1
-29.585374 -32.055713 20.846323 48.346999 0.825453 1.124995 0.045540 -0.009053 175393.000000 0 0 1
-28.767274 -33.178813 21.157823 48.744674 0.856494 1.121808 0.047828 -0.019174 -144150.000000 0 0 1
-27.393374 -32.985313 20.949523 47.721173 0.877749 1.116313 0.060363 -0.014168 -485149.000000 0 0 1
-26.597874 -34.306913 20.861923 48.162548 0.911304 1.122804 0.059323 -0.010603 -359929.000000 0 0 1
-26.963174 33.463346 19.827823 47.328119 -0.892558 1.138514 0.051826 -0.007875 362235.000000 0 0 1
-28.145674 32.678346 20.045923 47.559356 -0.859782 1.135706 0.057035 -0.012889 488257.000000 0 0 1
-28.154074 31.682146 21.286323 47.429082 -0.844292 1.105371 0.059066 -0.010296 -96323.500000 0 0 1
-27.328474 30.537846 21.095423 46.091457 -0.840803 1.095405 0.051875 -0.011195 -21358.200000 0 0 1
-27.277174 29.701046 22.171623 46.019314 -0.827913 1.068101 0.050100 -0.015651 -248261.000000 0 0 1
-26.338874 28.518846 21.892823 44.568561 -0.825116 1.057310 0.050834 -0.014552 18868.500000 0 0 1
-24.994774 28.926146 22.068923 44.141795 -0.858179 1.047249 0.056168 -0.008615 72604.000000 0 0 1
-24.069774 28.060846 21.428223 42.730948 -0.861808 1.045501 0.052001 -0.010161 -372856.000000 0 0 1
-22.615174 28.507846 21.397223 42.213559 -0.900156 1.039234 0.041666 -0.000647 -245840.000000 0 0 1
-21.981974 28.293146 22.687723 42.408043 -0.910278 1.006305 0.037756 0.001211 224015.000000 0 0 1
-20.767974 28.971246 22.825423 42.327790 -0.948852 1.001245 0.044663 0.003019 -349758.000000 0 0 1
-20.443174 29.107946 24.321253 43.089665 -0.958513 0.971049 0.033393 0.004826 -527226.000000 0 0 1
-20.267374 27.859746 24.917343 42.518301 -0.941865 0.944636 0.046561 -0.005856 515459.000000 0 0 1
-19.936274 27.768846 26.356613 43.165205 -0.948133 0.913980 0.043357 -0.015487 -447405.000000 0 0 1
-18.553474 28.263746 26.800403 43.143161 -0.989907 0.900527 0.052042 -0.009104 -808990.000000 0 0 1
-18.293474 29.663746 26.714543 43.911910 -1.018192 0.916795 0.032109 -0.004355 214196.000000 0 0 1
-16.918274 29.993546 26.772813 43.619082 -1.057220 0.909948 0.028557 -0.003848 -76187.900000 0 0 1
-16.347574 30.132246 28.237603 44.413485 -1.073708 0.881766 0.020698 0.006186 -437327.000000 0 0 1
-16.405974 28.884546 28.889693 44.023714 -1.054250 0.854984 0.029674 0.004932 48372.800000 0 0 1
-16.664574 29.032546 30.253313 45.120502 -1.049717 0.835913 0.015174 0.009180 -155341.000000 0 0 1
-16.511774 27.741846 31.065213 44.802859 -1.033918 0.804633 0.027788 0.003384 427612.000000 0 0 1
-15.161574 27.348246 31.357213 44.284023 -1.064589 0.784002 0.039221 0.006555 722979.000000 0 0 1
-14.919374 26.194046 32.115673 44.046932 -1.053052 0.753755 0.049035 0.000556 -40169.000000 0 0 1
-15.289274 26.489546 33.626708 45.455621 -1.047324 0.738068 0.058769 -0.001795 244505.000000 0 0 1
-16.678974 26.443346 33.899118 46.114954 -1.008077 0.744982 0.052325 -0.001357 -184351.000000 0 0 1
-17.022474 27.135246 -33.529070 46.371163 -1.010531 2.379016 0.057943 -0.002504 -326482.000000 0 0 1
-18.306874 26.630046 -32.863660 46.090359 -0.968542 2.364602 0.034410 -0.003351 852576.000000 0 0 1
-19.489874 26.691346 -33.699380 47.200968 -0.940092 2.365927 0.019684 0.003464 913644.000000 0 0 1
-20.577674 25.968146 -33.114210 46.843742 -0.900695 2.355913 0.029308 -0.005488 859761.000000 0 0 1
-21.810474 25.866446 -34.097608 48.035577 -0.870266 2.360068 0.045781 -0.019183 -176470.000000 0 0 1
-21.766074 25.188746 33.261848 47.059383 -0.858162 0.785824 0.055937 -0.021910 -252517.000000 0 0 1
-21.743474 23.769346 33.309323 46.338661 -0.829881 0.768688 0.058413 -0.025984 -516190.000000 0 0 1
-22.063474 23.082246 31.951233 45.171543 -0.807961 0.785081 0.075545 -0.032100 322413.000000 0 0 1
-23.475174 22.979046 31.795913 45.717617 -0.774719 0.801702 0.075326 -0.033933 78337.800000 0 0 1
-23.882974 22.973546 30.438263 44.996313 -0.765992 0.827849 0.083304 -0.027134 398438.000000 0 0 1
-25.409074 22.703146 30.401963 45.665450 -0.729215 0.842292 0.063382 -0.029879 424362.000000 0 0 1
-25.822274 21.393246 30.826143 45.549006 -0.691867 0.827432 0.070518 -0.030469 -110759.000000 0 0 1
-26.945474 20.882346 30.147783 45.508459 -0.659301 0.846691 0.059717 -0.026999 -173748.000000 0 0 1
-27.509574 19.591946 30.770013 45.688234 -0.618858 0.831893 0.080564 -0.025768 -172472.000000 0 0 1
-28.159274 19.722346 32.024783 46.984066 -0.610985 0.820836 0.075324 -0.021615 127642.000000 0 0 1
-28.285374 18.586846 32.870086 47.180248 -0.581363 0.800021 0.072464 -0.015366 10043.000000 0 0 1
-29.100174 17.307246 32.489583 46.924769 -0.536548 0.806019 0.047785 -0.011441 -311453.000000 0 0 1
-30.461574 17.509846 32.267883 47.704492 -0.521697 0.827916 0.041963 -0.014851 -229230.000000 0 0 1
-31.170074 16.278046 32.029483 47.565073 -0.481276 0.832022 0.041727 -0.008387 439130.000000 0 0 1
-32.684774 16.436446 31.752903 48.442730 -0.465947 0.855988 0.031836 -0.000354 -73209.300000 0 0 1
-33.362674 16.740946 32.940684 49.783692 -0.465076 0.847744 0.039345 -0.002428 658332.000000 0 0 1
-34.778174 16.731446 32.696001 50.581530 -0.448406 0.867937 0.043725 -0.001151 640239.000000 0 0 1
-35.532374 17.200446 33.945063 52.064117 -0.450829 0.860596 0.051995 0.003415 117154.000000 0 0 1
35.007291 17.256546 33.922855 51.711304 0.457985 0.855283 0.043658 -0.004322 390693.000000 0 0 1
34.647891 17.881046 -33.363860 51.316228 0.476428 2.278594 0.034611 -0.006366 -792547.000000 0 0 1
33.165591 17.912846 -33.103760 50.166577 0.495213 2.291451 0.028073 -0.002378 -830028.000000 0 0 1
32.558191 16.653546 -32.869720 49.171078 0.472806 2.302955 0.030488 0.008190 39094.200000 0 0 1
31.184291 16.837046 -32.593050 48.148240 0.495072 2.314382 0.015886 0.013886 -215443.000000 0 0 1
30.480791 15.468546 -32.484220 47.154842 0.469618 2.330745 0.001997 0.022303 -717566.000000 0 0 1
29.964491 15.126246 -33.745540 47.596591 0.467485 2.358862 0.014305 0.009092 -148673.000000 0 0 1
29.437191 13.819646 -33.794830 46.900121 0.438920 2.375421 -0.001245 0.010996 -872821.000000 0 0 1
30.449391 12.662346 -33.872650 47.274272 0.394094 2.369588 -0.001430 0.018239 -101759.000000 0 0 1
30.654391 12.067546 -32.574830 46.329655 0.375033 2.350558 0.004834 0.020729 -142745.000000 0 0 1
31.664791 11.119846 -32.698470 46.856162 0.337720 2.343185 0.029557 0.010502 -592300.000000 0 0 1
17.652691 -21.199654 10.292490 29.444493 -0.876439 1.213699 0.044876 -0.021135 67508.600000 0 0 1
17.428091 -22.555954 10.699390 30.446451 -0.912950 1.211712 0.037123 -0.019987 154127.000000 0 0 1
18.639991 -23.253454 10.927990 31.742611 -0.895080 1.219336 0.033255 -0.019785 -312313.000000 0 0 1
18.406291 -24.643154 11.600190 32.873104 -0.929274 1.210151 0.037785 -0.017470 322595.000000 0 0 1
17.515791 -25.522294 10.900790 32.817947 -0.969329 1.232204 0.034794 -0.019086 295460.000000 0 0 1
16.149091 -25.256774 11.159890 31.988137 -1.001911 1.214425 0.038058 -0.013730 -750749.000000 0 0 1
15.320291 -26.313654 10.507690 32.210732 -1.043554 1.238497 0.043627 -0.009891 -458335.000000 0 0 1
14.940291 -25.903124 9.177790 31.279641 -1.047629 1.273003 0.036107 -0.016581 -169594.000000 0 0 1
14.036091 -26.668044 8.466890 31.303109 -1.086310 1.296904 0.038791 -0.007688 -355017.000000 0 0 1
13.824791 -26.066284 7.129690 30.354711 -1.083148 1.333702 0.041758 -0.010975 -67736.200000 0 0 1
13.164191 -24.822254 7.121890 28.985540 -1.083174 1.322549 0.054107 -0.019607 -59318.300000 0 0 1
12.867291 -24.375754 5.815990 28.170380 -1.085100 1.362843 0.057501 -0.007990 228209.000000 0 0 1
12.225891 -22.925154 5.886190 26.639863 -1.080868 1.348004 0.071058 -0.012353 149918.000000 0 0 1
11.644491 -22.455254 4.663390 25.721194 -1.092408 1.388483 0.070622 -0.015436 -89608.800000 0 0 1
10.950691 -21.245254 4.889490 24.396425 -1.094872 1.369011 0.068489 -0.013216 68780.100000 0 1 0
10.173991 -20.843354 3.606990 23.472662 -1.116700 1.416517 0.054074 -0.015264 183914.000000 0 1 0
11.007391 -20.128854 2.688590 23.098959 -1.070378 1.454137 0.053768 -0.010426 -165824.000000 0 1 0
10.302391 -19.725654 1.575090 22.309675 -1.089481 1.500136 0.034396 0.005069 -422257.000000 0 1 0
11.214591 -19.214654 0.479090 22.253078 -1.042487 1.549266 0.036005 0.005583 -416665.000000 0 1 0
11.934791 -18.075754 0.877190 21.678136 -0.987239 1.530321 0.038133 0.007456 -416455.000000 0 1 0
12.576191 -17.691054 -0.324810 21.708051 -0.952807 1.585760 0.045524 0.002812 -781644.000000 0 1 0
13.779391 -16.782254 -0.244910 21.715792 -0.883340 1.582075 0.042549 0.004966 411706.000000 0 1 0
14.939891 -17.456954 0.272290 22.978680 -0.862937 1.558946 0.059092 0.000208 103222.000000 0 1 0
16.126491 -16.721554 0.297890 23.232796 -0.803512 1.557974 0.050923 -0.009206 -326776.000000 0 1 0
17.238291 -17.437254 1.045990 24.542017 -0.791136 1.528163 0.048497 -0.004251 -233389.000000 0 1 0
17.832591 -18.535654 0.356390 25.723506 -0.804728 1.556941 0.051603 -0.010405 656973.000000 0 0 1
19.001391 -19.056454 1.010290 26.929946 -0.786845 1.533272 0.046017 -0.005498 909579.000000 0 0 1
19.394391 -20.452354 0.508590 28.190421 -0.811943 1.552754 0.039891 -0.004675 -166534.000000 0 0 1
18.480591 -21.400554 0.935990 28.291200 -0.858484 1.537706 0.042568 -0.004983 -301606.000000 0 0 1
18.639091 -22.533854 0.163790 29.244095 -0.879713 1.565196 0.044670 -0.003583 -361171.000000 0 0 1
17.580591 -23.604754 0.372090 29.434674 -0.930638 1.558155 0.046655 -0.003145 -577047.000000 0 0 1
17.638291 -24.265054 1.601790 30.041103 -0.942243 1.517451 0.030598 -0.000776 -249737.000000 0 0 1
16.549591 -25.124784 1.767690 30.137492 -0.988332 1.512108 0.027665 -0.004366 -710427.000000 0 0 1
16.563491 -25.902664 3.146290 30.906251 -1.001873 1.468819 0.025822 -0.002795 360100.000000 0 0 1
17.543291 -26.915784 3.318790 32.299239 -0.993168 1.467863 0.013402 -0.001281 245697.000000 0 0 1
18.873891 -26.497564 3.520690 32.722162 -0.951871 1.462994 0.019196 0.002316 -147712.000000 0 0 1
19.926091 -27.617874 3.778190 34.264716 -0.945791 1.460307 0.033193 0.004312 140276.000000 0 0 1
20.273491 -28.124814 2.487490 34.759275 -0.946220 1.499172 0.025212 0.005190 -252623.000000 0 0 1
21.092791 -29.273724 2.500790 36.167813 -0.946420 1.501597 0.052559 0.004505 -515894.000000 0 0 1
20.467091 -30.586634 2.864590 36.914088 -0.981075 1.493117 0.054053 0.000014 -215695.000000 0 0 1
20.285391 -30.759114 4.273990 37.092953 -0.987777 1.455316 0.077468 -0.007473 23615.200000 0 0 1
19.493291 -31.902774 4.549790 37.662660 -1.022312 1.449697 0.062968 -0.017493 -283792.000000 0 0 1
19.429691 -32.338114 5.981590 38.197460 -1.029767 1.413553 0.069978 -0.023542 190822.000000 0 0 1
20.517391 -33.173944 6.381390 39.524626 -1.016900 1.408633 0.070069 -0.034308 456302.000000 0 0 1
20.187691 -33.818814 7.599190 40.112376 -1.032632 1.380197 0.057484 -0.029818 -53222.300000 0 0 1
21.345291 34.041016 8.134890 40.994983 1.010727 1.371034 0.069753 -0.039996 399974.000000 0 0 1
22.404891 -33.980924 8.806390 41.644145 -0.987885 1.357720 0.077843 -0.043464 -14225.300000 0 0 1
23.380991 33.903483 9.345190 42.230906 0.967061 1.347661 0.094396 -0.047897 -477309.000000 0 0 1
24.394191 -34.062696 10.253690 43.133305 -0.949310 1.330777 0.089235 -0.037516 -240880.000000 0 0 1
25.140791 -33.181134 9.463790 42.692041 -0.922396 1.347264 0.077796 -0.032447 -190115.000000 0 0 1
26.038691 -32.399034 10.225290 42.804992 -0.893811 1.329583 0.053803 -0.024763 139357.000000 0 0 1
26.837091 -31.372164 9.392290 42.339783 -0.863151 1.347104 0.054943 -0.027553 -119955.000000 0 0 1
26.086291 -30.234784 9.031990 40.941587 -0.858923 1.348360 0.049911 -0.024761 16682.700000 0 0 1
26.746691 -29.511074 8.047490 40.633128 -0.834496 1.371426 0.052121 -0.021557 -209392.000000 0 0 1
26.182491 -28.100324 8.015390 39.235157 -0.820714 1.365057 0.043065 -0.020005 -83917.900000 0 0 1
26.470191 -27.325834 9.147790 39.128689 -0.801302 1.334825 0.031722 -0.026916 -40191.900000 0 0 1
25.866691 -26.083364 8.971390 37.814196 -0.789569 1.331263 0.023076 -0.014879 -395297.000000 0 0 1
26.446291 -25.065744 9.946290 37.770710 -0.758604 1.304320 0.030392 -0.026760 111504.000000 0 0 1
27.772491 -24.714254 9.625890 38.402648 -0.727197 1.317438 0.042364 -0.016132 -379217.000000 0 0 1
28.397391 -23.856554 10.549790 38.559630 -0.698717 1.293666 0.028210 -0.021791 -836881.000000 0 0 1
29.843491 -23.503954 10.285190 39.355494 -0.667118 1.306385 0.037890 -0.024048 -501159.000000 0 0 1
29.920891 -22.724054 9.162090 38.672810 -0.649535 1.331609 0.052508 -0.021197 -165232.000000 0 0 1
31.268291 -22.441354 8.842790 39.490699 -0.622509 1.344961 0.054919 -0.025841 257881.000000 0 0 1
31.244991 -21.708854 7.494390 38.777438 -0.607224 1.376306 0.051752 -0.002942 -269751.000000 0 0 1
30.894791 -20.319954 7.566590 37.744429 -0.581779 1.368960 0.052711 -0.004242 -111774.000000 0 0 1
31.053491 -19.722154 6.279290 37.319059 -0.565831 1.401732 0.035975 0.000586 -156317.000000 0 0 1
30.736991 -18.211154 6.228090 36.265656 -0.534874 1.398206 0.053408 0.004406 -118139.000000 0 0 1
31.416891 -17.467754 7.217390 36.663799 -0.507437 1.372649 0.072288 0.002187 153952.000000 0 0 1
30.937191 -16.122654 7.280890 35.637917 -0.480417 1.365046 0.073760 0.000379 276133.000000 0 0 1
31.622491 -15.409654 8.490090 36.187304 -0.453436 1.333974 0.075186 -0.022611 1208550.000000 0 0 1
33.045091 -15.177254 8.393490 37.319938 -0.430552 1.343949 0.079347 -0.019941 882611.000000 0 0 1
33.492791 -14.613454 9.614790 37.785768 -0.411417 1.313512 0.076423 -0.025959 1240050.000000 0 0 1
35.067491 -14.685354 9.782890 39.256763 -0.396585 1.318939 0.065687 -0.029190 1361020.000000 0 0 1
35.731491 -13.675054 9.022690 39.308466 -0.365519 1.339196 0.067116 -0.017053 589147.000000 0 0 1
-34.849274 -14.019954 8.859790 38.594390 0.382490 1.339169 0.061489 -0.016457 689933.000000 0 0 1
-33.982274 -13.124854 7.949690 37.286114 0.368577 1.355939 0.068155 -0.019871 -348215.000000 0 0 1
-34.351674 -13.183354 6.609190 37.383415 0.366443 1.393067 0.085492 -0.027022 -405174.000000 0 0 1
-33.423974 -12.654854 5.707690 36.192335 0.361937 1.412431 0.074530 -0.019702 -753818.000000 0 0 1
-32.483174 -13.695354 5.185490 35.631568 0.398999 1.424747 0.058953 -0.010363 -689113.000000 0 0 1
-31.546174 -14.178754 6.108390 35.121370 0.422405 1.395985 0.056663 -0.011921 -9629.510000 0 0 1
-30.763574 -15.251454 5.555290 34.783122 0.460253 1.410397 0.053602 -0.002746 253825.000000 0 0 1
-30.142974 -16.050354 6.727990 34.806301 0.489288 1.376274 0.035358 -0.009667 178101.000000 0 0 1
-31.081774 -16.775554 7.524090 36.112433 0.494919 1.360907 0.029656 -0.014106 67696.300000 0 0 1
-30.692174 -16.773154 8.901090 36.091241 0.500149 1.321598 0.015267 -0.008974 -215545.000000 0 0 1
-31.622674 -17.522554 9.838690 37.467763 0.505996 1.305090 -0.006116 -0.009551 -976085.000000 0 0 1
-32.870074 -16.897654 9.971090 38.280480 0.474843 1.307283 0.026141 -0.009921 592821.000000 0 0 1
-33.887774 -17.566654 10.771790 39.661064 0.478241 1.295745 0.045270 -0.014784 747998.000000 0 0 1
-34.464274 -18.903454 10.172790 40.603109 0.501686 1.317556 0.053597 -0.018691 -260308.000000 0 0 1
-33.536474 -20.047754 9.939690 40.316312 0.538793 1.321685 0.048030 -0.017379 593892.000000 0 0 1
-32.822974 -20.617954 11.025090 40.298887 0.560866 1.293680 0.027785 -0.018462 -695471.000000 0 0 1
-33.601474 -21.207454 12.233490 41.574914 0.563007 1.272124 0.090375 -0.029373 88940.600000 0 0 1
-34.278774 -22.439854 12.083290 42.715188 0.579622 1.284000 0.069440 -0.033874 232390.000000 0 0 1
-35.427474 -22.414754 11.256890 43.407887 0.564113 1.308470 0.083042 -0.032878 -365528.000000 0 0 1
35.912791 -23.830354 11.069190 44.498778 -0.585850 1.319404 0.078536 -0.027877 93390.200000 0 0 1
35.430191 -24.376154 12.325690 44.737210 -0.602630 1.291673 0.120210 -0.022822 102720.000000 0 0 1
35.251691 -25.737604 12.247390 45.333261 -0.630649 1.297234 0.073657 -0.013043 -306849.000000 0 0 1
34.264691 -26.146974 13.376490 45.129411 -0.651825 1.269872 0.072528 -0.026619 -56450.400000 0 0 1
32.970891 -25.676464 13.037090 43.775863 -0.661656 1.268394 0.067590 -0.023547 -358759.000000 0 0 1
32.151291 -25.435744 14.127290 43.361998 -0.669307 1.238940 0.066340 -0.003114 -658987.000000 0 0 1
32.066991 -24.011854 14.758590 42.692822 -0.642734 1.217820 0.086165 -0.012732 429629.000000 0 0 1
33.264791 -23.613254 15.456590 43.623827 -0.617311 1.208615 0.089023 -0.019323 698822.000000 0 0 1
34.146891 -22.903454 14.625390 43.640353 -0.590813 1.229048 0.093222 -0.020555 40696.900000 0 0 1
35.335091 -22.177754 15.334090 44.447224 -0.560496 1.218562 0.079884 -0.016335 305621.000000 0 0 1
35.126691 -20.831454 15.916990 43.831318 -0.535284 1.199158 0.078472 -0.008532 816942.000000 0 0 1
34.176091 -20.733054 17.038390 43.453095 -0.545298 1.167872 0.075492 -0.009119 893987.000000 0 0 1
34.097191 -19.377354 17.766590 43.055220 -0.516783 1.145439 0.067366 -0.004698 -371060.000000 0 0 1
33.634991 -18.332354 16.940090 41.885015 -0.499026 1.154427 0.079557 -0.015203 63878.700000 0 0 1
33.647191 -16.994054 17.431390 41.530527 -0.467692 1.137654 0.069366 -0.014278 373559.000000 0 0 1
35.041391 -16.395654 17.828790 42.597914 -0.437634 1.138963 0.037914 -0.018649 305449.000000 0 0 1
35.349691 -16.696054 19.178890 43.545249 -0.441252 1.114712 0.024230 0.002648 51834.000000 0 0 1
-35.604774 -15.764454 19.494690 43.546078 0.416819 1.106628 0.010411 -0.006369 -282596.000000 0 0 1
-35.156574 -15.708754 20.977290 43.849702 0.420209 1.071975 0.000885 0.006023 -40967.200000 0 0 1
-34.364274 -16.794054 21.425090 43.840370 0.454572 1.060189 -0.000384 0.009628 36023.900000 0 0 1
-33.970974 -16.686254 22.749990 44.159033 0.456576 1.029575 -0.000261 0.012734 -174740.000000 0 0 1
-33.049474 -17.777454 23.277390 44.160418 0.493509 1.015600 0.004033 0.015930 -788334.000000 0 0 1
-33.673774 -19.029254 23.470190 45.242518 0.514367 1.025392 0.001921 0.012877 253826.000000 0 0 1
-32.779174 -20.024854 23.940390 45.261588 0.548397 1.013452 -0.002592 0.013814 87838.400000 0 0 1
-31.834974 -20.661854 22.881090 44.316160 0.575693 1.028254 -0.009577 0.020244 -197179.000000 0 0 1
-30.795474 -19.809954 22.515990 42.985641 0.571633 1.019487 -0.012165 0.026337 -590021.000000 0 0 1
-29.605174 -20.496054 22.240490 42.322500 0.605548 1.017493 -0.007230 0.019754 -359059.000000 0 0 1
-28.370074 -19.593554 22.186690 41.000216 0.604418 0.999009 -0.004882 0.020483 -327276.000000 0 0 1
-28.054274 -19.202554 23.522890 41.341344 0.600233 0.965517 -0.009418 0.020979 657936.000000 0 0 1
-26.887074 -18.360354 23.542990 40.178225 0.599136 0.944727 0.015853 0.009744 407657.000000 0 0 1
-26.298774 -18.059054 24.932490 40.489307 0.601736 0.907421 0.012987 -0.004033 -35637.300000 0 0 1
-25.403674 -16.907054 25.099090 39.511510 0.587219 0.882484 0.017084 -0.006018 837716.000000 0 0 1
-25.086174 -16.505354 26.472590 40.031748 0.581941 0.848259 0.007843 -0.007969 461889.000000 0 0 1
-24.008374 -17.387954 27.193990 40.227554 0.626813 0.828470 -0.001896 -0.001773 -52281.700000 0 0 1
-24.350374 -18.767654 27.323490 41.130751 0.656639 0.844229 0.011126 0.000443 -801644.000000 0 0 1
-23.469174 -19.331454 28.194490 41.466089 0.689023 0.823114 0.015965 0.001873 -1066270.000000 0 0 1
-23.913874 -20.605854 28.924890 42.814996 0.711230 0.829047 0.021890 0.005381 -181967.000000 0 0 1
-25.040374 -20.404854 29.768490 43.926546 0.683747 0.826182 0.025891 -0.004643 423396.000000 0 0 1
-25.535374 -21.659354 30.253190 45.126915 0.703454 0.836045 0.024056 -0.002940 14438.200000 0 0 1
-26.695174 -21.389554 31.253690 46.335068 0.675504 0.830489 0.037272 -0.003547 -829479.000000 0 0 1
-26.280974 -20.649154 32.352890 46.516520 0.665965 0.801661 0.054183 -0.012835 1278560.000000 0 0 1
-27.316974 -20.481654 33.387990 47.754299 0.643359 0.796572 0.063056 -0.009750 612456.000000 0 0 1
-28.627174 -19.787354 33.042590 47.988199 0.604801 0.811300 0.052466 -0.011202 -899111.000000 0 0 1
-29.488774 -20.511654 32.199990 48.240596 0.607750 0.839967 0.051288 -0.012729 -412756.000000 0 0 1
-30.745174 -19.904954 32.279190 48.820273 0.574557 0.848400 0.042809 -0.017820 -878891.000000 0 0 1
-31.784374 -20.448654 31.317890 49.083644 0.571690 0.878831 0.037182 0.006366 -860119.000000 0 0 1
-31.645574 -19.998354 29.976790 47.958153 0.563580 0.895586 0.023849 -0.008920 1517350.000000 0 0 1
-32.856674 -20.374154 29.247990 48.477955 0.555062 0.923132 0.021806 -0.007033 989786.000000 0 0 1
-33.212574 -19.170554 28.300090 47.660050 0.523492 0.935035 0.020710 -0.005087 594905.000000 0 0 1
-34.424774 -19.525254 27.605190 48.252950 0.515942 0.961740 0.009427 0.003689 970725.000000 0 0 1
-35.029674 -18.380154 26.932590 47.856792 0.483214 0.973058 0.009435 0.005617 154343.000000 0 0 1
35.868091 -18.933054 25.934790 48.141394 -0.485680 1.001878 0.002074 0.009144 385218.000000 0 0 1
34.651991 -19.258154 26.605990 47.744274 -0.507254 0.979714 0.009071 0.003917 549603.000000 0 0 1
33.759891 -19.973754 25.743790 46.919333 -0.534251 0.990009 0.040870 0.003248 532717.000000 0 0 1
32.533091 -20.579254 26.496490 46.732983 -0.564020 0.967966 0.037829 -0.004382 42487.300000 0 0 1
31.666191 -19.603154 26.998090 45.999219 -0.554314 0.943541 0.025770 -0.004169 135642.000000 0 0 1
30.555291 -20.219354 27.622490 45.885183 -0.584577 0.924804 0.019828 0.000589 -198943.000000 0 0 1
-30.218959 -5.962854 34.046467 45.911905 0.194819 0.735403 0.013404 0.012699 4329.700000 0 0 1
-30.859249 -5.750754 32.810573 45.408129 0.184241 0.763283 0.018559 0.013978 293018.000000 0 0 1
-30.305099 -4.618554 32.146023 44.419555 0.151238 0.761661 0.028781 0.010971 -63471.900000 0 0 1
-30.717849 -4.368054 30.676123 43.631304 0.141252 0.791082 0.026395 -0.003570 -54752.700000 0 0 1
-30.502689 -5.407954 29.722503 42.931192 0.175471 0.806085 0.023896 -0.007823 99538.400000 0 0 1
-29.149259 -5.513854 29.312193 41.704755 0.186950 0.791400 0.026293 -0.011612 73034.200000 0 0 1
-28.991839 -6.585154 28.166173 40.953929 0.223349 0.812408 0.028084 -0.015575 -317380.000000 0 0 1
-29.621549 -6.254854 26.970433 40.545822 0.208102 0.843056 0.036821 -0.020976 -282622.000000 0 0 1
-29.127949 -6.921654 25.819413 39.534653 0.233302 0.859148 0.059794 -0.018386 -140542.000000 0 0 1
-29.814539 -6.519354 24.521733 39.150021 0.215275 0.893930 0.060003 -0.022353 -111849.000000 0 0 1
-29.430429 -5.218754 24.044213 38.360263 0.175501 0.893357 0.055189 -0.020874 111668.000000 0 0 1
-30.288139 -4.868754 22.972123 38.324856 0.159384 0.928038 0.052975 -0.018877 168182.000000 0 0 1
-29.866259 -3.529954 22.302423 37.441315 0.117646 0.932705 0.050458 -0.013643 961740.000000 0 0 1
-28.671849 -3.846054 21.543023 36.068947 0.133344 0.930699 0.058572 -0.011772 856441.000000 0 0 1
-28.071079 -2.693654 20.935623 35.121811 0.095665 0.932179 0.054146 -0.005668 90151.500000 0 0 1
-26.666189 -2.935154 20.370823 33.684881 0.109629 0.921348 0.054832 -0.002303 -214696.000000 0 0 1
-26.654719 -3.572454 19.116823 32.995294 0.133233 0.952828 0.056896 -0.009041 334988.000000 0 0 1
-25.358899 -3.403154 18.528423 31.590468 0.133403 0.944042 0.067066 -0.009925 371535.000000 0 0 1
-25.188569 -4.266854 17.253823 30.827982 0.167803 0.976796 0.067261 -0.003428 -582294.000000 0 0 1
-26.130909 -4.038154 16.258323 31.039719 0.153323 1.019501 0.056619 0.001747 -498171.000000 0 0 1
-25.848509 -4.507554 15.007923 30.227491 0.172647 1.051235 0.064144 -0.005009 10827.600000 0 0 1
-27.018049 -4.277454 13.983823 30.721636 0.157015 1.098224 0.068516 -0.013902 510111.000000 0 0 1
-27.328329 -2.972154 13.736223 30.730361 0.108331 1.107397 0.057774 -0.009051 -527939.000000 0 0 1
-28.509799 -2.904754 13.001423 31.468766 0.101536 1.144882 0.054635 -0.010316 -446187.000000 0 0 1
-28.791859 -1.572354 12.313423 31.353849 0.054557 1.167204 0.056539 0.001302 -192190.000000 0 0 1
-27.943149 -1.318954 11.202523 30.133963 0.047166 1.189895 0.062706 -0.000337 107250.000000 0 0 1
-28.261539 -0.175354 10.421523 30.122309 0.006205 1.217520 0.064099 0.006216 38921.400000 0 0 1
-29.521009 -0.234054 9.507023 31.014968 0.007928 1.259251 0.052839 0.007418 403820.000000 0 0 1
-29.424489 -1.114454 8.403923 30.621373 0.037857 1.292782 0.054971 -0.009593 906557.000000 0 0 1
-30.772109 -1.417454 7.982523 31.822202 0.046030 1.317241 0.062985 -0.011981 1008270.000000 0 0 1
-30.840229 -2.251954 6.665023 31.632476 0.072891 1.358503 0.072229 -0.022261 -267885.000000 0 0 1
-30.454519 -1.610854 5.467523 30.983325 0.052845 1.393401 0.090324 -0.024823 1070520.000000 0 0 1
-31.441769 -0.692854 4.919523 31.831849 0.022033 1.415627 0.081723 -0.024109 410124.000000 0 0 1
-30.903169 -0.116854 3.638423 31.116839 0.003781 1.453600 0.080203 -0.020504 -198647.000000 0 0 1
-31.281449 -0.862854 2.501623 31.393179 0.027577 1.491025 0.080880 -0.031247 325655.000000 0 0 1
-30.812149 -0.346154 1.243223 30.839163 0.011234 1.530472 0.076112 -0.032137 -18844.300000 0 0 1
-31.592359 -0.913754 0.018923 31.605576 0.028915 1.570198 0.079375 -0.031454 -10060.000000 0 0 1
-32.901299 -0.405754 -0.088077 32.903919 0.012332 1.573473 0.074875 -0.034782 -292765.000000 0 0 1
-33.475779 -0.877854 -1.235677 33.510078 0.026218 1.607679 0.072342 -0.033472 -199286.000000 0 0 1
-35.002752 -0.677354 -1.398677 35.037234 0.019349 1.610727 0.074156 -0.037007 158493.000000 0 0 1
-35.748157 -1.412054 -0.432277 35.778646 0.039480 1.582879 0.076071 -0.025044 696639.000000 0 0 1
34.797716 -1.266654 -0.595877 34.825860 -0.036384 1.587907 0.077906 -0.026289 289607.000000 0 0 1
34.072196 -2.530454 -0.115977 34.166229 -0.074131 1.574191 0.077186 -0.027351 -581638.000000 0 0 1
33.968706 -2.632854 1.308423 34.095702 -0.077354 1.532412 0.070281 -0.029299 328755.000000 0 0 1
33.448046 -3.924754 1.634523 33.717164 -0.116805 1.522300 0.072809 -0.023973 -130737.000000 0 0 1
33.552456 -4.250154 3.145123 33.966497 -0.126001 1.478069 0.073942 -0.019941 -22416.700000 0 0 1
32.854956 -3.360754 3.969723 33.264117 -0.101936 1.451172 0.071180 -0.026662 392598.000000 0 0 1
33.248936 -3.707754 5.322423 33.875764 -0.111056 1.413027 0.069265 -0.019013 19743.000000 0 0 1
32.684786 -2.695854 6.337123 33.402425 -0.082294 1.379919 0.073348 -0.007572 -634754.000000 0 0 1
31.306846 -2.845954 6.482723 32.097411 -0.090656 1.367427 0.087021 -0.010933 -537145.000000 0 0 1
30.808966 -1.540554 6.779223 31.583596 -0.049962 1.354469 0.074008 -0.005051 270826.000000 0 0 1
29.322816 -1.531654 7.235623 30.241160 -0.052187 1.329188 0.077213 -0.004827 189080.000000 0 0 1
28.347996 -1.186654 6.248823 29.052794 -0.041836 1.354017 0.085106 -0.006999 483638.000000 0 0 1
27.026116 -1.296954 6.723223 27.880007 -0.047952 1.327247 0.087847 0.001822 210070.000000 0 0 1
26.344356 -2.709254 6.713623 27.321016 -0.102480 1.322522 0.106582 -0.013093 -430530.000000 0 0 1
26.834656 -3.571854 7.780223 28.167158 -0.132328 1.290941 0.092121 -0.010265 956476.000000 0 0 1
26.258356 -4.917354 7.698123 27.801848 -0.185124 1.290238 0.100581 -0.022302 94618.600000 0 0 1
26.534256 -5.776454 8.976823 28.601006 -0.214354 1.251536 0.082790 -0.013946 48853.200000 0 0 1
25.606356 -5.463154 10.008923 28.030520 -0.210200 1.205665 0.083675 -0.009774 547506.000000 0 0 1
25.825356 -6.254554 11.128323 28.808125 -0.237611 1.174189 0.078935 -0.010758 -6214.770000 0 0 1
24.677956 -6.262354 12.170623 28.219544 -0.248517 1.124881 0.058514 -0.015434 673082.000000 0 0 1
23.491056 -6.955554 11.772923 27.181081 -0.287869 1.122835 0.059584 -0.024619 226853.000000 0 0 1
22.519756 -6.878754 12.774323 26.788804 -0.296453 1.073725 0.061830 -0.027739 89620.800000 0 0 1
21.511956 -8.074554 12.822023 26.312867 -0.359079 1.061811 0.057191 -0.026031 57834.900000 0 0 1
21.968556 -9.118754 13.613923 27.406350 -0.393440 1.050954 0.046132 -0.029029 -78310.400000 0 0 1
21.107656 -10.225054 13.570523 27.096937 -0.451109 1.046257 0.062192 -0.037572 -503144.000000 0 0 1
21.535956 -11.344454 14.556423 28.361655 -0.484832 1.031837 0.055202 -0.036970 -255939.000000 0 0 1
21.502356 -10.926654 15.927023 28.903515 -0.470155 0.987185 0.055531 -0.029813 208626.000000 0 0 1
21.783356 -11.969854 16.803523 30.002507 -0.502456 0.976325 0.048751 -0.024855 -363854.000000 0 0 1
21.582956 -11.673954 18.305923 30.613919 -0.495820 0.929842 0.062657 -0.017610 793870.000000 0 0 1
20.182556 -11.698654 18.640023 29.860418 -0.525316 0.896640 0.060491 -0.020150 697756.000000 0 0 1
19.868656 -11.896354 20.001023 30.599472 -0.539500 0.858413 0.057170 -0.014663 115774.000000 0 0 1
20.179356 -10.745354 21.017423 31.054808 -0.489302 0.827410 0.053882 -0.013834 -518510.000000 0 0 1
19.326556 -9.644754 21.044523 30.156409 -0.462881 0.798411 0.039690 -0.009439 -381329.000000 0 0 1
19.745856 -8.497654 20.252723 29.534417 -0.406394 0.815186 0.061240 -0.010291 35049.400000 0 0 1
20.960856 -7.593254 20.705823 30.426076 -0.347554 0.822312 0.063041 -0.009580 1064940.000000 0 0 1
22.256256 -8.158954 20.718523 31.482800 -0.351379 0.852517 0.072867 -0.012351 363574.000000 0 0 1
22.877256 -8.340054 19.420423 31.146078 -0.349583 0.897550 0.070692 -0.019718 -1004010.000000 0 0 1
24.264656 -8.925954 19.561923 32.420904 -0.352495 0.923071 0.078387 -0.023651 -876663.000000 0 0 1
24.293556 -10.306654 19.973523 33.096006 -0.401239 0.922910 0.055525 -0.021082 -275081.000000 0 0 1
25.530056 -10.965954 20.083123 34.283637 -0.405702 0.944938 0.056425 -0.024635 -117433.000000 0 0 1
25.319456 -12.433954 20.498223 34.869116 -0.456489 0.942383 0.043551 -0.015104 39534.600000 0 0 1
24.769456 -13.115854 19.363423 34.066020 -0.486982 0.966226 0.055599 -0.020072 112898.000000 0 0 1
24.553956 -14.470554 19.747223 34.673427 -0.532542 0.964874 0.048897 -0.012641 -463294.000000 0 0 1
23.482756 -15.177954 18.924523 33.763112 -0.573801 0.975796 0.054009 -0.011535 -463870.000000 0 0 1
23.797856 -15.245254 17.573623 33.280444 -0.569749 1.014498 0.039793 -0.018554 4856.430000 0 0 1
22.727056 -15.756254 16.794423 32.354772 -0.606203 1.025033 0.018710 -0.016971 -18098.100000 0 0 1
22.351256 -17.285654 16.806923 32.876210 -0.658287 1.034194 0.014619 -0.017106 48512.900000 0 0 1
23.384456 -18.107654 16.243223 33.742588 -0.658901 1.068561 0.036814 -0.017693 432512.000000 0 0 1
23.146356 -19.469954 16.598323 34.501264 -0.699344 1.068895 0.030841 -0.011368 168660.000000 0 0 1
24.318156 -20.446554 16.296523 35.707296 -0.699125 1.096860 0.031427 -0.006197 80448.800000 0 0 1
24.589156 -20.629454 14.950123 35.407727 -0.698053 1.134895 0.021340 -0.012711 132074.000000 0 0 1
25.630156 -21.581654 14.816423 36.636035 -0.699856 1.154449 0.026396 -0.013042 37025.400000 0 0 1
26.321056 -21.626054 13.426223 36.616221 -0.687789 1.195365 0.026395 -0.021702 -509557.000000 0 0 1
25.432356 -21.928254 12.416223 35.802453 -0.711545 1.216641 0.008955 -0.014955 -399091.000000 0 0 1
25.939256 -21.570854 11.146923 35.530278 -0.693709 1.251677 0.012161 -0.016478 -572179.000000 0 0 1
24.951056 -21.358454 9.966923 34.323145 -0.707975 1.276167 0.001498 -0.012856 24787.100000 0 0 1
24.364956 -22.573454 9.532323 34.555421 -0.747250 1.291316 -0.000075 -0.014862 -87322.600000 0 0 1
22.969056 -22.440454 9.349623 33.444984 -0.773758 1.287469 -0.006624 -0.009832 209939.000000 0 0 1
22.461056 -23.602454 8.426923 33.653943 -0.810172 1.317704 0.002838 -0.009423 -487001.000000 0 0 1
22.572956 -24.891654 9.014823 34.790801 -0.834210 1.308690 0.008706 -0.006132 71113.400000 0 0 1
22.306156 -25.861744 7.996623 35.076208 -0.859081 1.340795 0.023740 -0.001608 -396489.000000 0 0 1
20.832156 -26.211244 7.760423 34.369059 -0.899247 1.343035 0.033327 0.007774 -279305.000000 0 0 1
19.958856 -25.140054 7.459223 32.954791 -0.899782 1.342470 0.030430 0.002640 -1020020.000000 0 0 1
18.660656 -25.626984 7.431023 32.560444 -0.941417 1.340545 0.034154 -0.011513 -517720.000000 0 0 1
17.576056 -24.527954 7.540723 31.103067 -0.949034 1.325913 0.038164 -0.013048 -33627.900000 0 0 1
17.263456 -23.774354 6.376723 30.065086 -0.942743 1.357076 0.043055 -0.009075 116326.000000 0 0 1
16.395556 -22.684854 6.644223 28.767387 -0.944962 1.337728 0.059284 -0.014075 -221274.000000 0 0 1
15.927956 -22.136954 5.290823 27.780161 -0.947090 1.379172 0.053771 -0.007596 -164014.000000 0 0 1
15.041956 -21.030054 5.376423 26.408891 -0.949902 1.365779 0.068951 -0.009391 82091.900000 0 0 1
14.718156 -20.552754 4.098623 25.609344 -0.949336 1.410061 0.060318 -0.009677 147240.000000 0 0 1
13.974656 -19.195754 4.119623 24.098533 -0.941520 1.399003 0.066478 -0.002319 -394216.000000 0 1 0
14.842556 -18.131754 4.300523 23.823444 -0.884820 1.389285 0.057546 -0.003305 -385316.000000 0 1 0
14.299656 -16.861654 4.070823 22.480372 -0.867431 1.388708 0.033073 -0.002594 -359928.000000 0 1 0
15.346156 -15.780254 4.224423 22.413538 -0.799344 1.381186 0.028719 -0.002707 -694274.000000 0 1 0
15.910856 -15.542454 5.471523 22.905475 -0.773686 1.329590 0.046528 -0.015341 216859.000000 0 1 0
16.959356 -14.570754 5.428323 23.008549 -0.709786 1.332625 0.047136 -0.022164 375175.000000 0 1 0
18.372856 -15.187254 5.311123 24.421764 -0.690759 1.351570 0.056319 -0.023036 -922025.000000 0 1 0
19.324156 -14.199254 5.202523 24.537890 -0.633697 1.357155 0.055394 -0.022064 424995.000000 0 1 0
20.642956 -14.735454 5.450623 25.941753 -0.619944 1.359109 0.057384 -0.020763 1049230.000000 0 0 1
21.812456 -13.714654 5.474623 26.340966 -0.561294 1.361433 0.048502 -0.024092 -4308.780000 0 0 1
21.793656 -12.921954 6.614523 26.185726 -0.535199 1.315430 0.055925 -0.027129 1149550.000000 0 0 1
22.961356 -12.045854 6.697223 26.780203 -0.483145 1.318032 0.063130 -0.026373 981282.000000 0 0 1
23.148756 -11.318354 8.006823 26.982944 -0.454761 1.269523 0.065808 -0.030240 -250791.000000 0 0 1
23.416156 -12.138854 9.086423 27.896796 -0.478256 1.239028 0.053710 -0.024182 257816.000000 0 0 1
23.402156 -11.371254 10.251323 27.965263 -0.452309 1.195473 0.058581 -0.032070 107503.000000 0 0 1
23.860656 -12.187954 11.525223 29.166897 -0.472248 1.164568 0.046087 -0.023916 740981.000000 0 0 1
22.888556 -13.267754 11.757423 28.950929 -0.525335 1.152597 0.044651 -0.024025 1404270.000000 0 0 1
23.367356 -14.294054 12.645823 30.170684 -0.548986 1.138295 0.040568 -0.025442 567406.000000 0 0 1
22.193756 -15.299554 12.922623 29.893701 -0.603551 1.123770 0.032356 -0.026255 673664.000000 0 0 1
21.137456 -14.796254 13.717123 29.221236 -0.610727 1.082159 0.032546 -0.029471 463735.000000 0 0 1
20.076156 -15.779654 13.725523 28.990335 -0.666140 1.077591 0.030548 -0.030679 2390220.000000 0 0 1
18.674956 -15.258454 14.363623 28.069344 -0.685054 1.033612 0.035678 -0.032827 1281220.000000 0 0 1
18.863156 -14.732454 15.678123 28.612365 -0.663059 0.990886 0.031470 -0.023985 107228.000000 0 0 1
18.537356 -13.334554 15.793723 27.764827 -0.623584 0.965702 0.045023 -0.029936 521982.000000 0 0 1
17.002656 -13.006254 15.827423 26.622552 -0.653003 0.934138 0.053644 -0.031303 573738.000000 0 0 1
16.278656 -13.489254 14.652523 25.722579 -0.691966 0.964733 0.054072 -0.035887 835967.000000 0 0 1
14.862256 -13.261954 14.722323 24.769192 -0.728558 0.934301 0.064302 -0.034458 878447.000000 0 1 0
14.431256 -11.842554 14.320723 23.528501 -0.687187 0.916433 0.051428 -0.030508 -653963.000000 0 1 0
14.698456 -10.862654 15.272723 23.818017 -0.636446 0.874702 0.036837 -0.018049 47267.800000 0 1 0
14.488756 -9.566054 14.739423 22.774636 -0.583540 0.866909 0.036532 -0.020845 -432006.000000 0 1 0
15.130356 -8.472754 15.666423 23.369896 -0.510476 0.836092 0.040220 -0.019657 -343023.000000 0 1 0
16.524456 -8.479554 15.683923 24.309380 -0.474114 0.869538 0.038338 -0.024977 -690480.000000 0 1 0
17.074756 -9.134354 16.764723 25.613271 -0.491225 0.857232 0.044460 -0.021325 -1071390.000000 0 0 1
18.575056 -8.993254 16.866623 26.653223 -0.450894 0.885610 0.050730 -0.017124 -609514.000000 0 0 1
19.136256 -7.667154 16.782623 26.582663 -0.381076 0.887520 0.044028 -0.019852 508777.000000 0 0 1
20.509156 -7.664954 16.423423 27.369798 -0.357660 0.927225 0.043151 -0.016997 351389.000000 0 0 1
21.215656 -6.271254 16.669023 27.699982 -0.287411 0.925081 0.050899 -0.009024 -223129.000000 0 0 1
21.377056 -6.046354 18.050423 28.624373 -0.275643 0.888475 0.063281 -0.011684 243259.000000 0 0 1
21.962156 -4.792154 18.363123 29.025943 -0.214833 0.885832 0.070336 -0.012510 38911.100000 0 0 1
-5.097309 -33.062813 -6.320610 34.045298 1.417830 1.757533 -0.005428 -0.004639 -134922.000000 0 0 1
-5.782009 -31.861413 -6.641310 33.055836 1.391276 1.773085 0.002273 -0.007391 169365.000000 0 0 1
-5.541909 -30.884413 -5.664910 31.884964 1.393246 1.749412 0.008800 -0.011866 -215254.000000 0 0 1
-6.341209 -29.555913 -5.949410 30.808415 1.359451 1.765127 0.017252 -0.018108 1158030.000000 0 0 1
-7.745409 -29.500413 -5.708110 31.029796 1.314039 1.755806 0.020283 -0.015616 899996.000000 0 0 1
-8.610009 -30.242613 -6.608410 32.131278 1.293437 1.777944 0.023737 -0.005849 1012140.000000 0 0 1
-10.090609 -30.094213 -6.069210 32.315900 1.247276 1.759727 0.032491 -0.000643 1113730.000000 0 0 1
-11.030809 -30.670113 -6.980510 33.332599 1.225542 1.781778 0.033875 -0.003717 24328.000000 0 0 1
-12.352409 -30.356413 -6.574210 33.426248 1.184345 1.768765 0.040988 -0.004161 100152.000000 0 0 1
-13.455409 -31.042613 -7.369310 34.626559 1.161791 1.785259 0.059699 -0.019331 -181778.000000 0 0 1
-13.571909 -30.455813 -8.650110 34.446737 1.151586 1.824629 0.075187 -0.024189 264955.000000 0 0 1
-14.735509 -30.882113 -9.355910 35.473556 1.125592 1.837697 0.087667 -0.029622 393671.000000 0 0 1
-14.840209 -30.036813 -10.663110 35.158838 1.111906 1.878933 0.088505 -0.025860 -184000.000000 0 0 1
-15.158109 -28.673213 -10.568910 34.111923 1.084492 1.885811 0.096390 -0.027200 445922.000000 0 0 1
-14.052109 -27.908413 -10.115410 32.843003 1.104346 1.883879 0.082068 -0.023263 207261.000000 0 0 1
-14.531209 -26.492013 -9.758410 31.752313 1.069096 1.883181 0.079070 -0.008290 -58668.000000 0 0 1
-14.869909 -25.671913 -10.843910 31.587208 1.045790 1.921225 0.097396 -0.020354 227184.000000 0 0 1
-15.237509 -24.350713 -10.372010 30.540424 1.011656 1.917305 0.093572 -0.005024 -316130.000000 0 0 1
-15.797209 -23.462513 -11.452110 30.515442 0.978218 1.955505 0.099455 -0.004854 -506000.000000 0 0 1
-17.089109 -23.915213 -11.763710 31.660069 0.950358 1.951488 0.107249 -0.016627 -588955.000000 0 0 1
-17.690109 -23.153813 -12.795810 31.824076 0.918379 1.984583 0.109867 -0.015115 -515611.000000 0 0 1
-19.201809 -23.396913 -12.899310 32.901630 0.883561 1.973663 0.089745 -0.010211 -249663.000000 0 0 1
-19.605009 -24.713913 -13.320210 34.242691 0.900167 1.970336 0.111031 -0.011465 26422.400000 0 0 1
-19.336809 -25.715713 -12.397710 34.480622 0.926051 1.938588 0.123519 -0.021462 -1567960.000000 0 0 1
-19.501209 -27.223013 -12.757010 35.834772 0.949181 1.934775 0.114621 -0.022987 591200.000000 0 0 1
-18.562909 -27.791313 -13.696910 36.118472 0.981913 1.959751 0.101986 -0.028482 267803.000000 0 0 1
-17.196609 -27.609013 -13.393310 35.176153 1.013736 1.961403 0.107489 -0.029367 -638916.000000 0 0 1
-16.403809 -28.825313 -13.948110 35.979625 1.053425 1.968896 0.090828 -0.033782 -210912.000000 0 0 1
-16.380209 -29.010713 -15.373910 36.691823 1.056793 2.003141 0.080540 -0.043381 -19055.500000 0 0 1
-15.533309 -30.102313 -15.777410 37.367896 1.094417 2.006687 0.096517 -0.039027 292123.000000 0 0 1
-15.986309 -31.563713 -15.500410 38.627617 1.101980 1.983708 0.081734 -0.043630 -363893.000000 0 0 1
-15.955509 -32.000413 -14.158910 38.458802 1.108267 1.947823 0.085725 -0.043433 118110.000000 0 0 1
-16.470609 -33.321513 -13.952610 39.702387 1.111724 1.929894 0.055764 -0.036049 -1365570.000000 0 0 1
-16.916209 -33.528613 -12.471110 39.570881 1.103531 1.891420 0.085135 -0.044033 -1077640.000000 0 0 1
-18.244509 -33.376013 -12.141610 39.927923 1.070540 1.879777 0.096654 -0.034141 -944133.000000 0 0 1
-18.850109 -32.119313 -12.319410 39.226837 1.040081 1.890258 0.105389 -0.037887 -534030.000000 0 0 1
-18.402309 -30.911713 -11.451210 37.753268 1.033826 1.878968 0.126250 -0.037592 -521077.000000 0 0 1
-18.782309 -31.006113 -10.092310 37.629894 1.026151 1.842320 0.131524 -0.030071 161973.000000 0 0 1
-18.468109 -29.812913 -9.371810 36.300299 1.016186 1.831928 0.136568 -0.025462 -51368.700000 0 0 1
-18.554609 -30.018813 -7.831910 36.148880 1.017175 1.789185 0.133222 -0.025504 -517210.000000 0 0 1
-17.550909 -30.866713 -7.432210 36.277075 1.053783 1.777131 0.129111 -0.031496 -553624.000000 0 0 1
-17.747409 -31.257813 -6.080010 36.455287 1.054409 1.738359 0.110898 -0.033032 94869.100000 0 0 1
-16.845009 -32.476713 -5.623610 37.015081 1.092317 1.723314 0.114283 -0.033883 474041.000000 0 0 1
-15.615609 -32.076313 -5.053710 36.031613 1.117743 1.711518 0.113066 -0.031159 146270.000000 0 0 1
-15.754309 -31.785913 -3.661810 35.664428 1.110644 1.673652 0.084865 -0.029638 -881382.000000 0 0 1
-14.492809 -31.163613 -3.131410 34.511129 1.135493 1.661658 0.063784 -0.018896 96486.600000 0 0 1
-13.300909 -31.955413 -3.257810 34.766017 1.176374 1.664641 0.044192 -0.012212 682374.000000 0 0 1
-12.190109 -31.283913 -2.668710 33.680915 1.199235 1.650115 0.030896 -0.002181 -49624.000000 0 0 1
-10.823709 -31.927613 -2.732010 33.822907 1.243947 1.651658 0.026463 -0.006218 -1144500.000000 0 0 1
-10.691209 -33.226213 -2.036210 34.963257 1.259488 1.629068 0.031908 -0.000297 -322146.000000 0 0 1
-9.369309 -33.682213 -1.907310 35.013044 1.299487 1.625298 0.023858 0.005176 143723.000000 0 0 1
-8.413809 -32.855113 -0.995410 33.929950 1.320096 1.600138 0.023676 0.009032 -538963.000000 0 0 1
-8.839309 -32.733713 0.359490 33.908091 1.307050 1.560194 0.037870 0.000792 -94110.200000 0 0 1
-7.819709 -32.297113 1.223790 33.252805 1.333250 1.533985 0.037885 -0.000900 -33426.600000 0 0 1
-6.983209 -33.429213 1.837890 34.200224 1.364862 1.517031 0.036245 -0.002919 -69437.000000 0 0 1
-7.718509 -34.283213 2.695290 35.244555 1.349349 1.494248 0.052022 -0.015056 501416.000000 0 0 1
-6.866309 33.370146 3.219990 34.221063 -1.367867 1.476563 0.054927 -0.010492 356126.000000 0 0 1
-6.107009 33.598846 4.535490 34.449219 -1.390997 1.438756 0.053496 -0.014568 -788975.000000 0 0 1
-4.954109 34.333546 4.400290 34.967101 -1.427492 1.444621 0.042745 -0.008826 -1060260.000000 0 0 1
-4.491009 -33.965713 5.675390 34.728215 1.439337 1.406637 0.032608 -0.014186 -65551.300000 0 0 1
-3.246009 -33.053513 5.622790 33.685117 1.472906 1.403089 0.034795 -0.009480 -75618.300000 0 0 1
-3.433009 -31.783713 5.039290 32.363319 1.463202 1.414450 0.029881 -0.009742 -41358.300000 0 0 1
-3.276809 -31.922813 3.665690 32.299238 1.468507 1.457060 0.038824 -0.020515 -455843.000000 0 0 1
-3.702109 -30.655013 2.915190 31.015057 1.450612 1.476665 0.019417 -0.022180 151132.000000 0 0 1
-2.898709 -29.511413 3.235790 29.829455 1.472887 1.462106 0.020857 -0.014873 56908.600000 0 0 1
-3.291209 -28.408713 2.467790 28.705000 1.455458 1.484719 0.027635 -0.019074 333752.000000 0 0 1
-2.537909 -27.094413 2.843590 27.361181 1.477400 1.466680 0.030474 -0.019619 187390.000000 0 0 1
-2.915709 -26.024713 1.994490 26.263379 1.459225 1.494781 0.039965 -0.023682 -280594.000000 0 0 1
-2.708709 -24.768413 2.661490 25.057832 1.461868 1.464382 0.023247 -0.017798 180468.000000 0 0 1
-3.909009 -24.226513 3.509990 24.789601 1.410823 1.428728 0.016347 -0.010255 307213.000000 0 1 0
-4.143609 -24.971413 4.698790 25.745283 1.406360 1.387257 0.036598 -0.008216 -661029.000000 0 0 1
-5.120309 -24.372913 5.455990 25.495574 1.363726 1.355131 0.027654 0.000791 -833451.000000 0 0 1
-5.782309 -25.311513 6.415990 26.744583 1.346205 1.328535 0.038476 -0.001234 -291622.000000 0 0 1
-4.869309 -25.803713 7.386190 27.278152 1.384284 1.296600 0.029067 -0.006536 173216.000000 0 0 1
-5.465009 -26.808613 8.166490 28.552752 1.369699 1.280732 0.031826 -0.008479 193588.000000 0 0 1
-4.559109 -27.231313 9.354490 29.151953 1.404913 1.244130 0.023214 -0.009087 129140.000000 0 0 1
-4.244309 -26.205613 10.365490 28.498977 1.410229 1.198544 0.020572 -0.005197 579881.000000 0 0 1
-5.337209 -25.822013 11.229590 28.659481 1.366974 1.168179 0.032525 -0.006107 643945.000000 0 0 1
-4.906909 -24.785913 12.276290 28.091396 1.375352 1.118522 0.024393 -0.006438 365549.000000 0 0 1
-4.021909 -25.298313 13.264690 28.846705 1.413136 1.092988 0.020055 -0.009712 -186243.000000 0 0 1
-3.590109 -24.382613 14.203290 28.445284 1.424606 1.047983 0.031506 -0.010863 367028.000000 0 0 1
-2.364109 -24.952813 14.985990 29.202942 1.476335 1.031926 0.042589 -0.017796 215642.000000 0 0 1
-2.721109 -25.661813 16.140390 30.437564 1.465154 1.011867 0.032913 -0.010130 -274687.000000 0 0 1
-1.618909 -26.074413 16.906790 31.118089 1.508788 0.996421 0.032193 -0.008335 -139781.000000 0 0 1
-2.008709 -26.768113 18.223390 32.444703 1.495896 0.974387 0.027595 -0.009825 196055.000000 0 0 1
-2.670009 -25.841413 19.078090 32.231679 1.467839 0.937376 0.044774 -0.006696 -33380.800000 0 0 1
-2.764309 -26.373213 20.378790 33.443727 1.466363 0.915561 0.061323 -0.014132 199469.000000 0 0 1
-3.234209 -25.275113 21.395790 33.272681 1.443528 0.872330 0.072165 -0.017526 48057.300000 0 0 1
-2.680509 -25.434513 22.697790 34.194872 1.465795 0.844938 0.061539 -0.019957 73595.000000 0 0 1
-2.864609 -24.356413 23.607890 34.040760 1.453722 0.804435 0.062457 -0.014127 390700.000000 0 0 1
-1.849809 -23.190713 23.363890 32.971235 1.491200 0.783264 0.054967 -0.017841 251171.000000 0 0 1
-2.396009 -22.289513 22.464490 31.736676 1.463713 0.784361 0.065833 -0.010455 -354977.000000 0 0 1
-1.482609 -21.253713 22.252690 30.807478 1.501151 0.763653 0.053118 -0.014951 -597044.000000 0 0 1
-2.014809 -20.043013 21.475890 29.444791 1.470609 0.753408 0.050539 -0.002827 -416541.000000 0 0 1
-2.881609 -19.169813 22.165690 29.446617 1.421593 0.718580 0.062148 -0.013104 580480.000000 0 0 1
-4.214309 -19.617813 22.404090 30.075941 1.359192 0.730385 0.073270 -0.014584 820553.000000 0 0 1
-5.303009 -19.566813 21.217990 29.345957 1.306134 0.762619 0.058145 -0.017994 509296.000000 0 0 1
-5.044209 -20.500113 20.158090 29.189849 1.329532 0.808498 0.070716 -0.015510 -96698.800000 0 0 1
-5.584709 -21.787013 20.369990 30.344677 1.319867 0.834852 0.071827 -0.007467 85585.800000 0 0 1
-5.355309 -22.701313 19.113990 30.155822 1.339129 0.884287 0.053556 0.000312 277221.000000 0 0 1
-6.080009 -23.928613 19.071290 31.197102 1.321972 0.913074 0.053401 -0.007196 -86987.800000 0 0 1
-5.948109 -24.473713 17.767290 30.822382 1.332378 0.956430 0.055421 -0.011031 299440.000000 0 0 1
-6.538309 -25.917213 17.743290 32.082328 1.323676 0.984770 0.045266 -0.021176 630883.000000 0 0 1
-7.900409 -25.923813 18.130590 32.606424 1.274983 0.981178 0.052356 -0.019966 -374894.000000 0 0 1
-8.526309 -27.190313 18.004290 33.707055 1.266929 1.007306 0.052955 -0.022440 301437.000000 0 0 1
-10.043709 -27.062513 18.240090 34.146107 1.215423 1.007262 0.063022 -0.019972 156855.000000 0 0 1
-10.759209 -26.281613 17.269890 33.237522 1.182229 1.024425 0.071791 -0.024811 1463240.000000 0 0 1
-12.192009 -26.164813 17.489890 33.751130 1.134742 1.026049 0.049460 -0.027076 1731500.000000 0 0 1
-12.766509 -25.105213 18.466190 33.678712 1.100356 0.990461 0.051228 -0.032214 -434570.000000 0 0 1
-12.635309 -23.819813 17.953490 32.393863 1.083084 0.983365 0.043347 -0.019768 -174700.000000 0 0 1
-12.850009 -22.861413 19.008390 32.389595 1.058724 0.943612 0.050550 -0.020776 -332319.000000 0 0 1
-11.628709 -22.297313 19.767390 31.986665 1.090074 0.904615 0.045041 -0.023913 -49560.400000 0 0 1
-10.962409 -23.269413 20.535490 32.914227 1.130528 0.897061 0.050755 -0.017539 -957692.000000 0 0 1
-9.647609 -23.434813 20.134990 32.367957 1.180263 0.899418 0.066981 -0.024835 -1068460.000000 0 0 1
-8.841609 -24.288213 21.076090 33.351056 1.221679 0.886734 0.069439 -0.019902 -295410.000000 0 0 1
-8.637309 -23.724913 22.359590 33.725745 1.221651 0.846000 0.068148 -0.018328 10396.100000 0 0 1
-8.077809 -24.656113 23.239890 34.831988 1.254198 0.840353 0.061414 -0.012671 -14668.500000 0 0 1
-7.652909 -24.066413 24.568090 35.232802 1.262917 0.799162 0.066977 -0.008582 -175529.000000 0 0 1
-6.734809 -24.847413 25.266490 36.071417 1.306109 0.794758 0.079779 -0.009558 -225542.000000 0 0 1
-6.563509 -24.437813 26.616590 36.725049 1.308408 0.760120 0.080299 -0.010786 -199214.000000 0 0 1
-5.427109 -25.151413 27.366390 37.562833 1.358277 0.754594 0.081383 -0.011888 129459.000000 0 0 1
-4.140809 -24.871913 26.850590 36.833579 1.405824 0.753980 0.078007 -0.012848 -147986.000000 0 0 1
-3.147109 -24.992413 27.831190 37.537983 1.445533 0.735621 0.066273 -0.012305 173620.000000 0 0 1
-1.804309 -24.320213 27.462490 36.727601 1.496742 0.726153 0.062985 -0.015384 -216158.000000 0 0 1
-1.950309 -22.884913 27.556290 35.872999 1.485779 0.694830 0.064132 -0.017547 143546.000000 0 0 1
-0.893709 -22.051613 27.079390 34.933733 1.530290 0.683821 0.069536 -0.022705 224273.000000 0 0 1
0.244291 -21.790413 28.099390 35.559211 -1.559586 0.659638 0.068093 -0.028371 208559.000000 0 0 1
1.000591 -22.913913 28.538590 36.612836 -1.527157 0.676978 0.064408 -0.027514 -78072.800000 0 0 1
1.722191 -22.675013 29.688390 37.396827 -1.494991 0.653642 0.061179 -0.034146 -147715.000000 0 0 1
2.369291 -24.030313 30.187990 38.657266 -1.472518 0.674669 0.074648 -0.042584 -40101.600000 0 0 1
3.306791 -24.612413 29.291390 38.401709 -1.437242 0.703222 0.063773 -0.042334 911837.000000 0 0 1
4.179391 -25.607613 29.892890 39.582850 -1.409014 0.714840 0.050561 -0.034215 751232.000000 0 0 1
5.477691 -25.137913 30.657490 40.022512 -1.356245 0.698191 0.043655 -0.034752 722048.000000 0 0 1
6.609491 -24.722213 29.927990 39.377123 -1.309556 0.707429 0.045819 -0.027946 165114.000000 0 0 1
7.225391 -25.657813 29.076690 39.445957 -1.296299 0.741987 0.037749 -0.015651 37539.500000 0 0 1
8.421391 -24.977513 28.274090 38.655144 -1.245607 0.750359 0.030637 -0.010299 631242.000000 0 0 1
8.078691 -24.128113 27.205490 37.250098 -1.247704 0.751967 0.048200 -0.016902 -308570.000000 0 0 1
9.212991 -23.718513 26.512090 36.746945 -1.200303 0.764863 0.031757 -0.007598 -440455.000000 0 0 1
8.854191 -22.458213 25.726390 35.279104 -1.195255 0.753608 0.048976 -0.008649 -222372.000000 0 0 1
7.883891 -22.725113 24.756190 34.517466 -1.236864 0.771009 0.039715 -0.000293 -134730.000000 0 0 1
7.630091 -21.538813 23.994290 33.134042 -1.230342 0.760983 0.047071 0.010201 162457.000000 0 0 1
6.850091 -21.820813 22.672190 32.204035 -1.266614 0.789758 0.041389 0.011560 534800.000000 0 0 1
7.668291 -22.636613 21.821690 32.363639 -1.244173 0.830826 0.027153 0.017021 429398.000000 0 0 1
7.063191 -22.841813 20.585190 31.549757 -1.270901 0.859960 0.025987 0.010875 54878.400000 0 0 1
7.955791 -23.757013 19.691990 31.866358 -1.247653 0.904657 0.054247 -0.001559 1071600.000000 0 0 1
9.183291 -23.084513 19.335090 31.481317 -1.192178 0.909454 0.051850 0.001438 744429.000000 0 0 1
10.098791 -24.029413 18.744190 32.105186 -1.172941 0.947350 0.057550 0.003452 1135810.000000 0 0 1
11.385591 -23.393013 18.119490 31.704584 -1.117838 0.962451 0.050231 -0.005961 725416.000000 0 0 1
11.073691 -22.693613 16.940290 30.407238 -1.116823 0.979890 0.054638 -0.005229 -251944.000000 0 0 1
12.253291 -22.331813 16.275590 30.228263 -1.068958 1.002232 0.058267 -0.012389 -119317.000000 0 0 1
-12.455409 22.252546 11.290690 27.888935 -1.060514 1.153987 0.025937 -0.007942 -124364.000000 0 0 1
-13.424609 21.250446 11.279690 27.550553 -1.007370 1.148980 0.017447 -0.013314 77794.100000 0 0 1
-12.883909 20.184446 10.478390 26.138164 -1.002684 1.158314 0.035831 -0.019064 10559.000000 0 0 1
-13.876309 19.671946 9.457790 25.864787 -0.956465 1.196452 0.037240 -0.014105 -662818.000000 0 0 1
-14.255109 20.677246 8.570490 26.536954 -0.967213 1.241936 0.041061 -0.011990 -151236.000000 0 0 1
-15.050709 20.347246 7.489090 26.393574 -0.933925 1.283097 0.042217 -0.005217 -235860.000000 0 0 1
-16.577209 20.216346 7.646490 27.239187 -0.883984 1.286256 0.024762 -0.004092 -392756.000000 0 0 1
-16.891709 19.129746 8.427590 26.875664 -0.847449 1.251839 0.026987 -0.012575 -1128890.000000 0 0 1
-18.260409 19.063446 8.537790 27.744394 -0.806910 1.257990 0.043386 -0.011188 -1097490.000000 0 0 1
-18.846209 18.025146 9.531490 27.765713 -0.763134 1.220387 0.036043 -0.017140 -86488.500000 0 0 1
-18.667409 16.680546 9.062290 26.624009 -0.729249 1.223475 0.029807 -0.016741 193624.000000 0 0 1
-19.141809 15.722946 10.009690 26.717294 -0.687650 1.186775 0.044410 -0.026822 -55038.900000 0 0 1
-18.087709 15.093346 10.971390 25.987415 -0.695399 1.134947 0.045868 -0.024300 -145966.000000 0 0 1
-17.044809 14.417346 10.326990 24.597400 -0.702080 1.137527 0.018215 -0.011572 -232467.000000 0 1 0
-16.373009 13.456346 11.133990 23.939808 -0.687930 1.087068 0.027795 -0.021154 59038.900000 0 1 0
-17.198409 12.332246 11.812390 24.236380 -0.622082 1.061707 0.034554 -0.025094 -284608.000000 0 1 0
-17.864009 11.390446 10.991390 23.867881 -0.567623 1.092227 0.013828 -0.027291 -272771.000000 0 1 0
-18.842809 10.776146 11.776690 24.695490 -0.519499 1.073699 0.035483 -0.027240 -350113.000000 0 1 0
-19.839409 9.916046 10.991090 24.753468 -0.463500 1.110714 0.031189 -0.023212 -454288.000000 0 1 0
-19.183209 8.917346 10.239390 23.502334 -0.435136 1.120008 0.017192 -0.018663 262343.000000 0 1 0
-18.581409 9.223346 9.017390 22.619730 -0.460743 1.160750 0.021558 -0.013469 -472749.000000 0 1 0
-19.545409 9.710246 7.856290 23.195542 -0.461088 1.225263 0.024864 -0.014869 -52428.200000 0 1 0
-20.470509 8.731646 7.490890 23.481840 -0.403181 1.246114 0.031577 -0.013673 287938.000000 0 1 0
-21.095809 9.071246 6.245090 23.797517 -0.406100 1.305261 0.038147 -0.009002 64756.600000 0 1 0
-21.288509 7.827446 5.301890 23.293337 -0.352341 1.341170 0.037500 -0.007465 208547.000000 0 1 0
-22.226809 6.841246 5.794290 23.966800 -0.298590 1.326614 0.050287 -0.007895 796235.000000 0 1 0
-21.856509 5.554946 5.308890 23.167838 -0.248886 1.339593 0.045110 0.001251 254582.000000 0 1 0
-22.869909 4.352746 5.431390 23.905630 -0.188077 1.341593 0.057883 0.001825 113554.000000 0 1 0
-24.079509 4.425546 4.736990 24.936866 -0.181760 1.379676 0.080916 0.002933 193951.000000 0 1 0
-24.805209 3.224346 4.572890 25.428451 -0.129262 1.389979 0.085039 -0.003009 329309.000000 0 0 1
-25.888989 3.239946 3.444090 26.317271 -0.124500 1.439552 0.086654 -0.017758 12900.800000 0 0 1
-25.414669 3.047646 2.173190 25.688836 -0.119347 1.486098 0.085055 -0.012359 601930.000000 0 0 1
-26.487609 3.134746 1.227090 26.700671 -0.117800 1.524823 0.090384 -0.020758 392900.000000 0 0 1
-25.980479 3.312946 -0.258510 26.192131 -0.126832 1.580666 0.095223 -0.019630 -336163.000000 0 0 1
-25.575739 4.644146 -0.484910 25.998493 -0.179627 1.589449 0.096033 -0.018436 372935.000000 0 0 1
-25.659979 4.979746 -1.868010 26.205378 -0.191684 1.642140 0.112840 -0.011836 412933.000000 0 0 1
-27.109889 5.263846 -2.393210 27.719697 -0.191781 1.657240 0.115296 -0.023835 510048.000000 0 0 1
-27.921179 4.118646 -2.535010 28.336933 -0.146454 1.660376 0.093833 -0.024196 -907255.000000 0 0 1
-29.246049 4.487346 -2.465110 29.690814 -0.152247 1.653918 0.076809 -0.012228 -861466.000000 0 0 1
-30.278859 3.343146 -2.670610 30.579701 -0.109966 1.658240 0.063419 -0.013888 -63117.100000 0 0 1
-30.524059 2.812846 -3.955610 30.907558 -0.091892 1.699130 0.067712 -0.021548 387083.000000 0 0 1
-31.565269 1.861846 -3.825810 31.850738 -0.058916 1.691204 0.087275 -0.030447 62057.000000 0 0 1
-31.802409 1.116646 -5.234010 32.249573 -0.035098 1.733814 0.088428 -0.033099 418100.000000 0 0 1
-30.561509 0.502246 -5.655810 31.084502 -0.016432 1.753765 0.101246 -0.034628 1185590.000000 0 0 1
-30.584989 -0.233654 -6.837710 31.340875 0.007639 1.790738 0.106249 -0.033387 -306464.000000 0 0 1
-30.925839 0.505146 -8.141110 31.983439 -0.016333 1.828170 0.099745 -0.035588 -1087690.000000 0 0 1
-32.252699 0.848146 -8.313210 33.317644 -0.026291 1.822974 0.083286 -0.034196 -586530.000000 0 0 1
-32.524069 1.620646 -9.458010 33.910109 -0.049788 1.853460 0.087875 -0.029585 -219313.000000 0 0 1
-34.033514 1.927346 -9.549810 35.400475 -0.056570 1.843945 0.111741 -0.033515 -82256.200000 0 0 1
-34.499345 2.745546 -8.514010 35.640303 -0.079415 1.812016 0.092798 -0.031468 346707.000000 0 0 1
-35.887652 2.532246 -8.289110 36.919442 -0.070444 1.797246 0.100989 -0.032996 -9169.660000 0 0 1
35.655416 3.515546 -7.270110 36.558477 0.098280 1.770993 0.116344 -0.033940 -1002140.000000 0 0 1
34.318266 3.333846 -6.945710 35.172444 0.096841 1.769579 0.114253 -0.032753 -469549.000000 0 0 1
33.836216 4.192946 -5.925410 34.606080 0.123290 1.742869 0.113858 -0.039519 529037.000000 0 0 1
32.325796 3.887846 -5.668210 33.048465 0.119696 1.743161 0.099422 -0.040310 496645.000000 0 0 1
32.222916 2.762146 -4.849910 32.702712 0.085511 1.719648 0.111100 -0.041757 -276608.000000 0 0 1
31.056976 2.046046 -5.135110 31.545070 0.065785 1.734310 0.120906 -0.039104 -258482.000000 0 0 1
30.873826 0.901246 -4.192210 31.170178 0.029183 1.705699 0.122610 -0.016563 442981.000000 0 0 1
31.824806 -0.145754 -4.552310 32.149075 -0.004580 1.712874 0.111169 -0.036349 805994.000000 0 0 1
31.784746 -1.277254 -3.722010 32.027407 -0.040163 1.687273 0.108777 -0.029763 567906.000000 0 0 1
33.031896 -2.190554 -4.044110 33.350555 -0.066219 1.692356 0.099938 -0.038245 661634.000000 0 0 1
33.039376 -3.446954 -3.431310 33.395445 -0.103953 1.673726 0.079110 -0.028174 -183189.000000 0 0 1
34.291016 -4.075854 -3.457910 34.705093 -0.118306 1.670599 0.088144 -0.035898 -323634.000000 0 0 1
34.172606 -5.562254 -3.058210 34.757133 -0.161354 1.658898 0.081984 -0.036383 -67311.500000 0 0 1
33.847156 -5.797154 -1.708110 34.382475 -0.169629 1.620496 0.090281 -0.028412 2592.060000 0 0 1
34.061426 -7.125554 -1.299810 34.823035 -0.206223 1.608131 0.100611 -0.033360 -222635.000000 0 0 1
33.584206 -7.505054 0.072790 34.412643 -0.219857 1.568681 0.084849 -0.024108 100694.000000 0 0 1
32.175406 -7.441054 0.253190 33.025598 -0.227270 1.563130 0.079397 -0.026937 345540.000000 0 0 1
31.727576 -7.628954 1.597090 32.670946 -0.235972 1.521893 0.071865 -0.021293 -855763.000000 0 0 1
31.536826 -9.101754 2.072590 32.889344 -0.280972 1.507737 0.094420 -0.025988 -340479.000000 0 0 1
30.487276 -9.795754 1.429090 32.054221 -0.310887 1.526198 0.094347 -0.033581 891553.000000 0 0 1
29.191836 -9.329054 1.875890 30.703640 -0.309320 1.509662 0.083948 -0.038586 -594538.000000 0 0 1
28.180556 -10.481354 1.932390 30.128668 -0.356081 1.506614 0.088119 -0.036378 215176.000000 0 0 1
26.891556 -10.294554 2.562290 28.908458 -0.365607 1.482045 0.102682 -0.036562 1141240.000000 0 0 1
25.941156 -9.428954 2.048990 27.677556 -0.348628 1.496698 0.102965 -0.032885 -731702.000000 0 0 1
25.316256 -9.857554 0.708690 27.176947 -0.371315 1.544716 0.090972 -0.027799 -1504660.000000 0 0 1
26.223556 -9.932654 -0.333910 28.043609 -0.362070 1.582703 0.094301 -0.031728 -196719.000000 0 0 1
25.708056 -9.979154 -1.713910 27.630149 -0.370269 1.632867 0.090475 -0.015858 -4880.280000 0 0 1
24.905656 -11.233254 -2.103510 27.402599 -0.423712 1.647635 0.087018 -0.014803 861482.000000 0 0 1
23.519956 -11.334054 -1.734210 26.165943 -0.449056 1.637122 0.064051 -0.001533 784501.000000 0 0 1
23.074656 -12.668954 -1.774210 26.383517 -0.502107 1.638094 0.057202 0.000895 -582607.000000 0 0 1
21.590856 -12.812954 -1.441110 25.147836 -0.535585 1.628133 0.047041 -0.000377 -890584.000000 0 0 1
20.808456 -12.366054 -2.494310 24.333777 -0.536203 1.673481 0.044407 0.003231 487410.000000 0 1 0
19.432256 -12.480054 -2.084810 23.188591 -0.570896 1.660825 0.043585 -0.003630 337253.000000 0 1 0
18.440956 -12.103554 -3.165010 22.284124 -0.580820 1.713308 0.035738 0.004408 -460279.000000 0 1 0
18.383456 -12.937354 -4.298710 22.886797 -0.613238 1.759743 0.028817 -0.000873 278716.000000 0 1 0
17.517856 -12.333154 -5.232810 22.053668 -0.613428 1.810357 0.030680 -0.003537 -624013.000000 0 1 0
17.614756 -12.960054 -6.629810 22.851630 -0.634318 1.865153 0.034374 -0.006325 -272979.000000 0 1 0
17.070956 -14.268954 -6.767410 23.255503 -0.696228 1.866071 0.042441 -0.000175 445587.000000 0 1 0
16.939256 -14.621354 -8.149510 23.814636 -0.712087 1.920060 0.042972 -0.006633 113193.000000 0 1 0
16.014556 -15.845854 -8.446510 24.060354 -0.780103 1.929494 0.047397 -0.006502 -484000.000000 0 1 0
14.631956 -15.665054 -8.354510 23.006214 -0.819484 1.942434 0.053470 -0.000770 -12705.000000 0 1 0
13.847456 -16.490154 -9.207710 23.419204 -0.872288 1.974872 0.051978 0.000475 62295.700000 0 1 0
13.808256 -16.103554 -10.700710 23.759158 -0.861984 2.037990 0.058617 -0.012568 -630931.000000 0 1 0
13.138656 -14.888454 -11.063910 22.731046 -0.847750 2.079140 0.055799 -0.019171 275313.000000 0 1 0
13.788356 -13.716254 -10.694210 22.195056 -0.782777 2.073537 0.061540 -0.011728 -344108.000000 0 1 0
13.678356 -12.643754 -11.835410 22.068957 -0.746113 2.136834 0.066059 -0.011036 493522.000000 0 1 0
14.697056 -12.800354 -12.849410 23.344375 -0.716530 2.153674 0.068667 -0.012435 579666.000000 0 1 0
14.372556 -12.215854 -14.089310 23.543706 -0.704461 2.212339 0.073826 -0.013248 -368276.000000 0 1 0
15.612056 -11.834754 -14.943110 24.639282 -0.648635 2.222416 0.073064 -0.023296 -7468.030000 0 1 0
16.246256 -13.003954 -15.326710 25.844761 -0.675002 2.205613 0.075717 -0.021426 55928.600000 0 0 1
17.346456 -12.782654 -16.202810 26.959726 -0.635066 2.215549 0.075706 -0.019909 -275272.000000 0 0 1
18.368056 -13.892354 -16.355310 28.246755 -0.647541 2.188317 0.069551 -0.018683 -273614.000000 0 0 1
19.331556 -13.743654 -15.306010 28.228904 -0.618033 2.143862 0.068988 -0.027059 54955.800000 0 0 1
20.278956 -14.765854 -15.272110 29.368416 -0.629361 2.117669 0.059474 -0.024013 -108193.000000 0 0 1
21.346656 -14.665054 -14.152010 29.513097 -0.601945 2.070900 0.048145 -0.027622 57304.900000 0 0 1
22.289956 -13.665554 -14.405010 29.851195 -0.549983 2.074372 0.046549 -0.027205 -112776.000000 0 0 1
23.286456 -13.489554 -13.431210 30.076976 -0.525051 2.033715 0.043028 -0.026770 188711.000000 0 0 1
23.862356 -12.080754 -13.325310 29.881776 -0.468650 2.033014 0.059467 -0.029393 -434300.000000 0 0 1
22.969156 -11.227954 -12.665510 28.531811 -0.454670 2.030752 0.042510 -0.022505 118851.000000 0 0 1
23.283356 -9.812454 -12.695810 28.276890 -0.398848 2.036422 0.050310 -0.029127 126334.000000 0 0 1
24.462856 -9.377254 -11.776910 28.723855 -0.366050 1.993255 0.063122 -0.027660 276258.000000 0 0 1
25.724456 -9.894654 -12.137410 30.115918 -0.367195 1.985614 0.062749 -0.022647 322722.000000 0 0 1
26.666656 -9.753954 -11.060210 30.472584 -0.350657 1.942235 0.057836 -0.023238 47373.300000 0 0 1
27.920876 -10.595054 -11.354510 31.949263 -0.362681 1.934130 0.068367 -0.025962 -180104.000000 0 0 1
28.680986 -10.034354 -12.411210 32.822635 -0.336551 1.958571 0.055501 -0.020017 -77224.300000 0 0 1
29.941766 -10.653754 -12.497510 34.149664 -0.341847 1.945464 0.045458 -0.019094 -66583.900000 0 0 1
30.783556 -10.217654 -13.741810 35.225915 -0.320477 1.971542 0.034303 -0.017640 -144467.000000 0 0 1
30.256326 -10.767254 -14.903010 35.404502 -0.341893 2.005273 0.045277 -0.022723 136043.000000 0 0 1
30.990546 -10.302254 -16.009910 36.371247 -0.320939 2.026596 0.045748 -0.027664 -230321.000000 0 0 1
30.652646 -10.914254 -17.382110 36.889611 -0.342065 2.061439 0.022475 -0.012474 702139.000000 0 0 1
29.398706 -10.497154 -17.962110 36.015435 -0.342952 2.092933 0.034691 -0.015071 964096.000000 0 0 1
29.418946 -9.296454 -18.688210 36.071424 -0.306072 2.115412 0.032629 -0.012133 -169812.000000 0 0 1
27.979866 -9.010654 -19.163710 35.090064 -0.311553 2.148533 0.010424 -0.020032 -66377.300000 0 0 1
27.659586 -9.752454 -20.305610 35.671850 -0.338979 2.176370 0.008555 -0.010429 310083.000000 0 0 1
26.339156 -9.415454 -20.694110 34.794369 -0.343314 2.207757 0.058667 -0.011784 114066.000000 0 0 1
25.951756 -9.835754 -22.130610 35.496473 -0.362274 2.243956 0.083494 -0.020634 -147832.000000 0 0 1
25.724856 -11.209854 -22.209010 35.786438 -0.410949 2.240302 0.073677 -0.018329 -95507.900000 0 0 1
24.994356 -11.467054 -23.340910 36.069506 -0.430136 2.274583 0.079432 -0.021961 -875167.000000 0 0 1
25.021756 -12.961354 -23.684110 36.810624 -0.477946 2.269733 0.064779 -0.010982 1198280.000000 0 0 1
26.247856 -13.513954 -24.204810 38.176560 -0.475464 2.257541 0.056428 -0.005044 834864.000000 0 0 1
27.402856 -13.643054 -23.403210 38.532579 -0.461942 2.223532 0.033514 0.005579 12299.500000 0 0 1
28.640396 -14.128754 -24.184710 40.059882 -0.458286 2.218948 0.025194 0.012529 14926.500000 0 0 1
29.136186 -13.299154 -25.223670 40.767859 -0.428203 2.237902 0.016217 -0.003487 1504080.000000 0 0 1
30.558696 -13.561154 -25.397260 41.985231 -0.417664 2.220448 -0.003665 0.004963 1383580.000000 0 0 1
31.129676 -13.100554 -26.730030 43.071751 -0.398340 2.240295 0.005561 0.003262 -138117.000000 0 0 1
30.716706 -13.952654 -27.783610 43.704938 -0.426372 2.259723 0.006051 -0.004076 235782.000000 0 0 1
31.234016 -13.521454 -29.033230 44.736137 -0.408550 2.277050 0.004914 0.003500 4657.680000 0 0 1
30.920736 -14.503854 -30.180430 45.577539 -0.438595 2.294518 0.013864 -0.011146 -70025.400000 0 0 1
31.679596 -15.690254 -30.211960 46.503155 -0.459864 2.277954 0.013401 -0.002589 -62105.200000 0 0 1
32.027566 -16.194754 -31.506380 47.756539 -0.468158 2.291255 -0.003949 -0.001816 443292.000000 0 0 1
30.882426 -16.885954 -32.335140 47.795616 -0.500369 2.313836 0.002070 0.003129 574146.000000 0 0 1
30.071706 -15.994654 -33.051560 47.460953 -0.488828 2.341158 0.014696 -0.004398 228990.000000 0 0 1
28.879766 -16.593454 -33.544940 47.272049 -0.521511 2.359748 0.010858 0.000448 481933.000000 0 0 1
27.918246 -15.728254 34.193734 46.861689 -0.513049 0.752952 0.018177 0.002714 22064.000000 0 0 1
27.329436 -14.588254 -33.698840 45.774742 -0.490315 2.398217 0.031149 -0.005277 246121.000000 0 0 1
28.223346 -13.496354 -33.456250 45.804252 -0.446055 2.389730 0.036414 0.000910 -237850.000000 0 0 1
27.511066 -12.221454 -32.989310 44.660019 -0.418052 2.401901 0.049294 -0.009044 292145.000000 0 0 1
26.651256 -11.731754 -34.026860 44.785608 -0.414670 2.433759 0.072723 -0.009115 -100160.000000 0 0 1
25.830856 -10.687054 -33.648570 43.745543 -0.392288 2.448367 0.052517 -0.023638 -277000.000000 0 0 1
20.370091 -29.968013 9.148590 37.372706 -0.973806 1.323490 0.043695 -0.016010 -180283.000000 0 0 1
20.954791 -29.592713 7.945090 37.120835 -0.954650 1.355094 0.051112 -0.017681 -706376.000000 0 0 1
22.258391 -30.025213 7.791190 38.179210 -0.932871 1.365284 0.066066 -0.019072 -557752.000000 0 0 1
22.936491 -29.738913 6.422290 38.101593 -0.913826 1.401431 0.064180 -0.021005 -99.934100 0 0 1
23.159391 -28.358113 6.289690 37.149700 -0.885969 1.400670 0.053600 -0.012069 163251.000000 0 0 1
23.793091 -28.173313 5.025290 37.216936 -0.869489 1.435356 0.051931 -0.007836 -47579.600000 0 0 1
23.944491 -26.715613 4.662890 36.177413 -0.840044 1.441547 0.042300 -0.011484 345170.000000 0 0 1
24.903791 -26.044013 5.491690 36.450625 -0.807775 1.419559 0.035207 -0.008840 358037.000000 0 0 1
24.822091 -24.639213 5.270990 35.369625 -0.781701 1.421213 0.025781 -0.005244 136325.000000 0 0 1
25.674791 -23.700113 6.157790 35.479693 -0.745426 1.396355 0.013377 -0.001683 1004760.000000 0 0 1
27.035191 -23.433313 5.741290 36.235123 -0.714150 1.411680 0.018672 -0.004702 755903.000000 0 0 1
27.774091 -22.633213 6.617490 36.434237 -0.683763 1.388154 0.019322 -0.007770 -224579.000000 0 0 1
27.344391 -21.155013 6.798090 35.234420 -0.658467 1.376640 0.011796 0.001555 -414862.000000 0 0 1
27.585191 -20.431813 5.617990 34.784531 -0.637510 1.408578 0.015042 0.009833 7810.950000 0 0 1
27.167291 -19.096313 5.651090 33.684799 -0.612680 1.402235 0.022129 0.004158 -374837.000000 0 0 1
27.143191 -18.530613 4.234290 33.137074 -0.599020 1.442665 0.028682 0.013975 54187.200000 0 0 1
28.363191 -17.898113 3.921090 33.766670 -0.562926 1.454411 0.050644 0.017808 17824.400000 0 0 1
28.209691 -17.172513 2.721390 33.137408 -0.546825 1.488579 0.044648 0.024918 -89137.700000 0 0 1
29.270591 -16.114013 2.405690 33.499496 -0.503242 1.498922 0.051226 0.001244 -90286.500000 0 0 1
29.082991 -15.006613 3.216490 32.884109 -0.476360 1.472827 0.056071 -0.009484 287974.000000 0 0 1
30.299591 -14.425213 3.656390 33.756795 -0.444334 1.462268 0.074264 -0.016174 302035.000000 0 0 1
29.971491 -13.301413 4.641290 33.117359 -0.417688 1.430187 0.078646 -0.025420 322470.000000 0 0 1
29.464491 -13.741513 5.909490 33.044023 -0.436388 1.390992 0.064932 -0.018920 132257.000000 0 0 1
29.186291 -12.663213 6.788590 32.531239 -0.409364 1.360572 0.064386 -0.024032 -237174.000000 0 0 1
28.791391 -13.126713 8.212190 32.690899 -0.427770 1.316869 0.055570 -0.013516 -910716.000000 0 0 1
27.447891 -13.468813 8.327390 31.688185 -0.456184 1.304882 0.041024 -0.003894 -911176.000000 0 0 1
26.894391 -13.525813 9.601190 31.598081 -0.465983 1.262061 0.032770 -0.004152 -145515.000000 0 0 1
27.334491 -14.533813 10.686290 32.750617 -0.488687 1.238417 0.038588 -0.002653 -820212.000000 0 0 1
28.596591 -14.373013 11.261390 33.928858 -0.465736 1.232467 0.049786 -0.000133 -275254.000000 0 0 1
28.909891 -15.579513 11.996890 34.963244 -0.494280 1.220551 0.045271 -0.001695 -132507.000000 0 0 1
29.757691 -15.440013 13.245590 36.046634 -0.478620 1.194523 0.064564 -0.002386 -75493.900000 0 0 1
31.090391 -15.037713 12.996190 36.900490 -0.450504 1.210880 0.077705 -0.007509 -227255.000000 0 0 1
31.808991 -15.230813 14.152890 38.001235 -0.446561 1.189168 0.091347 -0.010524 202160.000000 0 0 1
33.369091 -15.211113 14.068990 39.278629 -0.427703 1.204474 0.078784 -0.014098 433616.000000 0 0 1
33.851091 -13.921013 13.988190 39.183676 -0.390161 1.205752 0.075817 -0.015918 -1949080.000000 0 0 1
35.196591 -13.981613 13.877090 40.334342 -0.378128 1.219568 0.070671 -0.020843 -1967340.000000 0 0 1
35.738391 -12.558513 13.610890 40.251772 -0.337923 1.225852 0.054802 -0.020664 126945.000000 0 0 1
-34.931974 -12.513213 12.997190 39.316031 0.343976 1.233876 0.063955 -0.017776 321987.000000 0 0 1
-34.569974 -11.156813 12.920690 38.555179 0.312179 1.229062 0.059813 -0.011306 98430.800000 0 0 1
-33.413574 -10.928213 11.905690 37.116549 0.316093 1.244259 0.058607 -0.008643 751141.000000 0 0 1
-32.262274 -11.757113 12.048090 36.390116 0.349466 1.233347 0.034497 -0.003859 646411.000000 0 0 1
-32.350474 -12.873313 11.232290 36.584692 0.378723 1.258734 0.027271 -0.006589 -460764.000000 0 0 1
-31.318674 -13.943113 11.691290 36.220934 0.418856 1.242134 0.009460 -0.005725 368593.000000 0 0 1
-29.995974 -13.650713 11.269690 34.829676 0.427074 1.241301 0.021926 -0.002070 -155034.000000 0 0 1
-29.107774 -14.602313 11.816690 34.642809 0.464978 1.222709 0.011473 -0.000096 -173746.000000 0 0 1
-27.689774 -14.475013 11.237590 33.204413 0.481687 1.225541 0.029659 -0.000230 -315784.000000 0 0 1
-27.574774 -15.004213 9.938890 32.928348 0.498324 1.264181 0.018063 0.012815 -463552.000000 0 0 1
-26.280774 -14.894213 9.442590 31.649316 0.515600 1.267832 0.022187 0.015497 -552872.000000 0 0 1
-26.207774 -14.603613 7.947190 31.036604 0.508373 1.311854 0.044248 0.016866 -15973.600000 0 0 1
-26.369074 -15.700613 7.043490 31.487269 0.537043 1.345194 0.040623 0.018361 250477.000000 0 0 1
-26.075974 -15.302313 5.709390 30.768724 0.530684 1.384156 0.039682 0.018500 -203049.000000 0 0 1
-26.349074 -16.442213 4.674890 31.408195 0.557891 1.421398 0.039733 0.012201 383106.000000 0 0 1
-27.704674 -16.477813 4.215090 32.508988 0.536562 1.440771 0.041985 0.000335 620562.000000 0 0 1
-27.892674 -17.502013 3.254290 33.089457 0.560379 1.472289 0.053155 -0.006438 -195970.000000 0 0 1
-29.275374 -18.149613 3.412690 34.613617 0.554968 1.472042 0.052084 -0.010119 -418290.000000 0 0 1
-30.342374 -17.346913 2.954590 35.075699 0.519355 1.486462 0.060149 -0.005407 -313917.000000 0 0 1
-31.531074 -18.060113 3.224490 36.479771 0.520158 1.482290 0.058052 -0.010002 -113131.000000 0 0 1
-32.804574 -17.298613 2.816190 37.192917 0.485266 1.495005 0.073191 -0.006346 -42609.900000 0 0 1
-33.279274 -17.484413 1.519990 37.623466 0.483748 1.530385 0.075860 -0.006920 4287.680000 0 0 1
-34.231874 -16.502813 1.117990 38.018600 0.449216 1.541386 0.096472 -0.011468 316584.000000 0 0 1
-34.826774 -16.942413 -0.263010 38.730076 0.452771 1.577587 0.080624 -0.012658 -1164.210000 0 0 1
-33.811174 -16.986113 -1.254910 37.858927 0.465551 1.603949 0.085739 -0.013586 360895.000000 0 0 1
-34.240974 -17.781613 -2.339610 38.653640 0.478974 1.631361 0.069276 -0.012467 26195.800000 0 0 1
-33.138174 -18.147113 -3.361110 37.930903 0.501014 1.659524 0.059830 -0.015459 -224409.000000 0 0 1
-33.510174 -19.199913 -4.143410 38.842455 0.520298 1.677672 0.051246 -0.023814 -348200.000000 0 0 1
-32.464174 -19.749713 -4.883710 38.312197 0.546540 1.698616 0.052033 -0.019135 -541037.000000 0 0 1
-32.901474 -20.920813 -5.794910 39.417869 0.566372 1.718343 0.061773 -0.019028 -242956.000000 0 0 1
-33.213874 -22.070613 -5.065410 40.198654 0.586501 1.697142 0.064919 -0.027562 -2417.490000 0 0 1
-33.755974 -23.089613 -5.849710 41.313619 0.599917 1.712867 0.050081 -0.014936 -306108.000000 0 0 1
-34.200974 -24.372313 -5.165410 42.313092 0.619146 1.693178 0.040014 -0.020905 -132720.000000 0 0 1
-33.179274 -25.251113 -4.723110 41.961777 0.650536 1.683593 0.044741 -0.015869 -53175.800000 0 0 1
-33.729274 -26.558113 -4.462410 43.161446 0.667005 1.674370 0.038733 -0.014679 306358.000000 0 0 1
-32.646074 -27.578213 -4.064110 42.928324 0.701446 1.665610 0.027827 -0.009209 -803020.000000 0 0 1
-31.723374 -27.952813 -5.101710 42.588258 0.722298 1.690876 0.019728 -0.003727 792600.000000 0 0 1
-30.852574 -29.057913 -4.780610 42.650884 0.755451 1.683119 0.005053 0.006181 100519.000000 0 0 1
-29.878274 -28.806813 -3.637810 41.662662 0.767142 1.658223 -0.003296 -0.000030 -1331050.000000 0 0 1
-30.526574 -28.719813 -2.380910 41.980569 0.754912 1.627541 0.007876 0.003051 307385.000000 0 0 1
-29.604574 -28.385213 -1.338110 41.035859 0.764374 1.603410 0.010536 0.000010 334742.000000 0 0 1
-30.409274 -28.161413 -0.054910 41.446257 0.747038 1.572121 0.017760 -0.000221 248186.000000 0 0 1
-30.749674 -29.413913 0.549490 42.556112 0.763200 1.557884 0.016645 0.003032 -18470.000000 0 0 1
-31.746674 -29.195013 1.523090 43.156922 0.743552 1.535497 0.020822 0.001354 -118501.000000 0 0 1
-32.243674 -30.466413 2.278090 44.418989 0.757065 1.519487 0.007799 0.007596 -921545.000000 0 0 1
-33.296374 -30.257513 3.147990 45.100726 0.737619 1.500940 0.006264 0.007016 -44421.200000 0 0 1
-33.899374 -31.471213 3.697990 46.403448 0.748271 1.491020 0.011199 0.013498 427911.000000 0 0 1
-34.714274 -32.416513 2.778490 47.577633 0.751183 1.512364 0.004796 0.014805 -481454.000000 0 0 1
-35.343474 -33.560613 3.320890 48.851860 0.759529 1.502765 0.012031 0.016254 -249003.000000 0 0 1
35.746191 -34.182813 2.412990 49.518455 -0.763045 1.522048 0.006217 0.018221 -1200240.000000 0 0 1
34.653191 33.828146 3.254190 48.536346 0.773351 1.503700 0.011070 0.008480 -306851.000000 0 0 1
33.835391 -34.046413 4.136490 48.177822 -0.788507 1.484832 -0.004454 0.005432 823585.000000 0 0 1
33.213191 -32.899113 3.550690 46.883634 -0.780648 1.494990 -0.010474 0.012039 -79157.000000 0 0 1
31.968091 -33.140813 2.620090 46.120898 -0.803408 1.513957 0.030686 -0.002782 -48177.700000 0 0 1
32.318291 -33.694913 1.381190 46.708958 -0.806249 1.541222 0.035907 -0.005583 -652845.000000 0 0 1
31.493891 -33.253113 0.365490 45.801401 -0.812562 1.562816 0.049765 -0.010437 -1181570.000000 0 0 1
31.897591 -33.758913 -1.061510 46.456941 -0.813740 1.593648 0.052853 -0.018789 359666.000000 0 0 1
33.104091 -33.411513 -1.722410 47.065664 -0.790020 1.607400 0.034016 -0.010481 117428.000000 0 0 1
34.297591 -33.708213 -1.005310 48.099678 -0.776732 1.591698 0.015243 0.005364 -141041.000000 0 0 1
35.549491 -33.418813 -1.877510 48.827333 -0.754514 1.609258 0.017165 -0.003179 -8861.970000 0 0 1
35.911891 34.205446 -2.744310 49.670994 0.761066 1.626074 0.011444 -0.007658 485064.000000 0 0 1
-34.937874 -34.143513 -3.576810 48.981916 0.773900 1.643884 0.009522 -0.005553 -173244.000000 0 0 1
-34.434074 33.343546 -4.438510 48.137282 -0.769310 1.663133 0.013885 -0.009042 -846287.000000 0 0 1
-33.460774 32.630046 -3.781410 46.889683 -0.772829 1.651529 0.002515 -0.002866 -611452.000000 0 0 1
-32.745074 31.760746 -4.615910 45.850752 -0.770140 1.671640 0.017220 -0.007298 367726.000000 0 0 1
-31.554974 30.982346 -3.994810 44.402485 -0.776242 1.660886 0.019731 -0.008868 -147625.000000 0 0 1
-30.357274 31.694546 -3.842610 44.055352 -0.806946 1.658130 0.015088 -0.006435 -1346310.000000 0 0 1
-29.266174 30.943046 -3.542210 42.737902 -0.813242 1.653774 0.023413 -0.021377 -847930.000000 0 0 1
-29.047174 30.615346 -2.050410 42.252123 -0.811676 1.619343 0.026125 -0.008800 -657136.000000 0 0 1
-30.136474 29.984246 -1.440610 42.536307 -0.782866 1.604671 0.034140 -0.010168 -636563.000000 0 0 1
-30.026574 29.987246 -0.029310 42.436199 -0.784743 1.571487 0.028391 -0.008323 -392650.000000 0 0 1
-31.248874 29.432146 0.730690 42.933405 -0.755468 1.553776 0.026436 -0.005754 -380625.000000 0 0 1
-31.610074 28.149246 0.241190 42.327710 -0.727550 1.565098 0.042853 -0.008775 -72561.000000 0 0 1
-32.613974 28.170646 -0.747310 43.102379 -0.712428 1.588135 0.050918 -0.007591 -367980.000000 0 0 1
-33.026174 26.786646 -1.298810 42.543384 -0.681457 1.601330 0.058435 -0.008120 135287.000000 0 0 1
-33.569874 25.966046 -0.274410 42.441104 -0.658368 1.577262 0.062965 -0.006570 85743.300000 0 0 1
-34.011874 24.710646 -0.806610 42.048475 -0.628310 1.589980 0.077606 -0.005193 -147205.000000 0 0 1
-33.961374 23.585246 0.223090 41.348380 -0.607007 1.565401 0.074141 -0.009839 27676.700000 0 0 1
-32.703074 23.222946 0.752690 40.116865 -0.617482 1.552033 0.089921 -0.018948 14833.500000 0 0 1
-32.319474 23.975346 1.852990 40.283982 -0.638248 1.524782 0.078170 -0.020832 496409.000000 0 0 1
-30.808774 23.724246 2.306190 38.953035 -0.656209 1.511557 0.080378 -0.032102 1343380.000000 0 0 1
-29.856374 24.455746 1.578090 38.626118 -0.686287 1.529929 0.084861 -0.029517 -56798.900000 0 0 1
-29.614674 25.749446 2.050890 39.297189 -0.715697 1.518583 0.053366 -0.022627 -367602.000000 0 0 1
-28.901874 26.607046 0.965290 39.296120 -0.744080 1.546229 0.050367 -0.019522 1601100.000000 0 0 1
-27.540474 26.116246 0.704090 37.960924 -0.758861 1.552248 0.060354 -0.028440 1094080.000000 0 0 1
-27.040074 26.919046 -0.328810 38.156373 -0.783155 1.579414 0.064159 -0.031705 79203.600000 0 0 1
-25.792574 26.324746 -1.020810 36.868567 -0.795609 1.598488 0.066706 -0.035710 -337869.000000 0 0 1
-26.096974 25.271946 -1.929910 36.379223 -0.769339 1.623871 0.086870 -0.039073 214837.000000 0 0 1
-24.930774 24.852546 -2.642210 35.301187 -0.783827 1.645714 0.071588 -0.033850 1953460.000000 0 0 1
-23.780874 24.069646 -1.807710 33.884298 -0.791433 1.624171 0.054803 -0.028056 1250680.000000 0 0 1
-24.247474 22.743246 -1.543610 33.280294 -0.753398 1.617195 0.062396 -0.025683 -45278.500000 0 0 1
-23.250974 22.065946 -0.859710 32.066382 -0.759254 1.597610 0.047516 -0.029060 -711427.000000 0 0 1
-23.824274 20.670946 -0.484810 31.545508 -0.714648 1.586166 0.045428 -0.023549 -100515.000000 0 0 1
-24.783074 20.522946 0.513490 32.181606 -0.691644 1.554840 0.049105 -0.025268 -66366.800000 0 0 1
-26.036374 21.152646 0.414490 33.548458 -0.682272 1.558441 0.038426 -0.027642 288416.000000 0 0 1
-27.068274 20.712146 -0.703210 34.090746 -0.653147 1.591425 0.049614 -0.032654 116752.000000 0 0 1
-27.544674 19.377646 -0.508810 33.681763 -0.613070 1.585903 0.043042 -0.022667 250820.000000 0 0 1
-28.346974 18.958546 -1.594510 34.139711 -0.589480 1.617519 0.059926 -0.021337 -264046.000000 0 0 1
-28.750974 17.508946 -1.638010 33.702593 -0.547001 1.619417 0.031683 -0.002452 104284.000000 0 0 1
-29.791674 17.200946 -0.713710 34.408223 -0.523617 1.591540 0.049548 -0.007735 550091.000000 0 0 1
-30.084774 15.807346 -0.510610 33.988624 -0.483782 1.585820 0.048249 -0.017213 481751.000000 0 0 1
-28.900274 14.943646 0.075190 32.535274 -0.477215 1.568485 0.067600 -0.012619 276038.000000 0 0 1
-28.711374 15.195246 1.462090 32.517322 -0.486766 1.525818 0.077620 -0.011525 245434.000000 0 0 1
-27.565174 14.640946 2.083390 31.281570 -0.488248 1.504146 0.085393 -0.015630 29270.400000 0 0 1
-27.288574 13.107846 2.145490 30.349383 -0.447798 1.500044 0.103604 -0.013831 -272368.000000 0 0 1
-27.204374 12.472646 0.914690 29.941302 -0.429883 1.540242 0.094363 -0.014297 199960.000000 0 0 1
-26.689074 11.177046 1.016790 28.952839 -0.396597 1.535670 0.126300 -0.017780 -147596.000000 0 0 1
-26.522474 10.509746 -0.401110 28.531689 -0.377276 1.584855 0.117010 -0.012784 608321.000000 0 0 1
-27.783274 10.223046 -1.021410 29.622024 -0.352582 1.605285 0.095054 -0.008617 844373.000000 0 0 1
-27.472874 9.485046 -2.196910 29.147064 -0.332438 1.646241 0.096492 -0.015728 837786.000000 0 0 1
-28.771874 9.013446 -2.948410 30.294489 -0.303589 1.668276 0.094758 -0.018224 302075.000000 0 0 1
-28.433074 8.408946 -4.102110 29.932881 -0.287549 1.708273 0.091489 -0.018877 -33899.600000 0 0 1
-29.522474 7.889646 -4.810110 30.934773 -0.261139 1.726922 0.070799 -0.022881 -284117.000000 0 0 1
-11.307609 18.011246 -19.640110 28.948246 -1.010180 2.316455 0.057665 -0.005899 222085.000000 0 0 1
-11.610609 17.340246 -20.822810 29.480159 -0.980782 2.355101 0.039892 0.000916 -397928.000000 0 0 1
-10.486309 17.228746 -21.660510 29.596791 -1.024039 2.391834 0.040079 -0.001967 -216859.000000 0 0 1
-10.638409 16.270546 -22.878810 30.022431 -0.991723 2.437281 0.033121 0.000944 -270419.000000 0 0 1
-10.480609 14.938946 -22.470610 28.947255 -0.959022 2.459508 0.035299 -0.001185 -89449.600000 0 0 1
-10.323009 14.130646 -23.608510 29.387096 -0.939866 2.503718 0.023492 0.001634 -163229.000000 0 0 1
-9.611609 12.776746 -23.276510 28.238700 -0.925842 2.539720 0.013892 0.007041 1132040.000000 0 0 1
-8.239309 13.046746 -22.897610 27.611670 -1.007521 2.548602 0.016811 -0.004047 846938.000000 0 0 1
-7.537609 11.874546 -22.551010 26.577593 -1.005202 2.583935 0.012840 0.003515 1102430.000000 0 0 1
-5.967009 11.945946 -22.509310 26.172120 -1.107548 2.606162 0.019464 0.001849 794780.000000 0 0 1
-5.326009 11.942946 -23.720910 27.086563 -1.151312 2.637772 0.018257 -0.002172 -244143.000000 0 0 1
-3.948309 11.656946 -23.505610 26.532758 -1.244216 2.659246 0.027537 0.001723 383694.000000 0 0 1
-3.265109 10.962946 -24.720610 27.238863 -1.281330 2.708207 0.043157 -0.009471 -172674.000000 0 0 1
-3.271509 9.520046 -24.786410 26.752573 -1.239795 2.755814 0.038091 -0.015610 -125202.000000 0 0 1
-2.698209 9.105246 -25.996300 27.676587 -1.282705 2.791347 0.039218 -0.021432 -257545.000000 0 0 1
-2.261709 7.656246 -26.090170 27.284252 -1.283559 2.844650 0.044364 -0.012480 -503173.000000 0 0 1
-1.019309 7.431546 -25.481510 26.562647 -1.434487 2.855304 0.053009 -0.010811 -194393.000000 0 0 1
-0.683109 6.057446 -25.558240 26.275139 -1.458499 2.907459 0.056748 -0.010430 -521556.000000 0 0 1
0.705391 5.801046 -24.990810 25.664962 1.449793 2.911883 0.051630 -0.010055 -509164.000000 0 0 1
0.705791 6.198946 -23.643910 24.453211 1.457428 2.883600 0.031542 -0.013294 -146142.000000 0 1 0
1.711891 5.519246 -22.904810 23.622510 1.270038 2.894461 0.034755 -0.012794 168097.000000 0 1 0
1.903391 6.177646 -21.552210 22.500755 1.271916 2.850197 0.034250 -0.011024 250633.000000 0 1 0
2.465491 7.480646 -21.639910 23.028774 1.252425 2.792519 0.019468 -0.013695 -216092.000000 0 1 0
2.401391 8.085146 -20.356310 22.034419 1.282082 2.748794 0.025797 -0.017025 79274.900000 0 1 0
2.833991 9.522946 -20.465210 22.749568 1.281546 2.689619 0.018198 -0.012946 -29953.500000 0 1 0
2.711791 10.287646 -19.300310 22.038408 1.313062 2.637800 0.033066 -0.021536 -83511.200000 0 1 0
3.348891 11.519946 -19.552710 22.939762 1.287890 2.591259 0.043954 -0.012970 -176457.000000 0 1 0
4.661791 11.754946 -18.795610 22.653609 1.193241 2.549359 0.040558 -0.014599 -294181.000000 0 1 0
5.652791 10.847946 -19.246210 22.804574 1.090417 2.575425 0.040791 -0.016738 -924905.000000 0 1 0
6.628491 10.802146 -18.265210 22.231535 1.020417 2.534991 0.040271 -0.012365 -1139460.000000 0 1 0
7.774091 9.849146 -18.490710 22.346108 0.902604 2.545381 0.051963 -0.026782 -751539.000000 0 1 0
7.509691 8.482046 -18.755210 21.911149 0.846127 2.598214 0.041593 -0.017925 -194230.000000 0 1 0
7.088791 8.124846 -20.078910 22.790935 0.853394 2.648777 0.042394 -0.007643 260738.000000 0 1 0
6.516491 6.675746 -20.200210 22.250365 0.797469 2.708947 0.028660 -0.006970 181803.000000 0 1 0
7.540391 5.705546 -20.045610 22.163872 0.647753 2.700832 0.029797 -0.012583 299084.000000 0 1 0
7.130391 4.386546 -20.442610 22.090373 0.551514 2.752907 0.026909 -0.015361 -62938.800000 0 1 0
7.318891 4.115046 -21.943210 23.494770 0.512199 2.776138 0.030568 -0.018229 -177743.000000 0 1 0
6.439691 4.883146 -22.752310 24.145027 0.648785 2.800288 0.031530 -0.015333 96213.700000 0 1 0
6.596791 4.567946 -24.116310 25.416140 0.605641 2.820395 0.022293 -0.014892 -517538.000000 0 0 1
5.424691 5.121246 -24.922410 26.015014 0.756632 2.850745 0.013422 -0.018604 -447585.000000 0 0 1
5.503591 6.480646 -25.236520 26.630250 0.866747 2.816633 0.015385 -0.022709 248366.000000 0 0 1
5.139291 7.331346 -24.136310 25.743395 0.959398 2.786381 0.030335 -0.023669 -1257690.000000 0 0 1
5.170291 8.847046 -24.423010 26.485572 1.041920 2.744334 0.033595 -0.027160 -778474.000000 0 0 1
4.122891 9.332946 -25.157170 27.147473 1.154819 2.756292 0.042816 -0.023265 -216157.000000 0 0 1
2.885791 9.315946 -24.423110 26.298345 1.270401 2.761671 0.042335 -0.020590 -49676.800000 0 0 1
1.671091 9.716946 -25.297820 27.151267 1.400485 2.769962 0.053181 -0.011814 -76566.400000 0 0 1
1.621391 11.079346 -25.674800 28.010287 1.425484 2.730339 0.065389 -0.024995 59420.500000 0 0 1
0.479691 11.399046 -26.440150 28.796699 1.528739 2.734223 0.082340 -0.028078 -168617.000000 0 0 1
0.239691 12.968746 -26.739080 29.719089 1.552316 2.689941 0.076843 -0.032689 -413653.000000 0 0 1
-0.177109 13.677446 -25.581360 29.008790 -1.557848 2.650565 0.068408 -0.029858 111785.000000 0 0 1
-0.335609 15.057746 -25.835970 29.905613 -1.548512 2.613793 0.065937 -0.040542 -294305.000000 0 0 1
-1.029309 15.802046 -24.698210 29.338809 -1.505751 2.571456 0.069768 -0.030716 626784.000000 0 0 1
-2.335409 15.304146 -24.355910 28.859684 -1.419365 2.575387 0.056595 -0.020769 343899.000000 0 0 1
-2.672209 15.910746 -23.109810 28.184319 -1.404399 2.532125 0.055564 -0.025949 -795509.000000 0 0 1
-3.951109 15.387746 -22.439710 27.494264 -1.319456 2.525530 0.053325 -0.021672 -20579.500000 0 0 1
-5.175209 15.757546 -23.039310 28.388252 -1.253468 2.517646 0.049154 -0.018432 -196435.000000 0 0 1
-5.447009 15.061346 -24.205310 29.024319 -1.223777 2.557054 0.040032 -0.017842 -739431.000000 0 0 1
-6.886609 15.324246 -24.728610 29.895853 -1.148447 2.544829 0.028534 -0.016122 233037.000000 0 0 1
-7.270909 16.650646 -25.023410 30.923796 -1.159079 2.513579 0.024485 -0.019993 -752223.000000 0 0 1
-8.558009 16.704246 -25.542960 31.697226 -1.097337 2.507893 0.015922 -0.008797 -751483.000000 0 0 1
-9.059609 18.112346 -25.920720 32.894032 -1.106997 2.478361 0.012800 -0.004596 -53931.500000 0 0 1
-9.376409 18.877846 -24.794510 32.543169 -1.109801 2.437032 0.012222 -0.008325 858584.000000 0 0 1
-10.516309 19.717646 -25.171340 33.659689 -1.080830 2.415566 0.016528 -0.001873 1304920.000000 0 0 1
-10.956709 20.693746 -24.049710 33.565893 -1.083852 2.369558 0.013911 -0.002778 -13958.600000 0 0 1
-10.237809 21.898946 -23.980210 34.050360 -1.133483 2.352173 0.022349 0.000863 -138333.000000 0 0 1
-10.932209 23.011146 -24.497910 35.343651 -1.127280 2.336625 0.027674 -0.015885 -184734.000000 0 0 1
-10.550909 23.403546 -25.962000 36.511274 -1.147256 2.361812 0.035782 -0.009554 -169558.000000 0 0 1
-10.984209 22.542246 -27.008990 36.855003 -1.117383 2.393290 0.027662 -0.008082 -179143.000000 0 0 1
-10.557609 23.066746 -28.174920 37.912584 -1.141559 2.408569 0.039830 -0.006627 -294851.000000 0 0 1
-11.023609 22.289946 -29.435440 38.533191 -1.111514 2.440129 0.036431 -0.012653 46822.500000 0 0 1
-10.189509 21.174546 -29.757400 37.916887 -1.122289 2.473179 0.002662 -0.008212 128597.000000 0 0 1
-10.418209 19.938746 -29.063210 36.752726 -1.089303 2.482874 0.010522 -0.000175 -18599.200000 0 0 1
-9.419309 18.878446 -29.596980 36.346944 -1.107993 2.522303 0.003994 -0.006231 -533094.000000 0 0 1
-8.117209 19.282046 -29.255800 35.966487 -1.172342 2.520801 0.007883 -0.012368 -272866.000000 0 0 1
-7.089609 18.541246 -29.929500 35.913999 -1.205580 2.555966 0.011248 -0.012744 343707.000000 0 0 1
-6.748809 17.136146 -29.436380 34.723110 -1.195616 2.582518 0.012842 -0.018236 -1363000.000000 0 0 1
-7.804809 16.268146 -29.617200 34.680631 -1.123471 2.594419 0.005669 -0.016164 -604269.000000 0 0 1
-7.668609 15.045746 -28.890220 33.463814 -1.099430 2.612622 -0.010989 -0.012377 -130096.000000 0 0 1
-8.967509 14.197546 -28.808410 33.345330 -1.007448 2.613841 0.000283 -0.004310 -214635.000000 0 0 1
-9.780809 14.616046 -27.773170 32.873120 -0.981054 2.577099 0.015692 -0.005684 -1603190.000000 0 0 1
-11.059609 14.157346 -27.985110 33.255252 -0.907629 2.570895 0.045196 -0.010386 -461632.000000 0 0 1
-12.120109 14.622246 -26.935530 32.958002 -0.878691 2.527451 0.040394 -0.003513 407610.000000 0 0 1
-12.365009 15.991246 -27.035410 33.756878 -0.912589 2.499570 0.023127 -0.000631 -548847.000000 0 0 1
-13.409909 16.406946 -26.215600 33.708622 -0.885577 2.461814 0.021905 0.003130 -166209.000000 0 0 1
-14.290509 17.588346 -26.687030 35.010943 -0.888481 2.437576 0.009121 0.006162 103900.000000 0 0 1
-13.724809 18.892046 -26.698910 35.469869 -0.942515 2.422982 0.009863 0.006727 -85340.400000 0 0 1
-14.718609 19.828646 -27.011960 36.598615 -0.932248 2.400986 0.009409 -0.001124 -344970.000000 0 0 1
-14.135309 21.221146 -27.100920 37.210266 -0.983189 2.386661 0.015779 0.000353 -21517.900000 0 0 1
-15.066009 22.258846 -27.373860 38.363643 -0.975773 2.365329 0.023871 -0.015841 76333.700000 0 0 1
-14.485309 23.549746 -27.469740 38.974368 -1.019352 2.352959 0.030648 -0.015716 -43540.600000 0 0 1
-14.203209 24.357446 -26.146190 38.453083 -1.042884 2.318491 0.012435 -0.007286 -91645.800000 0 0 1
-13.614609 25.595546 -26.470870 39.258076 -1.081945 2.310783 0.037169 -0.019096 -9285.460000 0 0 1
-13.292509 26.406346 -25.311420 38.918555 -1.104446 2.278866 0.052225 -0.024951 27731.900000 0 0 1
-13.476009 27.947046 -25.648900 40.255512 -1.121491 2.261594 0.088090 -0.031714 859061.000000 0 0 1
-14.853109 28.274446 -25.888350 41.112842 -1.087099 2.251951 0.090313 -0.030419 492700.000000 0 0 1
-15.421309 29.017046 -24.868910 41.210052 -1.082301 2.218638 0.077602 -0.032918 398394.000000 0 0 1
-16.935109 29.376646 -24.988310 42.121264 -1.047849 2.205883 0.066744 -0.026661 597177.000000 0 0 1
-17.756709 28.239946 -25.059110 41.722347 -1.009484 2.215068 0.051367 -0.024558 -659117.000000 0 0 1
-19.074509 28.612746 -25.400930 42.751999 -0.982810 2.207000 0.032631 -0.012617 -165701.000000 0 0 1
-19.974509 27.368846 -25.354750 42.319004 -0.940332 2.213215 0.011659 -0.012007 -232901.000000 0 0 1
-20.270809 27.224046 -23.947010 41.539303 -0.930765 2.185223 0.027448 -0.016260 -306720.000000 0 0 1
-21.227109 26.229546 -23.684310 41.225305 -0.890421 2.182801 0.044030 -0.014104 -212374.000000 0 0 1
-21.880809 26.373946 -22.315010 40.893942 -0.878243 2.147997 0.031529 -0.008103 -604370.000000 0 0 1
-22.794709 27.411546 -22.356010 42.080670 -0.877098 2.130890 0.022351 -0.001660 -711122.000000 0 0 1
-23.200109 27.742346 -21.047010 41.843273 -0.874327 2.097858 0.011524 0.003651 -294619.000000 0 0 1
-24.447309 28.634046 -20.977710 43.100393 -0.864109 2.079124 0.000810 0.012278 638866.000000 0 0 1
-25.620849 27.881846 -21.322810 43.456731 -0.827633 2.083652 -0.008543 0.004756 744669.000000 0 0 1
-26.853049 28.596346 -21.246810 44.612377 -0.816827 2.067186 0.015222 0.007152 630455.000000 0 0 1
-28.132899 27.837646 -21.596810 45.086769 -0.780123 2.070318 0.015799 0.000653 -404126.000000 0 0 1
-28.153309 27.304746 -22.893910 45.412433 -0.770098 2.099174 0.004999 0.007974 -239536.000000 0 0 1
-29.443719 27.129346 -23.440810 46.394025 -0.744512 2.100474 -0.008123 0.006424 133440.000000 0 0 1
-29.380799 26.565846 -24.863510 46.767186 -0.735126 2.131337 -0.010792 0.021452 -74010.300000 0 0 1
-29.144529 25.174046 -25.023310 45.927140 -0.712432 2.147004 -0.000679 0.023438 -309083.000000 0 0 1
-28.942889 24.944046 -26.400520 46.442262 -0.711326 2.175428 0.011929 0.015451 -132998.000000 0 0 1
-28.851079 23.550346 -26.904310 45.943938 -0.684585 2.196404 0.017791 0.014915 -410969.000000 0 0 1
-27.713299 22.826746 -26.537350 44.646593 -0.689011 2.207299 0.020533 0.008871 -420002.000000 0 0 1
-27.825099 21.552646 -27.127610 44.437146 -0.659045 2.227452 0.043678 -0.005231 -417105.000000 0 0 1
-26.779349 20.505646 -26.801720 43.080706 -0.653490 2.242254 0.049166 -0.005575 -420431.000000 0 0 1
-26.842939 20.154746 -25.469510 42.136126 -0.644038 2.219881 0.048488 0.002123 343086.000000 0 0 1
-26.180849 18.888546 -25.205160 40.957467 -0.624987 2.233688 0.051724 -0.004946 603689.000000 0 0 1
-27.115959 17.619846 -25.341560 41.084412 -0.576232 2.235489 0.046424 -0.004915 344382.000000 0 0 1
-27.676179 17.410146 -26.636360 42.173211 -0.561518 2.254404 0.049486 -0.008961 574530.000000 0 0 1
-28.595289 16.318546 -26.501560 42.264858 -0.518576 2.248538 0.030697 -0.011437 117278.000000 0 0 1
-29.413249 15.915646 -27.741020 43.451251 -0.495988 2.263266 0.024496 -0.010653 175956.000000 0 0 1
-30.635269 16.601546 -27.915810 44.647771 -0.496611 2.246242 0.023520 -0.014305 236373.000000 0 0 1
-31.429469 16.029546 -28.958220 45.643580 -0.471629 2.258083 0.038906 -0.013147 609817.000000 0 0 1
-32.672789 16.847746 -29.386020 47.062680 -0.476090 2.245162 0.044979 -0.013117 590535.000000 0 0 1
-33.739959 16.910546 -28.446720 47.260631 -0.464609 2.216689 0.032600 -0.004334 709883.000000 0 0 1
-35.015737 17.217846 -29.030460 48.634593 -0.457000 2.210440 0.037433 -0.001950 520489.000000 0 0 1
35.862986 16.711146 -28.055170 48.502667 0.436057 2.187593 0.033515 -0.000455 -373105.000000 0 0 1
35.703086 17.623046 -26.999120 48.106492 0.458515 2.166675 0.031921 -0.006131 -467674.000000 0 0 1
34.594346 17.296546 -26.218920 46.726556 0.463633 2.166527 0.045488 -0.004261 -286332.000000 0 0 1
34.231186 18.538546 -25.352820 46.456617 0.496347 2.148058 0.053389 -0.008324 -117928.000000 0 0 1
33.451896 19.441346 -26.100080 46.671292 0.526461 2.164255 0.051361 -0.021182 -4348.430000 0 0 1
32.986256 20.508146 -25.308350 46.359354 0.556236 2.148279 0.055707 -0.019944 -326349.000000 0 0 1
32.134496 21.564346 -26.067210 46.659900 0.591042 2.163571 0.064891 -0.027058 972619.000000 0 0 1
30.774226 21.200946 -26.335560 45.717555 0.603250 2.184683 0.053569 -0.028903 194595.000000 0 0 1
29.855636 21.551146 -25.347480 44.702412 0.625237 2.173688 0.048121 -0.020120 -584714.000000 0 0 1
28.402806 21.532246 -25.836760 44.021531 0.648667 2.198036 0.013152 -0.018248 -176519.000000 0 0 1
28.003316 20.215546 -26.151710 43.321657 0.625272 2.218885 0.016874 -0.027002 -28217.900000 0 0 1
26.816856 20.179746 -26.934600 43.032994 0.645101 2.247089 0.012344 -0.024299 -275553.000000 0 0 1
26.290856 18.802946 -27.216180 42.254945 0.620848 2.270635 0.028275 -0.017148 -353854.000000 0 0 1
27.195146 17.896446 -27.825290 42.826458 0.582031 2.278015 0.024676 -0.020910 629603.000000 0 0 1
28.120676 17.258546 -26.907250 42.574992 0.550455 2.254923 0.026198 -0.012940 1018930.000000 0 0 1
29.010756 16.088946 -27.562760 43.129849 0.506357 2.264078 0.004725 0.004639 614599.000000 0 0 1
28.321106 14.881146 -27.931300 42.469884 0.483795 2.288522 0.010241 0.006616 285484.000000 0 0 1
27.724576 14.077146 -26.883610 41.104095 0.469828 2.283706 0.026233 -0.004520 18027.800000 0 0 1
28.608026 13.206546 -25.904420 40.790575 0.432490 2.258881 0.025096 -0.004998 -226691.000000 0 0 1
29.464246 14.022346 -25.166550 41.208291 0.444191 2.227760 0.030293 -0.015629 -230794.000000 0 0 1
30.316146 13.227646 -24.362610 41.080118 0.411423 2.205639 0.027139 -0.015819 -472883.000000 0 0 1
-14.209809 -31.679813 -24.453610 42.467732 1.149153 2.184398 0.077766 -0.014787 282376.000000 0 0 1
-13.477109 -30.529613 -24.900810 41.638205 1.155080 2.211835 0.061302 -0.011360 155568.000000 0 0 1
-13.790009 -30.179213 -26.196960 42.275643 1.142188 2.239119 0.048109 -0.009364 -27110.000000 0 0 1
-13.134009 -28.867713 -26.634620 41.415577 1.143815 2.269344 0.044581 -0.008764 -193344.000000 0 0 1
-13.721609 -27.736213 -26.054860 40.452884 1.111383 2.270615 0.049450 -0.003110 22529.800000 0 0 1
-13.136509 -26.534413 -26.564900 39.778598 1.111097 2.302071 0.040460 -0.004225 4794.280000 0 0 1
-13.697509 -25.137513 -26.031620 38.693172 1.071875 2.308743 0.022603 -0.005579 -4673.860000 0 0 1
-13.230309 -24.809913 -24.726210 37.442734 1.080891 2.292113 0.020383 -0.014428 76474.800000 0 0 1
-13.598209 -23.485913 -24.482710 36.550000 1.045965 2.304792 0.021963 -0.009133 -190941.000000 0 0 1
-13.119909 -22.823113 -23.185910 35.080093 1.049073 2.292870 0.020920 0.002094 599782.000000 0 0 1
-11.721809 -22.610513 -22.979410 34.302907 1.092519 2.304866 0.024801 -0.011564 424406.000000 0 0 1
-11.464209 -21.979713 -21.732610 32.967290 1.090033 2.290574 0.018953 -0.003116 1490430.000000 0 0 1
-9.927409 -21.581113 -21.624010 32.123134 1.139654 2.309270 0.033868 -0.008808 1300720.000000 0 0 1
-9.520709 -20.494613 -22.452510 31.855742 1.135911 2.352963 0.038733 -0.012602 -862161.000000 0 0 1
-8.150109 -20.506713 -22.643010 31.617329 1.192502 2.369079 0.059055 -0.012887 -768131.000000 0 0 1
-7.639509 -19.422813 -23.610810 31.513142 1.196056 2.417706 0.053076 -0.002222 -129652.000000 0 0 1
-7.825809 -18.209713 -22.948310 30.322630 1.164901 2.429207 0.046016 -0.006847 -70796.500000 0 0 1
-8.038809 -17.078713 -23.779810 30.360900 1.130869 2.470653 0.031523 -0.009975 -201922.000000 0 0 1
-6.867509 -16.583913 -24.661010 30.501709 1.178188 2.512416 0.043892 -0.012223 -45824.400000 0 0 1
-6.661109 -17.324113 -25.863270 31.834007 1.203724 2.519124 0.037109 -0.016518 311373.000000 0 0 1
-5.717009 -16.611913 -26.682070 31.946404 1.239342 2.559317 0.031953 -0.012059 207162.000000 0 0 1
-5.640409 -17.209513 -28.149820 33.472286 1.254080 2.569905 0.042994 -0.007661 -270716.000000 0 0 1
-6.842709 -17.171213 -28.879750 34.288674 1.191585 2.572246 0.045507 -0.005243 -194875.000000 0 0 1
-6.833009 -17.981113 -30.066340 35.693070 1.207640 2.572440 0.053660 -0.017793 -206464.000000 0 0 1
-7.731809 -17.448713 -31.183130 36.559897 1.153682 2.592374 0.058615 -0.017602 25402.300000 0 0 1
-7.169809 -16.458713 -32.061500 36.745547 1.159962 2.631148 0.047642 -0.017775 43043.300000 0 0 1
-6.965509 -15.219313 -31.527990 35.695377 1.141578 2.653548 0.034343 -0.020856 -6851.790000 0 0 1
-7.479509 -14.148913 -32.532830 36.256307 1.084510 2.684414 0.032639 -0.023329 152778.000000 0 0 1
-6.569809 -13.946213 -33.618620 36.984738 1.130550 2.711642 0.048783 -0.033546 200535.000000 0 0 1
-7.139209 -13.094713 33.921919 37.055856 1.071647 0.414230 0.053523 -0.023909 -103452.000000 0 0 1
-7.381109 -11.613213 -34.275417 36.934424 1.004626 2.759825 0.043200 -0.024184 -91575.600000 0 0 1
-6.230209 -10.822913 -34.219278 36.426775 1.048474 2.791669 0.034490 -0.027486 -293983.000000 0 0 1
-5.759109 -10.359613 33.097881 35.156204 1.063420 0.343885 0.025490 -0.030004 -411304.000000 0 0 1
-4.694809 -9.288013 33.128275 34.724502 1.102783 0.304384 0.009801 -0.029756 -481760.000000 0 0 1
-4.520409 -8.765713 31.852993 33.344940 1.094674 0.300268 0.013690 -0.022959 210684.000000 0 0 1
-3.565309 -7.700513 31.941323 33.049319 1.137187 0.259671 0.005502 -0.023539 -457376.000000 0 0 1
-3.662609 -6.651013 30.793243 31.715525 1.067428 0.241751 0.016602 -0.016383 1000420.000000 0 0 1
-4.824009 -5.755213 30.906183 31.805435 0.873194 0.238360 0.021465 -0.013198 839248.000000 0 0 1
-5.997709 -6.380713 30.434323 31.669134 0.816330 0.280168 0.021859 -0.010699 -197578.000000 0 0 1
-7.265309 -5.470213 30.603393 31.926097 0.645369 0.288858 0.020196 -0.013437 575633.000000 0 0 1
-8.362309 -6.054513 29.935423 31.665674 0.626668 0.332103 0.026937 -0.008330 -971040.000000 0 0 1
-9.564609 -5.406813 30.205943 32.142097 0.514509 0.348861 0.025513 -0.011666 -454814.000000 0 0 1
-10.701209 -5.978013 29.342433 31.799857 0.509445 0.395712 0.029453 -0.014691 -289664.000000 0 0 1
-10.400509 -5.692013 27.995453 30.402550 0.500754 0.400603 0.018650 -0.006513 770658.000000 0 0 1
-11.427809 -6.198513 27.127943 30.082249 0.496994 0.446897 0.022273 -0.007500 281747.000000 0 0 1
-11.093609 -5.909113 25.639233 28.554441 0.489432 0.455805 0.020785 -0.009645 91179.100000 0 0 1
-9.949409 -6.579813 25.133993 27.820897 0.584297 0.443113 0.025822 -0.007251 105837.000000 0 0 1
-9.556109 -6.174513 23.835583 26.411719 0.573652 0.445344 0.027495 -0.003209 -412911.000000 0 0 1
-10.413109 -6.389313 22.588023 25.680245 0.550348 0.495802 0.034749 -0.015488 -29366.600000 0 0 1
-11.529709 -5.544613 22.364523 25.765264 0.448250 0.519615 0.023909 -0.013431 70601.700000 0 0 1
-12.196809 -5.832213 21.162023 25.111912 0.446036 0.568502 0.027032 -0.015834 -163031.000000 0 0 1
-13.426209 -4.968413 20.875923 25.313088 0.354427 0.601109 0.028240 -0.014044 -718.149000 0 0 1
-13.029709 -3.721213 20.443923 24.527021 0.278189 0.585336 0.023969 -0.017545 -32871.800000 0 1 0
-14.105109 -2.852213 20.721923 25.228701 0.199521 0.607000 0.020990 -0.012422 61528.500000 0 0 1
-13.947709 -1.364213 20.299423 24.667109 0.097499 0.604239 0.034511 -0.013908 107290.000000 0 1 0
-12.848709 -0.716213 20.926723 24.566848 0.055684 0.551332 0.024497 -0.016465 7247.320000 0 1 0
-12.847509 0.713787 20.713023 24.384366 -0.055501 0.555876 0.031628 -0.023042 -348573.000000 0 1 0
-12.630209 1.349787 19.271523 23.081069 -0.106466 0.582756 0.049899 -0.031297 -511911.000000 0 1 0
-13.530609 1.115787 18.252023 22.747719 -0.082278 0.639545 0.055313 -0.020401 -761082.000000 0 1 0
-14.848209 1.588787 18.370023 23.673853 -0.106596 0.682557 0.051525 -0.012042 -353478.000000 0 1 0
-15.748209 0.809787 17.409523 23.489431 -0.051376 0.735994 0.062632 -0.011839 -367727.000000 0 1 0
-16.035909 -0.479213 17.872023 24.016437 0.029875 0.731523 0.037491 -0.015583 4451.900000 0 1 0
-16.914309 -1.185213 17.038723 24.037818 0.069957 0.782958 0.034009 -0.013265 1629.440000 0 1 0
-16.813409 -2.675213 17.442323 24.373800 0.157789 0.773288 0.030703 -0.011505 -21229.600000 0 1 0
-17.451209 -2.988213 18.677323 25.735511 0.169588 0.758685 0.030097 -0.005844 32592.500000 0 0 1
-17.170409 -4.260513 19.066723 26.009899 0.243219 0.747992 0.033907 -0.009151 -196083.000000 0 0 1
-18.055709 -4.693913 20.250023 27.533705 0.254338 0.744446 0.022555 -0.002381 46143.100000 0 0 1
-17.529109 -4.252813 21.514823 28.075678 0.238015 0.697710 0.023304 0.000914 -125628.000000 0 0 1
-18.278609 -4.671313 22.602423 29.441438 0.250206 0.695540 0.028713 -0.005195 -820862.000000 0 0 1
-18.396209 -6.191713 23.016023 30.108058 0.324666 0.700613 0.032657 -0.007403 -158518.000000 0 0 1
-17.350009 -6.748513 23.761373 30.185561 0.370956 0.664579 0.018224 -0.010665 -427208.000000 0 0 1
-16.149209 -6.960713 23.063223 29.002772 0.406963 0.651446 0.024880 -0.009511 -1047000.000000 0 0 1
-15.131209 -7.459513 24.053213 29.379498 0.458023 0.611640 0.023357 -0.009637 -711332.000000 0 0 1
-15.269509 -8.817213 24.298823 30.022225 0.523665 0.627733 0.027197 -0.010182 22121.700000 0 0 1
-14.718309 -9.055713 25.570543 30.862392 0.551571 0.594312 0.039518 -0.004230 -80627.800000 0 0 1
-15.478209 -10.113113 26.363923 32.201032 0.578746 0.611602 0.038245 -0.007181 -235290.000000 0 0 1
-15.422009 -11.427313 25.936763 32.266663 0.637700 0.637098 0.037263 -0.008856 -212641.000000 0 0 1
-14.683309 -12.207113 26.816103 32.919851 0.693572 0.618778 0.045647 -0.007732 -227725.000000 0 0 1
-14.888709 -13.729913 26.602213 33.434442 0.744929 0.650712 0.024473 -0.005266 116528.000000 0 0 1
-16.078109 -14.222913 27.208983 34.657260 0.724249 0.667959 0.023905 -0.006309 292849.000000 0 0 1
-16.257209 -15.619813 27.006363 35.179811 0.765405 0.695604 0.032649 -0.003405 -155453.000000 0 0 1
-15.384209 -16.602513 27.817753 35.862860 0.823468 0.683020 0.027987 -0.002785 -188338.000000 0 0 1
-14.040509 -16.653113 27.407893 35.009352 0.870312 0.671525 0.046689 -0.008480 -164973.000000 0 0 1
-13.278609 -17.451413 28.309903 35.809551 0.920362 0.659059 0.057334 -0.009876 -763363.000000 0 0 1
-11.887009 -17.645713 27.744983 34.963642 0.977976 0.654195 0.068937 -0.013857 -857311.000000 0 0 1
-11.007009 -18.402413 28.558393 35.712531 1.031754 0.644044 0.078363 -0.025126 194319.000000 0 0 1
-9.988309 -18.947013 27.717303 35.028625 1.085649 0.657904 0.065825 -0.019102 -232905.000000 0 0 1
-8.852509 -19.539513 28.556983 35.716394 1.145403 0.644254 0.081147 -0.022198 -343074.000000 0 0 1
-9.159909 -20.702613 29.280003 37.011089 1.154237 0.658168 0.077135 -0.015679 637505.000000 0 0 1
-7.949109 -21.185313 29.873513 37.475761 1.211835 0.648249 0.081450 -0.021118 462342.000000 0 0 1
-8.148409 -22.564013 30.504893 38.808244 1.224246 0.666417 0.088154 -0.017596 158357.000000 0 0 1
-8.361609 -23.617213 29.561853 38.750387 1.230521 0.703042 0.089624 -0.015833 112101.000000 0 0 1
-8.522709 -24.827813 30.280453 40.074465 1.240127 0.714220 0.072085 -0.013888 -84621.000000 0 0 1
-8.794409 -26.020813 29.348873 40.196775 1.244873 0.752284 0.063322 -0.005726 187993.000000 0 0 1
-10.033209 -26.027513 28.645903 39.983553 1.202865 0.772107 0.060522 -0.005340 360645.000000 0 0 1
-9.983709 -27.170013 27.836333 40.159003 1.218658 0.804942 0.047691 -0.003259 -216822.000000 0 0 1
-11.250809 -27.507113 27.019153 40.165366 1.182543 0.832947 0.032657 0.002110 -135727.000000 0 0 1
-11.399409 -26.907813 25.723633 38.931764 1.170072 0.848997 0.042637 -0.001347 44068.100000 0 0 1
-11.775209 -25.538513 25.782003 38.152102 1.138769 0.828789 0.039082 0.007670 -322339.000000 0 0 1
-12.008309 -24.912513 24.378533 36.866593 1.121637 0.848294 0.061621 -0.020847 799245.000000 0 0 1
-13.185109 -25.409813 23.690003 37.158068 1.092145 0.879487 0.039816 -0.012183 933939.000000 0 0 1
-13.246809 -24.816913 22.407823 35.964812 1.080490 0.898162 0.052522 -0.020454 -183588.000000 0 0 1
-14.529709 -25.131513 21.624823 36.198597 1.046600 0.930549 0.035565 -0.016580 -495703.000000 0 0 1
-14.809409 -26.460913 21.342423 37.080960 1.060558 0.957504 0.044359 -0.016858 271819.000000 0 0 1
-15.938509 -26.547713 20.476323 37.122729 1.030103 0.986534 0.041119 -0.021157 407657.000000 0 0 1
-16.363309 -27.907813 19.903723 37.983709 1.040486 1.019248 0.038510 -0.029083 35913.100000 0 0 1
-15.372909 -28.247113 18.973823 37.339413 1.072394 1.037767 0.023924 -0.022088 -39064.800000 0 0 1
-15.436009 -29.540313 18.511723 38.125902 1.089279 1.063813 0.030737 -0.013515 -9578.520000 0 0 1
-14.361709 -29.855113 17.448823 37.443930 1.122426 1.086033 0.024630 -0.023009 -154667.000000 0 0 1
-14.592809 -29.088113 16.268723 36.383235 1.105809 1.107221 0.033436 -0.028577 -906841.000000 0 0 1
-13.505009 -29.060113 15.400823 35.553633 1.135763 1.122788 0.035838 -0.026563 -609046.000000 0 0 1
-13.796109 -28.641613 13.963423 34.722498 1.121911 1.156940 0.020029 -0.021700 -409173.000000 0 0 1
-14.089909 -27.267213 13.834823 33.666434 1.093851 1.147313 0.016172 -0.011404 -195141.000000 0 0 1
-14.572909 -26.944813 12.534623 33.098481 1.075011 1.182398 0.023982 -0.016134 494131.000000 0 0 1
-13.495609 -26.879613 11.388523 32.161212 1.105489 1.208837 0.015391 -0.006518 644188.000000 0 0 1
-14.127709 -26.366413 10.258123 31.622919 1.078903 1.240431 0.006127 -0.002968 -451064.000000 0 0 1
-13.311609 -26.575113 9.152423 31.099879 1.106425 1.272082 0.021938 -0.004690 -163581.000000 0 0 1
-13.782309 -25.867413 7.843323 30.341273 1.081250 1.309324 0.038669 -0.007888 -145681.000000 0 0 1
-14.911009 -26.425113 7.228423 31.190943 1.057060 1.336923 0.013678 -0.004937 -366420.000000 0 0 1
-15.132809 -25.767213 5.947123 30.468336 1.039775 1.374345 0.033004 -0.010615 -114616.000000 0 0 1
-15.922009 -26.608613 4.922423 31.396798 1.031570 1.413366 0.034918 -0.015976 -260733.000000 0 0 1
-15.235909 -27.718813 4.447623 31.941304 1.068215 1.431099 0.059033 -0.016606 -314588.000000 0 0 1
-15.678009 -28.028913 3.101023 32.265094 1.060802 1.474537 0.049726 -0.016129 262661.000000 0 0 1
-14.976209 -29.255513 2.354523 32.950200 1.097666 1.499278 0.057946 -0.020868 332347.000000 0 0 1
-13.612809 -29.087213 2.004823 32.177537 1.133075 1.508451 0.039697 -0.009893 -304973.000000 0 0 1
-13.118509 -30.218613 1.358223 32.971270 1.161226 1.529591 0.038856 -0.007516 -607040.000000 0 0 1
-11.801209 -29.833613 0.716623 32.090911 1.194117 1.548463 0.038789 -0.006469 -775295.000000 0 0 1
-11.816709 -28.934913 -0.418877 31.257628 1.183079 1.584198 0.034280 -0.008220 -142826.000000 0 0 1
-12.183109 -27.583613 -0.115577 30.154556 1.154883 1.574629 0.034673 -0.012811 -331582.000000 0 0 1
-11.838809 -26.705113 -1.313077 29.241147 1.153515 1.615717 0.033125 -0.008814 721052.000000 0 0 1
-10.467609 -26.712913 -1.726877 28.742524 1.197330 1.630913 0.038309 -0.013915 205095.000000 0 0 1
-10.201309 -25.920113 -2.860777 28.001840 1.195848 1.673139 0.050201 -0.016645 382972.000000 0 0 1
-8.939009 -26.341413 -3.650677 28.055363 1.243639 1.701290 0.038510 -0.020413 243972.000000 0 0 1
-8.409309 -25.378313 -4.570377 27.123119 1.250825 1.740109 0.037045 -0.025164 -397716.000000 0 0 1
-7.237609 -25.963613 -5.084577 27.428910 1.298938 1.757248 0.036541 -0.015328 -118056.000000 0 0 1
-6.408709 -24.864113 -5.780377 26.319355 1.318538 1.792226 0.016677 -0.015188 -213326.000000 0 0 1
-6.816609 -24.641413 -7.093377 26.532648 1.300913 1.841433 0.030079 -0.007824 241480.000000 0 0 1
-5.912709 -23.696413 -7.654977 25.594507 1.326270 1.874532 0.016808 -0.005815 -222980.000000 0 0 1
-6.114309 -23.507713 -9.126677 25.947901 1.316336 1.930216 0.028205 -0.004329 -61474.700000 0 0 1
-5.589009 -24.579713 -9.917477 27.087925 1.347215 1.945634 0.010195 -0.008786 -83765.900000 0 0 1
-5.742209 -24.547713 -11.330277 27.639435 1.341008 1.993175 0.005282 -0.000539 360166.000000 0 0 1
-7.139709 -25.011313 -11.864977 28.588790 1.292733 1.998763 0.014530 -0.001845 441782.000000 0 0 1
-7.275009 -25.081113 -13.274777 29.295182 1.288484 2.041079 0.022074 0.001372 -44246.900000 0 0 1
-8.365709 -25.884613 -13.656677 30.438514 1.258200 2.036067 0.049898 -0.003194 -416219.000000 0 0 1
-8.386409 -25.932513 -15.190877 31.202401 1.258018 2.079276 0.055879 -0.011863 -110400.000000 0 0 1
-7.535609 -26.822013 -15.845077 32.051088 1.296908 2.087906 0.045202 -0.015601 -267307.000000 0 0 1
-6.281609 -26.288113 -16.164777 31.493230 1.336242 2.109796 0.041028 -0.010566 -158380.000000 0 0 1
-5.300009 -27.128613 -17.022377 32.462487 1.377860 2.122772 0.034493 -0.008017 153991.000000 0 0 1
-5.608909 -27.100313 -18.340777 33.200466 1.366709 2.156067 0.066732 -0.013505 574638.000000 0 0 1
-4.418709 -27.489913 -19.020077 33.719188 1.411420 2.170106 0.066948 -0.016388 449287.000000 0 0 1
-24.628809 14.707746 -6.514210 29.416508 -0.538341 1.794095 0.045531 -0.009726 -62658.200000 0 0 1
-24.755909 13.666346 -5.593110 28.825456 -0.504411 1.766069 0.044324 -0.009116 -314040.000000 0 0 1
-23.544109 13.005846 -5.496310 27.453352 -0.504687 1.772364 0.061075 -0.015243 -892264.000000 0 0 1
-23.708609 11.655546 -4.758010 26.843781 -0.456918 1.748986 0.062795 -0.006303 -233528.000000 0 0 1
-24.247109 10.625746 -5.509610 27.040425 -0.413021 1.775988 0.059095 -0.007630 66171.100000 0 0 1
-25.652039 10.452346 -5.476510 28.235984 -0.386926 1.765988 0.061070 -0.010994 -105247.000000 0 0 1
-26.124409 9.722046 -6.713310 28.671789 -0.356265 1.807134 0.061311 -0.008948 -271973.000000 0 0 1
-25.939519 10.495146 -7.863810 29.066239 -0.384466 1.844758 0.081900 -0.009648 -60355.500000 0 0 1
-26.193179 9.782646 -9.059910 29.391576 -0.357438 1.884148 0.068955 -0.013022 -435415.000000 0 0 1
-26.587659 10.556646 -10.326110 30.413401 -0.377961 1.917208 0.034053 -0.012842 219655.000000 0 0 1
-25.664599 11.521646 -10.874410 30.160782 -0.421965 1.939652 0.038059 -0.007037 678477.000000 0 0 1
-26.194479 12.056646 -12.101810 31.272468 -0.431365 1.968150 0.030864 -0.011904 342407.000000 0 0 1
-25.181549 13.068246 -12.699310 31.083146 -0.478701 1.991671 0.031320 -0.012594 183687.000000 0 0 1
-25.247869 14.201246 -11.941510 31.332570 -0.512369 1.961805 0.033495 -0.012859 568766.000000 0 0 1
-24.215809 15.057046 -12.453510 31.116072 -0.556285 1.982561 0.029938 -0.015377 294448.000000 0 0 1
-24.123509 16.464546 -11.763710 31.486661 -0.598891 1.953693 0.040420 -0.015774 -105338.000000 0 0 1
-23.443909 16.547646 -10.524510 30.564796 -0.614635 1.922326 0.054575 -0.010488 122093.000000 0 0 1
-23.171009 17.842346 -10.202010 30.972988 -0.656197 1.906448 0.034236 -0.007064 104005.000000 0 0 1
-22.246909 18.026746 -8.952710 30.000659 -0.680992 1.873830 0.046180 -0.002854 -30084.000000 0 0 1
-22.901509 17.664546 -7.734710 29.938955 -0.657011 1.832109 0.054732 -0.009232 542467.000000 0 0 1
-23.588609 18.745346 -7.144310 30.965330 -0.671487 1.803614 0.035873 -0.007622 31784.900000 0 0 1
-24.180509 18.366046 -5.765510 30.907115 -0.649578 1.758439 0.028214 -0.007798 -240523.000000 0 0 1
-23.108509 18.142246 -4.897610 29.784742 -0.665583 1.735980 0.058689 -0.016705 212914.000000 0 0 1
-23.578009 17.783346 -3.649110 29.757115 -0.646206 1.693736 0.045887 -0.010407 368567.000000 0 0 1
-22.346109 17.316446 -2.811110 28.409686 -0.659260 1.669908 0.057864 -0.015295 460860.000000 0 0 1
-21.603509 18.449146 -2.339010 28.505325 -0.706805 1.652944 0.066977 -0.022571 313404.000000 0 0 1
-20.631809 18.152346 -1.365610 27.514435 -0.721555 1.620449 0.097934 -0.028413 -373664.000000 0 0 1
-19.793309 19.307746 -0.841210 27.663546 -0.772981 1.601210 0.086774 -0.028963 -106722.000000 0 0 1
-20.395909 20.240046 0.033090 28.734190 -0.781563 1.569645 0.068359 -0.019914 100976.000000 0 0 1
-19.430009 21.245146 0.341290 28.792325 -0.829994 1.558943 0.067397 -0.036466 359638.000000 0 0 1
-19.953709 22.402546 1.279690 30.027690 -0.843149 1.528166 0.069704 -0.022579 41592.800000 0 0 1
-20.270509 21.992246 2.606990 30.022472 -0.826115 1.483852 0.044954 -0.013226 151002.000000 0 0 1
-21.644009 22.163146 2.901390 31.114084 -0.797248 1.477411 0.037824 -0.027602 13115.700000 0 0 1
-21.860109 21.873346 4.394390 31.234889 -0.785701 1.429640 0.040509 -0.016039 94802.200000 0 0 1
-21.195409 22.779746 5.301090 31.563646 -0.821411 1.402047 0.043379 -0.020056 524943.000000 0 0 1
-20.479109 22.206646 6.386590 30.875841 -0.825847 1.362445 0.043587 -0.003738 197828.000000 0 0 1
-21.353509 21.982646 7.646690 31.586088 -0.799915 1.326277 0.019289 -0.002024 -75901.200000 0 0 1
-22.305309 20.909246 7.544590 31.490383 -0.753104 1.328859 0.032038 0.001393 863245.000000 0 0 1
-22.719009 20.361346 8.815790 31.756195 -0.730726 1.289492 0.053229 -0.007031 76918.900000 0 0 1
-23.252909 21.288246 9.969790 33.064844 -0.741318 1.264507 0.052111 -0.013685 -1045920.000000 0 0 1
-24.488709 21.910546 9.814290 34.294157 -0.729890 1.280559 0.064088 -0.013106 75694.600000 0 0 1
-24.961209 22.497446 11.000690 35.358340 -0.733531 1.254425 0.070247 -0.011964 144439.000000 0 0 1
-25.881919 23.727946 10.851390 36.751079 -0.742007 1.271061 0.069962 -0.020842 229470.000000 0 0 1
-26.675509 24.027046 11.979890 37.847054 -0.733210 1.248723 0.071500 -0.019515 50921.700000 0 0 1
-27.263529 25.303346 11.898490 39.052956 -0.748126 1.261198 0.060303 -0.017435 -173227.000000 0 0 1
-27.915419 25.621946 13.202190 40.125460 -0.742586 1.235528 0.062072 -0.013636 -146822.000000 0 0 1
-26.933209 25.816046 14.198890 39.918348 -0.764223 1.207135 0.063798 -0.019056 189628.000000 0 0 1
-27.507959 26.125846 15.440190 40.959091 -0.759634 1.184278 0.051776 -0.015141 475616.000000 0 0 1
-26.434469 26.257746 16.582290 40.782628 -0.782044 1.152065 0.059652 -0.022646 485460.000000 0 0 1
-25.731379 25.106546 16.946390 39.744467 -0.773108 1.130305 0.070927 -0.023533 268903.000000 0 0 1
-24.638609 25.419846 17.811990 39.629492 -0.801003 1.104632 0.076567 -0.019608 115981.000000 0 0 1
-24.134709 24.095546 18.316490 38.711411 -0.784586 1.077928 0.078525 -0.008598 -482420.000000 0 0 1
-22.931009 24.183746 19.036690 38.380729 -0.811981 1.051815 0.080166 -0.013929 83212.600000 0 0 1
-22.631409 22.983346 19.736990 37.814860 -0.793113 1.021676 0.083966 -0.016017 808042.000000 0 0 1
-21.153709 22.844046 20.310290 37.173078 -0.823798 0.992771 0.070377 -0.017758 1460430.000000 0 0 1
-20.288509 22.619046 19.156690 35.919683 -0.839660 1.008276 0.070504 -0.015672 338531.000000 0 0 1
-18.930309 22.339046 19.404390 35.127197 -0.867808 0.985551 0.058819 -0.019056 186057.000000 0 0 1
-18.576309 20.818046 19.616390 34.106789 -0.842242 0.958013 0.062130 -0.023548 -324934.000000 0 0 1
-19.061109 20.181246 20.788790 34.681153 -0.813934 0.928012 0.068659 -0.020827 -170826.000000 0 0 1
-18.312709 20.463346 21.934490 35.145778 -0.840804 0.896817 0.053108 -0.017199 -340967.000000 0 0 1
-19.110609 20.462246 23.235090 36.383902 -0.819541 0.878107 0.050310 -0.012753 -248286.000000 0 0 1
-20.041209 21.503646 23.423390 37.586062 -0.820585 0.897977 0.047698 -0.013446 523041.000000 0 0 1
-20.801109 21.350646 24.651390 38.681097 -0.798435 0.879809 0.060127 -0.014617 138745.000000 0 0 1
-21.889309 22.351846 24.957890 40.020534 -0.795853 0.897422 0.057353 -0.013358 -997397.000000 0 0 1
-21.375509 23.639446 25.108190 40.572860 -0.835649 0.903529 0.054048 -0.012898 36938.200000 0 0 1
-22.313509 24.687946 25.291390 41.797629 -0.835874 0.920916 0.048693 -0.009183 507605.000000 0 0 1
-23.307009 24.950346 24.070490 41.774693 -0.819439 0.956727 0.051415 -0.017740 195544.000000 0 0 1
-24.319209 24.022046 23.856290 41.684592 -0.779251 0.961483 0.045670 -0.022370 -275200.000000 0 0 1
-25.109089 24.450446 22.769590 41.794077 -0.772109 0.994641 0.046406 -0.018023 413883.000000 0 0 1
-26.214949 23.498046 22.216390 41.628713 -0.730801 1.007851 0.043332 -0.017468 665910.000000 0 0 1
-27.143769 23.057146 23.207990 42.509140 -0.704172 0.993270 0.017186 -0.017121 418168.000000 0 0 1
-28.072559 22.145146 22.646690 42.324327 -0.667907 1.006200 0.025870 -0.019470 301755.000000 0 0 1
-29.573749 22.322946 22.972790 43.596670 -0.646581 1.015801 0.029961 -0.016261 -559800.000000 0 0 1
-30.050519 23.517246 22.327590 44.211038 -0.664035 1.041388 0.016513 -0.012008 166435.000000 0 0 1
-31.426619 23.788346 22.501590 45.385453 -0.647934 1.052054 0.009871 -0.015628 297870.000000 0 0 1
-32.385839 22.899246 21.615390 45.171264 -0.615459 1.071827 0.008126 -0.023809 -862190.000000 0 0 1
-32.355219 21.453146 21.835390 44.540790 -0.585495 1.058439 0.003376 -0.018424 119120.000000 0 0 1
-32.856099 20.696446 20.744990 44.025228 -0.562124 1.080138 -0.002976 -0.011036 -422254.000000 0 0 1
-34.372657 20.751946 20.556190 45.107425 -0.543161 1.097620 -0.002123 -0.012768 -576182.000000 0 0 1
-34.846078 19.969946 19.453790 44.626201 -0.520398 1.119728 0.002534 -0.012549 -240350.000000 0 0 1
35.713966 19.935046 19.375890 45.258353 0.509107 1.128388 0.025417 -0.016884 -198913.000000 0 0 1
35.078376 19.012246 18.317790 43.903296 0.496675 1.140401 0.029977 -0.020578 -294197.000000 0 0 1
35.327396 17.660346 18.482590 43.606409 0.463572 1.133104 0.044266 -0.023234 463008.000000 0 0 1
34.594816 16.880746 17.509590 42.288848 0.453966 1.143900 0.055491 -0.027427 242633.000000 0 0 1
34.990286 15.369246 17.430490 42.004236 0.413873 1.142887 0.068038 -0.028713 8337.360000 0 0 1
34.185066 14.651546 16.483090 40.681431 0.404912 1.153626 0.081704 -0.031247 390464.000000 0 0 1
34.455626 13.268846 16.545690 40.460009 0.367596 1.149505 0.079735 -0.029912 216.959000 0 0 1
33.498616 12.474846 15.639790 39.017715 0.356488 1.158365 0.078586 -0.033482 -152183.000000 0 0 1
33.756556 12.652746 14.256290 38.766466 0.358616 1.194210 0.078088 -0.029171 403302.000000 0 0 1
32.866416 11.967346 13.358990 37.441705 0.349199 1.205962 0.084431 -0.022807 60793.500000 0 0 1
32.916036 12.392746 11.898190 37.129672 0.360081 1.244592 0.100990 -0.024133 -2667.560000 0 0 1
34.162166 12.042546 11.328090 37.952630 0.338910 1.267697 0.100717 -0.019817 189915.000000 0 0 1
34.265076 12.313046 9.953890 37.746344 0.344977 1.303935 0.087216 -0.011000 -510414.000000 0 0 1
35.703346 12.365246 9.415490 38.939436 0.333404 1.326578 0.071228 0.000895 -506763.000000 0 0 1
-35.504035 11.231946 9.763890 38.497100 -0.306395 1.314369 0.083147 -0.003462 1223680.000000 0 0 1
-34.174652 11.236946 9.143590 37.118473 -0.317673 1.321899 0.068140 0.004068 1298530.000000 0 0 1
-34.032845 10.868646 7.622390 36.530300 -0.309120 1.360592 0.068868 -0.003154 -448413.000000 0 0 1
-34.526361 11.865246 6.719690 37.121529 -0.331013 1.388774 0.051683 -0.001825 293165.000000 0 0 1
-33.898309 11.758846 5.457690 36.292592 -0.333898 1.419843 0.053548 -0.012208 -91047.400000 0 0 1
-34.712206 12.578846 4.434490 37.186413 -0.347657 1.451262 0.067388 -0.006606 -516627.000000 0 0 1
35.959661 12.060546 4.167590 38.156556 0.323601 1.461355 0.070878 -0.008693 -256440.000000 0 0 1
34.946876 13.017146 4.137890 37.521359 0.356563 1.460291 0.041780 -0.007761 -179757.000000 0 0 1
34.432066 13.449846 5.513390 37.374630 0.372394 1.422739 0.065964 -0.003873 -1539490.000000 0 0 1
33.626566 14.611346 5.502790 37.074494 0.409905 1.421821 0.068649 0.000980 57889.900000 0 0 1
33.266196 15.016546 6.788290 37.124350 0.424022 1.386909 0.049926 0.002149 260401.000000 0 0 1
31.962046 14.306446 7.258090 35.762084 0.420862 1.366422 0.083885 -0.021357 -370914.000000 0 0 1
32.205146 13.014346 7.776090 35.595115 0.384042 1.350561 0.110471 -0.013843 177864.000000 0 0 1
31.029676 12.223446 7.815690 34.254028 0.375261 1.340600 0.115089 -0.006280 -25857.500000 0 0 1
31.036206 11.203846 6.655490 33.661072 0.346434 1.371764 0.120703 -0.014695 -293540.000000 0 0 1
30.612796 11.692246 5.414490 33.213982 0.364841 1.407047 0.117848 -0.016429 177704.000000 0 0 1
31.043836 10.887946 4.318790 33.180101 0.337323 1.440264 0.124777 -0.020929 -247908.000000 0 0 1
30.380546 11.278046 2.975990 32.542717 0.355458 1.479220 0.097351 -0.023924 -497651.000000 0 0 1
29.021666 10.967646 3.020290 31.171598 0.361322 1.473752 0.092690 -0.017698 -490426.000000 0 0 1
28.305946 11.579746 1.984490 30.647272 0.388320 1.505998 0.088773 -0.017486 691532.000000 0 0 1
26.840156 11.033246 1.807690 29.075664 0.390015 1.508584 0.110829 -0.006528 756879.000000 0 0 1
26.672656 9.774946 1.179190 28.431860 0.351279 1.529310 0.076412 -0.013394 762571.000000 0 0 1
25.316256 9.314746 1.350190 27.009264 0.352563 1.520786 0.077904 -0.013988 711425.000000 0 0 1
25.262056 7.780246 1.196490 26.460070 0.298763 1.525562 0.082143 -0.015747 86530.300000 0 0 1
25.723056 6.958046 2.278390 26.744739 0.264176 1.485503 0.090008 -0.011897 975979.000000 0 0 1
27.153646 6.940946 2.390390 28.128476 0.250259 1.485713 0.125742 -0.022799 338491.000000 0 0 1
27.666426 6.340146 3.706290 28.624555 0.225274 1.440952 0.117663 -0.031157 1122260.000000 0 0 1
29.108866 6.316746 3.878490 30.037810 0.213691 1.441315 0.136250 -0.029716 1492440.000000 0 0 1
29.388706 5.643846 5.091490 30.355762 0.189731 1.402272 0.108267 -0.020135 1472030.000000 0 0 1
30.949616 5.504646 5.404490 31.896526 0.176018 1.400537 0.107773 -0.022812 1488410.000000 0 0 1
31.390576 6.661346 6.014990 32.648459 0.209106 1.385503 0.119054 -0.028426 -683866.000000 0 0 1
32.723956 6.587746 6.427290 33.993613 0.198657 1.380578 0.088519 -0.017075 -232385.000000 0 0 1
33.087776 7.711346 7.392190 34.769387 0.228970 1.356555 0.091806 -0.025156 140168.000000 0 0 1
32.285716 7.644846 8.551290 34.262745 0.232505 1.318550 0.111402 -0.025937 281650.000000 0 0 1
32.893156 8.471746 9.571490 35.289426 0.252075 1.296127 0.105510 -0.019368 -694.217000 0 0 1
32.114256 8.560546 10.879390 34.970981 0.260508 1.254449 0.102390 -0.018927 -502220.000000 0 0 1
30.886646 9.235946 10.856890 34.017050 0.290564 1.245953 0.101349 -0.025049 -260234.000000 0 0 1
30.300306 9.165746 12.123590 33.898391 0.293746 1.205051 0.079466 -0.023007 -180812.000000 0 0 1
28.978666 9.959846 12.266290 33.006416 0.331048 1.190028 0.074259 -0.026482 -204028.000000 0 0 1
28.994106 11.410846 12.156190 33.446054 0.374940 1.198821 0.076852 -0.028686 42505.700000 0 0 1
28.959466 12.042146 10.885590 33.198796 0.394076 1.236726 0.093395 -0.033565 -1379670.000000 0 0 1
27.625566 12.089146 10.207590 31.835738 0.412500 1.244399 0.075637 -0.033188 -1104270.000000 0 0 1
27.574416 13.179246 9.311590 31.949126 0.445854 1.275053 0.069060 -0.023528 -10219.500000 0 0 1
26.374056 13.180446 8.578490 30.706766 0.463448 1.287660 0.068299 -0.019312 -311472.000000 0 0 1
26.288456 14.321846 7.617790 30.890596 0.498839 1.321620 0.058678 -0.022896 -99887.900000 0 0 1
25.996056 15.524246 8.289990 31.393010 0.538341 1.303556 0.057701 -0.012503 307542.000000 0 0 1
26.126356 16.609446 7.369090 31.823948 0.566282 1.337117 0.046717 -0.006539 -933900.000000 0 0 1
25.715556 18.009046 7.892390 32.371367 0.610939 1.324506 0.059718 -0.012050 1225970.000000 0 0 1
24.310156 18.369246 7.977790 31.496953 0.647088 1.314719 0.057304 -0.011929 1216970.000000 0 0 1
23.488456 17.525046 8.785090 30.594323 0.641009 1.279549 0.056317 -0.010068 -728367.000000 0 0 1
22.162356 18.278746 8.978390 30.098074 0.689660 1.267881 0.052848 -0.003534 -683656.000000 0 0 1
21.427356 18.414946 7.808790 29.312438 0.709933 1.301142 0.049497 -0.000460 -169443.000000 0 0 1
20.439456 19.422146 7.943790 29.293257 0.759883 1.296176 0.061428 0.001381 325231.000000 0 0 1
19.762056 19.936646 6.633390 28.844594 0.789796 1.338750 0.057760 0.006190 354244.000000 0 0 1
20.673756 20.572946 5.758890 29.729028 0.782954 1.375851 0.046587 0.008527 -418.754000 0 0 1
20.015256 20.893646 4.544590 29.288363 0.806867 1.415000 0.044268 0.002067 151038.000000 0 0 1
18.261891 17.296646 32.897849 41.411823 0.758260 0.652765 0.038015 -0.012810 -222696.000000 0 0 1
17.650191 18.046646 31.891333 40.672691 0.796504 0.669557 0.052097 -0.015849 -39008.000000 0 0 1
16.904491 17.149446 31.116623 39.346024 0.792591 0.658607 0.060870 -0.016758 -78089.300000 0 0 1
16.184691 17.772446 29.870113 38.340941 0.832122 0.677622 0.063389 -0.024923 -81483.400000 0 0 1
17.050991 18.132246 28.802503 38.067031 0.816121 0.712659 0.070954 -0.021852 10514.100000 0 0 1
16.439491 18.627946 27.603253 37.137539 0.847724 0.732850 0.073342 -0.033574 32111.600000 0 0 1
17.536691 18.993146 26.568163 37.069427 0.825247 0.771718 0.077846 -0.024190 -19114.300000 0 0 1
18.256391 20.142646 26.835333 38.198915 0.834481 0.791870 0.081724 -0.027479 168566.000000 0 0 1
19.196991 20.377546 25.776323 38.055061 0.815221 0.826652 0.075843 -0.018664 744159.000000 0 0 1
20.266791 21.487446 26.108263 39.422006 0.814624 0.846943 0.072177 -0.015151 423930.000000 0 0 1
19.604091 22.736146 26.166813 39.824049 0.859237 0.853883 0.083430 -0.020986 339709.000000 0 0 1
20.397991 23.784146 26.648773 41.132964 0.861889 0.866013 0.081732 -0.022239 131652.000000 0 0 1
19.529591 25.080546 26.585123 41.439202 0.909194 0.874285 0.091324 -0.027658 319204.000000 0 0 1
19.455391 25.572246 25.284073 40.886873 0.920418 0.904103 0.096068 -0.027610 440465.000000 0 0 1
18.398091 26.510246 25.097153 40.879702 0.964109 0.909770 0.096638 -0.031539 227701.000000 0 0 1
18.516091 27.287246 23.759383 40.644160 0.974604 0.946446 0.092832 -0.033544 330789.000000 0 0 1
19.675291 28.098246 23.534123 41.599080 0.959915 0.969470 0.081826 -0.029942 234062.000000 0 0 1
19.542491 29.126246 22.595523 41.722953 0.979829 0.998503 0.074426 -0.021992 149383.000000 0 0 1
20.813291 30.022746 22.520923 42.915619 0.964614 1.018349 0.075477 -0.015287 -87141.100000 0 0 1
21.771491 29.513246 21.662823 42.594688 0.935223 1.037261 0.071062 -0.016708 -971213.000000 0 0 1
22.818191 30.412646 21.450723 43.654695 0.927112 1.057131 0.049832 -0.014229 -316478.000000 0 0 1
23.107391 30.593046 19.971223 43.228876 0.923902 1.090561 0.040400 -0.011391 -105448.000000 0 0 1
22.177891 31.371446 19.249223 42.971608 0.955424 1.106323 0.048527 -0.007969 221127.000000 0 0 1
22.338391 31.171346 17.816223 42.285628 0.948995 1.135884 0.054141 -0.003341 44774.300000 0 0 1
21.697791 32.320046 16.982523 42.470997 0.979564 1.159430 0.066402 -0.008719 -233083.000000 0 0 1
22.455391 33.498746 17.083223 43.797798 0.980258 1.170113 0.065453 -0.002593 110318.000000 0 0 1
22.462391 -34.294213 15.941923 43.986327 -0.990921 1.199923 0.064981 -0.010294 -86486.700000 0 0 1
23.500791 34.046946 14.828623 43.947352 0.966646 1.226624 0.040357 -0.006955 44424.500000 0 0 1
23.320891 32.854446 14.052223 42.670172 0.953507 1.235211 0.059117 -0.011131 745578.000000 0 0 1
22.133291 33.016646 13.234823 41.894415 0.980236 1.249382 0.052695 -0.015085 687077.000000 0 0 1
21.800091 31.759146 12.383523 40.462810 0.969243 1.259758 0.053230 -0.030615 -805326.000000 0 0 1
22.572191 31.446346 11.286523 40.320740 0.948224 1.287087 0.061990 -0.044411 -689349.000000 0 0 1
22.154991 30.276046 10.548523 38.971194 0.939067 1.296702 0.046845 -0.040124 -389307.000000 0 0 1
23.313791 29.611946 9.688423 38.913568 0.903841 1.319177 0.047334 -0.038830 711994.000000 0 0 1
24.394091 29.026246 10.371823 39.308642 0.871893 1.303779 0.044890 -0.035173 147112.000000 0 0 1
25.197591 29.909446 11.110823 40.656413 0.870694 1.293989 0.034754 -0.034994 -1693810.000000 0 0 1
26.571791 29.487446 11.594523 41.352177 0.837362 1.286601 0.029448 -0.028807 -420299.000000 0 0 1
26.608791 28.427346 12.533323 40.905085 0.818429 1.259387 0.030588 -0.021629 -337361.000000 0 0 1
27.913491 28.242946 13.033423 41.793506 0.791265 1.253654 0.016846 -0.007706 -102196.000000 0 0 1
28.177391 26.959146 13.847823 41.382643 0.763307 1.229585 0.009586 -0.018720 -96339.300000 0 0 1
29.375791 27.010746 14.601523 42.493788 0.743479 1.220032 -0.002132 -0.009823 157142.000000 0 0 1
29.530391 25.816646 15.345223 42.119106 0.718399 1.197884 0.011710 -0.010549 -494343.000000 0 0 1
30.537491 25.963346 16.461223 43.331346 0.704617 1.181117 0.011822 -0.010318 476915.000000 0 0 1
31.877791 26.141546 15.957823 44.206630 0.686851 1.201475 0.036284 -0.010251 95497.600000 0 0 1
32.800691 26.015546 16.986323 45.179964 0.670544 1.185353 0.009245 -0.013911 -320879.000000 0 0 1
34.211591 26.376546 16.486923 46.238229 0.656795 1.206208 0.019547 -0.019144 -186767.000000 0 0 1
34.331391 27.758346 16.173123 47.018508 0.679927 1.219651 0.044870 -0.018412 936120.000000 0 0 1
35.733891 28.021146 15.916223 48.118830 0.665009 1.233678 0.065233 -0.016451 1468410.000000 0 0 1
35.937291 29.074546 14.803223 48.538166 0.680226 1.260878 0.062809 -0.020806 181807.000000 0 0 1
35.446891 30.341646 15.187523 49.068915 0.707953 1.256114 0.069198 -0.016846 -118954.000000 0 0 1
35.414991 31.310946 14.154023 49.345043 0.723970 1.279872 0.054714 0.006324 166930.000000 0 0 1
34.531291 32.534646 14.475523 49.602964 0.755636 1.274659 0.022489 0.007536 -964088.000000 0 0 1
34.449391 33.461546 13.388723 49.856730 0.770853 1.298915 0.003078 0.007139 301788.000000 0 0 1
33.289591 34.294646 13.419823 49.642837 0.800268 1.297063 -0.010346 0.013925 1409220.000000 0 0 1
31.960291 33.522246 13.002323 48.106773 0.809247 1.297112 -0.003860 0.010276 285678.000000 0 0 1
31.534991 32.618846 14.014023 47.485131 0.802291 1.271211 0.007441 -0.001864 -137948.000000 0 0 1
30.691791 31.597146 13.486023 46.067760 0.799932 1.273702 0.018965 -0.002406 -349023.000000 0 0 1
30.358091 30.648046 14.678523 45.567263 0.790151 1.242819 0.027508 -0.001933 -226315.000000 0 0 1
29.558691 31.210546 15.689423 45.759943 0.812574 1.220833 0.016254 0.002481 -39667.200000 0 0 1
29.528591 30.344246 16.765823 45.539036 0.799020 1.193763 0.010698 0.007114 -88909.700000 0 0 1
28.255791 30.613146 17.608823 45.228587 0.825421 1.170893 -0.000668 0.007624 13140.900000 0 0 1
28.022491 29.583146 18.601423 44.793253 0.812484 1.142554 -0.012073 0.008610 -210039.000000 0 0 1
28.633491 29.904546 19.804423 45.895249 0.807108 1.124626 -0.016461 0.010112 -251503.000000 0 0 1
28.454191 28.854746 20.949323 45.619201 0.792387 1.093678 -0.004720 -0.000767 -159209.000000 0 0 1
27.141591 28.758946 21.429623 44.977458 0.814323 1.074181 0.001343 -0.001352 -238487.000000 0 0 1
27.176191 27.784246 22.446723 44.881679 0.796461 1.047046 0.000556 0.000250 -270595.000000 0 0 1
25.896791 27.818046 23.283523 44.571403 0.821151 1.021148 0.018061 -0.011827 -499630.000000 0 0 1
24.800291 27.257146 22.567123 43.212053 0.832558 1.021319 0.041898 -0.013537 346759.000000 0 0 1
23.602091 27.282946 23.344923 42.969795 0.857609 0.996449 0.049079 -0.017609 271820.000000 0 0 1
23.334891 26.272346 24.453353 42.810277 0.844543 0.962826 0.054931 -0.019583 -839042.000000 0 0 1
24.288491 26.353546 25.464753 43.964689 0.826153 0.953038 0.027971 -0.018234 -291986.000000 0 0 1
24.042391 25.469146 26.516793 43.930107 0.814207 0.922771 0.039209 -0.022809 -572884.000000 0 0 1
25.266291 25.409846 27.436533 45.131022 0.788231 0.917345 0.049479 -0.021107 -72738.400000 0 0 1
25.557891 26.600046 28.122173 46.385611 0.805376 0.919435 0.036454 -0.024490 87044.600000 0 0 1
26.313191 27.545346 27.420843 46.936476 0.808272 0.946888 0.020363 -0.006879 -1075870.000000 0 0 1
26.834491 28.786546 28.158333 48.390566 0.820479 0.949737 0.012261 -0.007581 -557863.000000 0 0 1
27.714491 28.344946 29.187203 49.228262 0.796644 0.936147 0.017829 -0.007177 117001.000000 0 0 1
28.107291 29.484046 29.975593 50.575340 0.809299 0.936399 0.011252 -0.007577 -311468.000000 0 0 1
29.614691 29.669846 30.111773 51.614422 0.786329 0.947890 0.011593 -0.005547 -561486.000000 0 0 1
30.309491 29.713246 28.906413 51.352926 0.775465 0.972910 -0.003592 0.000807 -426229.000000 0 0 1
31.638091 30.138646 29.141953 52.521998 0.761131 0.982611 0.025600 -0.010379 55216.000000 0 0 1
32.257291 30.696446 27.851273 52.521406 0.760610 1.011861 0.015608 -0.006716 -459544.000000 0 0 1
31.937791 32.062446 27.636053 53.026167 0.787346 1.022566 -0.008791 -0.001101 188159.000000 0 0 1
32.269991 32.485446 26.341493 52.825475 0.788725 1.048754 -0.001800 -0.003615 -253053.000000 0 0 1
31.936491 33.924346 26.131323 53.419536 0.815572 1.059657 0.000931 -0.007222 42754.900000 0 0 1
32.827791 -33.843913 26.793283 54.230567 -0.800638 1.054040 0.021150 -0.010240 515392.000000 0 0 1
32.426991 -32.498313 26.562863 53.039946 -0.786497 1.046264 0.020509 -0.009108 -704630.000000 0 0 1
33.332491 -31.473113 27.207023 53.308854 -0.756714 1.035186 0.039461 -0.020246 -474451.000000 0 0 1
33.246691 -31.379513 28.621733 53.937185 -0.756514 1.011430 0.039096 -0.028050 379835.000000 0 0 1
34.367591 -30.679313 29.113993 54.497488 -0.728757 1.007204 0.051705 -0.035255 -199012.000000 0 0 1
34.221191 -30.308213 30.637513 55.030309 -0.724834 0.980342 0.043760 -0.035097 -341554.000000 0 0 1
34.149691 -31.466313 31.484323 56.103412 -0.744526 0.974981 0.060258 -0.033401 290298.000000 0 0 1
32.817591 -31.907813 31.637583 55.642066 -0.771343 0.966004 0.048022 -0.033157 -240708.000000 0 0 1
32.720791 -33.016213 32.751033 56.862560 -0.789892 0.957008 0.061021 -0.035613 -204723.000000 0 0 1
32.924091 -32.484813 34.041203 57.428759 -0.778682 0.936321 0.050059 -0.039130 -49611.700000 0 0 1
33.154091 -33.448913 -33.524540 57.809327 -0.789825 2.189422 0.056670 -0.037760 -189740.000000 0 0 1
32.084191 34.146546 -33.298870 57.482142 0.816527 2.188655 0.040513 -0.028971 -244325.000000 0 0 1
32.083391 33.124646 -34.247132 57.440858 0.801365 2.209575 0.054457 -0.031479 -66730.600000 0 0 1
31.451091 31.975046 -33.719580 56.112251 0.793659 2.215461 0.065618 -0.024142 -165850.000000 0 0 1
31.593491 30.824146 33.858303 55.629681 0.773073 0.916454 0.040451 -0.016401 -636977.000000 0 0 1
32.871991 30.301646 33.761755 56.023332 0.744734 0.923994 0.054621 -0.025289 -849367.000000 0 0 1
32.939691 29.405946 32.721627 54.958510 0.728779 0.933048 0.046053 -0.020133 982791.000000 0 0 1
34.371091 28.814146 32.389583 55.323702 0.697677 0.945354 0.042883 -0.017040 1063420.000000 0 0 1
34.963291 27.948446 33.362859 55.826765 0.674354 0.930274 0.042441 -0.014631 -268228.000000 0 0 1
-35.724574 27.531646 32.965766 55.865718 -0.656595 0.939627 0.017064 -0.015535 -354371.000000 0 0 1
-35.390374 26.311646 33.826794 55.579073 -0.639308 0.916470 0.026592 -0.014799 -71905.900000 0 0 1
35.911091 25.172246 33.346325 55.092884 0.611370 0.920685 0.011966 -0.009957 -10621.600000 0 0 1
35.762391 24.208446 -34.170125 55.069001 0.595071 2.240172 0.026424 -0.015123 -140828.000000 0 0 1
35.370491 22.885746 33.729256 53.967506 0.574284 0.895675 0.017647 -0.017602 -411136.000000 0 0 1
-35.598074 22.329446 32.884886 53.359562 -0.560227 0.906775 0.022163 -0.007113 -3919.830000 0 0 1
35.886291 21.222346 32.159633 52.654115 0.534055 0.913762 0.025593 -0.009421 303289.000000 0 0 1
-34.920374 20.451146 31.453573 51.254358 -0.529802 0.910088 0.014978 -0.007892 239793.000000 0 0 1
-34.420974 20.925146 30.230723 50.364291 -0.546222 0.926994 0.002011 -0.005435 -453683.000000 0 0 1
-33.283074 20.201346 29.881673 49.079240 -0.545518 0.916192 0.006468 -0.001348 -391584.000000 0 0 1
-33.560674 19.120346 28.771053 48.163056 -0.517861 0.930582 0.020229 -0.001696 -122843.000000 0 0 1
-34.505174 18.149846 29.172493 48.693514 -0.484233 0.928414 0.025318 -0.000388 156675.000000 0 0 1
-34.929674 17.320746 28.110103 48.065251 -0.460342 0.946123 0.029698 -0.015055 -100839.000000 0 0 1
-35.556374 16.033546 28.670933 48.408189 -0.423630 0.936918 0.031140 -0.012601 -480982.000000 0 0 1
-34.648174 15.187446 29.292123 47.845407 -0.413110 0.911926 0.038590 -0.007928 -179549.000000 0 0 1
-35.061674 13.826746 29.236633 47.699902 -0.375631 0.911035 0.023965 -0.010456 -448722.000000 0 0 1
-33.943374 12.868046 29.612043 46.846690 -0.362363 0.886529 0.023579 -0.001412 -1239160.000000 0 0 1
-33.657374 13.027446 30.976263 47.561141 -0.369302 0.861508 0.034511 0.002614 64031.800000 0 0 1
-32.821274 12.070046 31.574073 47.115222 -0.352400 0.836391 0.033135 -0.002158 251864.000000 0 0 1
-31.311974 12.277646 31.261483 45.917978 -0.373684 0.821926 0.039951 -0.004272 -939809.000000 0 0 1
-30.889974 12.133546 29.911263 44.677703 -0.374283 0.837275 0.034750 -0.004524 80298.900000 0 0 1
-29.598074 12.645546 29.679763 43.781779 -0.403768 0.825891 0.034881 0.006304 295981.000000 0 0 1
-28.340674 11.836246 30.069843 42.982392 -0.395622 0.795980 0.031750 0.004720 -257176.000000 0 0 1
-28.243174 10.773946 29.111443 41.967022 -0.364432 0.804219 0.028775 0.001143 574845.000000 0 0 1
-27.097574 9.931446 29.379243 41.183153 -0.351304 0.776486 0.029879 0.000074 499560.000000 0 0 1
-26.939774 8.774346 28.402763 40.118045 -0.314867 0.784163 0.031547 -0.004507 -32334.100000 0 0 1
-27.758174 7.651246 28.575773 40.566398 -0.268961 0.789191 0.034425 -0.008378 348099.000000 0 0 1
-29.120174 7.774446 28.166013 41.252283 -0.260893 0.819243 0.040581 -0.006359 70230.200000 0 0 1
-29.977674 6.479846 28.178973 41.649777 -0.212881 0.827702 0.040903 -0.012284 19040.000000 0 0 1
-30.341874 6.072846 29.482533 42.740245 -0.197537 0.809573 0.038172 -0.008932 190935.000000 0 0 1
-31.024674 4.802546 29.343023 42.972176 -0.153579 0.819156 0.052371 -0.008084 40287.800000 0 0 1
-31.795374 4.400846 30.613363 44.356412 -0.137538 0.809076 0.031584 0.004019 125331.000000 0 0 1
-32.832774 5.326846 30.919153 45.413218 -0.160840 0.821887 0.039455 0.000169 -248351.000000 0 0 1
-33.446974 4.986046 32.116023 46.636892 -0.147983 0.811185 0.048939 -0.000731 613293.000000 0 0 1
-34.793874 5.799546 32.310673 47.835427 -0.165165 0.829215 0.047414 0.002809 777941.000000 0 0 1
-34.765674 7.193546 32.396953 48.062062 -0.204036 0.831098 0.049214 -0.008269 -38005.700000 0 0 1
35.873391 7.724446 32.462223 48.993502 0.212087 0.846535 0.045381 -0.010127 458579.000000 0 0 1
35.735291 9.055746 33.159305 49.583839 0.248187 0.838267 0.037979 0.009618 -125378.000000 0 0 1
35.737691 9.015146 -34.029400 50.164285 0.247103 2.316323 0.049477 0.008843 130644.000000 0 0 1
35.538191 10.256146 -33.466460 49.881414 0.280961 2.306246 0.054537 0.006651 -144915.000000 0 0 1
35.369991 10.269146 -31.929460 48.744046 0.282566 2.285036 0.061830 -0.000888 -433972.000000 0 0 1
34.194191 9.609546 -31.551640 47.508863 0.273962 2.297114 0.054456 0.000309 -309642.000000 0 0 1
34.100491 9.440946 -30.097330 46.452387 0.270091 2.275644 0.051555 0.007902 423497.000000 0 0 1
32.771291 8.797446 -29.598850 45.027153 0.262266 2.288101 0.042965 0.005892 356720.000000 0 0 1
32.819491 7.421446 -29.683620 44.869969 0.222389 2.293677 0.040162 0.004870 1269630.000000 0 0 1
31.520291 6.891746 -29.299190 43.582880 0.215257 2.308059 0.025768 0.007530 968950.000000 0 0 1
34.900296 5.958046 -19.050410 40.205063 0.169086 2.064433 0.023514 -0.021386 -707128.000000 0 0 1
34.505806 7.254646 -18.679910 39.902626 0.207226 2.057978 0.018501 -0.005486 -12243.700000 0 0 1
35.251526 8.359646 -19.079910 40.946266 0.232842 2.055532 0.010507 -0.012391 -332785.000000 0 0 1
-35.184393 8.518646 -18.763410 40.774678 -0.237543 2.048986 0.021739 -0.012125 382211.000000 0 0 1
-34.209141 7.845146 -19.495910 40.148501 -0.225431 2.077840 0.027834 -0.021243 94203.200000 0 0 1
-34.092020 8.315146 -20.792510 40.788920 -0.239232 2.105701 0.018472 -0.015656 -507295.000000 0 0 1
-33.322879 7.322946 -21.764410 40.468869 -0.216319 2.138629 0.015810 -0.006452 366946.000000 0 0 1
-34.073306 6.193046 -22.218710 41.146265 -0.179794 2.141226 0.021091 -0.009760 574341.000000 0 0 1
-34.881708 6.388046 -23.394110 42.483233 -0.181127 2.153959 0.024200 -0.005452 344807.000000 0 0 1
-34.645601 5.270946 -24.385210 42.693548 -0.150981 2.178725 0.043770 -0.008227 1198400.000000 0 0 1
-33.325159 5.295646 -24.991610 41.990364 -0.157591 2.208280 0.057581 -0.006682 1183810.000000 0 0 1
-33.141289 4.140746 -25.722880 42.156344 -0.124298 2.227082 0.070477 -0.015885 -165239.000000 0 0 1
-31.800559 4.050346 -26.489090 41.585487 -0.126685 2.261370 0.087441 -0.016014 -21916.200000 0 0 1
-30.680359 3.818446 -25.691600 40.198548 -0.123822 2.264147 0.074250 -0.018588 -701139.000000 0 0 1
-29.535949 3.465846 -26.401720 39.767263 -0.116809 2.296826 0.073668 -0.014652 73545.100000 0 0 1
-28.214229 3.823846 -25.660240 38.329003 -0.134708 2.304296 0.048035 -0.017175 89802.400000 0 0 1
-28.073669 5.224446 -25.385670 38.208088 -0.183993 2.297495 0.017621 0.001788 -10760.100000 0 0 1
-26.837709 5.496946 -24.767510 36.931133 -0.202028 2.305868 0.021141 -0.006861 -39859.200000 0 0 1
-26.271249 6.909246 -24.935510 36.874054 -0.257173 2.313436 0.006666 -0.001426 -51862.900000 0 0 1
-27.163619 7.867446 -24.366510 37.329422 -0.281918 2.281996 0.004983 0.000942 198582.000000 0 0 1
-26.823389 9.233746 -24.736910 37.638690 -0.331536 2.287921 -0.010930 0.002658 327883.000000 0 0 1
-25.502529 9.792146 -24.070010 36.409209 -0.366609 2.293076 0.029111 0.000782 292845.000000 0 0 1
-25.515639 10.302046 -22.764310 35.712656 -0.383739 2.261954 0.009774 -0.006280 -61246.200000 0 0 1
-24.188709 10.393546 -22.313510 34.511044 -0.405833 2.273865 0.052502 -0.015629 -415384.000000 0 0 1
-24.014809 10.865546 -20.829010 33.594922 -0.424891 2.239545 0.062267 -0.031563 -1226260.000000 0 0 1
-24.290209 12.240146 -20.518810 34.071352 -0.466773 2.217089 0.053431 -0.031660 638783.000000 0 0 1
-25.638639 12.685846 -20.622110 35.263890 -0.459474 2.195422 0.035070 -0.020361 73324.900000 0 0 1
-26.659479 11.967946 -19.703810 35.244853 -0.421955 2.164042 0.025432 -0.018423 -1097260.000000 0 0 1
-26.490849 12.089246 -18.295910 34.389755 -0.428127 2.131776 0.025034 -0.029344 -15835.600000 0 0 1
-27.414569 11.309946 -17.584710 34.477464 -0.391280 2.106022 0.009609 -0.027429 -984594.000000 0 0 1
-26.972599 11.015246 -16.163410 33.318352 -0.387715 2.077297 0.026023 -0.026117 353635.000000 0 0 1
-26.105319 9.902046 -15.903610 32.131962 -0.362545 2.088570 0.036323 -0.025189 142661.000000 0 0 1
-24.842609 9.966146 -16.470510 31.428602 -0.381516 2.122409 0.041061 -0.022454 -1402110.000000 0 0 1
-23.927109 8.750846 -16.128410 30.153100 -0.350618 2.135167 0.038028 -0.021115 -1229210.000000 0 0 1
-22.619109 9.046246 -16.454110 29.397218 -0.380453 2.164840 0.054502 -0.024550 -1065600.000000 0 0 1
-21.851309 8.081746 -15.820410 28.161671 -0.354250 2.167321 0.047721 -0.021043 -391973.000000 0 0 1
-20.346709 8.393446 -15.657610 27.011095 -0.391254 2.189124 0.072142 -0.025445 28454.600000 0 0 1
-19.680409 8.585746 -16.881610 27.313409 -0.411368 2.237082 0.087788 -0.039836 177039.000000 0 0 1
-18.347609 9.019746 -16.685410 26.389268 -0.456908 2.255289 0.096650 -0.042051 -424381.000000 0 0 1
-17.647209 9.542746 -17.962010 26.928086 -0.495715 2.301020 0.077119 -0.030471 -271556.000000 0 0 1
-17.424109 8.593146 -18.996810 27.172054 -0.458173 2.344977 0.100963 -0.039721 -441511.000000 0 0 1
-16.388909 7.713946 -18.799810 26.106209 -0.439918 2.374783 0.099578 -0.033752 -1300690.000000 0 0 1
-16.021009 6.965746 -20.066610 26.605698 -0.410132 2.425265 0.087341 -0.028612 254694.000000 0 0 1
-16.939109 5.944446 -20.461910 27.220573 -0.337503 2.421444 0.086494 -0.021771 325559.000000 0 0 1
-17.938109 6.434246 -21.352010 28.619637 -0.344397 2.412924 0.091937 -0.033338 190399.000000 0 0 1
-18.721209 5.249746 -22.014210 29.371226 -0.273395 2.418127 0.084874 -0.024076 155737.000000 0 0 1
-19.597909 4.545446 -21.138910 29.182060 -0.227906 2.380931 0.095781 -0.026509 477879.000000 0 0 1
-20.231309 3.448046 -21.776110 29.923132 -0.168809 2.385810 0.056322 -0.005541 -571291.000000 0 0 1
-21.255009 2.855746 -20.827910 29.895360 -0.133557 2.341575 0.062093 -0.006425 -700205.000000 0 0 1
-21.893909 1.743846 -21.390410 30.658341 -0.079482 2.342982 0.063695 -0.006864 -377587.000000 0 0 1
-22.850409 1.326446 -20.489110 30.719770 -0.057984 2.300929 0.067032 -0.012755 -1016060.000000 0 0 1
-23.353609 -0.038654 -20.986910 31.398136 0.001655 2.302869 0.066701 -0.005564 -406793.000000 0 0 1
-22.397109 -1.066954 -20.920810 30.666744 0.047602 2.321562 0.063007 -0.013951 19910.500000 0 0 1
-22.873909 -2.356354 -21.274310 31.326736 0.102653 2.317346 0.068962 -0.018992 -332748.000000 0 0 1
-23.247509 -2.645454 -22.724910 32.616969 0.113308 2.341612 0.070461 -0.025670 -240070.000000 0 0 1
-22.181409 -2.579254 -23.612910 32.499800 0.115760 2.384092 0.041749 -0.022821 -638799.000000 0 0 1
-21.355209 -3.689954 -23.751710 32.152829 0.171100 2.401955 0.028688 -0.029312 -132038.000000 0 0 1
-20.224409 -3.495654 -24.789010 32.182935 0.171152 2.450034 0.041845 -0.025717 247211.000000 0 0 1
-20.821909 -3.221454 -26.057710 33.510206 0.153498 2.461644 0.036411 -0.030445 178921.000000 0 0 1
-19.977709 -3.646454 -27.085420 33.852998 0.180539 2.498240 0.042021 -0.030517 -129467.000000 0 0 1
-20.691409 -3.721954 -28.475100 35.395179 0.177976 2.505614 0.038122 -0.030176 289199.000000 0 0 1
-21.652909 -4.764954 -28.525960 36.128710 0.216608 2.480896 0.049083 -0.021779 199399.000000 0 0 1
-22.316709 -4.884254 -29.768510 37.524067 0.215463 2.487036 0.027178 -0.018172 -603002.000000 0 0 1
-21.890209 -6.117454 -30.605680 38.122331 0.272509 2.502820 0.044064 -0.017197 270090.000000 0 0 1
-20.543409 -6.021154 -31.056910 37.720255 0.285109 2.538082 0.036077 -0.016476 191302.000000 0 0 1
-20.138009 -7.330654 -31.344160 37.970176 0.349110 2.541874 0.030425 -0.009031 -32252.100000 0 0 1
-18.732509 -7.432954 -31.992620 37.811155 0.377740 2.579452 0.041575 -0.014522 -198342.000000 0 0 1
-18.573909 -6.974454 -33.331500 38.789457 0.359207 2.604682 0.038904 -0.021740 357048.000000 0 0 1
-19.227209 -7.751154 34.203338 39.995429 0.383206 0.544896 0.035972 -0.014803 -500851.000000 0 0 1
-19.049009 -7.214254 32.776238 38.590051 0.362029 0.556055 0.037119 -0.018837 -1071230.000000 0 0 1
-17.767409 -7.162354 32.263653 37.522306 0.383191 0.535815 0.037936 -0.023248 -975052.000000 0 0 1
-17.160209 -5.943954 32.634656 37.347345 0.333446 0.507804 0.031004 -0.030202 -917819.000000 0 0 1
-15.776009 -5.808054 32.019793 36.164667 0.352758 0.483466 0.023963 -0.030746 -604887.000000 0 0 1
-15.838209 -5.738954 30.633403 34.959832 0.347633 0.502781 0.018498 -0.026636 1529740.000000 0 0 1
-14.540309 -5.442954 30.013703 33.791548 0.358188 0.477381 0.013874 -0.022779 1488390.000000 0 0 1
-14.760909 -5.331254 28.479373 32.517402 0.346594 0.503665 0.016310 -0.005572 242859.000000 0 0 1
-15.624209 -4.225254 28.175013 32.493077 0.264113 0.521429 0.003566 -0.011657 361544.000000 0 0 1
-16.292209 -4.392854 26.909833 31.762751 0.263366 0.560078 0.020188 -0.011377 -180150.000000 0 0 1
-15.500009 -3.962054 25.703663 30.275840 0.250258 0.556739 0.020100 -0.013910 -249816.000000 0 0 1
-15.162209 -2.609554 25.650993 29.911132 0.170439 0.540263 0.019985 -0.000251 -150208.000000 0 0 1
-14.436109 -2.366954 24.466173 28.506093 0.162515 0.538890 0.013196 0.001589 -18559.100000 0 0 1
-14.035909 -0.952354 24.122173 27.924774 0.067747 0.527979 0.020638 -0.010514 105721.000000 0 0 1
-15.050709 -0.219754 23.449723 27.865062 0.014600 0.570658 0.026561 -0.019318 -61330.300000 0 0 1
-14.983309 1.131646 23.947933 28.271606 -0.075384 0.560355 0.021693 -0.005060 -267649.000000 0 0 1
-15.850309 2.182846 23.197423 28.180092 -0.136855 0.603799 0.026813 -0.011514 -121576.000000 0 0 1
-15.371209 2.708546 21.991223 26.967095 -0.174419 0.617232 0.037406 -0.008157 11905.600000 0 0 1
-16.247309 3.718746 21.590623 27.275615 -0.225008 0.657418 0.035176 -0.008215 -111309.000000 0 0 1
-15.587609 4.555646 20.452623 26.115843 -0.284342 0.671081 0.032869 -0.007261 346777.000000 0 0 1
-14.510309 5.296846 20.968823 26.044140 -0.350010 0.634908 0.048509 -0.011149 -80603.400000 0 0 1
-13.366709 5.393846 20.151523 24.775924 -0.383544 0.620907 0.048684 -0.011443 370766.000000 0 1 0
-12.271809 6.376546 20.625923 24.833171 -0.479212 0.590649 0.039838 -0.013917 89618.600000 0 1 0
-12.700109 7.729946 20.644223 25.440692 -0.546757 0.624142 0.043708 -0.020906 -239912.000000 0 0 1
-11.641509 8.651546 20.594323 25.189286 -0.639111 0.613596 0.048591 -0.023234 -141683.000000 0 0 1
-12.076809 10.150846 20.552023 25.908969 -0.698967 0.654685 0.040277 -0.020018 151914.000000 0 0 1
-12.616109 10.567146 19.275723 25.345301 -0.697246 0.706676 0.044922 -0.023250 238280.000000 0 0 1
-13.039009 11.901046 19.407723 26.235670 -0.739802 0.738104 0.022969 -0.018304 -424258.000000 0 0 1
-13.246009 12.640546 18.002723 25.677582 -0.762013 0.793848 0.026478 -0.019689 -578093.000000 0 0 1
-12.160809 13.336446 17.471623 25.119787 -0.831474 0.801636 0.032391 -0.022126 -289586.000000 0 0 1
-11.896909 14.655546 17.937023 26.039552 -0.888921 0.810912 0.036131 -0.028051 -512314.000000 0 0 1
-12.904009 15.723746 17.454723 26.803302 -0.883578 0.861611 0.033098 -0.022983 -143308.000000 0 0 1
-12.797709 16.273846 16.140823 26.251583 -0.904405 0.908599 0.022785 -0.030855 118690.000000 0 0 1
-13.291209 15.411246 15.090923 25.335720 -0.859127 0.932736 0.028458 -0.034599 57078.500000 0 0 1
-13.851109 16.087546 13.797923 25.318868 -0.859960 0.994448 0.027484 -0.034379 219922.000000 0 0 1
-14.979809 16.941846 13.974423 26.583930 -0.846785 1.017292 0.034795 -0.028829 492552.000000 0 0 1
-15.530309 17.429846 12.705623 26.578617 -0.842966 1.072375 0.035373 -0.022672 1029340.000000 0 0 1
-16.837809 18.301346 12.846023 27.990559 -0.827024 1.093993 0.048234 -0.020923 152445.000000 0 0 1
-18.021909 17.637246 13.125123 28.427637 -0.774611 1.090882 0.056207 -0.022063 -799330.000000 0 0 1
-19.062809 18.562446 13.171723 29.689213 -0.772100 1.111125 0.060672 -0.019774 315740.000000 0 0 1
-20.525209 18.098646 13.427823 30.481989 -0.722655 1.114622 0.072648 -0.016733 775655.000000 0 0 1
-21.134409 17.447946 12.330023 30.052014 -0.690139 1.148025 0.068898 -0.019093 -29908.100000 0 0 1
-22.434909 16.975846 12.627823 30.837743 -0.647757 1.148899 0.066204 -0.021495 -144029.000000 0 0 1
-23.038009 16.218146 11.478123 30.422450 -0.613388 1.183927 0.067227 -0.023534 -213509.000000 0 0 1
-22.337009 15.012946 11.185523 29.145265 -0.591762 1.176904 0.057987 -0.021808 252364.000000 0 0 1
-22.827609 14.383746 10.042623 28.789689 -0.562261 1.214477 0.053533 -0.021459 -61429.900000 0 0 1
-22.014109 13.070846 9.780523 27.406690 -0.535810 1.205885 0.070563 -0.027162 -235154.000000 0 0 1
-22.382909 11.872446 10.535323 27.439800 -0.487690 1.176733 0.070684 -0.027485 815090.000000 0 0 1
-23.676009 11.287246 10.305823 28.180939 -0.444865 1.196409 0.068315 -0.012991 558556.000000 0 0 1
-24.037909 10.928946 8.824723 27.841313 -0.426718 1.248268 0.080555 -0.015502 -415684.000000 0 0 1
-24.588809 12.001946 8.097423 28.534620 -0.454087 1.283067 0.086656 -0.016534 429693.000000 0 0 1
-25.671049 11.633146 7.249023 29.101223 -0.425480 1.319049 0.103182 -0.017305 -35907.100000 0 0 1
-26.260769 12.791646 6.438823 29.911748 -0.453275 1.353838 0.084817 -0.011222 62337.300000 0 0 1
-25.522459 13.181846 5.232023 29.198134 -0.476745 1.390633 0.087558 -0.015544 429373.000000 0 0 1
-24.195809 13.604846 5.239023 28.248476 -0.512223 1.384254 0.082209 -0.017821 -1082910.000000 0 0 1
-23.909509 14.989346 5.937123 28.837381 -0.559979 1.363430 0.071179 -0.020143 -67282.300000 0 0 1
-22.541909 15.414346 5.919023 27.942344 -0.599776 1.357349 0.043428 -0.019447 636401.000000 0 0 1
-22.392009 16.608646 6.625723 28.655705 -0.638182 1.337467 0.043081 -0.017162 -445542.000000 0 0 1
-20.993409 17.219046 6.612323 27.945332 -0.686944 1.331914 0.029138 -0.015621 -549714.000000 0 0 1
-20.683209 17.836546 5.370423 27.834852 -0.711631 1.376640 0.042584 -0.016857 57866.800000 0 0 1
-19.308109 18.004046 5.131823 26.893947 -0.750462 1.378802 0.034989 -0.012880 -277647.000000 0 0 1
-18.911609 19.213846 4.297523 27.299992 -0.793325 1.412720 0.048612 -0.007378 144589.000000 0 0 1
-17.505809 19.307746 4.084223 26.380358 -0.834307 1.415350 0.032562 -0.008236 499078.000000 0 0 1
-17.018909 20.442146 3.376023 26.812723 -0.876526 1.444550 0.043547 -0.003181 112751.000000 0 0 1
-17.232409 21.888746 3.895723 28.129163 -0.903864 1.431856 0.047160 -0.012908 105750.000000 0 0 1
-16.349109 22.197146 4.986523 28.015569 -0.935965 1.391852 0.031548 -0.009573 544809.000000 0 0 1
-16.562009 23.568746 5.303323 29.290121 -0.958253 1.388730 0.022978 -0.010781 -110861.000000 0 0 1
-15.988409 24.009546 6.662723 29.605395 -0.983312 1.343801 0.025272 0.003225 97103.900000 0 0 1
-16.671409 23.529546 7.872723 29.892394 -0.954368 1.304284 0.024046 0.004162 426469.000000 0 0 1
-15.937109 23.654346 9.081623 29.933183 -0.977906 1.262541 0.028943 -0.000853 -207200.000000 0 0 1
-16.578909 22.927246 10.277623 30.102299 -0.944728 1.222366 0.025299 0.002494 -162799.000000 0 0 1
-17.845509 23.441046 10.555323 31.294723 -0.920107 1.226762 0.027061 -0.002323 -465511.000000 0 0 1
-18.809209 22.468446 10.904023 31.265239 -0.873816 1.214550 0.031466 -0.008870 425562.000000 0 0 1
-20.124509 23.065346 11.467123 32.687933 -0.853384 1.212365 0.046970 -0.011102 251460.000000 0 0 1
-21.050309 23.717146 10.623423 33.443619 -0.844899 1.247544 0.050051 -0.005190 144450.000000 0 0 1
-20.655709 25.021046 10.169823 34.002005 -0.880679 1.267052 0.024372 -0.004437 65773.300000 0 0 1
-21.865309 25.858746 9.665723 35.216370 -0.868881 1.292761 0.024673 -0.009563 610345.000000 0 0 1
-22.790109 26.260546 10.684423 36.375297 -0.856033 1.272672 0.045254 -0.020633 292286.000000 0 0 1
-23.501309 27.399446 10.328123 37.546122 -0.861832 1.292125 0.044498 -0.020354 -492930.000000 0 0 1
-24.388109 27.890446 11.472123 38.784874 -0.852292 1.270515 0.045482 -0.017199 -248749.000000 0 0 1
-23.677309 28.441546 12.541823 39.074721 -0.876556 1.244043 0.043042 -0.017712 586939.000000 0 0 1
-24.575109 28.469146 13.649323 40.009153 -0.858678 1.222651 0.040850 -0.013661 374139.000000 0 0 1
8.706991 -33.225213 28.327663 44.521714 -1.314500 0.881148 0.024026 -0.014262 42155.700000 0 0 1
10.077491 -33.481013 28.064973 44.834995 -1.278430 0.894433 0.008086 -0.019715 502091.000000 0 0 1
10.421791 -32.973713 26.773053 43.734150 -1.264668 0.911985 0.016006 -0.010643 -376536.000000 0 0 1
11.898491 -33.090313 26.389693 43.965428 -1.225616 0.926998 -0.000979 0.002570 -248587.000000 0 0 1
12.324791 34.299846 25.979103 44.758169 1.225838 0.951536 0.014269 -0.024446 -1074030.000000 0 0 1
13.679891 34.188546 26.181483 45.182587 1.190177 0.952731 0.026740 -0.014275 -1393500.000000 0 0 1
14.197891 32.829846 25.758913 44.078345 1.162616 0.946669 0.042966 -0.009306 -220496.000000 0 0 1
14.278591 32.649446 24.378353 43.176019 1.158528 0.970815 0.045613 -0.019092 454674.000000 0 0 1
15.323091 31.707346 24.161473 42.707490 1.120625 0.969462 0.047934 -0.020719 -31101.200000 0 0 1
15.493591 31.248646 22.717223 41.624530 1.110501 0.993494 0.060017 -0.028975 -277463.000000 0 0 1
14.606591 30.313346 22.151823 40.285912 1.121771 0.988593 0.054263 -0.021285 -227874.000000 0 0 1
14.957491 28.940146 22.317023 39.488076 1.093766 0.970171 0.065816 -0.021851 312034.000000 0 0 1
14.404091 28.196246 23.617623 39.500611 1.098505 0.929911 0.070699 -0.024743 573191.000000 0 0 1
15.230891 28.534746 24.733753 40.718182 1.080502 0.917965 0.073482 -0.026269 771272.000000 0 0 1
14.566391 28.081046 25.903223 40.886451 1.092280 0.884676 0.076656 -0.029425 52976.400000 0 0 1
15.425991 28.427446 27.135563 42.218713 1.073618 0.872730 0.071652 -0.034686 121900.000000 0 0 1
15.522191 29.804946 27.399383 43.358960 1.090653 0.886769 0.067402 -0.025546 150465.000000 0 0 1
16.388691 29.967246 28.498583 44.483641 1.070346 0.875448 0.072272 -0.030462 93786.200000 0 0 1
16.144091 31.384846 29.192743 45.802364 1.095702 0.879725 0.070158 -0.036057 48986.900000 0 0 1
16.608491 32.495046 28.437923 46.265381 1.098302 0.908829 0.063911 -0.028190 150334.000000 0 0 1
16.204991 33.684546 29.048233 47.339732 1.122398 0.910169 0.049875 -0.013794 -183676.000000 0 0 1
16.858891 -33.733713 28.437393 47.232097 -1.107338 0.924696 0.040245 -0.015553 -308898.000000 0 0 1
16.492891 -33.435313 27.097693 46.089268 -1.112541 0.942287 0.054926 -0.016148 -168127.000000 0 0 1
16.819991 -32.145513 26.690733 45.040442 -1.088726 0.936520 0.034580 -0.015115 773629.000000 0 0 1
18.337691 -31.813113 26.378953 45.212767 -1.047896 0.947838 0.052061 -0.007443 1138090.000000 0 0 1
19.036091 -31.464013 27.594983 45.976516 -1.026700 0.927048 0.043414 -0.005471 767769.000000 0 0 1
20.134691 -30.576413 27.273603 45.652736 -0.988466 0.930523 0.052274 -0.002208 636133.000000 0 0 1
20.385291 -29.503413 28.330313 45.701402 -0.966172 0.902181 0.037439 -0.003424 221281.000000 0 0 1
19.286691 -28.600713 28.371453 44.664490 -0.977498 0.882512 0.040085 -0.002062 328239.000000 0 0 1
19.482791 -27.717513 29.472393 44.905029 -0.958123 0.854856 0.041834 0.001645 123659.000000 0 0 1
18.186191 -26.978813 29.869023 44.167324 -0.977671 0.828109 0.050326 -0.007934 183256.000000 0 0 1
17.661191 -26.095713 28.868473 42.735146 -0.975821 0.829126 0.048849 -0.013468 514671.000000 0 0 1
16.475291 -25.444713 29.306983 42.163585 -0.996185 0.802268 0.034590 -0.011082 67736.100000 0 0 1
15.722791 -24.700813 28.198093 40.650570 -1.003949 0.804224 0.027533 -0.012414 -1018610.000000 0 0 1
15.298091 -25.575313 27.249363 40.381382 -1.031732 0.830102 0.022743 -0.005297 437085.000000 0 0 1
14.465191 -25.087213 26.184933 39.041782 -1.047763 0.835658 0.021038 0.000319 776203.000000 0 0 1
12.999191 -24.682813 26.627453 38.564770 -1.086057 0.808671 -0.000537 0.003846 805097.000000 0 0 1
12.037091 -25.691213 26.978463 39.150575 -1.132641 0.810557 0.007462 0.008139 560832.000000 0 0 1
11.729691 -26.593313 25.932173 38.952119 -1.155388 0.842305 0.000078 0.002865 -885988.000000 0 0 1
10.983191 -27.820113 26.418753 39.906638 -1.194787 0.847294 0.011350 -0.002166 -518624.000000 0 0 1
9.629491 -27.717013 26.792103 39.733824 -1.236420 0.830794 0.001582 -0.005384 -171659.000000 0 0 1
9.163091 -29.034713 26.906303 40.631588 -1.265098 0.847043 0.011970 -0.004664 231378.000000 0 0 1
7.629991 -29.112813 27.258123 40.605147 -1.314478 0.834839 0.010308 -0.003197 954758.000000 0 0 1
6.628391 -28.883913 26.261683 39.596616 -1.345218 0.845669 0.020356 -0.010164 548634.000000 0 0 1
6.672391 -27.578913 25.729993 38.303392 -1.333420 0.834239 0.039670 -0.014926 -1023170.000000 0 0 1
5.531891 -27.282713 24.732173 37.237463 -1.370747 0.844407 0.038249 -0.019278 -803266.000000 0 0 1
5.432391 -27.983713 23.513253 36.952296 -1.379054 0.881086 0.018961 -0.013497 -39246.200000 0 0 1
4.758791 -29.236413 23.611093 37.880043 -1.409442 0.897825 0.015363 -0.006078 -363860.000000 0 0 1
3.269091 -29.188913 24.003493 37.932141 -1.459263 0.885631 0.037187 -0.018357 -1255200.000000 0 0 1
2.511291 -28.688013 22.951923 36.825256 -1.483481 0.897884 0.035416 -0.013529 935230.000000 0 0 1
1.169191 -28.223713 23.266323 36.595994 -1.529394 0.881802 0.052426 -0.020362 1228440.000000 0 0 1
1.071791 -26.840913 23.886813 35.946672 -1.530886 0.843962 0.049334 -0.019597 -340997.000000 0 0 1
1.506591 -26.720413 25.249773 36.794040 -1.514472 0.814481 0.045102 -0.022366 187402.000000 0 0 1
1.412391 -25.351713 25.587263 36.047362 -1.515142 0.781549 0.050361 -0.018350 -463136.000000 0 0 1
2.717891 -24.785513 26.135813 36.121868 -1.461576 0.761871 0.067029 -0.015597 -882647.000000 0 0 1
3.708091 -24.526613 25.186563 35.350639 -1.420746 0.777773 0.061545 -0.013802 -182576.000000 0 0 1
4.775591 -23.696213 25.618363 35.222398 -1.371926 0.756371 0.063608 -0.023409 140397.000000 0 0 1
4.430091 -22.278413 26.237623 34.703981 -1.374506 0.713554 0.059923 -0.007007 -534391.000000 0 0 1
4.207391 -21.345313 25.212413 33.301506 -1.376180 0.711941 0.055557 -0.007236 -365255.000000 0 0 1
3.326591 -20.334513 25.489443 32.776064 -1.408639 0.679822 0.063886 -0.017430 -807822.000000 0 0 1
3.186891 -19.307813 24.377723 31.260540 -1.407214 0.676411 0.070431 -0.017694 -129083.000000 0 0 1
4.343791 -18.533113 24.137093 30.739943 -1.340572 0.667773 0.077386 -0.012737 106525.000000 0 0 1
4.623691 -18.513513 22.713223 29.665118 -1.326056 0.698739 0.080164 -0.019033 327238.000000 0 0 1
5.812591 -17.574213 22.318323 28.995633 -1.251377 0.692404 0.064469 -0.012814 828819.000000 0 0 1
7.091091 -18.009013 22.757223 29.874728 -1.195687 0.704779 0.055687 -0.021882 -704323.000000 0 0 1
8.058691 -17.354113 22.027323 29.177230 -1.136059 0.715220 0.034884 -0.015957 -286332.000000 0 0 1
9.437791 -17.480713 22.739923 30.195221 -1.075743 0.718040 0.040226 -0.011294 68995.400000 0 0 1
9.486991 -16.736413 23.944983 30.716002 -1.055111 0.676832 0.057049 -0.008564 -290916.000000 0 0 1
10.613191 -17.005113 24.730203 31.833892 -1.012832 0.681146 0.048867 -0.002999 -585023.000000 0 0 1
10.773591 -16.247513 26.106653 32.582347 -0.985273 0.641412 0.062399 -0.012952 -267101.000000 0 0 1
10.999391 -14.856213 25.889773 31.811540 -0.933474 0.620052 0.068688 -0.006742 258001.000000 0 0 1
11.032691 -14.146313 27.066223 32.471817 -0.908433 0.585330 0.064189 -0.005588 -14019.600000 0 0 1
11.320391 -12.625913 26.846463 31.753701 -0.839863 0.563372 0.058525 -0.004057 279195.000000 0 0 1
10.217791 -12.013413 26.191753 30.573408 -0.865994 0.541989 0.061073 -0.001683 415602.000000 0 0 1
10.439291 -10.596113 26.056443 30.003244 -0.792853 0.518721 0.060841 0.004989 32244.400000 0 0 1
9.316691 -9.877413 25.281513 28.697020 -0.814603 0.492866 0.062963 0.007339 -128013.000000 0 0 1
8.143691 -9.668613 26.043163 28.949061 -0.870801 0.451897 0.059597 0.000230 -183707.000000 0 0 1
7.219091 -8.993513 25.217683 27.729589 -0.894411 0.428923 0.060974 -0.000553 -89646.000000 0 0 1
5.751891 -9.120613 25.659043 27.832649 -1.008146 0.397828 0.050241 0.002880 -698028.000000 0 0 1
5.222291 -8.109313 26.548293 28.246153 -0.998660 0.348487 0.042482 0.001760 165652.000000 0 0 1
3.877491 -8.373913 26.894833 28.433949 -1.137148 0.330530 0.030468 0.000895 589885.000000 0 0 1
2.778091 -8.148413 25.822683 27.219945 -1.242219 0.321800 0.029162 0.001889 -460085.000000 0 0 1
2.697891 -6.847713 25.300523 26.349313 -1.195487 0.283091 0.029708 -0.001192 -74194.700000 0 0 1
1.678691 -6.726513 24.325673 25.294315 -1.326229 0.277639 0.030671 -0.011927 -29352.100000 0 0 1
1.748391 -5.504613 23.404323 24.106431 -1.263251 0.241941 0.023293 -0.020672 -248967.000000 0 1 0
1.496191 -4.315713 24.129363 24.557894 -1.237078 0.187087 0.022180 -0.011650 274943.000000 0 1 0
1.938091 -3.166213 23.339823 23.633207 -1.021515 0.157733 0.022282 -0.017607 -60955.900000 0 1 0
0.841591 -2.670213 22.307823 22.482822 -1.265474 0.124850 0.006363 -0.022673 1640780.000000 0 1 0
-0.368009 -1.980213 22.672623 22.761910 1.387049 0.088602 0.005484 -0.025904 756082.000000 0 1 0
-1.093009 -2.559213 23.730743 23.893355 1.167159 0.116734 0.024143 -0.015816 -640498.000000 0 1 0
-1.937709 -1.444213 24.436273 24.555487 0.640499 0.098578 0.034577 -0.013338 900234.000000 0 1 0
-1.110709 -0.533213 25.212873 25.242959 0.447573 0.048828 0.037520 -0.019368 982064.000000 0 0 1
-1.999909 0.403787 25.831943 25.912391 -0.199224 0.078819 0.036658 -0.007188 64747.500000 0 0 1
-1.468409 1.138787 27.078953 27.142638 -0.659637 0.068516 0.049150 -0.016237 -390296.000000 0 0 1
-1.493109 0.620787 28.376183 28.422219 -0.394025 0.056924 0.052853 -0.027150 169296.000000 0 0 1
-0.727509 -0.584213 28.592433 28.607653 0.676587 0.032621 0.060116 -0.026522 1254070.000000 0 0 1
0.739291 -0.257213 29.170183 29.180684 -0.334820 0.026828 0.054627 -0.024939 676069.000000 0 0 1
1.613491 0.382787 28.273913 28.322501 0.232935 0.058583 0.053921 -0.018796 -65855.800000 0 0 1
2.202991 -0.416213 27.259183 27.351225 -0.186730 0.082061 0.046141 -0.018773 190664.000000 0 0 1
3.286291 -1.443213 27.749913 27.981070 -0.413804 0.128628 0.042826 -0.021507 -386437.000000 0 0 1
2.691191 -2.585213 28.320093 28.564900 -0.765316 0.131015 0.044338 -0.021169 53882.200000 0 0 1
3.588091 -3.622213 28.746113 29.194758 -0.790131 0.175538 0.038364 -0.014238 298518.000000 0 0 1
4.233991 -4.399713 27.565633 28.233815 -0.804591 0.217991 0.047989 -0.014232 131651.000000 0 0 1
5.199991 -3.716213 26.805783 27.557216 -0.620496 0.234064 0.050759 -0.011864 -296867.000000 0 0 1
5.576291 -4.432213 25.643073 26.614033 -0.671582 0.270950 0.055511 -0.010875 -1064670.000000 0 0 1
6.701191 -3.752413 24.830673 25.991324 -0.510460 0.299972 0.062170 -0.009999 660882.000000 0 0 1
7.913191 -3.708213 25.629053 27.077995 -0.438223 0.328616 0.057653 -0.008251 570547.000000 0 0 1
8.656291 -4.881713 25.775923 27.625364 -0.513490 0.367989 0.061157 -0.003691 -934416.000000 0 0 1
9.549391 -5.334313 24.638513 26.957413 -0.509424 0.417811 0.049853 -0.003550 -725296.000000 0 0 1
8.820091 -6.005813 23.627823 25.925621 -0.597808 0.424197 0.050516 -0.009509 -177357.000000 0 0 1
9.360391 -6.052113 22.318923 24.947532 -0.573958 0.463184 0.054999 -0.012307 -261250.000000 0 1 0
9.290191 -4.720613 21.508423 23.899877 -0.470129 0.451167 0.049016 -0.015740 599947.000000 0 1 0
7.976291 -4.306513 21.136023 22.997799 -0.495067 0.405144 0.042976 -0.020444 31369.400000 0 1 0
8.001291 -3.258213 20.250023 22.015905 -0.386707 0.403250 0.032545 -0.021577 835412.000000 0 1 0
6.631391 -2.487213 20.143023 21.351884 -0.358829 0.338108 0.029616 -0.014081 822967.000000 0 1 0
6.319791 -1.676213 21.263323 22.245862 -0.259263 0.298316 0.031649 -0.009513 343288.000000 0 1 0
5.017791 -1.102213 21.131223 21.746763 -0.216227 0.238493 0.018527 -0.008193 206604.000000 0 1 0
4.567491 -0.386213 22.402423 22.866563 -0.084356 0.201826 0.018096 -0.007426 -108275.000000 0 1 0
3.289991 0.181787 22.203123 22.446287 0.055198 0.147328 0.017881 -0.013325 -104881.000000 0 1 0
2.724291 0.519787 23.470623 23.633919 0.188531 0.117621 0.030933 -0.015450 -399900.000000 0 1 0
1.276591 0.975787 23.489423 23.544317 0.652634 0.068299 0.039059 -0.021707 -639194.000000 0 1 0
0.955091 2.237787 22.913623 23.042440 1.167401 0.105789 0.041149 -0.020197 -349566.000000 0 1 0
-0.424609 2.445787 22.852823 22.987251 -1.398901 0.108200 0.025634 -0.016421 -447971.000000 0 1 0
-0.789509 3.862787 22.494323 22.837229 -1.369185 0.173510 0.022794 -0.008693 -265073.000000 0 1 0
-0.576909 4.858787 23.490523 23.994694 -1.452614 0.205357 0.028174 -0.004942 261016.000000 0 1 0
-1.334909 6.045787 23.205023 24.016799 -1.353483 0.260739 0.023864 -0.005694 199393.000000 0 1 0
-1.084109 7.232787 24.158263 25.241042 -1.422016 0.293965 0.034699 0.001529 -315491.000000 0 0 1
0.045591 8.013787 23.917653 25.224532 1.565107 0.323306 0.033356 -0.000805 -555626.000000 0 0 1
-0.081009 9.262787 24.526683 26.217627 -1.562051 0.361115 0.039457 0.003748 -1099690.000000 0 0 1
0.667791 10.388787 23.878903 26.049470 1.506605 0.411116 0.034201 -0.003964 201015.000000 0 0 1
2.089691 10.341787 23.893823 26.119613 1.371418 0.415822 0.022791 -0.001262 201727.000000 0 0 1
2.680091 10.547787 25.222353 27.470089 1.321972 0.407347 0.031522 -0.007755 146127.000000 0 0 1
4.058191 11.324787 25.089553 27.824547 1.226706 0.447098 0.017750 -0.015905 359970.000000 0 0 1
5.166991 10.722787 24.533213 27.268196 1.121758 0.451713 0.013751 -0.017312 -417924.000000 0 0 1
5.004691 10.239787 23.241723 25.885862 1.116190 0.455925 0.012029 -0.020212 -665609.000000 0 0 1
6.386691 9.879787 22.606823 25.484671 0.996928 0.479826 0.007975 -0.022146 1012780.000000 0 0 1
7.153691 10.993787 22.104623 25.703171 0.993927 0.535535 0.011514 -0.020782 670123.000000 0 0 1
8.487691 10.600787 21.786423 25.672277 0.895649 0.557395 0.016124 -0.019844 369651.000000 0 0 1
9.221491 11.729787 21.037123 25.791168 0.904551 0.616907 0.020915 -0.026942 -481208.000000 0 0 1
8.765791 11.899787 19.726423 24.649053 0.935904 0.643015 0.019162 -0.027485 39421.800000 0 1 0
9.412191 12.960787 19.037323 24.879530 0.942699 0.699475 0.039115 -0.024731 318910.000000 0 1 0
10.824591 12.630787 18.463523 24.851765 0.862252 0.733335 0.044897 -0.032243 563092.000000 0 1 0
11.861691 12.541787 19.423923 25.986245 0.813260 0.726552 0.054246 -0.036175 62658.200000 0 0 1
13.144791 12.419787 18.849923 26.121949 0.757046 0.764668 0.053338 -0.037474 -193767.000000 0 0 1
14.264491 12.360787 19.865423 27.402551 0.714020 0.759837 0.062912 -0.028273 -444835.000000 0 0 1
14.740991 13.593787 20.366623 28.581239 0.744933 0.777617 0.061202 -0.028965 688633.000000 0 0 1
15.869491 13.329787 21.231723 29.670019 0.698638 0.773320 0.060525 -0.027676 843394.000000 0 0 1
16.596891 14.545787 21.861223 31.063641 0.719632 0.790126 0.059680 -0.022751 131706.000000 0 0 1
15.945691 15.209787 22.922723 31.797074 0.761782 0.765687 0.070818 -0.023603 149940.000000 0 0 1
16.899091 16.081787 23.513283 33.122162 0.760622 0.781446 0.057895 -0.018849 100831.000000 0 0 1
-20.908109 12.772746 -25.407650 35.296469 -0.548395 2.374362 0.043164 -0.006420 160877.000000 0 0 1
-20.730109 12.585946 -26.786300 36.133770 -0.545648 2.405815 0.047761 -0.017042 120975.000000 0 0 1
-21.431509 13.619746 -27.470110 37.408742 -0.566115 2.395466 0.047771 -0.009363 17581.900000 0 0 1
-21.154009 13.643846 -28.952900 38.365571 -0.572836 2.425930 0.050205 -0.013731 -510297.000000 0 0 1
-19.892609 14.152346 -29.261430 38.108215 -0.618361 2.446276 0.055073 -0.010692 -564704.000000 0 0 1
-19.689809 14.434946 -30.631410 39.170646 -0.632609 2.468663 0.058566 -0.027708 -285843.000000 0 0 1
-18.267009 14.855246 -31.001470 38.928821 -0.682755 2.492054 0.041649 -0.022827 -1228260.000000 0 0 1
-17.310309 13.904546 -31.018940 38.146531 -0.676721 2.520344 0.033810 -0.025421 -1344690.000000 0 0 1
-16.040909 14.493546 -30.913790 37.723150 -0.734766 2.531319 0.015640 -0.016102 24325.300000 0 0 1
-15.197209 13.928346 -29.724680 36.173341 -0.741860 2.535235 0.037543 -0.009567 -157142.000000 0 0 1
-15.607109 14.293746 -28.428240 35.440907 -0.741502 2.501651 0.031267 -0.002417 -254444.000000 0 0 1
-16.324109 13.243146 -27.814010 34.863686 -0.681571 2.494422 0.059806 -0.002411 -134128.000000 0 0 1
-16.980109 13.702546 -26.503590 34.329640 -0.678980 2.452829 0.053355 -0.013182 -887408.000000 0 0 1
-16.104009 14.283446 -25.661140 33.494030 -0.725558 2.443611 0.049679 -0.009184 -802521.000000 0 0 1
-16.786109 14.575046 -24.465710 33.057169 -0.715011 2.404020 0.046683 -0.005076 290287.000000 0 0 1
-15.928309 15.162646 -23.267410 32.015453 -0.760777 2.384383 0.051173 -0.001989 340639.000000 0 0 1
-15.307109 16.380546 -23.574010 32.532504 -0.819261 2.381293 0.030143 0.000129 -347377.000000 0 0 1
-14.836409 16.990946 -22.402010 31.790900 -0.852990 2.352751 0.031363 0.002289 -430748.000000 0 0 1
-14.488909 18.474146 -22.647110 32.620763 -0.905714 2.338180 0.023743 -0.001997 378043.000000 0 0 1
-15.556609 19.404946 -22.806610 33.744651 -0.895030 2.312925 0.012960 0.001764 1050780.000000 0 0 1
-16.549009 19.149846 -23.855010 34.779992 -0.858125 2.326613 0.000407 0.007642 1024990.000000 0 0 1
-17.818109 20.053846 -23.905410 35.932024 -0.844364 2.298686 0.018605 -0.006173 266815.000000 0 0 1
-17.607509 21.419646 -24.219710 36.816029 -0.882768 2.288767 0.015995 -0.010010 287958.000000 0 0 1
-18.805209 22.211346 -24.253710 37.884327 -0.868251 2.265561 0.053862 -0.026647 542161.000000 0 0 1
-18.478509 23.677046 -24.505810 38.763288 -0.908097 2.255174 0.037621 -0.027362 -29193.000000 0 0 1
-17.902709 24.213746 -23.321210 38.087942 -0.934139 2.229762 0.044303 -0.021466 -417799.000000 0 0 1
-17.192609 25.369146 -23.708510 38.746262 -0.975196 2.229246 0.031980 -0.016992 -566394.000000 0 0 1
-16.097709 25.662946 -22.667710 37.835805 -1.010563 2.213182 0.019571 -0.020535 328894.000000 0 0 1
-14.951909 24.799746 -22.578210 36.720057 -1.028243 2.233023 0.029002 -0.031916 411223.000000 0 0 1
-15.216909 23.425146 -22.242410 35.707375 -0.994704 2.243251 0.029366 -0.016534 -1869790.000000 0 0 1
-13.998009 22.592446 -22.024710 34.517397 -1.016098 2.262793 0.032757 -0.015014 -909226.000000 0 0 1
-13.423909 22.950646 -20.799310 33.757144 -1.041551 2.234636 0.037056 -0.013537 346750.000000 0 0 1
-12.258909 22.147946 -20.510910 32.580819 -1.065269 2.251757 0.036564 -0.009252 621967.000000 0 0 1
-11.620509 22.479746 -19.137210 31.727087 -1.093695 2.218281 0.038903 -0.014673 184639.000000 0 0 1
-12.316609 22.060046 -17.946910 30.990903 -1.061586 2.188424 0.048163 -0.011180 25291.800000 0 0 1
-13.315509 22.957846 -17.512810 31.797232 -1.045214 2.154077 0.044646 -0.016653 278260.000000 0 0 1
-14.039409 22.646746 -16.177910 31.172181 -1.015851 2.116460 0.059981 -0.014445 669622.000000 0 0 1
-13.184909 23.102646 -15.116610 30.595522 -1.052192 2.087572 0.071337 -0.026177 138018.000000 0 0 1
-13.877109 23.350546 -13.938910 30.530565 -1.034582 2.044917 0.074862 -0.025080 -230645.000000 0 0 1
-13.017709 23.815046 -12.729010 29.977406 -1.070554 2.009339 0.085657 -0.019512 -159409.000000 0 0 1
-12.657309 25.173046 -12.932510 31.002251 -1.104902 2.001101 0.075188 -0.020408 310569.000000 0 0 1
-11.636609 25.498046 -12.001910 30.489455 -1.142656 1.975386 0.045943 -0.015794 168947.000000 0 0 1
-11.052309 26.963746 -12.131210 31.565224 -1.181789 1.965270 0.070227 -0.015913 118160.000000 0 0 1
-10.308409 27.192046 -13.292110 31.974222 -1.208439 1.999523 0.066821 -0.024853 -90876.000000 0 0 1
-10.148109 28.625746 -13.518310 33.243979 -1.230109 1.989569 0.046211 -0.006530 -273092.000000 0 0 1
-9.508509 28.965846 -14.924310 33.943586 -1.253613 2.026038 0.081205 -0.029740 1714570.000000 0 0 1
-8.073809 28.882246 -15.119610 33.585311 -1.298212 2.037769 0.049706 -0.034126 760341.000000 0 0 1
-7.486609 27.613046 -15.031910 32.318539 -1.306035 2.054563 0.054950 -0.026393 -1432030.000000 0 0 1
-6.027709 27.741746 -15.375810 32.285497 -1.356843 2.067176 0.043291 -0.022193 -868136.000000 0 0 1
-5.438209 28.698846 -14.536510 32.626799 -1.383524 2.032573 0.024987 -0.015608 -887495.000000 0 0 1
-4.050709 28.776646 -14.680410 32.557918 -1.430951 2.038571 0.034557 -0.018115 -348469.000000 0 0 1
-3.265509 29.927146 -14.039110 33.217378 -1.462111 2.007157 0.005321 -0.010885 91502.900000 0 0 1
-3.648109 31.195946 -14.558510 34.618578 -1.454383 2.004837 -0.002629 -0.007864 -160148.000000 0 0 1
-4.717909 31.755046 -13.842010 34.960590 -1.423303 1.977879 -0.001831 -0.009604 -163708.000000 0 0 1
-4.749809 33.276646 -14.074810 36.441681 -1.429017 1.967335 -0.000297 -0.007704 -531401.000000 0 0 1
-3.680009 33.945146 -13.485210 36.710575 -1.462808 1.946942 -0.031334 0.001081 -403236.000000 0 0 1
-3.869609 -33.372013 -13.663910 36.267997 1.455358 1.957080 -0.012664 -0.000500 341334.000000 0 0 1
-2.838709 -32.607913 -12.807510 35.147782 1.483959 1.943774 -0.015366 0.001549 -138026.000000 0 0 1
-2.951309 -32.793113 -11.368610 34.833085 1.481040 1.903261 -0.018970 -0.003516 -121824.000000 0 0 1
-2.014209 -32.058913 -10.648410 33.841093 1.508050 1.890894 -0.026251 -0.003039 -127964.000000 0 0 1
-2.555209 -31.936013 -9.201110 33.333144 1.490956 1.850463 -0.027729 -0.005938 -446464.000000 0 0 1
-1.590909 -31.390213 -8.387210 32.530321 1.520158 1.831569 -0.018687 -0.016193 -731933.000000 0 0 1
-2.025309 -31.305113 -7.038810 32.150534 1.506191 1.791517 -0.022886 -0.015727 -409975.000000 0 0 1
-0.976209 -30.798013 -6.047910 31.401398 1.539110 1.764607 -0.000745 -0.019551 -126619.000000 0 0 1
-1.373409 -30.893813 -4.734710 31.284684 1.526370 1.722723 0.007214 -0.019241 29856.900000 0 0 1
-0.426709 -30.171413 -3.945410 30.431275 1.556654 1.700812 0.011895 -0.025821 35114.900000 0 0 1
-0.562309 -30.288413 -2.376510 30.386707 1.552233 1.649085 0.020012 -0.021261 -318242.000000 0 0 1
-0.257109 -31.602513 -1.828910 31.656435 1.562661 1.628602 0.022929 -0.011357 350800.000000 0 0 1
0.955491 -32.254313 -2.193210 32.342911 -1.541181 1.638660 0.024195 -0.014266 1405700.000000 0 0 1
2.307491 -31.645413 -1.592710 31.769379 -1.498008 1.620951 0.048718 -0.023398 390160.000000 0 0 1
2.349591 -31.938913 -0.194210 32.025810 -1.497363 1.576861 0.048019 -0.018944 131543.000000 0 0 1
3.678991 -32.037113 0.275190 32.248835 -1.456462 1.562263 0.056455 -0.016566 554242.000000 0 0 1
4.432591 -30.650913 0.565690 30.974931 -1.427177 1.552532 0.040690 -0.019701 -197838.000000 0 0 1
4.770191 -29.975713 -0.579210 30.358419 -1.412984 1.589877 0.035629 -0.028323 -57369.500000 0 0 1
4.479691 -28.595913 -0.476010 28.948583 -1.415404 1.587240 0.044215 -0.020112 -1027610.000000 0 0 1
4.232891 -28.026713 -1.890310 28.407522 -1.420899 1.637388 0.035112 -0.019252 677068.000000 0 0 1
2.929291 -28.438313 -2.354610 28.685582 -1.468153 1.652972 0.027676 -0.015893 780875.000000 0 0 1
2.340791 -27.522313 -3.253010 27.812571 -1.485950 1.688027 0.020068 -0.013418 39630.400000 0 0 1
2.834291 -27.458313 -4.765510 28.012538 -1.467939 1.741748 0.019479 -0.016313 -60776.200000 0 0 1
2.195891 -28.474013 -5.526910 29.088453 -1.493830 1.761962 0.015936 -0.018999 195488.000000 0 0 1
2.593291 -28.228213 -6.894810 29.173543 -1.479185 1.809391 0.032761 -0.019439 -184499.000000 0 0 1
1.930091 -29.041313 -7.997910 30.184262 -1.504434 1.838969 0.018424 -0.018113 -1430690.000000 0 0 1
0.655091 -28.590413 -8.232210 29.759203 -1.547887 1.851079 0.006975 -0.011653 -1434000.000000 0 0 1
0.347791 -28.518313 -9.625010 30.100764 -1.558602 1.896272 0.011238 -0.007456 543262.000000 0 0 1
-1.089909 -27.998013 -9.913810 29.721378 1.531888 1.910872 -0.012203 -0.001036 -51709.000000 0 0 1
-1.204109 -26.635013 -9.508110 28.306854 1.525619 1.913351 0.002583 0.003818 370954.000000 0 0 1
-2.534209 -26.114913 -9.366510 27.859333 1.474059 1.913683 0.012371 -0.008659 1073190.000000 0 0 1
-3.388309 -26.741513 -8.185510 28.170761 1.444762 1.865616 0.016530 -0.004034 -286463.000000 0 0 1
-3.043509 -26.548313 -6.818710 27.578446 1.456654 1.820635 0.024484 -0.011517 576345.000000 0 0 1
-1.909109 -27.356813 -6.380210 28.155763 1.501124 1.799386 0.016197 -0.016876 1273110.000000 0 0 1
-1.365609 -26.978213 -4.944410 27.461538 1.520221 1.751832 0.024975 -0.013930 526941.000000 0 0 1
-2.292009 -27.344913 -3.919510 27.719310 1.487173 1.712672 0.031211 -0.020469 257782.000000 0 0 1
-1.870309 -26.713513 -2.750510 26.919791 1.500897 1.673149 0.034772 -0.019811 -408670.000000 0 0 1
-2.891309 -26.777213 -1.639810 26.982732 1.463237 1.631606 0.024880 -0.017896 -974847.000000 0 0 1
-3.997509 -25.963613 -1.829010 26.333146 1.418030 1.640309 0.026168 -0.014217 -974235.000000 0 0 1
-4.807109 -25.967613 -0.667610 26.417247 1.387749 1.596071 0.030081 -0.022054 1367680.000000 0 0 1
-6.151709 -25.171313 -1.107610 25.935793 1.331101 1.613515 0.038963 -0.013647 1342350.000000 0 0 1
-5.955309 -23.784713 -1.125210 24.544743 1.325456 1.616656 0.031226 -0.017389 -108538.000000 0 1 0
-6.642909 -23.171513 -0.056410 24.104988 1.291600 1.573137 0.035265 -0.012841 -162255.000000 0 1 0
-6.072909 -21.785113 0.373490 22.618817 1.298934 1.554283 0.015613 -0.014290 979320.000000 0 1 0
-4.936909 -21.822513 1.275490 22.410311 1.348311 1.513850 0.012922 -0.015252 674897.000000 0 1 0
-4.445509 -20.521013 1.515990 21.051669 1.357461 1.498721 -0.003045 -0.004025 486931.000000 0 1 0
-3.403109 -20.406813 2.672990 20.860586 1.405554 1.442307 0.001640 -0.000747 -223266.000000 0 1 0
-4.034209 -20.299913 3.879990 21.057437 1.374622 1.385480 0.005219 0.007713 -850120.000000 0 1 0
-3.210609 -19.993413 4.957890 20.847668 1.411572 1.330681 0.025070 -0.004308 -260349.000000 0 1 0
-2.245309 -21.086113 5.474090 21.900485 1.464713 1.318165 0.025133 -0.011311 352551.000000 0 1 0
-1.332709 -21.604213 4.521590 22.112506 1.509187 1.364863 0.028960 -0.013635 -526608.000000 0 1 0
-0.704409 -22.763313 5.052790 23.327994 1.539861 1.352468 0.033006 -0.013452 -290030.000000 0 1 0
0.292291 -23.244513 3.963290 23.581783 -1.558222 1.401929 0.035541 -0.020835 271889.000000 0 1 0
1.428091 -22.430913 3.655890 22.771712 -1.507216 1.409553 0.029390 -0.025793 600133.000000 0 1 0
2.529591 -22.947213 4.409890 23.503629 -1.461004 1.382052 0.037896 -0.023556 -416001.000000 0 1 0
3.758591 -22.075013 4.597390 22.859773 -1.402149 1.368303 0.041303 -0.022049 -326432.000000 0 1 0
4.585191 -21.996513 3.485490 22.738057 -1.365288 1.416901 0.033531 -0.014425 -195043.000000 0 1 0
5.784791 -21.269313 3.765190 22.361220 -1.305242 1.401610 0.046230 -0.012596 803334.000000 0 1 0
6.586391 -20.748013 2.551790 21.917396 -1.263411 1.454104 0.057413 -0.008598 -206810.000000 0 1 0
7.273391 -21.833713 2.018790 23.101705 -1.249232 1.483298 0.052382 -0.007911 -339438.000000 0 1 0
6.809591 -22.125113 0.702290 23.159974 -1.272220 1.540468 0.049931 -0.006129 87851.100000 0 1 0
7.850791 -22.925813 -0.118510 24.233074 -1.240869 1.575687 0.051500 -0.002003 111628.000000 0 1 0
8.911791 -22.115813 -0.562510 23.850485 -1.187741 1.594383 0.046337 -0.002332 12478.400000 0 1 0
9.929891 -22.940713 -1.174510 25.025158 -1.162295 1.617747 0.043989 -0.004194 529044.000000 0 0 1
11.227191 -22.235813 -1.597110 24.960608 -1.103225 1.634825 0.047600 -0.000982 26568.900000 0 1 0
11.133691 -21.239813 -2.634310 24.125263 -1.087985 1.680207 0.048968 0.004528 -1035540.000000 0 1 0
12.372791 -21.097413 -3.238110 24.671282 -1.040392 1.702426 0.055229 0.000199 -570325.000000 0 1 0
12.460991 -19.968913 -4.280310 23.923939 -1.012902 1.750678 0.043112 -0.000828 19751.600000 0 1 0
12.467891 -18.676613 -3.667010 22.753267 -0.982171 1.732666 0.051462 -0.001925 15411.600000 0 1 0
12.698391 -17.670513 -4.676110 22.256733 -0.947682 1.782472 0.052456 -0.002566 -624194.000000 0 1 0
13.038491 -16.299213 -4.052810 21.262452 -0.896088 1.762579 0.049805 0.000213 1667600.000000 0 1 0
14.361791 -16.108013 -3.454210 21.855450 -0.842645 1.729510 0.046904 -0.002279 1784630.000000 0 1 0
15.428291 -16.111013 -4.397210 22.736147 -0.807042 1.765424 0.047332 -0.001973 -322727.000000 0 1 0
16.850791 -15.747213 -3.990610 23.406171 -0.751557 1.742127 0.041812 -0.004266 -445209.000000 0 1 0
17.606591 -16.705713 -3.342810 24.499944 -0.759149 1.707665 0.054229 -0.011430 426624.000000 0 1 0
18.959691 -16.254613 -3.266010 25.186289 -0.708731 1.700837 0.041754 -0.007561 554166.000000 0 0 1
19.920091 -17.255413 -2.588010 26.481260 -0.713842 1.668682 0.050185 -0.016166 99742.800000 0 0 1
21.307891 -17.041713 -2.717310 27.419518 -0.674609 1.670061 0.036279 -0.010867 -156273.000000 0 0 1
21.968191 -17.790113 -1.782010 28.324285 -0.680696 1.633752 0.030571 -0.003087 -749496.000000 0 0 1
23.493891 -17.683113 -1.788410 29.459359 -0.645207 1.631541 0.034596 -0.007630 -584890.000000 0 0 1
23.940991 -16.410013 -1.423510 29.060041 -0.600884 1.619801 0.038827 -0.015226 373876.000000 0 0 1
25.264291 -16.537613 -0.909110 30.209329 -0.579591 1.600895 0.060726 -0.009475 441901.000000 0 0 1
25.848991 -15.235313 -0.331610 30.006584 -0.532587 1.581848 0.058695 -0.006789 315459.000000 0 0 1
25.052291 -14.725113 0.744390 29.068890 -0.531382 1.545186 0.043824 -0.008673 610483.000000 0 0 1
25.779591 -13.698413 1.395390 29.226374 -0.488425 1.523034 0.033088 -0.010803 293692.000000 0 0 1
25.017891 -13.154713 2.622090 28.386911 -0.484084 1.478295 0.043412 -0.019427 -140731.000000 0 0 1
24.883891 -14.055213 3.692390 28.816502 -0.514159 1.442309 0.054275 -0.015317 -264714.000000 0 0 1
25.991991 -14.494613 4.438790 30.089537 -0.508703 1.422737 0.048541 -0.001423 -376930.000000 0 0 1
25.539491 -15.120213 5.751390 30.231853 -0.534541 1.379387 0.041700 0.000119 360268.000000 0 0 1
24.736391 -16.281713 5.533890 30.126519 -0.582124 1.386059 0.041235 -0.004776 702994.000000 0 0 1
23.967591 -16.633713 6.744390 29.943491 -0.606694 1.343610 0.027875 -0.007241 80091.400000 0 0 1
23.253491 -17.910113 6.766890 30.121218 -0.656312 1.344207 0.024092 -0.005846 -195579.000000 0 0 1
24.108191 -19.032913 6.510990 31.398243 -0.668293 1.361913 0.020883 -0.005324 -183788.000000 0 0 1
23.351691 -20.163713 6.226390 31.474509 -0.712268 1.371660 0.018439 -0.000353 -248815.000000 0 0 1
1.724891 23.537346 -3.091410 23.802074 1.497644 1.701044 0.020746 -0.001629 391559.000000 0 1 0
2.729391 24.501846 -2.770410 24.808571 1.459858 1.682701 0.025305 -0.000876 460412.000000 0 1 0
3.476791 24.913046 -3.919310 25.457984 1.432135 1.725363 0.039009 -0.005836 652649.000000 0 0 1
4.596091 25.976346 -3.599610 26.624271 1.395675 1.706412 0.028858 0.009496 733674.000000 0 0 1
5.666291 25.487746 -2.808810 26.260645 1.352040 1.677960 0.013616 0.003083 233604.000000 0 0 1
6.317691 26.506446 -2.009610 27.322947 1.336816 1.644413 0.011701 0.010782 95010.600000 0 0 1
7.444591 25.981346 -1.124610 27.050268 1.291737 1.612383 -0.002325 -0.000273 -427136.000000 0 0 1
8.530791 25.519146 -1.876310 26.972611 1.248185 1.640416 -0.001620 -0.003840 -458988.000000 0 0 1
9.472791 24.831846 -1.060210 26.598466 1.206359 1.610667 -0.005238 0.002251 -470730.000000 0 0 1
10.653091 24.386646 -1.888310 26.678879 1.158939 1.641635 0.021919 -0.003414 -1334930.000000 0 0 1
11.471391 25.451346 -2.315210 28.012926 1.147345 1.653539 0.029168 -0.000254 41908.800000 0 0 1
12.232691 25.200746 -3.507110 28.231474 1.118889 1.695345 0.049228 -0.009092 1433370.000000 0 0 1
13.399691 24.127946 -3.432710 27.811742 1.063847 1.694539 0.057584 -0.005178 150416.000000 0 0 1
12.843491 22.836946 -3.536610 26.438400 1.058483 1.704966 0.059419 -0.015006 34690.300000 0 0 1
12.702291 22.273146 -4.859110 26.096976 1.052504 1.758084 0.066730 -0.018629 -383745.000000 0 0 1
11.762791 21.072446 -4.915310 24.628672 1.061674 1.771722 0.063439 -0.025933 -1058320.000000 0 1 0
10.441791 21.438146 -5.075910 24.380114 1.117549 1.780529 0.053363 -0.021228 -880221.000000 0 1 0
9.602191 20.299746 -4.823510 22.968413 1.128965 1.782378 0.030501 -0.015603 1949150.000000 0 1 0
8.044091 20.693346 -4.790510 22.712793 1.200044 1.783309 0.013291 -0.009569 1658890.000000 0 1 0
7.797491 21.383246 -3.578010 23.040101 1.221127 1.726722 0.015605 -0.001593 366168.000000 0 1 0
6.445791 21.839646 -3.586710 23.051743 1.283803 1.727025 0.013652 0.008940 589312.000000 0 1 0
5.927591 22.450146 -2.289610 23.332118 1.312654 1.669086 0.013743 0.004381 -43452.700000 0 1 0
5.491791 21.551946 -1.323110 22.279963 1.321290 1.630217 0.009432 -0.001645 -27237.500000 0 1 0
4.676691 22.242746 -0.396110 22.732534 1.363558 1.588222 0.012976 0.004170 153703.000000 0 1 0
4.407791 21.316346 0.856790 21.784153 1.366890 1.531455 0.010933 0.000438 31879.400000 0 1 0
3.381691 21.751946 1.716390 22.080059 1.416565 1.492983 0.011611 -0.006197 50741.700000 0 1 0
3.233291 20.945846 2.888390 21.389844 1.417641 1.435347 0.016696 -0.010275 227232.000000 0 1 0
2.190791 21.411146 3.946490 21.881762 1.468831 1.389449 0.017082 -0.011669 236582.000000 0 1 0
0.836591 21.370446 3.533790 21.676797 1.531669 1.407044 0.019439 -0.020408 -263648.000000 0 1 0
0.061491 21.944546 4.574490 22.416352 1.567994 1.365283 0.020122 -0.023659 -130058.000000 0 1 0
-1.351309 22.136946 3.997190 22.535482 -1.509829 1.392480 0.015859 -0.021936 -179270.000000 0 1 0
-2.315509 22.690246 4.886390 23.325644 -1.469100 1.359747 0.026414 -0.025638 859635.000000 0 1 0
-3.588609 22.725846 4.210890 23.389609 -1.414181 1.389777 0.035956 -0.026865 1138210.000000 0 1 0
-4.832609 23.009946 5.118390 24.062619 -1.363782 1.356447 0.048826 -0.036589 419409.000000 0 1 0
-5.149409 24.334646 5.462890 25.466342 -1.362264 1.354602 0.064327 -0.027124 -174051.000000 0 0 1
-6.091409 24.335646 6.502690 25.915515 -1.325528 1.317167 0.070640 -0.028873 -205040.000000 0 0 1
-6.447209 25.757246 6.992090 27.457086 -1.325529 1.313305 0.075024 -0.027394 -750489.000000 0 0 1
-5.424809 26.414546 7.649490 28.029832 -1.368241 1.294385 0.067987 -0.035212 -806218.000000 0 0 1
-5.742309 27.608746 8.303590 29.396710 -1.365731 1.284432 0.072294 -0.024750 -315324.000000 0 0 1
-5.879909 28.867246 7.392890 30.373443 -1.369857 1.324927 0.079515 -0.033203 847325.000000 0 0 1
-7.194509 28.946446 6.814990 30.595781 -1.327187 1.346169 0.079970 -0.034157 263000.000000 0 0 1
-7.268309 30.051746 5.912190 31.478401 -1.333494 1.381857 0.081601 -0.034477 -302334.000000 0 0 1
-8.665209 30.283346 5.251590 31.933464 -1.292105 1.405592 0.072358 -0.030629 737191.000000 0 0 1
-9.660709 30.786246 6.118090 32.841335 -1.266728 1.383409 0.073458 -0.017712 -248927.000000 0 0 1
-10.188709 29.816346 6.975390 32.271975 -1.241521 1.352933 0.053937 -0.015046 -413386.000000 0 0 1
-11.253509 30.369546 7.996690 33.360124 -1.215931 1.328731 0.037671 -0.013779 377166.000000 0 0 1
-10.611309 31.017846 9.025590 34.002470 -1.241174 1.302137 0.046572 -0.013962 39452.300000 0 0 1
-11.533009 31.457846 9.987190 34.962127 -1.219395 1.281104 0.045541 -0.003228 144503.000000 0 0 1
-10.695209 31.535446 11.271490 35.155630 -1.243821 1.244416 0.033177 -0.009263 -243351.000000 0 0 1
-9.949009 32.681246 11.317390 35.987914 -1.275284 1.250890 0.026746 -0.009037 -108214.000000 0 0 1
-9.295109 33.020046 12.540990 36.523950 -1.296398 1.220301 0.022863 -0.010427 80379.600000 0 0 1
-9.002609 -34.183213 12.770290 37.584829 1.313280 1.224121 0.010695 -0.013603 -228555.000000 0 0 1
-9.994909 -33.372813 13.305290 37.291737 1.279805 1.205968 0.016776 -0.003493 -310004.000000 0 0 1
-9.425209 -32.079713 13.365390 36.008002 1.285032 1.190519 0.027786 0.002385 642083.000000 0 0 1
-10.462209 -31.032413 13.899890 35.576333 1.245625 1.169398 0.013498 -0.007412 420828.000000 0 0 1
-10.821109 -31.180413 15.290990 36.374840 1.236754 1.136940 0.003379 -0.010366 493428.000000 0 0 1
-9.749509 -30.868813 16.200290 36.199254 1.264874 1.106794 0.021045 -0.018879 334133.000000 0 0 1
-9.957609 -31.199613 17.693590 37.224091 1.261857 1.075461 0.020028 -0.023837 -123404.000000 0 0 1
-10.793509 -30.334713 18.427590 37.098123 1.228952 1.050974 0.023943 -0.023244 218081.000000 0 0 1
-11.449109 -30.968013 19.508690 38.349562 1.216674 1.037114 0.020135 -0.022796 -180427.000000 0 0 1
-11.507309 -29.938813 20.643890 38.143425 1.203844 0.998912 0.024464 -0.019809 339817.000000 0 0 1
-10.315509 -29.676613 21.391990 38.009582 1.236264 0.973021 0.022238 -0.018871 474182.000000 0 0 1
-10.575709 -28.821713 22.496390 38.060798 1.219115 0.938418 0.014841 -0.016945 111684.000000 0 0 1
-9.483309 -28.851013 23.584490 38.451818 1.253222 0.910499 0.037673 -0.020945 52176.800000 0 0 1
-9.302209 -30.025913 24.320790 39.744023 1.270368 0.912291 0.029756 -0.012141 -238305.000000 0 0 1
-8.181809 -29.933013 25.156490 39.947169 1.303977 0.889573 0.049687 -0.011685 -139177.000000 0 0 1
-8.173709 -31.103513 26.126790 41.434855 1.313816 0.888533 0.049611 -0.010677 -103793.000000 0 0 1
-7.979009 -32.387613 25.558590 42.022180 1.329247 0.916984 0.067465 -0.013732 310132.000000 0 0 1
-8.021309 -33.382613 26.613490 43.439822 1.334983 0.911385 0.080967 -0.008759 -257027.000000 0 0 1
-7.960309 33.917046 25.968890 43.452454 -1.340269 0.930243 0.087745 -0.014988 -143853.000000 0 0 1
-6.635209 33.607146 25.591990 42.759984 -1.375869 0.929165 0.081858 -0.015595 118903.000000 0 0 1
-6.495609 32.299646 24.977190 41.343925 -1.372339 0.922120 0.079240 -0.014371 -17779.000000 0 0 1
-7.263509 31.974946 23.655990 40.432185 -1.347425 0.945820 0.071234 -0.012783 367143.000000 0 0 1
-8.389209 31.139746 23.909990 40.146609 -1.307639 0.932825 0.059361 -0.011038 428844.000000 0 0 1
-9.198909 30.995946 22.757290 39.538119 -1.282298 0.957485 0.037350 -0.003627 654297.000000 0 0 1
-10.243209 29.809646 22.833690 38.921918 -1.239816 0.943876 0.043644 -0.013341 987580.000000 0 0 1
-9.605809 28.602446 22.400290 37.578511 -1.246793 0.932170 0.041217 -0.011735 326494.000000 0 0 1
-10.083909 27.542846 23.195090 37.393927 -1.219836 0.901684 0.024689 -0.004377 -127209.000000 0 0 1
-9.482009 26.103946 22.953590 36.030429 -1.222375 0.880117 0.018540 -0.005214 -979518.000000 0 0 1
-8.193909 26.019446 23.422990 35.955364 -1.265713 0.861307 0.027720 -0.012601 -848633.000000 0 0 1
-7.590909 24.782446 22.981290 34.640023 -1.273568 0.845400 0.028885 -0.010670 -425777.000000 0 0 1
-6.326809 24.398546 23.723690 34.614029 -1.317074 0.815674 0.031875 -0.008140 -157453.000000 0 0 1
-5.233909 25.105846 23.147990 34.547457 -1.365266 0.836541 0.026516 -0.007934 201427.000000 0 0 1
-4.015109 25.024746 23.911090 34.843927 -1.411707 0.814497 0.042980 -0.006344 515801.000000 0 0 1
-2.950309 25.752146 23.083190 34.708947 -1.456728 0.843235 0.035470 0.003216 -395091.000000 0 0 1
-2.526709 25.009846 21.948790 33.371036 -1.470109 0.853009 0.033573 -0.000332 710601.000000 0 0 1
-1.495909 25.607846 21.111690 33.222026 -1.512447 0.882176 0.035944 0.004328 916770.000000 0 0 1
-1.168709 24.694246 19.874390 31.720073 -1.523504 0.893670 0.031492 0.002265 -166235.000000 0 0 1
-0.183109 23.764646 20.265490 31.232708 -1.563091 0.864718 0.037416 -0.000141 -178272.000000 0 0 1
-0.168609 22.692046 19.341890 29.817211 -1.563366 0.864945 0.019122 0.000870 -192951.000000 0 0 1
1.004791 21.722846 19.545190 29.238777 1.524574 0.838649 0.027510 0.011440 219728.000000 0 0 1
2.298591 22.278646 19.444990 29.660230 1.467985 0.855831 0.032204 -0.004712 -383231.000000 0 0 1
3.281291 21.303546 19.393390 28.995026 1.417972 0.838132 0.032814 0.004598 503158.000000 0 0 1
4.763891 21.780846 19.257790 29.461201 1.355468 0.858378 0.025734 -0.007875 1162150.000000 0 0 1
5.693591 20.774246 18.844490 28.619942 1.303295 0.852053 0.036220 -0.003668 688701.000000 0 0 1
7.038191 21.249046 18.837590 29.255989 1.250946 0.871227 0.052372 -0.013795 1013790.000000 0 0 1
8.178791 20.225446 18.481290 28.592296 1.186519 0.867975 0.057842 -0.011327 494439.000000 0 0 1
8.617991 19.482946 19.632790 28.970699 1.154335 0.826197 0.053043 -0.015844 145761.000000 0 0 1
9.733291 18.639346 19.388090 28.601752 1.089554 0.825943 0.060544 -0.022805 59705.900000 0 0 1
10.141591 17.818946 20.592090 29.058577 1.053372 0.783227 0.071607 -0.024496 518336.000000 0 0 1
9.142091 16.887546 21.078990 28.514748 1.074618 0.738868 0.059538 -0.021833 514056.000000 0 0 1
9.669891 16.120246 22.191690 29.083333 1.030480 0.702796 0.051651 -0.023901 -301542.000000 0 0 1
8.684191 15.186346 22.844090 28.773125 1.051339 0.653537 0.038725 -0.021754 -473893.000000 0 0 1
7.668591 15.936846 23.531890 29.437055 1.122313 0.644506 0.037647 -0.009365 63341.400000 0 0 1
6.468091 15.252546 23.814890 29.010780 1.169717 0.607815 0.024532 -0.016185 108323.000000 0 0 1
6.545091 13.980446 24.665390 29.097638 1.132943 0.559206 0.026250 -0.021194 -939794.000000 0 0 1
6.964991 14.255846 25.986790 30.447553 1.116334 0.548143 0.036914 -0.024423 91895.000000 0 0 1
7.427091 13.051846 26.605490 30.551014 1.053449 0.513858 0.042052 -0.027692 -1089060.000000 0 0 1
8.423891 13.354046 27.703090 31.886575 1.008029 0.518021 0.038212 -0.018158 305253.000000 0 0 1
9.765991 13.541546 27.210490 31.924267 0.945992 0.550343 0.069143 -0.017594 582300.000000 0 0 1
10.096391 14.808546 26.754490 32.202995 0.972393 0.590239 0.057527 -0.020214 -562880.000000 0 0 1
11.482591 14.970246 26.102590 32.207194 0.916486 0.625862 0.079112 -0.022383 -44683.100000 0 0 1
11.524591 14.299946 24.856490 30.905497 0.892457 0.636343 0.068931 -0.027384 208836.000000 0 0 1
12.824091 13.779346 24.633290 31.002043 0.821290 0.652497 0.082577 -0.034448 -369153.000000 0 0 1
12.805691 12.474346 23.732690 29.712550 0.772292 0.645593 0.068315 -0.038722 -66401.900000 0 0 1
12.229491 11.307846 24.220290 29.394732 0.746261 0.602420 0.064045 -0.028565 1239930.000000 0 0 1
10.807091 11.390746 24.513490 29.111055 0.811685 0.569690 0.056546 -0.026167 802013.000000 0 0 1
10.342391 10.048346 25.123690 28.967812 0.770979 0.521050 0.048890 -0.014015 -224597.000000 0 0 1
10.301791 9.036946 24.103690 27.726903 0.720086 0.516961 0.047017 -0.011804 156850.000000 0 0 1
10.147391 7.751646 24.699590 27.805167 0.652341 0.477146 0.037248 -0.010074 -33186.000000 0 0 1
10.360491 6.614946 23.694090 26.692830 0.568233 0.478563 0.031507 -0.005556 173890.000000 0 0 1
11.713691 6.333046 23.347390 26.877847 0.495639 0.518329 0.038310 -0.004612 588861.000000 0 0 1
11.866691 5.225046 22.470990 25.943493 0.414768 0.523347 0.039289 -0.007326 -79262.000000 0 0 1
11.586091 3.817246 23.070890 26.097411 0.318268 0.486382 0.027743 0.002796 337648.000000 0 0 1
12.667991 3.242646 23.847090 27.196993 0.250591 0.501571 0.033911 0.006930 651810.000000 0 0 1
12.317391 2.062946 24.506390 27.505218 0.165942 0.471314 0.023049 0.013651 -1432610.000000 0 0 1
13.436091 1.475646 25.307990 28.691470 0.109389 0.490550 0.010413 0.018515 -878920.000000 0 0 1
14.323691 0.705546 24.515790 28.402286 0.049218 0.529296 0.039654 0.009169 -984634.000000 0 0 1
15.613491 1.188446 24.730090 29.270648 0.075970 0.564462 0.033264 0.003995 -601027.000000 0 0 1
16.550491 0.353046 23.761490 28.959485 0.021328 0.608497 0.030444 -0.002075 -218699.000000 0 0 1
16.862191 -0.997854 24.142890 29.465375 -0.059108 0.610494 0.024871 -0.005616 40727.300000 0 0 1
17.672591 -1.622654 23.176890 29.191124 -0.091561 0.653484 0.042186 0.000852 -188433.000000 0 0 1
18.063791 -3.052654 23.515290 29.809195 -0.167411 0.661844 0.030935 0.001059 151386.000000 0 0 1
17.137091 -4.062754 23.102090 29.049826 -0.232776 0.651364 0.012322 0.006363 212887.000000 0 0 1
17.540791 -5.363854 23.436290 29.760880 -0.296763 0.664076 0.025316 -0.000878 283979.000000 0 0 1
16.559091 -6.430654 22.869490 28.958080 -0.370419 0.660404 0.015743 -0.001721 254470.000000 0 0 1
16.862491 -6.737754 21.515890 28.154475 -0.380136 0.700983 0.021956 -0.003743 830388.000000 0 0 1
15.906291 -7.712254 20.995690 27.446456 -0.451459 0.699803 0.034406 -0.014690 656172.000000 0 0 1
16.187891 -9.237354 21.279790 28.287912 -0.518547 0.719315 0.033259 -0.008508 -224808.000000 0 0 1
15.896891 -9.495654 22.634290 29.243626 -0.538452 0.685677 0.017330 0.002558 -310861.000000 0 0 1
16.638391 -10.602754 23.048490 30.339534 -0.567357 0.707968 0.016437 0.004692 -519207.000000 0 0 1
16.033191 -11.492054 24.115090 31.155547 -0.621890 0.685627 0.026869 -0.007539 -713843.000000 0 0 1
15.042591 -12.308854 23.601390 30.574712 -0.685780 0.688932 0.027165 -0.007101 -492037.000000 0 0 1
14.743791 -13.358354 24.534690 31.587593 -0.736138 0.681356 0.044012 -0.003523 -408663.000000 0 0 1
13.820791 -14.451254 24.004990 31.242480 -0.807694 0.694546 0.053454 -0.016613 -514832.000000 0 0 1
14.183991 -15.240954 22.888490 30.941158 -0.821303 0.738109 0.051525 -0.015446 134501.000000 0 0 1
13.172291 -16.183254 22.591690 30.753722 -0.887610 0.745719 0.058925 -0.002841 -407757.000000 0 0 1
13.518891 -17.047854 21.330390 30.469251 -0.900340 0.795311 0.042574 -0.008113 197954.000000 0 0 1
14.605891 -17.969054 21.458990 31.570670 -0.888278 0.823425 0.052012 -0.013066 454339.000000 0 0 1
15.105391 -18.476354 20.218590 31.278425 -0.885444 0.867931 0.040441 -0.014302 203441.000000 0 0 1
-23.942709 -32.359813 26.858053 48.391796 0.933797 0.982418 0.045900 -0.019391 -484390.000000 0 0 1
-23.993009 -33.745313 26.557063 49.190327 0.952724 1.000497 0.056276 -0.017135 -594112.000000 0 0 1
-25.272249 -34.208213 26.318963 50.015760 0.934517 1.016655 0.045548 -0.024000 -662014.000000 0 0 1
-26.099349 33.887146 27.497163 50.848881 -0.914502 0.999453 0.045802 -0.021382 -375026.000000 0 0 1
-26.714469 -33.868213 28.309043 51.595743 0.902936 0.990024 0.060583 -0.024806 -19737.100000 0 0 1
-25.988589 -33.593913 29.494133 51.709397 0.912355 0.963825 0.047618 -0.019013 -741983.000000 0 0 1
-26.735469 -32.931213 30.617123 52.313080 0.888867 0.945587 0.035479 -0.028131 -525875.000000 0 0 1
-27.133889 -31.617213 30.336263 51.538190 0.861561 0.941449 0.029059 -0.023152 -120990.000000 0 0 1
-27.880929 -31.150313 31.417333 52.294714 0.840726 0.926327 0.009203 -0.005878 -393617.000000 0 0 1
-28.256349 -29.689113 31.194643 51.506995 0.810119 0.920228 0.003653 -0.009372 -199134.000000 0 0 1
-29.046109 -29.521113 30.026533 51.154328 0.793508 0.943474 0.004811 0.003532 224621.000000 0 0 1
-29.459159 -28.199913 29.887833 50.560456 0.763562 0.938336 0.004032 0.008850 -37329.300000 0 0 1
-30.170939 -28.017813 28.524803 50.089399 0.748413 0.964926 0.005709 -0.008035 -538352.000000 0 0 1
-29.300869 -27.772113 27.478923 48.835668 0.758619 0.973170 -0.003878 -0.002380 -222005.000000 0 0 1
-28.957549 -26.401613 27.437623 47.837308 0.739261 0.959950 -0.010155 0.004921 -348863.000000 0 0 1
-27.991249 -26.194913 26.273543 46.475613 0.752259 0.969976 -0.002671 0.013388 -460938.000000 0 0 1
-28.558469 -26.315213 24.987393 46.178420 0.744541 0.999045 -0.011783 0.008909 65992.100000 0 0 1
-27.557759 -26.277013 23.994893 45.007404 0.761612 1.008498 -0.004519 0.016838 -120154.000000 0 0 1
-28.088239 -26.776813 22.638423 44.927109 0.761500 1.042697 -0.011421 0.015101 -200104.000000 0 0 1
-28.804399 -25.844113 21.854223 44.443432 0.731281 1.056719 -0.010200 0.008991 110066.000000 0 0 1
-29.222719 -26.316913 20.597023 44.393520 0.733126 1.088331 -0.012336 0.019083 -97932.100000 0 0 1
-29.860249 -25.244513 19.710823 43.788543 0.701830 1.103878 -0.008311 0.017598 123109.000000 0 0 1
-31.203659 -24.958713 20.057223 44.709036 0.674659 1.105579 0.007429 0.007907 386698.000000 0 0 1
-31.724269 -23.706313 19.510523 44.148376 0.641746 1.113046 0.014629 0.009359 137790.000000 0 0 1
-33.197099 -23.330213 19.779723 45.139602 0.612588 1.117212 0.020967 0.015335 -27675.100000 0 0 1
-34.059040 -24.309813 19.257123 46.063240 0.619898 1.139489 0.022525 0.014474 -113514.000000 0 0 1
-35.372972 -23.822213 19.088523 46.723835 0.592690 1.149943 0.031535 0.010111 2730.570000 0 0 1
35.713996 -24.648713 18.143723 47.034490 -0.604098 1.174772 0.054107 0.001448 -32355.300000 0 0 1
35.424366 -25.889713 18.762423 47.719928 -0.631129 1.166711 0.050044 -0.001623 -390783.000000 0 0 1
34.758226 -26.829913 18.019923 47.462577 -0.657371 1.181361 0.048516 0.008581 -236617.000000 0 0 1
34.286966 -28.051513 18.826323 48.134332 -0.685704 1.168948 0.042243 0.006561 697432.000000 0 0 1
33.150096 -27.892213 19.729923 47.604352 -0.699475 1.143451 0.043751 -0.000032 650690.000000 0 0 1
33.267346 -27.116213 20.873023 47.725134 -0.683881 1.118136 0.048405 0.002492 -426052.000000 0 0 1
32.096376 -27.152413 21.894723 47.400526 -0.702147 1.090650 0.036292 -0.001261 745380.000000 0 0 1
30.930846 -26.527513 21.330223 45.993528 -0.708912 1.088555 0.040595 0.002489 204737.000000 0 0 1
30.067326 -26.021213 22.321323 45.600319 -0.713385 1.059281 0.044796 -0.000149 3741.220000 0 0 1
29.037456 -24.976513 21.795823 44.068787 -0.710356 1.053437 0.054074 0.006752 9344.740000 0 0 1
29.549086 -23.858713 21.067823 43.430863 -0.679253 1.064332 0.060151 0.007454 -12249.500000 0 0 1
30.528926 -23.141013 21.800523 44.077031 -0.648603 1.053421 0.066882 -0.000589 367580.000000 0 0 1
31.314866 -22.059713 20.959723 43.664194 -0.613705 1.070118 0.066516 -0.001840 582327.000000 0 0 1
30.582176 -20.850613 20.770623 42.443331 -0.598399 1.059426 0.070082 -0.006672 693983.000000 0 0 1
31.517826 -19.815213 20.425923 42.464507 -0.561255 1.068988 0.066106 -0.007172 503336.000000 0 0 1
30.890496 -18.408213 20.746523 41.515097 -0.537413 1.047504 0.053716 0.000507 221957.000000 0 0 1
30.729176 -18.196613 22.143823 42.020803 -0.534635 1.015762 0.034903 -0.005120 606156.000000 0 0 1
29.546016 -18.735613 22.768123 41.741798 -0.565128 0.993869 0.051678 -0.003107 442607.000000 0 0 1
29.439746 -18.352213 24.245913 42.324540 -0.557435 0.960809 0.036428 0.001934 -71448.100000 0 0 1
29.059206 -17.011313 24.442433 41.608350 -0.529616 0.942904 0.035803 0.001287 196713.000000 0 0 1
29.336256 -16.528813 25.744713 42.386411 -0.513093 0.918036 0.034225 0.006827 -190411.000000 0 0 1
28.892256 -15.066213 25.975983 41.671393 -0.480669 0.897773 0.036037 0.003883 394994.000000 0 0 1
27.515396 -14.742913 26.190273 40.747772 -0.491880 0.872725 0.041762 0.007366 706768.000000 0 0 1
27.358556 -13.359113 26.632803 40.450744 -0.454242 0.852104 0.036437 0.003527 -19841.200000 0 0 1
27.812096 -12.147713 25.750323 39.801492 -0.411804 0.867194 0.051683 -0.012944 -307450.000000 0 0 1
27.049506 -11.909113 24.579423 38.440224 -0.414734 0.877053 0.050390 -0.003283 170842.000000 0 0 1
27.617866 -10.975013 23.653943 37.982976 -0.378253 0.898542 0.050851 -0.000131 -496328.000000 0 0 1
28.822916 -11.491713 22.893223 38.560597 -0.379386 0.935154 0.051433 -0.008815 -591814.000000 0 0 1
28.491496 -12.552713 21.961823 38.100625 -0.414991 0.956460 0.051766 -0.008143 -171.516000 0 0 1
29.033486 -13.792613 22.270723 39.104534 -0.443496 0.964877 0.042560 -0.010958 -374010.000000 0 0 1
28.436226 -14.953013 21.430623 38.619725 -0.484108 0.982537 0.056258 -0.009997 -291241.000000 0 0 1
28.710456 -14.847113 20.033023 38.026952 -0.477260 1.015952 0.052899 -0.012155 -286946.000000 0 0 1
28.048326 -15.862513 19.349823 37.586481 -0.514697 1.030013 0.052125 -0.016582 -632866.000000 0 0 1
28.532446 -16.122913 17.939723 37.361511 -0.514342 1.069952 0.060622 -0.023814 -34047.900000 0 0 1
27.836426 -17.153813 17.232923 36.960703 -0.552272 1.085749 0.063471 -0.021783 493406.000000 0 0 1
26.496856 -16.871413 16.823923 35.633865 -0.566992 1.079087 0.037458 -0.025016 59975.200000 0 0 1
26.237656 -15.980813 15.633423 34.470348 -0.547069 1.100071 0.049025 -0.021050 -700491.000000 0 0 1
26.583556 -16.499813 14.385823 34.436626 -0.555485 1.139831 0.046668 -0.019256 334685.000000 0 0 1
25.624656 -17.453813 13.907723 33.980632 -0.597951 1.149127 0.021419 -0.022036 127251.000000 0 0 1
25.664956 -17.908613 12.422823 33.670981 -0.609238 1.192920 0.030064 -0.010406 -526527.000000 0 0 1
25.385956 -16.854213 11.505723 32.571352 -0.586098 1.209757 0.025368 -0.014635 -231006.000000 0 0 1
25.344556 -17.298313 10.177123 32.328811 -0.598902 1.250550 0.020591 -0.017197 120996.000000 0 0 1
26.630256 -17.726113 9.393823 33.341109 -0.587290 1.285180 0.025075 -0.010924 471029.000000 0 0 1
27.280756 -18.863613 9.932823 34.622775 -0.604973 1.279821 0.024731 -0.001703 306433.000000 0 0 1
28.689816 -18.843613 9.667723 35.660233 -0.581144 1.296254 0.035769 0.005387 1010110.000000 0 0 1
29.532496 -19.683513 10.689523 37.065819 -0.587890 1.278248 0.063088 -0.012257 76490.200000 0 0 1
29.746226 -19.028313 11.920523 37.269472 -0.569092 1.245228 0.077176 -0.023088 136451.000000 0 0 1
29.939736 -19.934613 13.061123 38.267082 -0.587419 1.222481 0.065590 -0.020364 61679.400000 0 0 1
29.648626 -19.435713 14.496723 38.300692 -0.580256 1.182624 0.082507 -0.011461 74309.800000 0 0 1
29.937596 -20.354013 15.492123 39.377042 -0.597096 1.166436 0.092854 -0.016365 -119385.000000 0 0 1
29.576376 -19.895513 16.788323 39.401031 -0.592156 1.130632 0.094702 -0.019940 58385.200000 0 0 1
29.125546 -21.086013 17.640223 40.051153 -0.626633 1.114705 0.079662 -0.015302 601307.000000 0 0 1
27.911846 -21.692913 17.160323 39.295424 -0.660679 1.118869 0.044423 -0.004758 405572.000000 0 0 1
27.606116 -22.713413 18.102923 40.071344 -0.688470 1.102051 0.056731 -0.004533 486582.000000 0 0 1
26.198256 -23.359813 17.899823 39.400929 -0.728186 1.099211 0.048046 0.003459 604585.000000 0 0 1
25.136456 -22.704813 18.562923 38.625537 -0.734615 1.069473 0.053003 0.002973 -505450.000000 0 0 1
23.979356 -23.469113 18.559923 38.344225 -0.774645 1.065537 0.050537 0.001430 -795254.000000 0 0 1
22.839056 -22.893313 19.389323 37.705068 -0.786585 1.030679 0.027417 0.011366 -542501.000000 0 0 1
22.286656 -21.710013 18.872523 36.389447 -0.772292 1.025553 0.020028 0.001870 115490.000000 0 0 1
21.183956 -21.161913 19.587823 35.780852 -0.784878 0.991496 0.018873 0.000735 408728.000000 0 0 1
21.448256 -20.575513 21.035823 36.412708 -0.764633 0.954881 0.011533 0.004492 -233278.000000 0 0 1
21.817256 -21.591113 21.993923 37.761111 -0.780189 0.949058 0.022572 0.007558 -79613.600000 0 0 1
22.089456 -21.018113 23.282623 38.363859 -0.760551 0.918655 0.032029 -0.000700 105418.000000 0 0 1
22.378156 -22.080213 24.355563 39.768218 -0.778697 0.911655 0.038531 -0.001540 84933.200000 0 0 1
21.329856 -23.032113 24.523103 39.834955 -0.823751 0.907627 0.036487 -0.003708 114646.000000 0 0 1
21.585556 -23.809013 25.633593 41.108229 -0.834340 0.897504 0.032778 0.000904 -188507.000000 0 0 1
20.371056 -24.601913 26.182443 41.300780 -0.879198 0.884152 0.050884 -0.004594 -105028.000000 0 0 1
19.870356 -25.606013 25.299193 41.116276 -0.910860 0.908019 0.049996 -0.000453 186110.000000 0 0 1
18.955356 -26.365013 26.095743 41.658220 -0.947459 0.893838 0.041849 0.002146 341847.000000 0 0 1
18.087856 -27.366113 25.227913 41.382633 -0.986756 0.915208 0.050410 -0.004532 753328.000000 0 0 1
17.133556 -26.703313 24.366483 40.004390 -1.000330 0.915877 0.054882 -0.010834 642958.000000 0 0 1
16.509556 -27.572213 23.486423 39.804579 -1.031278 0.939684 0.051215 -0.011167 -262535.000000 0 0 1
15.612556 -26.898513 22.443223 38.353360 -1.044895 0.945707 0.043179 -0.008919 800973.000000 0 0 1
14.412556 -26.254213 22.922123 37.715106 -1.068751 0.917546 0.021514 -0.008237 962968.000000 0 0 1
13.709756 -25.550513 21.889723 36.331063 -1.078319 0.924158 0.004615 -0.008004 498069.000000 0 0 1
12.272856 -25.020413 22.165423 35.608287 -1.114767 0.898890 0.013928 0.000173 539448.000000 0 0 1
11.333456 -26.087713 22.241623 36.106867 -1.160960 0.907149 0.015485 -0.000364 -63017.500000 0 0 1
10.025356 -25.518413 22.234223 35.299545 -1.196454 0.889407 0.022117 0.004411 680459.000000 0 0 1
8.955656 -26.667613 22.335223 35.919738 -1.246805 0.899746 0.025509 -0.001604 272764.000000 0 0 1
8.813756 -27.441813 21.160223 35.755985 -1.260024 0.937512 0.032955 0.005133 -82435.700000 0 0 1
7.511756 -27.967713 21.055223 35.804216 -1.308402 0.942131 0.031479 0.004233 -99100.000000 0 0 1
7.264456 -28.906713 19.877723 35.825889 -1.324588 0.982623 0.048764 -0.002235 -73346.900000 0 0 1
7.887756 -30.156813 20.026323 37.050016 -1.314969 0.999740 0.051500 -0.005681 161283.000000 0 0 1
7.709356 -30.950313 18.809923 37.029303 -1.326676 1.037965 0.048146 -0.011392 -28553.400000 0 0 1
8.239656 -32.430013 18.821223 38.390574 -1.321986 1.058412 0.050655 -0.020639 53743.100000 0 0 1
7.701156 -33.305213 19.806623 39.507561 -1.343560 1.045652 0.049883 -0.023149 50065.300000 0 0 1
8.616356 34.314646 20.030623 40.656640 1.324784 1.055632 0.053065 -0.024616 26369.500000 0 0 1
8.251656 33.118046 20.898223 40.020377 1.326609 1.021380 0.056613 -0.029033 -1348110.000000 0 0 1
7.238056 32.314646 20.450823 38.921228 1.350446 1.017563 0.058690 -0.029005 -757549.000000 0 0 1
7.260056 31.082746 21.131823 38.280537 1.341338 0.986005 0.049881 -0.033889 -142194.000000 0 0 1
6.182056 30.129046 20.622223 37.030438 1.368419 0.980148 0.043684 -0.032304 89154.900000 0 0 1
4.866256 30.365646 21.071923 37.279738 1.411892 0.970075 0.043842 -0.031109 -244934.000000 0 0 1
3.918556 29.548646 20.432023 36.137863 1.438952 0.969889 0.055824 -0.026061 654978.000000 0 0 1
2.469056 29.632246 20.993723 36.399213 1.487665 0.956036 0.048126 -0.017115 425473.000000 0 0 1
2.628556 29.016646 22.261123 36.666506 1.480455 0.918360 0.041790 -0.018429 255931.000000 0 0 1
1.390956 28.700746 22.888723 36.736375 1.522370 0.898156 0.036004 -0.011486 67488.000000 0 0 1
1.445556 28.078246 24.313093 37.169935 1.519359 0.857796 0.044585 -0.011709 -373976.000000 0 0 1
1.548856 29.126246 25.285943 38.602022 1.517669 0.856558 0.046009 -0.013530 252587.000000 0 0 1
1.425056 28.822646 26.704773 39.318197 1.521394 0.824129 0.037195 -0.008545 -628239.000000 0 0 1
2.614156 28.106646 27.339453 39.297113 1.478055 0.801386 0.015777 -0.003931 -557795.000000 0 0 1
2.768756 26.818246 26.799463 38.014413 1.467919 0.788399 0.021053 -0.009660 61149.600000 0 0 1
3.689156 26.102946 27.571073 38.146268 1.430395 0.762991 -0.004549 0.009490 -212304.000000 0 0 1
4.176056 24.760446 26.901763 36.799783 1.403710 0.750965 -0.002411 0.017136 41035.000000 0 0 1
3.164556 23.759946 26.863813 36.002971 1.438387 0.728528 0.020291 0.009374 363555.000000 0 0 1
3.694756 22.511146 26.442613 34.922983 1.408117 0.711827 0.011644 0.015318 643356.000000 0 0 1
2.512356 21.486846 26.467673 34.183830 1.454400 0.685228 0.017357 0.017942 396438.000000 0 0 1
2.913956 20.128646 26.585423 33.472948 1.427028 0.653047 0.016033 0.014706 143042.000000 0 0 1
3.520056 19.532746 25.418873 32.249622 1.392497 0.662932 0.014301 0.017604 -458346.000000 0 0 1
4.125656 18.192946 25.745403 31.793555 1.347796 0.627040 0.018940 0.008482 133085.000000 0 0 1
5.313356 18.228846 26.544313 32.636225 1.287174 0.620928 0.011601 0.000249 629864.000000 0 0 1
6.488856 18.161446 25.728103 32.153984 1.227644 0.643246 0.021654 -0.002786 -897862.000000 0 0 1
7.738256 18.019946 26.588083 33.038239 1.165182 0.635514 0.018818 -0.011545 -544714.000000 0 0 1
8.153356 19.145446 27.294873 34.322521 1.168194 0.651382 0.009134 -0.003472 25387.400000 0 0 1
8.615556 20.253146 26.511483 34.456879 1.168592 0.692879 0.002621 -0.001233 -357972.000000 0 0 1
9.145856 21.430346 27.432853 35.992608 1.167426 0.704122 -0.004318 0.006301 776589.000000 0 0 1
10.223056 21.075346 28.332133 36.761269 1.119162 0.690848 0.016638 -0.013577 547382.000000 0 0 1
10.275256 21.947646 29.432303 38.125327 1.132934 0.688833 0.024471 -0.025981 642741.000000 0 0 1
11.592556 21.630646 30.255163 38.956991 1.078818 0.681498 0.041931 -0.029118 861315.000000 0 0 1
12.779456 21.910446 29.555533 38.947551 1.042778 0.709244 0.052898 -0.032023 -514872.000000 0 0 1
13.913156 21.596546 30.337973 39.753985 0.998488 0.702634 0.055550 -0.023702 -713514.000000 0 0 1
15.181156 21.712446 29.554483 39.690872 0.960613 0.730836 0.061393 -0.032912 -886752.000000 0 0 1
15.387056 23.043746 29.140373 40.211156 0.982056 0.760221 0.052363 -0.032709 -473850.000000 0 0 1
16.554056 23.173146 28.368053 40.196740 0.950495 0.787343 0.101385 -0.028719 -16525.300000 0 0 1
-8.942509 16.825746 4.442890 19.565620 -1.082285 1.341722 0.020045 -0.013008 -103964.000000 0 1 0
-8.604209 17.966746 5.220490 20.593443 -1.124174 1.314497 0.026612 -0.016490 144401.000000 0 1 0
-7.213109 18.234446 5.259390 20.302343 -1.194110 1.308754 0.024071 -0.013398 -11095.300000 0 1 0
-6.931509 19.730546 5.645290 21.661246 -1.232956 1.307135 0.024412 -0.015202 -247152.000000 0 1 0
-7.218109 20.730746 4.716990 22.452504 -1.235740 1.359132 0.035352 -0.024070 118608.000000 0 1 0
-8.574109 21.079646 4.535290 23.204217 -1.184486 1.374079 0.034094 -0.022348 -16604.100000 0 1 0
-8.735009 22.235346 3.480890 24.141823 -1.196475 1.426107 0.045822 -0.024303 10523.800000 0 1 0
-8.179109 22.027446 2.173290 23.597233 -1.215261 1.478566 0.036433 -0.026577 88661.500000 0 1 0
-8.650409 20.935546 1.422390 22.696913 -1.178969 1.508086 0.045156 -0.023781 -597804.000000 0 1 0
-8.007209 21.000946 0.003890 22.475657 -1.206533 1.570623 0.025266 -0.015551 386269.000000 0 1 0
-6.706209 20.505446 -0.215810 21.575290 -1.254716 1.580799 0.019999 -0.009387 -8655.360000 0 1 0
-5.698009 21.409846 0.204090 22.156048 -1.310686 1.561585 0.021827 -0.014961 479587.000000 0 1 0
-4.276809 21.230346 -0.433010 21.661168 -1.372009 1.590788 0.018286 -0.010820 620873.000000 0 1 0
-4.065409 21.637746 -1.784710 22.088567 -1.385076 1.651682 0.012748 -0.009422 396048.000000 0 1 0
-2.699209 21.678046 -2.189510 21.954894 -1.446920 1.670690 0.011897 -0.000643 290803.000000 0 1 0
-2.561909 21.783446 -3.724510 22.247559 -1.453726 1.739000 0.017414 -0.000995 239884.000000 0 1 0
-1.308209 22.319146 -4.137410 22.737059 -1.512250 1.753784 0.029055 0.004801 416356.000000 0 1 0
-1.298409 22.485646 -5.562610 23.199844 -1.513116 1.812925 0.033492 -0.006829 63604.600000 0 1 0
0.040491 23.027746 -6.110910 23.824818 1.569038 1.830189 0.036837 -0.009637 531189.000000 0 1 0
1.144891 22.113646 -6.100310 22.968193 1.519069 1.839621 0.025280 -0.003509 116802.000000 0 1 0
2.177991 22.612446 -6.916610 23.746702 1.474774 1.866346 0.033798 -0.006734 -434377.000000 0 1 0
3.334391 21.642446 -7.040210 23.001700 1.417931 1.881862 0.034816 -0.004676 -428823.000000 0 1 0
3.028691 20.592546 -7.980610 22.291614 1.424766 1.936932 0.038748 -0.012811 541710.000000 0 1 0
4.085491 19.632446 -8.047910 21.607708 1.365626 1.952450 0.032471 -0.008786 745198.000000 0 1 0
3.702691 18.717546 -9.220510 21.191372 1.375499 2.020953 0.027981 -0.007760 110983.000000 0 1 0
4.042191 19.367746 -10.444410 22.372631 1.365043 2.056509 0.040981 -0.009556 64499.400000 0 1 0
3.080591 19.080146 -11.440510 22.459459 1.410722 2.105266 0.040913 -0.011621 -161760.000000 0 1 0
3.435791 19.473946 -12.911910 23.616872 1.396163 2.149243 0.050530 -0.010028 -66492.300000 0 1 0
3.398491 20.875346 -13.123710 24.890994 1.409413 2.126154 0.071972 -0.017721 -112538.000000 0 1 0
3.942591 21.207946 -14.367210 25.917904 1.386993 2.158360 0.088520 -0.019954 -124705.000000 0 0 1
4.108591 22.726346 -14.597210 27.321161 1.391943 2.134455 0.070127 -0.019662 101597.000000 0 0 1
2.980991 23.526346 -14.951310 28.034210 1.444759 2.133321 0.072583 -0.016631 -214053.000000 0 0 1
3.199891 24.940146 -15.036410 29.297505 1.443191 2.109742 0.070281 -0.019866 -348820.000000 0 0 1
1.912991 25.680546 -15.429410 30.020271 1.496442 2.110599 0.064826 -0.008407 133217.000000 0 0 1
1.048491 25.963146 -14.340210 29.678711 1.530434 2.075081 0.064696 -0.013630 -37868.100000 0 0 1
1.187291 27.313846 -13.937510 30.687294 1.527355 2.042246 0.047723 -0.008578 -346077.000000 0 0 1
0.271391 27.535446 -12.693610 30.321645 1.560941 2.002735 0.051550 -0.017894 797382.000000 0 0 1
-1.138409 27.608846 -12.892110 30.491816 -1.529586 2.007335 0.029507 -0.015808 618129.000000 0 0 1
-1.872409 26.407346 -13.174310 29.570531 -1.500010 2.032553 0.032043 -0.014562 -240208.000000 0 0 1
-1.828609 25.121046 -12.293910 28.027683 -1.498133 2.024875 0.049525 -0.021771 31285.200000 0 0 1
-2.704909 25.155746 -11.161810 27.653464 -1.463681 1.986279 0.044396 -0.017058 348188.000000 0 0 1
-2.515909 23.925546 -10.420910 26.217493 -1.466026 1.979564 0.062568 -0.021165 48813.200000 0 0 1
-3.325809 23.855446 -9.086010 25.742939 -1.432274 1.931520 0.035962 -0.016988 125421.000000 0 0 1
-2.871409 24.347846 -7.812910 25.731385 -1.453406 1.879300 0.040272 -0.023497 -214853.000000 0 0 1
-3.096409 25.722946 -7.754110 27.044111 -1.450997 1.861599 0.052674 -0.023320 -170320.000000 0 0 1
-2.817209 26.241446 -6.331410 27.141056 -1.463849 1.806244 0.041379 -0.019044 -101734.000000 0 0 1
-1.477209 26.042146 -5.948310 26.753652 -1.514133 1.795006 0.051554 -0.015575 -279263.000000 0 0 1
-1.207009 26.617946 -4.678010 27.052832 -1.525482 1.744591 0.053265 -0.012867 -277952.000000 0 0 1
-1.838509 26.062546 -3.344310 26.340479 -1.500371 1.698105 0.050080 -0.012915 -361252.000000 0 0 1
-3.202609 26.405946 -3.327910 26.806822 -1.450102 1.695262 0.034233 -0.015037 -475411.000000 0 0 1
-3.919409 25.857546 -2.281010 26.252190 -1.420364 1.657794 0.033916 -0.008938 -529900.000000 0 0 1
-4.961409 24.843346 -2.728910 25.480470 -1.373682 1.678100 0.027650 -0.013898 -833144.000000 0 0 1
-6.099009 25.400246 -3.320110 26.332367 -1.335142 1.697218 0.019207 -0.012207 -899542.000000 0 0 1
-7.029209 24.418346 -3.616010 25.665949 -1.290509 1.712154 0.002677 -0.014208 -88292.800000 0 0 1
-8.395209 25.030246 -4.030310 26.706482 -1.247185 1.722286 0.010140 -0.004776 -114457.000000 0 0 1
-9.098509 25.589146 -2.944310 27.317691 -1.229176 1.678786 0.023570 -0.010205 -975011.000000 0 0 1
-10.212809 26.265646 -3.439010 28.390358 -1.199958 1.692228 0.032353 -0.006331 -229846.000000 0 0 1
-11.099709 26.704746 -2.213510 29.004252 -1.176876 1.647187 0.031088 -0.007714 229034.000000 0 0 1
-11.738009 25.722446 -1.427210 28.310105 -1.142688 1.621231 0.033773 -0.013490 213556.000000 0 0 1
-10.826709 25.140446 -0.532210 27.377781 -1.164151 1.590237 0.043375 -0.023064 -91279.400000 0 0 1
-11.177609 23.608846 -0.287710 26.122774 -1.128613 1.581810 0.042948 -0.021098 -86896.800000 0 0 1
-12.068909 23.389246 0.757890 26.330397 -1.094429 1.542009 0.049134 -0.023984 -422928.000000 0 0 1
-12.410009 22.024746 0.840690 25.294358 -1.057680 1.537554 0.045478 -0.020740 -381660.000000 0 0 1
-13.435709 21.822346 1.949790 25.700871 -1.018923 1.494859 0.052280 -0.015734 -229805.000000 0 0 1
-12.940209 21.862146 3.302290 25.618500 -1.036354 1.441534 0.053941 -0.015565 162224.000000 0 0 1
-12.516009 23.141346 3.736790 26.573219 -1.075005 1.429706 0.041916 -0.015058 -172380.000000 0 0 1
-12.393009 23.161646 5.244090 26.787105 -1.079491 1.373755 0.044237 -0.016629 524804.000000 0 0 1
-11.204209 22.632146 5.889090 25.931250 -1.111111 1.341693 0.046583 -0.013997 802555.000000 0 0 1
-11.400909 22.419146 7.258290 26.177884 -1.100344 1.289847 0.035552 -0.010801 -294372.000000 0 0 1
-10.187009 21.879946 8.026990 25.435011 -1.135056 1.249720 0.041796 -0.016200 345537.000000 0 0 1
-9.228909 22.939346 8.308790 26.084907 -1.188293 1.246619 0.049828 -0.021301 736273.000000 0 0 1
-8.057709 22.555046 8.991990 25.583445 -1.227681 1.211648 0.057841 -0.024357 -55277.000000 0 0 1
-8.255009 22.564346 10.558090 26.244393 -1.220078 1.156770 0.043713 -0.016670 -522367.000000 0 0 1
-9.004909 21.494846 10.996890 25.769136 -1.174075 1.129904 0.045126 -0.018332 -228466.000000 0 0 1
-8.746709 21.152446 12.347790 26.007668 -1.178699 1.076088 0.029844 -0.014646 -213611.000000 0 0 1
-9.739009 20.052446 12.794490 25.703071 -1.118673 1.049758 0.029887 -0.012667 21154.000000 0 0 1
-9.765109 18.881746 11.984090 24.402789 -1.093506 1.057450 0.039827 -0.024010 -179393.000000 0 1 0
-10.465209 17.871846 12.664290 24.275661 -1.041055 1.021969 0.040475 -0.021876 -142585.000000 0 1 0
-10.801609 16.646546 11.794290 23.084357 -0.995209 1.034540 0.035375 -0.027949 -202006.000000 0 1 0
-10.967209 15.428546 12.490190 22.678725 -0.952833 0.987540 0.032910 -0.027229 31504.400000 0 1 0
-11.369409 14.362946 11.626190 21.696220 -0.901211 1.005267 0.023044 -0.019876 -43.460200 0 1 0
-11.560309 12.976646 12.206690 21.237640 -0.843057 0.958477 0.009478 -0.027317 -462109.000000 0 1 0
-12.605709 12.913146 13.123090 22.312972 -0.797445 0.942043 0.012924 -0.021951 -246487.000000 0 1 0
-13.026409 11.601646 13.402490 21.998006 -0.727611 0.915670 0.016663 -0.021965 -318341.000000 0 1 0
-14.065809 11.468446 14.504790 23.232761 -0.684026 0.896529 0.032770 -0.030979 -140378.000000 0 1 0
-15.198809 12.283246 14.312690 24.222614 -0.679704 0.938646 0.046227 -0.034393 -347373.000000 0 1 0
-15.882009 12.520946 15.496690 25.478613 -0.667611 0.916976 0.043578 -0.027657 -101139.000000 0 0 1
-16.930309 13.663546 15.333590 26.616665 -0.679023 0.956859 0.061771 -0.032454 1097170.000000 0 0 1
-18.226509 13.250546 14.872790 26.999676 -0.628613 0.987413 0.061530 -0.030445 1252690.000000 0 0 1
-19.135609 14.326846 14.551590 27.985332 -0.642669 1.023978 0.078446 -0.028857 427511.000000 0 0 1
-20.363909 13.928346 13.736790 28.238042 -0.599888 1.062758 0.066860 -0.027448 -583208.000000 0 0 1
-21.179509 13.013446 14.384490 28.719940 -0.550966 1.046211 0.056818 -0.017748 -231408.000000 0 0 1
-22.404209 12.908646 13.693290 29.258980 -0.522714 1.083767 0.039465 -0.016462 -260562.000000 0 0 1
-23.454109 12.017846 14.344790 30.004947 -0.473517 1.072328 0.040632 -0.012324 -381704.000000 0 0 1
-23.826009 12.478546 15.634390 31.109918 -0.482456 1.044247 0.030247 -0.004272 -69534.000000 0 0 1
-24.779909 11.595846 16.152590 31.771272 -0.437683 1.037468 0.021528 -0.007755 -301842.000000 0 0 1
-25.584719 12.121246 17.368090 33.213747 -0.442443 1.020525 0.029106 -0.009409 30346.100000 0 0 1
-26.477049 13.160246 16.958590 34.085481 -0.461280 1.050046 0.034024 -0.004101 490289.000000 0 0 1
-27.234179 13.627746 18.064190 35.408063 -0.463961 1.035412 0.027699 0.004999 -528916.000000 0 0 1
-28.395029 14.541046 17.848190 36.555131 -0.473279 1.060708 0.025185 0.001541 -315182.000000 0 0 1
-27.858959 15.835646 17.468890 36.497279 -0.516877 1.071696 0.031767 0.003197 382621.000000 0 0 1
-28.907219 16.698746 17.068490 37.494117 -0.523836 1.098165 0.024652 0.000436 2476.780000 0 0 1
-28.570119 18.233246 17.006890 37.920143 -0.568030 1.105719 0.039943 -0.001030 27516.600000 0 0 1
-28.199989 18.855446 18.274290 38.532024 -0.589363 1.076670 0.043201 -0.003153 -144780.000000 0 0 1
-29.245659 18.877146 19.193890 39.749977 -0.573183 1.066872 0.027706 -0.013818 -926627.000000 0 0 1
-28.672009 19.335046 20.582590 40.243896 -0.593305 1.033929 0.028305 -0.016556 769427.000000 0 0 1
-27.994819 18.323546 21.379890 39.705943 -0.579556 1.002193 0.031249 -0.014366 835239.000000 0 0 1
-26.849739 17.715446 20.738990 38.273375 -0.583233 0.998142 0.049593 -0.011374 -297727.000000 0 0 1
-26.252739 16.583646 21.546090 37.794942 -0.563397 0.964195 0.046457 -0.012427 -768605.000000 0 0 1
-27.086119 15.514046 21.850890 38.102557 -0.520155 0.960054 0.021317 -0.000028 -385633.000000 0 0 1
-26.470319 14.255646 21.935690 37.216606 -0.494012 0.940473 0.020256 0.007985 -353463.000000 0 0 1
-27.463629 13.083946 22.184990 37.651220 -0.444598 0.940699 0.028426 -0.004257 142977.000000 0 0 1
-28.158549 12.760446 20.987890 37.366086 -0.425482 0.974378 0.035709 -0.009878 -83370.900000 0 0 1
-29.400729 12.161346 21.242590 38.256357 -0.392210 0.982109 0.066204 -0.015271 -408662.000000 0 0 1
-30.205359 11.961846 19.943190 38.120602 -0.377068 1.020241 0.070437 -0.017303 -580169.000000 0 0 1
-29.596519 11.288846 18.869490 36.870715 -0.364391 1.033547 0.084214 -0.021234 98723.100000 0 0 1
-29.115619 9.977446 19.129990 36.238450 -0.330142 1.014680 0.097990 -0.022399 -139656.000000 0 0 1
-28.403619 9.337246 17.901690 34.848533 -0.317606 1.031305 0.092903 -0.025115 -54999.500000 0 0 1
-29.216199 8.912446 16.804190 34.862570 -0.296085 1.067846 0.088083 -0.017321 650501.000000 0 0 1
-29.976399 9.911646 16.079290 35.431184 -0.319332 1.099752 0.079407 -0.013368 271580.000000 0 0 1
-29.153409 10.981246 15.251990 34.686197 -0.360235 1.115517 0.068641 -0.013258 -19733.500000 0 0 1
-28.689919 10.462446 14.043890 33.612573 -0.349686 1.139756 0.058546 -0.016864 -289994.000000 0 0 1
-27.748039 11.352046 13.559490 32.904139 -0.388336 1.146049 0.040630 -0.005066 -340108.000000 0 0 1
-27.242209 11.104546 12.080690 31.802389 -0.387060 1.181143 0.055853 0.002443 -242122.000000 0 0 1
-26.425959 10.055946 11.677490 30.591128 -0.363613 1.179131 0.062748 -0.001341 431950.000000 0 0 1
-27.204269 8.878346 11.454990 30.823921 -0.315460 1.190036 0.064171 0.002258 76707.900000 0 0 1
-26.486269 7.744546 10.689590 29.593374 -0.284468 1.201225 0.068959 -0.000643 -221964.000000 0 0 1
-26.349229 8.045746 9.299090 29.077293 -0.296358 1.245272 0.078624 -0.001883 218650.000000 0 0 1
-25.834929 6.904346 8.641690 28.103245 -0.261146 1.258234 0.089758 -0.008195 -294432.000000 0 0 1
-25.242169 7.321346 7.310190 27.280178 -0.282298 1.299514 0.093696 -0.001194 768002.000000 0 0 1
-26.214419 7.687446 6.251290 28.024475 -0.285255 1.345838 0.099043 -0.005385 880192.000000 0 0 1
-25.548449 8.266146 5.144690 27.340817 -0.312918 1.381499 0.098292 -0.007495 -123699.000000 0 0 1
-26.461319 8.977746 4.110090 28.243480 -0.327091 1.424754 0.083989 -0.008754 -317227.000000 0 0 1
-27.229089 8.175546 3.274690 28.617939 -0.291687 1.456117 0.095768 -0.011100 -195797.000000 0 0 1
-26.607939 7.059246 2.637590 27.654516 -0.259332 1.475275 0.101334 -0.010195 201382.000000 0 0 1
-25.571979 7.244546 1.432790 26.616958 -0.276066 1.516940 0.111883 -0.009823 489218.000000 0 0 1
-24.342109 7.733246 1.899490 25.611510 -0.307606 1.496563 0.094994 -0.009563 632042.000000 0 0 1
-23.359709 7.684946 0.843290 24.605803 -0.317830 1.536518 0.100516 -0.007662 585537.000000 0 1 0
-21.974609 8.326046 1.085590 23.524136 -0.362180 1.524632 0.071458 -0.007399 7881.900000 0 1 0
-22.103909 9.702946 1.118390 24.165694 -0.413643 1.524500 0.061266 -0.010794 399841.000000 0 1 0
-20.986609 10.394646 1.600290 23.474398 -0.459880 1.502572 0.064248 -0.011006 -615149.000000 0 1 0
-21.477009 11.495746 2.559790 24.494216 -0.491455 1.466099 0.066772 -0.021207 -15481.400000 0 1 0
-20.499309 12.408446 3.061490 24.157068 -0.544315 1.443722 0.075695 -0.014524 81831.400000 0 1 0
-21.074009 13.471346 3.702690 25.284401 -0.568774 1.423826 0.083721 -0.027007 -877081.000000 0 0 1
-20.037709 14.300646 4.485690 25.022783 -0.619853 1.390558 0.051527 -0.012513 -117796.000000 0 0 1
-19.418609 13.524946 5.522590 24.300320 -0.608369 1.341529 0.042583 -0.020668 -541825.000000 0 1 0
-18.538109 14.320346 6.205490 24.233075 -0.657735 1.311836 0.029934 -0.019222 -1071120.000000 0 1 0
-17.926109 13.460446 7.343590 23.589347 -0.644067 1.254226 0.003049 -0.021071 -914573.000000 0 1 0
-17.029909 12.622946 6.712690 22.235485 -0.637860 1.264121 0.014575 -0.012571 -310923.000000 0 1 0
-16.474209 11.802446 7.791990 21.712034 -0.621661 1.203730 0.009244 -0.020437 -278941.000000 0 1 0
10.127791 -33.609213 -14.441510 37.956667 -1.278111 1.961105 0.037963 -0.004567 -632646.000000 0 0 1
11.169491 -33.228913 -13.570910 37.591060 -1.246524 1.940152 0.032452 -0.007685 -212560.000000 0 0 1
11.760891 -32.084713 -14.061510 36.952313 -1.219448 1.961167 0.033387 -0.016351 -990512.000000 0 0 1
12.860891 -31.537413 -13.187010 36.522708 -1.183586 1.940204 0.027335 -0.018630 -1493600.000000 0 0 1
14.061291 -32.056913 -13.585310 37.548985 -1.157433 1.940997 0.035065 -0.011849 -1969510.000000 0 0 1
15.181491 -31.536013 -12.995010 37.334543 -1.122138 1.926307 0.035546 -0.010726 -1313620.000000 0 0 1
16.473291 -32.047313 -13.565110 38.502101 -1.095988 1.930847 0.055775 -0.012305 -698953.000000 0 0 1
16.703891 -33.397313 -13.234810 39.617682 -1.107023 1.911407 0.057123 -0.018571 -366281.000000 0 0 1
17.941691 -33.894313 -13.685610 40.718849 -1.083951 1.913569 0.054255 -0.006447 156195.000000 0 0 1
18.143391 33.308746 -13.349310 40.210189 1.072029 1.909207 0.033297 -0.011678 -122606.000000 0 0 1
18.619691 32.949346 -12.084510 39.728927 1.056434 1.879868 0.033271 -0.008819 -221363.000000 0 0 1
18.521991 31.575246 -11.897510 38.491701 1.040289 1.885035 0.018219 -0.005745 173397.000000 0 0 1
19.201991 31.069446 -10.591210 38.028945 1.017222 1.853032 0.019164 -0.008954 231091.000000 0 0 1
20.583891 30.804146 -10.694510 38.561179 0.981720 1.851819 0.021973 -0.006051 -178936.000000 0 0 1
21.121991 30.722546 -9.424810 38.455694 0.968504 1.818401 0.024285 -0.003639 586851.000000 0 0 1
22.431791 29.866046 -9.283210 38.488231 0.926604 1.814394 0.016317 0.010252 361615.000000 0 0 1
23.551591 30.336146 -9.968610 39.677858 0.910641 1.824756 0.022474 -0.003614 62617.500000 0 0 1
24.703391 29.518146 -9.710710 39.697309 0.873964 1.817923 0.019158 0.009433 561513.000000 0 0 1
25.866291 29.963146 -10.633310 40.986857 0.858649 1.833231 0.014285 0.006335 -6804.440000 0 0 1
26.583391 31.109846 -10.224910 42.178762 0.863695 1.815654 0.031433 -0.008198 -57342.800000 0 0 1
27.571491 31.449046 -11.172310 43.290301 0.851002 1.831829 0.039723 -0.005217 282194.000000 0 0 1
28.124191 32.933946 -11.148910 44.720388 0.864009 1.822756 0.042818 -0.020757 55638.500000 0 0 1
27.184091 33.881346 -11.594810 44.959538 0.894635 1.831639 0.038322 -0.018116 149242.000000 0 0 1
27.724491 -33.459013 -11.462310 44.939265 -0.878852 1.828708 0.043098 -0.022477 419875.000000 0 0 1
26.684291 -32.350213 -11.773010 43.556761 -0.881082 1.844492 0.040232 -0.020992 270815.000000 0 0 1
25.623891 -32.281513 -10.818910 42.611368 -0.899870 1.827504 0.059411 -0.022184 12227.300000 0 0 1
24.648691 -31.329713 -11.217610 41.411878 -0.904186 1.845102 0.064091 -0.019657 25874.500000 0 0 1
24.921791 -29.834513 -10.921910 40.379227 -0.874878 1.844691 0.044568 -0.025947 -531401.000000 0 0 1
25.984191 -29.449013 -11.759710 40.996504 -0.847821 1.861730 0.040731 -0.016499 12523.900000 0 0 1
26.603791 -28.242813 -11.307410 40.413806 -0.815273 1.854372 0.044288 -0.014135 183551.000000 0 0 1
27.564891 -27.603513 -12.321210 40.909527 -0.786098 1.876728 0.034692 -0.005084 296997.000000 0 0 1
28.823291 -28.185113 -12.606010 42.238539 -0.774204 1.873863 0.016315 -0.006326 229446.000000 0 0 1
28.752291 -29.168113 -13.619110 43.161942 -0.792577 1.891817 0.017897 -0.009110 119364.000000 0 0 1
30.168091 -29.602713 -14.098310 44.555546 -0.775939 1.892751 0.017183 -0.006351 264775.000000 0 0 1
30.641891 -30.600213 -13.223810 45.278777 -0.784718 1.867169 0.026002 -0.020024 -212605.000000 0 0 1
31.685691 -31.361013 -13.774210 46.660744 -0.780248 1.870460 0.025300 -0.018650 -193441.000000 0 0 1
32.519091 -32.084513 -12.667910 47.406574 -0.778671 1.841302 0.016348 -0.017700 102058.000000 0 0 1
33.366391 -33.099413 -13.175210 48.810587 -0.781381 1.844112 0.012133 -0.023902 -22032.500000 0 0 1
33.992291 -33.888113 -12.193810 49.523419 -0.783863 1.819578 0.022242 -0.022931 -574231.000000 0 0 1
33.252991 33.635046 -11.580010 48.694706 0.791110 1.810905 0.027254 -0.026355 -309750.000000 0 0 1
32.409391 34.075846 -10.527610 48.190896 0.810458 1.791029 0.047106 -0.026347 166498.000000 0 0 1
31.802991 32.946846 -9.868110 46.843404 0.803062 1.783048 0.060160 -0.020113 467462.000000 0 0 1
31.043691 33.264046 -8.495110 46.285790 0.819911 1.755379 0.046926 -0.018486 492447.000000 0 0 1
29.967391 34.174246 -8.583210 46.255758 0.850891 1.757438 0.040151 -0.022482 -268021.000000 0 0 1
29.254991 34.328846 -7.366010 45.701009 0.865027 1.732681 0.049925 -0.024005 702985.000000 0 0 1
28.207591 -33.208113 -7.397710 44.194718 -0.866640 1.738977 0.049349 -0.025287 -29283.900000 0 0 1
28.783191 -31.935813 -7.547210 43.650070 -0.837273 1.744572 0.032957 -0.030262 132336.000000 0 0 1
27.921691 -30.916513 -8.089210 42.436858 -0.836254 1.762588 0.025549 -0.018994 343487.000000 0 0 1
26.949891 -30.285813 -7.045310 41.148068 -0.843616 1.742863 0.022278 -0.011537 350856.000000 0 0 1
26.037891 -29.464813 -7.754910 40.078493 -0.847063 1.765518 0.031239 -0.025593 -228455.000000 0 0 1
25.092191 -28.892613 -6.887410 38.882355 -0.855680 1.748871 0.026824 -0.028214 67243.600000 0 0 1
24.194791 -27.858313 -7.685310 37.690019 -0.855663 1.776145 0.062596 -0.031172 -441327.000000 0 0 1
23.269791 -28.537213 -8.465710 37.782588 -0.886724 1.796779 0.075485 -0.029187 118806.000000 0 0 1
22.412691 -27.627313 -9.191110 36.743348 -0.889232 1.823625 0.096645 -0.035685 530036.000000 0 0 1
21.087291 -28.234013 -9.719810 36.555548 -0.929298 1.839925 0.098072 -0.031782 83521.900000 0 0 1
21.267391 -28.996513 -10.915910 37.580005 -0.937974 1.865516 0.099272 -0.032776 614475.000000 0 0 1
20.122391 -29.774913 -11.320610 37.677743 -0.976486 1.875970 0.095222 -0.031569 810298.000000 0 0 1
19.836591 -31.149613 -10.544410 38.405382 -1.003745 1.848924 0.086438 -0.036110 374329.000000 0 0 1
20.714491 -32.202913 -10.938610 39.821740 -0.999182 1.849063 0.070007 -0.026342 118416.000000 0 0 1
20.461791 -33.349613 -10.137710 40.418495 -1.020470 1.824322 0.056548 -0.021904 190998.000000 0 0 1
21.556091 34.266546 -10.354510 41.786088 1.009275 1.821203 0.044981 -0.011996 638749.000000 0 0 1
22.654091 -34.233713 -9.466710 42.128061 -0.986207 1.797445 0.044674 -0.008985 -29367.500000 0 0 1
23.774691 33.666846 -9.806310 42.365743 0.955938 1.804383 0.040272 -0.012604 -92224.500000 0 0 1
24.986791 33.992946 -8.919610 43.120987 0.936927 1.779151 0.045423 -0.012045 -482443.000000 0 0 1
24.979991 33.602346 -7.547610 42.545082 0.931532 1.749143 0.036997 -0.018657 -44193.400000 0 0 1
25.306591 32.244846 -7.360810 41.645350 0.905377 1.748480 0.029729 -0.005070 -195971.000000 0 0 1
25.429691 31.907646 -5.828310 41.215728 0.897901 1.712682 0.027089 -0.002745 787447.000000 0 0 1
26.615391 32.479046 -5.169610 42.308301 0.884300 1.693291 0.035984 -0.012498 1396350.000000 0 0 1
27.572791 31.514946 -4.718310 42.139211 0.852016 1.683001 0.041091 -0.009726 365462.000000 0 0 1
27.140291 30.588646 -3.553210 41.047362 0.845061 1.657468 0.032031 0.007957 -581890.000000 0 0 1
27.029891 31.180646 -2.271010 41.328019 0.856584 1.625775 0.040276 -0.005680 38829.400000 0 0 1
26.831491 30.304646 -1.138310 40.491928 0.846111 1.598912 0.024365 0.010137 948428.000000 0 0 1
25.525591 29.368246 -1.169610 38.928366 0.855286 1.600846 0.019626 0.007267 105550.000000 0 0 1
24.302691 30.003046 -1.098810 38.626557 0.889983 1.599247 0.013257 0.004397 -891147.000000 0 0 1
23.340891 28.962046 -1.222310 37.216815 0.892460 1.603645 0.015201 0.007522 74936.400000 0 0 1
21.914791 29.326946 -0.770710 36.618599 0.929053 1.591845 0.042679 -0.005937 32131.500000 0 0 1
21.782091 29.430746 0.663490 36.620602 0.933653 1.552677 0.050744 -0.011748 109573.000000 0 0 1
20.558891 30.060146 1.015790 36.432296 0.970940 1.542911 0.045570 -0.018359 -302300.000000 0 0 1
19.949991 29.401246 2.213790 35.599667 0.974617 1.508570 0.042566 -0.023939 -600303.000000 0 0 1
19.399991 28.138946 1.873090 34.229642 0.967196 1.516048 0.057596 -0.013866 335118.000000 0 0 1
18.796791 27.450146 2.963590 33.400789 0.970371 1.481951 0.060690 -0.013734 -74162.400000 0 0 1
17.965191 26.213246 2.551490 31.880911 0.969972 1.490679 0.062716 0.004148 -121067.000000 0 0 1
18.644291 25.053346 2.082590 31.298832 0.931028 1.504208 0.060032 -0.001934 102529.000000 0 0 1
19.389591 24.272746 3.019790 31.212843 0.896774 1.473896 0.059195 0.005180 151862.000000 0 0 1
20.664991 23.650946 2.404790 31.499081 0.852675 1.494377 0.053479 0.005261 -114705.000000 0 0 1
20.426791 22.667846 1.410490 30.546268 0.837354 1.524604 0.058429 0.001863 -776507.000000 0 0 1
21.605991 22.032246 1.124090 30.878832 0.795166 1.534385 0.033834 -0.003052 -977371.000000 0 0 1
21.512891 20.892446 0.091390 29.988450 0.770768 1.567749 0.057444 -0.007245 -237953.000000 0 0 1
21.363191 21.414046 -1.224610 30.272875 0.786587 1.611260 0.033421 -0.001319 298748.000000 0 0 1
21.583891 20.421146 -2.256110 29.798953 0.757724 1.646580 0.059416 -0.012313 164600.000000 0 0 1
21.269791 20.958146 -3.662210 30.084210 0.778018 1.692831 0.039819 0.001075 -380083.000000 0 0 1
22.149391 22.009246 -3.907510 31.468573 0.782225 1.695289 0.036049 0.005988 9757.290000 0 0 1
21.916691 22.653146 -5.165610 31.940412 0.801920 1.733236 0.022345 0.003277 -404422.000000 0 0 1
22.917791 23.802946 -5.458410 33.490291 0.804342 1.734512 0.019088 0.020332 -5358.230000 0 0 1
22.865191 25.010846 -4.690610 34.210542 0.830185 1.708340 0.007159 0.024986 -32639.700000 0 0 1
23.286891 24.833946 -3.341610 34.207755 0.817536 1.668638 0.015301 0.013749 -819963.000000 0 0 1
22.186191 24.674746 -2.318510 33.263278 0.838453 1.640555 0.017339 0.004622 -2718140.000000 0 0 1
21.418791 25.793846 -2.246710 33.602601 0.877801 1.637707 0.032493 0.003669 -579101.000000 0 0 1
20.378991 25.711146 -1.319610 32.834550 0.900576 1.610997 0.051733 0.006495 -29866.600000 0 0 1
19.261691 24.660446 -1.613810 31.332965 0.907701 1.622324 0.067813 -0.005537 -1905480.000000 0 0 1
18.453391 24.970346 -2.656810 31.162549 0.934365 1.656156 0.048304 0.000395 -658483.000000 0 0 1
17.858091 23.858546 -3.280310 29.981696 0.928257 1.680426 0.052290 -0.004594 288425.000000 0 0 1
17.195191 24.252446 -4.656710 30.092203 0.954050 1.726169 0.057021 -0.008884 69042.200000 0 0 1
16.747391 23.188046 -5.463610 29.120639 0.945298 1.759535 0.060719 -0.012032 51349.900000 0 0 1
16.130991 23.666746 -6.640010 29.400909 0.972534 1.798605 0.064435 -0.015208 -211623.000000 0 0 1
15.411291 22.573146 -7.411810 28.319423 0.971757 1.835602 0.069255 -0.017524 -260909.000000 0 0 1
16.252291 21.459146 -7.715310 28.002820 0.922602 1.849926 0.048487 -0.010640 377973.000000 0 0 1
15.557191 20.510846 -8.506610 27.112422 0.921886 1.889940 0.055263 -0.007088 31675.700000 0 0 1
16.321091 19.168646 -8.808710 26.672240 0.865463 1.907373 0.050603 -0.004784 -170743.000000 0 0 1
17.443691 19.373546 -9.632510 27.792119 0.837767 1.924731 0.052561 -0.007210 -296646.000000 0 0 1
18.115091 18.160246 -9.729210 27.433713 0.786643 1.933330 0.057689 -0.006871 -868575.000000 0 0 1
19.486091 18.333046 -10.369010 28.693635 0.754919 1.940533 0.047571 -0.010476 -769535.000000 0 0 1
19.447391 18.702346 -11.707410 29.411600 0.765871 1.980191 0.049437 -0.009653 -1247440.000000 0 0 1
20.704091 19.012146 -12.107810 30.605884 0.742823 1.977522 0.042669 0.000956 -1522420.000000 0 0 1
20.862891 19.347346 -13.593510 31.533530 0.747725 2.016487 0.039065 -0.007538 -116461.000000 0 0 1
20.730191 18.269246 -14.444210 31.179182 0.722380 2.052472 0.039100 -0.000354 240106.000000 0 0 1
21.005791 18.628746 -15.788910 32.211226 0.725496 2.083079 0.032413 -0.002471 -11553.200000 0 0 1
20.934891 17.516246 -16.876710 32.092240 0.696723 2.124547 0.027405 0.003097 199293.000000 0 0 1
21.963791 16.519246 -16.731310 32.174995 0.644852 2.117659 0.044203 -0.003727 486978.000000 0 0 1
22.202291 15.726046 -17.888310 32.561356 0.616280 2.152409 0.048722 -0.013192 30386.400000 0 0 1
23.164391 16.164346 -19.072910 34.083001 0.609255 2.164702 0.042206 -0.009040 -100731.000000 0 0 1
24.504591 16.166146 -18.636510 34.772673 0.583177 2.136432 0.049244 -0.008979 -17385.300000 0 0 1
25.315691 16.555446 -19.730410 36.114486 0.579154 2.148772 0.061288 -0.013085 113788.000000 0 0 1
26.753491 17.016146 -19.384010 37.162324 0.566495 2.119526 0.046494 -0.014293 206648.000000 0 0 1
26.857791 18.271946 -18.839610 37.551776 0.597397 2.096356 0.037959 -0.009491 21906.500000 0 0 1
28.201391 18.446146 -18.450010 38.418506 0.579243 2.071722 0.035641 -0.017896 -51093.900000 0 0 1
28.342591 19.542246 -17.392710 38.570821 0.603645 2.038602 0.039013 -0.013807 246049.000000 0 0 1
27.598891 19.153146 -16.239010 37.312829 0.606676 2.021071 0.033355 -0.014731 1125700.000000 0 0 1
26.297591 19.769746 -16.099910 36.628039 0.644633 2.025896 0.029352 -0.008776 874434.000000 0 0 1
25.515491 19.172046 -14.890210 35.218262 0.644389 2.007327 0.030537 -0.004850 -78808.000000 0 0 1
25.918391 19.603246 -13.592110 35.224930 0.647550 1.966943 0.026141 -0.007122 127988.000000 0 0 1
25.002291 19.287146 -12.567910 33.986187 0.657067 1.949584 0.030998 -0.009442 -8735.230000 0 0 1
25.566691 19.909446 -11.277210 34.310599 0.661634 1.905702 0.026689 -0.003920 -219776.000000 0 0 1
25.398691 21.313946 -11.172010 34.988450 0.698176 1.895793 0.027709 0.002602 77858.600000 0 0 1
25.791591 21.908046 -9.925110 35.265797 0.704161 1.856088 0.023243 0.005029 -310984.000000 0 0 1
24.880691 21.571546 -8.777210 34.079610 0.714281 1.831282 0.027353 0.001214 -969122.000000 0 0 1
25.014791 20.245346 -8.352910 33.247329 0.680407 1.824753 0.036788 -0.014312 -105901.000000 0 0 1
24.197791 19.851646 -7.312710 32.141821 0.687051 1.800320 0.037276 -0.012145 415744.000000 0 0 1
22.647691 19.713346 -7.511910 30.950973 0.716239 1.815948 0.038819 -0.012288 424146.000000 0 0 1
21.941591 20.904546 -7.708510 31.270667 0.761199 1.819873 0.034696 0.000291 215481.000000 0 0 1
20.566691 20.686146 -8.000510 30.247538 0.788294 1.838483 0.043624 -0.005365 259304.000000 0 0 1
19.724791 21.975146 -8.002110 30.594251 0.839311 1.835430 0.040624 -0.013114 -520400.000000 0 0 1
20.090891 22.836546 -9.049810 31.734064 0.849272 1.859987 0.042540 -0.010256 105289.000000 0 0 1
19.547191 22.589746 -10.338810 31.611395 0.857479 1.903987 0.050547 -0.002503 -157637.000000 0 0 1
18.039891 22.797446 -10.576110 30.935664 0.901375 1.919707 0.045785 -0.009311 -302004.000000 0 0 1
17.706991 24.168846 -10.376310 31.707073 0.938500 1.904194 0.046326 -0.012980 -279064.000000 0 0 1
16.374091 24.547446 -10.581510 31.347349 0.982536 1.915116 0.047674 -0.012122 -158382.000000 0 0 1
16.126591 26.022946 -10.227610 32.277928 1.016013 1.893214 0.051463 -0.012966 35714.600000 0 0 1
16.630991 26.896346 -11.212110 33.551672 1.017003 1.911525 0.056636 -0.012576 54021.900000 0 0 1
16.815591 28.182346 -10.685010 34.513449 1.032828 1.885558 0.067174 -0.013978 -112126.000000 0 0 1
19.661091 28.970446 33.270118 48.298510 0.974536 0.810904 0.008411 0.001934 -376489.000000 0 0 1
18.353191 29.237246 33.649862 48.207566 1.010234 0.798167 0.022848 -0.017958 -1500390.000000 0 0 1
17.609291 28.069146 33.650585 47.226327 1.010506 0.777686 0.027344 -0.016222 -1089900.000000 0 0 1
16.150891 28.401846 33.877715 47.066078 1.053743 0.767296 0.053909 -0.026371 -963462.000000 0 0 1
15.714391 28.992946 32.665670 46.417443 1.074110 0.790153 0.054870 -0.027577 863557.000000 0 0 1
14.371091 29.551746 32.667735 46.335892 1.118167 0.788345 0.043793 -0.025496 1240900.000000 0 0 1
13.608691 29.526646 31.297143 45.127935 1.138919 0.804432 0.045140 -0.027031 141069.000000 0 0 1
13.225891 28.223946 30.928193 43.909777 1.132578 0.789278 0.047549 -0.027821 -505105.000000 0 0 1
11.948891 27.871346 31.348393 43.615475 1.165782 0.768801 0.040566 -0.017173 -881052.000000 0 0 1
11.661191 26.353546 31.122323 42.415702 1.154205 0.746978 0.022131 -0.007277 -24039.500000 0 0 1
11.648691 25.825146 29.764703 41.092186 1.147061 0.760720 0.023332 -0.010261 150324.000000 0 0 1
12.935691 25.497346 29.290383 40.931324 1.101298 0.773316 0.036579 -0.016349 -144549.000000 0 0 1
12.956491 24.840546 27.914193 39.549028 1.090029 0.787227 0.055806 -0.019027 -325377.000000 0 0 1
12.564191 25.612746 26.769823 39.121543 1.114742 0.817190 0.052493 -0.019798 190471.000000 0 0 1
12.499891 24.880446 25.573433 37.805877 1.105232 0.827877 0.059428 -0.025377 203243.000000 0 0 1
11.350791 23.850446 25.289343 36.568226 1.126601 0.807141 0.048027 -0.021725 -327285.000000 0 0 1
11.591391 23.161246 24.083903 35.367189 1.106777 0.821713 0.054171 -0.031281 -113923.000000 0 0 1
10.661191 22.162446 23.773313 34.205342 1.122425 0.802352 0.046544 -0.029288 -228946.000000 0 0 1
10.707991 21.645046 22.304223 32.873203 1.111391 0.825088 0.063165 -0.029655 -9257.270000 0 0 1
10.406591 22.694846 21.393423 32.879047 1.140860 0.862329 0.059480 -0.032945 201413.000000 0 0 1
10.709791 22.354446 20.043523 31.877323 1.124016 0.890825 0.057619 -0.022904 -692184.000000 0 0 1
10.419591 23.589646 19.075123 32.076465 1.154865 0.933933 0.048573 -0.024411 1680930.000000 0 0 1
9.009791 23.953046 18.913123 31.821863 1.211023 0.934347 0.052096 -0.025836 1500970.000000 0 0 1
8.444191 24.631346 19.977723 32.819461 1.240530 0.916355 0.048466 -0.025202 -806903.000000 0 0 1
7.192091 25.438946 19.674423 32.953742 1.295267 0.931001 0.050493 -0.025742 -296118.000000 0 0 1
7.469691 26.668746 18.994123 33.582660 1.297703 0.969644 0.051634 -0.028921 -219158.000000 0 0 1
6.276691 27.274746 18.561723 33.583422 1.344606 0.985190 0.051299 -0.033826 -66662.300000 0 0 1
6.445791 28.179846 17.373223 33.726560 1.345927 1.029649 0.063114 -0.027147 26206.100000 0 0 1
6.765891 27.538646 16.158823 32.638350 1.329881 1.052861 0.060722 -0.021800 -176844.000000 0 0 1
7.250291 28.509046 15.251523 33.135199 1.321760 1.092484 0.056642 -0.017891 -54986.800000 0 0 1
7.516991 27.912246 13.929423 32.087809 1.307730 1.121754 0.056839 -0.014922 735653.000000 0 0 1
6.310091 27.569046 13.230423 31.223607 1.345789 1.133235 0.049357 -0.012921 580902.000000 0 0 1
6.593991 26.552346 12.224823 29.965882 1.327381 1.150580 0.039750 -0.018718 -314709.000000 0 0 1
5.785591 26.760246 10.979223 29.497918 1.357873 1.189415 0.034743 -0.016903 -651949.000000 0 0 1
6.230791 27.706946 10.014223 30.112826 1.349594 1.231783 0.035588 -0.015417 36349.900000 0 0 1
6.006591 29.051746 10.364523 31.424615 1.366914 1.234682 0.038538 -0.011035 -79573.000000 0 0 1
6.540291 30.060546 9.307823 32.141055 1.356564 1.276995 0.041561 -0.007634 665338.000000 0 0 1
5.688991 29.953546 8.122023 31.552287 1.383105 1.310451 0.023890 -0.008008 629575.000000 0 0 1
6.070691 28.895046 7.233523 30.399027 1.363714 1.330539 0.017851 0.000157 -238067.000000 0 0 1
4.858691 28.358146 6.485023 29.493166 1.401111 1.349103 0.007690 0.012088 -71302.400000 0 0 1
4.089391 29.379746 5.841923 30.232775 1.432494 1.376342 0.000926 -0.000991 -506026.000000 0 0 1
2.804391 28.865646 5.644423 29.545721 1.473947 1.378574 0.023668 -0.014350 -522482.000000 0 0 1
1.746891 29.764246 5.042523 30.238866 1.512173 1.403257 0.035134 -0.016343 -616922.000000 0 0 1
2.156891 30.245346 3.761323 30.554553 1.499604 1.447381 0.026268 -0.013447 814561.000000 0 0 1
1.082591 30.974146 3.145823 31.152302 1.535859 1.469642 0.041841 -0.020245 2315480.000000 0 0 1
-0.254409 30.191146 2.701523 30.312840 -1.562370 1.481557 0.053822 -0.020902 1126890.000000 0 0 1
0.071091 29.379346 1.564923 29.421081 1.568377 1.517581 0.052957 -0.017306 -288503.000000 0 0 1
-0.844909 28.343046 1.487023 28.394601 -1.540995 1.518402 0.056617 -0.022870 -167563.000000 0 0 1
-1.153909 27.810246 0.064423 27.834249 -1.529328 1.568482 0.051571 -0.026178 186403.000000 0 0 1
-2.104609 28.589046 -0.683977 28.674566 -1.497313 1.594652 0.049786 -0.029274 367892.000000 0 0 1
-1.542609 29.557046 -1.582677 29.639559 -1.518653 1.624219 0.044997 -0.020197 123738.000000 0 0 1
-2.589709 30.551346 -2.149977 30.736196 -1.486233 1.640803 0.044001 -0.020037 415969.000000 0 0 1
-3.697109 30.078746 -2.926877 30.446119 -1.448495 1.667078 0.015320 -0.016419 502614.000000 0 0 1
-3.434709 29.470346 -4.246977 29.972243 -1.454772 1.712972 0.015448 -0.015846 -571485.000000 0 0 1
-4.744009 29.024846 -4.904577 29.816140 -1.408782 1.736041 0.016055 -0.007596 -133581.000000 0 0 1
-5.348009 30.117046 -5.574777 31.092054 -1.395054 1.751070 0.013626 -0.007520 32037.000000 0 0 1
-6.488109 29.690346 -6.309777 31.039096 -1.355653 1.775508 0.006277 -0.007436 163346.000000 0 0 1
-7.102909 30.802746 -7.200477 32.420786 -1.344164 1.794758 0.010805 0.000366 -23493.100000 0 0 1
-7.924209 31.704046 -6.470677 33.313800 -1.325871 1.766273 0.011274 0.003096 35939.000000 0 0 1
-8.279309 32.870046 -7.162877 34.645255 -1.324049 1.779047 0.022169 -0.002187 285701.000000 0 0 1
-9.370409 33.731146 -6.437277 35.595411 -1.299832 1.752643 0.026468 -0.008643 -885089.000000 0 0 1
-10.610709 33.203246 -6.604277 35.477587 -1.261485 1.758042 0.042825 -0.012298 -1628140.000000 0 0 1
-11.608109 34.118346 -6.143877 36.558952 -1.242851 1.739652 0.048897 -0.019322 -123867.000000 0 0 1
-13.012709 33.607946 -6.429577 36.608252 -1.201380 1.747344 0.066729 -0.019104 -647112.000000 0 0 1
-13.407609 33.741046 -7.769177 37.129264 -1.192561 1.781601 0.075597 -0.022738 -473157.000000 0 0 1
-14.786009 33.505746 -7.820277 37.448869 -1.155203 1.781170 0.090288 -0.023709 -903522.000000 0 0 1
-15.418109 33.881946 -9.198277 38.344656 -1.143748 1.813043 0.104995 -0.031637 190553.000000 0 0 1
-16.792209 33.592946 -9.310777 38.693086 -1.107250 1.813813 0.118399 -0.032820 -164114.000000 0 0 1
-17.647209 -34.114813 -8.811377 39.406660 1.093414 1.796304 0.135735 -0.034641 558261.000000 0 0 1
-19.196709 34.245546 -8.981577 40.273314 -1.059881 1.795703 0.120384 -0.028787 1363270.000000 0 0 1
-19.798809 33.368646 -8.039877 39.624475 -1.035291 1.775117 0.089847 -0.023766 87879.800000 0 0 1
-20.010709 33.918146 -6.739377 39.953577 -1.037784 1.740287 0.081443 -0.025551 -726443.000000 0 0 1
-21.060609 33.204446 -5.902577 39.760846 -1.005558 1.719799 0.083075 -0.018551 -973666.000000 0 0 1
-20.802209 33.330446 -4.516177 39.548026 -1.012830 1.685241 0.091281 -0.031246 147612.000000 0 0 1
-21.892009 32.984246 -3.682477 39.759039 -0.984843 1.663549 0.086768 -0.025515 -2765.060000 0 0 1
-22.997109 34.070946 -3.632377 41.266094 -0.977062 1.658934 0.063963 -0.018205 -362245.000000 0 0 1
-23.759309 34.089546 -4.816777 41.830650 -0.962108 1.686202 0.048819 -0.029257 -61015.400000 0 0 1
-24.427309 -33.356913 -5.071477 41.654495 0.938719 1.692850 0.042936 -0.026335 203530.000000 0 0 1
-24.941209 -33.379213 -6.524277 42.175846 0.929085 1.726112 0.071148 -0.002951 30694.000000 0 0 1
-23.899809 -33.088613 -7.454877 41.492558 0.945262 1.751445 0.102153 -0.001718 468140.000000 0 0 1
-24.325209 -33.200013 -8.807677 42.089569 0.938468 1.781615 0.041839 0.004690 132081.000000 0 0 1
-25.363899 -32.244113 -9.436177 42.095744 0.904267 1.796877 0.028098 0.017124 -646186.000000 0 0 1
-26.642639 -32.358513 -8.905877 42.851117 0.881974 1.780155 0.040508 0.017373 -689192.000000 0 0 1
-27.655229 -31.754813 -9.705277 43.213103 0.854294 1.797320 -0.026560 0.021414 264155.000000 0 0 1
-27.853519 -30.219813 -9.565277 42.196566 0.826122 1.799468 -0.037655 0.027944 -461216.000000 0 0 1
-26.888239 -29.397013 -10.217877 41.128662 0.829941 1.821863 -0.007172 0.028460 74238.000000 0 0 1
-27.000739 -29.330013 -11.631977 41.528213 0.826725 1.854693 -0.000596 0.022486 310468.000000 0 0 1
-25.738229 -28.630213 -12.228877 40.394195 0.838540 1.878361 0.029654 0.013820 966771.000000 0 0 1
-24.594409 -29.462913 -12.471477 40.354503 0.875218 1.884988 0.044786 0.010195 402682.000000 0 0 1
-23.712509 -28.853413 -13.397777 39.677487 0.882887 1.915234 0.052649 0.002302 231451.000000 0 0 1
-22.447309 -29.737113 -13.636277 39.675252 0.924193 1.921648 0.067587 -0.014129 100602.000000 0 0 1
-22.547809 -30.930813 -14.369077 40.885074 0.940887 1.929916 0.065309 -0.013725 -242320.000000 0 0 1
-23.061009 -32.038913 -13.685477 41.780311 0.946917 1.904514 0.055400 -0.006424 -66403.000000 0 0 1
-23.075009 -33.312413 -14.577877 43.066082 0.964997 1.916119 0.046729 -0.005671 -3620.710000 0 0 1
-23.428309 34.218046 -13.825277 43.713826 -0.970428 1.892589 0.043311 -0.012149 -26888.100000 0 0 1
-23.460209 33.037246 -14.601977 43.070393 -0.953315 1.916678 0.041482 -0.017610 -500791.000000 0 0 1
-23.804209 31.857346 -13.720977 42.068944 -0.929082 1.903029 0.025502 -0.014681 -57208.500000 0 0 1
-22.955009 31.548946 -12.594077 40.998527 -0.941786 1.883028 0.017542 -0.014278 110982.000000 0 0 1
-22.869209 32.469646 -11.519177 41.351784 -0.957173 1.853096 0.045128 -0.010245 -110482.000000 0 0 1
-22.048709 32.052846 -10.280177 40.239440 -0.968247 1.829135 0.046674 -0.010586 1048.060000 0 0 1
-22.668109 30.994146 -9.543177 39.567063 -0.939327 1.814388 0.031419 -0.010298 151038.000000 0 0 1
-21.960409 30.630846 -8.410177 38.616569 -0.948793 1.790343 0.043603 -0.007786 -209844.000000 0 0 1
-22.793109 29.573646 -7.656077 38.114851 -0.914163 1.773041 0.033775 -0.017181 25849.000000 0 0 1
-22.850109 28.331846 -8.395077 37.353692 -0.892094 1.797478 0.040944 -0.008435 188651.000000 0 0 1
-23.355109 27.140946 -7.730977 36.631408 -0.860231 1.783443 0.052523 -0.017380 -289702.000000 0 0 1
-22.549409 26.598946 -6.575077 35.485369 -0.867607 1.757163 0.050682 -0.015107 -724516.000000 0 0 1
-22.500909 27.440346 -5.444077 35.901274 -0.883982 1.723024 0.047545 -0.012749 198326.000000 0 0 1
-21.611009 26.953646 -4.450377 34.833039 -0.894968 1.698910 0.034925 -0.006804 -304964.000000 0 0 1
-20.188909 27.469946 -4.614877 34.401847 -0.937000 1.705348 0.043502 -0.020823 -701207.000000 0 0 1
-19.452109 27.278246 -5.800077 34.001884 -0.951333 1.742216 0.046812 -0.015865 -343976.000000 0 0 1
-18.306009 28.075146 -5.815677 34.016847 -0.992991 1.742605 0.034505 -0.014754 -138057.000000 0 0 1
-17.410909 27.846146 -7.104877 33.600995 -1.012015 1.783853 0.042689 -0.013348 -7924.930000 0 0 1
-17.611009 28.515246 -8.359977 34.542092 -1.017536 1.815246 0.042607 -0.012145 62695.700000 0 0 1
-17.729709 29.932246 -8.411877 35.791642 -1.036037 1.808039 0.048684 -0.016874 -149700.000000 0 0 1
-17.781709 30.505846 -9.811177 36.647715 -1.043049 1.841818 0.059532 -0.021514 -96204.800000 0 0 1
-16.578609 30.512746 -10.556577 36.294893 -1.073085 1.865917 0.050766 -0.019822 -232134.000000 0 0 1
-16.650509 31.215246 -11.775177 37.286537 -1.080780 1.892099 0.064170 -0.026004 -1777740.000000 0 0 1
-15.370509 31.719746 -12.311377 37.335838 -1.119567 1.906832 0.069766 -0.027955 -1325510.000000 0 0 1
-15.352309 32.200846 -13.605877 38.179939 -1.125907 1.935168 0.081461 -0.029515 -430430.000000 0 0 1
-15.612309 31.290146 -14.616777 37.900760 -1.107987 1.966719 0.070209 -0.031975 -105576.000000 0 0 1
-15.208609 31.932646 -15.945177 38.797478 -1.126311 1.994330 0.114678 -0.040714 76593.000000 0 0 1
-13.810209 32.043146 -16.099577 38.427613 -1.163865 2.003094 0.105411 -0.041558 -259376.000000 0 0 1
-13.545509 32.413746 -17.443677 39.222616 -1.174960 2.031675 0.079199 -0.045253 -856569.000000 0 0 1
-12.074709 32.279046 -17.788377 38.783524 -1.212839 2.047281 0.101822 -0.050991 -938886.000000 0 0 1
-11.506009 31.018446 -17.555677 37.453091 -1.215589 2.058658 0.110912 -0.058273 -879963.000000 0 0 1
-10.216709 30.837946 -18.027577 37.153110 -1.250874 2.077416 0.102941 -0.050598 -447889.000000 0 0 1
-9.825109 30.884546 -19.548777 37.848945 -1.262796 2.113549 0.115268 -0.051777 -136617.000000 0 0 1
-10.521309 29.871346 -20.275677 37.604499 -1.232144 2.140262 0.106603 -0.057380 219615.000000 0 0 1
-10.296109 30.057346 -21.636677 38.439559 -1.240775 2.168657 0.115932 -0.059268 -164248.000000 0 0 1
-11.500509 29.533346 -22.491777 38.863354 -1.199455 2.187979 0.110867 -0.050075 1245960.000000 0 0 1
-12.616009 30.429546 -22.605877 39.951804 -1.177770 2.172234 0.115522 -0.052829 527893.000000 0 0 1
-13.506209 30.512646 -21.514977 39.703066 -1.154077 2.143489 0.115434 -0.052709 -358290.000000 0 0 1
-14.438109 31.751846 -21.598777 41.026161 -1.144027 2.125232 0.131701 -0.052595 322993.000000 0 0 1
-15.387009 31.660146 -22.682677 41.876350 -1.118407 2.143205 0.106904 -0.050388 223495.000000 0 0 1
-15.914409 32.904246 -22.975877 43.172314 -1.120307 2.131982 0.084906 -0.033282 127258.000000 0 0 1
-16.250709 33.071646 -24.461477 44.228759 -1.114069 2.156838 0.064206 -0.027498 204049.000000 0 0 1
-15.045609 33.315746 -25.161177 44.377856 -1.146607 2.173626 0.086890 -0.033314 182637.000000 0 0 1
-15.201109 33.272146 -26.554877 45.202554 -1.142242 2.198718 0.091210 -0.022933 88955.600000 0 0 1
-15.547109 -34.067913 -27.237977 46.305968 1.142669 2.199649 0.071326 -0.009822 -429292.000000 0 0 1
-16.778609 -33.508413 -26.919577 46.141078 1.106566 2.193728 0.055434 -0.008020 -594662.000000 0 0 1
-17.007009 -32.500913 -27.884077 46.076778 1.088700 2.220770 0.046332 -0.003286 -443583.000000 0 0 1
-18.438409 -31.999013 -27.794577 46.221751 1.048047 2.215962 0.044794 -0.008904 305009.000000 0 0 1
-19.506509 -32.899113 -28.153977 47.492125 1.035600 2.205344 0.020027 -0.004852 558264.000000 0 0 1
-20.731109 -32.585113 -27.495877 47.408773 1.004174 2.189494 0.030975 -0.012465 1488140.000000 0 0 1
-21.908909 -33.621413 -27.808877 48.823492 0.993272 2.176791 0.016998 0.000467 863227.000000 0 0 1
-21.810709 33.797346 -27.157577 48.533510 -0.997705 2.164655 0.024250 -0.006018 -749917.000000 0 0 1
-23.038609 33.142446 -27.180577 48.661925 -0.963340 2.163444 0.012346 0.005457 -287507.000000 0 0 1
-22.946509 31.587146 -27.066277 47.506562 -0.942538 2.176983 0.013321 0.006775 -65567.000000 0 0 1
-22.512909 31.132546 -25.782677 46.268919 -0.944714 2.161849 0.014068 -0.004245 -168486.000000 0 0 1
-23.044209 29.854046 -25.504277 45.527659 -0.913429 2.165415 0.011848 -0.001025 -211811.000000 0 0 1
30.746976 9.818946 -26.653860 41.859485 0.309110 2.261067 0.019923 0.004113 -64797.300000 0 0 1
30.407716 8.463846 -26.810040 41.413091 0.271474 2.274939 0.006738 0.007040 1290280.000000 0 0 1
29.058126 8.205146 -26.338670 40.067751 0.275205 2.288098 0.009961 -0.003395 1116540.000000 0 0 1
28.691076 6.789546 -25.928230 39.262563 0.232369 2.292122 -0.002440 0.000177 -48574.600000 0 0 1
29.303006 6.371846 -24.716610 38.861001 0.214114 2.260134 -0.001342 -0.002025 455095.000000 0 0 1
28.693276 5.159746 -24.238110 37.913230 0.177923 2.264390 0.010244 -0.002902 -7413.900000 0 0 1
28.881686 4.966846 -22.749810 37.099531 0.170306 2.230914 0.010869 0.001925 52022.700000 0 0 1
30.184966 4.684046 -22.278210 37.807289 0.153950 2.200935 0.013554 0.002061 77756.200000 0 0 1
30.157766 4.427846 -20.901410 36.958972 0.145781 2.171872 0.012172 -0.001478 -445710.000000 0 0 1
31.468146 4.040246 -20.223110 37.623689 0.127693 2.138278 0.016510 -0.006398 -559743.000000 0 0 1
32.098776 2.827446 -20.560910 38.224036 0.087859 2.138747 0.032573 -0.007954 -45667.800000 0 0 1
33.020226 2.541946 -19.545010 38.455224 0.076830 2.103952 0.048847 -0.015583 -395289.000000 0 0 1
33.343226 1.055146 -19.454310 38.618056 0.031634 2.098745 0.061663 -0.014176 33074.100000 0 0 1
32.391536 0.358046 -18.677010 37.392118 0.011053 2.093807 0.073127 -0.018246 63995.700000 0 0 1
32.701606 -1.023954 -18.772710 37.720792 -0.031302 2.091713 0.077661 -0.015945 -272897.000000 0 0 1
31.576966 -1.951354 -18.337210 36.567278 -0.061718 2.096088 0.066135 -0.014103 -332329.000000 0 0 1
31.439906 -2.159254 -16.939110 35.777975 -0.068571 2.064001 0.076485 -0.013909 744502.000000 0 0 1
30.114816 -1.765354 -16.551810 34.409025 -0.058554 2.072627 0.072163 -0.018036 482148.000000 0 0 1
29.825906 -2.089654 -15.086710 33.489702 -0.069947 2.038108 0.075827 -0.020832 -184175.000000 0 0 1
29.688016 -3.502654 -14.884310 33.394454 -0.117439 2.032766 0.063007 -0.021305 261437.000000 0 0 1
28.808266 -3.746554 -13.827110 32.173620 -0.129326 2.015029 0.064033 -0.021924 -314882.000000 0 0 1
28.617656 -5.249854 -13.462610 32.058900 -0.181431 2.004169 0.062923 -0.018884 -83171.100000 0 0 1
28.070846 -6.105254 -14.484110 32.171975 -0.214159 2.037796 0.046720 -0.015265 426792.000000 0 0 1
27.662506 -7.294554 -13.966910 31.835504 -0.257829 2.024971 0.043994 -0.020357 -502521.000000 0 0 1
27.030956 -8.295154 -14.927510 31.973625 -0.297753 2.056544 0.027159 -0.013410 -1374100.000000 0 0 1
25.807556 -7.896954 -15.363310 31.055163 -0.296947 2.088298 0.039536 -0.019490 -1369920.000000 0 0 1
25.224656 -8.862054 -16.232010 31.277746 -0.337855 2.116434 0.036096 -0.016244 191598.000000 0 0 1
23.779056 -8.517154 -16.655010 30.255161 -0.343942 2.153741 0.049683 -0.022735 -277364.000000 0 0 1
23.549356 -7.294654 -17.387010 30.167735 -0.300387 2.185045 0.054151 -0.023176 448750.000000 0 0 1
22.271756 -7.232654 -18.029410 29.553376 -0.314002 2.226936 0.059801 -0.023480 504839.000000 0 0 1
22.242756 -7.942454 -19.431710 30.584541 -0.342969 2.259250 0.053994 -0.015775 -434961.000000 0 0 1
23.069556 -7.297054 -20.339810 31.609481 -0.306349 2.269822 0.047853 -0.015779 -42876.400000 0 0 1
22.779956 -7.570154 -21.648310 32.324649 -0.320835 2.304622 0.069549 -0.026121 -124701.000000 0 0 1
23.400456 -6.457354 -22.550210 33.132925 -0.269249 2.319375 0.063780 -0.027392 -90560.400000 0 0 1
23.344156 -6.760954 -23.947310 34.119405 -0.281908 2.348813 0.069338 -0.029356 123375.000000 0 0 1
23.423656 -5.624954 -24.714810 34.512745 -0.235677 2.369005 0.057012 -0.022554 -215823.000000 0 0 1
23.277656 -5.855754 -26.273340 35.586901 -0.246447 2.401323 0.061468 -0.024706 582067.000000 0 0 1
22.053356 -6.480154 -26.688790 35.222641 -0.285796 2.430604 0.062803 -0.022768 334411.000000 0 0 1
21.823056 -6.455654 -28.069320 36.135965 -0.287616 2.460316 0.058463 -0.026610 461428.000000 0 0 1
20.508756 -7.175254 -28.489060 35.829037 -0.336553 2.490033 0.062308 -0.029654 242167.000000 0 0 1
20.574056 -8.568454 -28.312000 36.031646 -0.394623 2.474710 0.067239 -0.026433 -296289.000000 0 0 1
19.555856 -9.199754 -29.010930 36.175973 -0.439717 2.501330 0.054700 -0.035591 -697109.000000 0 0 1
19.485156 -10.728454 -28.793770 36.384780 -0.503301 2.483841 0.073042 -0.033745 -665218.000000 0 0 1
18.472556 -11.085854 -27.904360 35.253153 -0.540512 2.484125 0.076893 -0.023834 -118600.000000 0 0 1
18.555856 -12.414754 -27.378780 35.327659 -0.589649 2.457504 0.082418 -0.028841 -446152.000000 0 0 1
18.514456 -13.600154 -28.287300 36.440645 -0.633552 2.459503 0.067070 -0.019766 -385172.000000 0 0 1
17.302656 -13.764354 -28.983390 36.453755 -0.671994 2.489924 0.057683 -0.020147 276993.000000 0 0 1
17.464056 -14.907654 -29.848450 37.658483 -0.706591 2.485872 0.039621 -0.020145 183658.000000 0 0 1
16.229956 -14.991554 -30.799830 37.904982 -0.745754 2.519316 0.032030 -0.021410 374697.000000 0 0 1
15.161956 -15.753554 -30.255860 37.329297 -0.804532 2.515823 0.027974 -0.023461 -11815.300000 0 0 1
14.312256 -16.144154 -31.294140 38.010493 -0.845474 2.538002 0.029482 -0.022540 -444563.000000 0 0 1
13.052256 -16.839754 -30.764280 37.421646 -0.911433 2.535883 0.041568 -0.025608 174166.000000 0 0 1
13.471556 -18.175954 -30.389850 37.886556 -0.932967 2.501646 0.046232 -0.028145 611054.000000 0 0 1
12.530456 -18.578754 -29.421500 36.983876 -0.977424 2.490665 0.049613 -0.024973 59949.900000 0 0 1
12.946956 -19.868854 -28.671660 37.208320 -0.993283 2.450533 0.060916 -0.027148 788048.000000 0 0 1
13.994656 -19.758454 -27.666970 36.765583 -0.954530 2.422682 0.059726 -0.025864 756904.000000 0 0 1
13.979356 -20.898354 -26.833490 36.772269 -0.981234 2.388710 0.055655 -0.021433 -331128.000000 0 0 1
14.919156 -20.821554 -25.639870 36.242534 -0.949066 2.356683 0.050176 -0.014097 133229.000000 0 0 1
16.293756 -21.045154 -25.982750 37.195272 -0.911968 2.344165 0.050606 -0.006434 442992.000000 0 0 1
16.990756 -20.727754 -24.799810 36.515150 -0.884152 2.317421 0.043036 0.000239 798589.000000 0 0 1
18.552256 -21.033754 -24.851210 37.472492 -0.848002 2.295863 0.026773 0.004840 1188350.000000 0 0 1
18.875156 -22.403354 -25.021510 38.526066 -0.870664 2.277683 0.034075 0.001097 340183.000000 0 0 1
18.648856 -23.209354 -23.868310 38.159536 -0.893921 2.246552 0.032940 -0.001299 -494291.000000 0 0 1
19.267856 -24.608754 -24.034210 39.426949 -0.906528 2.226338 0.033714 -0.006188 182056.000000 0 0 1
20.684456 -24.605654 -23.885410 40.047444 -0.871762 2.209840 0.045501 -0.006201 395033.000000 0 0 1
21.194856 -25.891654 -23.545010 40.914144 -0.884818 2.183979 0.052680 -0.014766 -69719.300000 0 0 1
21.112456 -26.262644 -21.974710 40.228723 -0.893684 2.148670 0.054694 -0.007059 144498.000000 0 0 1
19.789356 -26.436134 -21.443410 39.373946 -0.928210 2.146719 0.048510 -0.003673 644265.000000 0 0 1
19.813856 -26.914024 -20.107010 39.003146 -0.936192 2.112414 0.051716 -0.006999 -471103.000000 0 0 1
18.517856 -27.509924 -19.565110 38.503252 -0.978330 2.103822 0.047200 -0.007996 -1087620.000000 0 0 1
18.265556 -28.834664 -20.050910 39.586707 -1.006138 2.101924 0.054746 -0.008984 401464.000000 0 0 1
17.094756 -29.441264 -19.491210 39.229147 -1.044734 2.090768 0.052705 0.004234 706250.000000 0 0 1
15.746656 -28.863854 -20.003110 38.486409 -1.071377 2.117349 0.049854 -0.002034 -692190.000000 0 0 1
15.077156 -28.155664 -19.003310 37.164336 -1.079159 2.107530 0.053607 -0.003245 -44149.400000 0 0 1
14.088256 -27.305614 -19.583310 36.435992 -1.094472 2.138232 0.044765 0.006734 33742.500000 0 0 1
13.220056 -26.497824 -18.597610 34.968209 -1.108020 2.131572 0.037890 -0.002664 -143246.000000 0 0 1
12.069256 -27.214334 -18.188710 34.887191 -1.153370 2.119238 0.024952 0.001004 -174779.000000 0 0 1
11.238056 -26.336564 -17.439710 33.526885 -1.167479 2.117847 0.029353 -0.002309 279351.000000 0 0 1
9.742756 -26.627684 -17.729210 33.440690 -1.220038 2.129596 0.029989 -0.002816 -573868.000000 0 0 1
9.157156 -27.695734 -16.997710 33.761358 -1.251477 2.098402 0.040472 0.011487 420208.000000 0 0 1
7.730556 -27.612254 -16.876610 33.271880 -1.297817 2.102768 0.040986 0.015001 922916.000000 0 0 1
7.003156 -28.099194 -18.131810 34.166818 -1.326543 2.130205 0.045574 0.007962 -814692.000000 0 0 1
6.994756 -27.156194 -19.169310 33.968337 -1.318701 2.170416 0.053245 0.002631 -281766.000000 0 0 1
6.664356 -27.769894 -20.375710 35.082050 -1.335266 2.190509 0.060113 0.004137 -137417.000000 0 0 1
6.916756 -26.900454 -21.586510 35.177455 -1.319124 2.231467 0.041199 0.001105 -422526.000000 0 0 1
5.779056 -26.096034 -21.767110 34.470387 -1.352860 2.254247 0.059525 -0.006970 -52923.300000 0 0 1
5.823556 -25.293894 -22.906610 34.618025 -1.344504 2.293875 0.048906 -0.009686 -247468.000000 0 0 1
4.525656 -24.575954 -23.391610 34.229030 -1.388687 2.323186 0.040692 -0.002448 -198188.000000 0 0 1
3.550056 -25.547114 -23.633010 34.982525 -1.432719 2.312529 0.038069 0.008053 -616604.000000 0 0 1
2.421756 -24.941554 -24.222210 34.851994 -1.474003 2.339219 0.043333 -0.001398 -230061.000000 0 0 1
1.502556 -25.944184 -24.917310 36.003204 -1.512946 2.335171 0.029367 -0.008864 -397986.000000 0 0 1
2.006356 -26.644414 -26.047790 37.315380 -1.495637 2.343459 0.023678 -0.002359 281578.000000 0 0 1
1.170456 -27.695794 -26.590530 38.412020 -1.528560 2.335392 0.027944 -0.011678 267959.000000 0 0 1
1.966056 -28.543324 -27.595200 39.750242 -1.502025 2.338125 0.018029 -0.004314 -786078.000000 0 0 1
2.220856 -27.937244 -28.843610 40.216609 -1.491469 2.370582 0.009922 -0.008499 48366.800000 0 0 1
2.745556 -28.838154 -29.803120 41.562040 -1.475877 2.370394 0.025084 -0.011762 175472.000000 0 0 1
4.235056 -29.269674 -29.613810 41.852446 -1.427103 2.356859 0.005089 -0.011986 -359877.000000 0 0 1
4.509656 -29.953314 -28.424060 41.538719 -1.421362 2.324410 0.002828 -0.017007 -29628.100000 0 0 1
5.635556 -30.810674 -28.589970 42.408059 -1.389887 2.310628 0.022907 -0.020980 202911.000000 0 0 1
5.966656 -31.821314 -27.483920 42.468375 -1.385444 2.274652 0.043915 -0.027499 -653970.000000 0 0 1
5.063656 -32.874694 -27.482730 43.147266 -1.417968 2.261334 0.050725 -0.038019 -305380.000000 0 0 1
5.566756 -34.120685 -27.031660 43.885311 -1.409072 2.234402 0.062114 -0.041174 393080.000000 0 0 1
4.373456 33.590404 -26.694690 43.128283 1.441325 2.238214 0.067070 -0.037434 574559.000000 0 0 1
3.862856 32.904940 -27.813620 43.257995 1.453937 2.269167 0.055707 -0.037872 21907.000000 0 0 1
2.560656 32.505576 -27.437580 42.614436 1.492183 2.270324 0.025011 -0.034805 349587.000000 0 0 1
1.422456 32.810250 -28.468400 43.462463 1.527469 2.284994 0.024202 -0.015557 -75837.400000 0 0 1
1.378556 31.902626 -29.575880 43.524828 1.527612 2.317901 0.035596 -0.023122 81936.100000 0 0 1
0.354456 32.259866 -30.484160 44.385905 1.559809 2.327871 0.036540 -0.019916 203969.000000 0 0 1
0.075256 31.085286 -31.517080 44.267674 1.568375 2.363090 0.035960 -0.025510 353736.000000 0 0 1
1.136356 30.910666 -32.461270 44.838539 1.534050 2.380321 0.042643 -0.028226 494615.000000 0 0 1
0.757456 29.933576 -33.396960 44.854761 1.545497 2.410668 0.057119 -0.030635 -70326.700000 0 0 1
1.978356 29.408626 -34.227828 45.169961 1.503626 2.430664 0.045281 -0.021986 673171.000000 0 0 1
2.574256 30.341226 33.464688 45.244913 1.486156 0.738270 0.052088 -0.027662 439333.000000 0 0 1
3.701956 29.901586 32.683012 44.452093 1.447618 0.744774 0.026153 -0.019973 362301.000000 0 0 1
3.422156 29.068486 31.365453 42.900812 1.453608 0.750841 0.029898 -0.006348 -406003.000000 0 0 1
3.049156 27.731306 31.449963 42.040729 1.461283 0.725627 0.028289 -0.010729 -517816.000000 0 0 1
4.117456 26.923506 31.795023 41.865882 1.419040 0.708330 0.034090 -0.003286 -1059510.000000 0 0 1
3.768356 25.528286 32.260813 41.311669 1.424240 0.674670 0.039419 -0.006377 -483280.000000 0 0 1
3.156156 24.912526 31.174093 40.030231 1.444778 0.678104 0.048123 -0.000048 4102.850000 0 0 1
3.192456 23.487806 31.281993 39.248336 1.435704 0.648439 0.038984 0.005142 -456106.000000 0 0 1
2.363656 22.747706 30.232933 37.908775 1.467260 0.647626 0.035893 0.012093 492754.000000 0 0 1
1.013356 22.507806 30.641763 38.033484 1.525804 0.634021 0.037580 0.005089 534137.000000 0 0 1
0.252456 22.021006 29.526793 36.835037 1.559333 0.640838 0.043175 0.007054 961498.000000 0 0 1
-1.149644 21.437606 29.944023 36.844771 -1.517220 0.622012 0.036562 0.007595 974768.000000 0 0 1
-2.143544 22.449006 30.185263 37.678943 -1.475600 0.641636 0.039900 0.003408 109076.000000 0 0 1
-3.349244 21.777506 30.463133 37.596272 -1.418198 0.626184 0.020413 0.000771 757877.000000 0 0 1
-4.647244 22.689306 30.507823 38.303117 -1.368770 0.649338 0.001863 -0.009575 569723.000000 0 0 1
-4.779544 23.482406 31.687483 39.728630 -1.370002 0.647493 -0.000132 -0.007577 -42071.600000 0 0 1
-4.010444 24.659456 31.877243 40.501001 -1.409575 0.664747 0.025162 -0.011205 -150520.000000 0 0 1
-4.240244 25.193416 33.316618 41.984341 -1.404051 0.654178 0.013818 -0.007211 769922.000000 0 0 1
-5.581944 25.633086 33.598493 42.627127 -1.356381 0.662926 0.017038 -0.008543 750843.000000 0 0 1
-5.746144 25.976416 -33.591590 42.850756 -1.353096 2.471752 0.022281 -0.006588 30729.200000 0 0 1
-7.159244 26.427686 -33.163000 43.005371 -1.306246 2.451420 0.031034 0.001600 -153366.000000 0 0 1
-7.468844 27.786696 -33.475600 44.141815 -1.308211 2.431597 0.050666 -0.007134 -151063.000000 0 0 1
-8.755944 28.182026 -33.059990 44.315416 -1.269559 2.412855 0.073542 -0.008261 78401.600000 0 0 1
-8.908844 28.509646 -31.548570 43.445134 -1.267925 2.383532 0.087073 -0.015056 -343407.000000 0 0 1
-8.250644 29.696436 -31.235260 43.881578 -1.299798 2.362865 0.087004 -0.016827 -129971.000000 0 0 1
-8.236444 29.975616 -29.864260 43.107430 -1.302643 2.336143 0.093371 -0.021835 -92400.000000 0 0 1
-7.909644 31.460956 -29.520770 43.861487 -1.324490 2.309115 0.078420 -0.019584 -824787.000000 0 0 1
-6.548044 31.661076 -29.604100 43.837237 -1.366855 2.312193 0.033736 -0.018618 -1201390.000000 0 0 1
-6.087044 32.882312 -29.147480 44.360727 -1.387752 2.287703 0.032741 -0.016003 -182718.000000 0 0 1
-4.570344 33.100056 -29.269930 44.421059 -1.433587 2.290179 0.024681 -0.018049 -476594.000000 0 0 1
-4.061044 -34.334147 -28.932960 45.082612 1.453063 2.267609 0.019937 -0.023045 -183649.000000 0 0 1
-4.045044 -33.335104 -29.931110 44.982918 1.450042 2.298810 0.024756 -0.016291 -30214.300000 0 0 1
-2.916444 -33.583104 -30.975090 45.779763 1.484171 2.313947 0.030337 -0.024583 -265235.000000 0 0 1
-3.098044 34.168984 -32.036090 46.940690 -1.480375 2.321947 0.025196 -0.015559 296764.000000 0 0 1
-4.125644 -34.322993 -33.019280 47.805456 1.451170 2.333254 0.044720 -0.021351 105781.000000 0 0 1
-3.809744 -33.311194 -34.128616 47.842577 1.456923 2.365067 0.032567 -0.030247 -392944.000000 0 0 1
-3.601744 -32.024844 -33.664470 46.603216 1.458800 2.378011 0.027011 -0.023612 277656.000000 0 0 1
-2.938044 -31.182974 33.978479 46.211979 1.476854 0.744725 0.018053 -0.028732 126275.000000 0 0 1
32.068046 19.462346 12.586223 39.567101 0.545483 1.247074 0.053103 -0.009596 701403.000000 0 0 1
33.241436 18.724546 12.966123 40.295435 0.512989 1.243191 0.033613 -0.004596 464433.000000 0 0 1
32.903566 17.365846 12.986823 39.406533 0.485624 1.234959 0.044684 -0.003983 568751.000000 0 0 1
33.917336 16.345546 13.686323 40.060929 0.449082 1.222137 0.047897 -0.013004 -339647.000000 0 0 1
35.150666 16.342146 13.066323 40.906770 0.435190 1.245682 0.037148 0.005192 -1431840.000000 0 0 1
35.810866 15.298246 13.616723 41.253722 0.403729 1.234416 0.036358 0.003370 -117614.000000 0 0 1
-34.926911 14.823946 12.729023 40.020826 -0.401386 1.247114 0.041930 -0.001596 1297960.000000 0 0 1
-34.088165 13.775146 13.281323 39.091575 -0.384039 1.224146 0.047369 -0.003309 652800.000000 0 0 1
-34.801591 12.559846 13.396223 39.349197 -0.346351 1.223407 0.055209 -0.006059 -4983.260000 0 0 1
-34.084137 11.687446 14.440223 38.818100 -0.330336 1.189637 0.053829 -0.017397 156348.000000 0 0 1
-34.330603 12.102746 15.780923 39.674984 -0.338932 1.161728 0.061647 -0.020230 23691.200000 0 0 1
-33.823969 11.214046 16.733423 39.367794 -0.320137 1.131775 0.061013 -0.028564 -276048.000000 0 0 1
-33.482299 12.048646 18.022123 39.887732 -0.345424 1.101991 0.068127 -0.022798 220961.000000 0 0 1
-34.667833 12.628746 18.550723 41.297375 -0.349338 1.104928 0.079799 -0.020816 516700.000000 0 0 1
-34.389083 13.263446 19.768723 41.824998 -0.368108 1.078497 0.074674 -0.031074 -305687.000000 0 0 1
-35.649206 13.605846 20.549623 43.339035 -0.364596 1.076787 0.085898 -0.030494 -686739.000000 0 0 1
35.559986 12.603346 21.096023 43.224983 0.340611 1.060940 0.079039 -0.007769 360555.000000 0 0 1
34.482836 13.107046 21.920623 42.911238 0.363237 1.034639 0.079231 -0.011937 893997.000000 0 0 1
34.007556 11.925946 22.874923 42.684941 0.337285 1.005221 0.066037 -0.003247 -142172.000000 0 0 1
35.070986 11.539346 23.716513 43.881700 0.317871 0.999807 0.064862 0.000479 -156543.000000 0 0 1
34.932366 11.876846 25.059483 44.601652 0.327734 0.974175 0.055189 -0.000951 -2206040.000000 0 0 1
-35.807297 11.680346 25.940833 45.733137 -0.315317 0.967668 0.046077 -0.002130 -630241.000000 0 0 1
-34.794139 12.617646 25.770123 45.099184 -0.347888 0.962573 0.068150 -0.008212 -265601.000000 0 0 1
-34.102306 12.514546 24.538453 43.837391 -0.351713 0.976699 0.070325 -0.009058 -1703150.000000 0 0 1
-33.274119 13.759246 24.220593 43.394942 -0.392100 0.978650 0.067840 -0.010878 581452.000000 0 0 1
-32.183249 14.147946 25.077633 43.183488 -0.414177 0.951180 0.048436 -0.014795 754275.000000 0 0 1
-32.613919 14.607146 26.350083 44.400038 -0.421090 0.935433 0.039518 -0.014010 -960520.000000 0 0 1
-31.461629 14.830946 27.307883 44.221167 -0.440505 0.905198 0.025856 -0.008172 -776675.000000 0 0 1
-30.775719 16.038046 27.142453 44.057651 -0.480406 0.907057 0.031838 -0.015297 -223544.000000 0 0 1
-30.213289 16.463746 28.389743 44.608018 -0.498933 0.880939 0.031216 -0.016898 -18094.100000 0 0 1
-29.512509 17.817546 28.082603 44.464433 -0.543157 0.887214 0.035692 -0.023475 -566792.000000 0 0 1
-30.378809 18.837146 27.675073 45.206413 -0.555050 0.911965 0.019155 -0.022480 -145199.000000 0 0 1
-29.795799 20.033846 27.171593 45.027104 -0.591942 0.922976 0.019266 -0.024962 -144037.000000 0 0 1
-30.777469 20.782746 26.244403 45.474651 -0.593927 0.955597 0.016143 -0.017281 -31777.400000 0 0 1
-31.496819 21.834346 26.843853 46.790819 -0.606164 0.959781 0.009928 -0.020619 207113.000000 0 0 1
-32.192809 22.516046 25.813933 47.007536 -0.610331 0.989456 0.014825 -0.015306 -364275.000000 0 0 1
-32.439999 23.944746 26.144063 48.054307 -0.635857 0.995537 0.010814 -0.016301 -60690.200000 0 0 1
-33.367799 24.569646 25.241283 48.520098 -0.634693 1.023684 0.018944 -0.019428 411716.000000 0 0 1
-33.456009 25.968346 25.440953 49.405482 -0.660055 1.029856 0.018009 -0.015526 1484.060000 0 0 1
-34.602087 26.586146 24.620613 50.102916 -0.655135 1.057099 0.035836 -0.011272 40978.700000 0 0 1
-34.314819 26.664346 23.241423 49.281416 -0.660590 1.079685 0.043229 -0.013087 104826.000000 0 0 1
-35.529555 26.855346 22.548123 49.919703 -0.647241 1.102140 0.062945 -0.022929 156587.000000 0 0 1
-35.256069 26.711046 21.018123 48.971746 -0.648366 1.127202 0.064399 -0.027720 106255.000000 0 0 1
-35.184034 25.367346 20.411323 47.937883 -0.624675 1.130965 0.044670 -0.024493 169488.000000 0 0 1
-34.698560 25.535946 19.079923 47.118129 -0.634440 1.153885 0.047289 -0.035598 81273.500000 0 0 1
-34.505740 24.201746 18.327523 45.959425 -0.611654 1.160614 0.038983 -0.023501 -485516.000000 0 0 1
-35.737923 23.765346 17.882123 46.494743 -0.586841 1.176016 0.033238 -0.022496 -725007.000000 0 0 1
-35.563539 22.849046 16.798423 45.486605 -0.571074 1.192535 0.022254 -0.018852 220241.000000 0 0 1
35.106176 22.674246 15.946923 44.731079 0.573471 1.206270 0.020508 -0.015455 146291.000000 0 0 1
34.185066 21.808046 16.542523 43.793432 0.567851 1.183442 0.026443 -0.019894 -133710.000000 0 0 1
33.212836 21.346646 15.594823 42.449621 0.571242 1.194614 0.022232 -0.013817 -93322.000000 0 0 1
32.123876 20.393446 16.176523 41.346293 0.565642 1.168812 0.036767 -0.010881 991769.000000 0 0 1
31.106356 20.941646 17.034323 41.186480 0.592531 1.144403 0.022311 -0.007538 371734.000000 0 0 1
30.185676 21.814246 16.443923 40.711657 0.625778 1.155007 0.021003 -0.008030 -385807.000000 0 0 1
29.251866 22.393246 17.535023 40.799586 0.653368 1.126542 0.023281 -0.009775 -2238.890000 0 0 1
29.965866 23.298046 18.291623 42.134731 0.660861 1.121733 -0.004500 -0.005384 133587.000000 0 0 1
29.078416 23.952946 19.205923 42.286705 0.689048 1.099341 0.007325 -0.000288 389044.000000 0 0 1
29.810656 24.690746 20.365723 43.738665 0.691732 1.086458 -0.002030 -0.010731 948872.000000 0 0 1
30.820086 25.668446 20.014723 44.825617 0.694452 1.107944 -0.006264 -0.002643 541237.000000 0 0 1
31.569356 26.090746 21.098123 46.070404 0.690667 1.095104 0.000548 -0.002876 -286889.000000 0 0 1
32.651996 27.129146 20.772423 47.261369 0.693275 1.115730 0.022042 -0.010163 -445613.000000 0 0 1
33.361096 27.754946 21.798023 48.563912 0.693925 1.105316 0.028746 -0.007627 -364620.000000 0 0 1
32.704256 28.690846 22.594623 49.022954 0.720121 1.091789 0.011887 0.002600 -544680.000000 0 0 1
33.536126 29.089546 23.820173 50.381287 0.714515 1.078333 0.008075 0.003320 666480.000000 0 0 1
34.794356 29.705546 23.480623 51.423792 0.706665 1.096615 0.049546 -0.007802 401042.000000 0 0 1
35.242586 30.254846 24.706673 52.610030 0.709393 1.081937 0.048522 -0.005349 -268580.000000 0 0 1
-35.414123 31.031446 24.520753 53.088399 -0.719535 1.090677 0.062489 -0.014276 -452661.000000 0 0 1
-34.260247 30.313446 24.206403 51.755382 -0.724353 1.084100 0.062408 -0.020767 218394.000000 0 0 1
-33.103539 31.160546 24.265323 51.532804 -0.755173 1.080518 0.070032 -0.020161 1212540.000000 0 0 1
-31.725719 30.435346 24.058963 50.116517 -0.764643 1.070073 0.077837 -0.028728 666253.000000 0 0 1
-31.342519 30.245846 22.669523 49.102668 -0.767594 1.090913 0.065385 -0.019790 36837.100000 0 0 1
-31.816059 29.047546 22.148023 48.441269 -0.739942 1.095936 0.064287 -0.019871 -282904.000000 0 0 1
-31.264659 27.693046 22.632123 47.503650 -0.724893 1.074208 0.042030 -0.016450 -391443.000000 0 0 1
-29.909419 27.355146 22.370923 46.296172 -0.740823 1.066475 0.028314 -0.016384 307406.000000 0 0 1
-29.376689 26.396446 23.221823 45.815012 -0.732014 1.039257 0.027657 -0.013418 -303850.000000 0 0 1
-28.979469 26.879646 24.611533 46.562352 -0.747824 1.013879 0.039718 -0.016004 -539869.000000 0 0 1
-30.119009 27.080046 25.410353 47.813907 -0.732318 1.010494 0.028842 -0.017873 32972.300000 0 0 1
-29.690449 27.704946 26.633353 48.563591 -0.750819 0.990320 0.044096 -0.030530 265290.000000 0 0 1
-30.817469 28.205646 27.607423 50.074392 -0.741176 0.986841 0.036009 -0.030439 434767.000000 0 0 1
-31.486429 27.139046 28.312503 50.294343 -0.711378 0.972862 0.018730 -0.017799 -79480.600000 0 0 1
-32.458369 27.602146 29.196793 51.651495 -0.704718 0.970042 0.014359 -0.006810 -55315.100000 0 0 1
-33.229039 26.396446 29.806613 51.859190 -0.671304 0.958485 0.002157 -0.012588 333725.000000 0 0 1
-32.357859 25.644946 30.641393 51.415847 -0.670176 0.932345 0.004224 -0.018494 -377848.000000 0 0 1
-32.964989 24.488946 31.013453 51.460988 -0.638927 0.923967 -0.003346 -0.017897 -569535.000000 0 0 1
-32.194369 23.519346 31.910853 51.067990 -0.630931 0.895831 0.022128 -0.021433 -915453.000000 0 0 1
-31.165649 22.716846 31.386073 49.723620 -0.629864 0.887683 0.023527 -0.020433 -264947.000000 0 0 1
-30.715739 21.735346 32.309303 49.596099 -0.615828 0.861304 0.038551 -0.023505 126794.000000 0 0 1
-29.737279 22.234246 33.404978 49.945571 -0.642021 0.838166 0.043629 -0.032366 -451006.000000 0 0 1
-30.352169 23.184346 -34.275941 51.318693 -0.652303 2.302185 0.061154 -0.034276 21602.000000 0 0 1
-30.241269 22.890546 -32.884050 50.198329 -0.647922 2.285088 0.049286 -0.025857 74898.400000 0 0 1
-28.845929 23.060546 -32.213320 49.005861 -0.674398 2.288075 0.057102 -0.019966 183934.000000 0 0 1
-28.451359 24.425546 -32.113540 49.369693 -0.709409 2.279000 0.044848 -0.017288 204925.000000 0 0 1
-27.783109 24.662646 -30.864310 48.298581 -0.725969 2.264035 0.061175 -0.006941 105003.000000 0 0 1
-28.044559 26.079946 -30.237010 48.794853 -0.749116 2.239126 0.023667 0.004363 -79353.600000 0 0 1
-27.794579 27.286246 -30.968040 49.760399 -0.776170 2.242529 0.027023 -0.002366 427578.000000 0 0 1
-28.833499 27.687746 -31.878260 51.129301 -0.765130 2.243986 0.020872 -0.006892 214974.000000 0 0 1
-28.643369 29.097246 -32.471430 52.167865 -0.793259 2.242654 0.027218 -0.001620 73005.200000 0 0 1
-29.084859 30.012246 -31.468970 52.315963 -0.801089 2.216196 0.025185 -0.014628 299309.000000 0 0 1
-28.355409 31.249846 -31.558670 52.692806 -0.833920 2.212946 0.036397 -0.026324 238079.000000 0 0 1
-28.786699 32.356646 -30.570920 53.011393 -0.843718 2.185463 0.043277 -0.012456 147790.000000 0 0 1
-28.064119 32.351346 -29.353280 51.921281 -0.856242 2.171644 0.028182 -0.001561 52204.100000 0 0 1
-28.415669 33.496946 -28.618870 52.426476 -0.867286 2.148242 0.027619 -0.001739 -778770.000000 0 0 1
-27.591819 33.618646 -27.350560 51.376794 -0.883543 2.132173 0.022804 -0.002679 535053.000000 0 0 1
-26.246169 34.101246 -27.448420 51.040887 -0.914835 2.138590 0.026035 -0.000260 590933.000000 0 0 1
-26.192699 -33.214713 -27.716140 50.571327 0.903053 2.150840 0.033693 0.002788 -557544.000000 0 0 1
-26.465049 -32.210913 -26.512710 49.405117 0.883012 2.137245 0.038790 0.003009 396087.000000 0 0 1
-27.852279 -31.922413 -26.410720 49.923101 0.853384 2.128251 0.026208 -0.004322 29571.800000 0 0 1
-28.182679 -30.957013 -25.447010 48.991330 0.832275 2.116967 0.024356 -0.003969 -693607.000000 0 0 1
-29.640089 -30.579813 -25.292590 49.531555 0.801002 2.106721 0.008431 -0.006319 -671701.000000 0 0 1
-30.168499 -29.818413 -26.334100 49.927557 0.779562 2.126388 0.018453 -0.005690 -316771.000000 0 0 1
-31.566559 -29.811213 -26.315820 50.770843 0.756807 2.115688 0.009950 -0.005197 -643583.000000 0 0 1
-32.232969 -28.860513 -27.327490 51.173091 0.730253 2.134145 0.009935 -0.005324 -256802.000000 0 0 1
-33.635299 -28.973313 -27.184450 52.055553 0.711073 2.120248 0.008686 -0.010622 -47820.500000 0 0 1
-34.250794 -28.259613 -28.260060 52.634149 0.689847 2.137572 0.014715 -0.009367 -1098470.000000 0 0 1
-35.727538 -28.469413 -28.326620 53.752785 0.672816 2.125839 0.012745 -0.014671 -1097140.000000 0 0 1
35.459066 -27.836613 -27.302890 52.703607 -0.665549 2.115361 -0.009534 -0.008466 1468540.000000 0 0 1
34.043726 -27.903813 -27.678270 51.996968 -0.686606 2.132118 -0.007739 -0.013692 1993000.000000 0 0 1
33.136186 -27.510313 -26.423570 50.527509 -0.692898 2.121109 0.004319 -0.008036 226440.000000 0 0 1
33.151556 -28.422913 -25.339610 50.487459 -0.708753 2.096589 -0.007333 0.002099 60333.800000 0 0 1
32.266906 -27.914613 -24.362910 49.131764 -0.713204 2.089631 -0.002191 -0.000463 60054.900000 0 0 1
32.125436 -28.755013 -23.059210 48.893983 -0.730093 2.061919 -0.007644 0.007995 -382478.000000 0 0 1
31.487596 -29.990113 -23.311410 49.338600 -0.761045 2.062897 0.002386 0.007517 -56376.800000 0 0 1
31.208336 -30.797213 -22.145010 49.120567 -0.778768 2.038491 0.006736 -0.011235 -150882.000000 0 0 1
32.315636 -31.008013 -21.074810 49.496917 -0.764751 2.010620 0.000156 0.001746 -602234.000000 0 0 1
33.485356 -31.611413 -21.577710 50.854185 -0.756619 2.008991 -0.001235 0.001249 563701.000000 0 0 1
34.722176 -31.185313 -20.979110 51.169095 -0.731786 1.993246 0.013203 -0.008308 1055680.000000 0 0 1
35.154786 -29.687913 -21.236510 50.677614 -0.701287 2.003196 0.000270 -0.005648 -796919.000000 0 0 1
34.357976 -28.714713 -20.576610 49.278821 -0.696163 2.001549 0.000557 0.001829 -127119.000000 0 0 1
34.795016 -27.438513 -20.956110 49.017586 -0.667736 2.012546 -0.008002 0.002476 -270784.000000 0 0 1
33.837386 -26.307513 -20.566710 47.539915 -0.660851 2.018193 0.004088 0.008487 -373545.000000 0 0 1
32.675446 -26.280013 -21.328010 47.044743 -0.677342 2.041323 0.010552 0.004859 -330672.000000 0 0 1
31.677986 -25.391213 -20.820410 45.625629 -0.675680 2.044664 0.012961 -0.001499 -655736.000000 0 0 1
30.563036 -25.282513 -21.794610 45.258255 -0.691123 2.073231 0.021733 -0.003565 -863057.000000 0 0 1
29.885986 -26.526813 -21.979410 45.606342 -0.725922 2.073661 0.026365 -0.008610 -129480.000000 0 0 1
28.749326 -26.431713 -22.795910 45.219606 -0.743423 2.099154 0.030738 -0.002534 -111762.000000 0 0 1
28.193106 -27.848813 -22.991510 45.815032 -0.779255 2.096513 0.026905 -0.001217 -14846.800000 0 0 1
27.698076 -28.551613 -21.827310 45.374106 -0.800571 2.072651 0.025032 -0.005166 71193.600000 0 0 1
27.118766 -29.800113 -22.116610 45.963232 -0.832472 2.072797 0.024265 -0.008538 -353651.000000 0 0 1
26.571756 -30.645913 -20.920310 45.638685 -0.856483 2.046979 0.028617 -0.003798 -448396.000000 0 0 1
27.380826 -30.955513 -19.823810 45.835978 -0.846599 2.018054 0.034749 -0.006591 -214340.000000 0 0 1
28.365916 -31.960113 -20.030710 47.194315 -0.844907 2.009129 0.031516 -0.005308 439463.000000 0 0 1
29.143216 -32.282613 -18.683710 47.334714 -0.836462 1.976554 0.025282 -0.007075 210631.000000 0 0 1
28.361436 -32.951013 -17.705810 46.942902 -0.860114 1.957543 0.038300 -0.014193 -11237.400000 0 0 1
28.261626 -32.106313 -16.571910 45.871157 -0.849000 1.940427 0.031367 -0.018705 -164572.000000 0 0 1
27.514166 -32.885713 -15.495610 45.591813 -0.874098 1.917582 0.040067 -0.021782 -23304.900000 0 0 1
26.216256 -33.363513 -15.808910 45.280655 -0.904789 1.927441 0.049277 -0.014977 90680.300000 0 0 1
25.652756 -33.965713 -14.673810 45.022819 -0.923941 1.902780 0.058096 -0.018405 -697953.000000 0 0 1
24.130256 -34.062313 -14.696410 44.254886 -0.954445 1.909310 0.067514 -0.019680 -41148.700000 0 0 1
23.476856 -32.817213 -14.346310 42.824629 -0.949821 1.912403 0.069796 -0.017169 130654.000000 0 0 1
22.100156 -32.940113 -14.096210 42.097163 -0.979855 1.912242 0.066413 -0.020026 -156572.000000 0 0 1
-0.477009 -7.471854 -29.084460 30.032681 1.507042 2.889638 0.040329 -0.013284 281746.000000 0 0 1
-0.285809 -8.863954 -28.890890 30.221431 1.538564 2.843756 0.040899 -0.013711 -107457.000000 0 0 1
-0.453909 -9.566554 -30.117810 31.603915 1.523384 2.833709 0.029163 -0.014470 -88097.900000 0 0 1
-0.260409 -11.083354 -30.038770 32.019311 1.547305 2.788031 0.032695 -0.013464 -366313.000000 0 0 1
1.081791 -11.370154 -29.781180 31.896228 -1.475939 2.775379 0.024598 -0.018066 -522153.000000 0 0 1
1.280691 -12.719154 -29.451350 32.106060 -1.470445 2.732078 0.036209 -0.018690 -347871.000000 0 0 1
2.727091 -12.857354 -28.970350 31.812415 -1.361790 2.715679 0.035530 -0.017254 -734701.000000 0 0 1
3.665191 -12.705454 -30.059960 32.839966 -1.289947 2.727165 0.047219 -0.014647 92362.100000 0 0 1
5.000091 -12.927954 -29.682760 32.759718 -1.201751 2.704710 0.050261 -0.016728 122115.000000 0 0 1
5.443291 -14.344954 -29.175980 32.964298 -1.208124 2.657458 0.056926 -0.021749 -1184160.000000 0 0 1
4.909091 -14.829654 -27.989360 32.053425 -1.251118 2.632546 0.057372 -0.022600 -247167.000000 0 0 1
5.796291 -15.724354 -27.356940 32.081996 -1.217632 2.591966 0.060715 -0.021111 -196303.000000 0 0 1
5.450691 -17.250354 -27.590150 32.992440 -1.264748 2.561217 0.049170 -0.022789 -372148.000000 0 0 1
5.798191 -17.813354 -28.869370 34.414751 -1.256115 2.565993 0.058867 -0.040184 203752.000000 0 0 1
5.287191 -19.125554 -29.040980 35.172713 -1.301086 2.542181 0.044717 -0.036250 -623796.000000 0 0 1
5.550191 -19.701654 -30.405710 36.653335 -1.296201 2.549095 0.058774 -0.038537 -65294.100000 0 0 1
6.866391 -19.956654 -30.864700 37.390441 -1.239418 2.541831 0.050795 -0.032584 141066.000000 0 0 1
6.850291 -20.449754 -32.227560 38.778016 -1.247563 2.551840 0.051428 -0.030957 -76546.300000 0 0 1
8.267491 -20.428954 -32.828440 39.539854 -1.186249 2.550374 0.060956 -0.026240 93322.300000 0 0 1
8.794991 -19.130154 -33.075320 39.208308 -1.139868 2.574710 0.050328 -0.028459 107034.000000 0 0 1
10.026991 -19.158854 -33.762290 40.093571 -1.088635 2.571938 0.055399 -0.031110 -54593.700000 0 0 1
10.390591 -17.673354 -34.129682 39.813905 -1.039303 2.600663 0.041605 -0.019653 -541297.000000 0 0 1
9.521591 -17.175254 33.493131 38.825763 -1.064598 0.530306 0.052625 -0.021206 -383227.000000 0 0 1
9.846491 -15.912954 33.072217 37.999303 -1.016688 0.514909 0.046245 -0.018113 -425193.000000 0 0 1
8.867091 -15.303154 32.082843 36.634965 -1.045640 0.503822 0.073010 -0.024409 -244570.000000 0 0 1
8.839391 -16.059054 30.923233 35.948218 -1.067623 0.535103 0.069901 -0.025086 425874.000000 0 0 1
7.884191 -15.593154 29.956683 34.680107 -1.102664 0.528032 0.080132 -0.017275 -357106.000000 0 0 1
7.767891 -16.303654 28.595883 33.821204 -1.126165 0.563292 0.072414 -0.015264 -590522.000000 0 0 1
7.414091 -17.680854 28.724553 34.535218 -1.173739 0.588550 0.081349 -0.020695 295455.000000 0 0 1
7.711391 -18.412354 27.590443 34.054558 -1.174175 0.626331 0.063471 -0.018468 -109024.000000 0 0 1
7.471391 -19.906454 27.919363 35.093866 -1.211741 0.650861 0.060328 -0.017581 170257.000000 0 0 1
8.346291 -20.401754 28.916803 36.360331 -1.182473 0.651320 0.071636 -0.018402 426761.000000 0 0 1
7.792591 -21.592454 29.374693 37.280439 -1.224449 0.663342 0.054396 -0.017353 -80681.000000 0 0 1
8.093691 -21.698054 30.906693 38.620423 -1.213767 0.643054 0.067617 -0.024032 -37073.500000 0 0 1
7.311491 -20.995954 31.878793 38.865736 -1.235696 0.608986 0.079563 -0.028215 222474.000000 0 0 1
7.320191 -19.579954 31.732173 37.998561 -1.213024 0.582502 0.066368 -0.025748 -390668.000000 0 0 1
6.509291 -18.895354 32.813657 38.420585 -1.239037 0.547047 0.066497 -0.025538 -208062.000000 0 0 1
5.134191 -19.217254 32.805174 38.364596 -1.309728 0.545072 0.079231 -0.039366 -250383.000000 0 0 1
4.429091 -18.118754 33.399540 38.254874 -1.331050 0.509314 0.074994 -0.029306 292019.000000 0 0 1
2.917991 -18.383554 33.611610 38.421479 -1.413381 0.505747 0.077257 -0.033162 134956.000000 0 0 1
2.633691 -19.430354 -34.081781 39.319750 -1.436072 2.619516 0.070352 -0.040662 -106855.000000 0 0 1
2.516091 -19.076154 -32.737690 37.973500 -1.439656 2.610234 0.055151 -0.041629 23516.400000 0 0 1
1.807991 -20.072654 -31.725090 37.585391 -1.480966 2.575644 0.048081 -0.027854 -733932.000000 0 0 1
0.546791 -20.556954 -32.126390 38.144361 -1.544204 2.572206 0.030785 -0.024349 -204051.000000 0 0 1
-0.047209 -21.382054 -31.163380 37.793527 1.568588 2.540237 0.033377 -0.025051 -162738.000000 0 0 1
-0.780409 -20.470354 -30.164540 36.462911 1.532691 2.545021 0.038034 -0.022561 -1721390.000000 0 0 1
-1.911509 -19.936254 -30.782610 36.724340 1.475207 2.564784 0.045353 -0.028076 -499201.000000 0 0 1
-2.544809 -18.894654 -30.035730 35.575681 1.436918 2.576011 0.063781 -0.016999 -137827.000000 0 0 1
-1.990209 -17.523154 -30.314790 35.071475 1.457705 2.614696 0.044900 -0.012422 -116327.000000 0 0 1
-2.681509 -16.464454 -29.658850 34.028167 1.409347 2.629247 0.045198 -0.014535 162481.000000 0 0 1
-2.098609 -15.207254 -29.980790 33.682525 1.433662 2.668359 0.041603 -0.017644 211608.000000 0 0 1
-3.097809 -14.105054 -29.584240 32.920757 1.354605 2.687479 0.044336 -0.011264 231561.000000 0 0 1
-3.227909 -14.093854 -28.167360 31.661590 1.345650 2.667349 0.042673 -0.015211 -77900.300000 0 0 1
-4.087709 -13.091454 -27.700290 30.909571 1.268146 2.681862 0.037083 -0.013988 -188114.000000 0 0 1
-3.986509 -12.891054 -26.128820 29.407257 1.270879 2.664897 0.030316 -0.016770 -204972.000000 0 0 1
-4.589909 -13.947354 -25.366180 29.309368 1.252871 2.616871 0.028298 -0.010919 278689.000000 0 0 1
-4.511409 -13.829154 -23.938110 28.011273 1.255457 2.595554 0.021418 -0.010471 336997.000000 0 0 1
-5.467309 -12.775654 -23.200710 27.044070 1.166432 2.601936 0.024215 -0.017889 -32261.400000 0 0 1
-6.836109 -13.007854 -23.377410 27.612315 1.086928 2.580417 0.021117 -0.021162 -665367.000000 0 0 1
-7.480209 -11.856254 -22.889210 26.841017 1.007960 2.592062 0.008493 -0.024261 -99756.800000 0 0 1
-8.960109 -11.523354 -23.242710 27.446217 0.909888 2.580822 0.023647 -0.025059 576987.000000 0 0 1
-9.933609 -12.436554 -22.743610 27.759976 0.896822 2.530977 0.034611 -0.022888 288256.000000 0 0 1
-9.995609 -13.614454 -23.552310 28.982354 0.937490 2.519470 0.032327 -0.028220 -802009.000000 0 0 1
-11.027209 -14.610054 -22.984410 29.382582 0.924250 2.469059 0.038490 -0.033741 100871.000000 0 0 1
-10.466609 -15.577954 -22.023810 28.935631 0.979189 2.435852 0.044653 -0.026679 -83951.900000 0 0 1
-11.401809 -16.554854 -21.599010 29.505621 0.967675 2.392094 0.032500 -0.012101 49476.500000 0 0 1
-11.739809 -17.624154 -22.671510 31.023077 0.983172 2.390282 0.029937 -0.005752 122545.000000 0 0 1
-12.797609 -17.151454 -23.503610 31.786331 0.929762 2.403012 0.023645 -0.009308 -97436.500000 0 0 1
-13.083209 -18.066254 -24.494810 33.129377 0.944026 2.402928 0.033938 -0.008047 414628.000000 0 0 1
-14.437309 -17.797254 -25.234040 34.087166 0.889257 2.404283 0.025082 -0.011504 243878.000000 0 0 1
-15.577409 -18.076354 -24.446610 34.162069 0.859517 2.368289 0.041597 -0.008666 228114.000000 0 0 1
-16.750909 -17.714054 -25.176430 35.046159 0.813337 2.372266 0.051535 -0.020383 616889.000000 0 0 1
-17.500409 -16.366654 -24.834710 34.509339 0.751934 2.374097 0.044283 -0.012186 262878.000000 0 0 1
-18.283709 -16.439354 -23.628210 34.100421 0.732332 2.336301 0.051732 -0.015015 376115.000000 0 0 1
-19.125609 -15.304954 -23.599210 34.014015 0.674883 2.337560 0.051307 -0.014800 93979.800000 0 0 1
-19.847609 -15.006254 -22.267510 33.390975 0.647377 2.300800 0.041303 -0.021381 90998.700000 0 0 1
-18.936209 -14.731254 -21.217410 32.027618 0.661145 2.294911 0.048867 -0.011759 83524.000000 0 0 1
-19.435609 -14.936054 -19.888310 31.565384 0.655230 2.252436 0.038963 -0.010595 -52125.400000 0 0 1
-20.283109 -13.839354 -19.221510 31.183308 0.598754 2.234964 0.028516 -0.012712 -800987.000000 0 0 1
-21.445609 -13.389354 -19.799610 32.112513 0.558125 2.235175 0.031600 -0.017606 -588949.000000 0 0 1
-21.952709 -12.364254 -18.925310 31.511324 0.512938 2.215032 0.033239 -0.012867 313110.000000 0 0 1
-23.414809 -11.988454 -19.294210 32.622735 0.473204 2.203633 0.044946 -0.010442 205654.000000 0 0 1
-23.586309 -11.312054 -20.518310 33.245715 0.447197 2.235939 0.044669 -0.023473 -246629.000000 0 0 1
-24.968809 -11.282354 -20.767110 34.380311 0.424398 2.219358 0.044481 -0.023437 -510025.000000 0 0 1
-25.556509 -10.154954 -21.597110 34.967033 0.378222 2.236537 0.056985 -0.014748 -206102.000000 0 0 1
-25.443789 -10.356654 -23.018210 35.839708 0.386561 2.268232 0.043477 -0.016294 212580.000000 0 0 1
-26.049889 -9.333954 -23.767410 36.477516 0.344059 2.280440 0.043428 -0.016646 -416413.000000 0 0 1
-26.145889 -9.720754 -25.254650 37.628419 0.355953 2.306567 0.043470 -0.009464 -516639.000000 0 0 1
-24.982709 -9.679554 -25.998850 37.333225 0.369641 2.341165 0.032290 -0.012643 -526218.000000 0 0 1
-24.170109 -10.841154 -25.971600 37.097827 0.421635 2.346312 0.034526 -0.003180 620372.000000 0 0 1
-23.097109 -10.892154 -27.120790 37.251211 0.440655 2.386271 0.043657 -0.001773 839986.000000 0 0 1
-23.793509 -11.014154 -28.370780 38.630866 0.433534 2.395589 0.044231 0.006418 495650.000000 0 0 1
-22.885509 -11.374354 -29.400050 38.954915 0.461254 2.426023 0.042458 0.002073 339961.000000 0 0 1
-23.541609 -11.832254 -30.753950 40.497099 0.465734 2.433204 0.040843 0.002462 361551.000000 0 0 1
-24.370809 -10.864954 -31.428200 41.227604 0.419371 2.437671 0.033320 0.005794 359826.000000 0 0 1
-23.680709 -9.807154 -32.069920 41.054062 0.392637 2.467323 0.031966 -0.000019 -189805.000000 0 0 1
-24.639409 -8.734554 -32.680860 41.850108 0.340674 2.466906 0.025839 0.005440 -919241.000000 0 0 1
-25.412299 -9.143954 -33.829870 43.288069 0.345400 2.467872 0.030347 0.003544 1562220.000000 0 0 1
-26.729789 -9.675654 -33.558070 43.980041 0.347307 2.438784 0.034095 0.005383 664628.000000 0 0 1
-27.664969 -8.696854 -32.804850 43.785203 0.304582 2.417683 0.021423 0.020301 -1671970.000000 0 0 1
-29.009769 -9.122854 -32.842400 44.759540 0.304683 2.394624 0.016528 0.019130 170001.000000 0 0 1
-29.764299 -8.674054 -31.717050 44.352271 0.283571 2.367587 0.025892 0.020377 625872.000000 0 0 1
-31.264419 -9.092054 -31.784530 45.501491 0.283006 2.344149 0.024726 0.008643 417446.000000 0 0 1
-31.414369 -10.457254 -31.885570 45.966361 0.321344 2.337371 0.020526 0.003185 23563.400000 0 0 1
-32.746269 -10.845554 -31.631950 46.803039 0.319829 2.312917 0.009972 0.005065 -217513.000000 0 0 1
-33.029139 -12.362354 -31.898020 47.552450 0.358145 2.306079 0.007628 0.000620 -882270.000000 0 0 1
-34.252306 -12.811954 -31.436300 48.224554 0.357934 2.280848 -0.012708 0.003893 -748089.000000 0 0 1
-34.209959 -14.224754 -31.584360 48.685077 0.394059 2.276735 -0.011553 -0.000548 -204402.000000 0 0 1
-35.349962 -15.030754 -31.000130 49.361437 0.402039 2.249807 -0.019783 0.000719 -388779.000000 0 0 1
-35.350128 -14.891354 -29.550160 48.421028 0.398693 2.227204 -0.010789 0.005669 236370.000000 0 0 1
35.550006 -15.689154 -29.034200 48.507084 -0.415618 2.212493 -0.016353 0.005654 217218.000000 0 0 1
35.537256 -15.771154 -27.487540 47.615026 -0.417679 2.186199 -0.000884 0.005417 373791.000000 0 0 1
-35.236889 -16.422854 -27.018550 47.342904 0.436137 2.178153 -0.012681 -0.001252 662088.000000 0 0 1
-35.186008 -16.278954 -25.606840 46.462563 0.433327 2.154512 -0.004536 -0.002750 -686850.000000 0 0 1
-33.874709 -15.672954 -25.133160 44.997924 0.433344 2.163421 0.011055 -0.004264 -687121.000000 0 0 1
-32.795189 -16.556554 -25.237520 44.571026 0.467518 2.172723 -0.004471 0.001948 381327.000000 0 0 1
-31.526029 -15.940254 -24.991010 43.272772 0.468135 2.186487 0.009922 0.002821 1256260.000000 0 0 1
-30.249199 -16.797754 -25.272450 42.847116 0.506913 2.201643 0.024777 -0.004885 580540.000000 0 0 1
-30.038149 -18.020254 -24.479110 42.734609 0.540355 2.180735 0.029524 -0.010549 -67381.600000 0 0 1
-30.781509 -19.120454 -24.971110 44.007379 0.555838 2.174178 0.020995 -0.010596 -45446.000000 0 0 1
-30.709989 -20.377554 -24.127810 44.051099 0.585840 2.150437 0.028652 -0.016317 61470.100000 0 0 1
-29.368989 -20.852454 -24.219010 43.404180 0.617417 2.162756 0.034431 -0.014937 437546.000000 0 0 1
-29.225949 -22.140154 -23.546510 43.575000 0.648316 2.141670 0.026290 -0.008969 -485969.000000 0 0 1
-27.904849 -22.895254 -23.885310 43.282575 0.687102 2.155372 0.050350 -0.016795 847600.000000 0 0 1
-26.716759 -22.391954 -23.250410 41.901866 0.697559 2.159012 0.043158 -0.015461 302517.000000 0 0 1
-26.635679 -22.269554 -21.818010 41.005097 0.696357 2.131852 0.032269 -0.015087 -798359.000000 0 0 1
-26.689029 -23.579854 -21.021910 41.354981 0.723626 2.104039 0.024026 -0.016254 -277252.000000 0 0 1
-26.577389 -23.329654 -19.634610 40.449330 0.720414 2.077631 0.018587 -0.015215 -32692.000000 0 0 1
-26.720489 -24.516954 -18.897710 40.892408 0.742418 2.051195 0.017490 0.000896 -67468.400000 0 0 1
-26.458199 -24.285254 -17.381210 39.898826 0.742602 2.021537 0.002105 -0.003222 609081.000000 0 0 1
-27.545009 -23.663554 -16.656910 39.951770 0.709746 2.000856 0.008674 -0.002463 390607.000000 0 0 1
-27.186919 -22.390254 -16.161810 38.751208 0.688947 2.001011 -0.000641 -0.000783 -95934.700000 0 0 1
-28.295109 -21.610354 -15.413110 38.796708 0.652242 1.979346 -0.007225 0.014904 547776.000000 0 0 1
-29.372999 -21.067754 -16.181710 39.603927 0.622209 1.991703 -0.007804 0.016742 1065700.000000 0 0 1
-30.373829 -20.534054 -15.260910 39.712872 0.594467 1.965225 0.000562 0.011590 692011.000000 0 0 1
-31.584799 -19.886854 -15.955110 40.591280 0.561924 1.974761 0.011336 -0.006094 -424102.000000 0 0 1
-32.308169 -20.703754 -16.793910 41.886736 0.569895 1.983335 0.005876 0.000309 -488087.000000 0 0 1
-33.254049 -19.911054 -17.467510 42.513477 0.539504 1.994204 0.009384 -0.006545 -147100.000000 0 0 1
-34.049481 -20.675254 -18.554510 43.944319 0.545706 2.006698 0.007956 -0.000033 -132007.000000 0 0 1
-35.088703 -21.528654 -18.174810 45.000264 0.550323 1.986553 0.014668 -0.000604 -366040.000000 0 0 1
-34.808566 -22.612254 -17.310010 44.973178 0.576106 1.965892 0.017569 -0.006172 -386225.000000 0 0 1
-35.774122 -23.802454 -17.496910 46.394897 0.587093 1.957492 0.010867 0.004844 648612.000000 0 0 1
34.802446 -23.581254 -17.207510 45.424489 -0.595516 1.959313 0.009856 0.000009 510503.000000 0 0 1
34.095146 -24.802054 -17.327510 45.583588 -0.628903 1.960729 -0.007428 0.003207 77338.000000 0 0 1
32.668586 -24.784854 -16.733610 44.289267 -0.649030 1.958243 -0.010114 0.006306 -169119.000000 0 0 1
31.751686 -24.170354 -17.580510 43.605618 -0.650650 1.985775 -0.005026 0.002888 -1141210.000000 0 0 1
30.473366 -24.434554 -17.140210 42.655132 -0.675858 1.984313 0.001310 0.001946 32555.800000 0 0 1
29.202246 -24.224254 -18.033910 42.009613 -0.692492 2.014492 0.012802 0.005886 758789.000000 0 0 1
29.028686 -22.821054 -18.302910 41.212397 -0.666242 2.030979 0.016482 0.004776 1171370.000000 0 0 1
27.724686 -22.514454 -18.856610 40.387258 -0.682059 2.056573 0.017687 -0.005392 912096.000000 0 0 1
34.261026 29.818946 -17.967510 48.844845 0.716188 1.947491 0.021390 -0.023375 316200.000000 0 0 1
33.396486 29.908846 -19.106910 48.733339 0.730361 1.973678 0.022577 -0.022918 248576.000000 0 0 1
34.094926 29.459746 -20.229510 49.392041 0.712595 1.992779 0.033109 -0.020974 -216531.000000 0 0 1
33.278256 29.574546 -21.522510 49.450122 0.726539 2.021098 0.035743 -0.014868 -9023.690000 0 0 1
32.203736 28.638446 -21.567210 48.191138 0.726866 2.034803 0.029855 -0.012764 503212.000000 0 0 1
31.415926 28.582246 -22.733110 48.173639 0.738204 2.062240 0.041298 -0.005279 74981.000000 0 0 1
30.257046 29.551246 -22.952510 48.120502 0.773598 2.068012 0.033088 0.007395 -629299.000000 0 0 1
30.711786 30.851746 -23.116710 49.289211 0.787672 2.058956 0.036523 -0.002991 462317.000000 0 0 1
29.628566 31.799646 -23.079810 49.211249 0.820727 2.058948 0.042727 0.010518 -33736.600000 0 0 1
30.086426 33.249246 -22.880310 50.340977 0.835294 2.042615 0.036813 0.007162 -138291.000000 0 0 1
30.485436 33.453346 -21.532510 50.121225 0.831783 2.014856 0.031974 0.002521 1544350.000000 0 0 1
31.931146 33.318446 -21.357910 50.851522 0.806656 2.004248 0.025109 -0.006301 1445210.000000 0 0 1
32.350496 33.140946 -19.854710 50.389348 0.797467 1.975804 0.023650 -0.014762 -2337.930000 0 0 1
31.910726 34.227246 -19.015410 50.511233 0.820409 1.956767 0.020336 -0.017027 315937.000000 0 0 1
32.289906 34.005046 -17.671510 50.112508 0.811264 1.931184 0.014813 -0.026899 -528245.000000 0 0 1
32.171096 -33.382613 -16.872310 49.336124 -0.803877 1.919827 0.014388 -0.027574 89818.600000 0 0 1
33.200956 -32.405713 -17.038810 49.424233 -0.773277 1.922765 0.010118 -0.015466 -234722.000000 0 0 1
34.435546 -32.745213 -16.494710 50.300410 -0.760243 1.904902 0.006259 -0.022633 -518074.000000 0 0 1
35.550596 -31.712313 -16.795110 50.513280 -0.728396 1.909738 -0.000460 -0.007271 33975.500000 0 0 1
-35.669503 -31.908713 -17.951410 51.114896 0.729805 1.929646 -0.004122 -0.003948 -467264.000000 0 0 1
-34.442901 -31.203513 -17.946510 49.820176 0.736092 1.939306 -0.007407 0.000131 124113.000000 0 0 1
-33.332229 -31.963113 -18.678710 49.815382 0.764433 1.955149 0.005788 -0.002693 -1921280.000000 0 0 1
-32.835399 -33.054913 -17.963310 49.934670 0.788730 1.938782 0.010792 -0.009237 -52679.600000 0 0 1
-31.784279 -33.726813 -18.596510 49.935644 0.815041 1.952400 0.023365 -0.004720 504764.000000 0 0 1
-30.497759 -32.946513 -19.047410 48.768739 0.823976 1.972043 0.020256 -0.006264 -1188150.000000 0 0 1
-30.634059 -32.169713 -20.215510 48.805767 0.809845 1.997864 0.011141 -0.004310 -61699.200000 0 0 1
-29.433909 -31.596313 -20.697810 47.886129 0.820815 2.017760 0.028504 -0.010998 186849.000000 0 0 1
-28.466959 -32.530613 -21.443810 48.253969 0.851920 2.031295 0.028256 0.000224 -496078.000000 0 0 1
-29.021719 -32.948613 -22.667810 49.413570 0.848681 2.047369 0.020827 0.004023 -163678.000000 0 0 1
-28.402549 -34.149813 -23.165410 50.095417 0.877020 2.051525 0.016422 0.001271 109802.000000 0 0 1
-29.228309 33.754846 -24.253310 50.812466 -0.857144 2.068388 0.004843 -0.001984 -50811.600000 0 0 1
-30.459999 33.187346 -23.791610 50.943618 -0.828223 2.056712 -0.005496 -0.007054 85793.600000 0 0 1
-31.051599 32.433446 -24.788110 51.289186 -0.807161 2.075218 0.001639 -0.003897 83592.900000 0 0 1
-31.883429 33.195746 -25.877760 52.803116 -0.805560 2.082978 0.007467 -0.013211 -85537.300000 0 0 1
-31.102599 34.083446 -26.694090 53.306917 -0.831095 2.095275 0.001819 -0.014660 -233072.000000 0 0 1
-32.009469 -33.846013 -27.421940 54.056651 0.813278 2.102824 0.002696 -0.018207 -72207.900000 0 0 1
-31.506619 -33.158913 -28.747200 54.023903 0.810944 2.131899 0.008489 -0.019455 -110211.000000 0 0 1
-31.399909 -34.069013 -29.821110 55.099461 0.826145 2.142688 0.017546 -0.014493 408451.000000 0 0 1
-32.533459 -33.970613 -30.683840 56.159831 0.807005 2.148816 0.024987 -0.014017 203269.000000 0 0 1
-32.547659 33.797246 -31.942370 56.761950 -0.804231 2.168496 0.041815 -0.016210 -151430.000000 0 0 1
-31.550749 34.321046 -32.791570 56.997114 -0.827429 2.183791 0.044384 -0.020050 -64639.500000 0 0 1
-31.513029 33.619646 -34.018740 57.276752 -0.817730 2.206739 0.041664 -0.031150 219150.000000 0 0 1
-30.540299 34.133046 33.388822 56.679698 -0.840893 0.940878 0.036802 -0.034567 345044.000000 0 0 1
-29.254889 33.605846 33.524292 55.759121 -0.854504 0.925752 0.038196 -0.023377 -675095.000000 0 0 1
-29.015959 32.350646 32.873826 54.490170 -0.839685 0.923166 0.052487 -0.031509 7672.510000 0 0 1
-27.491609 32.061746 32.868025 53.516831 -0.861988 0.909472 0.050166 -0.030802 78608.700000 0 0 1
-26.940499 31.803946 34.153735 53.886539 -0.868000 0.884329 0.056254 -0.029208 1131040.000000 0 0 1
-25.518699 31.524946 34.186648 53.044822 -0.890304 0.870445 0.058892 -0.028496 1169670.000000 0 0 1
-25.195419 30.037446 33.796539 51.761602 -0.872840 0.859354 0.069027 -0.030440 -486491.000000 0 0 1
-25.598919 29.016146 -33.859910 51.417263 -0.847886 2.289663 0.058816 -0.024498 154946.000000 0 0 1
-25.199669 27.738546 34.263562 50.778361 -0.833321 0.830147 0.042677 -0.025697 -205593.000000 0 0 1
-25.147459 26.727746 -33.181040 49.474726 -0.815852 2.305903 0.051052 -0.028750 104416.000000 0 0 1
-24.075109 26.816846 -32.223820 48.343859 -0.839220 2.300374 0.043406 -0.016965 162545.000000 0 0 1
-24.087209 27.952546 -31.359400 48.424688 -0.859539 2.275215 0.023268 -0.001350 1256400.000000 0 0 1
-22.829009 28.006246 -30.350180 47.187360 -0.886892 2.269446 0.027705 0.002782 1054900.000000 0 0 1
-21.573409 28.277246 -30.941490 47.142236 -0.919075 2.286758 0.035557 0.000064 436097.000000 0 0 1
-20.509609 28.293946 -29.957350 46.028624 -0.943569 2.279489 0.014822 -0.000885 644809.000000 0 0 1
-20.437209 29.510346 -29.007250 46.151496 -0.965092 2.250448 0.015216 0.005188 -711574.000000 0 0 1
-19.939909 30.679646 -29.680110 47.114219 -0.994464 2.252299 0.014216 0.014467 344469.000000 0 0 1
-19.625809 31.656246 -28.683470 47.010975 -1.015825 2.227039 0.014972 0.009549 -342069.000000 0 0 1
-19.143509 32.992646 -29.261330 48.075088 -1.045036 2.225166 0.007350 0.013743 -415687.000000 0 0 1
-17.849909 32.959846 -29.784700 47.875871 -1.074452 2.242248 0.023423 0.007763 -665346.000000 0 0 1
-17.680809 33.941946 -30.766860 49.104647 -1.090558 2.247924 0.026637 0.011623 509755.000000 0 0 1
-16.229909 34.064846 -31.329500 49.044482 -1.126172 2.263731 0.039612 0.008482 591144.000000 0 0 1
-15.281409 -33.998313 -30.435930 48.122267 1.148379 2.255535 0.060621 -0.000671 1099530.000000 0 0 1
-13.914809 -34.016713 -30.867350 47.995333 1.182506 2.269378 0.073396 0.002150 1188920.000000 0 0 1
-13.181809 33.299746 -30.879160 47.288008 -1.193870 2.282338 0.085084 -0.008570 -625771.000000 0 0 1
-12.945109 32.797646 -29.629350 46.056051 -1.194870 2.269639 0.107238 -0.021546 -132493.000000 0 0 1
-12.677709 31.404446 -29.632590 45.000599 -1.187112 2.289611 0.108987 -0.020447 57082.400000 0 0 1
-12.391609 30.900446 -28.174540 43.614152 -1.189413 2.273123 0.106672 -0.033005 359298.000000 0 0 1
-11.142809 31.358546 -27.681540 43.287276 -1.229376 2.264624 0.105952 -0.031363 95455.100000 0 0 1
-10.835009 31.064546 -26.321890 42.133660 -1.235200 2.245574 0.091724 -0.033192 613616.000000 0 0 1
-9.523409 31.602346 -25.657810 41.805823 -1.278100 2.231582 0.090278 -0.029374 -91936.200000 0 0 1
-8.373809 31.052246 -26.165300 41.460651 -1.307394 2.253751 0.098075 -0.020736 -1689410.000000 0 0 1
-7.217209 31.432346 -25.507110 41.118039 -1.345098 2.239971 0.096331 -0.021095 -593254.000000 0 0 1
-6.128109 30.424546 -25.952140 40.456400 -1.372036 2.267228 0.052732 -0.014891 -491394.000000 0 0 1
-6.003209 29.234746 -25.236850 39.084620 -1.368267 2.272733 0.056809 -0.023473 -330026.000000 0 0 1
-4.991509 28.525246 -25.868080 38.829916 -1.397565 2.299884 0.038010 -0.018242 -273874.000000 0 0 1
-4.492409 27.227246 -25.160020 37.343423 -1.407273 2.310064 0.055536 -0.018871 419917.000000 0 0 1
-5.513309 26.233046 -25.188270 36.783396 -1.363645 2.325088 0.061305 -0.014405 673209.000000 0 0 1
-5.090209 25.172646 -24.283810 35.345095 -1.371275 2.328216 0.069185 -0.025682 -107002.000000 0 0 1
-5.949409 23.916246 -24.443910 34.711483 -1.326985 2.352095 0.052986 -0.024716 -145488.000000 0 0 1
-5.937709 23.303446 -25.714310 35.206998 -1.321306 2.389667 0.052398 -0.019798 -216293.000000 0 0 1
-6.891909 22.290146 -25.796170 34.782056 -1.270929 2.406326 0.040184 -0.027401 -418226.000000 0 0 1
-6.778509 21.276746 -26.971640 35.015960 -1.262375 2.450056 0.028842 -0.017208 84992.600000 0 0 1
-5.576809 20.510546 -26.974440 34.342448 -1.305315 2.474227 0.046080 -0.027235 -168591.000000 0 0 1
-5.532509 19.391146 -26.120640 32.998682 -1.292869 2.484164 0.040637 -0.026801 -433417.000000 0 0 1
-4.300609 18.492146 -26.247300 32.394065 -1.342294 2.515375 0.053193 -0.039434 -163178.000000 0 0 1
-4.193409 17.863946 -27.467140 33.032545 -1.340229 2.552630 0.040820 -0.044413 -569773.000000 0 0 1
-3.243809 16.846746 -27.444120 32.365334 -1.380576 2.582898 0.051324 -0.043106 -528154.000000 0 0 1
-2.934809 16.428546 -28.904980 33.376760 -1.394020 2.617985 0.054998 -0.037635 -250533.000000 0 0 1
-2.337009 17.473346 -29.623080 34.471819 -1.437838 2.604778 0.060528 -0.045756 22030.300000 0 0 1
-2.206909 17.198546 -31.021050 35.538233 -1.443174 2.631896 0.057179 -0.048526 288672.000000 0 0 1
-1.322909 18.284846 -31.761930 36.672958 -1.498572 2.618115 0.059903 -0.024115 480665.000000 0 0 1
0.051591 18.260746 -31.384090 36.310035 1.567971 2.614626 0.082849 -0.034824 46806.500000 0 0 1
0.829491 19.250446 -31.980750 37.336793 1.527734 2.599339 0.093237 -0.016693 82921.000000 0 0 1
0.597391 20.673146 -31.407250 37.605202 1.541907 2.559263 0.077515 -0.015971 -180301.000000 0 0 1
1.147691 20.737246 -30.084400 36.557102 1.515508 2.537368 0.094079 -0.028803 -152481.000000 0 0 1
1.106591 22.097746 -29.636520 36.984568 1.520761 2.500297 0.087967 -0.023356 909658.000000 0 0 1
2.191791 22.437046 -28.504210 36.341642 1.473419 2.472428 0.092446 -0.029816 988195.000000 0 0 1
3.520691 22.525346 -28.993100 36.883415 1.415752 2.475228 0.079678 -0.027680 -227810.000000 0 0 1
4.495291 22.675246 -27.999880 36.309334 1.375087 2.451439 0.059774 -0.027220 66582.400000 0 0 1
4.696291 24.177646 -27.510200 36.924583 1.378944 2.411387 0.067415 -0.028180 -553860.000000 0 0 1
5.461791 24.891546 -28.449610 38.194247 1.354796 2.411131 0.061768 -0.029854 43681.300000 0 0 1
5.751791 26.251446 -28.061930 38.854774 1.355101 2.377812 0.059213 -0.034092 89023.000000 0 0 1
6.765191 26.929946 -29.020620 40.164489 1.324675 2.378272 0.073989 -0.032118 500021.000000 0 0 1
8.114491 26.464446 -29.035210 40.115524 1.273279 2.380075 0.060035 -0.028958 508500.000000 0 0 1
8.835991 27.310546 -29.918630 41.461610 1.257888 2.376905 0.061765 -0.036736 250921.000000 0 0 1
10.360691 27.378146 -29.638260 41.657331 1.209023 2.362395 0.041525 -0.028882 465922.000000 0 0 1
11.035491 28.458246 -30.292160 43.003125 1.200870 2.352399 0.035036 -0.026243 776204.000000 0 0 1
12.340891 28.697946 -29.732890 43.126725 1.164676 2.331499 0.027433 -0.025780 821171.000000 0 0 1
13.323991 29.528646 -30.565250 44.538794 1.146926 2.327133 0.040869 -0.025258 -232247.000000 0 0 1
12.860291 30.871546 -30.662620 45.372191 1.176084 2.312849 0.036677 -0.026928 446772.000000 0 0 1
13.621591 31.625646 -31.613040 46.745198 1.164096 2.313503 0.069012 -0.038443 -59464.600000 0 0 1
13.060691 32.996846 -31.801260 47.651796 1.193902 2.301465 0.076730 -0.048707 361397.000000 0 0 1
11.751791 32.980346 -32.362400 47.677382 1.228496 2.316895 0.068807 -0.049921 428417.000000 0 0 1
11.091491 34.219646 -32.119370 48.225090 1.257355 2.299671 0.070462 -0.045410 531398.000000 0 0 1
9.880791 -34.229913 -33.074400 48.613094 -1.289776 2.319050 0.053948 -0.036701 422305.000000 0 0 1
10.327991 -33.684913 34.264874 49.146947 -1.273290 0.799323 0.055309 -0.024838 650760.000000 0 0 1
9.194991 -33.483013 33.427496 48.198107 -1.302787 0.804400 0.047202 -0.023892 321142.000000 0 0 1
9.510991 -32.663113 32.159373 46.814135 -1.287447 0.813501 0.049447 -0.019414 -69783.500000 0 0 1
9.584391 -31.267813 32.391783 46.030037 -1.273363 0.790191 0.039834 -0.021923 -9437.370000 0 0 1
9.875491 -30.607613 31.208523 44.814320 -1.258693 0.800433 0.050940 -0.014005 -743462.000000 0 0 1
9.437691 -29.124713 31.218093 43.725145 -1.257429 0.775656 0.041507 -0.029856 213983.000000 0 0 1
8.026091 -28.970113 31.074983 43.235867 -1.300528 0.768820 0.034512 -0.028313 320949.000000 0 0 1
7.341091 -29.023313 32.334773 44.065655 -1.323055 0.746918 0.038468 -0.022361 -92063.900000 0 0 1
5.830291 -28.718313 32.096073 43.461382 -1.370502 0.739959 0.039770 -0.024308 478805.000000 0 0 1
5.113991 -29.821513 31.460503 43.649042 -1.400962 0.765898 0.049187 -0.028774 255975.000000 0 0 1
5.274691 -30.078013 30.050763 42.843408 -1.397195 0.793424 0.040955 -0.030034 -706188.000000 0 0 1
4.579891 -29.102913 29.106263 41.414122 -1.414708 0.791456 0.028271 -0.028725 -494501.000000 0 0 1
3.191891 -29.266813 28.957393 41.294856 -1.462164 0.793668 0.050277 -0.036202 119403.000000 0 0 1
2.640691 -28.586313 27.851733 39.998370 -1.478682 0.800537 0.065219 -0.041303 -380060.000000 0 0 1
1.235691 -29.011913 27.424743 39.941640 -1.528230 0.813966 0.063410 -0.042731 -416552.000000 0 0 1
1.111091 -30.234513 26.777013 40.402584 -1.534064 0.846305 0.064563 -0.044163 193429.000000 0 0 1
0.746891 -31.299913 27.646683 41.768188 -1.546938 0.847435 0.091148 -0.049123 -349551.000000 0 0 1
0.841291 -32.716613 26.972923 42.410178 -1.545088 0.881491 0.084648 -0.048244 587997.000000 0 0 1
2.155091 -33.250613 26.791793 42.755677 -1.506073 0.893581 0.059029 -0.040449 796352.000000 0 0 1
2.886891 -32.806613 25.638823 41.736762 -1.483025 0.909300 0.053535 -0.038428 -595326.000000 0 0 1
4.387991 -32.781413 25.861273 41.984295 -1.437731 0.907173 0.045575 -0.019807 -705287.000000 0 0 1
5.118291 -32.523113 24.666383 41.138550 -1.414703 0.927804 0.043188 -0.031430 676336.000000 0 0 1
6.468691 -32.208513 25.043663 41.308805 -1.372595 0.919454 0.035911 -0.025229 -104409.000000 0 0 1
7.309791 -31.865213 23.849703 40.467681 -1.345301 0.940540 0.036776 -0.022331 -741140.000000 0 0 1
8.503591 -31.216813 24.247633 40.432020 -1.304845 0.927653 0.033686 -0.008728 93791.900000 0 0 1
9.335591 -31.180513 23.108323 39.917068 -1.279886 0.953407 0.025351 -0.003464 -9458.610000 0 0 1
10.558591 -30.236113 23.147323 39.515883 -1.234830 0.944963 0.008933 0.001769 673471.000000 0 0 1
11.607291 -30.718313 24.018243 40.684395 -1.209519 0.939298 0.013553 -0.000598 628112.000000 0 0 1
12.727591 -29.853213 23.983573 40.353658 -1.167792 0.934358 0.019128 0.000446 962372.000000 0 0 1
13.998191 -30.270813 24.844023 41.587222 -1.137652 0.930547 0.040244 -0.008055 624962.000000 0 0 1
13.897391 -30.174813 26.261983 42.347947 -1.139193 0.901865 0.029138 -0.011607 174395.000000 0 0 1
14.458391 -28.984413 26.748613 42.007495 -1.108083 0.880510 0.026614 -0.007656 -379221.000000 0 0 1
-11.103509 -13.860854 25.510883 31.084021 0.895404 0.608148 0.066612 -0.014066 1192400.000000 0 0 1
-9.676109 -13.705254 25.294683 30.352629 0.956045 0.585636 0.062443 -0.012354 1317720.000000 0 0 1
-8.941109 -14.043354 26.481893 31.280184 1.003843 0.561227 0.062708 -0.011930 -294987.000000 0 0 1
-7.432009 -14.087754 26.258113 30.711367 1.085352 0.545252 0.074044 -0.014363 -653578.000000 0 0 1
-6.989009 -15.267754 25.591353 30.608298 1.141506 0.580676 0.074465 -0.019572 92643.100000 0 0 1
-6.878009 -15.083254 24.207253 29.339439 1.142962 0.600460 0.080751 -0.015278 -451367.000000 0 0 1
-6.190009 -16.267954 23.509843 29.251928 1.207210 0.637305 0.077689 -0.013638 -24961.200000 0 0 1
-6.919309 -17.477954 23.394923 30.011300 1.193840 0.676870 0.084684 -0.017865 -166255.000000 0 0 1
-7.024409 -18.261854 24.546523 31.390595 1.203593 0.672975 0.084601 -0.015230 -528626.000000 0 0 1
-7.726409 -19.574654 24.375183 32.202702 1.194854 0.712194 0.085647 -0.008771 173126.000000 0 0 1
-9.142509 -19.470554 24.383933 32.515599 1.131799 0.722863 0.071300 -0.005911 366648.000000 0 0 1
-9.809709 -20.680154 23.984203 33.153298 1.127875 0.762034 0.063968 -0.011617 909786.000000 0 0 1
-11.368709 -20.614154 23.894223 33.542880 1.066802 0.777957 0.057835 -0.017020 825979.000000 0 0 1
-11.958209 -20.705954 25.191883 34.732784 1.047066 0.759318 0.059936 -0.016606 957463.000000 0 0 1
-13.399109 -20.659954 25.205963 35.237912 0.995438 0.773731 0.049917 -0.013029 1058480.000000 0 0 1
-13.962409 -20.594354 26.651583 36.460707 0.975007 0.751058 0.055309 -0.010862 -309046.000000 0 0 1
-13.751409 -21.763354 27.421993 37.612638 1.007279 0.753844 0.046508 -0.008616 -577873.000000 0 0 1
-12.752109 -21.544054 28.341963 37.815730 1.036348 0.723527 0.054551 -0.009114 -861716.000000 0 0 1
-12.181709 -22.828454 28.979453 38.850239 1.080616 0.728870 0.046430 -0.005467 -308745.000000 0 0 1
-13.128609 -23.575954 29.664673 40.102105 1.062698 0.738129 0.039854 -0.003342 -8518.530000 0 0 1
-12.518909 -24.823854 30.144183 41.007543 1.103707 0.744999 0.042575 -0.004208 705327.000000 0 0 1
-13.502209 -25.554064 31.132273 42.479857 1.084705 0.748264 0.042523 -0.010378 514438.000000 0 0 1
-13.417009 -25.110244 32.480883 43.191993 1.080068 0.719688 0.058530 -0.016677 -617866.000000 0 0 1
-14.505909 -25.527874 33.219526 44.335434 1.054059 0.723826 0.055945 -0.020962 -886543.000000 0 0 1
-14.391009 -25.140754 -33.867130 44.566143 1.050905 2.434001 0.049428 -0.022265 55254.700000 0 0 1
-14.421009 -23.758754 -33.580120 43.589773 1.025263 2.450213 0.051189 -0.026848 -87834.300000 0 0 1
-15.632409 -23.140554 -33.954220 43.963013 0.976675 2.453307 0.041609 -0.025823 -827603.000000 0 0 1
-15.762509 -21.583954 -33.743570 43.045932 0.940031 2.471714 0.034108 -0.018457 -214844.000000 0 0 1
-15.858009 -21.224454 -32.353890 41.817796 0.929117 2.455437 0.033891 -0.017577 302351.000000 0 0 1
-16.019509 -19.805454 -32.282430 41.122208 0.890686 2.473551 0.028698 -0.018967 -430337.000000 0 0 1
-15.969309 -19.313554 -30.796400 39.704539 0.879900 2.458524 0.034117 -0.012013 803222.000000 0 0 1
-17.188609 -19.657854 -30.089930 39.840725 0.852313 2.426840 0.038304 -0.014929 865478.000000 0 0 1
-17.218709 -19.438454 -28.675570 38.686248 0.845879 2.405704 0.035075 -0.013308 -211676.000000 0 0 1
-16.334609 -20.348954 -27.785310 38.117225 0.894396 2.387574 0.028847 -0.011963 -84499.900000 0 0 1
-14.986009 -19.918654 -27.863910 37.386237 0.925786 2.411779 0.023174 -0.011533 -91376.400000 0 0 1
-14.233409 -21.062154 -27.418480 37.389535 0.976510 2.393988 0.017216 -0.003642 -27956.500000 0 0 1
-12.729709 -20.978654 -27.741810 37.037244 1.025397 2.417385 0.024439 -0.006754 -346180.000000 0 0 1
-12.105309 -20.020154 -26.903030 35.652743 1.026960 2.425818 0.021167 -0.013511 890672.000000 0 0 1
-10.688309 -20.158654 -26.687170 35.111484 1.083274 2.434216 0.004922 -0.011943 1159140.000000 0 0 1
-10.165309 -21.289354 -25.748160 34.921882 1.125324 2.399872 0.017523 -0.017527 -472653.000000 0 0 1
-10.350109 -22.599454 -26.257990 36.157186 1.141326 2.383600 0.015351 -0.019918 343468.000000 0 0 1
-9.831309 -23.587654 -25.354100 35.998089 1.175893 2.352258 0.043207 -0.019431 -230938.000000 0 0 1
-9.773109 -25.007254 -26.014350 37.384794 1.198237 2.340404 0.044008 -0.018295 -415600.000000 0 0 1
-8.687109 -25.412384 -26.825170 37.958462 1.241404 2.355617 0.052802 -0.023525 -5879.810000 0 0 1
-8.796709 -26.700674 -27.459110 39.297720 1.252539 2.344439 0.048500 -0.020782 -233583.000000 0 0 1
-8.727709 -27.937694 -26.587720 39.542313 1.268003 2.308225 0.067053 -0.021378 -926229.000000 0 0 1
-9.815709 -28.237824 -25.796920 39.486756 1.236254 2.282739 0.058565 -0.019956 -565146.000000 0 0 1
-9.521209 -29.368474 -24.990110 39.719847 1.257290 2.251267 0.087338 -0.019494 -168132.000000 0 0 1
-10.526909 -29.463554 -23.844510 39.337990 1.227646 2.222000 0.084971 -0.024028 -185331.000000 0 0 1
-10.540309 -28.437164 -22.851910 37.973414 1.215843 2.216533 0.069029 -0.027345 -617549.000000 0 0 1
-11.660409 -27.633644 -23.071510 37.840164 1.171500 2.226490 0.047508 -0.019114 -533036.000000 0 0 1
-11.687609 -26.336754 -22.214710 36.382938 1.153131 2.227590 0.049318 -0.013917 -210830.000000 0 0 1
-12.028309 -26.627464 -20.884610 35.914746 1.146508 2.191374 0.036308 -0.016419 166729.000000 0 0 1
-12.067309 -25.417624 -20.175310 34.622517 1.127543 2.192871 0.031651 -0.011262 -324172.000000 0 0 1
-12.502409 -25.606424 -18.726510 34.098114 1.116591 2.152197 0.059536 -0.012466 -818116.000000 0 0 1
-13.804009 -26.066574 -18.650610 34.897882 1.083775 2.134634 0.080836 -0.018541 -889603.000000 0 0 1
-14.126809 -26.392294 -17.309410 34.579410 1.079338 2.095053 0.084736 -0.017885 455104.000000 0 0 1
-15.645709 -26.556714 -16.981210 35.191032 1.038398 2.074353 0.078757 -0.021257 -346235.000000 0 0 1
-16.305509 -25.296224 -17.031710 34.581031 0.998239 2.085775 0.073827 -0.015625 276283.000000 0 0 1
-17.664409 -25.392874 -16.610010 35.110139 0.963000 2.063583 0.080609 -0.016158 1283350.000000 0 0 1
-18.709409 -26.008294 -17.670910 36.588720 0.947193 2.074829 0.063507 -0.015529 -311479.000000 0 0 1
-18.588509 -27.400364 -17.837010 37.609461 0.974712 2.064930 0.055867 -0.017908 9613.450000 0 0 1
-19.045509 -28.238604 -16.777910 37.969046 0.977425 2.028494 0.064479 -0.028092 -554225.000000 0 0 1
-20.492809 -28.762834 -16.752010 39.088178 0.951747 2.013705 0.056206 -0.020946 9778.210000 0 0 1
-20.681009 -29.641464 -17.832110 40.302663 0.961612 2.029131 0.039706 -0.021951 523962.000000 0 0 1
-21.878009 -30.420014 -17.603310 41.399288 0.947302 2.009988 0.036774 -0.013651 838096.000000 0 0 1
-22.360609 -31.397874 -18.659710 42.825321 0.951950 2.021631 0.022448 -0.015813 -23525.500000 0 0 1
-21.605709 -32.586514 -18.712910 43.345825 0.985318 2.017186 0.011010 -0.020893 -15753.900000 0 0 1
-22.118909 -33.488644 -19.705310 44.710565 0.987082 2.027209 0.019408 -0.005475 102702.000000 0 0 1
-21.607909 33.788103 -19.570910 44.626877 -1.001829 2.024776 0.006679 -0.001143 -244574.000000 0 0 1
-22.110809 33.098906 -18.464510 43.878965 -0.981856 2.005129 0.014932 -0.003645 -57538.000000 0 0 1
-21.424609 31.862576 -18.416810 42.584228 -0.978830 2.018037 0.010069 -0.003765 59904.800000 0 0 1
-22.340809 30.609956 -18.203310 42.040952 -0.940314 2.018603 0.010234 -0.010662 583302.000000 0 0 1
-23.078509 30.533786 -16.951110 41.860122 -0.923571 1.987717 0.005083 -0.015822 424303.000000 0 0 1
-23.868209 29.317306 -16.862610 41.394969 -0.887496 1.990357 0.015856 -0.007913 76619.100000 0 0 1
-23.158409 27.972836 -16.509310 39.891713 -0.879280 1.997479 0.014426 -0.010058 -130820.000000 0 0 1
-22.390809 27.522386 -17.614310 39.611791 -0.887848 2.031606 0.004216 -0.007560 121504.000000 0 0 1
-21.667809 26.326446 -17.260110 38.216320 -0.882162 2.039402 0.015250 -0.005523 90810.700000 0 0 1
-20.859509 25.882706 -18.492710 38.039636 -0.892453 2.078467 0.026300 -0.003786 -595586.000000 0 0 1
-20.381309 24.558086 -18.378610 36.827580 -0.878074 2.093292 0.043408 -0.015499 -75281.300000 0 0 1
-19.894309 24.025966 -19.579010 36.828904 -0.879194 2.131309 0.050248 -0.011756 729937.000000 0 0 1
-18.457009 24.465116 -20.062710 36.629433 -0.924471 2.150434 0.040416 -0.011676 229610.000000 0 0 1
-17.455209 24.050006 -19.160710 35.358449 -0.942972 2.143491 0.051614 -0.008867 416939.000000 0 0 1
-16.337809 24.944486 -19.021910 35.369258 -0.990937 2.138633 0.066742 -0.015951 532273.000000 0 0 1
-16.533109 26.128686 -18.046610 35.801285 -1.006638 2.099109 0.055160 -0.024786 -23561.800000 0 0 1
-17.446909 27.183046 -18.408910 37.177958 -1.000186 2.088811 0.032648 -0.018502 170337.000000 0 0 1
-17.392009 28.346246 -17.634510 37.642630 -1.020469 2.058357 0.032934 -0.023263 -390849.000000 0 0 1
-18.535409 29.353356 -17.800610 39.013364 -1.007567 2.044595 0.011470 -0.018369 -310516.000000 0 0 1
-18.598609 30.125576 -18.992310 40.176690 -1.017703 2.063171 0.017216 -0.021696 15662.200000 0 0 1
-18.784509 29.481756 -20.247010 40.397687 -1.003503 2.095772 0.006199 -0.015604 -238738.000000 0 0 1
-18.976909 30.419926 -21.449010 41.779839 -1.013038 2.109917 0.018762 -0.017866 340293.000000 0 0 1
-20.292609 30.961266 -21.389510 42.753960 -0.990621 2.094734 0.007793 -0.009789 508940.000000 0 0 1
-20.856709 31.131776 -22.733510 43.829240 -0.980525 2.116107 0.008409 -0.011314 207067.000000 0 0 1
-21.087109 32.614446 -23.161010 45.219472 -0.996845 2.108530 0.005510 -0.013995 -449750.000000 0 0 1
-19.910009 33.383373 -23.210510 45.272351 -1.033024 2.109107 -0.010029 -0.004483 59575.700000 0 0 1
-20.186909 -34.242395 -24.107910 46.489184 1.038111 2.115974 0.003402 -0.007413 213262.000000 0 0 1
-19.141609 -33.092494 -24.102910 45.193635 1.046390 2.133323 0.017085 -0.006398 -12662.900000 0 0 1
-19.210309 -32.221404 -23.003110 44.004522 1.033178 2.120863 0.014358 -0.012691 221804.000000 0 0 1
-18.611309 -32.663464 -21.769510 43.441849 1.052886 2.095687 0.014952 -0.020266 -126036.000000 0 0 1
-18.461909 -31.773434 -20.535810 42.096469 1.044428 2.080395 0.034158 -0.028635 347871.000000 0 0 1
-17.483009 -30.722974 -20.773010 41.000911 1.053443 2.102088 0.041499 -0.026068 762362.000000 0 0 1
-17.392509 -29.972274 -19.607610 39.815763 1.044998 2.085709 0.043578 -0.026426 853542.000000 0 0 1
-16.058909 -29.091894 -19.620110 38.589838 1.066414 2.104153 0.060037 -0.027581 1344200.000000 0 0 1
-14.904209 -29.918374 -19.606210 38.751103 1.108620 2.101282 0.067604 -0.029058 164082.000000 0 0 1
-13.745109 -29.137884 -19.891510 37.863128 1.130022 2.123926 0.060662 -0.031170 -962077.000000 0 0 1
-12.516009 -29.912344 -20.337910 38.275702 1.174510 2.130993 0.098891 -0.036540 -237230.000000 0 0 1
-11.824609 -30.563174 -19.278210 38.020762 1.201642 2.102548 0.095436 -0.035642 222543.000000 0 0 1
-11.128009 -29.700904 -18.364110 36.649922 1.212316 2.095629 0.068904 -0.026402 -493267.000000 0 0 1
-10.288609 -30.563144 -17.350110 36.619497 1.246078 2.064391 0.066385 -0.013071 114975.000000 0 0 1
-11.014009 -31.281124 -16.338910 36.969948 1.232254 2.028569 0.092723 -0.026808 -184852.000000 0 0 1
-11.603309 -32.472114 -16.768710 38.344029 1.227605 2.023416 0.101165 -0.026934 147789.000000 0 0 1
-12.665209 -32.926954 -15.690010 38.610468 1.203596 1.989270 0.103339 -0.037675 184655.000000 0 0 1
-12.101809 -33.302204 -14.400110 38.247271 1.222240 1.956812 0.093953 -0.040661 -40217.600000 0 0 1
-13.063509 -33.841934 -13.538710 38.719871 1.202403 1.928002 0.101609 -0.039469 -860590.000000 0 0 1
-12.421909 -34.311894 -12.231710 38.486681 1.223445 1.894222 0.081622 -0.030108 117656.000000 0 0 1
-11.943609 -33.212554 -11.469010 37.111477 1.225585 1.884982 0.065774 -0.020822 224528.000000 0 0 1
-11.425309 -33.585514 -10.143310 36.897306 1.242891 1.849289 0.076382 -0.022161 -92694.400000 0 0 1
-10.131909 -32.852684 -9.749910 35.735349 1.271647 1.847137 0.059484 -0.020840 162763.000000 0 0 1
-9.014009 -33.529474 -10.315710 36.220048 1.308168 1.859601 0.032456 -0.016345 -157913.000000 0 0 1
-7.810009 -32.955154 -9.843410 35.269408 1.338100 1.853645 0.022959 -0.014369 498660.000000 0 0 1
-6.497109 -33.564484 -10.401810 35.734922 1.379590 1.866154 0.009266 -0.014969 385587.000000 0 0 1
-6.238109 33.888755 -9.816010 35.828979 -1.388758 1.848313 -0.000669 -0.002205 -779251.000000 0 0 1
-4.959809 33.469320 -10.162210 35.327971 -1.423677 1.862572 -0.007612 0.004726 -316611.000000 0 0 1
-4.316609 32.471026 -9.140310 34.008027 -1.438634 1.842911 -0.013085 -0.001248 -100146.000000 0 0 1
-4.000309 33.119620 -7.956910 34.296124 -1.450595 1.804936 -0.003666 -0.002210 -86566.600000 0 0 1
-3.310109 32.202046 -7.122510 33.146021 -1.468364 1.787368 0.004707 -0.016635 -127475.000000 0 0 1
-2.899509 32.704357 -5.713910 33.326129 -1.482369 1.743102 0.007223 -0.010507 -620070.000000 0 0 1
-1.975809 33.761553 -5.814210 34.315467 -1.512341 1.741052 0.002059 -0.004780 -282913.000000 0 0 1
-1.656609 -34.239101 -4.589710 34.585052 1.522450 1.703897 0.005395 -0.009545 148177.000000 0 0 1
-0.678609 33.658464 -3.671510 33.864919 -1.550637 1.679426 0.018635 -0.007937 -1975.870000 0 0 1
0.631291 33.581309 -4.221110 33.851449 1.552000 1.695817 0.025404 -0.018531 -45792.000000 0 0 1
1.472291 32.946745 -3.270210 33.141362 1.526139 1.669632 0.030815 -0.011705 -278623.000000 0 0 1
2.922091 32.820551 -3.747010 33.162739 1.481998 1.684027 0.050117 -0.011983 -110414.000000 0 0 1
3.533691 34.145489 -3.753910 34.532495 1.467674 1.679718 0.046070 -0.010453 492328.000000 0 0 1
4.942591 33.989903 -3.992410 34.578635 1.426395 1.686513 0.057775 -0.003587 821152.000000 0 0 1
5.649691 -33.390974 -3.627810 34.059318 -1.403186 1.677513 0.059228 -0.004167 -78939.800000 0 0 1
5.401991 -32.316874 -4.507610 33.073863 -1.405171 1.707511 0.061104 -0.014921 -316741.000000 0 0 1
5.785191 -31.080724 -3.966810 31.862445 -1.386768 1.695618 0.062907 -0.019395 19191.900000 0 0 1
5.670491 -29.856234 -4.913310 30.784571 -1.383105 1.731085 0.050594 -0.024112 -209880.000000 0 0 1
6.675291 -29.801894 -5.914510 31.107777 -1.350445 1.762091 0.067796 -0.023028 -182325.000000 0 0 1
6.617591 -28.752324 -6.846210 30.287939 -1.344577 1.798804 0.055183 -0.012541 161728.000000 0 0 1
7.172191 -27.443834 -6.249610 29.045860 -1.315173 1.787656 0.054692 -0.013088 376768.000000 0 0 1
6.274691 -26.887864 -5.279810 28.110592 -1.341534 1.759741 0.052688 -0.020174 129169.000000 0 0 1
6.853991 -25.741094 -4.653610 27.041398 -1.310568 1.743749 0.042862 -0.015252 405296.000000 0 0 1
6.077791 -25.254534 -3.377310 26.194222 -1.334626 1.700090 0.041328 -0.023118 320163.000000 0 0 1
4.821191 -24.692954 -3.677310 25.426531 -1.377976 1.715930 0.033034 -0.019294 -519755.000000 0 0 1
4.124691 -24.340354 -2.518210 24.815465 -1.402932 1.672449 0.032385 -0.011211 -988827.000000 0 1 0
2.926091 -23.503754 -2.843110 23.855224 -1.446939 1.690262 0.025510 -0.013037 -457889.000000 0 1 0
1.960091 -24.348054 -3.467310 24.671683 -1.490467 1.711801 0.023014 -0.009168 -365895.000000 0 1 0
0.776891 -23.660654 -3.804710 23.977196 -1.537973 1.730150 0.023635 -0.009091 291595.000000 0 1 0
-14.862109 22.690546 18.134323 32.628161 -0.990920 0.981486 0.016888 -0.007182 -126494.000000 0 0 1
-15.272209 22.348046 19.390323 33.296549 -0.971312 0.949177 0.025942 -0.013827 106560.000000 0 0 1
-15.214709 23.437346 20.296123 34.535912 -0.995008 0.942606 0.028681 -0.008713 -827177.000000 0 0 1
-15.294709 23.014946 21.859623 35.234344 -0.984257 0.901535 0.031113 -0.015181 -865330.000000 0 0 1
-14.369309 22.062046 22.261823 34.478975 -0.993498 0.868904 0.020334 -0.015245 70345.600000 0 0 1
-13.003409 22.471646 22.264323 34.201807 -1.046217 0.861936 0.014168 -0.018379 126078.000000 0 0 1
-12.539009 23.612346 23.258323 35.436129 -1.082629 0.854832 0.021789 -0.007822 -861814.000000 0 0 1
-12.178809 23.047046 24.475773 35.756862 -1.084662 0.816871 0.024176 -0.005112 -13258.400000 0 0 1
-12.132609 24.047846 25.456513 37.061209 -1.103540 0.813612 0.042457 -0.005879 -263617.000000 0 0 1
-11.539909 23.637046 26.801893 37.552909 -1.116623 0.776015 0.034687 -0.007577 418933.000000 0 0 1
-10.128309 23.464946 26.705923 36.964749 -1.163319 0.763428 0.011549 -0.007745 148400.000000 0 0 1
-9.751609 22.652046 27.814843 37.173574 -1.164280 0.725388 0.003895 -0.002633 73100.500000 0 0 1
-8.233109 22.341946 27.999723 36.755015 -1.217732 0.704720 0.001048 -0.011942 905331.000000 0 0 1
-7.329409 23.378646 28.370773 37.485759 -1.266993 0.712329 0.006733 -0.008989 298544.000000 0 0 1
-7.089009 24.369046 27.402533 37.349743 -1.287707 0.747083 0.009152 -0.005375 -531083.000000 0 0 1
-5.980309 25.356246 27.885903 38.161852 -1.339178 0.751410 0.021660 -0.012226 -334395.000000 0 0 1
-4.718509 24.774246 27.866613 37.584249 -1.382590 0.735577 0.024089 -0.012213 -1137140.000000 0 0 1
-3.772909 25.727346 28.277223 38.415265 -1.425184 0.743516 0.032987 -0.012956 -1161550.000000 0 0 1
-2.359309 25.247946 28.336003 38.025705 -1.477621 0.729991 0.030784 -0.013296 -1045010.000000 0 0 1
-1.808209 25.011546 27.037853 36.876721 -1.498627 0.747787 0.034817 -0.012170 -665121.000000 0 0 1
-0.434009 24.790746 27.123553 36.748559 -1.553291 0.740569 0.044913 -0.005008 -258153.000000 0 0 1
0.221491 24.513846 25.734193 35.541897 1.561761 0.761137 0.036028 -0.010077 15686.200000 0 0 1
-0.223709 23.281646 25.108223 34.241904 -1.561188 0.747692 0.037069 -0.006092 33000.300000 0 0 1
0.292391 23.170246 23.799313 33.216760 1.558178 0.772046 0.032414 -0.001848 123996.000000 0 0 1
-0.130809 21.865046 23.036723 31.761423 -1.564814 0.759319 0.015271 -0.000602 86549.600000 0 0 1
0.505891 20.704946 23.515323 31.335621 1.546368 0.722077 0.031939 0.003639 -182935.000000 0 0 1
0.044691 19.522346 22.911523 30.100862 1.568507 0.705699 0.023783 0.008697 -436176.000000 0 0 1
1.054691 18.418146 23.070423 29.539548 1.513595 0.674529 0.028254 0.009329 356077.000000 0 0 1
2.216491 18.514246 22.205123 28.995821 1.451645 0.698505 0.023742 0.008800 517465.000000 0 0 1
2.979191 17.333146 22.289223 28.392306 1.400581 0.668028 0.012033 0.006229 25364.400000 0 0 1
4.393791 17.430146 21.660023 28.147327 1.323861 0.692702 0.018559 0.005041 302690.000000 0 0 1
5.231091 18.272846 22.439123 29.407065 1.291977 0.702774 0.016779 0.005393 -565220.000000 0 0 1
6.357291 18.743246 21.747723 29.405576 1.243795 0.738353 0.042111 -0.010310 343111.000000 0 0 1
7.410891 19.502646 22.648523 30.793345 1.207654 0.744391 0.041512 -0.011577 231429.000000 0 0 1
6.885491 20.615046 23.379623 31.921731 1.248443 0.748949 0.019639 -0.002868 89736.800000 0 0 1
6.740391 21.868746 22.679423 32.218491 1.271815 0.789887 0.033658 -0.011852 -85134.600000 0 0 1
5.738991 22.821546 23.351423 33.151892 1.324432 0.789252 0.013748 -0.002380 -171513.000000 0 0 1
5.552091 24.016546 22.595123 33.438897 1.343610 0.828864 0.011566 -0.015445 75128.400000 0 0 1
4.456591 24.843646 22.911623 34.088274 1.393299 0.833720 0.003004 -0.000182 -334985.000000 0 0 1
4.309191 26.143546 22.105023 34.506321 1.407437 0.875507 0.017373 -0.007722 -279298.000000 0 0 1
4.056691 25.992246 20.694923 33.471383 1.415972 0.904235 0.029144 -0.009372 186294.000000 0 0 1
2.805991 25.405846 20.352523 32.673473 1.460796 0.898344 0.037866 -0.011143 15553.600000 0 0 1
2.233891 25.900646 18.995623 32.197321 1.484761 0.939768 0.036192 -0.018921 -363099.000000 0 0 1
1.614191 27.160546 19.048123 33.213429 1.511435 0.960016 0.038454 -0.023788 3871.350000 0 0 1
1.086091 27.497346 17.789523 32.768137 1.531319 0.996921 0.041794 -0.013445 -78599.300000 0 0 1
-0.016709 28.564646 17.963523 33.743554 -1.570211 1.009417 0.026953 -0.002995 -199018.000000 0 0 1
0.432491 29.879246 18.299123 35.040181 1.556323 1.021330 0.034259 -0.003500 553059.000000 0 0 1
-0.644809 30.802246 18.555823 35.965438 -1.549866 1.028698 0.022463 -0.001451 250937.000000 0 0 1
-0.156209 32.120946 19.113723 37.377988 -1.565933 1.034026 0.016940 0.006314 16411.000000 0 0 1
0.405591 31.969746 20.433623 37.944198 1.558110 1.002119 0.023765 -0.004289 17034.000000 0 0 1
0.902091 33.169746 20.965823 39.250625 1.543607 1.007291 0.019217 -0.005993 151964.000000 0 0 1
1.520591 33.008946 22.401323 39.921448 1.524763 0.975040 0.026235 -0.020600 655498.000000 0 0 1
0.464491 32.715446 23.325523 40.182038 1.556599 0.951458 0.039235 -0.013841 898829.000000 0 0 1
0.981391 32.620946 24.698973 40.928334 1.540721 0.922952 0.045278 -0.018732 -123552.000000 0 0 1
-0.032509 32.016046 25.673083 41.038220 -1.569781 0.894909 0.056489 -0.020259 -380224.000000 0 0 1
-1.120209 32.904246 25.870173 41.871352 -1.536765 0.904792 0.060607 -0.020537 58406.500000 0 0 1
-1.807409 32.634746 27.106523 42.462419 -1.515470 0.878424 0.078873 -0.024283 -182110.000000 0 0 1
-1.189709 33.120946 28.412253 43.653965 -1.534892 0.862091 0.096069 -0.029205 -123590.000000 0 0 1
-0.032009 32.373646 28.807793 43.335239 -1.569808 0.843616 0.086036 -0.021495 476120.000000 0 0 1
0.358591 32.764546 30.138183 44.519144 1.559852 0.827157 0.081074 -0.026204 -178170.000000 0 0 1
1.611091 31.968346 30.685673 44.341643 1.520442 0.806501 0.061002 -0.019217 826040.000000 0 0 1
2.881591 32.222446 30.112363 44.196652 1.481606 0.821223 0.039657 -0.013304 251695.000000 0 0 1
2.989291 31.757746 28.790393 42.969490 1.476945 0.836561 0.028957 -0.011651 -585800.000000 0 0 1
4.435491 31.493346 28.248213 42.537818 1.430878 0.844543 0.001946 -0.003153 593893.000000 0 0 1
5.051291 30.515846 29.081313 42.455332 1.406754 0.816212 0.005197 -0.006332 -181270.000000 0 0 1
6.435591 30.398546 28.885803 42.424970 1.362170 0.821849 -0.001930 -0.009444 -154422.000000 0 0 1
7.158091 29.318446 29.687883 42.334147 1.331331 0.793612 -0.011224 0.001868 -96279.800000 0 0 1
7.101491 29.484546 31.080513 43.425430 1.334443 0.773140 0.002334 -0.004711 127809.000000 0 0 1
7.507191 28.307646 31.772823 43.211029 1.311564 0.744696 -0.007914 0.000548 -317848.000000 0 0 1
7.660191 28.547146 33.268305 44.501665 1.308637 0.726394 0.016578 -0.026527 -1132080.000000 0 0 1
6.469291 28.797446 33.957343 44.991619 1.349817 0.715526 0.031280 -0.026683 -457199.000000 0 0 1
6.429591 28.492446 -33.215150 44.231271 1.348854 2.420285 0.044758 -0.032274 -93102.900000 0 0 1
6.385491 26.979246 -32.902890 43.026206 1.338391 2.441399 0.048145 -0.029645 -412638.000000 0 0 1
7.567591 26.290246 -33.211160 43.028207 1.290525 2.452536 0.032079 -0.027863 -208134.000000 0 0 1
7.477791 24.946746 -32.974920 42.019077 1.279569 2.473106 0.046868 -0.029612 452427.000000 0 0 1
8.843991 24.249546 -33.292080 42.126230 1.221080 2.482084 0.035292 -0.022181 22399.700000 0 0 1
9.192991 24.288446 33.900935 42.704954 1.208967 0.653697 0.010165 -0.005531 527782.000000 0 0 1
10.346591 23.563046 33.462878 42.214136 1.157042 0.655581 0.015521 -0.020842 187421.000000 0 0 1
10.556491 22.099046 33.935643 41.850152 1.125156 0.625134 0.026503 -0.027453 -772663.000000 0 0 1
9.850791 21.242146 33.054984 40.508010 1.136577 0.616320 0.014759 -0.024681 156200.000000 0 0 1
9.583091 19.912446 33.545826 40.170432 1.122252 0.582504 0.020657 -0.016944 1153540.000000 0 0 1
8.324991 19.757946 -34.040350 40.229682 1.172022 2.579516 0.045345 -0.028359 923686.000000 0 0 1
8.543891 20.390646 -32.758370 39.520720 1.174010 2.547919 0.055300 -0.027356 -118772.000000 0 0 1
7.323291 20.838746 -32.242730 39.082957 1.232851 2.540966 0.063673 -0.030447 -299163.000000 0 0 1
7.523091 21.452846 -30.801930 38.282899 1.233516 2.505776 0.073639 -0.038877 -55124.800000 0 0 1
8.225291 22.696946 -30.768710 39.109082 1.223121 2.476307 0.076891 -0.033306 180850.000000 0 0 1
8.381091 23.212346 -29.484390 38.449772 1.224301 2.444682 0.056052 -0.026037 -763973.000000 0 0 1
9.808591 23.117846 -29.006110 38.366622 1.169530 2.428014 0.056791 -0.030370 -826960.000000 0 0 1
10.272991 21.843446 -28.675290 37.482566 1.131189 2.441884 0.052899 -0.023630 -898636.000000 0 0 1
11.662991 21.859446 -28.598110 37.837979 1.080674 2.427678 0.048875 -0.024647 -528662.000000 0 0 1
12.237991 20.440346 -28.547120 37.182176 1.031320 2.446140 0.057101 -0.030200 -128439.000000 0 0 1
12.346891 19.802346 -29.774260 37.829687 1.013272 2.476826 0.050061 -0.035137 -22904.400000 0 0 1
11.110791 19.414946 -30.341110 37.695792 1.051008 2.506293 0.071152 -0.030827 -132399.000000 0 0 1
11.274691 18.506046 -31.571740 38.293174 1.023608 2.540069 0.067307 -0.034211 -388805.000000 0 0 1
11.542591 17.090746 -31.400570 37.567550 0.976792 2.560463 0.063893 -0.027543 178539.000000 0 0 1
11.550691 16.348546 -32.648280 38.296261 0.955703 2.591582 0.061757 -0.017648 530546.000000 0 0 1
12.715491 16.590746 -33.701980 39.658039 0.916869 2.586430 0.052976 -0.004064 420208.000000 0 0 1
12.744291 17.936546 -34.157565 40.630972 0.953044 2.569330 0.061157 -0.011710 279666.000000 0 0 1
13.428191 18.199046 33.150269 40.130561 0.935116 0.598715 0.066459 -0.016585 89500.800000 0 0 1
12.679891 17.670846 31.893303 38.603384 0.948382 0.598505 0.072413 -0.029286 -1035620.000000 0 0 1
13.084591 18.124046 30.651123 37.936512 0.945493 0.630117 0.051324 -0.016053 195455.000000 0 0 1
12.218691 17.705346 29.565023 36.563182 0.966737 0.629026 0.044676 -0.018728 711318.000000 0 0 1
10.701491 17.996846 29.622763 36.275563 1.034334 0.615294 0.032946 -0.020766 -159104.000000 0 0 1
9.960191 17.210946 30.555903 36.456622 1.046176 0.576925 0.042190 -0.020404 387946.000000 0 0 1
8.622191 17.709746 30.640123 36.425190 1.117715 0.571336 0.033818 -0.020960 737450.000000 0 0 1
7.662691 16.878346 31.542743 36.586064 1.144625 0.531295 0.038742 -0.011491 142694.000000 0 0 1
7.959691 16.931546 32.916887 37.862322 1.131345 0.516842 0.048255 -0.007789 75556.500000 0 0 1
7.378291 15.846746 33.633518 37.904777 1.135043 0.479304 0.069049 -0.010835 -38440.800000 0 0 1
7.475791 16.092346 -33.430760 37.847943 1.135904 2.653633 0.075002 -0.019209 169684.000000 0 0 1
6.513991 17.042746 -32.980930 37.691233 1.205715 2.636293 0.080103 -0.027484 266712.000000 0 0 1
6.596391 17.019846 -31.563490 36.461506 1.201051 2.617276 0.080629 -0.036533 294663.000000 0 0 1
5.678691 18.085546 -30.854460 36.212321 1.266554 2.590672 0.078220 -0.040005 -178905.000000 0 0 1
5.707591 18.035946 -29.430350 34.985961 1.264311 2.570303 0.069806 -0.040512 12385.300000 0 0 1
4.849591 18.906946 -28.716420 34.722096 1.319711 2.544611 0.072899 -0.036606 435175.000000 0 0 1
3.315991 18.709346 -28.786060 34.491632 1.395381 2.558168 0.081103 -0.042851 -990868.000000 0 0 1
2.856391 17.755546 -27.820850 33.127301 1.411290 2.567741 0.087778 -0.041671 1113750.000000 0 0 1
1.501591 17.265846 -28.070450 32.989610 1.484046 2.588469 0.081145 -0.043127 1970300.000000 0 0 1
0.420991 18.389346 -27.755120 33.297026 1.547907 2.556320 0.082604 -0.047354 -662839.000000 0 0 1
0.304391 18.659246 -26.387060 32.319298 1.554485 2.526031 0.089964 -0.047198 -12462.700000 0 0 1
-0.128709 20.018046 -26.196100 32.969295 -1.564367 2.489080 0.104930 -0.036941 -130681.000000 0 0 1
-0.646409 20.459946 -24.816310 32.169496 -1.539213 2.451872 0.086397 -0.040123 439822.000000 0 0 1
-2.036409 20.154246 -24.702410 31.946043 -1.470097 2.454753 0.081318 -0.037002 237423.000000 0 0 1
-2.403509 20.488246 -23.359410 31.164196 -1.454018 2.418192 0.086482 -0.027937 10349.000000 0 0 1
-3.308709 19.439846 -22.699010 30.068259 -1.402209 2.426322 0.078006 -0.032277 627047.000000 0 0 1
-4.710009 19.601946 -22.899010 30.508771 -1.334984 2.419723 0.058332 -0.023483 374792.000000 0 0 1
-5.529409 18.713446 -22.145510 29.515946 -1.283493 2.419297 0.038046 -0.021468 1016240.000000 0 0 1
-7.085809 18.923946 -22.188610 30.010979 -1.212520 2.402900 0.046000 -0.013905 1198610.000000 0 0 1
-7.659709 20.010346 -21.389510 30.275340 -1.205216 2.355336 0.025314 -0.014639 410664.000000 0 0 1
-7.282109 21.323946 -21.848510 31.386258 -1.241715 2.340771 0.021753 -0.015172 -135403.000000 0 0 1
-7.649209 22.460646 -20.851210 31.587402 -1.242555 2.291764 0.033570 -0.026896 -42552.600000 0 0 1
-6.917609 22.414846 -19.656510 30.604853 -1.271453 2.268250 0.041912 -0.025331 138933.000000 0 0 1
-7.379509 23.379646 -18.707610 30.838931 -1.265055 2.222602 0.052279 -0.025005 -92138.800000 0 0 1
-6.490609 23.387746 -17.422810 29.877567 -1.300087 2.193385 0.044748 -0.023193 569733.000000 0 0 1
-5.239609 24.016346 -17.664610 30.270065 -1.355994 2.193911 0.048342 -0.019861 -482039.000000 0 0 1
-4.407009 23.943146 -16.559010 29.443111 -1.388772 2.168090 0.057390 -0.016414 1674860.000000 0 0 1
-2.878309 24.389446 -16.750610 29.727305 -1.453325 2.169383 0.055586 -0.013353 1731670.000000 0 0 1
-2.737209 25.758046 -17.087810 31.031637 -1.464927 2.153948 0.034412 -0.007907 552292.000000 0 0 1
-1.382709 26.128746 -17.401510 31.423491 -1.517927 2.157686 0.038766 -0.012421 1035430.000000 0 0 1
-1.128009 27.636546 -17.014410 32.473701 -1.530003 2.122272 0.020990 -0.025188 -133937.000000 0 0 1
-2.065109 28.424746 -17.707310 33.552641 -1.498272 2.126742 0.030160 -0.025494 -311334.000000 0 0 1
-1.587509 29.015646 -18.856910 34.641174 -1.516139 2.146410 0.038359 -0.034961 -973406.000000 0 0 1
-2.701409 29.592946 -19.724710 35.666571 -1.479763 2.156794 0.066938 -0.035593 -199826.000000 0 0 1
-3.462309 30.570146 -19.084810 36.204301 -1.458019 2.126030 0.048252 -0.025817 -638063.000000 0 0 1
-4.623309 30.057046 -18.478510 35.584496 -1.418175 2.116811 0.033052 -0.027358 -769920.000000 0 0 1
-5.320809 31.132846 -17.651210 36.181906 -1.401525 2.080417 0.061873 -0.020284 -246294.000000 0 0 1
-5.842609 32.136446 -18.447510 37.512636 -1.390954 2.084915 0.090716 -0.028023 -140965.000000 0 0 1
-5.902709 33.345246 -17.704710 38.212618 -1.395593 2.052535 0.083284 -0.047713 -129287.000000 0 0 1
-6.574809 -34.169913 -18.488710 39.403597 1.380704 2.059197 0.081969 -0.032032 -84634.300000 0 0 1
-7.950209 34.304446 -18.609210 39.828426 -1.343062 2.056956 0.099457 -0.043130 -604659.000000 0 0 1
-8.714609 -33.246213 -18.819810 39.184696 1.314440 2.071776 0.140830 -0.044024 -192649.000000 0 0 1
29.332591 -20.401654 -26.388850 44.418462 -0.607719 2.206938 0.041641 -0.003245 67445.800000 0 0 1
28.887191 -21.662254 -25.979720 44.482231 -0.643432 2.194502 0.050901 -0.013403 1084150.000000 0 0 1
27.532191 -21.882054 -26.478470 44.022212 -0.671550 2.216148 0.039837 -0.013742 1279200.000000 0 0 1
27.006591 -23.274454 -26.041440 44.149890 -0.711309 2.201659 0.031359 -0.006897 175131.000000 0 0 1
27.581591 -24.437654 -26.637370 45.469688 -0.725034 2.196696 0.019791 0.005126 78105.100000 0 0 1
28.954491 -24.740254 -26.444790 46.365608 -0.707074 2.177733 0.021983 0.003759 171281.000000 0 0 1
29.347291 -26.111484 -27.086740 47.715454 -0.727118 2.174472 0.023655 0.001414 -62586.400000 0 0 1
29.216691 -27.169134 -26.173280 47.716008 -0.749101 2.151392 0.027118 -0.005854 -180302.000000 0 0 1
29.300191 -28.495014 -26.752260 48.848239 -0.771468 2.150362 0.023341 -0.002638 1925100.000000 0 0 1
28.006691 -29.055124 -27.618520 48.901509 -0.803770 2.170961 0.023062 -0.006753 1547560.000000 0 0 1
27.699891 -28.405894 -28.827290 49.042751 -0.797981 2.199132 0.016702 -0.008135 163581.000000 0 0 1
28.658691 -28.459754 -29.890330 50.246492 -0.781915 2.207905 0.011163 -0.004168 -53180.300000 0 0 1
28.792291 -29.863994 -30.538560 51.511725 -0.803667 2.205386 0.021243 -0.003324 -791796.000000 0 0 1
29.272991 -30.976354 -29.791990 52.000050 -0.813663 2.180863 0.025169 -0.005236 756836.000000 0 0 1
30.653091 -30.945434 -29.406810 52.554660 -0.790144 2.164636 0.024358 -0.006347 646288.000000 0 0 1
31.766291 -30.809404 -30.461980 53.723820 -0.770108 2.173669 0.020374 -0.009396 -766268.000000 0 0 1
31.893791 -29.449094 -30.968100 53.324349 -0.745566 2.190446 0.020483 -0.017056 226564.000000 0 0 1
33.270091 -29.185124 -31.198770 54.148256 -0.720085 2.184835 0.021598 -0.018248 289877.000000 0 0 1
33.269291 -27.790604 -31.909240 53.827158 -0.695911 2.205339 0.003210 -0.006432 -237277.000000 0 0 1
33.086691 -26.623514 -31.101020 52.638522 -0.677576 2.202898 -0.018072 0.006934 296994.000000 0 0 1
31.734391 -26.262924 -30.796710 51.431995 -0.691337 2.212780 0.006949 0.002492 391626.000000 0 0 1
31.710691 -24.935554 -30.075200 50.317665 -0.666359 2.211434 -0.009548 0.005101 -302220.000000 0 0 1
32.472491 -24.822754 -28.891520 50.053488 -0.652669 2.186108 -0.003051 0.008178 329781.000000 0 0 1
32.144991 -23.532054 -28.316500 48.876192 -0.631920 2.188729 -0.004877 0.010317 615757.000000 0 0 1
33.050391 -23.151454 -27.049740 48.579899 -0.611054 2.161336 -0.008074 0.005396 506900.000000 0 0 1
32.708091 -23.972554 -25.903390 48.119520 -0.632483 2.139231 -0.004840 -0.002353 -6615.990000 0 0 1
31.931991 -23.225454 -24.965310 46.715527 -0.628841 2.134608 0.021364 -0.000377 -458708.000000 0 0 1
32.598891 -22.183354 -24.107910 46.216666 -0.597514 2.119554 0.029200 0.002001 -415760.000000 0 0 1
32.884991 -21.030454 -24.849610 46.273164 -0.568969 2.137697 0.028101 -0.004727 43070.100000 0 0 1
33.019191 -19.866954 -24.025710 45.411425 -0.541653 2.128298 0.016893 -0.012102 14788.500000 0 0 1
33.133191 -18.544454 -24.828510 45.366949 -0.510255 2.149909 0.008910 -0.018831 447490.000000 0 0 1
31.837691 -18.170154 -25.300020 44.540813 -0.518606 2.174893 0.023725 -0.009790 696951.000000 0 0 1
31.835491 -16.970554 -26.066770 44.508142 -0.489753 2.196494 0.019844 -0.000673 913848.000000 0 0 1
30.763491 -17.104254 -27.258820 44.519559 -0.507432 2.229748 0.004836 0.007509 777715.000000 0 0 1
29.400591 -16.985454 -26.955290 43.353063 -0.523880 2.241787 0.024384 0.002075 494817.000000 0 0 1
28.545491 -17.101854 -28.138060 43.578307 -0.539764 2.272722 0.015962 -0.007128 13038.200000 0 0 1
27.091391 -16.740954 -27.845780 42.303551 -0.553509 2.289271 0.014228 -0.003105 -384557.000000 0 0 1
26.431591 -17.746954 -27.103060 41.810994 -0.591293 2.276051 0.033476 -0.001435 80987.800000 0 0 1
26.269191 -17.288654 -25.777040 40.662313 -0.582072 2.257420 0.040453 -0.000264 -144256.000000 0 0 1
25.677191 -18.337254 -24.779810 40.119970 -0.620157 2.236538 0.034083 0.001843 16597.200000 0 0 1
25.634091 -17.871254 -23.428010 39.055857 -0.608822 2.214121 0.033466 0.010981 135486.000000 0 0 1
24.851691 -18.761454 -22.654110 38.507238 -0.646653 2.199761 0.042702 0.008296 59036.600000 0 0 1
24.774391 -18.375554 -21.150810 37.400377 -0.638178 2.171865 0.033495 0.007300 -2531.020000 0 0 1
24.046491 -17.196754 -20.808210 36.151676 -0.620819 2.184111 0.025852 -0.001533 331954.000000 0 0 1
24.605491 -15.943954 -21.268310 36.221276 -0.574956 2.198364 0.031207 -0.000140 560612.000000 0 0 1
25.956591 -15.371154 -20.741210 36.608944 -0.534655 2.173123 0.041036 -0.003106 391056.000000 0 0 1
25.800291 -14.723054 -19.492510 35.530005 -0.518562 2.151510 0.042485 -0.014987 1303410.000000 0 0 1
26.875491 -13.727154 -19.383710 35.867185 -0.472225 2.141745 0.042480 -0.012255 892647.000000 0 0 1
26.780591 -12.809954 -18.127010 34.783379 -0.446162 2.118982 0.049990 -0.021320 -186470.000000 0 0 1
27.279991 -13.347954 -16.927510 34.769331 -0.455047 2.079278 0.036767 -0.010789 228715.000000 0 0 1
26.985891 -12.463154 -15.911610 33.715691 -0.432656 2.062280 0.029168 -0.015637 165379.000000 0 0 1
27.628891 -12.812854 -14.510510 33.735437 -0.434228 2.015429 0.041883 -0.019067 41542.600000 0 0 1
27.052891 -13.977954 -13.887210 33.467846 -0.476910 1.998675 0.059494 -0.029266 255025.000000 0 0 1
27.585391 -14.185154 -12.586010 33.475066 -0.474964 1.956252 0.079392 -0.030768 -160624.000000 0 0 1
27.098291 -15.495854 -11.965210 33.430601 -0.519455 1.936827 0.072397 -0.038138 -834583.000000 0 0 1
25.720691 -15.418054 -11.816710 32.232049 -0.540009 1.946163 0.064605 -0.038794 -585575.000000 0 0 1
25.208391 -16.595754 -11.265610 32.214841 -0.582218 1.928050 0.047928 -0.036237 237470.000000 0 0 1
23.706991 -16.613154 -10.857510 30.917694 -0.611243 1.929622 0.069274 -0.038473 195137.000000 0 0 1
23.485191 -15.980054 -9.602910 29.985533 -0.597471 1.896791 0.069991 -0.033829 -136956.000000 0 0 1
22.118191 -15.963254 -9.310910 28.822437 -0.625158 1.899740 0.070239 -0.027217 -667268.000000 0 0 1
21.659491 -15.726554 -7.886410 27.904364 -0.628017 1.857324 0.057725 -0.020462 -395495.000000 0 0 1
22.002691 -14.399654 -7.582510 27.367186 -0.579497 1.851535 0.063356 -0.010495 388662.000000 0 0 1
21.640491 -13.922854 -6.262110 26.483405 -0.571701 1.809511 0.046879 -0.004501 -346403.000000 0 0 1
22.413691 -14.511354 -5.038410 27.172385 -0.574568 1.757300 0.052090 -0.014046 477166.000000 0 0 1
23.804591 -14.192454 -5.127010 28.184580 -0.537626 1.753723 0.083859 -0.014472 812096.000000 0 0 1
24.577291 -15.080554 -4.308810 29.155311 -0.550357 1.719128 0.076826 -0.022157 1673410.000000 0 0 1
26.150891 -14.828554 -4.474710 30.393719 -0.515830 1.718558 0.084874 -0.020396 1353050.000000 0 0 1
26.618091 -13.763654 -3.715010 30.195401 -0.477217 1.694141 0.089848 -0.021675 94353.300000 0 0 1
28.002591 -13.662954 -4.005010 31.414352 -0.453935 1.698634 0.094901 -0.037031 290690.000000 0 0 1
28.675691 -12.372854 -3.386010 31.414134 -0.407343 1.678792 0.102945 -0.034817 -1049100.000000 0 0 1
29.171991 -12.546254 -2.096410 31.824652 -0.406165 1.636718 0.103568 -0.034896 175760.000000 0 0 1
29.771691 -11.423054 -1.507210 31.923525 -0.366366 1.618027 0.101216 -0.031701 -454586.000000 0 0 1
31.168291 -11.095254 -2.018010 33.145729 -0.341991 1.631717 0.094901 -0.025551 -1471860.000000 0 0 1
31.178191 -10.690054 -3.337910 33.128515 -0.330309 1.671724 0.090440 -0.027128 -448080.000000 0 0 1
32.423791 -10.682354 -3.983410 34.369790 -0.318261 1.686956 0.093926 -0.033098 -510195.000000 0 0 1
32.336791 -10.264754 -5.444710 34.360997 -0.307372 1.729923 0.094170 -0.037032 -552041.000000 0 0 1
31.571691 -11.163854 -6.197410 34.056001 -0.339881 1.753793 0.072579 -0.040226 84577.700000 0 0 1
31.604991 -10.960654 -7.570110 34.297492 -0.333822 1.793348 0.066867 -0.033785 -78400.000000 0 0 1
30.456391 -11.729654 -8.246110 33.662663 -0.367622 1.818278 0.086293 -0.031069 32480.500000 0 0 1
30.550191 -13.130954 -7.997510 34.200823 -0.405943 1.806821 0.064790 -0.029473 86081.200000 0 0 1
29.284691 -13.736954 -8.129010 33.352329 -0.438610 1.817008 0.065899 -0.029133 33859.800000 0 0 1
29.338091 -15.300954 -8.128910 34.072305 -0.480730 1.811698 0.073537 -0.029360 -111087.000000 0 0 1
29.794091 -15.858454 -9.346310 35.021878 -0.489128 1.840941 0.083018 -0.035983 278433.000000 0 0 1
29.636491 -17.249654 -9.312010 35.532882 -0.527110 1.835960 0.074968 -0.033435 -95104.600000 0 0 1
29.797791 -17.876854 -10.655910 36.346096 -0.540375 1.868347 0.066046 -0.036534 -178772.000000 0 0 1
31.064691 -17.816754 -11.283910 37.547015 -0.520734 1.876042 0.065691 -0.028962 226134.000000 0 0 1
31.111191 -18.175954 -12.666910 38.193221 -0.528740 1.908852 0.052490 -0.014297 18123.100000 0 0 1
30.279691 -17.365354 -13.697310 37.497087 -0.520705 1.944741 0.049628 -0.023797 364600.000000 0 0 1
31.040691 -16.258354 -14.234410 37.821647 -0.482487 1.956656 0.050475 -0.024265 1103850.000000 0 0 1
30.303291 -15.558654 -15.280310 37.334287 -0.474335 1.992465 0.054968 -0.024850 151910.000000 0 0 1
31.147891 -14.384154 -15.864710 37.799259 -0.432625 2.003922 0.040371 -0.016101 916551.000000 0 0 1
32.365491 -14.549154 -16.569710 39.163225 -0.422460 2.007653 0.023668 -0.014683 1521340.000000 0 0 1
33.529791 -15.104654 -15.911110 40.069451 -0.423257 1.979138 0.029584 -0.021229 1574310.000000 0 0 1
34.764591 -15.210854 -16.913210 41.545199 -0.412443 1.990077 0.033697 -0.014233 482603.000000 0 0 1
-35.937574 -15.503154 -16.401610 42.436657 0.407272 1.967626 0.030194 -0.018226 49755.400000 0 0 1
-34.984874 -15.936454 -17.362210 42.182441 0.427438 1.995003 0.029748 -0.016576 787649.000000 0 0 1
-33.476774 -15.927154 -16.955210 40.765767 0.444074 1.999748 0.029947 -0.015094 421829.000000 0 0 1
-32.978974 -16.813354 -15.950710 40.307899 0.471473 1.977650 0.041137 -0.016526 131828.000000 0 0 1
-33.336474 -16.427554 -14.653510 39.948847 0.457855 1.946371 0.039597 -0.016649 -659646.000000 0 0 1
-32.898274 -17.305154 -13.498210 39.547016 0.484246 1.919118 0.039418 -0.014071 128910.000000 0 0 1
-31.513074 -17.069954 -13.272010 38.217842 0.496432 1.925457 0.014473 -0.011097 397100.000000 0 0 1
-30.981174 -17.522654 -12.040110 37.574470 0.514734 1.896983 0.012079 -0.005428 754871.000000 0 0 1
-29.423774 -17.423754 -11.894110 36.205187 0.534639 1.905532 0.041538 -0.007834 724624.000000 0 0 1
-29.067574 -16.089654 -11.493910 35.155523 0.505546 1.903865 0.048944 -0.022415 -730976.000000 0 0 1
-27.822474 -16.012754 -10.905410 33.903191 0.522235 1.898282 0.030581 -0.019058 -928157.000000 0 0 1
-27.899774 -15.866154 -9.341210 33.427391 0.517075 1.854015 0.047115 -0.016541 -21702.400000 0 0 1
-28.385674 -17.061654 -8.794310 34.266404 0.541203 1.830346 0.046106 -0.013800 -48611.300000 0 0 1
-28.913074 -16.842954 -7.511810 34.293997 0.527481 1.791628 0.052702 -0.019297 -199784.000000 0 0 1
-29.410474 -18.179354 -6.941310 35.265375 0.553640 1.768921 0.038829 -0.018565 1132130.000000 0 0 1
-30.637574 -18.771954 -7.461910 36.697783 0.549713 1.775558 0.033683 -0.015906 1243720.000000 0 0 1
-30.356574 -19.531554 -8.631310 37.114724 0.571725 1.805503 0.027403 -0.010707 -154624.000000 0 0 1
-31.626374 -20.252254 -9.054610 38.631170 0.569568 1.807383 0.032649 -0.009155 473486.000000 0 0 1
-32.734574 -19.479554 -9.536810 39.267749 0.536791 1.816116 0.041015 -0.005987 772146.000000 0 0 1
-33.845974 -20.253154 -9.943410 40.676918 0.539236 1.817747 0.037833 -0.010260 186427.000000 0 0 1
-35.076174 -19.447454 -10.381810 41.428534 0.506242 1.824092 0.031186 -0.021234 -245804.000000 0 0 1
-35.106474 -19.081954 -11.808610 41.665679 0.497874 1.858148 0.027507 -0.018318 509463.000000 0 0 1
35.553191 -18.648254 -12.219710 41.965558 -0.483068 1.866261 0.040878 -0.020328 500253.000000 0 0 1
35.328491 -18.611354 -13.786910 42.244096 -0.484864 1.903250 0.040473 -0.019937 -138009.000000 0 0 1
35.206691 -19.920754 -14.276710 42.897226 -0.514910 1.910080 0.029446 -0.017061 98073.000000 0 0 1
34.806891 -19.902754 -15.647710 43.040563 -0.519430 1.942880 0.032029 -0.013283 -105052.000000 0 0 1
33.559191 -20.781554 -15.884210 42.548800 -0.554454 1.953379 0.030714 -0.012437 -269236.000000 0 0 1
32.463491 -20.297654 -15.133310 41.169043 -0.558776 1.947212 0.036307 -0.014156 400628.000000 0 0 1
31.344591 -21.199054 -15.081510 40.734938 -0.594658 1.950059 0.032981 -0.010983 788773.000000 0 0 1
30.269391 -20.942954 -16.160610 40.199610 -0.605259 1.984506 0.031561 -0.012222 -405043.000000 0 0 1
29.506191 -19.775254 -15.965710 38.943290 -0.590450 1.993221 0.022389 -0.004799 558756.000000 0 0 1
28.634291 -19.449654 -17.061310 38.591449 -0.596659 2.028736 0.020646 -0.006914 428691.000000 0 0 1
27.922991 -18.066554 -16.997610 37.349867 -0.574273 2.043271 0.026262 -0.009948 -675009.000000 0 0 1
26.951791 -17.998354 -16.040610 36.161318 -0.588785 2.030391 0.036261 -0.016623 -527776.000000 0 0 1
26.428791 -16.687454 -15.960410 35.095396 -0.563197 2.042913 0.027599 -0.014869 -972980.000000 0 0 1
25.026891 -16.551754 -15.334510 33.696484 -0.584319 2.043256 0.035573 -0.026689 289300.000000 0 0 1
23.880691 -17.076754 -15.977610 33.424347 -0.620779 2.069199 0.043958 -0.029433 488326.000000 0 0 1
23.585491 -16.365854 -17.117910 33.423635 -0.606617 2.108482 0.040042 -0.024310 -1494310.000000 0 0 1
22.621191 -17.063954 -18.058910 33.600908 -0.646270 2.138210 0.044032 -0.018709 73856.600000 0 0 1
21.269191 -16.968154 -17.599410 32.404258 -0.673386 2.144945 0.060562 -0.020749 -13554.000000 0 0 1
20.472991 -17.514154 -18.589310 32.733032 -0.707665 2.174757 0.062761 -0.020798 -136105.000000 0 0 1
19.005091 -17.872554 -18.261210 31.844834 -0.754697 2.181499 0.061077 -0.019273 388923.000000 0 0 1
18.152191 -16.753254 -18.102010 30.624440 -0.745342 2.203214 0.068110 -0.023337 295101.000000 0 0 1
16.797491 -17.153654 -18.059010 30.042160 -0.795888 2.215701 0.070015 -0.017216 1021590.000000 0 0 1
15.694691 -16.147354 -17.505310 28.521855 -0.799613 2.231599 0.067838 -0.009478 615392.000000 0 0 1
15.236991 -15.246754 -18.484410 28.395472 -0.785718 2.279649 0.063296 -0.005455 -432678.000000 0 0 1
13.979791 -14.777354 -18.118110 27.240974 -0.813125 2.298431 0.065738 -0.003231 -325217.000000 0 0 1
13.076691 -14.269754 -19.269110 27.311615 -0.828998 2.353964 0.060064 -0.001483 23132.500000 0 0 1
13.535891 -13.094554 -19.913310 27.408531 -0.768827 2.384065 0.055652 -0.005648 86585.400000 0 0 1
12.730891 -12.653954 -21.020710 27.641787 -0.782367 2.434831 0.056429 -0.003298 319280.000000 0 0 1
13.046791 -11.174154 -21.486010 27.508709 -0.708237 2.467161 0.048724 0.003192 784863.000000 0 0 1
14.333691 -11.001854 -22.126810 28.567310 -0.654640 2.456800 0.033288 0.005841 748954.000000 0 0 1
14.644391 -9.659854 -22.457710 28.497714 -0.583114 2.478436 0.036503 0.011488 -136696.000000 0 0 1
15.866591 -9.508854 -23.358410 29.795676 -0.539905 2.471804 0.021932 0.008962 -267473.000000 0 0 1
15.551791 -9.946754 -24.658810 30.803458 -0.569022 2.498960 0.036118 0.005401 407979.000000 0 0 1
16.645391 -9.807254 -25.557290 32.037889 -0.532431 2.494302 0.040181 -0.007796 -201680.000000 0 0 1
22.308091 5.001446 -7.088910 23.935706 0.220552 1.871471 0.072723 0.023274 -275485.000000 0 1 0
22.390491 6.437346 -7.116910 24.360294 0.279953 1.867273 0.054157 0.017380 556215.000000 0 1 0
21.744791 6.947146 -5.960310 23.592882 0.309236 1.826196 0.044591 0.013162 -246179.000000 0 1 0
21.620591 8.498546 -5.846310 23.955262 0.374524 1.817337 0.048729 0.005339 12663.900000 0 1 0
20.529191 8.864546 -6.705610 23.345086 0.407618 1.862139 0.058521 -0.001168 903080.000000 0 1 0
20.311091 10.267946 -6.768310 23.744076 0.468065 1.859858 0.068514 0.002940 78893.500000 0 1 0
19.673091 10.989546 -5.586310 23.216535 0.509428 1.813799 0.069916 0.003534 -745264.000000 0 1 0
20.630491 11.262246 -4.637710 23.957539 0.499692 1.765607 0.071069 0.006394 -274588.000000 0 1 0
20.097791 12.064146 -3.656010 23.724064 0.540620 1.725518 0.084609 -0.004515 -102034.000000 0 1 0
21.196091 12.535546 -2.691310 24.772108 0.534078 1.679654 0.076506 -0.007639 -1002130.000000 0 1 0
22.308591 13.109046 -3.314510 26.086516 0.531269 1.698199 0.074439 -0.015018 363414.000000 0 0 1
23.342491 13.478746 -2.407210 27.061839 0.523662 1.659866 0.080998 -0.013232 277722.000000 0 0 1
24.208691 12.339346 -1.803910 27.231861 0.471383 1.637087 0.062739 -0.009248 -1238110.000000 0 0 1
25.291691 11.986646 -2.620110 28.110750 0.442580 1.664139 0.048314 -0.008361 126536.000000 0 0 1
26.041791 10.984346 -1.928210 28.329291 0.399154 1.638913 0.068746 -0.013155 -395877.000000 0 0 1
27.503391 10.792246 -2.304410 29.634767 0.373935 1.648635 0.055159 -0.004744 -476672.000000 0 0 1
28.326891 11.892246 -2.045610 30.789979 0.397476 1.637283 0.051204 -0.008876 -643497.000000 0 0 1
29.648691 11.729446 -2.407110 31.975287 0.376720 1.646148 0.047375 -0.003689 -558225.000000 0 0 1
30.643691 12.869446 -2.058110 33.300064 0.397603 1.632641 0.026412 -0.000190 -374842.000000 0 0 1
30.869391 12.897446 -0.651810 33.461743 0.395762 1.590277 0.037846 -0.003085 745118.000000 0 0 1
31.754391 13.964246 -0.236710 34.690021 0.414304 1.577620 0.025737 -0.007915 881550.000000 0 0 1
33.284691 13.746046 -0.483110 36.014689 0.391649 1.584211 0.035501 -0.015314 144162.000000 0 0 1
34.071291 14.915746 -0.280210 37.194232 0.412646 1.578330 0.033764 -0.010986 192316.000000 0 0 1
34.625291 15.358446 -1.535110 37.909751 0.417487 1.611301 0.036910 -0.010417 -668361.000000 0 0 1
33.789291 16.381246 -2.297310 37.620992 0.451419 1.631899 0.018395 0.002500 -1105000.000000 0 0 1
32.687391 15.722546 -2.785910 36.378912 0.448330 1.647452 0.020960 0.002708 -1227510.000000 0 0 1
31.881991 16.651546 -3.456710 36.134252 0.481318 1.666606 0.012212 0.006454 -543357.000000 0 0 1
30.591691 16.061646 -4.014110 34.784208 0.483473 1.686454 0.020673 -0.005137 -1160400.000000 0 0 1
30.760991 15.159846 -5.145310 34.677568 0.457893 1.719722 0.016621 -0.003896 -810420.000000 0 0 1
29.672691 14.889246 -5.929210 33.724083 0.465073 1.747530 0.020468 -0.015748 -1165800.000000 0 0 1
28.541491 14.106946 -5.244810 32.266556 0.459046 1.734067 0.025154 -0.011073 -776469.000000 0 0 1
27.549791 13.743446 -6.182510 31.402177 0.462734 1.768973 0.033138 -0.012951 -804239.000000 0 0 1
26.446791 13.277546 -5.509210 30.101119 0.465284 1.754857 0.034968 -0.006735 -487762.000000 0 0 1
25.234691 13.037046 -6.467810 29.130513 0.476864 1.794691 0.032738 -0.009706 58603.800000 0 0 1
25.543991 12.060546 -7.476810 29.220796 0.441119 1.829547 0.029320 -0.000617 721570.000000 0 0 1
24.535891 11.891646 -8.491210 28.557343 0.451303 1.872701 0.038076 0.004595 278023.000000 0 0 1
24.340691 13.062146 -9.465810 29.200864 0.492527 1.900922 0.051593 0.004653 389470.000000 0 0 1
23.543391 14.129746 -8.849510 28.848827 0.540535 1.882578 0.064706 -0.010578 567509.000000 0 0 1
23.271791 15.288346 -9.584810 29.447892 0.581244 1.902320 0.053171 -0.011373 -699518.000000 0 0 1
22.266591 16.242946 -8.859610 28.950424 0.630236 1.881813 0.054532 -0.006687 1755020.000000 0 0 1
20.866891 15.831146 -8.964410 27.684165 0.649029 1.900550 0.061854 -0.007941 1562230.000000 0 0 1
20.541791 14.742546 -8.108710 26.552947 0.622497 1.881133 0.062648 -0.017080 -812977.000000 0 0 1
19.064491 14.284546 -8.114210 25.166316 0.643037 1.899085 0.071523 -0.016999 326710.000000 0 0 1
18.218691 15.301746 -7.558310 24.963817 0.698597 1.878395 0.085462 -0.025623 -335974.000000 0 1 0
16.858391 15.022246 -7.673310 23.848541 0.727867 1.898375 0.087132 -0.025260 -562095.000000 0 1 0
16.146291 15.348146 -6.355510 23.165941 0.760061 1.848707 0.088457 -0.013781 -251557.000000 0 1 0
16.467591 14.397246 -5.362110 22.521422 0.718421 1.811194 0.076225 -0.017613 290541.000000 0 1 0
16.105691 14.785046 -4.068710 22.238374 0.742672 1.754792 0.078752 -0.010358 -175045.000000 0 1 0
15.782691 13.686346 -3.063810 21.113890 0.714381 1.716419 0.059532 -0.003345 -972838.000000 0 1 0
16.886391 13.000746 -2.594510 21.468607 0.656113 1.691944 0.054419 -0.003085 -232064.000000 0 1 0
16.719091 12.394746 -1.288310 20.852277 0.637944 1.632618 0.047525 0.001032 -34413.400000 0 1 0
16.845991 13.379246 -0.096610 21.512809 0.671200 1.575287 0.054525 0.000515 -133869.000000 0 1 0
15.766091 14.290646 -0.047110 21.278966 0.736349 1.573010 0.050579 -0.003015 740706.000000 0 1 0
16.021891 15.152846 1.037290 22.076814 0.757529 1.523794 0.057388 0.001532 6834.800000 0 1 0
14.720791 15.932446 1.318290 21.732060 0.824905 1.510098 0.051212 0.005923 -35748.100000 0 1 0
14.587491 17.008546 0.399990 22.410835 0.861874 1.552947 0.063004 0.003393 -78714.000000 0 1 0
13.525791 17.789346 0.852490 22.363689 0.920716 1.532668 0.038322 -0.005715 -382010.000000 0 1 0
13.449291 19.237946 0.217790 23.474016 0.960673 1.561518 0.031906 -0.001765 -34829.700000 0 1 0
12.864091 19.327346 -1.068710 23.241628 0.983539 1.616795 0.037310 -0.011136 124889.000000 0 1 0
12.387991 20.662546 -1.253510 24.124146 1.030716 1.622781 0.033551 -0.008562 41911.600000 0 1 0
10.857791 20.816346 -1.275810 23.512541 1.090019 1.625084 0.030048 -0.009730 -291901.000000 0 1 0
10.282991 20.805446 -0.008210 23.207899 1.111763 1.571150 0.018396 -0.007800 199951.000000 0 1 0
8.860691 20.918246 -0.077210 22.717632 1.170123 1.574195 0.018369 -0.002163 659521.000000 0 1 0
8.313091 20.487946 1.311890 22.149142 1.185338 1.511532 0.010584 -0.008703 -135389.000000 0 1 0
8.412091 21.558746 2.193090 23.245482 1.198772 1.476311 0.012376 -0.000038 470830.000000 0 1 0
7.513991 21.425546 3.302490 22.943856 1.233496 1.426357 0.010951 -0.002272 356754.000000 0 1 0
7.034491 22.774346 3.903290 24.153480 1.271215 1.408481 0.006404 0.007242 275352.000000 0 1 0
7.911291 23.222046 4.930090 25.023144 1.242448 1.372478 0.004949 0.008793 542630.000000 0 0 1
7.437291 24.473146 5.467090 26.156017 1.275769 1.360225 0.000009 0.012227 71175.300000 0 0 1
7.910491 24.777446 6.951190 26.922421 1.261763 1.309645 0.000565 0.007911 -7925.590000 0 0 1
7.258091 24.121746 8.049090 26.444780 1.278519 1.261516 0.017119 -0.010507 260269.000000 0 0 1
7.942191 24.207746 9.310890 27.125376 1.253777 1.220417 0.020559 -0.024645 -183045.000000 0 0 1
7.370791 23.228046 10.334390 26.470178 1.263524 1.169713 0.025652 -0.025506 -787390.000000 0 0 1
6.022591 23.417346 10.631190 26.413366 1.319067 1.156558 0.024418 -0.026431 -542646.000000 0 0 1
5.551191 22.334246 11.376090 25.671963 1.327182 1.111706 0.022936 -0.023657 -113505.000000 0 0 1
4.253691 22.623946 12.159290 26.034307 1.384949 1.084846 0.027927 -0.027390 -74218.300000 0 0 1
3.190791 22.973746 11.314390 25.806774 1.432791 1.116948 0.021894 -0.027365 -497639.000000 0 0 1
2.018691 23.222946 12.041190 26.236818 1.484088 1.093992 0.023061 -0.027704 668177.000000 0 0 1
0.748191 23.536246 11.142590 26.051334 1.539018 1.128831 0.019348 -0.011437 662531.000000 0 0 1
0.982291 24.699146 10.335090 26.792290 1.531047 1.174777 0.023070 -0.012020 46701.500000 0 0 1
0.108891 24.856246 9.224990 26.513115 1.566416 1.215423 0.014476 -0.017858 836422.000000 0 0 1
-1.288409 25.518646 9.494390 27.258113 -1.520350 1.215024 0.026922 -0.020953 724996.000000 0 0 1
-2.298309 24.709246 10.074190 26.782800 -1.478049 1.185165 0.028866 -0.020520 -966021.000000 0 0 1
-3.498709 25.332546 9.815490 27.392019 -1.433553 1.204314 0.044475 -0.019180 -1313780.000000 0 0 1
-4.684209 24.556046 10.461290 27.099443 -1.382305 1.174469 0.054883 -0.021468 -27128.300000 0 0 1
-4.949009 24.683846 11.870590 27.833359 -1.372924 1.130190 0.043341 -0.008560 15715.800000 0 0 1
-5.495509 25.921946 12.249190 29.192303 -1.361887 1.137788 0.048856 -0.004858 -210106.000000 0 0 1
-6.026309 25.946846 13.709090 29.958210 -1.342586 1.095494 0.022755 0.004689 630022.000000 0 0 1
-7.166709 25.116346 13.973790 29.621941 -1.292842 1.079536 0.018628 -0.001166 510978.000000 0 0 1
-7.369009 24.903646 15.374590 30.180654 -1.283104 1.036287 0.011335 0.011531 406542.000000 0 0 1
-8.502309 23.843446 15.607990 29.739007 -1.228264 1.018278 0.015049 0.000153 938346.000000 0 0 1
-9.798909 24.265746 15.172790 30.249936 -1.187004 1.045371 0.003899 0.009476 150248.000000 0 0 1
-10.721609 23.205046 15.281390 29.781671 -1.137977 1.031988 0.008368 0.001010 -550890.000000 0 0 1
-12.138109 23.671946 15.001390 30.540734 -1.096990 1.057338 0.015162 -0.004267 -533638.000000 0 0 1
-12.704609 24.536646 15.998690 31.928235 -1.093025 1.045947 0.011920 -0.000690 -101679.000000 0 0 1
-13.590409 25.494146 15.486490 32.779293 -1.081037 1.078731 0.002410 0.005959 -407552.000000 0 0 1
-14.146109 26.378746 16.576190 34.215796 -1.078556 1.065050 0.016397 0.001812 -553453.000000 0 0 1
-15.237909 25.829146 17.255190 34.598847 -1.037799 1.048673 0.016173 -0.006791 -272132.000000 0 0 1
-15.647009 26.724346 18.282190 35.961897 -1.041109 1.037498 0.025631 0.003039 80213.700000 0 0 1
-17.021809 26.443446 18.918090 36.700027 -0.998858 1.029230 0.032934 -0.012225 -406135.000000 0 0 1
-18.192609 26.767146 18.251990 37.156241 -0.973851 1.057303 0.038625 -0.009213 -277487.000000 0 0 1
-19.311909 26.329746 19.027290 37.792104 -0.937963 1.043183 0.039637 -0.006800 -9688.380000 0 0 1
-20.613109 26.462346 18.241890 38.182752 -0.909017 1.072702 0.061617 -0.013972 -614216.000000 0 0 1
-21.145709 27.790646 18.164390 39.362496 -0.920360 1.091151 0.059509 -0.014865 328081.000000 0 0 1
-21.937709 27.972046 17.017290 39.411757 -0.905719 1.124329 0.067995 -0.022196 -468515.000000 0 0 1
-22.833809 29.173546 16.858190 40.702300 -0.906700 1.143752 0.064519 -0.026959 63077.200000 0 0 1
-23.973909 29.140246 17.705790 41.682098 -0.882362 1.132076 0.056727 -0.029058 -59740.000000 0 0 1
-24.943709 30.078246 17.372690 42.763301 -0.878447 1.152447 0.049727 -0.023280 889000.000000 0 0 1
-26.264979 29.989446 18.269290 43.851830 -0.851509 1.141079 0.046186 -0.021293 1146350.000000 0 0 1
-27.134299 28.945246 17.886490 43.520386 -0.817679 1.147255 0.056890 -0.019677 361176.000000 0 0 1
-28.405829 28.968946 18.522290 44.600069 -0.795213 1.142527 0.074646 -0.030888 627089.000000 0 0 1
-28.961259 27.727246 19.309390 44.501767 -0.763633 1.121977 0.069037 -0.026635 -215991.000000 0 0 1
-29.294549 26.569146 18.537690 43.677638 -0.736650 1.132474 0.055025 -0.022920 161758.000000 0 0 1
-29.719509 25.554746 19.435390 43.749613 -0.710193 1.110469 0.038426 -0.014331 -129068.000000 0 0 1
-29.779229 24.187046 18.704090 42.680893 -0.682143 1.117167 0.039281 -0.013243 -445621.000000 0 0 1
-30.702739 24.099046 17.668290 42.843794 -0.665475 1.145722 0.059113 -0.016561 -298887.000000 0 0 1
-30.479249 23.075846 16.690690 41.714008 -0.648030 1.159146 0.050818 -0.016384 -372199.000000 0 0 1
-30.933239 21.621946 17.025990 41.403601 -0.610046 1.147004 0.037704 -0.012261 -43629.500000 0 0 1
-32.326129 21.424346 16.979090 42.335219 -0.585291 1.158119 0.027693 -0.004675 -140174.000000 0 0 1
-32.461749 20.045646 16.654690 41.628978 -0.553199 1.159198 0.007557 0.000465 -340880.000000 0 0 1
-33.828129 19.674546 16.096090 42.314468 -0.526783 1.180576 0.008061 -0.012908 -580914.000000 0 0 1
-34.040010 19.896446 14.737890 42.092710 -0.528946 1.213087 0.007367 -0.008851 -124899.000000 0 0 1
-35.342357 19.609446 14.291890 42.870394 -0.506554 1.230916 0.023729 -0.009793 -30311.600000 0 0 1
-35.369103 19.932046 12.791990 42.566359 -0.513182 1.265560 0.027437 -0.004672 72064.800000 0 0 1
-35.582975 21.298646 12.533890 43.322960 -0.539362 1.277287 0.013117 -0.008183 -54051.500000 0 0 1
-35.788231 21.706646 11.185290 43.325358 -0.545207 1.309669 0.033450 -0.011326 21636.500000 0 0 1
-34.583481 21.563346 10.216890 42.016424 -0.557531 1.325170 0.043264 -0.011840 -103696.000000 0 0 1
-34.364110 20.281146 9.778790 41.083350 -0.533171 1.330466 0.050023 0.003942 567823.000000 0 0 1
-33.103679 20.096646 9.111790 39.783834 -0.545611 1.339713 0.072972 0.002806 539760.000000 0 0 1
-32.322439 18.945646 9.785090 38.722417 -0.530170 1.315328 0.054144 -0.002931 -285990.000000 0 0 1
-31.972089 19.219746 11.077790 38.914400 -0.541258 1.282133 0.051751 -0.005511 158943.000000 0 0 1
-31.511959 18.083446 11.808990 38.202969 -0.520977 1.256537 0.051388 -0.007175 -34885.200000 0 0 1
-31.148879 18.342746 13.286390 38.512818 -0.532198 1.218572 0.027412 -0.004864 1407620.000000 0 0 1
-29.933869 19.101646 13.632890 38.036365 -0.567984 1.204224 0.047943 -0.002214 1042810.000000 0 0 1
-30.022409 20.465446 13.323790 38.700167 -0.598319 1.219322 0.041203 0.002531 -339764.000000 0 0 1
-28.765619 21.349546 13.405390 38.248770 -0.638484 1.212714 0.063833 -0.010150 -216807.000000 0 0 1
-28.335679 21.314146 14.781290 38.414712 -0.644909 1.175825 0.054780 -0.004335 -594826.000000 0 0 1
-27.282619 22.221446 14.925290 38.221699 -0.683515 1.169630 0.073341 -0.009927 -748310.000000 0 0 1
-26.788969 22.068546 16.370190 38.375158 -0.689081 1.130085 0.068418 -0.010037 -221767.000000 0 0 1
-25.949019 20.905646 16.492690 37.180727 -0.678172 1.111205 0.092106 -0.011779 129941.000000 0 0 1
-25.604559 20.778346 17.825690 37.484508 -0.681720 1.075209 0.079048 -0.008131 -227349.000000 0 0 1
-24.403109 19.817546 18.001090 36.225490 -0.682070 1.050753 0.085558 -0.013863 171736.000000 0 0 1
-23.808909 19.858146 19.288890 36.513989 -0.695169 1.014246 0.070331 -0.012557 239569.000000 0 0 1
-22.995709 18.705446 19.508990 35.486576 -0.682878 0.988723 0.054341 -0.009160 118715.000000 0 0 1
-22.345009 18.603046 20.899990 35.807574 -0.694268 0.947549 0.055464 -0.016382 157537.000000 0 0 1
-23.180709 18.045746 21.926090 36.657164 -0.661481 0.929619 0.062726 -0.011732 317191.000000 0 0 1
-22.627209 18.179046 23.263690 37.197682 -0.676820 0.895143 0.087186 -0.018216 -74459.300000 0 0 1
-23.368809 17.427946 24.373490 37.998705 -0.640794 0.874436 0.064996 -0.009472 -360857.000000 0 0 1
-23.075709 16.021446 24.481990 37.263158 -0.606890 0.853960 0.071666 -0.018605 465930.000000 0 0 1
-23.990509 15.400246 25.400490 38.182417 -0.570682 0.842980 0.067141 -0.023916 387015.000000 0 0 1
20.516791 24.791346 34.280279 47.017945 0.879464 0.753806 0.036810 -0.018847 137422.000000 0 0 1
21.359291 23.975146 33.486817 46.393899 0.843036 0.764406 0.038750 -0.025959 28823.600000 0 0 1
21.147091 22.623846 33.772057 45.821280 0.819124 0.742118 0.038880 -0.026001 55805.800000 0 0 1
20.098491 21.818846 32.947543 44.334546 0.826417 0.733020 0.041493 -0.026790 119825.000000 0 0 1
20.420791 21.515146 31.570383 43.319734 0.811488 0.754264 0.047156 -0.022794 -268704.000000 0 0 1
19.536691 20.531846 31.129583 42.098574 0.810229 0.738551 0.064470 -0.024104 -408520.000000 0 0 1
19.910691 19.843046 29.756963 40.934814 0.783697 0.756948 0.066480 -0.018398 -826549.000000 0 0 1
21.131991 19.202446 29.780563 41.257447 0.737596 0.764364 0.055372 -0.019509 -982696.000000 0 0 1
21.366291 18.457146 28.619453 40.202708 0.712477 0.778627 0.061918 -0.015234 193865.000000 0 0 1
22.557791 17.480846 28.819613 40.558649 0.659270 0.780493 0.050015 -0.014224 51461.600000 0 0 1
23.796791 18.117246 29.068283 41.707157 0.650714 0.799645 0.051710 -0.017714 -114865.000000 0 0 1
24.734891 17.066846 29.264243 41.946251 0.603977 0.798670 0.043157 -0.011174 -490752.000000 0 0 1
26.132191 17.551846 29.645943 43.241654 0.591449 0.815386 0.038200 -0.022189 -245194.000000 0 0 1
27.074591 17.644246 28.566413 43.132272 0.577563 0.846915 0.048188 -0.013289 -239829.000000 0 0 1
28.263791 18.140646 29.089783 44.431300 0.570613 0.856992 0.052493 -0.013554 157941.000000 0 0 1
29.430591 18.170046 28.011633 44.507998 0.553106 0.890065 0.054509 0.004513 596438.000000 0 0 1
29.241191 19.086346 26.967253 44.119934 0.578286 0.913188 0.058854 -0.005858 42431.700000 0 0 1
30.349491 19.014846 26.102553 44.317031 0.559698 0.940980 0.050094 -0.009222 -191613.000000 0 0 1
30.769191 20.333946 25.457803 44.814197 0.583968 0.966632 0.050569 -0.010074 -313913.000000 0 0 1
29.791991 20.817346 24.575293 43.873337 0.609891 0.976239 0.057985 -0.018454 -224285.000000 0 0 1
30.341591 21.562946 23.555263 44.050235 0.617853 1.006601 0.053323 -0.026186 -82892.500000 0 0 1
31.044191 20.838546 22.342523 43.556574 0.591172 1.032174 0.041961 -0.012919 378603.000000 0 0 1
30.083991 20.311346 21.428923 42.152059 0.593856 1.037503 0.055199 0.000291 544145.000000 0 0 1
30.599991 19.941446 20.124723 41.701621 0.577556 1.067189 0.051542 -0.004534 395752.000000 0 0 1
31.564191 18.697046 20.121023 41.841765 0.534775 1.069134 0.050851 -0.013278 498375.000000 0 0 1
30.843591 17.484446 20.187423 40.799081 0.515706 1.053191 0.058019 -0.011083 405205.000000 0 0 1
31.765291 16.412046 20.169323 41.051073 0.476891 1.057189 0.039315 -0.004192 -645645.000000 0 0 1
31.161991 15.031546 20.299723 40.113537 0.449443 1.040190 0.043583 0.002774 -138458.000000 0 0 1
30.729491 14.601646 21.582523 40.290383 0.443585 1.005490 0.030145 -0.004791 414402.000000 0 0 1
29.589991 15.293246 22.077423 39.960775 0.477027 0.985463 0.039858 0.001865 -307753.000000 0 0 1
29.019291 14.512946 23.316423 39.954980 0.463739 0.947682 0.023641 -0.003958 -72391.800000 0 0 1
28.445791 13.285346 23.085723 38.969399 0.436934 0.936754 0.017603 -0.002965 156340.000000 0 0 1
27.799791 12.696146 24.222843 38.997008 0.428411 0.900592 0.014675 -0.010084 422912.000000 0 0 1
27.120191 11.289346 24.018393 37.945188 0.394454 0.885405 0.018423 -0.009629 1093060.000000 0 0 1
26.016091 11.275446 23.059423 36.547362 0.408966 0.888024 0.034462 -0.008423 994776.000000 0 0 1
25.700791 9.939446 22.758823 35.739156 0.369021 0.880451 0.035237 0.001759 -66786.600000 0 0 1
24.469891 9.755246 21.817223 34.204263 0.379353 0.879092 0.041778 -0.009295 27529.800000 0 0 1
23.301791 9.570846 22.598523 33.841806 0.389726 0.839588 0.043730 -0.012519 297974.000000 0 0 1
22.209691 9.331646 21.712623 32.431281 0.397765 0.837266 0.042376 -0.003891 -364695.000000 0 0 1
20.821591 9.374946 22.338423 31.944224 0.423063 0.796386 0.029596 -0.011053 -502431.000000 0 0 1
20.532891 8.334146 23.291223 32.148697 0.385576 0.760510 0.034848 -0.005618 270233.000000 0 0 1
19.141091 8.385246 23.520103 31.462501 0.412894 0.726416 0.053975 -0.010913 -71004.100000 0 0 1
18.641691 7.734246 24.827933 31.996210 0.393276 0.682553 0.052156 -0.001590 -226446.000000 0 0 1
18.552391 6.305946 24.763493 31.578264 0.327648 0.669400 0.054346 -0.000628 263636.000000 0 0 1
18.102391 5.789546 26.004853 32.209747 0.309542 0.631133 0.051251 -0.005296 5901.600000 0 0 1
18.333791 4.248546 25.991763 32.089715 0.227714 0.626692 0.049870 -0.005713 540469.000000 0 0 1
19.728191 3.964146 25.920463 32.814424 0.198297 0.660133 0.055212 -0.002227 416790.000000 0 0 1
19.994591 2.564846 25.694033 32.658008 0.127580 0.665253 0.058969 -0.004573 586507.000000 0 0 1
21.478891 2.350546 25.242873 33.227556 0.109001 0.707949 0.062430 -0.005066 941580.000000 0 0 1
22.397591 2.755546 26.273913 34.634717 0.122414 0.709634 0.065475 -0.010881 469214.000000 0 0 1
23.737391 2.670946 25.813673 35.170206 0.112049 0.746656 0.074093 -0.009016 741129.000000 0 0 1
24.839091 2.845846 26.917683 36.737460 0.114074 0.748510 0.053831 -0.019408 -67773.800000 0 0 1
24.996091 1.819546 27.919073 37.517862 0.072665 0.731529 0.055243 -0.025066 157861.000000 0 0 1
25.693191 2.100746 29.142733 38.908252 0.081581 0.724227 0.050100 -0.015958 833151.000000 0 0 1
27.210191 2.452846 29.041523 39.872560 0.089901 0.754873 0.052116 -0.018478 -284181.000000 0 0 1
27.444291 3.737046 28.390893 39.663553 0.135336 0.773037 0.050071 -0.001535 212363.000000 0 0 1
28.809891 4.058246 28.163253 40.492567 0.139942 0.801658 0.042866 0.000510 641649.000000 0 0 1
29.570291 3.167046 27.109103 40.240971 0.106696 0.831634 0.049019 0.002475 -199174.000000 0 0 1
29.033891 3.348546 25.783603 38.974014 0.114825 0.847901 0.040167 0.011768 187004.000000 0 0 1
29.480791 2.294646 24.960153 38.696146 0.077679 0.869735 0.043998 0.029210 1034.380000 0 0 1
29.175891 2.475646 23.426223 37.498658 0.084650 0.896021 0.048765 0.014150 122737.000000 0 0 1
29.912291 3.538846 22.861323 37.814133 0.117760 0.921569 0.040126 0.013948 -724158.000000 0 0 1
31.060291 3.025746 22.262123 38.334044 0.097109 0.951159 0.034711 0.014083 -362631.000000 0 0 1
31.850291 4.091846 21.442823 38.613196 0.127771 0.982044 0.030673 0.009647 -386043.000000 0 0 1
31.343391 4.400646 20.182823 37.538250 0.139489 1.003137 0.027857 0.001742 -292940.000000 0 0 1
31.733291 5.651046 19.640623 37.745068 0.176232 1.023536 0.033101 0.018744 1650840.000000 0 0 1
33.296391 5.949246 19.350823 38.967904 0.176810 1.051138 0.027652 0.011394 1813910.000000 0 0 1
34.133491 6.111246 20.529923 40.297894 0.177163 1.036246 0.031344 0.011145 691898.000000 0 0 1
33.862091 7.222646 21.390523 40.698431 0.210147 1.017393 0.033722 0.004449 -806720.000000 0 0 1
34.672291 7.055546 22.652723 42.013026 0.200751 1.001329 0.047678 -0.001326 -358083.000000 0 0 1
34.148791 6.048746 23.455123 41.867291 0.175311 0.976138 0.042795 0.004052 306963.000000 0 0 1
34.870291 6.056046 24.676893 43.145822 0.171958 0.961925 0.045012 0.009152 264533.000000 0 0 1
34.164991 5.226546 25.807153 43.134355 0.151803 0.929422 0.045666 0.011757 155583.000000 0 0 1
34.193091 3.903946 25.374313 42.758204 0.113681 0.935474 0.045294 0.008046 -173799.000000 0 0 1
33.552091 3.061746 26.267363 42.721089 0.091001 0.908592 0.037121 0.016357 -320706.000000 0 0 1
33.589491 1.563646 25.829893 42.401442 0.046518 0.915777 0.037097 0.013693 42776.900000 0 0 1
32.799191 1.178846 24.721273 41.089147 0.035926 0.925231 0.043665 0.008833 -58489.300000 0 0 1
32.935291 -0.219354 24.508163 41.054008 -0.006660 0.931073 0.046875 0.005113 -61322.700000 0 0 1
32.000191 -0.781254 23.416423 39.660452 -0.024409 0.939214 0.053389 0.010268 1335480.000000 0 0 1
30.637091 -1.063554 23.811683 38.816991 -0.034701 0.910394 0.051433 0.013765 689673.000000 0 0 1
29.888591 -1.778854 22.857623 37.669127 -0.059446 0.918768 0.058478 -0.001468 -391297.000000 0 0 1
28.429191 -1.822154 23.280523 36.790242 -0.064007 0.885644 0.061965 0.004124 -472954.000000 0 0 1
27.761391 -0.560754 23.227123 36.200947 -0.020196 0.874192 0.050901 0.008369 54948.100000 0 0 1
26.369091 -0.826454 23.329223 35.217391 -0.031332 0.846732 0.056978 0.002283 388792.000000 0 0 1
25.476291 0.436846 23.318723 34.539761 0.017145 0.829660 0.064216 0.006471 38186.700000 0 0 1
25.447991 1.087446 22.071223 33.703437 0.042706 0.856791 0.058218 0.000522 153186.000000 0 0 1
24.448691 2.092846 22.092823 33.018349 0.085393 0.837789 0.056618 0.002320 113251.000000 0 0 1
24.452891 2.976146 20.860623 32.279513 0.121114 0.868137 0.046435 -0.004055 -114985.000000 0 0 1
24.065091 2.399346 19.597423 31.127873 0.099374 0.889786 0.060896 -0.006396 326934.000000 0 0 1
23.477491 3.448546 18.839423 30.298662 0.145844 0.899769 0.054104 -0.005777 112773.000000 0 0 1
23.215791 3.169546 17.415923 29.194749 0.135687 0.931609 0.059329 -0.009007 494973.000000 0 0 1
24.469491 3.082646 16.729023 29.801324 0.125319 0.974778 0.057846 -0.014620 552556.000000 0 0 1
24.395391 3.006346 15.321523 28.964155 0.122616 1.013396 0.060402 -0.018348 -555567.000000 0 0 1
23.681991 1.830746 14.709523 27.938475 0.077152 1.016321 0.067190 0.003068 -266953.000000 0 0 1
22.300491 2.030546 14.493223 26.673742 0.090803 0.996372 0.064033 0.001989 -18117.500000 0 0 1
21.807091 0.875546 13.911923 25.881604 0.040128 1.003301 0.073038 -0.003417 -64881.000000 0 0 1
20.245891 0.794846 13.917123 24.580769 0.039239 0.968933 0.066900 -0.017612 61601.600000 0 1 0
19.513291 1.473746 12.940523 23.460554 0.075382 0.986531 0.079467 -0.017796 231851.000000 0 1 0
19.756091 1.174746 11.565523 22.922576 0.059393 1.041939 0.098188 -0.011854 -949611.000000 0 1 0
19.500591 -0.337454 11.115023 22.448400 -0.017303 1.052804 0.096201 -0.012256 -317374.000000 0 1 0
20.495791 -1.276854 11.421423 23.498015 -0.062218 1.063222 0.081662 -0.020403 28867.400000 0 1 0
21.615591 -1.199554 10.550923 24.083079 -0.055438 1.117307 0.091144 -0.015917 122441.000000 0 1 0
22.717191 -2.168254 11.094123 25.374232 -0.095157 1.118291 0.095819 -0.022027 -2263.620000 0 0 1
23.376791 -1.831454 12.266923 26.463295 -0.078185 1.088805 0.097736 -0.025027 -77925.800000 0 0 1
24.422791 -2.679154 12.653523 27.636249 -0.109262 1.095210 0.085416 -0.019579 21428.200000 0 0 1
24.825791 -2.358254 14.116423 28.655796 -0.094708 1.055698 0.069542 -0.017065 -151925.000000 0 0 1
25.668791 -1.259454 14.299923 29.410217 -0.049026 1.063034 0.066081 -0.015471 -180419.000000 0 0 1
26.085091 -1.206054 15.646423 30.441700 -0.046202 1.030978 0.068326 -0.025698 -626901.000000 0 0 1
27.191791 -0.238154 16.013823 31.557768 -0.008758 1.038580 0.066033 -0.020156 234125.000000 0 0 1
28.441991 -0.766154 15.519223 32.409569 -0.026931 1.071455 0.066596 -0.021967 541321.000000 0 0 1
29.488191 0.154646 15.803723 33.456464 0.005244 1.078822 0.055684 -0.022875 222464.000000 0 0 1
30.851491 -0.577854 15.995423 34.756323 -0.018728 1.092558 0.053154 -0.019982 -7253.510000 0 0 1
31.243091 -1.044454 14.751423 34.566257 -0.033417 1.129892 0.061931 -0.012477 -534151.000000 0 0 1
32.283291 -1.955154 14.908223 35.613040 -0.060489 1.138874 0.062918 -0.009087 -540809.000000 0 0 1
32.693691 -2.499254 13.540723 35.474990 -0.076296 1.179164 0.064389 -0.009392 -214836.000000 0 0 1
33.307491 -1.539854 12.686023 35.674855 -0.046199 1.207239 0.057413 -0.010217 249900.000000 0 0 1
33.674291 -2.184454 11.466023 35.639857 -0.064779 1.243252 0.063759 -0.004926 65393.200000 0 0 1
32.975191 -1.387754 10.318723 34.579837 -0.042060 1.267777 0.074948 0.001715 79716.300000 0 0 1
33.521991 -0.095954 10.065523 35.000683 -0.002862 1.279096 0.069495 -0.003137 828791.000000 0 0 1
32.580391 0.681546 9.292523 33.886537 0.020916 1.293013 0.064947 -0.008159 400190.000000 0 0 1
33.118791 2.048646 8.783923 34.325043 0.061779 1.312013 0.065686 -0.007761 133654.000000 0 0 1
33.924491 1.883746 7.627223 34.822322 0.055471 1.349973 0.062462 -0.006313 214462.000000 0 0 1
34.376291 3.126846 7.215023 35.264190 0.090710 1.364742 0.057740 -0.002917 79909.900000 0 0 1
34.976891 3.251646 5.756123 35.596194 0.092699 1.408377 0.047134 -0.003587 134183.000000 0 0 1
35.432191 4.552746 5.432123 36.134134 0.127792 1.419892 0.048058 0.005625 295507.000000 0 0 1
35.802891 4.644746 4.061223 36.330623 0.129011 1.458777 0.045409 -0.006342 -37951.900000 0 0 1
-35.726174 6.082246 3.618323 36.420400 -0.168629 1.471283 0.044069 -0.009567 4640.550000 0 0 1
35.148591 6.994646 3.567623 36.014948 0.196436 1.471574 0.062401 -0.015928 14487.300000 0 0 1
35.513691 8.304746 3.238323 36.615267 0.229718 1.482239 0.052203 -0.014466 -1065310.000000 0 0 1
34.306291 9.222346 3.217223 35.669648 0.262615 1.480479 0.079186 -0.021654 150910.000000 0 0 1
33.266491 9.049746 2.255823 34.549183 0.265610 1.505457 0.089810 -0.026305 422699.000000 0 0 1
32.467591 7.910746 2.361923 33.500792 0.238994 1.500234 0.104205 -0.026516 -854527.000000 0 0 1
31.155391 7.860646 1.569323 32.170031 0.247146 1.521995 0.118823 -0.028986 17264.800000 0 0 1
31.396191 7.670346 0.197923 32.320182 0.239615 1.564672 0.110868 -0.029346 565979.000000 0 0 1
30.165791 7.760046 -0.510477 31.152108 0.251787 1.587184 0.124766 -0.022987 255976.000000 0 0 1
30.395191 7.614746 -2.067477 31.402650 0.245472 1.636682 0.087286 -0.015100 -388463.000000 0 0 1
29.375991 6.895046 -2.717677 30.296473 0.230544 1.660620 0.088328 -0.014160 654358.000000 0 0 1
29.812991 6.593046 -4.075977 30.804160 0.217644 1.703505 0.088291 -0.013463 -561325.000000 0 0 1
28.660391 6.122846 -4.933977 29.719545 0.210471 1.737586 0.078545 -0.006545 -687544.000000 0 0 1
28.435691 4.702246 -4.789577 29.217113 0.163881 1.735470 0.083229 -0.012106 462253.000000 0 0 1
27.322391 4.310446 -5.549077 28.211438 0.156473 1.768783 0.061286 -0.003007 -396151.000000 0 0 1
27.071891 2.829046 -5.667377 27.803056 0.104123 1.776075 0.072312 -0.001487 -247407.000000 0 0 1
26.870491 2.158246 -4.434777 27.319380 0.080148 1.733849 0.067229 -0.002041 473975.000000 0 0 1
26.617591 0.751446 -4.713677 27.042181 0.028224 1.746000 0.057204 0.002721 -89498.500000 0 0 1
26.766891 -0.083954 -3.423577 26.985077 -0.003136 1.698008 0.056354 0.007404 406333.000000 0 0 1
28.083091 -0.010054 -2.886477 28.231044 -0.000358 1.673220 0.086551 -0.008373 613809.000000 0 0 1
27.965791 -0.251054 -1.512277 28.007775 -0.008977 1.624817 0.093611 -0.005801 -328989.000000 0 0 1
29.156291 0.272146 -0.705577 29.166097 0.009334 1.594990 0.103961 -0.012842 -264510.000000 0 0 1
30.325291 -0.500654 -0.912977 30.343161 -0.016508 1.600889 0.101488 -0.016918 -18738.100000 0 0 1
31.359991 0.151546 -0.213177 31.361082 0.004832 1.577594 0.079463 -0.013913 -569196.000000 0 0 1
-2.455109 -21.315154 -8.593610 23.113059 1.456120 1.951752 0.008437 0.006672 117898.000000 0 1 0
-2.963409 -21.905054 -7.405310 23.312053 1.436328 1.894057 0.003668 0.005667 -218263.000000 0 1 0
-2.287609 -23.058854 -6.877210 24.171055 1.471912 1.859305 0.013242 0.006166 -34092.600000 0 1 0
-2.903209 -23.672454 -5.598810 24.498171 1.448765 1.801374 0.006322 0.006816 -371203.000000 0 1 0
-2.612809 -22.838854 -4.492010 23.422600 1.456890 1.763773 0.005431 0.000650 94329.600000 0 1 0
-3.278909 -23.320954 -3.325310 23.783940 1.431113 1.711069 0.007691 -0.013183 46776.600000 0 1 0
-2.874009 -22.562654 -2.011010 22.833691 1.444100 1.658983 0.009196 -0.020350 -647601.000000 0 1 0
-1.603809 -22.888554 -1.570810 22.998381 1.500840 1.639150 0.018877 -0.012683 -1300020.000000 0 1 0
-1.271309 -22.572954 -0.245510 22.610059 1.514536 1.581655 0.020795 -0.014862 183751.000000 0 1 0
0.258391 -22.531454 -0.028710 22.532954 -1.559329 1.572070 0.026320 -0.019829 -192931.000000 0 1 0
0.840791 -21.421554 -0.560210 21.445366 -1.531567 1.596922 0.011166 -0.019420 -948586.000000 0 1 0
1.988491 -21.065954 0.149490 21.160124 -1.476682 1.563732 0.015276 -0.020345 -256285.000000 0 1 0
2.918691 -20.054454 -0.534410 20.272777 -1.426273 1.597160 0.022176 -0.019328 608770.000000 0 1 0
3.686791 -20.542654 -1.647210 20.935767 -1.393217 1.649557 0.020800 -0.008900 -265655.000000 0 1 0
4.632691 -19.620454 -2.123410 20.271480 -1.338928 1.675737 0.030443 -0.005436 168162.000000 0 1 0
5.565891 -20.196054 -3.214410 21.194154 -1.301879 1.723049 0.029602 0.000054 -413787.000000 0 1 0
6.446391 -21.201154 -2.724010 22.326332 -1.275620 1.693110 0.038209 -0.004978 -151559.000000 0 1 0
7.193291 -21.864954 -3.728710 23.317867 -1.252962 1.731394 0.029790 -0.002528 1177740.000000 0 1 0
8.419491 -21.099854 -4.394110 23.138709 -1.191126 1.761860 0.040948 -0.000240 423170.000000 0 1 0
7.997291 -20.007654 -5.204810 22.166482 -1.190539 1.807815 0.024449 0.004308 -146450.000000 0 1 0
9.007591 -19.741254 -6.159310 22.556394 -1.142730 1.847372 0.029412 0.016364 -304337.000000 0 1 0
8.951591 -18.411054 -6.996510 21.634441 -1.118244 1.900113 0.027866 0.013879 -136891.000000 0 1 0
9.767491 -18.263654 -8.144110 22.255145 -1.079694 1.945442 0.027689 0.025483 289764.000000 0 1 0
9.555091 -16.971854 -8.604210 21.292628 -1.058030 1.986784 0.026094 0.019143 129981.000000 0 1 0
10.218591 -16.812454 -9.999910 22.069808 -1.024662 2.041040 0.029047 0.015447 -113510.000000 0 1 0
9.495891 -17.461354 -11.020110 22.726937 -1.072708 2.077036 0.022472 0.014469 357542.000000 0 1 0
8.343391 -16.786254 -11.509210 21.996645 -1.109522 2.121428 0.006065 0.000287 39122.200000 0 1 0
7.950291 -17.414754 -12.863710 23.064167 -1.142529 2.162452 0.018722 -0.004425 -125627.000000 0 1 0
6.884791 -18.341954 -12.736010 23.367361 -1.211712 2.147226 0.005275 0.007647 178724.000000 0 1 0
6.559791 -18.949554 -13.944910 24.424925 -1.237536 2.178434 0.001076 0.009937 -436120.000000 0 1 0
5.376291 -19.870954 -13.728610 24.743364 -1.306562 2.158967 -0.002805 0.022612 -632701.000000 0 1 0
5.788091 -21.146354 -13.208910 25.595812 -1.303624 2.113038 0.014210 0.015259 -211697.000000 0 0 1
4.755491 -21.947454 -12.735010 25.816388 -1.357419 2.086666 0.028846 0.014810 -340780.000000 0 0 1
5.304691 -23.324854 -12.417210 26.951357 -1.347173 2.049610 0.014268 0.012206 30096.300000 0 0 1
5.734291 -24.000154 -13.633910 28.191718 -1.336266 2.075575 0.028561 0.007667 131978.000000 0 0 1
5.230791 -25.327464 -13.810310 29.318361 -1.367133 2.061273 0.027280 0.005546 383551.000000 0 0 1
3.764691 -25.592164 -14.263110 29.539263 -1.424741 2.074706 0.036621 -0.004848 791918.000000 0 0 1
2.810991 -25.008254 -13.339310 28.482479 -1.458864 2.058200 0.036206 -0.002882 573676.000000 0 0 1
1.433991 -25.250204 -13.583810 28.707996 -1.514066 2.063684 0.028299 -0.014537 499769.000000 0 0 1
0.888091 -26.657654 -13.092410 29.712462 -1.537494 2.027104 0.020705 -0.009637 -602883.000000 0 0 1
1.182991 -27.794074 -13.891810 31.094893 -1.528259 2.033932 0.026807 -0.009637 -66977.700000 0 0 1
0.563291 -28.958874 -13.415210 31.920237 -1.551347 2.004542 0.009575 0.001822 752397.000000 0 0 1
-0.935509 -29.158724 -13.830910 32.286227 1.538724 2.013500 -0.007527 0.001678 914360.000000 0 0 1
-1.916709 -28.375494 -13.178110 31.344936 1.503351 2.004707 -0.000269 -0.002606 -184812.000000 0 0 1
-3.207109 -28.532374 -13.699210 31.812737 1.458864 2.015976 0.005594 0.013252 -734325.000000 0 0 1
-4.304709 -27.773834 -12.960110 30.949650 1.417028 2.002863 -0.008985 0.006160 -190364.000000 0 0 1
-4.457109 -28.132174 -11.545810 30.734195 1.413668 1.955912 -0.005513 -0.011072 -173545.000000 0 0 1
-4.913409 -29.418824 -11.358610 31.915933 1.405308 1.934664 -0.016444 -0.004261 -808401.000000 0 0 1
-5.385109 -29.699284 -9.908210 31.768215 1.391424 1.887979 -0.004946 -0.009827 692860.000000 0 0 1
-6.648109 -29.158164 -9.463210 31.367949 1.346627 1.877255 0.012163 -0.008283 187821.000000 0 0 1
-6.894009 -27.764784 -9.364710 30.101634 1.327418 1.887150 0.018319 -0.005576 -2061340.000000 0 0 1
-8.314309 -27.479984 -8.950610 30.073089 1.276994 1.873004 0.022185 -0.003578 -150185.000000 0 0 1
-9.356509 -27.799804 -9.898910 30.957419 1.246138 1.896271 0.034940 -0.007888 476652.000000 0 0 1
-9.424109 -29.157344 -10.340510 32.340233 1.258179 1.896253 0.045503 -0.018396 -1841730.000000 0 0 1
-10.675809 -29.493694 -11.148210 33.288639 1.223499 1.912290 0.062089 -0.021363 -307503.000000 0 0 1
-10.665309 -28.874284 -12.419010 33.191940 1.216970 1.954284 0.071233 -0.022313 372948.000000 0 0 1
-11.609309 -29.467944 -13.323110 34.360457 1.195504 1.968981 0.077526 -0.026903 94383.700000 0 0 1
-11.719309 -28.603544 -14.578610 34.176612 1.181943 2.011490 0.080430 -0.024681 383164.000000 0 0 1
-12.712209 -27.559504 -14.614010 33.685246 1.138615 2.019547 0.071035 -0.038015 407183.000000 0 0 1
-12.617009 -26.555404 -13.577010 32.383848 1.127250 2.003418 0.080971 -0.018578 -19446.400000 0 0 1
-13.545109 -25.321644 -13.718710 31.825440 1.079603 2.016465 0.104584 -0.014666 -127316.000000 0 0 1
-13.173009 -24.422654 -14.737610 31.419601 1.076146 2.059020 0.101626 -0.012899 206982.000000 0 0 1
-14.244009 -23.569754 -15.173510 31.442972 1.027196 2.074386 0.114684 -0.013784 -44105.000000 0 0 1
-14.044209 -22.661254 -16.379810 31.290101 1.015984 2.121729 0.096870 -0.014646 -240467.000000 0 0 1
-13.468109 -21.406854 -16.154610 30.010245 1.009219 2.139219 0.088718 -0.007473 184464.000000 0 0 1
-13.693609 -20.656354 -17.275610 30.210041 0.985389 2.179555 0.077256 0.002567 -207547.000000 0 0 1
-13.472909 -19.097154 -17.356210 29.111142 0.956393 2.209562 0.066193 -0.004136 55033.300000 0 0 1
-12.181609 -18.527054 -17.451310 28.216866 0.989164 2.237592 0.081830 -0.000188 256405.000000 0 0 1
-12.325109 -17.152954 -17.718110 27.569250 0.947734 2.268783 0.072817 -0.004336 -289429.000000 0 0 1
-10.974809 -16.462954 -17.848410 26.646595 0.982814 2.304762 0.074191 -0.013038 -219882.000000 0 0 1
-10.216009 -16.297954 -16.660510 25.447254 1.010884 2.284592 0.075748 -0.001792 1625250.000000 0 0 1
-8.942309 -15.634354 -16.988710 24.759123 1.051246 2.326993 0.061084 -0.005818 1089370.000000 0 1 0
-8.226009 -14.962554 -15.819910 23.276916 1.068127 2.318067 0.043818 -0.001574 150824.000000 0 1 0
-7.594209 -15.722654 -14.773910 22.872304 1.120832 2.273037 0.041355 0.000986 -19254.800000 0 1 0
-6.484909 -16.512154 -15.062110 23.271709 1.196568 2.274739 0.036186 0.004079 -540476.000000 0 1 0
-6.046709 -17.375054 -13.864510 23.036489 1.235895 2.216612 0.036473 0.003400 -180690.000000 0 1 0
-5.545709 -16.675854 -12.705710 21.685803 1.249743 2.196786 0.024704 0.002838 267235.000000 0 1 0
-5.498609 -17.446054 -11.501110 21.607291 1.265474 2.132087 0.021091 -0.003721 -429337.000000 0 1 0
-4.491409 -18.619354 -11.453610 22.316771 1.334096 2.109739 0.025993 -0.003999 -557440.000000 0 1 0
-3.166809 -18.227954 -11.659010 21.868230 1.398780 2.133114 0.016435 0.007551 -862732.000000 0 1 0
-2.300309 -19.298854 -11.801610 22.737968 1.452162 2.116508 0.011554 0.015247 -270582.000000 0 1 0
-0.807009 -18.996954 -11.921410 22.442271 1.528341 2.130817 -0.002730 0.029108 -891571.000000 0 1 0
-0.573409 -18.449754 -13.160610 22.669889 1.539727 2.190179 0.005354 0.011705 -1445840.000000 0 1 0
0.687391 -17.981054 -13.418210 22.446362 -1.532586 2.211538 0.001677 0.014609 -798804.000000 0 1 0
1.737091 -19.086554 -13.794610 23.613667 -1.480035 2.194665 -0.001987 0.010251 -510654.000000 0 1 0
1.664191 -19.908354 -15.012210 24.989569 -1.487398 2.215222 0.006102 0.014638 86894.000000 0 1 0
1.102991 -21.151454 -14.619910 25.736013 -1.518696 2.174958 0.007297 0.009011 -722817.000000 0 0 1
1.106791 -22.161754 -15.774410 27.224995 -1.520896 2.188800 0.021578 -0.000893 874823.000000 0 0 1
2.327891 -22.848954 -16.125110 28.062661 -1.469265 2.182925 0.037592 -0.002662 848193.000000 0 0 1
3.447691 -22.074654 -16.498510 27.773688 -1.415865 2.206860 0.036310 -0.010777 -540514.000000 0 0 1
4.748591 -22.839554 -16.693310 28.685553 -1.365806 2.191910 0.039344 -0.004833 -316463.000000 0 0 1
4.898791 -23.327254 -17.984110 29.859456 -1.363801 2.217165 0.054642 -0.006492 -785606.000000 0 0 1
6.181391 -23.789354 -18.173510 30.568275 -1.316580 2.207467 0.057843 -0.007793 -779610.000000 0 0 1
6.525191 -23.618854 -19.667110 31.420114 -1.301249 2.247133 0.056788 -0.005407 10908.900000 0 0 1
6.510491 -22.273854 -20.190510 30.759840 -1.286425 2.286822 0.062660 -0.012864 120802.000000 0 0 1
7.093791 -22.258654 -21.480110 31.735858 -1.262275 2.314258 0.053265 -0.010784 326817.000000 0 0 1
7.461791 -20.845354 -22.048610 31.246573 -1.227048 2.354112 0.045454 -0.023024 558316.000000 0 0 1
6.245791 -20.283054 -22.537610 30.957326 -1.272079 2.386228 0.061976 -0.022067 365828.000000 0 0 1
6.317191 -18.904854 -22.703710 30.211899 -1.248305 2.421102 0.067049 -0.021929 -478372.000000 0 0 1
4.990191 -18.200054 -22.925210 29.693589 -1.303188 2.452871 0.053028 -0.017004 -1167140.000000 0 0 1
4.300591 -18.528954 -24.123710 30.720850 -1.342733 2.473905 0.052449 -0.018188 -412222.000000 0 0 1
3.510391 -17.549954 -24.642310 30.455987 -1.373379 2.513436 0.048138 -0.010361 -556116.000000 0 0 1
2.199491 -17.183654 -23.944910 29.554601 -1.443490 2.515276 0.042728 -0.003258 -719092.000000 0 0 1
2.411991 -16.403254 -22.791510 28.183991 -1.424799 2.512682 0.033500 -0.003068 460499.000000 0 0 1
1.118291 -16.001254 -22.334610 27.497736 -1.501022 2.518769 0.025299 -0.001004 970429.000000 0 0 1
1.420291 -15.306954 -20.992610 26.019411 -1.478274 2.509522 0.014662 0.001464 495291.000000 0 0 1
2.099191 -14.060154 -21.150110 25.483753 -1.422590 2.549805 0.022688 0.003492 -66526.500000 0 0 1
2.007791 -13.272654 -19.946410 24.042750 -1.420662 2.549228 0.023837 -0.003641 107924.000000 0 1 0
3.255391 -12.382754 -19.822810 23.598177 -1.313716 2.568106 0.027643 -0.010944 -731531.000000 0 1 0
4.465491 -13.088854 -19.608410 23.994759 -1.242012 2.527325 0.027980 -0.008569 123812.000000 0 1 0
5.609291 -12.234654 -19.576310 23.756742 -1.140916 2.539287 0.038851 -0.007515 624287.000000 0 1 0
5.706991 -11.246754 -18.405910 22.312255 -1.101219 2.540864 0.039163 -0.009988 -1012580.000000 0 1 0
4.743591 -10.219154 -18.441610 21.610778 -1.136208 2.593179 0.017864 0.000852 -217179.000000 0 1 0
5.139891 -9.030254 -19.067710 21.715007 -1.053343 2.642650 0.030538 -0.012459 -482247.000000 0 1 0
4.774391 -8.966254 -20.589010 22.958568 -1.081500 2.683256 0.046407 -0.016522 -674086.000000 0 1 0
3.383491 -8.990954 -20.682010 22.804184 -1.210867 2.706757 0.035549 -0.019748 -874248.000000 0 1 0
3.029891 -9.182754 -22.039210 24.067197 -1.252090 2.728133 0.040399 -0.023092 859040.000000 0 1 0
1.477791 -9.019154 -22.205910 24.013151 -1.408389 2.751147 0.038448 -0.019992 703624.000000 0 1 0
1.079591 -7.682554 -22.032010 23.358010 -1.431186 2.803025 0.034037 -0.019577 104625.000000 0 1 0
-0.338109 -7.555354 -21.942310 23.209107 1.526075 2.809672 0.026027 -0.019422 602361.000000 0 1 0
-0.796109 -6.533254 -23.028310 23.950371 1.449539 2.863210 0.041579 -0.017690 -105352.000000 0 1 0
-0.520009 -7.065354 -24.305210 25.316652 1.497329 2.857971 0.048004 -0.015829 -207343.000000 0 0 1
-1.083409 -6.356654 -25.418030 26.223216 1.401981 2.893143 0.052592 -0.021051 92331.000000 0 0 1
-0.534209 -4.988054 -25.891400 26.372915 1.464105 2.950209 0.056019 -0.019023 -418268.000000 0 0 1
-1.308609 -4.428554 -26.945370 27.338206 1.283479 2.971863 0.056093 -0.017270 13245.200000 0 0 1
-0.898909 -3.152754 -27.475150 27.670052 1.293047 3.022832 0.046004 -0.010038 -785022.000000 0 0 1
-1.081009 -1.892154 -26.542300 26.631607 1.051739 3.059674 0.047935 -0.010694 987914.000000 0 0 1
-2.467209 -1.570754 -26.274710 26.436996 0.566935 3.030733 0.033443 -0.010278 962366.000000 0 0 1
-3.072309 -0.938254 -27.394220 27.581927 0.296395 3.024861 0.038976 -0.003229 -840536.000000 0 0 1
-4.583809 -1.173354 -27.342950 27.749324 0.250597 2.970243 0.031361 -0.005054 -229838.000000 0 0 1
-5.227109 -0.288554 -26.421820 26.935451 0.055147 2.945992 0.031684 -0.009026 -80156.100000 0 0 1
-6.575309 -0.620454 -26.188680 27.008640 0.094083 2.894554 0.025331 -0.017117 -221975.000000 0 0 1
-7.419209 0.503146 -25.537070 26.597740 -0.067713 2.858234 0.030347 -0.014318 -587756.000000 0 0 1
-7.553109 1.679646 -26.309270 27.423500 -0.218817 2.855555 0.038071 -0.020806 653775.000000 0 0 1
-8.637009 1.657346 -27.235290 28.620023 -0.189584 2.829251 0.039648 -0.016034 1790170.000000 0 0 1
-10.161309 1.340046 -26.872770 28.760975 -0.131121 2.777222 0.034990 -0.017940 1289620.000000 0 0 1
-11.017809 1.710846 -27.968580 30.109144 -0.154050 2.762245 0.032854 -0.017983 1108810.000000 0 0 1
-12.406909 1.547146 -27.648310 30.343930 -0.124060 2.716898 0.007664 -0.011737 150333.000000 0 0 1
-13.366309 2.044846 -28.694460 31.720839 -0.151808 2.701221 0.004704 -0.004256 -806153.000000 0 0 1
-14.679309 1.908046 -28.187130 31.837667 -0.129257 2.658019 0.009085 -0.004256 -186832.000000 0 0 1
-15.625709 2.401446 -29.112260 33.127834 -0.152492 2.644108 0.012337 -0.006528 85833.000000 0 0 1
-16.341009 3.705246 -28.575510 33.125778 -0.222975 2.611256 0.020496 0.001779 -333832.000000 0 0 1
-15.622309 4.914546 -28.533350 32.899261 -0.304783 2.620538 0.038624 -0.000940 -163502.000000 0 0 1
-15.296109 5.482046 -29.824890 33.963920 -0.344134 2.642745 0.027933 -0.007447 -130291.000000 0 0 1
-16.468709 6.088646 -30.648350 35.321542 -0.354125 2.621344 0.026846 -0.000215 -31983.500000 0 0 1
-17.101309 7.079046 -29.855100 35.126837 -0.392472 2.586635 0.038408 0.001579 -765501.000000 0 0 1
-17.964809 7.693546 -30.702150 36.394327 -0.404626 2.574744 0.035549 -0.004014 -609210.000000 0 0 1
-18.867809 8.771646 -29.972730 36.486991 -0.435176 2.534769 0.038678 -0.007625 278548.000000 0 0 1
-18.125909 9.853846 -29.499760 35.998371 -0.497942 2.531290 0.043256 -0.007737 338875.000000 0 0 1
-19.056109 10.761846 -28.958120 36.297732 -0.514093 2.494424 0.059273 -0.010192 66179.800000 0 0 1
-7.898409 24.698646 31.448743 40.760661 -1.261283 0.689528 0.019325 -0.004706 -829261.000000 0 0 1
-8.731209 25.689646 31.015683 41.208792 -1.243172 0.718723 0.037393 -0.011918 -532305.000000 0 0 1
-8.659409 26.866646 31.812283 42.530265 -1.258999 0.725765 0.036159 -0.009277 977336.000000 0 0 1
-7.425009 27.843746 31.531863 42.716079 -1.310194 0.740438 0.038428 -0.011841 962134.000000 0 0 1
-7.508009 28.664046 30.388153 42.443346 -1.314620 0.772784 0.058115 -0.008590 738098.000000 0 0 1
-6.180409 28.945846 29.939513 42.100284 -1.360439 0.779667 0.069058 -0.011053 430891.000000 0 0 1
-6.025409 30.107546 28.949323 42.199920 -1.373276 0.814813 0.086561 -0.014641 -338544.000000 0 0 1
-6.512809 31.292146 29.522903 43.511113 -1.365597 0.825058 0.087552 -0.017133 396286.000000 0 0 1
-6.038109 32.493346 28.948653 43.935189 -1.387066 0.851448 0.088511 -0.015817 -92820.000000 0 0 1
-6.539309 33.733046 29.728563 45.436422 -1.379317 0.857554 0.081678 -0.021730 -127020.000000 0 0 1
-5.881909 33.818146 30.988923 46.244754 -1.398591 0.836444 0.090294 -0.029920 135580.000000 0 0 1
-6.418009 -33.921113 31.866083 46.981699 1.383803 0.825396 0.074239 -0.034616 349293.000000 0 0 1
-7.595309 34.290946 32.799128 48.055598 -1.352819 0.819585 0.034693 -0.027208 492825.000000 0 0 1
-7.207209 33.381946 33.820439 48.063711 -1.358159 0.790263 0.047500 -0.020476 -191986.000000 0 0 1
-6.902809 32.153246 33.274572 46.783300 -1.359322 0.779523 0.064622 -0.017380 -305902.000000 0 0 1
-6.482109 31.074846 -34.282580 46.722148 -1.365149 2.394628 0.059651 -0.016979 -14047.200000 0 0 1
-5.219909 31.157146 -33.657430 46.160999 -1.404803 2.387848 0.047636 -0.019906 38452.200000 0 0 1
-5.374209 30.467546 -32.423530 44.815609 -1.396201 2.379637 0.043111 -0.013076 -464378.000000 0 0 1
-4.026509 30.222846 -31.673360 43.964019 -1.438349 2.375230 0.012600 -0.008738 862876.000000 0 0 1
-3.287609 29.082446 -32.173070 43.493718 -1.458230 2.403447 0.022290 0.000547 357807.000000 0 0 1
-2.698909 29.188546 -33.454550 44.479908 -1.478594 2.422080 0.027037 -0.009188 -1100850.000000 0 0 1
-2.082209 27.774746 -33.760950 43.767269 -1.495969 2.451794 0.029000 -0.010227 -498160.000000 0 0 1
-1.152209 27.261546 -32.802390 42.667508 -1.528556 2.447745 0.045191 -0.002655 529830.000000 0 0 1
-0.543309 26.018946 -33.127320 42.127189 -1.549918 2.475698 0.048639 0.000216 79251.500000 0 0 1
0.127491 25.715046 34.110738 42.717939 1.565839 0.645979 0.051207 0.002286 -824858.000000 0 0 1
-0.738609 25.426546 33.038614 41.696581 -1.541756 0.656132 0.043356 0.003327 50942.000000 0 0 1
-0.115409 25.387446 31.731943 40.638061 -1.566250 0.674782 0.046763 0.002442 -254013.000000 0 0 1
-0.024809 26.789246 31.112113 41.056399 -1.569870 0.710877 0.048987 -0.003402 -125183.000000 0 0 1
-1.270509 27.441846 31.026653 41.440588 -1.524531 0.724694 0.043254 -0.011647 -123316.000000 0 0 1
-1.168409 28.627046 30.254553 41.667865 -1.530004 0.758180 0.049506 -0.013291 -156315.000000 0 0 1
-2.267609 29.649746 30.500993 42.597654 -1.494465 0.772705 0.058102 -0.020909 -291265.000000 0 0 1
-2.045109 30.329646 31.715593 43.931182 -1.503469 0.764197 0.066319 -0.017939 -12537.100000 0 0 1
-2.854109 31.466946 31.781233 44.814746 -1.480342 0.782477 0.072481 -0.016606 -206935.000000 0 0 1
-2.453209 32.323746 32.976838 46.241915 -1.495047 0.776833 0.072472 -0.019924 -72197.800000 0 0 1
-1.336809 33.112846 32.637676 46.513069 -1.530447 0.793032 0.078423 -0.026365 -111132.000000 0 0 1
-0.663309 33.587246 33.804223 47.657828 -1.551050 0.782276 0.058222 -0.022678 -517338.000000 0 0 1
0.679191 34.212446 33.434442 47.841558 1.550947 0.796997 0.073953 -0.025071 -510934.000000 0 0 1
0.601391 -33.179413 32.844551 46.690467 -1.552673 0.790552 0.080542 -0.030869 573504.000000 0 0 1
1.933291 -32.878013 32.415773 46.211295 -1.512062 0.793340 0.063297 -0.037554 508310.000000 0 0 1
2.080091 -31.370713 32.127193 44.951140 -1.504586 0.774582 0.063983 -0.023693 -125570.000000 0 0 1
1.877691 -30.616213 33.274268 45.255444 -1.509543 0.744754 0.053929 -0.013442 130338.000000 0 0 1
2.114191 -29.246413 33.022733 44.162466 -1.498633 0.726121 0.048119 -0.031433 -123236.000000 0 0 1
1.791191 -28.368813 34.261423 44.517896 -1.507741 0.692566 0.045785 -0.029915 795385.000000 0 0 1
0.407191 -28.033913 -34.126356 44.166438 -1.556272 2.453843 0.025407 -0.023720 709041.000000 0 0 1
0.185291 -27.490213 -32.816890 42.809981 -1.564056 2.444281 0.023755 -0.016887 96097.600000 0 0 1
-1.266109 -26.984813 -32.661480 42.385793 1.523911 2.450541 0.041827 -0.014238 28847.300000 0 0 1
-1.577709 -26.576113 -31.364530 41.140159 1.511500 2.437783 0.050254 -0.009390 1195930.000000 0 0 1
-2.920009 -26.020513 -31.481600 40.947341 1.459044 2.447808 0.057939 -0.023984 1278130.000000 0 0 1
-3.555809 -25.568513 -30.133250 39.678778 1.432613 2.433233 0.058262 -0.023815 -238372.000000 0 0 1
-4.134609 -26.580213 -29.332280 39.799314 1.416481 2.399424 0.050434 -0.015962 60733.800000 0 0 1
-4.618009 -26.109913 -28.074680 38.616593 1.395739 2.384755 0.060826 -0.016988 -440420.000000 0 0 1
-3.551809 -25.754113 -27.062280 37.526746 1.433749 2.376252 0.065643 -0.021412 -563600.000000 0 0 1
-3.045609 -24.493913 -27.283040 36.791192 1.447090 2.406196 0.064804 -0.019968 -508391.000000 0 0 1
-1.894809 -24.255513 -26.528220 35.995370 1.492836 2.399402 0.063214 -0.022863 -924903.000000 0 0 1
-1.038609 -23.197913 -27.213790 35.774464 1.526055 2.435194 0.065631 -0.019465 109495.000000 0 0 1
-0.377709 -23.564913 -28.451030 36.944674 1.554769 2.449792 0.041823 -0.027625 519655.000000 0 0 1
0.841391 -24.278213 -28.336070 37.323886 -1.536154 2.432870 0.030414 -0.019368 97079.800000 0 0 1
1.609291 -24.725713 -29.590570 38.594722 -1.505802 2.444481 0.019593 -0.020237 545290.000000 0 0 1
2.505991 -23.736313 -30.117640 38.428698 -1.465610 2.471442 0.026196 -0.020316 148245.000000 0 0 1
3.245991 -24.165113 -31.213310 39.607574 -1.437270 2.478454 0.019123 -0.017686 -266680.000000 0 0 1
4.543391 -23.331913 -31.522380 39.480135 -1.378475 2.495490 0.028667 -0.028446 186306.000000 0 0 1
5.606691 -23.340113 -30.572990 38.870343 -1.335046 2.475979 0.026289 -0.020570 483309.000000 0 0 1
6.304791 -24.568213 -30.453400 39.632778 -1.319593 2.447117 0.036529 -0.013356 -286293.000000 0 0 1
7.191191 -25.037413 -31.662750 41.001403 -1.291107 2.453149 0.052835 -0.012905 -517427.000000 0 0 1
6.451991 -25.481913 -32.803420 42.035942 -1.322809 2.466047 0.017229 -0.015673 113277.000000 0 0 1
7.006591 -25.183513 -34.109582 42.974007 -1.299438 2.487706 0.038152 -0.015400 -84516.700000 0 0 1
6.532291 -23.852813 33.897360 41.960202 -1.303492 0.630309 0.047232 -0.015220 78146.900000 0 0 1
5.132991 -23.873713 33.679325 41.600466 -1.359014 0.627343 0.045602 -0.019941 88293.700000 0 0 1
4.678491 -22.625013 33.216882 40.461596 -1.366886 0.607726 0.074602 -0.022205 -86577.600000 0 0 1
3.249691 -22.231013 33.645022 40.456965 -1.425646 0.588769 0.056993 -0.028097 700485.000000 0 0 1
2.180391 -22.986513 33.040839 40.309192 -1.476224 0.609935 0.051121 -0.034820 459566.000000 0 0 1
1.597491 -23.911513 33.947547 41.554163 -1.504087 0.614699 0.041844 -0.028024 -98503.600000 0 0 1
0.263591 -24.458213 33.402153 41.400211 -1.560020 0.632062 0.042617 -0.030086 -149939.000000 0 0 1
0.369391 -25.265113 32.230023 40.954082 -1.556177 0.664898 0.055024 -0.031359 439626.000000 0 0 1
-0.879609 -25.855813 31.805103 40.998310 1.536790 0.682868 0.056021 -0.041286 678606.000000 0 0 1
-0.774809 -26.998413 30.748463 40.926552 1.542106 0.720754 0.060628 -0.044574 -63142.000000 0 0 1
-2.034609 -27.342713 30.213163 40.799496 1.496522 0.736941 0.064802 -0.038544 105353.000000 0 0 1
-2.053509 -28.567713 29.543683 41.148030 1.499038 0.769893 0.072605 -0.032111 641768.000000 0 0 1
-3.464209 -28.730513 28.863443 40.872258 1.450800 0.786699 0.076959 -0.023337 665012.000000 0 0 1
-4.523209 -29.004913 29.750613 41.795256 1.416096 0.778713 0.079216 -0.025366 -205973.000000 0 0 1
-5.663109 -29.332713 28.993793 41.630745 1.380078 0.800356 0.066803 -0.019133 350777.000000 0 0 1
-6.960009 -29.454113 29.877123 42.527979 1.338753 0.791852 0.041726 -0.011840 103451.000000 0 0 1
-8.115109 -29.821113 29.153693 42.486370 1.305104 0.814559 0.050823 -0.003372 -80814.800000 0 0 1
-9.254309 -30.081213 29.935883 43.435915 1.272341 0.810417 0.043831 -0.002519 -340162.000000 0 0 1
-9.269009 -31.264913 30.920473 44.938681 1.282584 0.811985 0.031569 -0.006957 -924744.000000 0 0 1
-9.312709 -32.590913 30.336453 45.488401 1.292468 0.840749 0.050427 -0.008517 751675.000000 0 0 1
-10.601109 -32.931813 29.809003 45.666887 1.259361 0.859589 0.024100 -0.002572 293563.000000 0 0 1
-10.630809 34.308346 29.225553 46.305612 -1.270318 0.887768 0.051855 -0.001926 -430992.000000 0 0 1
-10.791009 33.342846 30.283933 46.317469 -1.257797 0.858156 0.037206 0.000502 204459.000000 0 0 1
-10.133709 32.141246 29.990033 45.112680 -1.265375 0.843596 0.055172 -0.004969 -153720.000000 0 0 1
-10.490209 30.995846 30.973013 45.056792 -1.244458 0.812863 0.060303 0.006678 321773.000000 0 0 1
-11.829309 30.538246 30.820363 44.971233 -1.201233 0.815733 0.048095 0.012846 199246.000000 0 0 1
-12.197209 29.398946 31.535403 44.805710 -1.177523 0.790028 0.055654 0.004969 46745.800000 0 0 1
-12.312709 29.470346 33.090647 45.990163 -1.175040 0.767692 0.060584 -0.003521 -512932.000000 0 0 1
-13.485309 30.042046 33.594465 47.042175 -1.148873 0.775409 0.062034 0.009902 -68277.300000 0 0 1
-13.537009 29.812846 -33.593960 46.910666 -1.144566 2.369033 0.070062 0.004666 241021.000000 0 0 1
-14.847909 30.284246 -32.901760 47.118168 -1.114951 2.343791 0.065675 0.004184 194428.000000 0 0 1
-15.103709 29.677746 -31.669210 45.954646 -1.100035 2.331099 0.067843 -0.004156 -613314.000000 0 0 1
-16.266309 30.157646 -31.081300 46.261470 -1.076146 2.307515 0.061620 -0.002722 -392634.000000 0 0 1
-16.441609 29.403446 -29.760870 44.951068 -1.060938 2.294377 0.073628 -0.010162 -98231.700000 0 0 1
-16.688709 28.016046 -29.821820 44.189963 -1.033556 2.311565 0.075469 -0.017970 134635.000000 0 0 1
-16.702109 27.644246 -28.486520 43.065608 -1.027309 2.293571 0.072973 -0.017124 23098.900000 0 0 1
-17.249609 26.176246 -28.204310 42.169040 -0.988135 2.303443 0.039174 -0.022672 1118940.000000 0 0 1
-18.664109 26.050546 -28.435700 42.843540 -0.949110 2.296565 0.040788 -0.018814 966179.000000 0 0 1
-19.241309 24.791346 -28.079250 42.110368 -0.910781 2.300705 0.022114 -0.018191 722213.000000 0 0 1
-20.761909 24.608746 -28.377940 42.918000 -0.869983 2.293231 0.038870 -0.014234 519226.000000 0 0 1
-21.646009 25.342646 -27.545170 43.238129 -0.863907 2.261471 0.028116 -0.010145 782104.000000 0 0 1
-22.999009 25.069446 -27.929260 44.016759 -0.828444 2.258176 0.022450 -0.016164 1200550.000000 0 0 1
-24.151709 25.244146 -26.892890 44.088542 -0.807511 2.226825 0.039317 -0.021791 492041.000000 0 0 1
-24.287809 26.555946 -26.319440 44.585074 -0.829979 2.202251 0.016806 0.002884 251750.000000 0 0 1
-25.380689 26.664446 -25.399160 44.724595 -0.810059 2.174750 0.022850 0.015754 430985.000000 0 0 1
-25.242459 25.957746 -24.003610 43.441450 -0.799368 2.156218 0.023920 0.013628 -447480.000000 0 0 1
-25.135359 24.525046 -24.018810 42.546062 -0.773109 2.170668 0.019438 0.005521 583303.000000 0 0 1
-26.352639 23.806046 -23.685910 42.687372 -0.734671 2.159002 0.017605 0.004055 607441.000000 0 0 1
-26.853219 23.836846 -22.251310 42.242294 -0.725962 2.125574 0.017969 0.003513 -43612.800000 0 0 1
-26.005719 23.273246 -21.251010 40.860089 -0.730006 2.117755 0.014301 -0.000074 1058130.000000 0 0 1
-24.941609 24.176646 -20.805710 40.490390 -0.769826 2.110455 0.026342 0.002931 1343090.000000 0 0 1
-24.018809 23.658946 -19.614510 39.004845 -0.777850 2.097717 0.036054 -0.002406 506097.000000 0 0 1
-24.645809 23.604346 -18.315010 38.730100 -0.763817 2.063362 0.037801 -0.005540 735375.000000 0 0 1
-23.703409 23.330246 -17.245610 37.464157 -0.777464 2.049155 0.037116 -0.009346 224524.000000 0 0 1
-24.329209 23.490946 -15.906110 37.372976 -0.767870 2.010426 0.028980 -0.010050 -270768.000000 0 0 1
-24.574309 24.816046 -15.515010 38.215813 -0.790293 1.988852 0.028486 -0.015542 -141394.000000 0 0 1
-24.961509 24.789046 -14.154710 37.920042 -0.781932 1.953336 0.005351 -0.017277 20565.300000 0 0 1
-25.046569 26.164946 -13.540710 38.668926 -0.807233 1.928549 0.014999 -0.018076 435402.000000 0 0 1
-23.790809 26.791846 -13.320710 38.226260 -0.844658 1.926735 0.017109 -0.017140 42937.500000 0 0 1
-23.898009 27.755746 -12.264710 38.625372 -0.859944 1.893920 0.019875 -0.013376 -465382.000000 0 0 1
-22.539209 28.315046 -11.849610 38.081111 -0.898490 1.887218 0.020755 -0.009319 -857412.000000 0 0 1
-21.700609 27.262046 -11.506410 36.695137 -0.898499 1.889744 0.026610 -0.013907 -16843.300000 0 0 1
-20.675109 27.694346 -10.601610 36.150119 -0.929509 1.868438 0.010675 -0.006022 122869.000000 0 0 1
-19.791809 26.570546 -10.037210 34.618712 -0.930582 1.864956 0.036402 -0.007498 376079.000000 0 0 1
-19.008909 25.858946 -11.026110 33.935215 -0.936900 1.901720 0.033309 -0.003797 278871.000000 0 0 1
-18.486709 24.692446 -10.492910 32.581843 -0.928141 1.898688 0.038037 0.001906 -442365.000000 0 0 1
-17.975109 23.762646 -11.524110 31.946408 -0.923184 1.939850 0.043698 0.001534 -181514.000000 0 0 1
-17.562309 22.535346 -10.998410 30.614401 -0.908791 1.938267 0.039065 0.005723 -41693.100000 0 0 1
-16.979109 21.655446 -11.897410 29.979941 -0.905852 1.978874 0.049107 0.005205 -90159.500000 0 0 1
-16.918309 20.166046 -11.467910 28.712568 -0.872752 1.981663 0.039064 0.003792 -882387.000000 0 0 1
-18.111809 19.502046 -11.300710 28.914935 -0.822342 1.972325 0.035589 0.007973 -814280.000000 0 0 1
-17.912809 18.171846 -10.724410 27.678470 -0.792577 1.968675 0.053381 -0.002077 -25239.200000 0 0 1
-19.199409 17.332646 -10.937810 28.083333 -0.734343 1.970860 0.055829 -0.003396 138235.000000 0 0 1
-19.524009 16.930546 -12.286110 28.614311 -0.714375 2.014591 0.042101 0.005210 200126.000000 0 0 1
-19.998409 17.877646 -13.236110 29.912225 -0.729464 2.029179 0.039557 0.015980 -341165.000000 0 0 1
-20.692509 17.273646 -14.445410 30.581508 -0.695590 2.062760 0.032586 0.012674 219067.000000 0 0 1
-19.777909 16.781246 -15.434610 30.182828 -0.703613 2.107575 0.034701 0.017508 530089.000000 0 0 1
-20.437309 16.297346 -16.589410 30.959580 -0.673173 2.136300 0.032510 0.011252 713248.000000 0 0 1
-19.375809 16.194746 -17.766010 30.875927 -0.696206 2.183890 0.046208 0.004570 609029.000000 0 0 1
-19.024409 17.470646 -18.255110 31.629111 -0.742849 2.186045 0.036564 0.003459 268126.000000 0 0 1
-18.066509 17.238746 -19.285910 31.551853 -0.761957 2.228429 0.036364 0.009501 165438.000000 0 0 1
-17.374609 18.601646 -19.717910 32.197737 -0.819492 2.229890 0.025499 0.013210 383419.000000 0 0 1
-16.432309 19.205246 -18.827910 31.517494 -0.863051 2.211026 0.022249 0.017081 638744.000000 0 0 1
-15.813709 20.393446 -19.362110 32.262321 -0.911217 2.214480 0.025376 0.000509 253896.000000 0 0 1
32.821346 31.047546 2.012590 45.224345 0.757633 1.526279 0.043760 -0.016847 121221.000000 0 0 1
34.108566 30.968946 1.434390 46.092596 0.737191 1.539672 0.048652 -0.011638 250963.000000 0 0 1
34.058286 31.441146 0.077690 46.352115 0.745463 1.569120 0.041388 -0.013659 513241.000000 0 0 1
35.464716 31.408046 -0.596510 47.376864 0.724810 1.583387 0.028368 -0.007092 601351.000000 0 0 1
-35.535698 32.318246 -0.129810 48.034068 -0.738016 1.573499 0.017265 -0.003121 210282.000000 0 0 1
-34.250473 32.176946 -0.705410 46.999451 -0.754193 1.585806 0.016069 -0.006415 331323.000000 0 0 1
-33.243089 33.239146 -0.210810 47.010512 -0.785339 1.575281 -0.005351 -0.004172 -26810.400000 0 0 1
-32.871509 33.147646 1.183990 46.698013 -0.789581 1.545439 0.004132 -0.004538 71481.300000 0 0 1
-32.100189 34.248846 1.604090 46.967848 -0.817771 1.536637 0.001364 -0.007069 -551627.000000 0 0 1
-31.559019 33.991046 3.028890 46.481578 -0.822483 1.505587 -0.000812 0.007572 -233814.000000 0 0 1
-31.020379 -33.522913 3.545790 45.810722 0.824152 1.493318 0.011461 0.009700 -338582.000000 0 0 1
-30.407019 -33.754813 4.760990 45.679769 0.837528 1.466381 0.025364 -0.001504 -387043.000000 0 0 1
-30.351739 -32.514113 5.680690 44.840449 0.819781 1.443768 0.032085 -0.000957 966208.000000 0 0 1
-31.596099 -32.006713 6.218390 45.402770 0.791854 1.433404 0.023963 -0.001824 951154.000000 0 0 1
-32.140889 -32.711413 7.354490 46.445256 0.794195 1.411780 0.035538 -0.011687 -1283700.000000 0 0 1
-33.327999 -32.067213 8.042290 46.944011 0.766121 1.398630 0.056283 -0.006758 1171850.000000 0 0 1
-34.568483 -31.904213 7.276190 47.600439 0.745339 1.417335 0.035656 0.000328 1280710.000000 0 0 1
-35.204115 -33.125713 6.944190 48.835073 0.754990 1.428116 0.019594 -0.001372 -1961130.000000 0 0 1
35.250286 -32.985013 6.845690 48.759176 -0.752212 1.429933 0.019843 0.008507 -1132990.000000 0 0 1
34.655146 -33.145813 8.092990 48.632505 -0.763141 1.403607 0.017294 0.014642 -396885.000000 0 0 1
33.361286 -32.603513 8.009090 47.329800 -0.773911 1.400759 -0.017801 0.019978 -812534.000000 0 0 1
32.557896 -33.029113 9.215490 47.284925 -0.792583 1.374648 -0.023703 0.011449 -471506.000000 0 0 1
31.216046 -32.601313 9.077790 46.040129 -0.807102 1.372325 -0.020098 0.001222 217391.000000 0 0 1
30.450196 -32.643613 10.269490 45.807012 -0.820149 1.344684 -0.009164 -0.001607 -51573.900000 0 0 1
30.599786 -31.383913 11.260590 45.255915 -0.798048 1.319334 -0.011462 0.001468 -47374.300000 0 0 1
30.081376 -30.083013 10.807990 43.894072 -0.785425 1.322009 -0.011988 -0.005189 539237.000000 0 0 1
30.715556 -29.570013 9.625890 43.709139 -0.766399 1.348750 0.000085 -0.008519 87913.600000 0 0 1
30.044226 -28.220913 9.223290 42.239135 -0.754115 1.350664 0.007646 -0.015236 -69802.400000 0 0 1
30.315266 -27.742613 7.932090 41.851953 -0.741115 1.380116 0.014733 -0.015294 -247697.000000 0 0 1
29.742756 -26.493713 7.799590 40.587954 -0.727688 1.377428 0.013130 -0.012843 -292542.000000 0 0 1
29.746676 -25.867813 6.399090 39.936911 -0.715765 1.409873 0.004594 -0.002803 393688.000000 0 0 1
31.069586 -25.588513 5.976090 40.691582 -0.688959 1.423400 0.024883 -0.006309 -119967.000000 0 0 1
31.068306 -25.040313 4.636390 40.171545 -0.678374 1.455124 0.024438 -0.006438 639552.000000 0 0 1
32.471936 -24.714313 4.011990 41.003902 -0.650566 1.472795 0.033761 -0.006621 670713.000000 0 0 1
33.249786 -25.859813 3.762390 42.289878 -0.661022 1.481712 0.021653 -0.001786 -804742.000000 0 0 1
34.538616 -25.512613 3.363590 43.071141 -0.636210 1.492623 0.022005 -0.005689 -690680.000000 0 0 1
35.447686 -26.729413 3.314590 44.519507 -0.646090 1.496275 0.019013 0.002012 -311716.000000 0 0 1
35.713926 -27.297513 4.561890 45.182404 -0.652615 1.469658 0.004746 0.002190 -178084.000000 0 0 1
35.940035 -28.704113 4.373290 46.203224 -0.673927 1.476001 -0.000679 -0.000006 -552523.000000 0 0 1
35.499156 -29.567813 5.626990 46.541473 -0.694492 1.449597 0.008965 0.010145 754156.000000 0 0 1
34.156366 -30.047813 5.725290 45.850926 -0.721493 1.445602 -0.006090 0.024811 -90023.000000 0 0 1
33.213386 -29.059913 6.005790 44.538490 -0.718799 1.435539 -0.006929 0.018018 -1459380.000000 0 0 1
31.837136 -29.596813 5.686390 43.839590 -0.748947 1.440721 0.001098 0.010630 -1257820.000000 0 0 1
31.742996 -29.673013 4.259790 43.660638 -0.751707 1.473075 0.006107 0.003244 -152786.000000 0 0 1
30.635866 -28.983013 3.760590 42.340446 -0.757682 1.481861 0.023174 0.001847 564172.000000 0 0 1
29.236716 -29.707113 3.769990 41.851057 -0.793378 1.480593 0.025489 -0.001859 645387.000000 0 0 1
29.181736 -30.835013 2.951590 42.556828 -0.812938 1.501384 0.031851 -0.007138 -209714.000000 0 0 1
28.060176 -31.574113 3.378990 42.375886 -0.844255 1.490973 0.060282 -0.014506 35964.100000 0 0 1
28.231976 -33.056213 2.980690 43.573412 -0.863950 1.502337 0.058233 -0.017552 -200729.000000 0 0 1
28.058066 -33.293613 1.648990 43.571079 -0.870529 1.532941 0.063764 -0.021269 127892.000000 0 0 1
28.064466 34.036046 1.248390 44.131906 0.881263 1.542505 0.055329 -0.017588 -190991.000000 0 0 1
27.666256 34.019146 -0.270610 43.849712 0.888025 1.576968 0.054611 -0.021287 32930.900000 0 0 1
28.660996 -34.216313 -1.181010 44.649788 -0.873521 1.597250 0.058123 -0.021510 34322.700000 0 0 1
28.109326 -33.851113 -2.425210 44.067150 -0.877803 1.625859 0.050621 -0.016816 -558361.000000 0 0 1
29.090016 -33.446913 -3.520610 44.467064 -0.854955 1.650053 0.064477 -0.022404 -373667.000000 0 0 1
29.645506 -32.147513 -3.330710 43.856724 -0.825866 1.646815 0.042949 -0.023191 -345541.000000 0 0 1
30.589126 -31.935013 -4.322710 44.432258 -0.806921 1.668238 0.060671 -0.033581 -158539.000000 0 0 1
31.038796 -30.430713 -4.393010 43.689057 -0.775506 1.671518 0.045314 -0.020611 249150.000000 0 0 1
29.884716 -29.702413 -4.810610 42.408390 -0.782339 1.684476 0.039760 -0.025696 628756.000000 0 0 1
30.057746 -28.303013 -4.852810 41.570163 -0.755340 1.687801 0.034171 -0.027167 222066.000000 0 0 1
31.028056 -27.689413 -5.914210 42.005021 -0.728600 1.712063 0.045303 -0.024532 -112808.000000 0 0 1
32.390136 -27.924413 -5.685210 43.141806 -0.711492 1.702960 0.048305 -0.020753 -177637.000000 0 0 1
33.284876 -27.435213 -6.679810 43.648525 -0.689356 1.724436 0.045553 -0.019825 258665.000000 0 0 1
33.441026 -28.252913 -7.996910 44.502583 -0.701501 1.751473 0.039257 -0.016849 -363412.000000 0 0 1
32.309266 -28.142713 -8.868710 43.755628 -0.716584 1.774898 0.031894 -0.014549 384200.000000 0 0 1
31.908966 -29.290213 -9.637510 44.373194 -0.742634 1.789733 0.033681 -0.009244 285790.000000 0 0 1
31.752886 -30.680513 -8.934510 45.048475 -0.768224 1.770451 0.046003 -0.007308 -398505.000000 0 0 1
32.998176 -31.303413 -8.740510 46.316086 -0.759048 1.760649 0.044824 -0.009576 -352296.000000 0 0 1
32.830466 -32.518213 -8.025310 46.900739 -0.780620 1.742755 0.052228 -0.021615 -213928.000000 0 0 1
34.186446 -33.217113 -7.875210 48.312614 -0.771018 1.734532 0.036654 -0.015433 -67420.000000 0 0 1
34.129916 34.304246 -7.138210 48.914073 0.787946 1.717253 0.035647 -0.018366 -192445.000000 0 0 1
33.995916 -34.201113 -5.739110 48.563112 -0.788407 1.689252 0.028352 -0.015907 -360033.000000 0 0 1
33.945326 33.129546 -5.049510 47.700624 0.773237 1.676853 0.031064 -0.017364 -776636.000000 0 0 1
32.805086 32.419446 -5.427710 46.439791 0.779486 1.687940 0.055070 -0.026325 -320545.000000 0 0 1
32.810096 31.079546 -4.915010 45.459849 0.758318 1.679126 0.039464 -0.013724 152109.000000 0 0 1
31.516336 30.318846 -5.282110 44.050114 0.766035 1.690997 0.057794 -0.018291 122653.000000 0 0 1
31.286276 30.203646 -6.621410 43.987889 0.767793 1.721899 0.045814 -0.010923 -787221.000000 0 0 1
30.056536 29.613946 -6.867410 42.749766 0.777981 1.732137 0.023588 0.007388 -458517.000000 0 0 1
29.726646 29.420846 -8.382610 42.655924 0.780228 1.768601 0.028471 0.005299 -25635.900000 0 0 1
30.187366 28.189946 -8.879910 42.246928 0.751196 1.782566 0.029016 0.002373 33999.200000 0 0 1
30.306596 28.115946 -10.342810 42.614198 0.747919 1.815953 0.019194 0.005991 1029580.000000 0 0 1
31.651316 28.649546 -10.990710 44.083988 0.735659 1.822767 0.031595 0.002830 798094.000000 0 0 1
32.851006 28.003146 -10.592710 44.447388 0.705902 1.811432 0.021551 -0.002187 972468.000000 0 0 1
34.100726 28.541946 -11.011310 45.812129 0.696892 1.813531 0.025180 -0.007853 582370.000000 0 0 1
34.484666 29.965146 -10.515310 46.879355 0.715388 1.797027 0.032279 -0.021260 -835545.000000 0 0 1
35.191266 29.964846 -9.277910 47.142304 0.705356 1.768896 0.041663 -0.013553 325247.000000 0 0 1
35.243776 31.282646 -8.768010 47.933346 0.725926 1.754753 0.028241 -0.019328 131117.000000 0 0 1
-35.577864 31.385846 -7.678610 48.060553 -0.722878 1.731253 0.029313 -0.012347 1055160.000000 0 0 1
-34.220851 31.545246 -8.030410 47.229828 -0.744737 1.741655 0.040628 -0.015948 219073.000000 0 0 1
-33.523829 30.480646 -8.619310 46.121680 -0.737888 1.758784 0.042050 -0.018955 -811035.000000 0 0 1
-32.115849 30.801146 -9.134610 45.426638 -0.764505 1.773262 0.050297 -0.016493 -1091930.000000 0 0 1
-31.332049 30.958846 -7.980510 44.764227 -0.779407 1.750033 0.039963 -0.004740 -156190.000000 0 0 1
-29.984249 31.345946 -8.198610 44.145676 -0.807597 1.757598 0.043477 -0.021417 181720.000000 0 0 1
-29.737549 32.767246 -8.826010 45.121089 -0.833832 1.767673 -0.001126 -0.006623 -799143.000000 0 0 1
-29.814659 33.867046 -7.988310 45.822525 -0.848948 1.746023 -0.029839 0.008267 -199888.000000 0 0 1
-28.736039 34.039446 -7.091410 45.108003 -0.869680 1.728661 -0.021447 0.011485 -95261.800000 0 0 1
-28.785469 -33.237613 -6.444010 44.439481 0.857057 1.716316 -0.031063 0.023527 468635.000000 0 0 1
-29.835269 -33.016013 -5.465010 44.833768 0.835962 1.692995 -0.026210 0.015944 477634.000000 0 0 1
-29.614869 -33.628613 -4.212910 45.007474 0.848778 1.664538 -0.033613 0.007545 469111.000000 0 0 1
-30.947159 -33.549913 -3.395910 45.769592 0.825731 1.645060 -0.008830 0.008056 355090.000000 0 0 1
-31.246699 -32.196613 -3.112310 44.974044 0.800370 1.640054 0.005221 0.012737 -158436.000000 0 0 1
-32.148899 -32.249213 -2.015010 45.580958 0.786956 1.615018 0.004571 0.009690 150467.000000 0 0 1
-32.939869 -30.906513 -1.854710 45.207162 0.753561 1.611835 0.015377 0.006724 297653.000000 0 0 1
-34.016329 -30.963913 -0.932710 46.008092 0.738458 1.591070 0.010360 0.008297 -74897.900000 0 0 1
-34.584001 -29.700213 -0.813410 45.594051 0.709572 1.588638 0.025461 0.001239 -159432.000000 0 0 1
-35.606856 -29.509313 0.337590 46.246748 0.692029 1.563497 0.023689 -0.002713 632143.000000 0 0 1
35.146596 -30.273413 0.198190 46.387520 -0.711045 1.566524 0.007751 -0.006090 1450050.000000 0 0 1
33.966916 -30.029313 0.981790 45.348373 -0.723947 1.549145 0.010059 -0.008435 1242580.000000 0 0 1
33.276226 -28.626613 0.899090 43.904425 -0.710427 1.550317 0.013521 -0.003129 -1058220.000000 0 0 1
32.347246 -28.552613 -0.133910 43.146425 -0.723169 1.573900 0.020820 -0.005474 -221338.000000 0 0 1
31.809726 -27.207013 -0.103610 41.857986 -0.707566 1.573272 0.026543 -0.002882 -195674.000000 0 0 1
30.455366 -27.168913 -0.877610 40.822168 -0.728427 1.592296 0.024373 0.001656 276536.000000 0 0 1
29.324336 -27.622213 -0.154910 40.285572 -0.755517 1.574642 0.025678 -0.000722 275053.000000 0 0 1
29.219756 -29.043313 -0.189310 41.198835 -0.782370 1.575391 0.030447 -0.004108 -555561.000000 0 0 1
28.639486 -29.733313 -1.487210 41.309828 -0.804135 1.606805 0.050761 -0.022831 565901.000000 0 0 1
27.210316 -29.781913 -1.575510 40.371350 -0.830489 1.609832 0.047337 -0.009833 544498.000000 0 0 1
26.796556 -30.260813 -2.833110 40.519116 -0.846039 1.640774 0.041874 -0.016413 170706.000000 0 0 1
25.253856 -30.258213 -2.936310 39.521369 -0.875304 1.645162 0.016164 -0.015440 329030.000000 0 0 1
24.697456 -28.945113 -3.119110 38.177386 -0.864418 1.652588 0.029807 -0.004755 -5421.600000 0 0 1
23.309956 -29.077013 -3.333910 37.415795 -0.895042 1.660019 0.028584 -0.005842 -210596.000000 0 0 1
22.552856 -27.817313 -3.645710 35.996186 -0.889535 1.672251 0.024662 -0.007157 -288535.000000 0 0 1
22.455456 -27.471313 -5.029310 35.835939 -0.885526 1.711604 0.024944 -0.003040 107315.000000 0 0 1
21.983556 -26.155313 -5.109910 34.546900 -0.871843 1.719253 0.030785 -0.017135 -479139.000000 0 0 1
21.324056 -25.733713 -6.449610 34.037286 -0.878833 1.761436 0.039861 -0.039327 1268630.000000 0 0 1
19.942756 -26.180713 -6.519210 33.550609 -0.919827 1.766350 0.047037 -0.031989 1007000.000000 0 0 1
19.163556 -25.751813 -7.631610 32.994534 -0.931041 1.804209 0.070798 -0.030630 -852667.000000 0 0 1
17.726656 -26.119013 -7.427310 32.428415 -0.974518 1.801885 0.066071 -0.021639 -1151620.000000 0 0 1
17.059956 -25.223613 -6.571110 31.152083 -0.976121 1.783329 0.052651 -0.018719 282213.000000 0 0 1
15.656056 -25.441013 -6.503610 30.572115 -1.019140 1.785165 0.054943 -0.018040 265804.000000 0 0 1
14.956956 -24.575513 -5.498110 29.289855 -1.024068 1.759630 0.049175 -0.010850 -308777.000000 0 0 1
15.240456 -25.008713 -4.173510 29.582519 -1.023489 1.712349 0.046111 -0.011737 344151.000000 0 0 1
14.570556 -24.248813 -3.158610 28.465468 -1.029732 1.681988 0.047273 -0.008745 94336.700000 0 0 1
14.646856 -24.970013 -1.829510 29.006535 -1.040305 1.633911 0.052373 -0.007998 -106457.000000 0 0 1
14.042456 -26.237713 -1.763410 29.811370 -1.079386 1.629983 0.054468 -0.010906 306099.000000 0 0 1
14.675556 -27.110213 -0.833210 30.838772 -1.074634 1.597818 0.049347 -0.013901 -4679.730000 0 0 1
14.093356 -28.491213 -1.183210 31.808362 -1.111433 1.608003 0.051941 -0.015805 216477.000000 0 0 1
12.776456 -28.791913 -0.783210 31.509134 -1.153151 1.595655 0.056533 -0.021714 -156364.000000 0 0 1
12.227656 -30.060713 -1.127210 32.472029 -1.184471 1.605517 0.059788 -0.018622 30400.800000 0 0 1
12.942156 -31.374913 -0.650610 33.945661 -1.179561 1.589964 0.051040 -0.011631 -104955.000000 0 0 1
14.146356 -31.605613 -1.351010 34.653418 -1.149948 1.609793 0.044958 -0.010312 -439792.000000 0 0 1
14.789056 -32.763513 -0.917410 35.958387 -1.146789 1.596312 0.043063 -0.008851 138025.000000 0 0 1
16.206456 -32.857813 -1.571910 36.670915 -1.112579 1.613675 0.038318 -0.003221 1161680.000000 0 0 1
17.090356 -31.787313 -1.080210 36.106515 -1.077487 1.600718 0.032148 0.002704 223783.000000 0 0 1
18.288756 -31.665113 -1.772410 36.610100 -1.047034 1.619228 0.020488 0.001303 -883197.000000 0 0 1
19.226956 -30.599713 -1.247310 36.160394 -1.009800 1.605297 0.018783 0.001873 -381293.000000 0 0 1
18.906456 -29.288513 -1.668210 34.900631 -0.997574 1.618613 0.012932 -0.005838 173953.000000 0 0 1
19.154856 -28.460513 -0.560610 34.310692 -0.978399 1.587136 0.012081 0.002451 -309311.000000 0 0 1
18.549356 -27.051213 -0.726010 32.808137 -0.969724 1.592927 0.015251 0.001688 -439638.000000 0 0 1
19.167156 -26.161713 -1.655210 32.473910 -0.938498 1.621789 0.012993 -0.008432 18284.900000 0 0 1
18.794256 -26.372013 -2.994010 32.521858 -0.951625 1.662988 0.022812 -0.009752 -20039.300000 0 0 1
31.921306 -28.971913 13.915790 45.298905 -0.737001 1.258548 -0.012703 -0.016125 -285561.000000 0 0 1
32.804226 -29.689113 14.711690 46.626114 -0.735592 1.249787 0.011572 -0.009216 109126.000000 0 0 1
32.069556 -30.163313 15.844490 46.790274 -0.754777 1.225338 -0.007260 0.002291 -540214.000000 0 0 1
32.911826 -30.955113 16.828290 48.214092 -0.754770 1.214258 0.005157 0.004779 -51598.100000 0 0 1
32.146606 -31.499413 17.918590 48.442679 -0.775230 1.191903 -0.004354 0.004898 85500.500000 0 0 1
32.912396 -31.692813 19.040590 49.499538 -0.766523 1.175955 -0.005542 0.005241 -568526.000000 0 0 1
33.737996 -32.977213 19.247290 50.952990 -0.773995 1.183436 -0.002977 0.008923 523158.000000 0 0 1
34.814756 -33.095213 18.286590 51.398052 -0.760083 1.207044 0.015533 0.013396 518285.000000 0 0 1
35.383646 34.304846 18.301490 52.571565 0.769919 1.215226 0.033562 0.001659 24259.800000 0 0 1
-35.393842 34.120646 17.296090 52.116190 -0.767085 1.232505 0.060462 0.000575 16667.500000 0 0 1
-34.355611 -33.714413 17.682690 51.280086 0.775979 1.218743 0.068866 -0.002933 -248937.000000 0 0 1
-33.368849 -33.567913 16.672890 50.182369 0.788372 1.232113 0.082260 -0.002257 46196.100000 0 0 1
-32.231409 -32.590513 17.055290 48.906934 0.790938 1.214581 0.058198 -0.002936 130339.000000 0 0 1
-31.052189 -32.633113 16.262990 47.891997 0.810217 1.224330 0.071189 -0.006270 233331.000000 0 0 1
-31.149189 -31.835913 15.083590 47.024590 0.796301 1.244265 0.083695 -0.005506 -780811.000000 0 0 1
-29.983709 -32.066813 14.134790 46.120447 0.818957 1.259308 0.067662 -0.014129 -539418.000000 0 0 1
-28.790119 -31.552513 14.659690 45.159036 0.831145 1.240183 0.059365 -0.015789 -389876.000000 0 0 1
-27.730749 -31.658313 13.711690 44.263458 0.851435 1.255840 0.056861 -0.011501 92262.600000 0 0 1
-26.387989 -31.279613 14.336490 43.362139 0.870020 1.233833 0.061976 -0.023091 -322151.000000 0 0 1
-25.316829 -31.135413 13.440190 42.320143 0.888106 1.247616 0.059078 -0.015798 -108611.000000 0 0 1
-24.160809 -30.685113 14.155290 41.541463 0.903799 1.223081 0.038816 -0.015474 537125.000000 0 0 1
-22.938709 -30.398813 13.246690 40.320553 0.924363 1.236045 0.052506 -0.019860 145394.000000 0 0 1
-22.294309 -31.554813 12.761990 40.689198 0.955704 1.251766 0.055196 -0.018553 373977.000000 0 0 1
-21.057909 -31.238113 12.109690 39.571453 0.977659 1.259786 0.032662 -0.018561 272947.000000 0 0 1
-20.372509 -32.553313 11.808990 40.177227 1.011608 1.272468 0.037041 -0.014970 -544939.000000 0 0 1
-20.999409 -33.298413 10.820390 40.826956 1.008149 1.302561 0.037601 -0.010939 -97511.100000 0 0 1
-20.730709 34.040946 11.055890 41.361589 -1.023790 1.300208 0.024866 -0.006112 -327501.000000 0 0 1
-21.702109 33.219846 10.247590 40.982348 -0.992114 1.318066 0.018322 0.001003 -608301.000000 0 0 1
-21.547209 33.350746 8.842990 40.678655 -0.997183 1.351660 0.006359 0.005258 -94463.000000 0 0 1
-22.811209 33.256646 8.214790 41.156270 -0.969587 1.369847 0.009001 -0.003388 -121074.000000 0 0 1
-22.889609 33.814446 6.761690 41.389267 -0.975730 1.406693 0.018865 -0.004585 -515147.000000 0 0 1
-22.305809 33.077146 5.706290 40.301470 -0.977488 1.428729 0.005477 -0.009340 874311.000000 0 0 1
-20.876109 33.081146 5.531090 39.506545 -1.007853 1.430330 0.005481 -0.002393 847916.000000 0 0 1
-20.195609 -34.264613 5.118990 40.101501 1.038206 1.442796 0.015356 -0.000984 -463382.000000 0 0 1
-20.021209 -33.266813 6.116290 39.305708 1.029027 1.414553 0.011016 -0.005954 426649.000000 0 0 1
-19.146609 -33.612213 7.206090 39.348459 1.053005 1.386622 0.009180 -0.003418 -66293.700000 0 0 1
-19.074409 -32.487513 8.257990 38.567681 1.039893 1.355009 0.010275 -0.006711 -281046.000000 0 0 1
-18.356509 -31.353013 7.796490 37.158554 1.041123 1.359409 0.026939 -0.017253 -105303.000000 0 0 1
-18.209709 -30.232913 8.691590 36.347851 1.028677 1.329334 0.029980 -0.018021 159414.000000 0 0 1
-17.512809 -30.421113 10.028790 36.506428 1.048452 1.292505 0.009502 -0.013452 3014.740000 0 0 1
-16.184009 -30.899913 10.064990 36.304694 1.088325 1.289880 0.022315 -0.018478 -180973.000000 0 0 1
-15.667009 -30.807713 11.363490 36.382678 1.100339 1.253149 0.024751 -0.016059 110362.000000 0 0 1
-14.225709 -31.360013 11.495090 36.303696 1.144931 1.248614 0.034723 -0.013465 215141.000000 0 0 1
-13.251509 -30.646113 10.776690 35.084524 1.162671 1.258585 0.012910 -0.005014 -500095.000000 0 0 1
-12.168009 -31.478013 10.439790 35.325840 1.201933 1.270788 0.022674 -0.002338 -376095.000000 0 0 1
-11.036909 -30.674913 9.807990 34.043507 1.225416 1.278552 0.035880 0.005734 165572.000000 0 0 1
-10.370609 -29.780213 10.748990 33.315934 1.235692 1.242281 0.035090 -0.001202 -655768.000000 0 0 1
-9.271309 -29.095213 10.292390 32.224554 1.262315 1.245704 0.037107 -0.003195 -622549.000000 0 0 1
-8.550009 -28.432913 11.460490 31.825714 1.278690 1.202420 0.033674 0.003270 -322613.000000 0 0 1
-9.300009 -27.510113 12.188890 31.493897 1.244800 1.173395 0.035466 -0.003541 -688907.000000 0 0 1
-8.734509 -27.333313 13.432990 31.683543 1.261497 1.132968 0.036703 0.005764 -135017.000000 0 0 1
-9.289809 -26.069813 14.175290 31.094607 1.228481 1.097440 0.041376 -0.004447 305696.000000 0 0 1
-9.019609 -24.832913 13.551590 29.692971 1.222400 1.096862 0.037326 0.000020 65184.000000 0 0 1
-9.903209 -24.558213 12.473490 29.270588 1.187488 1.130570 0.036743 0.002217 250716.000000 0 0 1
-9.376409 -23.337413 11.666690 27.724783 1.188760 1.136465 0.029518 0.002507 67103.900000 0 0 1
-8.200809 -23.512213 10.924490 27.192314 1.235200 1.157370 0.026418 0.007078 -251567.000000 0 0 1
-7.701509 -22.220913 10.564590 25.781637 1.237164 1.148592 0.016964 0.011077 -215570.000000 0 0 1
-6.568109 -22.098913 9.550890 24.954389 1.281897 1.178043 0.018709 0.014691 -947519.000000 0 1 0
-5.372309 -22.566213 10.048590 25.279831 1.337078 1.162012 0.026962 0.005325 -1308560.000000 0 0 1
-4.352609 -22.354413 9.107290 24.527693 1.378493 1.190381 0.024697 0.002604 -26124.500000 0 1 0
-3.002409 -23.016913 9.469090 25.069033 1.441085 1.183463 0.034778 -0.008571 -89431.100000 0 0 1
-2.402909 -22.435613 10.572390 24.917988 1.464101 1.132621 0.032390 -0.008145 -1047610.000000 0 1 0
-1.300809 -23.226713 10.881590 25.682315 1.514850 1.133270 0.040979 -0.015212 -11506.200000 0 0 1
-0.319709 -22.570613 11.911090 25.522713 1.556632 1.085256 0.031553 -0.014146 299095.000000 0 0 1
-0.902009 -22.357313 13.227490 25.992875 1.530473 1.036903 0.029330 -0.009847 823323.000000 0 0 1
0.125191 -22.196813 14.245690 26.375251 -1.565156 1.000222 0.037393 -0.008690 417437.000000 0 0 1
0.814191 -20.871213 14.306090 25.316687 -1.531806 0.970260 0.035026 -0.012870 -751085.000000 0 0 1
1.667391 -20.693513 13.220390 24.612607 -1.490394 1.003755 0.034878 -0.024065 -693741.000000 0 1 0
2.068291 -19.338813 13.187890 23.498680 -1.464251 0.974939 0.029038 -0.021699 502557.000000 0 1 0
3.569991 -19.340713 12.727990 23.426689 -1.388267 0.996420 0.029434 -0.015613 734293.000000 0 1 0
3.719891 -19.809913 11.390390 23.151917 -1.385179 1.056428 0.032601 -0.014518 -1647890.000000 0 1 0
5.062191 -19.999713 11.193190 23.471298 -1.322890 1.073685 0.037253 -0.013793 -1048000.000000 0 1 0
5.330091 -21.032513 10.080590 23.924773 -1.322600 1.135868 0.045275 -0.018687 -377126.000000 0 1 0
5.335091 -20.476213 8.800590 22.917000 -1.315913 1.176650 0.044705 -0.019112 -507595.000000 0 1 0
5.632891 -21.363313 7.737290 23.409107 -1.312993 1.233937 0.046031 -0.020797 -61109.600000 0 1 0
7.065691 -21.982913 7.541790 24.290967 -1.259808 1.255101 0.033312 -0.009345 1001580.000000 0 1 0
8.060191 -21.157213 6.878190 23.662288 -1.206805 1.275857 0.036427 -0.021494 439305.000000 0 1 0
8.447491 -19.996213 7.556790 22.985076 -1.171084 1.235796 0.040130 -0.015894 -290286.000000 0 1 0
9.317691 -20.133913 8.843790 23.883183 -1.137361 1.191471 0.045030 -0.010890 264407.000000 0 1 0
8.533891 -20.386913 9.995590 24.256244 -1.174362 1.146057 0.050028 -0.010445 -617280.000000 0 1 0
9.290891 -20.069813 11.134990 24.760979 -1.137243 1.104368 0.051764 -0.003694 -205748.000000 0 1 0
8.642891 -20.142013 12.501190 25.232519 -1.165460 1.052455 0.057134 0.002431 -330504.000000 0 0 1
8.495591 -21.464113 12.984690 26.485570 -1.193912 1.058414 0.048027 -0.006333 -144340.000000 0 0 1
7.717491 -21.501013 14.150790 26.871883 -1.226183 1.016198 0.060787 -0.007290 118644.000000 0 0 1
8.048291 -22.814913 14.933090 28.430484 -1.231661 1.017788 0.062486 -0.004644 389533.000000 0 0 1
7.580491 -24.014213 14.338190 28.978095 -1.265029 1.053198 0.066692 -0.003080 -274289.000000 0 0 1
8.261291 -25.096513 14.933190 30.349367 -1.252788 1.056362 0.070732 -0.007042 354978.000000 0 0 1
7.933691 -26.449313 14.304290 31.098591 -1.279378 1.092840 0.080956 -0.014466 47546.800000 0 0 1
8.911291 -26.605413 13.321190 31.059833 -1.247598 1.127535 0.068799 -0.008767 -365534.000000 0 0 1
8.778791 -27.782913 12.639090 31.760101 -1.264746 1.161510 0.074160 -0.009797 -76343.500000 0 0 1
10.001591 -28.160313 11.750490 32.110887 -1.229527 1.196159 0.062781 -0.010272 1360.370000 0 0 1
10.951291 -28.726013 12.626990 33.234854 -1.206573 1.181073 0.052515 -0.012360 231627.000000 0 0 1
12.128591 -29.150213 11.934590 33.753105 -1.176512 1.209395 0.056071 -0.015179 736932.000000 0 0 1
13.209091 -29.927613 12.764990 35.115340 -1.155144 1.198757 0.038295 -0.014396 -408618.000000 0 0 1
13.929591 -29.135613 13.689590 35.075951 -1.124826 1.169856 0.035146 -0.010165 316357.000000 0 0 1
14.807791 -29.938013 14.480490 36.403845 -1.111466 1.161707 0.030399 -0.007525 -484051.000000 0 0 1
16.149391 -30.239613 13.858590 36.976987 -1.080283 1.186627 0.034653 -0.006097 -1998990.000000 0 0 1
16.981991 -29.163413 13.801990 36.460768 -1.043490 1.182574 0.034160 -0.012453 -1284100.000000 0 0 1
18.207191 -29.509013 13.263190 37.124061 -1.017967 1.205457 0.032530 -0.012162 -746676.000000 0 0 1
19.127791 -28.240613 13.167690 36.562176 -0.975458 1.202373 0.022722 -0.011728 455737.000000 0 0 1
20.326191 -28.541713 12.440490 37.182647 -0.951958 1.229639 0.022631 -0.014058 689246.000000 0 0 1
21.168491 -27.401213 12.249790 36.728584 -0.913026 1.230759 0.016383 -0.013476 537279.000000 0 0 1
22.521891 -27.678213 11.543790 37.504375 -0.887755 1.257918 0.029537 -0.016710 -77025.200000 0 0 1
23.459191 -28.327713 12.315090 38.787297 -0.879133 1.247701 0.037991 -0.018997 -601855.000000 0 0 1
24.642391 -28.598313 11.609090 39.495341 -0.859564 1.272455 0.028171 -0.026453 -1746660.000000 0 0 1
25.648391 -29.446613 12.392490 40.969706 -0.854229 1.263504 0.031574 -0.023145 -147638.000000 0 0 1
26.577591 -28.670613 13.150290 41.246849 -0.823264 1.246313 0.019646 -0.019386 171216.000000 0 0 1
27.596291 -28.270513 12.234190 41.357618 -0.797466 1.270488 -0.003473 -0.017452 -943978.000000 0 0 1
28.768291 -27.460013 12.893590 41.808032 -0.762135 1.257286 0.017882 -0.021963 116441.000000 0 0 1
28.514291 -26.074913 13.106490 40.801299 -0.740742 1.243771 0.038764 -0.022067 -178504.000000 0 0 1
27.805791 -25.725313 14.250190 40.472480 -0.746553 1.210987 0.044569 -0.021569 -637352.000000 0 0 1
28.617791 -25.591313 15.524690 41.411463 -0.729626 1.186520 0.041045 -0.011863 -533984.000000 0 0 1
29.013891 -26.810813 16.132990 42.671993 -0.745954 1.183086 0.043569 -0.013182 13806.800000 0 0 1
29.705491 -26.469813 17.310490 43.390325 -0.727862 1.160427 0.058936 0.003982 -185238.000000 0 0 1
30.136291 -27.604913 18.192290 44.734625 -0.741586 1.151989 0.035844 0.013153 -215385.000000 0 0 1
29.060891 -28.433713 18.574790 44.699376 -0.774490 1.142250 0.027579 0.009587 -135893.000000 0 0 1
29.435891 -29.398313 19.508490 45.949034 -0.784759 1.132312 0.018427 -0.000208 -908926.000000 0 0 1
28.304091 -30.223113 20.033790 45.999031 -0.818175 1.120173 0.014141 0.016876 -1131070.000000 0 0 1
27.402191 -29.425813 20.804890 45.272530 -0.820993 1.093310 0.018856 0.014117 868946.000000 0 0 1
26.171391 -30.000413 21.247290 45.126642 -0.853459 1.080557 0.027088 0.010748 1706630.000000 0 0 1
25.133691 -30.623013 20.192690 44.465898 -0.883533 1.099416 0.050251 0.007979 63618.300000 0 0 1
25.507691 -31.886613 19.704090 45.339272 -0.896086 1.121211 0.034982 0.010804 -108140.000000 0 0 1
25.105391 -32.186713 18.362690 44.759955 -0.908375 1.148070 0.056189 0.006293 -149895.000000 0 0 1
25.553691 -31.326813 17.133690 43.908128 -0.886547 1.169929 0.054876 0.007621 -207046.000000 0 0 1
26.940291 -31.428413 16.922390 44.720149 -0.862140 1.182722 0.032504 0.002121 -123092.000000 0 0 1
27.304491 -30.364513 15.998690 43.857690 -0.838410 1.197393 0.040437 -0.010870 -199256.000000 0 0 1
28.701691 -30.607613 15.401290 44.696899 -0.817522 1.219014 0.038653 -0.009043 -919218.000000 0 0 1
28.869691 -31.621413 14.419490 45.180688 -0.830857 1.245962 0.061903 -0.002667 185246.000000 0 0 1
29.032591 -32.903213 14.923390 46.348898 -0.847811 1.242977 0.066138 -0.009684 -188059.000000 0 0 1
28.055791 -33.858213 14.196290 46.206500 -0.878843 1.258509 0.050651 -0.009357 138348.000000 0 0 1
28.398991 -34.096813 12.870490 46.203299 -0.876318 1.288500 0.054442 -0.011012 113342.000000 0 0 1
27.694691 33.462246 12.473890 45.191988 0.879428 1.291146 0.036639 -0.020718 -309120.000000 0 0 1
27.821391 33.049246 10.975390 44.572880 0.871073 1.322003 0.050642 -0.029505 267550.000000 0 0 1
29.124791 32.558946 10.651890 44.964443 0.841014 1.331627 0.034440 -0.024488 768493.000000 0 0 1
29.126191 31.902246 9.427090 44.214911 0.830855 1.355936 0.038995 -0.034519 366541.000000 0 0 1
30.547591 31.302346 9.202290 44.695350 0.797601 1.363424 0.034951 -0.022310 442202.000000 0 0 1
30.833591 30.349646 10.213990 44.453762 0.777489 1.338958 0.024770 -0.010244 69938.500000 0 0 1
32.207191 30.030746 10.169390 45.194749 0.750443 1.343840 0.038566 -0.007626 -48782.600000 0 0 1
32.691191 29.251646 11.408090 45.326783 0.729927 1.316375 0.033597 -0.013469 -46006.200000 0 0 1
32.175891 27.931946 11.413990 44.110778 0.714910 1.309061 0.028836 -0.016236 281489.000000 0 0 1
32.344591 27.323046 12.688490 44.200896 0.701437 1.279636 0.043283 -0.019083 36470.300000 0 0 1
32.093791 25.813146 12.690190 43.097226 0.677359 1.271911 0.026116 -0.012684 69378.900000 0 0 1
33.199491 25.184046 12.073190 43.384378 0.648962 1.288789 0.032583 -0.006679 95206.300000 0 0 1
33.263691 23.823346 12.373990 42.745065 0.621514 1.277109 0.032227 -0.006300 -104390.000000 0 0 1
32.444591 22.890246 11.439090 41.321515 0.614420 1.290301 0.020154 -0.016400 444255.000000 0 0 1
31.088491 22.751246 11.829890 40.299625 0.631765 1.272860 0.030963 -0.022628 24811.700000 0 0 1
30.160991 22.892846 10.775890 39.368612 0.649250 1.293540 0.036470 -0.021337 -1796240.000000 0 0 1
28.786891 22.550046 11.160890 38.232906 0.664502 1.274564 0.038858 -0.020080 -1837400.000000 0 0 1
28.394391 23.601446 12.051090 38.839393 0.693479 1.255309 0.032878 -0.020522 -344941.000000 0 0 1
27.164091 23.292746 12.644390 37.951554 0.708822 1.231131 0.040075 0.000237 -391695.000000 0 0 1
24.166391 9.123446 25.816503 36.520454 0.360984 0.785683 0.026016 -0.009423 -292834.000000 0 0 1
23.774491 8.033046 26.545543 36.529743 0.325842 0.757315 0.022598 -0.006338 1615520.000000 0 0 1
22.316091 7.928746 26.569663 35.592414 0.341382 0.728013 0.029442 -0.002143 1551360.000000 0 0 1
21.821891 6.702146 27.399623 35.663049 0.297985 0.694628 0.040448 -0.003106 -97348.300000 0 0 1
22.000791 6.787846 28.814393 36.883315 0.299262 0.674161 0.051493 -0.010795 -301623.000000 0 0 1
23.318391 6.470946 29.148683 37.884908 0.270693 0.692894 0.046435 -0.013681 -592672.000000 0 0 1
23.521591 6.316246 30.670953 39.164622 0.262341 0.671115 0.040236 -0.010820 -495134.000000 0 0 1
23.441491 7.573146 31.291593 39.824865 0.312482 0.666921 0.039447 -0.001833 271633.000000 0 0 1
23.437191 7.309046 32.705910 40.894995 0.302299 0.643912 0.019890 0.004182 -155636.000000 0 0 1
23.587991 8.611046 33.539587 41.898059 0.350028 0.642660 0.032620 0.008083 -1472700.000000 0 0 1
24.824191 9.147946 33.407158 42.614124 0.353068 0.669800 0.020399 0.006677 -1429920.000000 0 0 1
25.297491 9.815646 -34.014580 43.512086 0.370126 2.468227 0.023096 0.004313 397475.000000 0 0 1
26.428691 10.818346 34.171829 44.533428 0.388533 0.696130 -0.002644 0.013409 123104.000000 0 0 1
25.953291 12.064446 33.744777 44.247420 0.435136 0.703414 -0.001967 0.009147 205023.000000 0 0 1
26.065091 13.073646 -33.794900 44.636358 0.464908 2.429683 -0.002501 0.011150 -865938.000000 0 0 1
25.594591 14.493246 -34.206696 45.113582 0.515243 2.431398 -0.004409 0.002183 -751351.000000 0 0 1
26.313391 15.182846 33.373819 45.130092 0.523337 0.738465 -0.008015 -0.000950 -121664.000000 0 0 1
25.903291 16.528746 33.164569 45.211377 0.567960 0.747273 0.001128 -0.015264 -301853.000000 0 0 1
26.542691 17.529846 34.208987 46.712576 0.583679 0.749060 -0.006204 -0.018143 -135045.000000 0 0 1
26.186891 17.412746 -33.000880 45.585250 0.586807 2.380290 -0.004038 -0.025661 725165.000000 0 0 1
27.232091 16.796446 -32.201190 45.394097 0.552673 2.359400 -0.005245 -0.017207 -166643.000000 0 0 1
26.715591 16.366446 -30.807140 43.939313 0.549646 2.347776 -0.007663 -0.009564 -263718.000000 0 0 1
25.953791 15.217346 -30.980820 43.185392 0.530303 2.370847 -0.010243 -0.003194 -102277.000000 0 0 1
25.299791 14.808146 -29.793800 41.797501 0.529546 2.364297 0.010599 -0.015003 181704.000000 0 0 1
24.517991 13.476846 -29.969560 40.999168 0.502591 2.390553 0.022043 -0.009520 -46965.400000 0 0 1
23.460691 13.509046 -30.915480 41.093372 0.522447 2.422377 0.010980 -0.015476 530954.000000 0 0 1
22.872491 12.237946 -31.299990 40.652276 0.491294 2.449550 0.022929 0.004125 586531.000000 0 0 1
21.838591 11.582046 -30.327670 39.125892 0.487630 2.457718 0.023557 0.001947 52376.100000 0 0 1
20.629791 12.299546 -30.205980 38.591040 0.537623 2.469821 0.034427 -0.005908 749009.000000 0 0 1
19.730691 11.661846 -29.252190 37.161666 0.533813 2.476987 0.046998 -0.000675 252484.000000 0 0 1
18.433491 12.392146 -28.933750 36.476304 0.591867 2.486876 0.046960 -0.004176 -355492.000000 0 0 1
17.554591 12.593946 -30.055070 37.014570 0.622319 2.518332 0.035149 0.004668 -855009.000000 0 0 1
16.317891 12.764546 -29.489860 36.039687 0.663819 2.529175 0.039650 -0.009100 -2120800.000000 0 0 1
15.332491 13.582346 -30.290170 36.565828 0.724944 2.546995 0.034398 -0.005477 -535734.000000 0 0 1
14.677091 12.883746 -31.308250 36.900060 0.720421 2.583866 0.031614 -0.002030 584127.000000 0 0 1
13.424091 12.310946 -30.858790 35.833372 0.742171 2.608372 0.039998 -0.000553 859217.000000 0 0 1
12.573591 11.669646 -32.015440 36.321677 0.748129 2.649702 0.047264 0.001592 326919.000000 0 0 1
12.016891 12.621346 -32.905640 37.235537 0.809926 2.654540 0.054263 0.002315 597781.000000 0 0 1
11.049791 11.932046 -33.748680 37.462581 0.823769 2.692551 0.067165 0.003176 1133280.000000 0 0 1
10.296591 12.845946 33.753666 37.554602 0.895115 0.453797 0.069395 0.005796 109505.000000 0 0 1
11.195691 13.351446 32.811058 37.150642 0.872994 0.488177 0.062158 0.018578 -60719.000000 0 0 1
10.606291 13.728246 31.564093 36.017359 0.912994 0.502549 0.072814 -0.005375 -642247.000000 0 0 1
11.452391 13.541346 30.337273 35.140795 0.868784 0.529011 0.076679 -0.008902 -577000.000000 0 0 1
11.729891 12.197646 30.085353 34.518132 0.804944 0.512378 0.060617 -0.005180 37626.800000 0 0 1
11.850691 11.975946 28.682743 33.265026 0.790655 0.531102 0.071669 -0.004345 -315189.000000 0 0 1
12.415691 10.610346 28.243703 32.625689 0.707154 0.524271 0.063189 0.002414 -168588.000000 0 0 1
11.522691 9.538446 28.449753 32.142539 0.691462 0.484061 0.049162 -0.009705 280414.000000 0 0 1
12.188891 8.278146 28.580503 32.154968 0.596599 0.475997 0.029671 -0.009235 25690.200000 0 0 1
11.203491 7.119746 28.855203 31.762112 0.566110 0.431167 0.018169 -0.005204 -10461.100000 0 0 1
10.367791 6.771346 27.783043 30.417753 0.578561 0.419279 0.018107 -0.010522 -376138.000000 0 0 1
9.461691 5.761246 28.173163 30.272804 0.546940 0.374631 0.005898 -0.008783 -103453.000000 0 0 1
9.741291 4.289746 27.662173 29.639341 0.414815 0.367322 0.002224 0.001046 97272.800000 0 0 1
10.930291 3.756246 28.223323 30.498141 0.331011 0.388677 -0.003980 -0.000236 287238.000000 0 0 1
10.990391 2.354446 27.951863 30.127044 0.211038 0.382325 -0.014017 0.004340 -329360.000000 0 0 1
11.402891 1.438846 29.108033 31.294949 0.125519 0.376059 -0.018256 0.001827 31396.400000 0 0 1
10.414791 1.300446 30.110523 31.887343 0.124222 0.335402 -0.002956 -0.011160 -115387.000000 0 0 1
10.580991 0.070546 30.810963 32.577259 0.006667 0.330805 0.000709 -0.014963 428660.000000 0 0 1
9.411191 -0.183054 31.818323 33.181467 -0.019448 0.287631 0.012175 -0.012290 267356.000000 0 0 1
9.593391 0.667346 32.840932 34.219955 0.069451 0.284859 0.013685 -0.016119 -236843.000000 0 0 1
8.379191 1.100146 33.391947 34.444787 0.130548 0.247883 0.014689 -0.021263 -322939.000000 0 0 1
8.621691 2.366746 34.208525 35.357577 0.267911 0.255639 0.006853 -0.016645 21003.600000 0 0 1
8.802091 3.658446 33.617607 34.942876 0.393911 0.276293 0.020592 -0.015713 204557.000000 0 0 1
9.926291 3.801646 32.760814 34.442049 0.365755 0.313738 0.011576 -0.009974 -231001.000000 0 0 1
9.932991 5.182146 32.047003 33.948923 0.480865 0.336315 0.015285 -0.004434 35530.100000 0 0 1
10.237491 6.243646 32.910667 35.027152 0.547653 0.349407 0.017792 -0.002756 8579.400000 0 0 1
10.618691 7.389946 32.170573 34.674395 0.607994 0.382350 0.025302 -0.009658 -98481.500000 0 0 1
10.757891 8.553446 33.165101 35.900106 0.671737 0.392864 0.068264 -0.009991 893652.000000 0 0 1
9.538091 9.063446 33.754062 36.227862 0.759887 0.371688 0.068340 -0.010899 710301.000000 0 0 1
8.983491 8.335446 -33.735860 35.892771 0.747997 2.793154 0.053130 -0.006315 -201839.000000 0 0 1
7.621191 8.916346 -33.338240 35.341506 0.863555 2.803283 0.057793 -0.012541 -255846.000000 0 0 1
6.886091 8.167846 -32.422440 34.137173 0.870337 2.823294 0.054555 -0.013972 39522.400000 0 0 1
5.602491 8.722246 -32.155130 33.784876 0.999838 2.829721 0.046948 -0.018732 432919.000000 0 0 1
5.004591 7.971646 -30.926280 32.326891 1.010187 2.846151 0.042235 -0.020300 -468465.000000 0 0 1
5.566991 8.340346 -29.662740 31.311833 0.982233 2.815600 0.043277 -0.017683 447556.000000 0 0 1
4.958391 7.678346 -28.557810 29.984849 0.997406 2.831837 0.032079 -0.016814 -42782.400000 0 0 1
3.531591 8.074946 -28.133060 29.481281 1.158510 2.838000 0.036438 -0.018843 263756.000000 0 0 1
2.522391 7.474646 -28.955700 30.011087 1.245337 2.875605 0.035279 -0.016532 678893.000000 0 0 1
1.191391 7.873246 -28.660840 29.746448 1.420614 2.870596 0.052545 -0.003507 62785.500000 0 0 1
0.152991 7.208246 -29.554720 30.421435 1.549575 2.902316 0.068695 -0.006856 -573131.000000 0 0 1
0.070091 7.640746 -30.873360 31.804878 1.561623 2.898971 0.069761 -0.009870 172607.000000 0 0 1
-0.448509 6.682446 -31.771380 32.469629 -1.503779 2.933832 0.079521 -0.014942 -504332.000000 0 0 1
-0.406809 7.219546 -33.224240 34.002021 -1.514508 2.927292 0.076975 -0.021455 859180.000000 0 0 1
0.825691 7.886146 -33.618960 34.541389 1.466475 2.909969 0.058969 -0.022356 1914790.000000 0 0 1
2.004691 7.117046 -33.938030 34.734148 1.296235 2.927077 0.070254 -0.020065 656242.000000 0 0 1
1.950391 6.541846 33.173573 33.868654 1.281046 0.202945 0.070738 -0.028701 -329656.000000 0 0 1
0.915091 5.577746 32.980887 33.461733 1.408184 0.169733 0.082269 -0.035143 146641.000000 0 0 1
0.583691 5.481946 31.601503 32.078769 1.464721 0.172714 0.093282 -0.031067 324226.000000 0 0 1
1.511391 4.606446 30.684143 31.064776 1.253760 0.156703 0.091188 -0.025480 177217.000000 0 0 1
0.936991 4.476846 29.409223 29.762771 1.364477 0.154288 0.072871 -0.026867 -6970.750000 0 0 1
1.644691 3.617046 28.561083 28.836150 1.144036 0.138233 0.055832 -0.014829 -164966.000000 0 0 1
1.629891 4.032346 27.055953 27.403302 1.186671 0.159388 0.054937 -0.011946 61164.300000 0 0 1
2.377691 5.185946 26.752863 27.354399 1.140907 0.210102 0.051990 -0.011052 -60053.200000 0 0 1
2.268591 5.399946 25.391343 26.058132 1.173072 0.226709 0.047623 -0.004689 -192165.000000 0 0 1
2.815591 6.801446 24.937583 26.001352 1.178306 0.287033 0.042157 -0.004106 1141960.000000 0 0 1
4.255791 6.896646 24.922903 26.207377 1.017912 0.314381 0.022407 0.002562 803221.000000 0 0 1
4.890891 6.570546 23.737103 25.110615 0.930911 0.332278 0.018398 -0.003284 108620.000000 0 0 1
6.441891 6.431846 23.786183 25.468591 0.784618 0.365509 0.017966 -0.004330 408051.000000 0 0 1
7.119091 5.420046 24.506763 26.089075 0.650719 0.350067 0.015809 -0.001243 26724.400000 0 0 1
6.903391 4.081046 24.208413 25.502138 0.533898 0.319890 0.023696 0.002188 -761012.000000 0 0 1
7.134891 3.586946 22.727323 24.089502 0.465832 0.337898 0.020142 0.000689 379036.000000 0 1 0
6.122491 4.013646 21.828723 23.023627 0.580272 0.323587 0.028475 -0.011140 111194.000000 0 1 0
4.858891 3.390246 21.959223 22.744452 0.609208 0.263532 0.023800 -0.012922 488783.000000 0 1 0
3.769591 3.833646 20.900123 21.580589 0.793823 0.251788 0.016502 -0.019259 601140.000000 0 1 0
3.208791 5.077446 21.236923 22.069973 1.007201 0.275629 0.012959 -0.015255 513073.000000 0 1 0
1.990891 5.243546 20.485023 21.238988 1.207925 0.267249 0.009759 -0.014866 239338.000000 0 1 0
1.493791 6.646546 20.491023 21.593750 1.349723 0.320960 0.015511 -0.016207 -98278.800000 0 1 0
2.220791 7.633846 19.698623 21.242488 1.287696 0.383604 0.004868 -0.018378 161648.000000 0 1 0
2.014491 8.928846 20.151323 22.132743 1.348896 0.426364 0.012018 -0.004205 165624.000000 0 1 0
3.191891 9.801746 19.666923 22.204735 1.255981 0.482778 0.024270 -0.008911 -284166.000000 0 1 0
3.042691 10.166946 18.286723 21.143061 1.280007 0.525837 -0.002503 -0.003960 -64687.900000 0 1 0
3.857191 11.257246 17.857823 21.459389 1.240693 0.587790 -0.005801 -0.001549 -142342.000000 0 1 0
5.375991 11.054846 17.808923 21.639516 1.118167 0.604156 -0.001899 -0.005920 -561532.000000 0 1 0
5.809191 10.113046 16.864723 20.504617 1.049394 0.605031 0.001691 -0.014767 -252840.000000 0 1 0
6.977391 9.442646 17.301023 20.908682 0.934422 0.596234 0.002304 -0.014609 -299423.000000 0 1 0
6.909091 8.025846 17.896223 20.794820 0.860034 0.534331 0.007504 -0.011930 -455270.000000 0 1 0
6.610991 7.973646 19.290623 21.895488 0.878559 0.492757 0.012406 -0.009119 -51186.800000 0 1 0
6.695191 6.704246 19.898923 22.039502 0.786074 0.444385 0.014540 -0.009017 446106.000000 0 1 0
8.100091 6.017746 20.025223 22.423967 0.638957 0.466767 0.024200 -0.010411 562826.000000 0 1 0
8.669491 5.610546 18.765023 21.418786 0.574376 0.503081 0.019355 -0.016735 -46886.900000 0 1 0
9.951191 5.049146 18.949923 21.991355 0.469543 0.532188 0.021840 -0.013425 -13784.700000 0 1 0
10.042891 3.461046 18.924723 21.702158 0.331880 0.511481 0.021151 -0.006600 -128353.000000 0 1 0
9.440391 2.862546 20.071523 22.364731 0.294411 0.456812 0.030773 -0.002576 188960.000000 0 1 0
9.547191 1.488046 19.980823 22.194514 0.154618 0.450431 0.027897 -0.017383 -430443.000000 0 1 0
8.935791 0.699046 21.152823 22.973440 0.078071 0.400795 0.034726 -0.012950 213761.000000 0 1 0
9.511391 0.806946 22.502423 24.443338 0.084637 0.401194 0.025468 -0.004418 135891.000000 0 1 0
8.815391 -0.060854 23.365023 24.972768 -0.006903 0.360785 0.028890 -0.006117 -179482.000000 0 1 0
9.290591 -0.017154 24.869183 26.547913 -0.001846 0.357524 0.016512 0.006370 -11384.100000 0 0 1
10.612391 -0.434954 25.147133 27.298175 -0.040963 0.399638 0.014934 0.000066 -114345.000000 0 0 1
10.856791 -1.786254 25.123483 27.427177 -0.163068 0.412786 0.008823 -0.002685 -665499.000000 0 0 1
12.316091 -2.210354 25.279213 28.206566 -0.177578 0.459629 0.006335 -0.002282 -371028.000000 0 0 1
12.427391 -3.609754 25.123193 28.260312 -0.282689 0.475657 0.016591 0.000980 -403046.000000 0 0 1
13.670791 -4.125254 25.469523 29.199398 -0.293068 0.510988 0.017448 0.001708 -546778.000000 0 0 1
13.530691 -5.683254 25.385783 29.322636 -0.397651 0.524169 0.012185 0.000445 -97294.200000 0 0 1
13.343791 -6.223754 24.111133 28.251347 -0.436421 0.548225 0.027750 -0.011389 194732.000000 0 0 1
13.186391 -7.590354 24.326803 28.692991 -0.522300 0.558915 0.046685 -0.017905 34093.800000 0 0 1
12.668491 -8.423054 23.107323 27.665627 -0.586766 0.582235 0.054899 -0.012274 38617.100000 0 0 1
12.326391 -9.763354 23.337023 28.140356 -0.669886 0.592928 0.063323 -0.005367 -189968.000000 0 0 1
12.465991 -10.495954 22.153023 27.501317 -0.699812 0.634234 0.046282 -0.010095 31396.900000 0 0 1
11.811391 -11.903254 22.221823 27.838927 -0.789272 0.646448 0.061995 -0.008847 -507559.000000 0 0 1
10.443191 -11.915154 22.430023 27.461556 -0.851138 0.614990 0.063286 -0.002877 -1203690.000000 0 0 1
9.889991 -13.078454 22.913523 28.176008 -0.923336 0.621118 0.059495 0.002061 812766.000000 0 0 1
8.356791 -12.911554 23.206523 27.840383 -0.996368 0.585282 0.039355 0.004001 1192990.000000 0 0 1
7.511091 -12.534654 22.104423 26.497916 -1.030946 0.584125 0.035876 -0.004149 449661.000000 0 0 1
6.143291 -12.564054 22.495123 26.488225 -1.116022 0.556233 0.027705 0.002698 438905.000000 0 0 1
5.310291 -11.456054 21.806723 25.198682 -1.136743 0.524865 0.021503 0.013969 86720.600000 0 0 1
5.540391 -10.141454 22.261423 25.082185 -1.070790 0.478820 0.023335 0.010926 -574119.000000 0 0 1
4.823191 -9.233954 21.525523 23.913955 -1.089443 0.450742 0.015536 0.008904 -322209.000000 0 1 0
5.149991 -7.781654 21.931623 23.834275 -0.986162 0.402278 0.018145 -0.010045 -32861.500000 0 1 0
4.405891 -6.772854 21.293823 22.775213 -0.994054 0.362661 -0.000031 -0.009535 -74556.100000 0 1 0
4.929791 -5.478954 21.572823 22.797116 -0.838109 0.329216 0.026549 -0.020997 -47576.800000 0 1 0
-7.767609 -15.000154 -20.781210 26.780572 1.092982 2.459065 0.036847 -0.005136 -252049.000000 0 0 1
-7.366509 -14.455554 -19.582710 25.430514 1.099501 2.449712 0.037274 -0.010488 130633.000000 0 0 1
-6.549809 -13.274254 -19.761110 24.690226 1.112425 2.498695 0.026123 -0.021873 303918.000000 0 1 0
-5.824509 -12.886054 -18.452110 23.247702 1.146280 2.487693 0.020717 -0.022362 874011.000000 0 1 0
-4.818309 -13.905554 -18.138710 23.357939 1.237241 2.459975 0.011504 -0.005526 462754.000000 0 1 0
-4.245309 -13.762154 -16.872710 22.183504 1.271581 2.435029 0.013681 -0.008653 798404.000000 0 1 0
-3.126809 -14.865354 -16.665510 22.549832 1.363477 2.402459 0.007614 0.015314 678139.000000 0 1 0
-1.866309 -14.724254 -17.280410 22.779362 1.444718 2.431957 0.001980 0.006018 89312.300000 0 1 0
-0.959609 -15.592154 -16.597210 22.792619 1.509329 2.386464 0.008195 0.012357 -14606.800000 0 1 0
0.403391 -15.785654 -17.269010 23.400177 -1.545248 2.400878 0.005910 0.014030 -97158.600000 0 1 0
0.312391 -16.631454 -18.389910 24.797009 -1.552015 2.406276 0.015373 0.011561 -118815.000000 0 1 0
0.367491 -18.013454 -18.278710 25.665752 -1.550398 2.363399 0.013958 0.014484 -172835.000000 0 0 1
-0.091009 -18.766554 -19.602510 27.137616 1.565947 2.377972 0.032054 0.009663 127473.000000 0 0 1
-1.414409 -18.384854 -19.915510 27.140946 1.494014 2.394667 0.038350 0.002240 -119069.000000 0 0 1
-1.580809 -18.510254 -21.285210 28.252232 1.485601 2.424013 0.053344 -0.004236 8305.570000 0 0 1
-2.727009 -17.640954 -21.864910 28.226125 1.417426 2.456932 0.039303 -0.004418 115743.000000 0 0 1
-2.506109 -16.210754 -21.824710 27.301778 1.417415 2.497072 0.034703 0.006157 116130.000000 0 0 1
-3.002409 -15.635954 -20.601310 26.036733 1.381086 2.483631 0.022674 -0.000513 92243.400000 0 0 1
-2.387609 -14.230354 -20.408210 24.993973 1.404562 2.526163 0.025998 -0.005890 -55322.700000 0 1 0
-2.571709 -13.210354 -21.373410 25.257668 1.378527 2.579637 0.025537 -0.021203 81595.900000 0 0 1
-1.933409 -11.970254 -21.050410 24.292896 1.410661 2.618995 0.017071 -0.018802 77821.700000 0 1 0
-1.823809 -11.081354 -22.288210 24.957704 1.407675 2.674851 0.033945 -0.019637 1343280.000000 0 1 0
-3.102109 -10.476054 -22.689710 25.183203 1.282908 2.692833 0.037961 -0.014285 1704100.000000 0 0 1
-2.923109 -9.902854 -23.969210 26.098546 1.283769 2.734843 0.034185 -0.014395 216870.000000 0 0 1
-3.915109 -8.722554 -24.130210 25.955309 1.148900 2.764348 0.035933 -0.011787 669251.000000 0 0 1
-5.299109 -9.087954 -24.146710 26.338851 1.042902 2.730717 0.029325 -0.015377 930943.000000 0 0 1
-6.084609 -7.892454 -24.036110 26.020144 0.914028 2.748555 0.038416 -0.025234 952522.000000 0 0 1
-7.619009 -8.244154 -23.795410 26.310395 0.824786 2.700793 0.016910 -0.028161 1686910.000000 0 0 1
-8.476009 -8.633454 -24.872610 27.659103 0.794600 2.688862 0.022703 -0.026436 306116.000000 0 0 1
-8.765309 -7.550254 -25.745300 28.225121 0.711063 2.719275 0.021890 -0.024585 -335098.000000 0 0 1
-9.556809 -8.021654 -26.972790 29.718865 0.698288 2.708324 0.014440 -0.024105 69413.700000 0 0 1
-9.902709 -6.998354 -27.874620 30.397945 0.615216 2.731265 0.018574 -0.025051 62677.800000 0 0 1
-10.716909 -7.573654 -28.887740 31.728755 0.615209 2.715190 0.026505 -0.024534 9432.670000 0 0 1
-11.444609 -6.602554 -29.823590 32.619309 0.523271 2.724554 0.030313 -0.026327 182368.000000 0 0 1
-10.578909 -5.831154 -30.648170 32.942769 0.503768 2.766151 0.001349 -0.010335 81632.900000 0 0 1
-11.379009 -5.043254 -31.482330 33.853410 0.417190 2.765101 0.015434 -0.017424 105128.000000 0 0 1
-10.527309 -3.952454 -32.159830 34.069059 0.359163 2.805226 0.000388 -0.018243 398070.000000 0 0 1
-9.480809 -4.378854 -33.028670 34.640340 0.432677 2.835354 -0.003982 -0.012092 218160.000000 0 0 1
-8.978009 -3.276154 -33.771300 35.097557 0.349894 2.865810 0.003553 -0.010220 -556594.000000 0 0 1
-7.801409 -3.713454 33.936673 35.019274 0.444262 0.249299 0.009996 -0.011142 384199.000000 0 0 1
-6.601409 -3.963754 -33.883170 34.747074 0.540743 2.918136 0.009282 -0.012041 2796.560000 0 0 1
-5.573109 -4.440654 33.886307 34.627457 0.672787 0.207269 0.012679 -0.010255 -792622.000000 0 0 1
-4.199109 -3.900254 34.220746 34.697320 0.748516 0.165932 0.028503 -0.013075 -626623.000000 0 0 1
-4.140409 -2.516554 33.886756 34.231393 0.546137 0.142020 0.047751 -0.026898 1168490.000000 0 0 1
-2.799409 -2.019154 34.127234 34.301338 0.624865 0.100797 0.050060 -0.022499 1352920.000000 0 0 1
-2.976609 -0.522654 -33.925110 34.059455 0.173815 3.052744 0.057028 -0.029751 -30963.000000 0 0 1
-3.328209 -0.518554 -32.585030 32.758664 0.154563 3.038587 0.055265 -0.019701 86016.900000 0 0 1
-3.931009 0.710346 -32.195160 32.442037 -0.178774 3.018147 0.064959 -0.018467 -379523.000000 0 0 1
-4.395109 0.602846 -30.696270 31.015180 -0.136312 2.998065 0.057341 -0.021466 378643.000000 0 0 1
-5.449309 -0.268054 -30.382290 30.868274 0.049151 2.963911 0.040476 -0.019402 1057000.000000 0 0 1
-6.799009 0.113546 -30.742130 31.485202 -0.016699 2.923904 0.041586 -0.018139 1222050.000000 0 0 1
-7.841909 -1.039554 -30.517100 31.525697 0.131795 2.887959 0.031456 -0.013601 267696.000000 0 0 1
-8.153309 -1.295954 -29.177470 30.322940 0.157630 2.865854 0.031620 -0.011661 -266915.000000 0 0 1
-8.890809 -2.466854 -29.136140 30.562174 0.270653 2.834909 0.006383 -0.008068 -356572.000000 0 0 1
-9.105309 -2.974654 -27.688540 29.298643 0.315764 2.808529 0.006352 -0.013843 691630.000000 0 0 1
-10.077609 -2.217754 -26.888330 28.800329 0.216615 2.775161 0.007402 -0.014266 914017.000000 0 0 1
-10.174709 -2.690754 -25.564610 27.646232 0.258537 2.751056 0.006309 -0.014864 88522.800000 0 0 1
-11.162009 -1.835354 -24.724710 27.189525 0.162970 2.712508 0.008070 -0.016419 -65063.200000 0 0 1
-10.742109 -0.576054 -24.372010 26.640563 0.053574 2.725922 0.023320 -0.018060 -367814.000000 0 0 1
-11.650709 0.126646 -23.588610 26.309268 -0.010870 2.682803 0.024383 -0.016409 -579764.000000 0 0 1
-10.948409 1.223946 -22.833010 25.351766 -0.111330 2.692054 0.034540 -0.016143 -6932.710000 0 0 1
-10.583709 2.235046 -23.747310 26.094924 -0.208120 2.714166 0.018168 -0.014986 650542.000000 0 0 1
-9.609309 3.184546 -23.232610 25.342342 -0.320012 2.730665 0.021276 -0.016844 282247.000000 0 0 1
-9.344009 4.259246 -24.339910 26.417473 -0.427689 2.742352 0.030399 -0.014320 -33685.900000 0 0 1
-10.453209 5.118446 -24.623710 27.235917 -0.455336 2.700041 0.044062 -0.011358 435650.000000 0 0 1
-11.194009 4.664546 -25.749590 28.462347 -0.394820 2.701447 0.031228 -0.017771 -716207.000000 0 0 1
-12.581709 5.225146 -25.960450 29.318024 -0.393624 2.658317 0.037669 -0.010341 -588553.000000 0 0 1
-12.650109 6.564246 -26.363530 29.969156 -0.478660 2.646004 0.033499 -0.008860 76040.700000 0 0 1
-14.020909 6.907146 -26.393750 30.674494 -0.457736 2.606941 0.044318 -0.018442 169510.000000 0 0 1
-14.360909 8.360646 -26.840560 31.568208 -0.527214 2.587238 0.054367 -0.007112 -121973.000000 0 0 1
-13.952509 9.311946 -25.873130 30.835105 -0.588512 2.566387 0.070554 -0.008794 -365922.000000 0 0 1
-14.760509 10.418546 -25.867860 31.552574 -0.614634 2.531917 0.054056 -0.006201 -626870.000000 0 0 1
-14.527209 11.338046 -24.689810 30.808729 -0.662718 2.500412 0.042138 -0.002781 -414361.000000 0 0 1
-15.132909 10.941246 -23.510910 30.024635 -0.626003 2.470357 0.072798 -0.005861 -373126.000000 0 0 1
-14.573309 11.533146 -22.387410 29.096236 -0.669468 2.448739 0.065651 -0.004263 -724725.000000 0 0 1
-15.385009 11.497246 -21.075810 28.514469 -0.641772 2.402569 0.071236 -0.011207 -1059900.000000 0 0 1
-16.582209 12.130546 -21.329710 29.615475 -0.631582 2.374918 0.055098 -0.011980 -1126930.000000 0 0 1
-17.131709 12.566346 -20.123510 29.263700 -0.632866 2.329059 0.051881 -0.008955 -620294.000000 0 0 1
-18.610609 12.935146 -20.153010 30.328478 -0.607390 2.297609 0.051048 -0.013476 -531486.000000 0 0 1
-18.869509 14.117046 -20.859310 31.471577 -0.642310 2.295346 0.044477 -0.009209 -932393.000000 0 0 1
-20.214209 14.205846 -21.152610 32.524656 -0.612580 2.278850 0.028223 -0.007467 -851941.000000 0 0 1
-20.622009 15.600846 -21.610110 33.699414 -0.647657 2.266936 0.033127 0.000868 -129628.000000 0 0 1
-19.959009 16.031246 -22.788810 34.273791 -0.676694 2.298163 0.048850 -0.005937 141016.000000 0 0 1
-20.729809 16.933646 -23.550310 35.652356 -0.684946 2.292353 0.043008 -0.002161 5748.470000 0 0 1
-20.612709 16.708746 -25.067010 36.502342 -0.681173 2.327768 0.039570 -0.008450 616564.000000 0 0 1
-19.336909 17.030246 -25.638130 36.349127 -0.722056 2.353685 0.036626 -0.007659 636926.000000 0 0 1
-19.245809 16.617646 -26.961370 37.060259 -0.712246 2.385469 0.029080 -0.012433 106964.000000 0 0 1
-18.328709 17.509746 -27.867000 37.670977 -0.762551 2.403491 0.018684 -0.003989 231746.000000 0 0 1
-18.941809 18.700746 -28.403510 38.926462 -0.778994 2.388637 0.013889 -0.018923 329851.000000 0 0 1
-18.403809 19.881446 -27.814670 38.828185 -0.823974 2.369357 0.012336 -0.026020 -1025540.000000 0 0 1
-19.151009 21.249046 -28.055630 40.067462 -0.837283 2.346488 0.034140 -0.016580 520367.000000 0 0 1
-20.242609 21.606046 -27.205700 40.208638 -0.817967 2.313950 0.042253 -0.004825 631407.000000 0 0 1
-21.373709 20.748446 -27.366690 40.450824 -0.770555 2.313853 0.072626 -0.023234 -557412.000000 0 0 1
-22.503109 21.089146 -26.373070 40.579315 -0.752973 2.278268 0.068041 -0.004230 38084.200000 0 0 1
-22.171509 20.732946 -25.028310 39.342689 -0.751881 2.260310 0.039730 0.004048 247902.000000 0 0 1
-23.102409 21.336846 -24.127210 39.637161 -0.745689 2.225220 0.039390 -0.014703 248960.000000 0 0 1
-22.897909 21.010546 -22.599810 38.425365 -0.742441 2.199564 0.046684 -0.000614 -157122.000000 0 0 1
-21.695109 21.573846 -22.113510 37.750708 -0.782596 2.196635 0.047620 -0.003539 34202.100000 0 0 1
-20.784709 20.564846 -21.652410 36.383291 -0.780081 2.208211 0.043176 0.003172 40455.700000 0 0 1
-21.090309 19.837546 -20.279910 35.349740 -0.754799 2.181804 0.038250 -0.000239 -540972.000000 0 0 1
-22.209009 18.952646 -20.416610 35.626968 -0.706451 2.181039 0.061404 -0.000672 294802.000000 0 0 1
-22.623209 18.407946 -19.164810 34.899169 -0.683024 2.152141 0.036686 0.000209 -396444.000000 0 0 1
-23.647109 19.322346 -18.499710 35.704035 -0.685089 2.115472 0.035119 -0.005468 -901255.000000 0 0 1
-24.896809 19.338546 -19.156310 36.888951 -0.660401 2.116824 0.038564 -0.010914 -300428.000000 0 0 1
-25.659849 20.376946 -18.600710 37.678033 -0.671144 2.087107 0.038145 -0.015069 217198.000000 0 0 1
-27.188459 20.272346 -19.008110 38.877867 -0.640694 2.081646 0.021239 0.000796 1318790.000000 0 0 1
-27.919549 19.091046 -18.611410 38.605101 -0.599762 2.073843 0.018474 -0.005994 289611.000000 0 0 1
-27.964659 18.857646 -17.227710 37.873830 -0.593295 2.043024 0.018573 -0.013199 -869773.000000 0 0 1
-29.050849 17.858346 -16.712910 37.976226 -0.551178 2.026494 0.014150 -0.013280 -25649.300000 0 0 1
-28.872599 16.531446 -17.157110 37.433703 -0.520003 2.046915 0.024972 -0.017426 -85955.800000 0 0 1
-29.638779 15.606846 -16.453310 37.319463 -0.484676 2.027372 0.018223 -0.019429 -90268.100000 0 0 1
-28.743479 14.489946 -15.825310 35.869020 -0.466932 2.027729 0.031364 -0.015608 325404.000000 0 0 1
-27.921319 14.975546 -14.747910 34.948074 -0.492302 2.006441 0.020717 -0.016795 35308.200000 0 0 1
-28.550579 15.120446 -13.495210 35.012628 -0.487048 1.966479 -0.005367 -0.009109 -105381.000000 0 0 1
-27.813319 16.033946 -12.462910 34.438239 -0.522949 1.941093 -0.009738 -0.009467 -285564.000000 0 0 1
-27.733109 17.430646 -12.758210 35.152876 -0.561122 1.942212 -0.001188 -0.004744 -174912.000000 0 0 1
-28.924819 18.130946 -12.495310 36.352567 -0.559914 1.921678 -0.000925 -0.004804 -290853.000000 0 0 1
-28.836549 19.667446 -12.439810 37.055416 -0.598565 1.913153 0.044526 -0.018890 -376738.000000 0 0 1
-28.123289 20.335046 -11.406710 36.531446 -0.626041 1.888350 -0.011014 -0.025702 -53510.900000 0 0 1
-27.028259 20.954546 -12.061110 36.264172 -0.659487 1.909845 -0.002629 -0.027574 -140789.000000 0 0 1
-26.039329 21.666646 -11.148610 35.662049 -0.693995 1.888745 0.026413 -0.021090 -12783.900000 0 0 1
-26.537909 22.923546 -10.816610 36.698074 -0.712453 1.869986 0.038296 -0.034457 531097.000000 0 0 1
-25.510589 23.834946 -10.361310 36.417737 -0.751454 1.859294 0.055787 -0.032342 427420.000000 0 0 1
-26.112109 24.812746 -9.419910 37.232369 -0.759888 1.826580 0.077807 -0.019220 -56157.600000 0 0 1
-26.180319 24.392646 -8.098010 36.687710 -0.750064 1.793357 0.075204 -0.028254 561790.000000 0 0 1
-27.143069 25.162246 -7.330110 37.730827 -0.747546 1.766313 0.083222 -0.030094 786705.000000 0 0 1
-27.118169 24.752546 -5.829110 37.176097 -0.739824 1.728243 0.089312 -0.026563 -80876.200000 0 0 1
-27.332849 23.379446 -5.775810 36.428603 -0.707598 1.730020 0.075760 -0.031505 -127380.000000 0 0 1
-27.003769 22.725446 -4.571510 35.588596 -0.699577 1.699607 0.078114 -0.029600 -192305.000000 0 0 1
-27.301249 21.204446 -4.639410 34.878516 -0.660361 1.704208 0.063438 -0.023233 98634.200000 0 0 1
-26.531279 20.429046 -5.568210 33.944950 -0.656178 1.735578 0.047027 -0.026554 -92443.800000 0 0 1
-26.797019 20.561546 -6.940010 34.482186 -0.654486 1.773444 0.035602 -0.026102 -713677.000000 0 0 1
-28.114169 20.060146 -7.554110 35.353650 -0.619745 1.786129 0.009415 -0.027230 -611250.000000 0 0 1
-28.243089 18.640746 -7.658910 34.695942 -0.583381 1.793373 0.002134 -0.018970 137468.000000 0 0 1
-27.635489 18.163046 -8.835010 34.229723 -0.581445 1.831861 -0.005422 -0.009691 -455274.000000 0 0 1
-27.175299 16.734246 -8.919210 33.137353 -0.551948 1.843316 0.004496 -0.000164 -368956.000000 0 0 1
-28.101299 15.698346 -8.949910 33.409908 -0.509448 1.841990 -0.015918 -0.010556 -110395.000000 0 0 1
-27.377729 14.466246 -9.090810 32.271584 -0.486104 1.856359 -0.005123 -0.018026 542701.000000 0 0 1
-27.902329 13.408146 -8.079210 31.993624 -0.447958 1.826086 0.001795 -0.014159 303719.000000 0 0 1
-29.042449 12.659546 -8.447310 32.788489 -0.411065 1.831365 0.022373 -0.012445 -145753.000000 0 0 1
-29.563629 11.924546 -7.379010 32.720831 -0.383393 1.798267 0.039044 -0.011421 -134262.000000 0 0 1
-30.312299 10.664946 -7.734410 33.051439 -0.338309 1.806998 0.030857 -0.011914 -389047.000000 0 0 1
-29.477279 9.697946 -8.267310 32.113993 -0.317843 1.831165 0.031726 -0.005918 -466321.000000 0 0 1
-30.223559 8.654946 -8.770410 32.638807 -0.278900 1.842851 0.029504 -0.007606 -658790.000000 0 0 1
-29.359149 7.434246 -9.006410 31.596567 -0.248004 1.859849 0.056886 -0.013491 -516778.000000 0 0 1
-28.510159 7.632346 -10.085710 31.189797 -0.261573 1.900080 0.054570 -0.020114 -292794.000000 0 0 1
-27.545869 6.622346 -10.234610 30.122709 -0.235934 1.917462 0.061134 -0.029917 -709380.000000 0 0 1
-26.910909 6.688146 -11.623110 30.067009 -0.243594 1.967710 0.042750 -0.027154 -477956.000000 0 0 1
-26.008799 7.770646 -11.648110 29.538433 -0.290328 1.976143 0.051707 -0.028252 219589.000000 0 0 1
-25.525889 7.992146 -12.976910 29.729541 -0.303431 2.022500 0.039290 -0.017765 -227682.000000 0 0 1
-31.256309 26.019346 -34.023280 53.024021 -0.694217 2.267454 0.025060 -0.007887 -14895.100000 0 0 1
-31.858769 27.306646 -34.077080 54.054431 -0.708611 2.252893 0.031447 -0.023635 282127.000000 0 0 1
-31.707769 27.778646 33.161091 53.634819 -0.719443 0.904250 0.035006 -0.031280 -114549.000000 0 0 1
-32.066239 29.254146 33.003035 54.527508 -0.739571 0.920710 0.047930 -0.037196 53212.500000 0 0 1
-32.416719 29.715746 31.697953 54.209127 -0.741954 0.946243 0.062367 -0.036383 158200.000000 0 0 1
-32.520319 31.142046 31.707363 55.070456 -0.763752 0.957263 0.079626 -0.039357 63124.200000 0 0 1
-32.647069 31.759546 30.294113 54.701309 -0.771619 0.983864 0.079697 -0.034706 213857.000000 0 0 1
-31.399719 31.513146 29.664353 53.469567 -0.787201 0.982686 0.054401 -0.035214 376649.000000 0 0 1
-31.370719 32.195046 28.387033 53.164525 -0.798366 1.007535 0.077622 -0.031008 338315.000000 0 0 1
-29.954269 32.239546 27.746463 52.024156 -0.822126 1.008254 0.068550 -0.026200 71673.700000 0 0 1
-29.524469 31.010246 27.185353 50.718567 -0.809937 1.005100 0.069412 -0.033345 -7629.150000 0 0 1
-28.254879 31.107446 26.583623 49.726255 -0.833415 1.006763 0.055793 -0.021383 -409380.000000 0 0 1
-28.083559 31.799746 25.196103 49.343224 -0.847376 1.034880 0.070417 -0.024800 -527098.000000 0 0 1
-28.119999 33.233646 25.162893 50.283007 -0.868553 1.046706 0.058866 -0.017961 794882.000000 0 0 1
-29.236719 33.677146 24.344703 50.809453 -0.855861 1.071125 0.067483 -0.012474 638265.000000 0 0 1
-29.582269 -33.583013 24.907813 51.218440 0.848651 1.062940 0.068192 -0.014213 -481426.000000 0 0 1
-30.137769 -33.690513 26.174913 52.234681 0.841002 1.045924 0.062375 -0.025707 83346.200000 0 0 1
-29.871999 -32.509213 26.883063 51.690274 0.827649 1.023852 0.053388 -0.028981 -96236.600000 0 0 1
-30.186819 -32.657513 28.385503 52.758829 0.824692 1.002705 0.068129 -0.035791 -640366.000000 0 0 1
-31.568529 -32.726213 28.538833 53.684654 0.803402 1.010306 0.065072 -0.037733 -691051.000000 0 0 1
-31.899019 -33.134813 29.863163 54.838598 0.804398 0.994926 0.053118 -0.033473 -127350.000000 0 0 1
-33.398429 -33.327413 30.113843 55.973343 0.784334 1.002730 0.072016 -0.042610 -197776.000000 0 0 1
-33.611059 -33.696513 31.472323 57.058439 0.786668 0.986538 0.071296 -0.044532 -30355.100000 0 0 1
-34.974632 -33.747213 31.838943 58.101787 0.767539 0.990842 0.069124 -0.049146 -7445.330000 0 0 1
-35.162823 -34.186213 33.312049 59.285866 0.771317 0.974129 0.057582 -0.039153 28745.100000 0 0 1
-34.744010 33.191046 33.611016 58.638658 -0.762543 0.960404 0.047487 -0.038776 187618.000000 0 0 1
-35.549109 32.608546 -33.915280 58.968658 -0.742281 2.183573 0.054389 -0.031896 312488.000000 0 0 1
-35.082540 31.232646 -33.422130 57.648084 -0.727409 2.189232 0.034438 -0.033727 -636637.000000 0 0 1
-34.036725 31.263446 -32.541060 56.522759 -0.742954 2.184276 0.039883 -0.034508 -1327570.000000 0 0 1
-33.702419 29.982346 -32.157380 55.397574 -0.727051 2.190119 0.033136 -0.032292 173937.000000 0 0 1
-32.721079 29.928946 -30.963160 54.084453 -0.740860 2.180344 0.029649 -0.021767 -49227.000000 0 0 1
-33.280119 30.065846 -29.693480 53.788699 -0.734700 2.155604 0.032926 -0.023562 -393553.000000 0 0 1
-33.624139 31.406946 -29.303040 54.549493 -0.751317 2.137890 0.020802 -0.018255 878001.000000 0 0 1
-34.755160 31.452746 -28.190290 54.698161 -0.735560 2.112246 0.017918 -0.007629 1057870.000000 0 0 1
-34.211064 31.081146 -26.951560 53.505337 -0.737498 2.098693 -0.005036 -0.011793 -153839.000000 0 0 1
-35.273030 31.212246 -26.067610 53.832251 -0.724396 2.076288 0.020605 -0.008516 -189744.000000 0 0 1
-34.834087 30.949746 -24.586210 52.685692 -0.726420 2.056305 0.022190 -0.005404 -104053.000000 0 0 1
-34.462230 32.133546 -23.930710 52.847791 -0.750445 2.040726 0.019141 -0.008918 -199459.000000 0 0 1
-34.161873 31.854346 -22.551210 51.868006 -0.750458 2.020591 0.010598 -0.014288 -262799.000000 0 0 1
-35.387527 31.631546 -21.635910 52.162672 -0.729413 1.998495 0.011467 -0.020449 117555.000000 0 0 1
35.692886 32.752546 -21.449110 52.979012 0.742466 1.987623 0.017827 -0.024120 186998.000000 0 0 1
-35.703292 33.861346 -20.761310 53.407376 -0.758926 1.970054 0.021123 -0.021599 -308086.000000 0 0 1
-35.632238 33.697046 -19.194510 52.664756 -0.757492 1.943856 0.019463 -0.020708 182507.000000 0 0 1
-34.611924 32.774046 -18.864310 51.263882 -0.758131 1.947637 0.024983 -0.029170 -30314.800000 0 0 1
-34.434553 32.532146 -17.480210 50.493928 -0.756998 1.924297 0.034935 -0.022484 333144.000000 0 0 1
-33.430149 31.362846 -17.209810 48.963053 -0.753503 1.929954 0.041066 -0.017388 351773.000000 0 0 1
-33.235139 31.058546 -15.824110 48.162332 -0.751557 1.905573 0.036872 -0.015941 6643.010000 0 0 1
-32.160079 30.140446 -15.705910 46.790948 -0.752992 1.913103 0.045218 -0.012819 138699.000000 0 0 1
-31.698859 29.995746 -14.245310 45.907421 -0.757800 1.886310 0.057097 -0.015510 -232316.000000 0 0 1
-32.739479 29.324446 -13.573510 46.000400 -0.730429 1.870329 0.056495 -0.019107 259655.000000 0 0 1
-32.320019 28.861746 -12.263010 45.032937 -0.728934 1.846591 0.074718 -0.027450 -131713.000000 0 0 1
-33.379499 27.983646 -11.598210 45.075424 -0.697691 1.831030 0.071493 -0.027264 -273609.000000 0 0 1
-32.967389 27.489846 -10.361710 44.157733 -0.695043 1.807657 0.075136 -0.024613 625680.000000 0 0 1
-33.937039 26.590146 -9.756710 44.203528 -0.664607 1.793351 0.086611 -0.020773 9185.370000 0 0 1
-33.299099 25.671046 -8.659110 42.927995 -0.656758 1.773902 0.074626 -0.022471 427482.000000 0 0 1
-32.700969 26.283546 -7.494310 42.618574 -0.677026 1.747562 0.081622 -0.026780 24430.500000 0 0 1
-31.475829 26.877546 -7.808910 42.120178 -0.706760 1.757271 0.080705 -0.032246 -992684.000000 0 0 1
-30.897979 27.712146 -6.614610 42.028576 -0.731095 1.728837 0.088374 -0.022582 -240053.000000 0 0 1
-30.151229 26.974446 -5.685210 40.853873 -0.729845 1.710409 0.108504 -0.029746 122775.000000 0 0 1
-30.324059 27.372546 -4.300710 41.076769 -0.734287 1.675688 0.103481 -0.030530 52774.400000 0 0 1
-29.493459 26.522646 -3.302910 39.802313 -0.732413 1.653875 0.102481 -0.029326 189523.000000 0 0 1
-30.128749 25.277646 -3.086710 39.449065 -0.698066 1.649122 0.100770 -0.023989 673522.000000 0 0 1
-29.350259 24.524646 -2.137410 38.307499 -0.696066 1.626621 0.081375 -0.020480 225840.000000 0 0 1
-30.121319 23.301346 -1.709610 38.120459 -0.658424 1.615659 0.089528 -0.024599 -60653.300000 0 0 1
-30.401189 22.419146 -2.780610 37.875879 -0.635416 1.644276 0.067952 -0.020043 564853.000000 0 0 1
-31.359449 21.441146 -2.339810 38.060642 -0.599717 1.632311 0.069934 -0.018956 313682.000000 0 0 1
-31.734729 20.456746 -3.484810 37.917218 -0.572582 1.662832 0.059640 -0.015702 -790958.000000 0 0 1
-30.775229 19.524046 -3.783910 36.641794 -0.565336 1.674248 0.048614 -0.014137 -383716.000000 0 0 1
-31.055589 18.883146 -4.969310 36.684014 -0.546313 1.706677 0.045836 -0.015199 -322614.000000 0 0 1
-30.012239 17.836546 -5.421410 35.330844 -0.536224 1.724852 0.034141 -0.004226 -388041.000000 0 0 1
-29.790309 16.793246 -4.535610 34.497063 -0.513312 1.702656 0.038141 -0.006452 842244.000000 0 0 1
-28.813269 15.845246 -5.035310 33.266058 -0.502789 1.722745 0.014268 -0.003443 428935.000000 0 0 1
-28.747879 14.575146 -4.131710 32.495330 -0.469231 1.698289 0.019819 -0.008959 -450045.000000 0 0 1
-29.939159 13.850146 -4.171010 33.250220 -0.433291 1.696571 0.045122 -0.002028 -31386.800000 0 0 1
-29.791489 12.575446 -3.595110 32.536126 -0.399425 1.681518 0.037485 -0.007077 59634.300000 0 0 1
-31.098049 11.970246 -3.011610 33.458112 -0.367439 1.660930 0.051759 -0.010009 -124459.000000 0 0 1
-31.948569 11.298746 -3.919010 34.113507 -0.339927 1.685932 0.058625 0.000271 211447.000000 0 0 1
-32.603859 10.274046 -3.204710 34.334208 -0.305268 1.664271 0.045926 0.006153 -981868.000000 0 0 1
-33.668619 9.599946 -3.999410 35.238192 -0.277760 1.684538 0.052251 0.000989 -892505.000000 0 0 1
-33.139529 8.975746 -5.162210 34.719459 -0.264501 1.720033 0.050488 -0.015619 925167.000000 0 0 1
-34.159427 8.452146 -6.035010 35.703313 -0.242561 1.740644 0.067407 -0.011238 458889.000000 0 0 1
-33.532089 7.576546 -7.150610 35.113192 -0.222218 1.775875 0.062977 -0.016271 -306746.000000 0 0 1
-33.012969 6.381146 -6.684010 34.281936 -0.190937 1.767025 0.059995 -0.020031 335599.000000 0 0 1
-32.553089 5.604646 -7.805510 33.941739 -0.170498 1.802841 0.058770 -0.024686 747569.000000 0 0 1
-31.438069 4.482346 -7.479610 32.624963 -0.141623 1.802114 0.071162 -0.026735 1011890.000000 0 0 1
-30.131849 4.955646 -7.258410 31.387438 -0.163006 1.804161 0.056229 -0.019395 357433.000000 0 0 1
-29.303719 4.021246 -6.578310 30.301032 -0.136375 1.789637 0.056864 -0.023252 157225.000000 0 0 1
-27.853759 4.411446 -6.233310 28.881602 -0.157074 1.788331 0.075290 -0.018597 35402.100000 0 0 1
-27.125149 4.744846 -7.382410 28.509424 -0.173172 1.832727 0.071869 -0.021593 -1059570.000000 0 0 1
-25.763149 4.731946 -7.162910 27.155818 -0.181647 1.837726 0.090464 -0.029099 -1089320.000000 0 0 1
-24.998609 5.127346 -8.419010 26.871916 -0.202300 1.889464 0.085834 -0.026922 -709628.000000 0 0 1
-25.142759 4.161246 -9.471810 27.188039 -0.164018 1.926640 0.079904 -0.036971 546618.000000 0 0 1
-24.086709 4.069746 -10.431610 26.562208 -0.167381 1.974388 0.077930 -0.038613 -230518.000000 0 0 1
-24.480809 3.347646 -11.736810 27.354514 -0.135903 2.014252 0.072803 -0.043468 -216686.000000 0 0 1
-25.339289 4.152046 -12.505610 28.560626 -0.162415 2.024015 0.071271 -0.026128 143767.000000 0 0 1
-25.840069 3.479346 -13.638710 29.424980 -0.133844 2.052746 0.069646 -0.031029 73151.600000 0 0 1
-26.664919 4.425846 -14.567610 30.705395 -0.164481 2.065115 0.052745 -0.023335 12707.200000 0 0 1
-25.882409 5.210846 -15.478010 30.604261 -0.198672 2.101044 0.042657 -0.016258 591735.000000 0 0 1
-26.641929 6.178646 -16.195710 31.784730 -0.227886 2.105451 0.056929 -0.016247 142790.000000 0 0 1
-27.503729 5.698746 -17.404310 33.043015 -0.204308 2.125530 0.028262 -0.004327 77399.200000 0 0 1
-28.635319 4.937346 -17.080410 33.706072 -0.170743 2.102202 0.031894 -0.016433 -368555.000000 0 0 1
-29.321929 4.377146 -18.170410 34.772097 -0.148185 2.120644 0.034520 -0.011841 216092.000000 0 0 1
-30.781609 4.051846 -17.710910 35.743548 -0.130880 2.089206 0.032341 -0.011717 243263.000000 0 0 1
-31.012979 2.851746 -16.993110 35.478206 -0.091695 2.070281 0.035860 -0.020850 252045.000000 0 0 1
-30.783279 1.640846 -17.658110 35.526209 -0.053253 2.090986 0.055688 -0.022505 -348824.000000 0 0 1
-30.876959 0.455346 -16.653510 35.084660 -0.014746 2.065381 0.059215 -0.019247 -439355.000000 0 0 1
-30.495079 -0.784654 -17.192110 35.016199 0.025725 2.084006 0.061176 -0.012512 359870.000000 0 0 1
-30.551129 -1.819854 -16.271710 34.661966 0.059497 2.059453 0.069875 -0.023417 -197681.000000 0 0 1
-30.206579 -3.186654 -16.828910 34.724694 0.105107 2.076746 0.065719 -0.010156 -273839.000000 0 0 1
-31.097169 -3.484254 -17.860510 36.030151 0.111579 2.089449 0.056164 -0.009012 55997.800000 0 0 1
-30.904249 -4.790654 -18.393710 36.281559 0.153792 2.102464 0.053222 -0.003936 680326.000000 0 0 1
-31.865859 -4.936154 -19.658810 37.765956 0.153683 2.118283 0.054697 -0.003966 575448.000000 0 0 1
-31.887299 -6.234654 -20.195710 38.256208 0.193086 2.126930 0.051679 0.001957 156759.000000 0 0 1
-32.834329 -6.424354 -21.231210 39.624863 0.193219 2.136257 0.054698 -0.001805 -207493.000000 0 0 1
-32.631829 -7.710354 -22.028010 40.118812 0.232028 2.152047 0.049692 -0.002474 -40568.700000 0 0 1
-31.466059 -7.584154 -22.826610 39.606646 0.236515 2.185030 0.044150 -0.002077 33208.800000 0 0 1
-31.361319 -8.542954 -23.890210 40.339268 0.265951 2.204623 0.036920 0.004609 4561.590000 0 0 1
-30.066819 -8.473954 -24.739810 39.848208 0.274712 2.240624 0.043843 0.001024 -167538.000000 0 0 1
-29.924489 -7.212454 -25.358330 39.881568 0.236511 2.259894 0.052807 -0.008771 115985.000000 0 0 1
-29.955449 -7.226854 -26.765880 40.816280 0.236730 2.285992 0.052764 -0.004175 -162223.000000 0 0 1
-31.339769 -7.213654 -27.439580 42.274679 0.226235 2.277169 0.053032 -0.000430 -245056.000000 0 0 1
-32.171889 -8.282454 -27.102110 42.873697 0.251972 2.255106 0.030064 0.001504 -501722.000000 0 0 1
-33.501929 -8.101254 -27.532350 44.113942 0.237260 2.244800 0.044352 0.011375 -186308.000000 0 0 1
-34.245865 -9.361254 -27.210440 44.730531 0.266836 2.224737 0.029087 0.010298 -562300.000000 0 0 1
-33.775369 -10.433654 -28.038750 45.119931 0.299614 2.241359 0.019665 0.013595 42031.200000 0 0 1
-34.623470 -11.522054 -27.913940 45.942687 0.321254 2.223809 -0.001176 0.012111 -328537.000000 0 0 1
-35.843064 -11.525654 -28.848350 47.431985 0.311116 2.224593 0.001788 0.008246 -528310.000000 0 0 1
35.105936 -10.682154 -28.418430 46.412739 -0.295382 2.229760 -0.009742 0.018298 -710417.000000 0 0 1
34.059276 -10.471454 -29.313130 46.140494 -0.298276 2.259195 -0.009236 0.008898 -537478.000000 0 0 1
33.022786 -9.445654 -28.884250 44.877886 -0.278596 2.270014 0.000038 0.009947 -292415.000000 0 0 1
32.230396 -9.963954 -27.802590 43.715704 -0.299828 2.260082 -0.010033 0.013870 335677.000000 0 0 1
31.305616 -8.987954 -27.326610 42.515509 -0.279584 2.268872 -0.002622 0.007472 15819.300000 0 0 1
30.409076 -9.426354 -26.195900 41.228549 -0.300592 2.259300 -0.004644 0.015530 -237337.000000 0 0 1
31.118036 -9.586054 -24.955310 41.024287 -0.298830 2.224721 -0.016148 0.018033 375653.000000 0 0 1
30.259756 -9.993554 -23.899310 39.833415 -0.318981 2.214274 0.001642 0.011910 -287385.000000 0 0 1
30.907286 -9.949454 -22.548110 39.530611 -0.311437 2.177784 -0.004398 0.004367 215170.000000 0 0 1
31.901746 -10.980254 -22.379610 40.486224 -0.331489 2.156482 -0.008842 0.010534 640804.000000 0 0 1
32.073466 -11.215054 -21.018410 39.953200 -0.336379 2.124776 0.001083 0.003243 -169901.000000 0 0 1
32.997606 -12.337454 -20.497010 40.757603 -0.357797 2.097747 0.006184 0.003203 1026990.000000 0 0 1
34.402966 -12.137654 -20.776710 41.982834 -0.339175 2.088500 0.009923 0.008139 939247.000000 0 0 1
35.170886 -13.015654 -19.966710 42.486092 -0.354441 2.060040 0.015856 0.003246 -51065.200000 0 0 1
-35.300456 -13.123354 -20.375410 42.819411 0.355929 2.066721 0.006150 0.004858 -8139.540000 0 0 1
-34.543953 -11.900154 -20.380110 41.835956 0.331761 2.079612 0.014229 0.003870 367194.000000 0 0 1
-34.858082 -10.908554 -21.367310 42.316006 0.303287 2.100116 0.005935 0.017542 -932015.000000 0 0 1
-34.406517 -11.203054 -22.879910 42.811297 0.314782 2.134637 -0.000384 0.014288 669564.000000 0 0 1
-35.221384 -12.116554 -23.654210 44.123445 0.331330 2.136597 0.002513 0.013060 1368230.000000 0 0 1
35.326226 -11.857054 -23.776410 44.202371 -0.323829 2.138739 -0.002019 0.016382 345343.000000 0 0 1
34.666986 -12.784854 -24.768610 44.482991 -0.353316 2.161338 -0.008253 0.013875 -355945.000000 0 0 1
34.583956 -14.199954 -24.487510 44.691463 -0.389605 2.150676 0.005912 0.003867 152829.000000 0 0 1
33.929406 -14.576854 -23.311310 43.670430 -0.405780 2.133885 0.007037 0.004213 -360796.000000 0 0 1
-29.644449 8.652846 -19.235910 36.382487 -0.283998 2.127880 0.007547 0.009636 218003.000000 0 0 1
-28.459179 7.879946 -19.352410 35.306291 -0.270119 2.150922 0.005773 0.007026 222212.000000 0 0 1
-27.914519 8.081246 -20.667510 35.660523 -0.281796 2.188988 0.018464 -0.011977 -115672.000000 0 0 1
-26.676929 7.228346 -20.997310 34.710151 -0.264605 2.220478 0.024062 -0.012782 -559416.000000 0 0 1
-25.555459 7.648946 -20.308410 33.526398 -0.290822 2.221497 0.030362 -0.013174 137217.000000 0 0 1
-24.437309 6.753346 -20.471110 32.586134 -0.269625 2.250054 0.057025 -0.022981 1949180.000000 0 0 1
-23.036609 7.142346 -19.825810 31.221166 -0.300645 2.258820 0.049499 -0.025802 1411180.000000 0 0 1
-22.380109 8.187846 -20.561710 31.475292 -0.350728 2.282685 0.052931 -0.021059 574678.000000 0 0 1
-21.161409 8.550046 -19.876210 30.265033 -0.383984 2.287282 0.047892 -0.017504 658296.000000 0 0 1
-20.365409 9.556046 -20.744410 30.600628 -0.438729 2.315709 0.061631 -0.015550 -427912.000000 0 0 1
-19.910409 9.066246 -21.943310 30.985966 -0.427296 2.357698 0.083220 -0.021915 29307.600000 0 0 1
-19.185309 10.068346 -22.655510 31.348362 -0.483286 2.378499 0.075605 -0.020709 -144899.000000 0 0 1
-18.263309 9.397546 -23.661110 31.332259 -0.475227 2.426706 0.092784 -0.017441 -139609.000000 0 0 1
-18.935109 8.825846 -24.768510 32.402361 -0.436170 2.440913 0.089498 -0.014866 103571.000000 0 0 1
-17.944809 8.258046 -25.580890 32.320171 -0.431297 2.484029 0.071888 -0.007939 -251265.000000 0 0 1
-18.511609 7.320646 -26.680940 33.288798 -0.376589 2.500594 0.053313 -0.003949 -80663.800000 0 0 1
-18.955609 6.176046 -26.016230 32.776560 -0.314970 2.487738 0.062510 0.002157 322047.000000 0 0 1
-19.622109 5.176146 -26.795850 33.613051 -0.257916 2.493416 0.049343 -0.002382 -406271.000000 0 0 1
-19.745009 3.785446 -26.041180 32.898906 -0.189418 2.484140 0.041000 0.009952 -73776.600000 0 0 1
-18.633309 2.918346 -25.986060 32.109068 -0.155358 2.513766 0.042529 0.007330 570124.000000 0 0 1
-17.577209 3.374046 -25.112400 30.837884 -0.189649 2.522381 0.043486 -0.000658 497707.000000 0 0 1
-16.673609 2.237946 -24.503110 29.722383 -0.133423 2.539936 0.045038 -0.007020 468478.000000 0 0 1
-17.269209 1.412146 -23.457110 29.162574 -0.081591 2.505388 0.039704 -0.005276 466619.000000 0 0 1
-18.420609 0.687446 -23.860510 30.151540 -0.037302 2.483815 0.028159 -0.004419 -35344.800000 0 0 1
-19.057809 -0.118054 -22.734310 29.665854 0.006194 2.443930 0.050981 -0.007885 451232.000000 0 0 1
-18.275909 -1.303054 -22.385710 28.927959 0.071179 2.455683 0.038652 -0.009914 619708.000000 0 0 1
-18.921409 -1.981154 -21.330610 28.582156 0.104324 2.413269 0.051731 -0.011640 -148263.000000 0 0 1
-18.499009 -3.431854 -20.930810 28.144089 0.183430 2.409387 0.033610 -0.018879 -214145.000000 0 0 1
-18.789409 -4.378754 -21.909510 29.193184 0.228957 2.419616 0.036835 -0.025623 242938.000000 0 0 1
-18.755009 -5.684254 -21.379810 29.002713 0.294279 2.399663 0.042012 -0.014488 -209316.000000 0 0 1
-18.777109 -6.751554 -22.453810 30.038923 0.345169 2.415073 0.022803 -0.013480 605263.000000 0 0 1
-17.590109 -6.707154 -23.278510 29.938051 0.364285 2.461566 0.015093 -0.002444 903747.000000 0 0 1
-17.737909 -7.609254 -24.383910 31.098380 0.405239 2.472024 0.023972 -0.013880 -66558.500000 0 0 1
-16.339609 -7.878054 -24.962710 30.857470 0.449262 2.513191 0.029712 -0.017386 -800342.000000 0 0 1
-16.339009 -8.780754 -26.056470 31.984441 0.493126 2.522940 0.034483 -0.034309 12314.900000 0 0 1
-15.092109 -8.809054 -26.722260 31.928833 0.528338 2.562450 0.047011 -0.037014 527602.000000 0 0 1
-13.960509 -9.601354 -25.969650 31.008137 0.602458 2.563508 0.057946 -0.040756 -221001.000000 0 0 1
-13.427509 -9.035654 -24.769610 29.588420 0.592320 2.562827 0.052137 -0.034391 115278.000000 0 0 1
-12.578909 -9.933954 -24.083910 28.930038 0.668448 2.554380 0.040324 -0.036172 -242353.000000 0 0 1
-11.729609 -9.224554 -23.013110 27.427711 0.666414 2.566324 0.052720 -0.029865 -853122.000000 0 0 1
-12.339709 -8.613654 -21.927410 26.594638 0.609412 2.540123 0.046157 -0.023662 -524873.000000 0 0 1
-11.449409 -8.199854 -20.938510 25.233862 0.621504 2.549507 0.042557 -0.021105 -1048310.000000 0 0 1
-12.090409 -7.715654 -19.628510 24.310239 0.568009 2.510558 0.030964 -0.012874 -92155.700000 0 1 0
-12.973309 -6.617854 -19.768410 24.553875 0.471705 2.506646 0.019654 0.002747 140474.000000 0 1 0
-14.327309 -6.980454 -19.885610 25.484034 0.453366 2.465968 0.022430 -0.009126 -509317.000000 0 0 1
-15.275309 -5.846854 -19.451210 25.413979 0.365561 2.442419 0.013641 -0.004834 -465520.000000 0 0 1
-15.157709 -5.456654 -18.068910 24.207782 0.345548 2.413446 0.009562 -0.002264 303910.000000 0 1 0
-14.977609 -4.071454 -17.888910 23.683720 0.265422 2.426946 0.011685 -0.004899 -677573.000000 0 1 0
-14.836609 -3.559354 -16.420010 22.414520 0.235454 2.392873 0.024803 -0.010414 465892.000000 0 1 0
-15.989409 -3.594154 -15.558610 22.597555 0.221108 2.330227 0.029616 -0.013768 622062.000000 0 1 0
-16.654509 -2.328954 -15.496910 22.868120 0.138938 2.315378 0.011369 -0.012458 -952235.000000 0 1 0
-17.957109 -2.344654 -14.764010 23.365170 0.129835 2.254774 0.030252 -0.013363 -1154640.000000 0 1 0
-17.896509 -2.673354 -13.367010 22.496862 0.148282 2.207032 0.056746 -0.024196 501327.000000 0 1 0
-18.562409 -1.763354 -12.476410 22.435090 0.094712 2.160496 0.045995 -0.030810 217046.000000 0 1 0
-17.695909 -0.530754 -12.017010 21.397089 0.029984 2.167137 0.022901 -0.024124 138578.000000 0 1 0
-17.407509 0.382446 -13.039810 21.753259 -0.021967 2.213600 0.039081 -0.022472 555238.000000 0 1 0
-16.607809 1.477746 -12.622110 20.912215 -0.088745 2.218775 0.047842 -0.015396 -710689.000000 0 1 0
-16.190009 2.475846 -13.782810 21.405888 -0.151749 2.270354 0.059173 -0.005837 477896.000000 0 1 0
-15.339509 1.876346 -14.786410 21.388294 -0.121716 2.334127 0.043347 -0.018429 1479310.000000 0 1 0
-14.037109 1.439846 -14.343110 20.120596 -0.102217 2.364360 0.038141 -0.013601 38581.700000 0 1 0
-13.459409 0.318746 -15.251410 20.343618 -0.023678 2.418390 0.031677 -0.014903 -132871.000000 0 1 0
-13.144809 0.732846 -16.523310 21.126828 -0.055694 2.468826 0.033907 -0.017627 70680.100000 0 1 0
-12.543509 -0.272254 -17.312410 21.380675 0.021701 2.514475 0.006393 -0.014610 -98132.800000 0 1 0
-11.906309 0.347846 -18.599410 22.086630 -0.029207 2.571983 0.016609 -0.019823 265986.000000 0 1 0
-10.743109 1.126346 -18.362910 21.304448 -0.104462 2.609857 0.001522 -0.013994 -236250.000000 0 1 0
-10.374909 1.777946 -19.529910 22.185969 -0.169721 2.647253 -0.000314 -0.008239 -89916.900000 0 1 0
-9.098409 2.643446 -19.444410 21.629931 -0.282755 2.688182 0.000708 -0.005674 -1436420.000000 0 1 0
-7.994609 1.790446 -19.490710 21.142546 -0.220321 2.743679 0.001374 -0.006367 -605041.000000 0 1 0
-6.797409 2.484446 -19.164310 20.485312 -0.350415 2.780509 0.006524 -0.004035 378774.000000 0 1 0
-6.306409 3.540446 -20.229410 21.483356 -0.511557 2.798241 0.005295 0.001971 -1269080.000000 0 1 0
-6.047709 2.955746 -21.516910 22.545257 -0.454598 2.838398 0.002925 0.000094 308177.000000 0 1 0
-5.944609 3.915046 -22.563710 23.659818 -0.582389 2.836011 0.011186 0.003936 -694298.000000 0 1 0
-5.608709 3.322246 -23.877910 24.751758 -0.534766 2.875081 0.026105 -0.009121 -228733.000000 0 1 0
-4.272809 2.870246 -23.846610 24.395820 -0.591511 2.929002 0.030550 -0.016689 37066.200000 0 1 0
-3.800009 2.184846 -25.013410 25.394572 -0.521803 2.968115 0.044617 -0.020137 490120.000000 0 0 1
-2.358709 1.618046 -24.893110 25.056905 -0.601260 3.027189 0.043261 -0.018625 415425.000000 0 0 1
-1.276609 2.561246 -24.804510 24.969049 -1.108403 3.026728 0.047328 -0.020324 451999.000000 0 1 0
0.017891 2.057246 -24.653710 24.739402 1.562100 3.058337 0.042646 -0.020462 -133885.000000 0 1 0
0.430391 0.995246 -23.626910 23.651778 1.162635 3.095731 0.037612 -0.024927 -1047690.000000 0 1 0
0.014291 -0.329454 -23.835010 23.837291 -1.527446 3.127758 0.029032 -0.024016 -60941.400000 0 1 0
0.681191 -1.145954 -22.893310 22.932093 -1.034482 3.083426 0.029238 -0.021813 -998874.000000 0 1 0
0.257691 -2.643754 -22.898610 23.052162 -1.473632 3.026107 0.037535 -0.024772 303050.000000 0 1 0
-0.961209 -2.890854 -22.196710 22.404796 1.249796 3.005196 0.035113 -0.020551 132209.000000 0 1 0
-2.127609 -2.697154 -22.951910 23.207575 0.902901 2.993021 0.048180 -0.022526 -778930.000000 0 1 0
-2.841109 -1.345954 -22.779910 22.995821 0.442422 3.004451 0.045964 -0.026583 -2005740.000000 0 1 0
-3.345709 -1.071154 -21.493210 21.778412 0.309846 2.979578 0.032727 -0.025255 80153.300000 0 1 0
-4.251809 -0.022154 -21.373010 21.791832 0.005210 2.945220 0.020304 -0.026106 -186528.000000 0 1 0
-5.562209 -0.143854 -22.156310 22.844276 0.025857 2.895553 0.021816 -0.018813 -1082140.000000 0 1 0
-6.329909 -1.279454 -21.753610 22.691943 0.199441 2.853013 0.024036 -0.012671 452753.000000 0 1 0
-7.728909 -1.038954 -21.838210 23.188852 0.133623 2.798607 0.014838 -0.008045 351743.000000 0 1 0
-8.607809 -2.219854 -21.441910 23.211584 0.252389 2.748579 0.017184 -0.015502 -289619.000000 0 1 0
-8.632109 -3.240854 -22.386110 24.210625 0.359158 2.750885 0.042665 -0.021382 207345.000000 0 1 0
-9.175909 -4.464454 -21.827810 24.095268 0.452822 2.704287 0.028902 -0.020880 -324438.000000 0 1 0
-10.007009 -5.207554 -22.876310 25.506556 0.479827 2.683459 0.024209 -0.025431 -193879.000000 0 0 1
-11.371209 -4.902054 -22.851310 25.990708 0.407021 2.644999 0.019681 -0.023191 -285675.000000 0 0 1
-12.240709 -5.647954 -23.662610 27.233315 0.432300 2.623741 0.017538 -0.029080 2067840.000000 0 0 1
-13.806609 -5.347854 -23.445710 27.729467 0.369545 2.578327 0.007443 -0.019985 1916560.000000 0 0 1
-14.268509 -4.137054 -24.042310 28.261957 0.282205 2.588103 0.007946 -0.024659 -276552.000000 0 0 1
-15.663109 -4.013154 -23.925610 28.876863 0.250821 2.547290 0.024027 -0.018264 -87108.600000 0 0 1
-16.096709 -2.670554 -24.551510 29.479019 0.164409 2.555028 0.019353 -0.021944 -189314.000000 0 0 1
-15.818509 -2.498754 -25.930950 30.477585 0.156669 2.588341 0.016615 -0.021248 43352.200000 0 0 1
-15.892409 -1.199454 -26.422350 30.856894 0.075331 2.598833 0.015625 -0.015690 153717.000000 0 0 1
-17.290909 -0.823954 -26.993730 32.067365 0.047616 2.571372 0.030545 -0.010490 268391.000000 0 0 1
-17.656809 -1.625854 -28.106520 33.232255 0.091822 2.578785 0.032500 -0.023570 268825.000000 0 0 1
-17.134309 -0.989854 -29.317880 33.972083 0.057706 2.611973 0.026479 -0.014430 95301.200000 0 0 1
-17.248809 -1.833954 -30.579420 35.156589 0.105926 2.625606 0.037477 -0.015903 19644.400000 0 0 1
-18.580909 -2.001354 -31.004120 36.200981 0.107297 2.599138 0.036612 -0.021991 90098.500000 0 0 1
-18.599309 -2.730254 -32.200070 37.285830 0.145752 2.613165 0.040635 -0.024689 391092.000000 0 0 1
-20.041309 -3.237254 -32.562100 38.372181 0.160146 2.584103 0.022533 -0.022016 779457.000000 0 0 1
-20.988109 -2.258954 -32.940130 39.123596 0.107217 2.571684 0.015357 -0.017049 226495.000000 0 0 1
-21.860509 -1.846154 -31.918490 38.730868 0.084252 2.539425 0.006074 -0.002458 449501.000000 0 0 1
-23.060909 -0.937354 -32.359340 39.746837 0.040625 2.522036 0.000846 0.002072 468637.000000 0 0 1
-22.571209 0.340846 -32.742300 39.769761 -0.015100 2.537991 -0.006734 -0.003396 365224.000000 0 0 1
-23.565609 1.153046 -33.329700 40.835479 -0.048890 2.525590 -0.013768 -0.001010 -14370.300000 0 0 1
-22.982109 2.455546 -33.897910 41.027739 -0.106442 2.543159 -0.006538 -0.002157 -260770.000000 0 0 1
-22.386809 3.356546 -32.983250 40.004130 -0.148825 2.540107 -0.009248 0.004576 374173.000000 0 0 1
-23.294909 4.060246 -32.148350 39.908079 -0.172564 2.507416 -0.016869 0.005377 -216817.000000 0 0 1
-24.394909 4.993346 -32.719310 41.116886 -0.201899 2.491063 -0.022314 0.004482 266534.000000 0 0 1
-25.611229 4.358546 -33.094690 42.073632 -0.168566 2.476063 0.006767 -0.011926 212652.000000 0 0 1
-26.251909 5.014846 -34.117550 43.339573 -0.188754 2.477076 0.018137 -0.016824 -272182.000000 0 0 1
-27.622879 4.459346 34.028551 44.055097 -0.160056 0.688171 0.035592 -0.015520 86218.600000 0 0 1
-27.385339 3.196046 33.473048 43.366075 -0.116181 0.689016 0.041865 -0.019657 583767.000000 0 0 1
-28.605449 2.711846 32.936837 43.708822 -0.094519 0.717349 0.046170 -0.016422 251463.000000 0 0 1
-28.520379 1.205846 32.494467 43.252243 -0.042255 0.720800 0.045286 -0.007611 -253525.000000 0 0 1
-28.575289 0.294246 33.527731 44.053859 -0.010297 0.705847 0.052959 -0.006189 58193.300000 0 0 1
-28.410879 -1.011554 33.123632 43.650617 0.035589 0.709273 0.037513 0.001549 -749313.000000 0 0 1
-28.433799 -1.973154 -34.208394 44.526267 0.069284 2.446937 -0.002349 0.016974 -338831.000000 0 0 1
-27.300809 -1.880054 -33.398720 43.178042 0.068756 2.455160 0.022092 -0.000068 -71251.500000 0 0 1
-26.989339 -0.630554 -32.776220 42.462956 0.023359 2.452586 0.035488 -0.000901 -740250.000000 0 0 1
-27.161349 -0.580954 -31.208680 41.377024 0.021386 2.425310 0.051258 0.001147 -874406.000000 0 0 1
-26.267669 -1.301754 -30.482530 40.260025 0.049517 2.429722 0.039643 -0.003384 -440794.000000 0 0 1
-26.351539 -1.010454 -29.097700 39.269591 0.038326 2.405314 0.045238 -0.012593 260082.000000 0 0 1
-25.193479 -1.670254 -28.259730 37.896088 0.066200 2.412406 0.049412 -0.012934 367806.000000 0 0 1
-25.334419 -3.049554 -27.957580 37.851801 0.119796 2.401797 0.044032 -0.015078 -495506.000000 0 0 1
-24.436409 -3.508354 -27.015430 36.596176 0.142596 2.401200 0.055920 -0.016511 -578835.000000 0 0 1
-24.868209 -4.792854 -26.258350 36.481505 0.190396 2.374270 0.054073 -0.023094 571721.000000 0 0 1
-25.905239 -4.627254 -25.270180 36.483899 0.176758 2.335938 0.058138 -0.018868 484488.000000 0 0 1
-26.254219 -5.762054 -24.525910 36.386887 0.216046 2.310449 0.045624 -0.014621 121336.000000 0 0 1
-27.534779 -5.557454 -23.685710 36.743193 0.199158 2.271334 0.065258 -0.018756 -10212.000000 0 0 1
-27.693899 -6.607254 -22.732310 36.433031 0.234203 2.244581 0.058473 -0.014335 -20645.100000 0 0 1
-28.696129 -6.356654 -21.766610 36.574037 0.217996 2.208234 0.053985 -0.009432 -206606.000000 0 0 1
-28.870149 -7.555254 -20.783110 36.366262 0.255958 2.179122 0.057913 -0.011443 -281228.000000 0 0 1
-27.757759 -7.810554 -19.952710 35.065775 0.274290 2.176095 0.055452 -0.011969 57271.600000 0 0 1
-28.012379 -8.746554 -18.896210 34.903615 0.302647 2.142877 0.067154 -0.011510 97785.600000 0 0 1
-28.658559 -8.304154 -17.558510 34.620417 0.282038 2.102697 0.066274 -0.019347 492591.000000 0 0 1
-27.780699 -7.438454 -16.812210 33.312884 0.261619 2.099803 0.080057 -0.021628 538230.000000 0 0 1
-28.355709 -7.056054 -15.594010 33.121100 0.243887 2.061014 0.068780 -0.018938 -110537.000000 0 0 1
-27.531419 -5.985054 -14.853410 31.850019 0.214059 2.055962 0.092221 -0.022760 8426.570000 0 0 1
-27.518389 -4.707154 -15.525410 31.944599 0.169415 2.078315 0.080297 -0.016827 64647.900000 0 0 1
-26.893649 -3.704654 -14.755210 30.898366 0.136890 2.068649 0.087820 -0.020052 -104963.000000 0 0 1
-14.075809 21.544446 -5.069410 26.229573 -0.992078 1.765291 0.045090 -0.014793 -52328.900000 0 0 1
-14.400309 20.913846 -6.281310 26.157460 -0.967794 1.813301 0.071541 -0.016147 175805.000000 0 0 1
-14.824009 19.562646 -6.130310 25.298796 -0.922340 1.815549 0.068256 -0.024192 -268952.000000 0 0 1
-15.140709 18.853346 -7.472210 25.308569 -0.894181 1.870508 0.076502 -0.029379 -580122.000000 0 0 1
-14.002709 18.493646 -8.220310 24.610248 -0.922726 1.911361 0.066599 -0.025401 -34736.300000 0 1 0
-14.204809 17.546246 -9.220510 24.385757 -0.890251 1.958551 0.056160 -0.026363 -369961.000000 0 1 0
-14.488409 16.039346 -8.694310 23.297331 -0.836159 1.953240 0.056823 -0.027852 652463.000000 0 1 0
-15.895609 15.988346 -8.423010 24.067503 -0.788307 1.928340 0.059669 -0.019286 808672.000000 0 1 0
-16.271209 15.008046 -7.490010 23.368653 -0.745037 1.897070 0.071976 -0.015104 -813147.000000 0 1 0
-17.734109 15.198846 -7.148410 24.425464 -0.708567 1.867806 0.089673 -0.009825 -1015350.000000 0 1 0
-18.638909 14.854646 -8.139410 25.185699 -0.672890 1.899880 0.072051 -0.013824 -87377.000000 0 0 1
-19.945109 15.327846 -7.843310 26.348961 -0.655237 1.873048 0.068195 -0.011417 -222488.000000 0 0 1
-21.017109 14.700846 -8.685010 27.078832 -0.610370 1.897297 0.065223 -0.002839 -711909.000000 0 0 1
-21.262209 13.314446 -8.397910 26.455262 -0.559463 1.893823 0.073075 -0.006573 301707.000000 0 0 1
-22.270309 12.653346 -9.154910 27.200849 -0.516687 1.914065 0.066955 -0.011635 302061.000000 0 0 1
-22.755809 11.256846 -8.738710 26.849739 -0.459383 1.902302 0.060194 -0.017884 -95650.400000 0 0 1
-21.769509 10.226946 -8.781610 25.605051 -0.439183 1.920867 0.073636 -0.018956 227364.000000 0 0 1
-22.168309 9.221346 -7.867210 25.265790 -0.394197 1.887439 0.082113 -0.021929 361848.000000 0 0 1
-20.992909 8.317446 -7.370510 23.753033 -0.377229 1.886302 0.074330 -0.010087 29220.900000 0 1 0
-20.673609 7.270846 -8.251010 23.416714 -0.338186 1.930883 0.059661 -0.022115 591299.000000 0 1 0
-19.807709 6.255946 -7.715810 22.158879 -0.305919 1.926451 0.064414 -0.010789 71188.800000 0 1 0
-19.486309 5.098346 -8.652610 21.922067 -0.255901 1.976536 0.047617 -0.018034 -855479.000000 0 1 0
-20.545509 4.228046 -8.831410 22.759352 -0.202956 1.969294 0.061851 -0.015742 154762.000000 0 1 0
-20.191209 3.226046 -9.770110 22.661583 -0.158436 2.016542 0.041939 -0.017999 -272188.000000 0 1 0
-21.201409 2.091246 -9.654810 23.389921 -0.098319 1.996297 0.043878 -0.019544 -295487.000000 0 1 0
-21.030709 1.407346 -8.380110 22.682539 -0.066819 1.949216 0.055284 -0.024099 -20877.900000 0 1 0
-22.044209 0.470746 -8.150410 23.507402 -0.021351 1.924865 0.070571 -0.023482 -773995.000000 0 1 0
-21.996209 -0.938154 -8.842010 23.725398 0.042625 1.952693 0.065486 -0.028917 572460.000000 0 1 0
-20.913709 -1.729654 -8.266910 22.554750 0.082517 1.946069 0.064005 -0.024605 957427.000000 0 1 0
-20.710509 -2.931954 -8.955710 22.753599 0.140634 1.975336 0.035664 -0.019873 221361.000000 0 1 0
-21.583709 -4.137054 -8.431410 23.538487 0.189378 1.937132 0.030607 -0.013807 396181.000000 0 1 0
-21.327509 -4.392154 -7.014710 22.877059 0.203099 1.882443 0.022771 -0.017406 612621.000000 0 1 0
-22.305709 -5.276254 -6.426510 23.805116 0.232273 1.844151 0.037226 -0.015600 140772.000000 0 1 0
-22.339909 -6.735554 -6.816010 24.308378 0.292835 1.855005 0.032596 -0.016819 -581761.000000 0 1 0
-21.255209 -7.397954 -6.249610 23.357467 0.334940 1.841660 0.019647 -0.017073 325960.000000 0 1 0
-21.532109 -8.786554 -6.386410 24.116830 0.387442 1.838805 0.026204 -0.015874 20485.300000 0 1 0
-20.386909 -9.623854 -5.793210 23.276725 0.441047 1.822324 0.021300 -0.015182 789332.000000 0 1 0
-19.172709 -9.799354 -6.550810 22.506293 0.472496 1.866137 0.026423 -0.002843 931169.000000 0 1 0
-18.185309 -10.453654 -5.795110 21.761609 0.521714 1.840348 0.034303 -0.004936 -100604.000000 0 1 0
-17.441409 -11.539954 -6.592210 21.927848 0.584515 1.876151 0.025752 0.001303 618735.000000 0 1 0
-16.346609 -11.172554 -7.502010 21.173515 0.599551 1.932974 0.023516 -0.005908 1066530.000000 0 1 0
-16.646109 -10.479254 -8.707410 21.511083 0.561851 1.987542 0.023903 -0.015953 324944.000000 0 1 0
-15.552209 -10.653254 -9.844010 21.266583 0.600587 2.052045 0.026550 -0.011518 909165.000000 0 1 0
-15.659609 -11.968154 -10.273910 22.226410 0.652571 2.051315 0.030577 -0.013435 -250698.000000 0 1 0
-14.554309 -12.313554 -11.046610 22.033591 0.702192 2.095958 0.032813 -0.006848 -264777.000000 0 1 0
-14.716809 -13.663454 -11.711610 23.247285 0.748299 2.098770 0.049294 -0.006550 438833.000000 0 1 0
-15.663609 -13.698454 -12.801210 24.430867 0.718569 2.122310 0.046899 -0.004409 512006.000000 0 1 0
-15.808109 -14.993254 -13.331010 25.542314 0.758949 2.119895 0.042515 -0.004775 96119.700000 0 0 1
-16.540209 -14.983454 -14.721510 26.735842 0.736055 2.153913 0.064890 -0.005478 74002.000000 0 0 1
-16.691409 -16.218254 -15.392310 27.902654 0.771022 2.155129 0.070020 0.002680 172455.000000 0 0 1
-17.036909 -16.052054 -16.709910 28.760143 0.755643 2.190765 0.063370 0.001017 -364791.000000 0 0 1
-17.111809 -17.402154 -17.546410 30.058700 0.793810 2.194121 0.056818 -0.007817 227961.000000 0 0 1
-18.293509 -18.153554 -17.248610 31.011587 0.781558 2.160601 0.035163 0.000936 -212522.000000 0 0 1
-19.086009 -18.279454 -18.371710 32.185927 0.763816 2.178276 0.037795 -0.001201 -743673.000000 0 0 1
-20.567009 -18.145754 -18.008310 32.811118 0.722935 2.151782 0.017350 -0.005631 -462497.000000 0 0 1
-20.817409 -16.797454 -17.525210 31.978930 0.678931 2.150796 0.014488 0.003220 247765.000000 0 0 1
-20.906409 -16.789354 -16.129910 31.291122 0.676611 2.112363 0.014636 0.004048 -454710.000000 0 0 1
-20.835009 -15.327654 -15.579710 30.195396 0.634265 2.112928 0.017786 -0.001194 142163.000000 0 0 1
-22.056609 -14.609154 -15.561910 30.693557 0.585007 2.102508 0.014093 -0.000241 476289.000000 0 0 1
-21.797409 -13.291554 -15.119310 29.671299 0.547577 2.105470 0.026274 -0.005614 -522688.000000 0 0 1
-23.038109 -12.509554 -14.703710 30.057320 0.497448 2.081956 0.034067 -0.018571 -635360.000000 0 0 1
-23.705709 -13.143954 -13.638110 30.343405 0.506264 2.036956 0.029697 -0.011397 186240.000000 0 0 1
-24.723309 -12.282854 -13.165610 30.585026 0.461095 2.015798 0.058063 -0.023245 -445118.000000 0 0 1
-25.616939 -12.925654 -12.106010 31.142504 0.467300 1.970049 0.054365 -0.024479 -177371.000000 0 0 1
-26.609639 -12.002154 -11.674410 31.439091 0.423723 1.951242 0.053443 -0.035056 226964.000000 0 0 1
-27.156849 -12.376554 -10.429110 31.613919 0.427620 1.906983 0.046065 -0.031225 -30505.900000 0 0 1
-28.079619 -11.351254 -9.758810 31.820596 0.384167 1.882502 0.064606 -0.034991 -303233.000000 0 0 1
-27.356429 -10.383254 -9.028510 30.621890 0.362758 1.870083 0.070751 -0.041508 -141552.000000 0 0 1
-28.141369 -9.508354 -8.245610 30.827513 0.325835 1.841569 0.097746 -0.043439 -200261.000000 0 0 1
-27.356989 -8.328354 -7.636710 29.598744 0.295518 1.831756 0.081934 -0.039405 332505.000000 0 0 1
-26.538649 -8.747354 -6.516910 28.692965 0.318394 1.799922 0.050232 -0.043424 427787.000000 0 0 1
-25.761489 -7.695754 -5.915410 27.529457 0.290292 1.787361 0.049897 -0.037859 -401239.000000 0 0 1
-26.383609 -6.363354 -5.423510 27.676733 0.236666 1.768032 0.062116 -0.038614 -589556.000000 0 0 1
-27.360449 -6.611754 -4.447110 28.497127 0.237108 1.727491 0.064240 -0.042140 290538.000000 0 0 1
-26.822089 -6.896454 -3.137110 27.871616 0.251667 1.683591 0.080395 -0.037087 83666.600000 0 0 1
-26.199429 -5.689354 -2.338410 26.911837 0.213836 1.657798 0.078844 -0.032282 68260.800000 0 0 1
-27.210459 -4.836154 -1.869310 27.700032 0.175895 1.638332 0.087801 -0.031797 397733.000000 0 0 1
-26.572529 -3.839354 -1.091210 26.870629 0.143493 1.611417 0.067410 -0.030024 -359768.000000 0 0 1
-27.506289 -2.720254 -0.542810 27.645802 0.098575 1.590432 0.085505 -0.031183 -50634.600000 0 0 1
-28.463269 -3.044754 0.455390 28.629279 0.106566 1.554889 0.083044 -0.028675 150793.000000 0 0 1
-27.914029 -3.548454 1.673490 28.188386 0.126443 1.511393 0.072196 -0.023178 -216528.000000 0 0 1
-28.933969 -3.754054 2.830490 29.313464 0.129025 1.474086 0.061978 -0.024209 -158673.000000 0 0 1
-29.703899 -4.896754 2.707590 30.226327 0.163383 1.481099 0.070399 -0.024142 -280575.000000 0 0 1
-30.666269 -4.977154 3.721890 31.289688 0.160898 1.451565 0.083087 -0.024652 -27142.500000 0 0 1
-31.433139 -6.351554 3.816590 32.294749 0.199381 1.452340 0.078493 -0.021714 183737.000000 0 0 1
-30.537109 -7.441554 3.891590 31.670747 0.239030 1.447609 0.071826 -0.015162 191340.000000 0 0 1
-31.132459 -8.640154 3.501090 32.498306 0.270716 1.462855 0.093245 -0.026987 -142881.000000 0 0 1
-30.316589 -9.847554 4.005290 32.126504 0.314073 1.445799 0.084333 -0.013906 42353.000000 0 0 1
-30.511399 -10.243854 5.363790 32.629010 0.323914 1.405660 0.059247 -0.005135 225545.000000 0 0 1
-29.538029 -11.195054 5.753290 32.108017 0.362277 1.390638 0.043268 0.008909 -23875.900000 0 0 1
-29.659989 -11.711554 7.201390 32.691520 0.376068 1.348692 0.047550 -0.001830 -175018.000000 0 0 1
-29.382399 -10.725654 8.165090 32.326981 0.350007 1.315452 0.064056 -0.000972 408257.000000 0 0 1
-29.340049 -11.197554 9.479690 32.803784 0.364586 1.277633 0.062314 -0.002787 -255877.000000 0 0 1
-29.527189 -10.031554 10.457290 32.891365 0.327505 1.247246 0.053121 -0.001991 484986.000000 0 0 1
-28.389809 -9.152954 10.406190 31.591876 0.311881 1.235134 0.055498 0.002756 1037500.000000 0 0 1
-28.662199 -8.084054 11.295890 31.850757 0.274905 1.208256 0.050309 0.001228 489054.000000 0 0 1
-27.587189 -6.947154 11.143590 30.553159 0.246696 1.197456 0.056958 -0.001420 365225.000000 0 0 1
-27.830929 -6.037654 10.076990 30.208602 0.213630 1.230698 0.052622 -0.001445 249542.000000 0 0 1
-27.076669 -4.851054 10.239990 29.351936 0.177279 1.214432 0.054158 -0.006220 -109113.000000 0 0 1
-27.305529 -3.865554 9.054490 29.026164 0.140632 1.253560 0.049059 -0.009870 308546.000000 0 0 1
-26.667869 -4.471954 7.890790 28.168035 0.166145 1.286864 0.057783 -0.009456 820043.000000 0 0 1
-27.011859 -3.638654 6.747590 28.078645 0.133900 1.328111 0.051728 -0.021315 388989.000000 0 0 1
-26.115719 -4.096254 5.535790 27.008426 0.155583 1.364368 0.044455 -0.010039 840894.000000 0 0 1
-24.721009 -3.800754 5.667190 25.645488 0.152551 1.347975 0.073441 -0.022988 882779.000000 0 0 1
-24.072009 -4.039254 4.457690 24.812259 0.166250 1.390159 0.084897 -0.013584 541294.000000 0 1 0
-22.555909 -3.609154 4.510690 23.283929 0.158664 1.375838 0.089608 -0.013644 848368.000000 0 1 0
-22.374209 -2.213154 4.512090 22.931686 0.098595 1.372742 0.059714 -0.010764 1243730.000000 0 1 0
-20.974009 -1.905654 4.682890 21.574755 0.090609 1.352001 0.051831 -0.010478 852035.000000 0 1 0
-20.655009 -0.408654 4.963890 21.247038 0.019782 1.334990 0.036563 -0.010002 -301263.000000 0 1 0
-20.652209 0.480746 3.851090 21.013704 -0.023274 1.386489 0.033134 -0.004911 1085550.000000 0 1 0
-21.968409 0.853446 3.415190 22.248660 -0.038829 1.416686 0.028068 -0.012748 399503.000000 0 1 0
-21.873109 1.957546 2.361790 22.087167 -0.089258 1.463661 0.044299 -0.008647 -483551.000000 0 1 0
-21.480109 3.185146 2.883090 21.905535 -0.147211 1.438799 0.036412 -0.004971 135510.000000 0 1 0
-21.712809 4.307646 2.034190 22.229256 -0.195849 1.479159 0.063442 -0.007188 671585.000000 0 1 0
-20.494309 4.506446 1.056590 21.010501 -0.216443 1.520486 0.044649 -0.005571 183016.000000 0 1 0
-20.808009 5.335446 -0.036210 21.481190 -0.251005 1.572482 0.063681 -0.000332 1140840.000000 0 1 0
-21.722609 4.832446 -1.079010 22.279779 -0.218897 1.619245 0.081035 -0.008507 717557.000000 0 1 0
-21.199809 3.594346 -1.883910 21.584725 -0.167949 1.658187 0.067859 -0.010710 -319328.000000 0 1 0
-20.968709 2.484946 -1.055010 21.141778 -0.117957 1.620719 0.034531 -0.007687 687065.000000 0 1 0
-20.502809 1.321046 -1.834310 20.627046 -0.064344 1.659841 0.027806 -0.006903 -3453.700000 0 1 0
-19.704209 0.363446 -0.867210 19.726632 -0.018443 1.614772 0.028820 -0.004879 -326348.000000 0 1 0
-20.534509 -0.494654 -0.116010 20.540794 0.024084 1.576444 0.033806 -0.009408 335561.000000 0 1 0
-19.947609 -1.269454 0.927990 20.009492 0.063554 1.524402 0.037810 -0.005145 -652304.000000 0 1 0
-19.166009 -2.506154 0.416890 19.333663 0.130023 1.549232 0.029114 -0.003248 -66301.000000 0 1 0
-18.564809 -3.264154 1.441390 18.904614 0.174046 1.494477 0.040281 -0.003441 219865.000000 0 1 0
-17.907609 -4.407954 0.987990 18.468585 0.241352 1.517275 0.026514 0.000442 -110248.000000 0 1 0
-18.842409 -5.627154 0.700290 19.677186 0.290211 1.535200 0.028745 0.000849 -19017.500000 0 1 0
-19.553409 -6.059954 1.826490 20.552248 0.300531 1.481808 0.065980 -0.003471 140762.000000 0 1 0
-20.265409 -7.221854 1.511890 21.566822 0.342333 1.500636 0.027272 -0.008146 456967.000000 0 1 0
-21.107609 -7.699554 2.817290 22.644015 0.349777 1.446057 0.046330 -0.003107 601752.000000 0 1 0
-20.208709 -8.138454 3.794890 22.113967 0.382849 1.398337 0.040516 -0.003718 862224.000000 0 1 0
-20.967809 -8.706154 4.872890 23.220491 0.393554 1.359372 0.047332 0.000594 175246.000000 0 1 0
-20.114509 -9.606354 5.736790 23.017087 0.445554 1.318900 0.038926 0.009309 -310578.000000 0 1 0
-19.643609 -10.782654 5.098890 22.981203 0.502009 1.347062 0.035943 0.005378 467.706000 0 1 0
-18.761209 -11.443654 5.939990 22.764526 0.547713 1.306809 0.050374 0.005556 -281592.000000 0 1 0
-18.092709 -12.664854 5.337790 22.720842 0.610724 1.333651 0.033197 0.003698 -178857.000000 0 1 0
-18.936009 -13.771254 5.519290 24.055819 0.628783 1.339297 0.039068 0.009607 138095.000000 0 1 0
-18.461209 -14.914054 4.834890 24.220269 0.679515 1.369825 0.030768 0.013034 -5846.920000 0 1 0
-19.111109 -16.232354 5.252690 25.618637 0.704127 1.364298 0.037568 0.008974 -166614.000000 0 0 1
-18.427309 -17.310154 4.620390 25.701268 0.754148 1.390041 0.033796 0.002234 169701.000000 0 0 1
-19.020409 -18.523754 4.925990 27.003163 0.772170 1.387346 0.030041 0.004381 -532656.000000 0 0 1
-18.019709 -19.642854 4.713690 27.069734 0.828469 1.395773 0.035156 -0.006158 -1069790.000000 0 0 1
-17.905409 -20.146054 3.403390 27.167080 0.844215 1.445190 0.033319 -0.010197 545205.000000 0 0 1
-17.086909 -21.351454 3.390690 27.556194 0.895891 1.447437 0.025755 -0.009824 829613.000000 0 0 1
-15.563809 -21.087254 3.581990 26.452506 0.934976 1.434967 0.035546 -0.005095 -39348.900000 0 0 1
-14.855809 -22.273954 3.931090 27.060627 0.982592 1.425011 0.027547 -0.012801 -447524.000000 0 0 1
-13.468409 -22.148854 4.014990 26.231468 1.024452 1.417132 0.036368 -0.009078 -472513.000000 0 0 1
-12.694209 -23.441554 4.296190 27.001975 1.074482 1.411011 0.043089 -0.004118 -394207.000000 0 0 1
-12.842609 -24.300054 3.208290 27.671616 1.084609 1.454593 0.051137 -0.017790 43673.800000 0 0 1
-12.549509 -25.632054 3.574990 28.762352 1.115502 1.446180 0.044862 -0.020085 -296541.000000 0 0 1
18.867791 19.527346 -24.530210 36.592923 0.802575 2.305482 0.042362 0.010264 -83960.000000 0 0 1
17.917391 19.867846 -25.498120 36.958332 0.836972 2.332168 0.024392 -0.006204 -144182.000000 0 0 1
18.347091 19.352646 -26.707730 37.741800 0.812065 2.356953 0.036363 -0.010065 361049.000000 0 0 1
17.308091 19.533246 -27.867050 38.179709 0.845723 2.388960 0.020751 -0.006414 336028.000000 0 0 1
17.243691 20.878946 -28.323930 39.185715 0.880468 2.378660 0.016358 0.002889 195847.000000 0 0 1
16.267591 20.998446 -29.339340 39.577344 0.911671 2.405826 0.005878 0.005834 -230569.000000 0 0 1
15.816491 22.391646 -29.704070 40.421269 0.955817 2.396260 0.009931 0.001985 -720483.000000 0 0 1
15.122291 23.025846 -28.636180 39.735426 0.989689 2.375566 0.013499 0.000690 329242.000000 0 0 1
14.876891 24.386346 -29.004260 40.709493 1.023020 2.363807 0.012043 0.003367 -97865.800000 0 0 1
14.131891 25.182146 -27.903690 40.155532 1.059405 2.339064 0.009130 -0.002497 -1286940.000000 0 0 1
12.819191 24.903846 -27.694310 39.389186 1.095420 2.350536 0.023624 -0.011818 -1630440.000000 0 0 1
12.241391 25.722446 -26.739270 39.070250 1.126611 2.324562 0.027131 -0.005091 -801082.000000 0 0 1
10.817891 25.251046 -26.351160 38.066071 1.166038 2.335396 0.045022 -0.008263 457909.000000 0 0 1
10.093491 26.071246 -25.433590 37.794919 1.201416 2.308968 0.037554 -0.007954 138418.000000 0 0 1
9.800291 27.376746 -25.956030 38.977525 1.227031 2.299527 0.041833 -0.020451 -1046500.000000 0 0 1
9.204791 28.306346 -24.926010 38.823748 1.256397 2.267939 0.052682 -0.024619 -119130.000000 0 0 1
10.181191 28.848246 -24.037510 38.906039 1.231520 2.236783 0.045493 -0.017053 -76794.500000 0 0 1
9.628591 29.549246 -22.998910 38.662871 1.255797 2.207885 0.060585 -0.026881 33772.600000 0 0 1
10.683291 30.008446 -21.913510 38.663180 1.228778 2.173388 0.040780 -0.017340 418089.000000 0 0 1
11.578391 30.960546 -22.441810 39.953090 1.212927 2.167240 0.031766 -0.021291 124917.000000 0 0 1
12.416991 31.568046 -21.455310 40.137931 1.196044 2.134759 0.021874 -0.006867 -212266.000000 0 0 1
13.571491 32.353546 -22.067210 41.447546 1.173615 2.132245 0.015416 0.015747 -682265.000000 0 0 1
14.613791 31.479346 -22.363710 41.287379 1.136168 2.143207 0.006410 0.006744 -846470.000000 0 0 1
15.642691 32.135346 -23.065110 42.536732 1.117784 2.143897 0.011668 0.011898 -512442.000000 0 0 1
16.829391 31.227746 -23.331710 42.459030 1.076496 2.152575 -0.006123 0.012716 73344.300000 0 0 1
17.680491 30.980746 -22.171710 41.999894 1.052205 2.126921 -0.007437 0.018587 820027.000000 0 0 1
18.782691 30.182646 -22.624910 42.138678 1.014140 2.137573 -0.001521 0.015456 411647.000000 0 0 1
19.737491 29.666446 -21.522910 41.628142 0.983731 2.114171 0.003389 0.020342 -342366.000000 0 0 1
20.547391 30.557046 -20.872510 42.327178 0.978816 2.086472 0.008228 0.026989 -420504.000000 0 0 1
21.318391 29.869146 -19.933410 41.760993 0.950917 2.068400 0.011542 0.012976 90432.800000 0 0 1
22.013791 30.657246 -18.805310 42.167682 0.948051 2.033048 0.024168 0.005962 -309513.000000 0 0 1
22.978591 31.605746 -19.116010 43.501272 0.942153 2.025767 0.036977 0.000178 -250326.000000 0 0 1
23.550291 32.132846 -17.909510 43.679361 0.938327 1.993275 0.041059 0.004781 450512.000000 0 0 1
24.817691 32.987846 -18.295710 45.153613 0.925807 1.987981 0.040579 -0.002001 603592.000000 0 0 1
25.892891 32.226046 -18.782010 45.406208 0.893939 1.997249 0.044584 -0.001600 -1201080.000000 0 0 1
27.028191 33.018146 -18.856310 46.650632 0.884825 1.986903 0.040141 -0.010045 -426385.000000 0 0 1
28.210791 32.239346 -19.457710 47.051319 0.851942 1.997138 0.045047 -0.012580 31581.200000 0 0 1
28.569391 31.117946 -18.622110 46.166218 0.828071 1.985994 0.040967 -0.006762 203719.000000 0 0 1
29.781291 30.517946 -19.088310 46.718668 0.797614 1.991694 0.026970 -0.005949 382841.000000 0 0 1
30.214691 29.332546 -18.252310 45.896325 0.770585 1.979789 0.024728 -0.016416 -62207.200000 0 0 1
30.846991 29.682746 -17.009510 46.064365 0.766166 1.949004 0.028947 -0.007943 134819.000000 0 0 1
30.895991 28.676446 -16.042710 45.102875 0.748157 1.934450 0.025397 -0.009319 -201138.000000 0 0 1
31.412591 29.183546 -14.630410 45.304295 0.748629 1.899627 0.035331 -0.011604 -6894.980000 0 0 1
32.733691 29.659946 -14.626310 46.531020 0.736174 1.890552 0.016423 -0.005519 -331406.000000 0 0 1
32.752091 31.050146 -14.693910 47.462849 0.758729 1.885556 0.025128 -0.013646 -265917.000000 0 0 1
34.154591 31.695446 -14.832810 48.899383 0.748071 1.878985 0.025728 -0.023040 -83624.100000 0 0 1
34.906891 31.478946 -13.712210 48.963658 0.733807 1.854641 0.014436 -0.021848 74516.200000 0 0 1
-35.709474 31.969646 -13.860610 49.893299 -0.730196 1.852305 0.029399 -0.030533 847251.000000 0 0 1
-34.823274 31.882846 -12.599910 48.866492 -0.741346 1.831586 0.032704 -0.017545 -159716.000000 0 0 1
-35.247774 32.766346 -11.606010 49.504934 -0.748930 1.807440 0.033874 -0.019199 564230.000000 0 0 1
-34.120874 33.356446 -10.952510 48.957574 -0.774070 1.796420 0.022935 -0.004884 5829.420000 0 0 1
-34.439174 -34.150813 -9.963910 49.513779 0.781194 1.773415 0.025062 -0.005826 -224149.000000 0 0 1
-33.353974 -33.542113 -9.305210 48.209417 0.788211 1.765032 0.013836 0.001043 -219594.000000 0 0 1
-33.043074 -34.147713 -8.044910 48.193689 0.801837 1.738510 0.017372 -0.007976 174208.000000 0 0 1
-32.571074 -33.174313 -6.990910 47.013644 0.794573 1.720049 0.032241 0.006575 -225570.000000 0 0 1
-33.667874 -32.317213 -6.821810 47.164236 0.764932 1.715945 0.030437 -0.001366 -69359.100000 0 0 1
-33.432374 -31.458213 -5.735910 46.262766 0.754985 1.695102 0.019129 0.003362 -321531.000000 0 0 1
-34.675074 -30.613313 -5.404710 46.569804 0.723266 1.687115 0.022533 -0.004267 -721445.000000 0 0 1
-35.670074 -31.481113 -4.951710 47.832354 0.723098 1.674504 0.031244 -0.014012 -599919.000000 0 0 1
35.020691 -30.881313 -4.848110 46.942608 -0.722669 1.674258 0.029694 -0.012311 -106703.000000 0 0 1
34.748991 -30.085013 -3.513110 46.097097 -0.713585 1.647081 0.021663 -0.005934 -536412.000000 0 0 1
35.319591 -28.793913 -3.503810 45.703825 -0.683964 1.647535 0.025247 -0.009778 -36608.800000 0 0 1
34.619491 -28.081313 -2.577110 44.650989 -0.681498 1.628545 0.025552 -0.017385 -512809.000000 0 0 1
34.834091 -26.507813 -2.690910 43.855662 -0.650487 1.632193 0.033294 -0.024918 -345241.000000 0 0 1
34.189591 -26.002813 -3.851010 43.126612 -0.650218 1.660211 0.042835 -0.027269 462085.000000 0 0 1
34.117491 -24.575513 -3.750610 42.214051 -0.624234 1.659761 0.037475 -0.033012 -113585.000000 0 0 1
33.681191 -23.861513 -5.047710 41.584538 -0.616376 1.692481 0.040360 -0.037732 -208173.000000 0 0 1
34.712091 -23.863813 -6.008910 42.550180 -0.602273 1.712489 0.035704 -0.029997 246752.000000 0 0 1
34.241091 -23.288913 -7.200910 42.031880 -0.597276 1.742966 0.017398 -0.019753 -547005.000000 0 0 1
35.346691 -23.080813 -8.210410 43.006085 -0.578470 1.762888 0.012895 -0.014660 -444995.000000 0 0 1
35.832491 -24.283613 -8.801410 44.171553 -0.595601 1.771394 0.018454 -0.009743 442781.000000 0 0 1
-35.030674 -24.104113 -9.705410 43.615954 0.602685 1.795195 0.022025 -0.002036 540065.000000 0 0 1
-34.552174 -25.376713 -10.442810 44.123493 0.633472 1.809736 0.025717 -0.006855 -73256.900000 0 0 1
-33.819074 -26.343513 -9.697210 43.951637 0.661776 1.793260 0.017090 0.000015 -235022.000000 0 0 1
-34.600774 -27.253713 -9.015510 44.958402 0.667172 1.772695 0.010243 -0.003652 -243519.000000 0 0 1
-33.750074 -28.428613 -8.439310 44.927447 0.700023 1.759762 0.008808 -0.001199 120521.000000 0 0 1
-33.217174 -29.221813 -9.492410 45.248214 0.721497 1.782152 -0.003290 0.003121 -326488.000000 0 0 1
-32.239874 -30.102013 -9.082910 45.033765 0.751119 1.773881 -0.007035 0.005119 -629639.000000 0 0 1
-31.656074 -30.947013 -10.199810 45.429735 0.774072 1.797245 -0.015464 0.013190 -254532.000000 0 0 1
-31.043674 -30.205813 -11.254310 44.752211 0.771720 1.825006 -0.032751 0.020085 215161.000000 0 0 1
-30.640574 -31.130713 -12.246910 45.364666 0.793333 1.844154 -0.020522 0.024003 -181669.000000 0 0 1
-30.584474 -30.555013 -13.685710 45.346638 0.784916 1.877379 -0.021187 0.024802 537429.000000 0 0 1
-29.474474 -29.656713 -13.828210 44.039581 0.788480 1.890194 -0.016617 0.021444 478884.000000 0 0 1
-29.868574 -28.755713 -14.853210 44.041351 0.766418 1.914797 -0.018678 0.011862 -120282.000000 0 0 1
-28.731474 -27.840213 -15.253010 42.816228 0.769645 1.935041 -0.003236 0.009709 -426705.000000 0 0 1
-27.686174 -28.545413 -15.835210 42.803256 0.800677 1.949755 0.009407 0.006326 -709173.000000 0 0 1
-26.511574 -27.830113 -16.113510 41.677620 0.809657 1.967763 0.024250 0.004853 -47887.100000 0 0 1
-25.383374 -28.715013 -16.676810 41.796934 0.846905 1.981218 0.038474 -0.001405 -436295.000000 0 0 1
-25.573174 -29.394313 -17.925410 42.887448 0.854803 2.001999 0.034099 -0.005322 -165959.000000 0 0 1
-25.854274 -28.658513 -19.082610 43.056938 0.836795 2.029956 0.022874 -0.001596 -288925.000000 0 0 1
-24.680574 -27.849213 -19.631610 42.072670 0.845646 2.056253 0.027526 -0.007735 9454.680000 0 0 1
-24.215874 -26.741813 -18.843010 40.701255 0.834927 2.052127 0.030654 -0.004806 -329302.000000 0 0 1
-22.824574 -26.560013 -18.877910 39.784054 0.860894 2.065203 0.031200 -0.015262 -132991.000000 0 0 1
-22.422874 -25.379913 -17.941510 38.325228 0.847179 2.057979 0.026829 -0.006296 -183883.000000 0 0 1
-22.735574 -25.590313 -16.581310 38.035645 0.844402 2.021880 0.040749 -0.005993 119854.000000 0 0 1
-22.456974 -24.478313 -15.779710 36.776389 0.828438 2.014261 0.058143 -0.008045 -135604.000000 0 0 1
-22.846074 -24.639213 -14.331410 36.529758 0.823142 1.973950 0.044656 -0.002617 417282.000000 0 0 1
-24.260274 -24.592013 -14.166310 37.336475 0.792189 1.959969 0.005074 0.009267 240417.000000 0 0 1
-24.533674 -24.299213 -12.795010 36.824791 0.780597 1.925653 0.001173 0.014651 1249650.000000 0 0 1
-26.078674 -24.300113 -12.450410 37.757191 0.750109 1.906834 -0.003458 0.021528 1058420.000000 0 0 1
-26.812774 -25.489513 -12.770410 39.137240 0.760103 1.903181 0.010631 0.012811 466274.000000 0 0 1
-28.175774 -25.543813 -12.408610 40.004178 0.736443 1.886182 0.004185 0.014637 460079.000000 0 0 1
-29.228074 -24.602113 -13.109910 40.390767 0.699673 1.901361 0.002425 0.009710 -537710.000000 0 0 1
-29.404374 -23.231213 -12.734010 39.578549 0.668650 1.898363 0.005665 0.020646 121560.000000 0 0 1
-29.890174 -23.017213 -11.406610 39.412249 0.656216 1.864415 0.020168 0.011803 559930.000000 0 0 1
-31.352774 -23.505813 -11.026110 40.707429 0.643322 1.845085 0.017531 0.009197 940732.000000 0 0 1
-32.494874 -22.806713 -11.491110 41.329271 0.611970 1.852547 0.026681 -0.001092 243089.000000 0 0 1
-32.660174 -22.723613 -12.899910 41.826514 0.607874 1.884322 0.028224 0.007296 -1066490.000000 0 0 1
-34.095174 -22.425213 -13.353210 42.938087 0.581786 1.887028 0.015207 -0.004244 -102943.000000 0 0 1
-34.992674 -23.464513 -13.035110 44.101981 0.590690 1.870846 0.017858 -0.000221 309939.000000 0 0 1
35.661891 -23.209313 -13.557310 44.656952 -0.576948 1.879252 0.015720 -0.007665 547932.000000 0 0 1
34.660691 -24.369013 -13.286910 44.404440 -0.612786 1.874676 -0.004969 0.002018 -45900.700000 0 0 1
34.884891 -25.495413 -14.071110 45.441917 -0.631128 1.885622 -0.012588 0.011291 575085.000000 0 0 1
34.164591 -26.671613 -13.520610 45.402655 -0.662849 1.873177 -0.013543 0.006531 816895.000000 0 0 1
34.268591 -27.960313 -14.406210 46.515098 -0.684371 1.885685 -0.009996 0.004432 562826.000000 0 0 1
33.262791 -27.862613 -15.415110 46.047411 -0.697281 1.912153 -0.004713 -0.000104 164107.000000 0 0 1
33.367491 -28.878913 -16.443710 47.093276 -0.713413 1.927485 -0.004536 -0.000503 264023.000000 0 0 1
32.401991 -28.677113 -17.683010 46.743499 -0.724489 1.958754 -0.002746 -0.002764 401667.000000 0 0 1
31.041991 -28.594513 -17.322310 45.621418 -0.744381 1.960265 0.011605 -0.000104 -441173.000000 0 0 1
30.293491 -28.252213 -18.442010 45.343036 -0.750546 1.989659 0.013349 -0.002772 -141604.000000 0 0 1
28.770291 -28.337613 -18.210610 44.298717 -0.777822 1.994442 0.015232 -0.003365 93437.600000 0 0 1
28.292991 -27.417413 -17.224210 42.998620 -0.769683 1.982942 0.011399 -0.004027 -872817.000000 0 0 1
26.921691 -27.544513 -17.071510 42.129730 -0.796833 1.988008 0.032273 -0.009051 -533614.000000 0 0 1
26.278791 -26.695613 -15.914410 40.700111 -0.793266 1.972532 0.034260 -0.011627 -110746.000000 0 0 1
26.337491 -25.290713 -16.134010 39.919793 -0.765126 1.986857 0.031233 -0.007556 35506.700000 0 0 1
26.107891 -24.574613 -14.957310 38.849128 -0.755155 1.966015 0.041519 -0.008239 -195279.000000 0 0 1
26.126291 -23.051413 -15.190110 38.009080 -0.722954 1.981925 0.040916 -0.015820 -363687.000000 0 0 1
24.889891 -22.689113 -15.715010 37.165361 -0.739176 2.007374 0.052137 -0.014160 -365504.000000 0 0 1
24.907391 -21.338713 -16.121310 36.546073 -0.708384 2.027646 0.045039 -0.024350 -344420.000000 0 0 1
23.528991 -20.772213 -16.495910 35.457204 -0.723250 2.054696 0.062819 -0.017771 -455538.000000 0 0 1
22.752291 -20.651613 -15.338110 34.342590 -0.737038 2.033781 0.072079 -0.028465 -951639.000000 0 0 1
21.510891 -20.108813 -15.586310 33.316901 -0.751723 2.057619 0.070743 -0.032614 -770547.000000 0 0 1
21.223291 -18.795113 -14.747210 31.955666 -0.724796 2.050470 0.070547 -0.027738 143659.000000 0 0 1
20.466591 -19.063413 -13.556710 31.081819 -0.749917 2.022126 0.055579 -0.028239 373001.000000 0 0 1
20.226591 -17.947513 -12.717610 29.882534 -0.725767 2.010407 0.058592 -0.033143 -261298.000000 0 0 1
19.426091 -18.159113 -11.429610 28.944125 -0.751701 1.976739 0.064052 -0.022778 -292400.000000 0 0 1
20.082691 -18.741513 -10.305410 29.338716 -0.750867 1.929709 0.064820 -0.028362 -206599.000000 0 0 1
19.243291 -18.870313 -9.197210 28.477739 -0.775613 1.899653 0.061999 -0.024689 -232312.000000 0 0 1
19.891591 -19.629613 -8.010610 29.071756 -0.778769 1.849954 0.071554 -0.027255 -4265.610000 0 0 1
20.848291 -18.839513 -7.286910 29.028909 -0.734827 1.824533 0.074761 -0.029832 199848.000000 0 0 1
21.204591 -19.543613 -6.142010 29.484094 -0.744659 1.780649 0.064190 -0.022894 -404993.000000 0 0 1
22.588791 -19.149813 -5.587410 30.136157 -0.703191 1.757281 0.061822 -0.017155 -76849.100000 0 0 1
23.657591 -19.329813 -6.490310 31.232154 -0.685061 1.780130 0.056173 -0.024565 -58767.600000 0 0 1
24.263591 -18.084713 -6.624310 30.978383 -0.640514 1.786297 0.064259 -0.026942 -471918.000000 0 0 1
25.199891 -18.083813 -7.874410 32.001018 -0.622450 1.819417 0.072328 -0.041709 383565.000000 0 0 1
26.394391 -18.855813 -7.840910 33.371926 -0.620317 1.807969 0.069273 -0.047716 500009.000000 0 0 1
26.339091 -20.098113 -8.524910 34.210466 -0.651803 1.822640 0.070257 -0.050258 -576914.000000 0 0 1
27.327991 -21.199713 -8.093410 35.521124 -0.659779 1.800663 0.061462 -0.054882 191281.000000 0 0 1
28.644491 -20.765413 -8.386510 36.359906 -0.627266 1.803545 0.057008 -0.041288 -835037.000000 0 0 1
29.596291 -21.648813 -8.003910 37.532308 -0.631536 1.785701 0.050293 -0.041659 -698426.000000 0 0 1
-29.303509 30.121546 4.214990 42.234693 -0.799163 1.470831 0.035733 -0.008383 196604.000000 0 0 1
-28.647119 30.880546 3.224390 42.245263 -0.822900 1.494397 0.025182 -0.000847 -308016.000000 0 0 1
-27.778609 31.815146 3.792090 42.405596 -0.853029 1.481252 0.025646 0.002680 -107882.000000 0 0 1
-27.309789 32.811346 2.674190 42.773360 -0.876652 1.508236 0.031768 0.014921 -312151.000000 0 0 1
-26.330759 32.329446 1.775390 41.733128 -0.887306 1.528242 0.031441 0.010539 33691.600000 0 0 1
-25.974129 33.357246 0.894290 42.286653 -0.909200 1.549646 0.030400 -0.003954 -584878.000000 0 0 1
-24.673209 34.096446 1.297490 42.107225 -0.944387 1.539977 0.042288 0.002025 -250409.000000 0 0 1
-23.466109 33.405946 1.156090 40.840569 -0.958426 1.542485 0.036379 -0.001578 -86438.500000 0 0 1
-22.450509 33.952646 2.014290 40.753710 -0.986567 1.521350 0.038053 -0.009118 -32065.300000 0 0 1
-21.044109 33.570446 1.598090 39.653288 -1.010858 1.530484 0.039472 -0.009549 -550419.000000 0 0 1
-20.657609 33.992446 0.286590 39.778202 -1.024726 1.563592 0.054626 -0.013302 -501213.000000 0 0 1
-19.294809 33.727946 0.155490 38.857280 -1.051165 1.566795 0.056837 -0.022037 -659206.000000 0 0 1
-18.502509 -34.329113 -1.027310 39.011360 1.076458 1.597133 0.070181 -0.026120 181819.000000 0 0 1
-18.302709 -32.915613 -1.025510 37.675966 1.063320 1.598019 0.083578 -0.032309 253833.000000 0 0 1
-17.664409 -32.383413 0.120390 36.888092 1.071432 1.567533 0.076291 -0.029036 -418007.000000 0 0 1
-17.605709 -30.841813 0.156490 35.513419 1.052095 1.566390 0.070333 -0.027205 -297817.000000 0 0 1
-16.784409 -30.170613 -0.780510 34.533918 1.063117 1.593400 0.064320 -0.016450 25411.700000 0 0 1
-16.885209 -28.791913 -0.707910 33.385411 1.040395 1.592002 0.040859 -0.018096 -62802.100000 0 0 1
-15.789009 -27.981413 -1.436910 32.160799 1.057065 1.615490 0.035705 -0.014496 -251745.000000 0 0 1
-15.958609 -28.175113 -2.801310 32.501716 1.055443 1.657093 0.048049 -0.010848 266474.000000 0 0 1
-15.090909 -27.450313 -3.681010 31.540531 1.068142 1.687770 0.048277 0.005537 80546.700000 0 0 1
-15.416409 -27.740313 -5.174710 32.155377 1.063557 1.732427 0.070326 -0.005420 -451930.000000 0 0 1
-16.635809 -27.197413 -5.579110 32.366277 1.021841 1.744036 0.084535 -0.005066 -595642.000000 0 0 1
-16.758309 -26.914413 -6.909310 32.449424 1.013887 1.785364 0.094927 -0.015712 51693.200000 0 0 1
-17.627409 -25.655213 -7.113310 31.929840 0.968788 1.795461 0.085124 -0.013885 258738.000000 0 0 1
-16.837409 -24.532413 -6.793710 30.520356 0.969302 1.795273 0.063074 -0.002249 -21610.800000 0 0 1
-17.458109 -23.348913 -7.118110 30.010412 0.928765 1.810267 0.048094 -0.001615 208906.000000 0 0 1
-16.482009 -22.146113 -6.896310 28.454631 0.930992 1.815596 0.065869 0.000651 448301.000000 0 0 1
-15.449909 -22.048913 -7.840410 28.041510 0.959594 1.854174 0.082960 0.001542 -161961.000000 0 0 1
-14.479809 -21.068813 -7.523710 26.648940 0.968670 1.857015 0.073415 -0.003250 750863.000000 0 0 1
-13.423909 -20.758713 -8.661410 26.194380 0.996770 1.907798 0.062416 -0.002850 655570.000000 0 0 1
-13.985309 -20.037513 -9.738410 26.304514 0.961443 1.950040 0.085542 -0.002780 -917570.000000 0 0 1
-13.231309 -20.050913 -10.873610 26.369339 0.987503 1.995837 0.081847 0.000783 -616910.000000 0 0 1
-13.698409 -19.291513 -12.161110 26.602660 0.953341 2.045572 0.100272 0.002276 -104746.000000 0 0 1
-14.935509 -19.729713 -12.680010 27.804922 0.922827 2.044331 0.085992 0.017927 -165651.000000 0 0 1
-15.364409 -19.010613 -13.834210 28.086542 0.891074 2.085821 0.087597 0.000240 -242136.000000 0 0 1
-16.548509 -19.652913 -14.568510 29.535261 0.870943 2.086628 0.100640 -0.002037 206015.000000 0 0 1
-17.727209 -19.511713 -13.764810 29.739383 0.833282 2.052002 0.093732 -0.000677 112510.000000 0 0 1
-18.840009 -19.848213 -14.548610 30.992895 0.811452 2.059427 0.072742 0.000262 683561.000000 0 0 1
-20.256409 -19.901713 -13.834810 31.588008 0.776566 2.024143 0.049828 0.003931 911887.000000 0 0 1
-21.227509 -20.302113 -14.752610 32.869780 0.763119 2.036241 0.045497 -0.000371 -125594.000000 0 0 1
-22.545809 -19.982313 -14.317710 33.355707 0.725193 2.014451 0.013101 0.008458 684183.000000 0 0 1
-23.619309 -20.639513 -15.269810 34.885934 0.718173 2.023843 0.013796 0.001092 84086.000000 0 0 1
-23.684909 -20.008413 -16.543710 35.142650 0.701453 2.060947 0.015544 -0.011540 350355.000000 0 0 1
-24.071209 -21.031413 -17.493610 36.438576 0.718103 2.071548 0.021727 -0.013041 -272210.000000 0 0 1
-24.191009 -20.673413 -18.945410 37.034086 0.707153 2.107804 0.021829 -0.010573 706449.000000 0 0 1
-22.982309 -20.184213 -19.551710 36.302319 0.720668 2.139547 0.026958 -0.015861 836128.000000 0 0 1
-23.320709 -19.842313 -20.894210 37.069406 0.704985 2.169596 0.028499 -0.020942 616836.000000 0 0 1
-22.165809 -19.026013 -21.599010 36.329458 0.709322 2.207479 0.030122 -0.014412 1480040.000000 0 0 1
-20.898309 -19.721213 -21.672510 35.991155 0.756428 2.217003 0.024190 -0.014737 840812.000000 0 0 1
-20.071709 -19.016513 -22.599010 35.710174 0.758409 2.256019 0.035651 -0.016885 167506.000000 0 0 1
-18.711309 -19.707913 -22.831410 35.493495 0.811333 2.269540 0.038965 -0.012362 -260481.000000 0 0 1
-18.816209 -20.960813 -23.534210 36.705101 0.839262 2.266818 0.029646 -0.009773 300418.000000 0 0 1
-17.557809 -21.627113 -23.496110 36.442775 0.888876 2.271479 0.022180 -0.001133 261241.000000 0 0 1
-17.675409 -23.013513 -24.031810 37.677178 0.915846 2.262480 0.022430 -0.002927 -120516.000000 0 0 1
-17.501409 -23.049913 -25.440930 38.533605 0.921380 2.291917 0.027677 -0.005787 194859.000000 0 0 1
-17.676409 -24.309013 -25.988940 39.734224 0.942077 2.283748 0.024293 -0.012106 -158743.000000 0 0 1
-17.592709 -24.361613 -27.544370 40.763758 0.945360 2.312720 0.023321 -0.004963 135452.000000 0 0 1
-16.284409 -24.060513 -27.994580 40.345840 0.975804 2.337639 0.020199 -0.006870 61983.000000 0 0 1
-16.225709 -23.961913 -29.378370 41.237550 0.975574 2.363734 0.033972 -0.011045 -134287.000000 0 0 1
-14.832609 -23.631913 -29.939410 40.924832 1.010292 2.391419 0.009923 -0.017022 593625.000000 0 0 1
-13.863909 -24.673213 -29.719310 41.039162 1.058862 2.380626 0.019328 -0.020013 -158778.000000 0 0 1
-12.549709 -24.430513 -30.103420 40.749983 1.096257 2.401987 0.049151 -0.023269 -470659.000000 0 0 1
-11.727109 -25.701513 -29.912290 41.144112 1.142732 2.384757 0.049696 -0.020389 -1205640.000000 0 0 1
-12.087009 -26.852913 -30.677850 42.524172 1.147843 2.376649 0.049589 -0.016165 -128192.000000 0 0 1
-11.265709 -27.977113 -30.577140 42.948767 1.187985 2.363060 0.049170 -0.013129 -163875.000000 0 0 1
-9.865609 -27.895013 -31.204820 43.002358 1.230856 2.382780 0.062804 -0.017581 -429066.000000 0 0 1
-8.962709 -27.018213 -30.622420 41.809647 1.250491 2.392673 0.056140 -0.019032 -224726.000000 0 0 1
-7.889409 -26.695913 -31.498780 42.036742 1.283447 2.417824 0.055622 -0.017502 33799.400000 0 0 1
-7.049909 -25.477113 -30.990550 40.733263 1.300836 2.435367 0.059657 -0.020845 -207219.000000 0 0 1
-7.699509 -24.190513 -30.963120 40.039707 1.262649 2.454842 0.062564 -0.020908 365400.000000 0 0 1
-8.411209 -24.028613 -29.725190 39.137062 1.234077 2.433364 0.062359 -0.018689 59865.100000 0 0 1
-8.949909 -22.543813 -29.540840 38.222842 1.192878 2.454129 0.051376 -0.022468 233872.000000 0 0 1
-9.983909 -22.168113 -30.438890 38.956767 1.147633 2.467623 0.041113 -0.026772 169786.000000 0 0 1
-10.112609 -20.779213 -30.475430 38.246469 1.117870 2.492805 0.032819 -0.020497 198882.000000 0 0 1
-10.842909 -20.261213 -31.744050 39.188903 1.079421 2.514994 0.023174 -0.019248 331819.000000 0 0 1
-11.479509 -18.973013 -31.642840 38.639665 1.026676 2.530325 0.025015 -0.014705 265399.000000 0 0 1
-12.117809 -18.739213 -32.852310 39.714905 0.996776 2.544909 0.031793 -0.015172 -344797.000000 0 0 1
-12.994309 -17.457813 -32.946970 39.485822 0.930936 2.557840 0.033694 -0.011698 -118108.000000 0 0 1
-12.376509 -16.242813 -33.235300 39.007591 0.919679 2.590631 0.050298 -0.012187 -317028.000000 0 0 1
-11.441609 -15.670113 -32.369100 37.738859 0.940118 2.601601 0.029345 -0.009047 -192160.000000 0 0 1
-11.276509 -14.110413 -32.459830 37.147059 0.896566 2.633799 0.034229 -0.016259 -162920.000000 0 0 1
-10.553009 -13.485213 -33.549280 37.666579 0.906779 2.669659 0.041152 -0.015283 243752.000000 0 0 1
-11.148909 -13.539713 33.734436 38.021497 0.881935 0.479455 0.054171 -0.014905 -443598.000000 0 0 1
-11.679509 -12.182913 33.327969 37.357568 0.806491 0.468749 0.053722 -0.010997 362932.000000 0 0 1
-12.769409 -11.793613 34.192240 38.356961 0.745693 0.470323 0.041910 -0.004319 398744.000000 0 0 1
-13.789609 -11.269013 33.341236 37.799233 0.685147 0.490577 0.032523 -0.018006 517516.000000 0 0 1
-14.903809 -10.515513 34.097196 38.669346 0.614447 0.491210 0.040018 -0.016048 53856.400000 0 0 1
-14.411209 -9.291313 -34.042150 38.116656 0.572660 2.674996 0.054250 -0.022450 -47760.300000 0 0 1
-15.197309 -8.641013 -33.042730 37.382447 0.517002 2.654955 0.046121 -0.021179 155183.000000 0 0 1
-14.361309 -7.673813 -32.166770 36.053234 0.490740 2.672994 0.043222 -0.032428 -109858.000000 0 0 1
-14.145909 -6.341513 -32.645890 36.139669 0.421434 2.698257 0.032443 -0.039461 86035.100000 0 0 1
-15.279409 -5.495413 -32.596160 36.416611 0.345256 2.679430 0.036214 -0.028321 9774.170000 0 0 1
-15.557509 -4.948813 -31.177360 35.193105 0.307977 2.659214 0.037251 -0.032168 -291660.000000 0 0 1
-16.070009 -5.914213 -30.276450 34.783423 0.352644 2.626866 0.035064 -0.035119 -152299.000000 0 0 1
-16.300109 -5.384713 -28.999150 33.699249 0.319062 2.607102 0.039193 -0.035274 640049.000000 0 0 1
-15.064109 -4.911813 -28.121400 32.277956 0.315191 2.628491 0.028732 -0.033765 1171300.000000 0 0 1
-14.395809 -3.752113 -28.679130 32.308051 0.254967 2.663073 0.030261 -0.029725 225353.000000 0 0 1
-13.105409 -3.400213 -28.219370 31.299298 0.253854 2.694245 0.014847 -0.020897 353778.000000 0 0 1
-12.751109 -2.020213 -28.846020 31.603242 0.157128 2.720775 -0.009487 -0.002934 -138059.000000 0 0 1
-12.688209 -2.073213 -30.272350 32.889269 0.161966 2.739982 -0.003314 -0.008462 204107.000000 0 0 1
-12.986209 -0.812213 -30.794800 33.430839 0.062463 2.741820 0.002467 -0.011928 -76631.500000 0 0 1
-13.140309 -0.863213 -32.305070 34.885963 0.065598 2.754523 -0.004636 -0.014769 423059.000000 0 0 1
-14.409809 -1.336213 -32.797370 35.848229 0.092465 2.726044 0.001116 -0.016866 785942.000000 0 0 1
-14.435409 -1.235213 -34.215609 37.156624 0.085360 2.741046 -0.007350 -0.014405 -515382.000000 0 0 1
-15.736909 -1.633213 33.669896 37.201877 0.103412 0.439278 0.009303 -0.017959 -503837.000000 0 0 1
-15.647309 -1.842213 32.267043 35.908135 0.117194 0.454228 0.003329 -0.019511 4482.040000 0 0 1
-16.897009 -2.111213 31.670813 35.958400 0.124302 0.493326 0.009231 -0.014339 62737.200000 0 0 1
-16.926409 -2.058213 30.112203 34.604687 0.121004 0.515235 0.010708 -0.004843 38337.900000 0 0 1
-16.467309 -0.804213 29.629783 33.907862 0.048798 0.507767 0.001519 0.008562 52394.400000 0 0 1
-16.433809 -0.601213 28.206833 32.650528 0.036568 0.527831 -0.000101 -0.002841 -196475.000000 0 0 1
-15.876309 0.861787 27.894603 32.107768 -0.054228 0.518062 0.008493 -0.003014 139797.000000 0 0 1
-16.701209 1.943787 28.408633 33.011500 -0.115865 0.534413 0.014591 -0.002512 799663.000000 0 0 1
-18.042009 2.042787 27.922283 33.306771 -0.112744 0.576572 0.028655 -0.009536 402637.000000 0 0 1
-18.190909 2.663787 26.520543 32.269865 -0.145402 0.606170 0.037537 -0.015685 -636649.000000 0 0 1
-17.921509 4.080787 26.521393 32.267904 -0.223886 0.606036 0.037145 -0.008034 148815.000000 0 0 1
-18.170609 4.562787 25.199493 31.400709 -0.246021 0.639300 0.040707 -0.008335 -566616.000000 0 0 1
-18.122409 6.131787 25.042613 31.514330 -0.326262 0.652379 0.036202 -0.009734 -67254.800000 0 0 1
-16.895309 6.823787 25.069123 30.991555 -0.383852 0.628515 0.024076 0.002806 -685022.000000 0 0 1
-16.146509 6.662787 23.922303 29.620586 -0.391360 0.630684 0.026428 -0.010293 -147614.000000 0 0 1
-15.079709 7.788787 23.734213 29.178343 -0.476766 0.620791 0.020613 -0.011607 879888.000000 0 0 1
-13.913209 7.701787 24.543493 29.245136 -0.505572 0.574925 0.014196 -0.002306 441312.000000 0 0 1
-12.787809 8.318787 23.950233 28.396196 -0.576744 0.567158 0.033572 -0.011601 554403.000000 0 0 1
-11.431209 8.254787 24.723843 28.461948 -0.625423 0.518299 0.040557 0.006951 221010.000000 0 0 1
-10.410809 8.752787 23.854043 27.459272 -0.699094 0.518212 0.039472 -0.013209 -120416.000000 0 0 1
-9.210409 8.988787 24.549803 27.718636 -0.773221 0.482843 0.037395 -0.007966 -251468.000000 0 0 1
-9.170909 10.383787 25.251603 28.802293 -0.847344 0.501792 0.039154 -0.020472 -995565.000000 0 0 1
-10.154009 10.575787 26.246493 30.063759 -0.805742 0.509420 0.033247 -0.015977 83195.000000 0 0 1
-10.169909 11.870787 26.838873 31.059101 -0.862415 0.527392 0.037504 -0.017171 -384061.000000 0 0 1
-10.944109 12.938787 25.983413 31.021339 -0.868724 0.577925 0.031357 -0.024268 202264.000000 0 0 1
-12.342309 12.720787 25.920453 31.400970 -0.800498 0.599768 0.020847 -0.022125 107019.000000 0 0 1
-12.713509 11.810787 24.904163 30.353671 -0.748605 0.608570 0.021450 -0.020940 230789.000000 0 0 1
-14.270209 11.665787 24.714813 30.831014 -0.685316 0.640793 -0.001940 -0.013308 908840.000000 0 0 1
-14.771609 12.836787 24.089363 31.036768 -0.715432 0.682250 0.016217 -0.020426 128196.000000 0 0 1
-16.138409 12.803787 23.707953 31.407838 -0.670687 0.715383 0.023969 -0.012871 255708.000000 0 0 1
-16.537109 12.347787 22.318423 30.398287 -0.641367 0.746309 0.025957 -0.009441 -316368.000000 0 0 1
-16.211609 10.982787 22.078223 29.510775 -0.595441 0.725540 0.020540 -0.004917 19581.100000 0 0 1
-16.280809 10.758787 20.702523 28.450144 -0.583948 0.755867 0.019436 -0.002949 -175608.000000 0 0 1
-16.546309 9.237787 20.470423 27.895435 -0.509192 0.746858 0.031271 -0.013342 -237293.000000 0 0 1
-17.803409 8.819787 20.909223 28.843468 -0.459960 0.759877 0.021567 -0.000936 -707476.000000 0 0 1
-18.167109 7.520787 20.513123 28.414685 -0.392498 0.764224 0.017158 0.001065 425498.000000 0 0 1
-19.688109 7.345787 20.795223 29.563889 -0.357111 0.790627 0.023911 0.010647 361741.000000 0 0 1
-19.930609 7.410787 22.176823 30.723939 -0.355988 0.764383 0.024476 -0.002028 -508231.000000 0 0 1
-21.281209 7.707787 22.401623 31.845448 -0.347491 0.790559 0.017975 0.002622 -497725.000000 0 0 1
-21.623109 8.452787 23.703373 33.179186 -0.372650 0.775023 0.034642 -0.004336 -1008900.000000 0 0 1
-21.463509 9.837787 23.660493 33.425787 -0.429776 0.784344 0.031467 -0.004528 1559030.000000 0 0 1
-20.107809 10.403787 23.521273 32.646793 -0.477471 0.766306 0.034263 -0.003211 2304210.000000 0 0 1
-19.087909 9.888787 24.631573 32.693284 -0.477995 0.717558 0.033376 -0.014875 -433343.000000 0 0 1
-19.341309 10.457787 25.877723 33.957446 -0.495673 0.704303 0.037877 -0.002900 327606.000000 0 0 1
-18.454609 9.978787 26.887873 34.104348 -0.495691 0.662592 0.036947 -0.000274 342091.000000 0 0 1
-31.199299 -14.579854 20.700423 40.180542 0.437158 1.029573 0.032231 -0.017468 -158818.000000 0 0 1
-30.587459 -15.835654 20.816723 40.245454 0.477721 1.027169 0.023767 -0.005511 -23042.800000 0 0 1
-30.949769 -16.772054 19.783923 40.380610 0.496612 1.058780 0.008884 0.006966 -49831.800000 0 0 1
-30.350209 -16.563854 18.398023 39.166104 0.499580 1.081796 0.004885 0.007550 -164089.000000 0 0 1
-30.818469 -15.408854 17.713523 38.742480 0.463638 1.095939 0.019116 -0.010182 -255830.000000 0 0 1
-30.115099 -15.241154 16.512723 37.575018 0.468513 1.115799 0.016954 -0.007755 -1358160.000000 0 0 1
-30.769729 -14.168954 15.637523 37.310422 0.431538 1.138321 0.014644 -0.004870 -798282.000000 0 0 1
-32.012329 -14.438054 15.107623 38.229398 0.423698 1.164529 0.044628 -0.006163 908112.000000 0 0 1
-33.180719 -14.630254 16.002823 39.637038 0.415283 1.155202 0.046969 -0.015133 765044.000000 0 0 1
-33.797069 -13.357654 16.584523 39.946404 0.376389 1.142667 0.039302 -0.018668 -775047.000000 0 0 1
-34.986841 -13.488054 17.312123 41.300318 0.367960 1.138258 0.018820 -0.018181 -344470.000000 0 0 1
-35.432524 -12.183854 17.541723 41.371755 0.331195 1.132936 0.017883 -0.006104 255191.000000 0 0 1
35.342606 -12.051654 18.539723 41.690089 -0.328630 1.109953 0.007181 0.015760 203463.000000 0 0 1
35.665136 -12.584854 19.787823 42.684171 -0.339222 1.088757 0.008733 0.007885 -168386.000000 0 0 1
34.726266 -12.107254 20.733323 42.218122 -0.335470 1.057444 0.006682 0.007549 -1225420.000000 0 0 1
34.941486 -12.500854 22.206923 43.247269 -0.343576 1.031552 0.002955 -0.004244 -716352.000000 0 0 1
-35.877991 -11.924054 22.763123 44.131317 0.320865 1.028850 0.005581 0.000655 480925.000000 0 0 1
-34.659852 -12.643054 22.488323 43.207370 0.349776 1.023390 -0.002067 -0.002968 85819.600000 0 0 1
-33.349799 -11.871654 22.631323 42.015736 0.341987 1.001975 0.019233 -0.001803 -186117.000000 0 0 1
-33.118439 -10.920554 21.595823 41.017912 0.318515 1.016321 0.033262 -0.008612 -95200.800000 0 0 1
-31.802249 -10.420854 21.701023 39.886234 0.316651 0.995512 0.053512 -0.023825 -261044.000000 0 0 1
-31.691349 -9.007154 21.097923 39.122791 0.276913 1.001221 0.052779 0.000461 40622.900000 0 0 1
-31.831359 -8.875254 19.681323 38.462450 0.271915 1.033631 0.050385 -0.003967 36807.500000 0 0 1
-33.185349 -8.795454 19.303923 39.386151 0.259083 1.058569 0.042125 -0.012478 -385100.000000 0 0 1
-33.326649 -8.724054 17.773223 38.764186 0.256029 1.094494 0.050124 -0.013260 -427466.000000 0 0 1
-34.646738 -8.883754 17.318623 39.739807 0.251002 1.119869 0.023290 -0.011960 -75133.600000 0 0 1
-34.745704 -8.659254 15.946023 39.198499 0.244243 1.151846 0.043780 -0.006491 319010.000000 0 0 1
35.723946 -8.483254 15.531323 39.867128 -0.233148 1.170624 0.037591 -0.006523 129561.000000 0 0 1
34.949816 -9.647554 15.767423 39.537028 -0.269333 1.160587 0.031522 -0.001248 -1055370.000000 0 0 1
33.648036 -9.161754 15.846123 38.304408 -0.265838 1.144294 0.039111 -0.002636 -928030.000000 0 0 1
32.654086 -10.335754 15.725623 37.688359 -0.306545 1.140375 0.047209 -0.005918 -471407.000000 0 0 1
32.530446 -11.129654 16.906423 38.313526 -0.329647 1.113788 0.037073 -0.006011 316558.000000 0 0 1
31.386536 -11.984754 16.807323 37.566409 -0.364757 1.106937 0.040948 -0.009029 542573.000000 0 0 1
31.046306 -12.608054 18.181523 38.123535 -0.385758 1.073660 0.028305 -0.010917 -273393.000000 0 0 1
32.025876 -13.453854 18.677323 39.439895 -0.397707 1.077463 0.032204 -0.006575 -616822.000000 0 0 1
31.735576 -13.766454 20.013623 39.965074 -0.409289 1.046299 0.022828 -0.002641 -942484.000000 0 0 1
32.557876 -14.872254 20.642323 41.319544 -0.428490 1.047685 0.013155 0.005452 -495765.000000 0 0 1
32.749006 -14.861954 22.036423 42.177945 -0.426021 1.021059 0.013572 0.005633 -223012.000000 0 0 1
33.206246 -16.074354 22.526123 43.225755 -0.450828 1.022625 0.007822 0.017178 -185476.000000 0 0 1
33.579066 -16.101854 24.019573 44.314369 -0.447130 0.997949 0.016093 0.004990 756651.000000 0 0 1
34.733916 -15.282354 24.289633 45.055317 -0.414493 1.001420 0.010783 0.005967 736851.000000 0 0 1
35.101036 -15.308554 25.679443 46.107140 -0.411259 0.980085 0.018239 0.004188 -203210.000000 0 0 1
-35.659578 -14.378554 25.925023 46.373000 0.383277 0.977552 0.017634 -0.002562 -69037.300000 0 0 1
-34.405270 -14.863054 25.429193 45.291024 0.407784 0.974645 0.007699 0.000834 201858.000000 0 0 1
-33.440369 -13.974854 25.935773 44.567019 0.395845 0.949672 0.021443 -0.006348 -600929.000000 0 0 1
-32.007179 -14.487854 25.855403 43.621776 0.425050 0.936367 0.011436 -0.002187 -635683.000000 0 0 1
-31.520039 -14.674254 24.562153 42.569308 0.435712 0.955755 0.006696 -0.003458 869026.000000 0 0 1
-30.182329 -15.207454 24.422723 41.697830 0.466725 0.945044 0.020134 -0.014393 963093.000000 0 0 1
-29.986639 -16.724054 24.716823 42.306192 0.508749 0.946857 0.024614 -0.005836 -889535.000000 0 0 1
-29.858959 -16.904154 26.129773 43.128563 0.515145 0.919953 0.022424 -0.000037 247768.000000 0 0 1
-29.540609 -18.216454 26.522273 43.679718 0.552578 0.918266 0.016067 -0.008422 -347773.000000 0 0 1
-29.318779 -18.224654 28.080213 44.499744 0.556153 0.887929 0.032811 -0.020054 519922.000000 0 0 1
-28.094119 -17.573354 28.450263 43.675162 0.558971 0.861360 0.035659 -0.019222 622084.000000 0 0 1
-27.671749 -17.923054 29.756613 44.411908 0.574758 0.836568 0.051185 -0.020988 645095.000000 0 0 1
-26.356499 -17.203754 30.202043 43.621069 0.578294 0.806024 0.036934 -0.019463 313796.000000 0 0 1
-26.624269 -15.840154 30.523163 43.490524 0.536699 0.792826 0.056818 -0.023346 -38192.800000 0 0 1
-25.619009 -14.982854 30.070683 42.250036 0.529193 0.778836 0.034721 -0.017202 -621406.000000 0 0 1
-25.581719 -13.672654 30.859973 42.352140 0.490842 0.754445 0.046213 -0.007584 -132882.000000 0 0 1
-24.936509 -13.828954 32.088973 42.927516 0.506342 0.726483 0.054467 -0.011316 69655.200000 0 0 1
-24.709209 -12.597354 32.674522 42.858637 0.471476 0.703815 0.046147 -0.000740 -381220.000000 0 0 1
-24.124409 -12.700854 34.078169 43.641957 0.484601 0.674758 0.054669 0.003504 451514.000000 0 0 1
-22.727309 -13.004654 34.157261 43.039170 0.519730 0.654041 0.025435 0.005111 731824.000000 0 0 1
-22.434409 -14.388654 34.202581 43.360727 0.570281 0.661956 0.039104 -0.001421 -366287.000000 0 0 1
-22.382509 -15.006954 -32.968630 42.580699 0.590636 2.456345 0.050053 -0.004776 340037.000000 0 0 1
-21.200509 -14.641354 -32.226550 41.259924 0.604398 2.467161 0.026012 0.004098 764729.000000 0 0 1
-21.025909 -15.556054 -31.116770 40.648900 0.636974 2.442616 0.056843 -0.002512 882584.000000 0 0 1
-19.653309 -15.574754 -30.319100 39.345563 0.670136 2.450555 0.061592 -0.000319 830057.000000 0 0 1
-19.471509 -14.477154 -29.457830 38.164007 0.639331 2.452581 0.037902 0.003291 -59922.400000 0 0 1
-20.191309 -14.389054 -28.253520 37.589829 0.619156 2.421321 0.047350 -0.002061 -305265.000000 0 0 1
-19.884209 -13.159654 -27.397540 36.320565 0.584636 2.425423 0.047501 -0.002463 338277.000000 0 0 1
-18.604809 -13.209554 -26.757960 35.165603 0.617411 2.435515 0.049214 -0.011383 552334.000000 0 0 1
-18.427909 -12.010054 -26.052600 34.096440 0.577592 2.440419 0.038321 -0.009129 1643.570000 0 0 1
-17.089009 -12.002654 -25.299160 32.804656 0.612309 2.451530 0.056653 -0.022510 -904268.000000 0 0 1
-17.111609 -12.765054 -24.090610 32.188682 0.640928 2.416471 0.072348 -0.026745 819131.000000 0 0 1
-15.888809 -12.746554 -23.306110 30.953249 0.676102 2.423323 0.064210 -0.026844 1374180.000000 0 0 1
-14.728409 -13.586754 -23.970210 31.242549 0.745100 2.445307 0.045261 -0.025892 -304874.000000 0 0 1
-14.118309 -12.894054 -25.022810 31.491654 0.740107 2.489121 0.044597 -0.029993 -470866.000000 0 0 1
-13.335909 -13.802054 -25.759110 32.122810 0.802573 2.501256 0.034726 -0.024533 -630739.000000 0 0 1
-12.423409 -13.058354 -26.719030 32.229928 0.810311 2.548137 0.035894 -0.016922 -451486.000000 0 0 1
-13.085709 -12.398354 -27.794450 33.128332 0.758433 2.566227 0.047276 -0.020304 -432856.000000 0 0 1
-12.217209 -11.784354 -28.680760 33.327424 0.767366 2.607195 0.053884 -0.019443 -501594.000000 0 0 1
-12.951709 -10.937954 -29.728960 34.222751 0.701303 2.623348 0.032817 -0.018732 -17374.000000 0 0 1
-12.103409 -9.995354 -30.368940 34.185847 0.690293 2.664532 0.028721 -0.013978 147949.000000 0 0 1
-11.421909 -10.605454 -31.456110 35.105876 0.748350 2.681554 0.045449 -0.015803 99693.200000 0 0 1
-10.567309 -9.695754 -32.363290 35.398562 0.742413 2.724460 0.038154 -0.015654 -143651.000000 0 0 1
-9.365009 -9.220854 -31.836010 34.442112 0.777642 2.750082 0.020388 -0.013984 -442348.000000 0 0 1
-8.795509 -8.232854 -32.659830 34.810995 0.752368 2.788201 0.007515 -0.013319 73820.000000 0 0 1
-7.286609 -7.983354 -32.395750 34.151328 0.830995 2.819560 0.028115 -0.014309 -360865.000000 0 0 1
-6.902709 -7.589754 -31.087270 32.736373 0.832770 2.822833 0.011779 -0.011568 -309331.000000 0 0 1
-7.391509 -6.366654 -30.559430 32.078769 0.711045 2.832590 -0.001486 -0.005284 -551483.000000 0 0 1
-6.684309 -5.100554 -31.103600 32.220018 0.651810 2.877578 0.003165 -0.005707 -385506.000000 0 0 1
-5.465009 -4.855554 -30.473740 31.338340 0.726414 2.906148 0.011889 -0.002961 -646513.000000 0 0 1
-4.985409 -3.613454 -30.851550 31.459966 0.627181 2.944605 0.031987 -0.004529 1045380.000000 0 0 1
-3.458409 -3.333354 -30.491740 30.867751 0.766987 2.985348 0.033968 0.001177 828845.000000 0 0 1
-2.618109 -4.306154 -31.085720 31.491577 1.024521 2.980872 0.024259 -0.002689 -72657.800000 0 0 1
-1.224409 -4.238654 -30.948830 31.261725 1.289584 2.999990 0.042023 -0.004787 631289.000000 0 0 1
-0.455309 -2.909454 -31.368940 31.506866 1.415562 3.047989 0.035435 -0.004282 -300764.000000 0 0 1
-0.203909 -1.914254 -30.318080 30.379136 1.464675 3.078182 0.027676 -0.010624 272211.000000 0 0 1
0.439791 -0.712254 -30.763130 30.774517 -1.017635 3.114389 0.025716 -0.001862 333916.000000 0 0 1
0.833691 0.177946 -29.588850 29.601127 0.210288 3.112790 0.030642 -0.008418 -217468.000000 0 0 1
-0.283509 0.782046 -29.027750 29.039667 -1.223010 3.112943 0.051012 -0.013991 -528822.000000 0 0 1
0.101191 2.058246 -28.498750 28.573158 1.521672 3.069409 0.067035 -0.018606 276763.000000 0 0 1
-1.031509 3.047646 -28.112010 28.295534 -1.244438 3.027636 0.062177 -0.013823 -7660.370000 0 0 1
-1.474809 3.806546 -29.242650 29.526216 -1.201164 3.002889 0.043518 -0.006087 781066.000000 0 0 1
-2.524109 4.733246 -28.847060 29.341568 -1.080887 2.957739 0.062525 -0.011085 1069020.000000 0 0 1
-3.905609 4.504646 -29.526250 30.122169 -0.856505 2.942349 0.066273 -0.017386 88860.000000 0 0 1
-3.749609 4.686346 -30.950710 31.527256 -0.895986 2.950056 0.076155 -0.019327 716214.000000 0 0 1
-5.023209 4.714146 -31.605640 32.347678 -0.753669 2.926987 0.080871 -0.016120 339069.000000 0 0 1
-4.864809 5.214746 -33.110180 33.869514 -0.820102 2.929443 0.086630 -0.021863 316014.000000 0 0 1
-4.227209 4.344646 -34.085504 34.620324 -0.799098 2.965592 0.095490 -0.027072 920787.000000 0 0 1
-2.831409 4.079146 -33.879260 34.241212 -0.964029 2.996064 0.087282 -0.023448 445317.000000 0 0 1
-2.234409 3.472546 33.410434 33.664644 -0.999040 0.122970 0.073557 -0.027452 -32633.900000 0 0 1
-2.979409 2.332546 32.945136 33.161720 -0.664220 0.114353 0.073968 -0.031175 230565.000000 0 0 1
-2.539809 1.802046 31.699903 31.852502 -0.617087 0.097925 0.083152 -0.031704 -95535.200000 0 0 1
-2.442709 2.826346 30.531373 30.759061 -0.858079 0.121749 0.084192 -0.032451 -338056.000000 0 0 1
-3.638309 3.511346 30.331823 30.750388 -0.767642 0.165183 0.067253 -0.025974 -507296.000000 0 0 1
-3.552209 4.308846 29.161163 29.691039 -0.881354 0.189207 0.069611 -0.030088 300566.000000 0 0 1
-4.627609 5.419146 28.991553 29.854515 -0.864021 0.241022 0.072744 -0.017852 426418.000000 0 0 1
-4.454109 6.170346 27.813373 28.835672 -0.945551 0.267073 0.061209 -0.002651 182313.000000 0 0 1
-5.684709 6.863446 27.633393 29.034931 -0.879060 0.311975 0.048741 0.000876 434190.000000 0 0 1
-5.915809 7.512446 26.256553 27.943519 -0.903744 0.349250 0.053054 -0.002242 -857808.000000 0 0 1
-5.046109 8.563146 26.106493 27.934561 -1.038295 0.363779 0.049183 0.002735 -374899.000000 0 0 1
-5.261809 9.247446 24.912433 27.089320 -1.053482 0.403632 0.052705 -0.004914 154670.000000 0 0 1
-4.396209 10.534446 24.984143 27.468321 -1.175451 0.428567 0.055839 -0.011688 -393266.000000 0 0 1
-4.521609 11.358846 23.852633 26.803292 -1.191955 0.473639 0.065617 -0.017932 72147.800000 0 0 1
-3.929809 12.614946 24.021103 27.415209 -1.268804 0.502884 0.047101 -0.006476 245311.000000 0 0 1
-2.357309 12.736246 24.043593 27.310497 -1.387781 0.494135 0.037982 -0.001761 363384.000000 0 0 1
-1.706209 12.259446 25.175393 28.053620 -1.432510 0.456949 0.038804 0.002050 -365560.000000 0 0 1
-1.921609 13.051846 26.328463 29.448790 -1.424618 0.464508 0.054374 -0.001784 -909817.000000 0 0 1
-1.187309 12.689146 27.628383 30.426168 -1.477499 0.432199 0.051444 -0.002081 -525666.000000 0 0 1
0.155491 13.056346 27.568273 30.504132 1.558888 0.442333 0.037368 -0.004669 -1234260.000000 0 0 1
0.799791 12.563446 28.678403 31.319813 1.507222 0.413641 0.035677 -0.007582 895513.000000 0 0 1
2.368491 12.727646 28.658133 31.446643 1.386811 0.424304 0.026755 -0.006729 1132600.000000 0 0 1
2.872991 14.050946 28.593483 31.988599 1.369107 0.464904 0.027570 -0.008239 739227.000000 0 0 1
4.303991 14.021546 28.437703 31.997360 1.272971 0.476182 0.029722 -0.010231 612349.000000 0 0 1
4.893291 15.412146 28.647793 32.896423 1.263367 0.513871 0.030357 -0.007446 -359572.000000 0 0 1
4.684091 15.993746 29.963563 34.286379 1.285893 0.507586 0.036683 -0.000468 823933.000000 0 0 1
3.583091 16.919046 30.126163 34.737277 1.362101 0.521129 0.024533 0.002878 541724.000000 0 0 1
3.710291 18.254946 29.449453 34.846515 1.370279 0.564009 0.030348 0.000628 17861.000000 0 0 1
4.658391 19.020646 30.180723 35.977238 1.330612 0.575567 0.048709 0.004437 176348.000000 0 0 1
5.300691 20.021446 29.432783 35.989504 1.311984 0.613191 0.027553 0.004316 -201460.000000 0 0 1
6.439291 20.696046 30.194033 37.168138 1.269154 0.622603 0.035971 0.008468 -369156.000000 0 0 1
6.002191 21.483546 31.326653 38.456836 1.298358 0.618770 0.032941 -0.008908 -185956.000000 0 0 1
7.007891 22.300346 31.846513 39.504638 1.266318 0.633186 0.013676 -0.007305 -599210.000000 0 0 1
7.184491 23.744646 31.221223 39.877185 1.276981 0.671427 -0.002782 0.007409 -235750.000000 0 0 1
7.601791 23.684646 29.893733 38.889394 1.260224 0.694012 -0.020656 0.011477 -18899.800000 0 0 1
7.424191 24.968846 29.272303 39.184559 1.281783 0.727203 -0.030780 0.010344 51527.700000 0 0 1
8.087891 25.152846 27.895053 38.421526 1.259688 0.758270 -0.016896 0.004327 -58734.500000 0 0 1
7.439591 24.354446 26.901223 37.042710 1.274327 0.757986 -0.017776 0.003700 374895.000000 0 0 1
7.878291 24.672046 25.603163 36.418392 1.261710 0.791149 -0.002571 0.000320 -649915.000000 0 0 1
28.583306 2.421946 6.827690 29.487091 0.084531 1.337127 0.078586 0.006055 47871.900000 0 0 1
29.039316 3.277746 7.854890 30.260945 0.112397 1.308217 0.077543 -0.010835 -67522.100000 0 0 1
28.236626 3.230246 9.008590 29.814363 0.113904 1.263843 0.070450 0.003728 -46927.300000 0 0 1
28.688366 4.271346 10.092890 30.710473 0.147802 1.235926 0.067588 -0.004488 170135.000000 0 0 1
28.344406 5.616946 9.818790 30.518258 0.195633 1.243235 0.063789 -0.005896 -86592.600000 0 0 1
29.231266 6.216446 8.908490 31.184488 0.209543 1.281090 0.080569 -0.020319 -196680.000000 0 0 1
28.949846 7.692746 8.675490 31.185510 0.259725 1.288887 0.101708 -0.029431 28084.200000 0 0 1
27.955916 7.920546 7.697190 30.058527 0.276087 1.311838 0.079300 -0.023353 -138145.000000 0 0 1
28.005096 9.187746 7.180690 30.335827 0.317010 1.331822 0.101036 -0.041382 -354441.000000 0 0 1
27.218526 9.404846 5.874990 29.390726 0.332688 1.369548 0.092017 -0.036987 518426.000000 0 0 1
25.845756 9.561246 6.226590 28.252273 0.354323 1.348579 0.075844 -0.032285 45272.000000 0 0 1
25.008356 9.822546 5.141990 27.355810 0.374259 1.381704 0.101303 -0.033114 -37083.200000 0 0 1
23.566056 10.202346 5.503390 26.262790 0.408564 1.359681 0.051905 -0.032344 -110528.000000 0 0 1
23.560756 11.545146 5.933490 26.899924 0.455629 1.348391 0.050716 -0.026634 137127.000000 0 0 1
22.282256 11.942046 6.369390 26.070683 0.491988 1.323986 0.041357 -0.015316 -162148.000000 0 0 1
22.369356 13.414546 6.810690 26.957812 0.540187 1.315386 0.030483 0.008067 -30048.800000 0 0 1
22.339956 14.285146 5.698290 27.122123 0.568919 1.359122 0.027361 0.011565 313125.000000 0 0 1
21.979056 15.599146 6.109490 27.635812 0.617225 1.347883 0.040706 0.000763 -110612.000000 0 0 1
21.546156 16.491246 4.899190 27.571726 0.653279 1.392159 0.039138 -0.002897 924754.000000 0 0 1
20.177456 16.289046 4.475990 26.315342 0.679170 1.399875 0.043798 0.001429 1125970.000000 0 0 1
19.949156 17.140346 3.394690 26.519506 0.709812 1.442437 0.053317 -0.002736 -232812.000000 0 0 1
18.447256 17.280246 3.110390 25.467287 0.752746 1.448358 0.043601 0.001646 121922.000000 0 0 1
17.650256 17.903446 4.160790 25.482878 0.792519 1.406784 0.048064 -0.002224 1541540.000000 0 0 1
16.308156 18.102446 3.635490 24.634758 0.837495 1.422680 0.028419 -0.003779 302785.000000 0 1 0
15.551056 18.964946 4.619190 24.956791 0.883985 1.384635 0.041525 -0.011309 314954.000000 0 1 0
14.132756 18.736446 4.574690 23.910604 0.924554 1.378285 0.039869 -0.012155 660942.000000 0 1 0
13.505456 19.992946 4.443390 24.532814 0.976696 1.388671 0.025721 -0.012432 597026.000000 0 1 0
11.998356 19.785446 4.043090 23.489806 1.025667 1.397814 0.025230 -0.006300 908591.000000 0 1 0
11.262356 19.104846 5.050590 22.745203 1.038131 1.346879 0.013889 -0.012455 168888.000000 0 1 0
9.877556 19.018446 4.738090 21.948050 1.091775 1.353206 0.017298 -0.010917 65372.100000 0 1 0
9.154856 18.392446 5.920290 21.380910 1.108950 1.290234 0.016446 -0.016895 -1469430.000000 0 1 0
9.109756 19.382946 6.970290 22.522682 1.131445 1.256152 0.026347 -0.017222 183622.000000 0 1 0
8.536756 18.844646 8.170190 22.242952 1.145445 1.194675 0.028765 -0.015869 -145690.000000 0 1 0
7.575056 19.769346 8.966790 22.991560 1.204881 1.170161 0.028700 -0.018231 -130055.000000 0 1 0
6.290756 19.803846 8.430990 22.424262 1.263224 1.185346 0.030556 -0.028708 -766848.000000 0 1 0
6.130156 20.997546 7.627890 23.165933 1.286745 1.235264 0.030939 -0.017476 -1012290.000000 0 1 0
4.830756 21.139546 6.846090 22.739515 1.346136 1.264986 0.006442 -0.008420 -341992.000000 0 1 0
3.631256 21.481946 7.497290 23.040603 1.403342 1.239367 -0.001795 -0.009455 -255647.000000 0 1 0
3.582556 22.706746 8.228890 24.416094 1.414311 1.227039 0.013189 -0.016811 -684639.000000 0 1 0
3.794656 24.049146 7.368990 25.437430 1.414299 1.276893 0.019342 -0.012674 -179752.000000 0 0 1
2.698356 24.021646 6.506790 25.033156 1.458935 1.307850 0.019723 -0.016965 35154.500000 0 0 1
2.821556 25.096546 5.603490 25.868840 1.458838 1.352454 0.028740 -0.004704 -611555.000000 0 0 1
1.532656 25.316946 4.858590 25.824459 1.510331 1.381529 0.033083 -0.013007 -1486890.000000 0 0 1
0.463556 25.799746 5.572790 26.398821 1.552831 1.358096 0.042012 -0.021663 -517390.000000 0 0 1
-0.622544 25.898046 4.649890 26.319533 -1.546763 1.393193 0.044022 -0.026391 -122076.000000 0 0 1
-1.917344 26.502446 5.204190 27.076548 -1.498576 1.377390 0.053664 -0.027279 -190797.000000 0 0 1
-2.804144 26.868346 4.171990 27.334534 -1.466807 1.417570 0.076973 -0.031438 -124885.000000 0 0 1
-3.857744 27.659746 4.691890 28.318855 -1.432219 1.404348 0.065423 -0.026516 -86623.900000 0 0 1
-4.824344 28.190246 3.606190 28.826531 -1.401303 1.445368 0.057356 -0.030379 -80049.800000 0 0 1
-4.252344 29.189446 2.809590 29.631065 -1.426133 1.475835 0.055934 -0.025955 42291.100000 0 0 1
-5.108144 29.515846 1.737290 30.004941 -1.399429 1.512864 0.052979 -0.023011 -442831.000000 0 0 1
-4.559944 30.589946 0.770590 30.937545 -1.422819 1.545886 0.054155 -0.023047 -312451.000000 0 0 1
-4.485744 31.924646 1.139490 32.258384 -1.431200 1.535465 0.049738 -0.015759 396920.000000 0 0 1
-3.294344 31.994246 1.919590 32.220635 -1.468191 1.511185 0.045380 -0.017269 -908894.000000 0 0 1
-2.557544 33.283146 1.882890 33.434325 -1.494105 1.514450 0.040384 -0.016658 -1138960.000000 0 0 1
-1.786244 33.271246 0.734790 33.327262 -1.517161 1.548747 0.028721 -0.014184 -324665.000000 0 0 1
-0.981844 -34.313913 0.444690 34.330838 1.542191 1.557843 0.033914 -0.017258 237555.000000 0 0 1
0.369856 -34.145813 1.173990 34.167991 -1.559965 1.536430 0.043549 -0.011930 -502451.000000 0 0 1
0.233556 -34.065613 2.600690 34.165540 -1.563940 1.494602 0.038600 -0.018664 44046.000000 0 0 1
1.450156 -34.124613 3.315190 34.315925 -1.528326 1.474037 0.036303 -0.016601 106750.000000 0 0 1
1.140556 -34.036213 4.843690 34.398053 -1.537299 1.429514 0.032578 -0.023990 258553.000000 0 0 1
0.386256 33.609546 5.417290 34.045526 1.559304 1.410998 0.032044 -0.030785 -327276.000000 0 0 1
0.088956 33.890346 6.797190 34.565377 1.568172 1.372859 0.025391 -0.024556 -617208.000000 0 0 1
1.075756 33.765146 7.922790 34.698890 1.538947 1.340435 0.012145 -0.018619 -1014580.000000 0 0 1
1.221556 32.414046 8.225690 33.463780 1.533128 1.322442 0.019027 -0.020765 444932.000000 0 0 1
2.285656 32.168946 9.158390 33.525236 1.499864 1.294100 0.033383 -0.017057 231077.000000 0 0 1
2.688856 30.679846 9.168090 32.133110 1.483377 1.281460 0.032492 -0.013167 199722.000000 0 0 1
1.709056 29.830146 9.739290 31.426299 1.513566 1.255699 0.028593 -0.017386 736243.000000 0 0 1
2.387356 28.581646 9.750290 30.293203 1.487462 1.243099 0.036838 -0.015015 345270.000000 0 0 1
1.994056 27.692746 10.977390 29.855779 1.498914 1.194283 0.025153 -0.021911 -377389.000000 0 0 1
2.626356 28.129646 12.138690 30.749350 1.477700 1.164987 0.036710 -0.009003 -115904.000000 0 0 1
2.462756 27.265246 13.274990 30.425058 1.480715 1.119294 0.039349 -0.006951 916007.000000 0 0 1
1.009256 27.105746 13.916390 30.486160 1.533579 1.096759 0.022195 -0.008849 1010340.000000 0 0 1
0.412556 28.201146 14.582290 31.750874 1.556168 1.093621 0.027168 -0.010417 108196.000000 0 0 1
-0.140344 29.172046 13.678090 32.219840 -1.565985 1.132360 0.025283 -0.009837 -441050.000000 0 0 1
-0.827544 30.285146 14.483790 33.580576 -1.543478 1.124847 0.013181 -0.004174 -149171.000000 0 0 1
-2.041644 29.904346 15.095090 33.560393 -1.502630 1.104267 0.006798 0.000292 -227777.000000 0 0 1
-2.692944 31.055046 15.560790 34.839719 -1.484298 1.107791 -0.004941 0.001992 -217147.000000 0 0 1
-3.997844 30.739546 16.326590 35.035125 -1.441467 1.086025 0.001072 0.008002 119215.000000 0 0 1
-5.047344 30.308946 15.480790 34.405853 -1.405781 1.104091 0.000532 0.009451 932417.000000 0 0 1
-6.179944 29.833746 16.259290 34.534166 -1.366539 1.080579 0.010090 0.009012 540247.000000 0 0 1
-7.296444 29.165646 15.434490 33.794918 -1.325655 1.096502 0.000938 0.005415 404627.000000 0 0 1
-8.431044 28.723846 16.178390 34.027667 -1.285294 1.075323 0.003719 0.007434 76409.700000 0 0 1
-9.386544 28.115046 15.341090 33.375321 -1.248570 1.093191 0.017127 0.005152 -69878.600000 0 0 1
-10.633544 27.638446 16.113190 33.713363 -1.203516 1.072481 0.011536 0.011122 -94963.200000 0 0 1
-11.457644 28.655646 16.652190 35.067351 -1.190429 1.075988 0.005971 0.004841 414771.000000 0 0 1
-10.981544 29.077346 17.938090 35.886786 -1.209690 1.047368 0.005792 0.003565 -587742.000000 0 0 1
-11.626044 30.351246 18.347290 37.322729 -1.204987 1.056888 -0.000067 0.006267 -372318.000000 0 0 1
-12.947144 30.176146 18.810190 37.842457 -1.165498 1.050582 0.005262 0.013837 -96797.600000 0 0 1
-13.337444 31.406646 19.362990 39.232515 -1.169206 1.054636 0.004965 -0.002256 384363.000000 0 0 1
-14.561344 31.223846 20.308690 39.992552 -1.134427 1.038154 0.022636 0.000939 555033.000000 0 0 1
-14.116944 30.831746 21.572190 40.190099 -1.141417 1.004211 0.025767 -0.001078 347189.000000 0 0 1
-15.261644 30.491746 22.328590 40.758193 -1.106735 0.991027 0.017229 0.004859 80099.400000 0 0 1
-15.006744 30.296846 23.836390 41.367557 -1.110897 0.956713 0.022360 0.001836 -361955.000000 0 0 1
-14.036944 29.278046 24.123890 40.449992 -1.123735 0.931803 0.012611 -0.002458 759520.000000 0 0 1
-13.626844 29.152346 25.495390 41.055634 -1.133538 0.900783 0.032769 -0.005466 -127392.000000 0 0 1
-12.978844 30.385046 26.176090 42.153162 -1.167110 0.900809 0.030838 -0.002177 -608096.000000 0 0 1
-13.900644 31.429746 26.384290 43.326523 -1.154384 0.916043 0.016447 0.002708 -57459.300000 0 0 1
-13.269144 32.529446 26.897790 44.246199 -1.183488 0.917368 0.014239 0.003367 -865894.000000 0 0 1
-14.245644 33.530846 27.460390 45.621585 -1.169051 0.924897 0.014470 0.000558 -358878.000000 0 0 1
-14.896844 33.018246 28.638290 46.176533 -1.146970 0.901810 -0.001307 -0.001168 252568.000000 0 0 1
-14.122644 33.137246 29.817790 46.761381 -1.167921 0.879342 0.019972 0.007466 -557503.000000 0 0 1
-14.768244 32.528446 31.068690 47.344106 -1.144613 0.854983 0.019166 0.005812 -676044.000000 0 0 1
-15.913444 33.213946 31.447090 48.428539 -1.123992 0.864066 0.010380 0.007635 -737729.000000 0 0 1
-16.540844 32.539246 32.537590 48.898843 -1.100503 0.842759 0.010958 0.011996 614133.000000 0 0 1
-18.026044 33.028046 32.632190 49.806123 -1.071199 0.856370 0.009310 0.010135 504718.000000 0 0 1
-18.206644 -34.322813 32.885590 50.901861 1.083084 0.868387 0.022769 0.009945 -1469650.000000 0 0 1
-19.495944 -34.145313 33.297190 51.523753 1.051996 0.868137 0.016794 0.003344 -1111870.000000 0 0 1
-19.976444 -32.653213 33.582990 50.922567 1.021763 0.850654 0.023151 -0.001362 -92654.400000 0 0 1
-19.590244 -32.142613 -33.726843 50.541322 1.023436 2.301390 0.030526 -0.002448 -138077.000000 0 0 1
-20.383144 -32.552313 -32.612443 50.385485 1.011359 2.274779 0.019910 -0.002006 79593.600000 0 0 1
-20.144844 -31.754913 -31.293243 48.922963 1.005477 2.264830 0.027106 -0.006124 -244167.000000 0 0 1
-20.376844 -30.342613 -31.447543 48.216573 0.979415 2.281298 0.042944 -0.009228 -38312.800000 0 0 1
-19.695044 -29.640313 -30.443143 46.831911 0.984317 2.278448 0.042148 -0.012400 -313694.000000 0 0 1
-19.926144 -28.123913 -30.460043 45.998043 0.954380 2.294551 0.045825 -0.019942 -228509.000000 0 0 1
-21.220444 -27.820513 -30.005943 46.093870 0.919177 2.279664 0.045413 -0.017153 -239984.000000 0 0 1
-21.472044 -26.402313 -30.025943 45.383787 0.888020 2.293748 0.041666 -0.017251 -522604.000000 0 0 1
-22.658444 -25.986413 -29.201543 45.182175 0.853705 2.273531 0.059717 -0.016168 -673142.000000 0 0 1
-22.474944 -26.200613 -27.808443 44.327246 0.861790 2.248935 0.059817 -0.018256 188950.000000 0 0 1
-21.606844 -25.314413 -27.118443 42.931168 0.864251 2.254505 0.049121 -0.024804 18597.500000 0 0 1
-21.481844 -25.647713 -25.629943 42.144618 0.873561 2.224515 0.050525 -0.019506 -212210.000000 0 0 1
-22.687244 -25.364713 -24.968043 42.207617 0.841061 2.203780 0.054101 -0.021859 -20102.500000 0 0 1
-22.732844 -25.991313 -23.660843 41.858883 0.852175 2.171536 0.043354 -0.014903 -87825.700000 0 0 1
-24.070244 -25.787213 -22.890243 42.051400 0.819822 2.146398 0.039327 -0.014399 733752.000000 0 0 1
-25.253944 -26.495613 -23.216143 43.344764 0.809387 2.136033 0.043812 -0.012409 85621.500000 0 0 1
-25.209144 -27.933713 -23.200543 44.204734 0.836622 2.123327 0.045695 -0.007801 -1603660.000000 0 0 1
-26.602144 -28.528113 -23.294143 45.432856 0.820319 2.109141 0.032231 -0.010090 -422470.000000 0 0 1
-27.300844 -28.217113 -22.097443 45.053730 0.801901 2.083424 0.035897 -0.003548 100678.000000 0 0 1
-28.438744 -27.388413 -22.373743 45.381403 0.766586 2.086349 0.032605 -0.002009 395979.000000 0 0 1
-29.101244 -26.849613 -21.064043 44.849505 0.745177 2.059703 0.031907 0.000947 22992.300000 0 0 1
-29.819644 -27.842113 -20.343643 45.587918 0.751116 2.033368 0.025519 -0.003061 213523.000000 0 0 1
-30.207944 -27.497013 -19.036343 45.066484 0.738454 2.006894 0.020551 0.004482 -963007.000000 0 0 1
-31.007244 -28.634013 -18.309243 46.006351 0.745627 1.980102 0.009214 0.005706 93141.900000 0 0 1
-32.323944 -28.870613 -18.777143 47.232730 0.729026 1.979636 0.006496 0.002256 909799.000000 0 0 1
-33.292344 -27.799113 -18.880343 47.303681 0.695721 1.981365 0.006214 0.010508 -146825.000000 0 0 1
-33.802544 -27.279013 -17.508043 46.832554 0.679001 1.953946 0.006949 0.011170 -577384.000000 0 0 1
-32.784244 -26.606813 -16.792843 45.439287 0.681758 1.949339 0.006374 0.011590 395512.000000 0 0 1
-33.323344 -25.876013 -15.667843 45.005496 0.660255 1.926374 0.002003 0.009965 90249.100000 0 0 1
-33.179444 -26.514913 -14.298843 44.814875 0.674214 1.895539 0.011162 0.011809 -135750.000000 0 0 1
-33.898644 -27.704813 -14.085743 45.990031 0.685191 1.882077 0.001097 0.016153 8775.840000 0 0 1
-33.677644 -28.283213 -12.831743 45.812416 0.698555 1.854687 -0.014493 0.015522 -205298.000000 0 0 1
-34.487844 -29.562313 -12.592243 47.137102 0.708648 1.841221 -0.006683 0.009620 -2819.630000 0 0 1
-34.040344 -30.550713 -13.520843 47.695957 0.731424 1.858217 -0.004544 0.005163 310552.000000 0 0 1
-34.455444 -31.830013 -13.047143 48.688349 0.745811 1.842084 0.001437 -0.005242 -310994.000000 0 0 1
-33.974044 -33.085313 -13.820243 49.395068 0.772146 1.854372 0.002121 -0.004247 -183047.000000 0 0 1
-32.601744 -33.372513 -13.683743 48.619371 0.797081 1.856097 -0.008905 0.002983 -121901.000000 0 0 1
-32.245444 -34.316613 -14.618643 49.306220 0.816504 1.871808 0.010101 -0.012853 -612879.000000 0 0 1
-30.751544 34.166546 -14.825643 48.299172 -0.837955 1.882788 0.016143 -0.001577 -407808.000000 0 0 1
-30.434044 33.431846 -15.978143 47.950187 -0.832303 1.910517 0.031073 -0.002813 -755618.000000 0 0 1
-29.154844 32.871246 -16.023343 46.768272 -0.845243 1.920491 0.034906 -0.000874 -341279.000000 0 0 1
9.479891 19.915446 -8.971810 23.811482 1.126527 1.957119 0.036113 -0.014699 -500131.000000 0 1 0
8.110091 19.945546 -9.297610 23.453015 1.184603 1.978427 0.039022 -0.016678 -105241.000000 0 1 0
7.763491 19.971246 -10.682210 23.942265 1.200040 2.033272 0.047928 -0.016265 232860.000000 0 1 0
7.929891 18.622146 -11.476410 23.267477 1.168222 2.086605 0.037761 -0.008382 -384739.000000 0 1 0
9.257291 18.226446 -11.683510 23.545810 1.100845 2.090017 0.046263 -0.015482 -452826.000000 0 1 0
9.274591 17.124346 -12.474110 23.127142 1.074423 2.140486 0.046477 -0.021691 -325451.000000 0 1 0
10.587291 16.622146 -13.066210 23.645556 1.003658 2.156260 0.064975 -0.017654 -319798.000000 0 1 0
10.342791 15.386046 -13.723510 23.065959 0.978960 2.208022 0.070910 -0.030341 -87047.400000 0 1 0
11.305091 15.088946 -14.693610 23.903630 0.927788 2.232804 0.069914 -0.027425 -374828.000000 0 1 0
10.864491 13.889946 -15.559010 23.517027 0.907014 2.293755 0.061477 -0.028033 -271372.000000 0 1 0
10.905991 12.589046 -14.970210 22.394908 0.856911 2.302939 0.063341 -0.024554 -36548.500000 0 1 0
12.134391 12.161346 -14.406210 22.420541 0.786508 2.268612 0.078381 -0.021132 -128980.000000 0 1 0
13.083091 11.499646 -15.487310 23.308065 0.721074 2.297569 0.089416 -0.025543 -155591.000000 0 1 0
13.641391 12.351746 -16.401110 24.650549 0.735824 2.298752 0.067352 -0.017322 97072.100000 0 1 0
14.451091 11.709146 -17.394710 25.465939 0.680966 2.322738 0.065293 -0.015121 348185.000000 0 0 1
15.182291 12.749646 -18.298110 26.979182 0.698525 2.316149 0.052977 -0.017714 346849.000000 0 0 1
16.217691 13.478746 -17.652110 27.500674 0.693427 2.267743 0.036959 -0.007712 473935.000000 0 0 1
17.107091 14.044846 -18.643210 28.939239 0.687413 2.270798 0.033170 -0.007259 839873.000000 0 0 1
18.260391 14.943446 -18.061310 29.714632 0.685832 2.224116 0.024873 0.007431 89862.700000 0 0 1
17.956191 16.203746 -17.530610 29.871533 0.734142 2.197980 0.022179 0.005181 -182464.000000 0 0 1
17.349191 17.121146 -18.375310 30.525073 0.778783 2.216768 0.025449 0.010968 -341939.000000 0 0 1
17.086991 18.577846 -17.864610 30.923226 0.827176 2.186715 0.022988 0.016347 -20625.700000 0 0 1
18.273891 19.312646 -17.659810 31.918369 0.813027 2.157094 0.016527 0.016891 104853.000000 0 0 1
17.978091 20.636646 -17.277510 32.366576 0.854138 2.133893 0.011751 0.014530 -584356.000000 0 0 1
19.050291 21.617946 -17.724410 33.829039 0.848451 2.122267 0.019819 0.005493 -152272.000000 0 0 1
20.120291 21.742546 -16.809910 34.060791 0.824130 2.086936 0.024718 0.000993 -235022.000000 0 0 1
19.829291 22.740646 -15.841110 34.077537 0.853682 2.054267 0.027668 -0.002883 -210219.000000 0 0 1
21.038791 23.170146 -14.991310 34.701956 0.833572 2.017508 0.024921 -0.004551 -413039.000000 0 0 1
21.350691 22.356946 -13.855210 33.877011 0.808417 1.992138 0.032969 -0.002195 -144204.000000 0 0 1
22.406991 22.943246 -13.145310 34.659269 0.797222 1.959806 0.030842 0.000440 1417680.000000 0 0 1
23.925691 22.787646 -13.582410 35.723905 0.761041 1.960814 0.028852 -0.002344 915137.000000 0 0 1
24.252891 23.371746 -14.785310 36.783782 0.766898 1.984444 0.032966 0.001117 -600100.000000 0 0 1
25.615791 23.475846 -15.059510 37.869155 0.741835 1.979775 0.025884 0.007595 -506655.000000 0 0 1
25.873691 24.095046 -16.509910 39.020459 0.749818 2.007670 0.027342 0.000514 -429066.000000 0 0 1
26.562091 23.249246 -17.352210 39.334099 0.718988 2.027675 0.029253 -0.006527 -90863.800000 0 0 1
26.606491 23.851346 -18.679010 40.319939 0.730849 2.052478 0.028741 -0.003206 -962254.000000 0 0 1
27.154391 23.026846 -19.867610 40.771540 0.703330 2.079781 0.024581 -0.013690 144388.000000 0 0 1
28.556691 22.817746 -19.842410 41.591530 0.674151 2.068123 0.023447 -0.009465 -151915.000000 0 0 1
28.902191 21.926346 -20.931010 41.883272 0.649008 2.094102 0.026582 -0.006520 -819188.000000 0 0 1
30.382991 22.068646 -21.159210 43.102940 0.628192 2.083918 0.054536 -0.017839 -1113090.000000 0 0 1
30.644491 23.343046 -21.662410 44.195505 0.650971 2.083058 0.046384 -0.014412 -1408870.000000 0 0 1
32.000891 23.530746 -21.773210 45.297083 0.634036 2.072222 0.058798 -0.011810 -1025020.000000 0 0 1
32.356491 24.953846 -22.273010 46.537339 0.656942 2.069862 0.059139 -0.011063 -140808.000000 0 0 1
32.386091 25.175346 -23.659010 47.354046 0.660777 2.093956 0.053384 -0.010225 329010.000000 0 0 1
31.159491 25.058346 -24.361910 46.822401 0.677294 2.118004 0.045750 -0.015419 -323400.000000 0 0 1
31.421291 25.327646 -25.844180 47.923990 0.678429 2.140372 0.053191 -0.020271 -126845.000000 0 0 1
31.364891 26.710246 -26.208650 48.827113 0.705420 2.137394 0.052725 -0.020878 -278749.000000 0 0 1
30.085491 27.140446 -26.596090 48.467438 0.733980 2.151654 0.047238 -0.008981 -187098.000000 0 0 1
29.588691 26.773046 -28.016590 48.756701 0.735483 2.182936 0.051820 -0.005781 -357884.000000 0 0 1
29.139091 25.483346 -28.203290 47.894813 0.718570 2.200443 0.041075 -0.022480 -102255.000000 0 0 1
28.987891 25.066146 -29.548560 48.391393 0.712973 2.227635 0.043650 -0.026569 -510468.000000 0 0 1
28.303791 23.677946 -29.595010 47.303428 0.696642 2.246751 0.029890 -0.025650 -244828.000000 0 0 1
26.948191 23.732046 -29.254300 46.316618 0.722024 2.254432 0.025338 -0.025422 -377014.000000 0 0 1
26.234891 22.564146 -29.561880 45.511701 0.710318 2.277782 0.032502 -0.034262 -187770.000000 0 0 1
24.793091 22.552346 -29.040540 44.347025 0.738106 2.284777 0.027656 -0.022129 -209223.000000 0 0 1
24.824191 22.573846 -27.644910 43.474821 0.737956 2.259949 0.014849 -0.002897 -521115.000000 0 0 1
23.529591 22.498346 -27.163070 42.398698 0.762997 2.266151 0.015273 -0.007902 -723864.000000 0 0 1
23.486491 22.896146 -25.675110 41.654052 0.772671 2.234945 0.022389 -0.005188 -26927.400000 0 0 1
24.044591 21.891446 -24.835610 40.916809 0.738560 2.223049 0.014973 -0.009359 214039.000000 0 0 1
24.400591 22.408846 -23.576010 40.661695 0.742874 2.189290 0.016241 -0.002412 8796.810000 0 0 1
24.895391 21.261146 -22.635910 39.802026 0.706823 2.175736 0.025250 -0.004972 231798.000000 0 0 1
26.184091 20.754046 -22.910710 40.512192 0.670225 2.171868 0.007455 -0.006719 17449.000000 0 0 1
26.168791 19.351846 -22.570510 39.607165 0.636748 2.177131 0.033333 -0.006541 842950.000000 0 0 1
27.411991 18.499146 -23.052110 40.311728 0.593651 2.179551 0.044482 -0.014458 1987510.000000 0 0 1
28.656791 18.707646 -22.320710 40.858313 0.578353 2.148731 0.061138 -0.027222 1645040.000000 0 0 1
29.756091 18.107346 -23.037710 41.761669 0.546665 2.155134 0.049571 -0.016392 1594750.000000 0 0 1
31.144791 17.951546 -22.316510 42.311732 0.522878 2.126370 0.050535 -0.012696 739907.000000 0 0 1
31.772191 19.183246 -22.085010 43.188155 0.543190 2.107571 0.047282 -0.014230 -122502.000000 0 0 1
33.065191 18.931246 -21.549810 43.773202 0.519986 2.085533 0.056817 -0.012952 403498.000000 0 0 1
33.450391 19.999146 -20.553310 44.060561 0.538855 2.056102 0.043145 -0.016318 -238064.000000 0 0 1
32.758891 19.713446 -19.386010 42.867030 0.541723 2.040067 0.041568 -0.010513 -5867.890000 0 0 1
32.908491 20.722246 -18.425510 43.033472 0.561967 2.013260 0.021088 -0.002754 -405931.000000 0 0 1
32.168291 20.511446 -17.151310 41.829246 0.567630 1.993285 0.030550 -0.006339 -478572.000000 0 0 1
32.827891 19.606446 -16.291010 41.562966 0.538395 1.973557 0.031667 -0.013445 266122.000000 0 0 1
32.497691 19.799246 -14.926910 40.876921 0.547194 1.944609 0.029795 -0.014950 -261972.000000 0 0 1
33.134091 18.688046 -14.037110 40.548138 0.513538 1.924297 0.029586 -0.012471 -523682.000000 0 0 1
34.530391 18.538146 -14.076910 41.643369 0.492703 1.915624 0.033033 -0.015831 -97844.500000 0 0 1
35.019991 17.451646 -13.271310 41.316914 0.462314 1.897801 0.041315 -0.011829 121494.000000 0 0 1
34.742691 17.518546 -11.752110 40.645616 0.467031 1.864120 0.049407 -0.018209 -89200.200000 0 0 1
35.728091 18.278546 -11.012910 41.615933 0.472886 1.838619 0.052371 -0.014895 546639.000000 0 0 1
35.377091 18.629346 -9.677710 41.136956 0.484695 1.808278 0.048718 -0.018477 -490878.000000 0 0 1
34.397691 19.817546 -9.547410 40.830005 0.522683 1.806815 0.054176 -0.025781 84674.000000 0 0 1
33.104491 19.473246 -10.022810 39.693467 0.531724 1.826065 0.062161 -0.030393 148968.000000 0 0 1
32.151391 20.495346 -9.686610 39.339567 0.567512 1.819586 0.042798 -0.016456 -243895.000000 0 0 1
30.719691 20.164946 -10.064410 38.100089 0.580874 1.838126 0.019412 -0.012173 -618472.000000 0 0 1
30.510791 19.933046 -11.432210 38.195944 0.578700 1.874760 0.030339 -0.015332 -290740.000000 0 0 1
29.335791 19.178046 -11.592110 36.915621 0.579001 1.890217 0.024436 -0.015702 -126850.000000 0 0 1
29.054191 18.612246 -13.043510 36.887598 0.569742 1.932215 0.042806 -0.007629 47632.800000 0 0 1
30.025291 17.640146 -13.366610 37.300926 0.531185 1.937291 0.038485 -0.005007 223025.000000 0 0 1
29.510791 16.792046 -14.435710 36.895112 0.517324 1.972800 0.030745 -0.001026 834734.000000 0 0 1
30.617691 15.975846 -15.228910 37.743746 0.480923 1.986115 0.037590 -0.012723 279679.000000 0 0 1
31.324791 15.097646 -14.459010 37.659586 0.449121 1.964856 0.021532 -0.011655 -256228.000000 0 0 1
32.360091 14.469846 -15.181210 38.561912 0.420482 1.975432 0.023168 -0.011471 329118.000000 0 0 1
33.307691 13.531546 -14.369210 38.716653 0.385890 1.951030 0.030814 -0.023557 164231.000000 0 0 1
34.113691 14.118046 -13.361410 39.263092 0.392391 1.918037 0.044298 -0.008117 105869.000000 0 0 1
34.726591 13.049246 -12.619010 39.184925 0.359446 1.898677 0.050138 -0.010865 30505.900000 0 0 1
35.786791 13.611346 -11.651610 40.021534 0.363449 1.866208 0.068479 -0.006295 368249.000000 0 0 1
-34.890374 13.840646 -12.229010 39.477213 -0.377649 1.885752 0.051760 -0.003383 236751.000000 0 0 1
-34.029674 14.417446 -11.270910 38.638257 -0.400746 1.866804 0.039866 -0.004174 891759.000000 0 0 1
-32.561774 14.810246 -11.792510 37.665313 -0.426868 1.889238 0.041319 -0.011168 1807850.000000 0 0 1
-31.702874 13.750046 -12.193710 36.644543 -0.409230 1.910021 0.022237 -0.013356 156845.000000 0 0 1
-31.336774 12.862346 -11.217210 35.682757 -0.389487 1.890578 0.051416 -0.004478 -3826.500000 0 0 1
-30.162274 11.865346 -11.664910 34.447342 -0.374790 1.916257 0.057798 -0.007968 764928.000000 0 0 1
-30.465674 11.120746 -12.846910 34.883684 -0.349997 1.947953 0.050172 -0.013626 36261.600000 0 0 1
-29.851774 9.876846 -12.802610 33.949777 -0.319526 1.957464 0.051062 -0.021613 -367783.000000 0 0 1
-29.751774 9.173546 -14.189110 34.214805 -0.299087 1.998417 0.048620 -0.027323 -28659.500000 0 0 1
-31.001474 8.894046 -14.780610 35.477625 -0.279387 2.000518 0.047347 -0.027385 481831.000000 0 0 1
-30.789074 7.887046 -15.744910 35.469350 -0.250771 2.030745 0.044327 -0.027662 340502.000000 0 0 1
-32.165374 7.538246 -16.377210 36.873425 -0.230204 2.031018 0.049068 -0.027893 92469.100000 0 0 1
-32.879674 6.587646 -15.656910 37.008227 -0.197738 2.007622 0.060606 -0.033489 354225.000000 0 0 1
-33.912374 5.956246 -16.417110 38.145085 -0.173863 2.015717 0.037789 -0.034052 -27076.000000 0 0 1
-34.830874 5.126546 -15.489710 38.463000 -0.146135 1.985280 0.041088 -0.034226 231469.000000 0 0 1
-35.939074 4.533446 -16.173010 39.670335 -0.125480 1.990714 0.045036 -0.027732 302914.000000 0 0 1
34.981191 4.200946 -15.294510 38.409031 0.119519 1.980351 0.060471 -0.030756 94398.800000 0 0 1
34.094591 3.001946 -15.715410 37.662009 0.087821 2.001241 0.056845 -0.029110 -382133.000000 0 0 1
34.764591 1.769746 -15.664510 38.171791 0.050863 1.993655 0.057516 -0.027739 114984.000000 0 0 1
33.978691 0.551846 -15.540410 37.367905 0.016240 1.999702 0.061431 -0.020966 36089.600000 0 0 1
33.263191 0.298046 -14.240610 36.184578 0.008960 1.975291 0.073447 -0.023291 -535224.000000 0 0 1
34.200291 -0.108754 -13.304510 36.697162 -0.003180 1.941798 0.084114 -0.028355 -10775.000000 0 0 1
33.795591 0.001046 -11.971710 35.853365 0.000031 1.911242 0.091040 -0.024663 -329170.000000 0 0 1
34.075691 1.344646 -11.308310 35.928243 0.039440 1.890987 0.094255 -0.033317 -713966.000000 0 0 1
33.151991 2.307346 -11.649510 35.214903 0.069487 1.907960 0.077599 -0.022781 -60627.100000 0 0 1
33.416091 3.581146 -11.120110 35.399387 0.106761 1.890339 0.089997 -0.028568 143754.000000 0 0 1
32.332491 4.632146 -11.586310 34.656736 0.142298 1.911676 0.086715 -0.026526 519760.000000 0 0 1
32.478591 5.007746 -12.953710 35.323292 0.152981 1.946276 0.073466 -0.021269 771281.000000 0 0 1
31.265991 5.637846 -13.341410 34.457811 0.178402 1.968368 0.073137 -0.026475 152235.000000 0 0 1
31.397191 6.278446 -14.720110 35.240376 0.197365 2.001715 0.042379 -0.019601 -415821.000000 0 0 1
31.412391 5.435946 -15.878410 35.614768 0.171354 2.032906 0.032127 -0.011283 39043.100000 0 0 1
31.733991 6.044546 -17.140210 36.570063 0.188221 2.058609 0.022085 -0.011025 -1262400.000000 0 0 1
30.749191 7.029446 -17.811510 36.223966 0.224744 2.084843 0.024963 -0.012641 560830.000000 0 0 1
29.538791 6.543246 -18.385610 35.403176 0.217994 2.116852 0.018800 -0.012284 939927.000000 0 0 1
28.629291 5.789146 -17.576910 34.089563 0.199520 2.112515 0.021249 -0.012840 -1018830.000000 0 0 1
27.241491 5.710946 -18.211510 33.262183 0.206649 2.150187 0.016724 -0.013809 -585281.000000 0 0 1
27.075991 4.995746 -19.407610 33.685636 0.182456 2.184793 0.018129 -0.005913 599772.000000 0 0 1
25.739091 5.095546 -19.896710 32.929386 0.195442 2.219587 0.016497 -0.005892 409000.000000 0 0 1
25.295991 3.900046 -20.744310 32.945772 0.152972 2.251899 0.027466 0.003995 -442737.000000 0 0 1
24.990291 2.798446 -19.903310 32.070043 0.111517 2.240329 0.030610 -0.006645 248895.000000 0 0 1
24.620191 1.669646 -20.645810 32.174384 0.067712 2.267489 0.020681 -0.006679 -418585.000000 0 0 1
23.652791 0.750646 -19.871710 30.901502 0.031725 2.269292 0.015780 -0.011197 -95771.000000 0 0 1
22.391091 1.314446 -19.635410 29.810033 0.058637 2.289866 0.009371 -0.014960 45856.700000 0 0 1
21.468091 0.476146 -18.945310 28.636173 0.022176 2.293729 0.018089 -0.017044 -423560.000000 0 0 1
20.243691 1.286946 -18.594510 27.517613 0.063487 2.312753 0.026843 -0.024377 -1605560.000000 0 0 1
19.528191 1.690846 -19.744510 27.821842 0.086369 2.359835 0.035699 -0.026896 730048.000000 0 0 1
18.483591 2.660846 -19.569310 27.049605 0.142975 2.379598 0.029246 -0.017381 838866.000000 0 0 1
17.250491 2.315946 -18.708210 25.552694 0.133456 2.392258 0.069532 -0.028511 -835356.000000 0 0 1
17.590791 2.463846 -17.335110 24.819599 0.139159 2.344018 0.069779 -0.031121 -157091.000000 0 1 0
16.578391 2.194846 -16.400410 23.422934 0.131627 2.346454 0.056717 -0.018887 63231.200000 0 1 0
15.488091 3.298346 -16.247310 22.687775 0.209826 2.369033 0.068364 -0.023738 516454.000000 0 1 0
14.592091 3.433846 -17.376410 22.949075 0.231117 2.429770 0.064234 -0.021696 311877.000000 0 1 0
13.558591 4.312946 -17.056610 22.211817 0.307976 2.446364 0.063087 -0.026592 -385847.000000 0 1 0
-20.116909 -21.967954 -17.879110 34.741094 0.829353 2.111382 0.049088 -0.008620 -52594.700000 0 0 1
-19.893809 -22.729254 -19.037210 35.704313 0.851824 2.133164 0.052702 -0.014613 532562.000000 0 0 1
-20.873609 -22.506254 -20.059210 36.668937 0.823016 2.149615 0.056863 -0.011312 5710.360000 0 0 1
-20.482609 -23.324954 -21.252510 37.619941 0.850190 2.171141 0.048572 -0.010541 -29807.800000 0 0 1
-20.532209 -24.655454 -20.853610 38.266644 0.876393 2.147132 0.034219 -0.015783 697691.000000 0 0 1
-19.600109 -25.462064 -21.615510 38.726106 0.914758 2.162967 0.030288 -0.025110 147319.000000 0 0 1
-19.507209 -26.997234 -21.275510 39.522515 0.945087 2.139231 0.022739 -0.003211 -49194.600000 0 0 1
-20.755909 -27.649484 -21.420010 40.670856 0.926860 2.125472 0.029983 0.004087 48062.600000 0 0 1
-20.677909 -29.072874 -21.324310 41.563615 0.952564 2.109533 0.051201 -0.017053 185330.000000 0 0 1
-22.040809 -29.759874 -21.670210 42.907405 0.933324 2.100232 0.042187 -0.014036 517395.000000 0 0 1
-22.491409 -29.615284 -23.026410 43.739503 0.921273 2.125209 0.029092 -0.011233 357690.000000 0 0 1
-21.617409 -30.203234 -24.002110 44.222720 0.949590 2.144510 0.029731 -0.011596 -70547.500000 0 0 1
-22.000509 -29.670464 -25.365370 44.808044 0.932760 2.172551 0.037511 -0.008729 961520.000000 0 0 1
-23.323609 -30.098444 -25.765370 45.975660 0.911542 2.165681 0.041331 -0.006275 1104100.000000 0 0 1
-23.919209 -29.368014 -26.798630 46.398010 0.887297 2.186559 0.041254 -0.003267 45485.400000 0 0 1
-23.249109 -29.522244 -28.213310 46.990157 0.903717 2.214809 0.039243 -0.015528 -307517.000000 0 0 1
-23.558709 -30.775894 -28.790630 48.281143 0.917454 2.209695 0.049873 -0.003225 188437.000000 0 0 1
-23.389109 -30.775154 -30.173710 49.036857 0.920926 2.233597 0.048204 -0.005603 -689714.000000 0 0 1
-24.208909 -31.853214 -30.842490 50.516905 0.920917 2.227536 0.037839 0.001578 -209857.000000 0 0 1
-23.639309 -33.137394 -30.670180 50.966300 0.951152 2.216516 0.036625 -0.003016 207494.000000 0 0 1
-24.583809 -34.135661 -30.964960 52.234431 0.946655 2.205337 0.040615 -0.001159 -120644.000000 0 0 1
-23.922309 33.195899 -30.917480 51.284843 -0.946352 2.217875 0.045672 -0.005321 631965.000000 0 0 1
-22.875409 32.984951 -31.878480 51.259426 -0.964439 2.241969 0.037750 -0.007932 550552.000000 0 0 1
-22.288909 31.689336 -31.662100 50.034968 -0.957821 2.255960 0.032915 0.000819 212161.000000 0 0 1
-21.205109 31.157266 -32.654190 49.867103 -0.973221 2.284746 0.028620 0.007494 260768.000000 0 0 1
-21.612909 30.924166 -33.970120 50.768011 -0.960809 2.303826 0.029648 0.005408 -164535.000000 0 0 1
-20.847209 29.859156 34.158946 49.930040 -0.961290 0.817378 0.014986 0.011983 -177773.000000 0 0 1
-20.927009 29.629966 32.668695 48.817192 -0.955869 0.837658 0.021493 0.000518 -143881.000000 0 0 1
-20.286009 30.542766 31.825033 48.551163 -0.984515 0.855959 0.019860 0.004153 228338.000000 0 0 1
-20.607309 30.315756 30.478593 47.672328 -0.973787 0.877163 0.029561 -0.002880 -351501.000000 0 0 1
-19.956809 31.367756 29.643723 47.549560 -1.004169 0.897677 0.029476 -0.012746 -466013.000000 0 0 1
-20.527609 32.657896 29.863583 48.782727 -1.009638 0.911988 0.037218 -0.013371 -171735.000000 0 0 1
-19.841509 33.758054 29.357253 48.940168 -1.039428 0.927470 0.019228 -0.021998 -397999.000000 0 0 1
-20.746909 -33.668514 29.176613 49.145476 1.018542 0.935174 0.018388 -0.026951 -15665.300000 0 0 1
-21.192209 -33.402744 30.490983 49.945501 1.005434 0.914123 0.013627 -0.011490 -480471.000000 0 0 1
-22.175409 -32.405124 30.468583 49.700859 0.970673 0.910894 0.031078 -0.019243 -407311.000000 0 0 1
-21.656409 -30.921564 30.438023 48.493468 0.959825 0.892236 0.023441 -0.016223 -283916.000000 0 0 1
-21.399309 -30.573594 29.099103 47.322647 0.960119 0.908526 0.032507 -0.015560 -63358.400000 0 0 1
-21.532709 -29.175824 28.781373 46.295288 0.934998 0.899896 0.029057 -0.015577 -586800.000000 0 0 1
-22.922609 -28.657404 28.399583 46.402900 0.896126 0.912182 0.023928 -0.009085 -559402.000000 0 0 1
-23.935009 -28.807574 29.377573 47.600450 0.877521 0.905655 0.027332 -0.002291 1054010.000000 0 0 1
-25.053389 -29.688834 29.123653 48.551893 0.869874 0.927488 0.033605 -0.010602 881486.000000 0 0 1
-26.064089 -29.310364 27.994073 48.188197 0.843955 0.950923 0.018145 -0.007890 -546886.000000 0 0 1
-25.583549 -29.444324 26.682203 47.259139 0.855444 0.970856 0.024532 -0.002303 11314.800000 0 0 1
-26.602669 -29.774814 25.731033 47.500817 0.841605 0.998342 0.018613 -0.000267 280497.000000 0 0 1
-26.096139 -30.120964 24.273233 46.663378 0.856871 1.023738 0.025380 -0.011414 -268817.000000 0 0 1
-25.673529 -28.975234 23.572973 45.325262 0.845742 1.023846 0.010493 -0.007957 73656.000000 0 0 1
-25.392609 -29.123074 22.197923 44.561035 0.853721 1.049336 0.040456 -0.008113 414456.000000 0 0 1
-24.036909 -29.805594 21.778923 44.050743 0.892131 1.053646 0.041561 -0.009020 206298.000000 0 0 1
-23.935909 -31.130814 22.258323 45.138545 0.915320 1.055134 0.047744 -0.030551 1602020.000000 0 0 1
-22.632409 -31.735814 21.942123 44.730802 0.951299 1.058090 0.061952 -0.011693 1242930.000000 0 0 1
-21.970609 -32.542124 23.076523 45.543643 0.976948 1.039455 0.072441 -0.017010 90986.700000 0 0 1
-21.208909 -31.602844 23.857433 44.919202 0.979726 1.010876 0.065701 -0.024980 331270.000000 0 0 1
-20.717109 -32.224784 25.073503 45.785542 0.999433 0.991268 0.045867 -0.025732 -705159.000000 0 0 1
-19.624109 -31.393124 25.715803 45.077006 1.012119 0.963699 0.035534 -0.005479 -663027.000000 0 0 1
-18.384909 -31.625514 25.067603 44.345944 1.044217 0.970031 0.042382 -0.012896 942670.000000 0 0 1
-17.195509 -31.279844 25.804353 44.045191 1.068159 0.944854 0.066235 -0.008499 932313.000000 0 0 1
-16.685209 -32.173054 26.953663 45.166377 1.092373 0.931334 0.032122 -0.023079 -790309.000000 0 0 1
-17.410609 -31.988974 28.137553 46.023317 1.072364 0.912998 0.026216 -0.013140 506639.000000 0 0 1
-16.800209 -32.696384 29.202953 46.947982 1.096150 0.899466 0.019577 -0.011547 -66999.100000 0 0 1
-17.348409 -32.061324 30.504073 47.533086 1.074811 0.874026 0.034317 -0.007660 231710.000000 0 0 1
-16.823809 -30.729144 30.801353 46.648089 1.069884 0.849589 0.035259 -0.010765 707602.000000 0 0 1
-17.597009 -30.086784 31.817863 47.193704 1.041572 0.830919 0.034435 -0.006916 97625.700000 0 0 1
-17.392509 -28.579784 31.763103 46.132398 1.024107 0.811349 0.039072 -0.010802 -74534.600000 0 0 1
-18.191109 -27.847334 30.844323 45.362570 0.992144 0.823101 0.047132 -0.007567 213245.000000 0 0 1
-18.145909 -28.170834 29.438153 44.603529 0.998553 0.849983 0.045089 -0.002564 -330326.000000 0 0 1
-16.853909 -27.641624 28.759983 43.304160 1.023254 0.844455 0.036285 -0.000353 151705.000000 0 0 1
-16.891609 -26.228704 28.552343 42.290752 0.998642 0.829637 0.036025 0.006020 527446.000000 0 0 1
-15.822109 -25.924024 27.650273 41.072275 1.022819 0.832255 0.033646 0.008908 358399.000000 0 0 1
-15.781409 -24.468354 27.106123 39.780588 0.997964 0.821135 0.029535 0.009606 440597.000000 0 0 1
-16.746709 -24.357654 26.020203 39.380180 0.968486 0.848987 0.032275 0.002907 723497.000000 0 0 1
-16.544909 -23.308454 25.108993 38.045757 0.953507 0.850020 0.033212 -0.001977 -871.068000 0 0 1
-17.274309 -22.009754 25.585043 37.913394 0.905363 0.830064 0.026521 -0.000267 -400580.000000 0 0 1
-17.184309 -20.985554 24.690193 36.678326 0.884658 0.832330 0.032184 -0.003234 130143.000000 0 0 1
-17.752809 -19.766954 25.118293 36.562595 0.839029 0.813452 0.021153 0.000619 -220899.000000 0 0 1
-17.161709 -18.549454 24.360803 35.100645 0.824239 0.803728 0.035265 -0.007989 -465660.000000 0 0 1
-15.815909 -18.254954 24.562913 34.448847 0.856864 0.776992 0.040486 -0.011772 -700903.000000 0 0 1
-15.416809 -17.184854 23.722773 33.102374 0.839577 0.771811 0.040575 -0.004518 217804.000000 0 0 1
-13.939209 -16.785854 23.939073 32.390518 0.877783 0.739098 0.046596 -0.003689 -871837.000000 0 0 1
-13.010009 -17.560454 23.330923 31.968138 0.933164 0.752741 0.032110 -0.006601 -530234.000000 0 0 1
-11.709209 -17.053354 23.598693 31.381854 0.969105 0.719728 0.044090 -0.006798 353189.000000 0 0 1
-10.943409 -16.161554 22.529523 29.808278 0.975588 0.713899 0.055771 -0.004283 216612.000000 0 0 1
-10.586809 -16.722654 21.313623 29.086049 1.006406 0.748400 0.072362 -0.007427 35607.400000 0 0 1
-9.488509 -17.614154 21.424223 29.313607 1.076680 0.751211 0.067377 -0.010244 -358920.000000 0 0 1
-9.296609 -18.701554 20.316223 29.136300 1.109469 0.799197 0.063492 -0.008744 52213.700000 0 0 1
-8.785909 -18.093054 19.136223 27.762310 1.118738 0.810291 0.065006 -0.008958 64448.500000 0 0 1
-8.430009 -19.140954 18.181623 27.713040 1.155940 0.855200 0.055261 -0.004809 183454.000000 0 0 1
-8.267809 -18.579754 16.764323 26.355388 1.152116 0.881380 0.044711 -0.006281 -1061620.000000 0 0 1
-7.075409 -17.931154 16.700623 25.504872 1.194965 0.856877 0.057591 -0.006926 -1336620.000000 0 0 1
-6.763009 -17.525554 15.384223 24.280809 1.202509 0.884604 0.061875 -0.019868 1049310.000000 0 1 0
-5.621609 -16.420754 15.331323 23.158004 1.240955 0.847270 0.045270 -0.014862 1165310.000000 0 1 0
-6.181509 -15.216854 15.750523 22.756157 1.184933 0.806342 0.052108 -0.021886 46208.000000 0 1 0
-5.099309 -14.356454 15.942123 22.051350 1.229503 0.762727 0.032050 -0.010506 -458612.000000 0 1 0
-5.257709 -13.380254 17.099523 22.339839 1.196386 0.699091 0.010062 0.006652 -434988.000000 0 1 0
-5.147909 -13.919454 18.426923 23.660171 1.216561 0.678020 0.024171 0.013321 430303.000000 0 1 0
-6.237609 -14.737354 18.947723 24.801484 1.170407 0.701344 0.062709 -0.004730 832878.000000 0 1 0
-7.509409 -13.942954 19.333623 24.991722 1.076762 0.686292 0.080326 -0.016561 -329279.000000 0 1 0
-7.298109 -13.028854 20.354023 25.244796 1.060194 0.632984 0.067338 -0.017431 -299180.000000 0 0 1
-8.460209 -12.526254 20.937823 25.823916 0.976773 0.625292 0.073088 -0.013060 -53451.300000 0 0 1
-7.972709 -11.809154 22.225023 26.400225 0.976958 0.570095 0.069858 -0.003160 -177645.000000 0 0 1
-7.480909 -10.546554 21.850123 25.389401 0.953841 0.534349 0.056488 -0.002206 223211.000000 0 0 1
-7.003709 -9.720954 22.925523 25.867518 0.946460 0.481574 0.049678 -0.007327 654366.000000 0 0 1
-5.562809 -10.063854 23.425023 26.095167 1.065843 0.456328 0.053871 -0.007001 319797.000000 0 0 1
-5.551509 -11.154654 24.336063 27.340255 1.109002 0.473191 0.064583 0.000684 325363.000000 0 0 1
-4.225209 -11.529754 24.699693 27.583736 1.219533 0.461369 0.053208 0.001399 127915.000000 0 0 1
-4.113109 -12.786054 25.597313 28.907150 1.259564 0.483225 0.055915 -0.005533 721053.000000 0 0 1
-2.763409 -13.068654 26.064323 29.287798 1.362413 0.473587 0.045397 -0.002321 1379360.000000 0 0 1
-2.696509 -14.251954 26.842543 30.510842 1.383804 0.495417 0.050498 -0.006679 142226.000000 0 0 1
-2.916909 -15.639254 26.163443 30.620588 1.386403 0.546325 0.058150 -0.019246 87617.200000 0 0 1
-1.655809 -16.004954 25.654843 30.283184 1.467707 0.560170 0.041880 -0.019666 210002.000000 0 0 1
-1.751409 -17.288854 24.991323 30.439089 1.469838 0.607588 0.053064 -0.017297 326698.000000 0 0 1
-0.402709 -18.125454 24.999443 30.881490 1.548582 0.627448 0.055347 -0.021248 824348.000000 0 0 1
0.040191 -18.505154 26.261953 32.126820 -1.568624 0.613833 0.065099 -0.021789 226364.000000 0 0 1
0.873391 -17.522654 26.899063 32.114885 -1.520994 0.577942 0.060602 -0.024496 -175509.000000 0 0 1
1.340691 -17.987054 28.318413 33.574754 -1.496397 0.567135 0.059169 -0.022876 -552966.000000 0 0 1
2.355391 -18.971954 28.214083 34.081042 -1.447277 0.595527 0.058579 -0.031636 432973.000000 0 0 1
3.139391 -19.152254 29.420813 35.245551 -1.408324 0.583139 0.065687 -0.038118 346307.000000 0 0 1
4.202691 -18.130254 29.747863 35.089943 -1.343014 0.559048 0.078844 -0.032271 -1078990.000000 0 0 1
3.599391 -16.885354 30.049783 34.656317 -1.360773 0.521487 0.066446 -0.036906 40653.400000 0 0 1
4.512791 -15.880554 30.473243 34.657984 -1.293924 0.496498 0.075396 -0.043909 -880719.000000 0 0 1
3.840691 -14.634954 31.023663 34.516670 -1.314151 0.453767 0.084296 -0.039749 121116.000000 0 0 1
3.093991 -14.962954 32.187583 35.630090 -1.366893 0.443205 0.051005 -0.037424 -809478.000000 0 0 1
2.244891 -13.992454 32.632032 35.576366 -1.411716 0.409703 0.049203 -0.030576 -713657.000000 0 0 1
1.331691 -14.557154 33.721533 36.753584 -1.479570 0.409039 0.034478 -0.022979 176.172000 0 0 1
1.998791 -14.689654 -33.614930 36.738871 -1.435559 2.726228 0.060516 -0.024089 -255755.000000 0 0 1
1.182691 -15.296654 -32.659250 36.083417 -1.493633 2.702421 0.054446 -0.035557 135948.000000 0 0 1
1.998791 -15.731354 -31.415890 35.191317 -1.444416 2.674136 0.050475 -0.021283 592061.000000 0 0 1
1.214391 -16.442554 -30.432430 34.611633 -1.497074 2.645091 0.067176 -0.025724 547801.000000 0 0 1
1.984891 -16.542554 -29.216860 33.633626 -1.451380 2.623328 0.042305 -0.020264 196926.000000 0 0 1
1.445191 -17.473054 -28.179170 33.188278 -1.488274 2.585019 0.064498 -0.027898 -500076.000000 0 0 1
1.841491 -18.771954 -28.521750 34.194555 -1.473011 2.557299 0.071321 -0.023951 222748.000000 0 0 1
1.577491 -19.699554 -27.471480 33.841441 -1.490889 2.517974 0.055301 -0.025173 -1155650.000000 0 0 1
2.216591 -21.108754 -27.687180 34.886569 -1.466172 2.487556 0.058615 -0.029379 281878.000000 0 0 1
3.626991 -21.134654 -27.516010 34.884946 -1.400838 2.479593 0.045898 -0.028006 327319.000000 0 0 1
4.107191 -20.955454 -26.202770 33.802148 -1.377253 2.457797 0.053424 -0.037505 -597855.000000 0 0 1
5.534791 -21.458254 -25.837890 34.039494 -1.318365 2.432659 0.039271 -0.031766 138217.000000 0 0 1
5.747191 -22.834054 -25.741400 34.886156 -1.324224 2.400703 0.046126 -0.028860 31018.200000 0 0 1
6.020591 -23.444154 -26.995680 36.258001 -1.319423 2.410648 0.032776 -0.028007 -591329.000000 0 0 1
5.488191 -24.851454 -27.118900 37.190721 -1.353445 2.387926 0.022310 -0.019180 -5947.120000 0 0 1
6.177791 -25.840224 -26.364630 37.429614 -1.336125 2.352344 0.031124 -0.010071 -213144.000000 0 0 1
5.562591 -27.107394 -26.626220 38.401938 -1.368400 2.336932 0.025792 -0.001398 132877.000000 0 0 1
5.865091 -28.112694 -25.533710 38.427766 -1.365119 2.297567 0.029863 -0.002206 -131993.000000 0 0 1
7.240791 -28.289224 -25.296820 38.634678 -1.320220 2.284674 0.050173 -0.008663 -511812.000000 0 0 1
7.527491 -29.627474 -25.106210 39.557200 -1.321990 2.258392 0.050750 -0.009177 -304558.000000 0 0 1
9.003091 -29.972854 -25.346630 40.272562 -1.278996 2.251548 0.060723 -0.013063 -177980.000000 0 0 1
9.183391 -29.931964 -26.775110 41.196646 -1.273105 2.278294 0.061694 -0.025475 772140.000000 0 0 1
10.493791 -30.453084 -27.069060 42.074267 -1.238950 2.269680 0.083804 -0.020915 695350.000000 0 0 1
10.836591 -30.563064 -28.546490 43.202253 -1.230061 2.292632 0.093229 -0.035154 -54814.900000 0 0 1
10.290291 -31.575104 -29.368260 44.332516 -1.255752 2.294887 0.088962 -0.037883 163923.000000 0 0 1
10.824891 -31.374834 -30.670110 45.190863 -1.238566 2.316759 0.089933 -0.033368 45621.000000 0 0 1
-34.746130 -4.751154 -5.729310 35.534378 0.135896 1.732736 0.116995 -0.042374 -248238.000000 0 0 1
-34.402772 -4.005354 -4.560110 34.934055 0.115904 1.701705 0.117813 -0.050493 295451.000000 0 0 1
-33.452619 -2.972454 -4.686810 33.909872 0.088623 1.709454 0.108982 -0.052109 -266368.000000 0 0 1
-33.946429 -1.673754 -5.381710 34.411107 0.049266 1.727836 0.125903 -0.042927 -319782.000000 0 0 1
-34.777699 -0.861654 -4.592710 35.090224 0.024771 1.702056 0.094328 -0.039490 315826.000000 0 0 1
-35.508652 0.108846 -5.340910 35.908238 -0.003065 1.720088 0.088781 -0.042695 351012.000000 0 0 1
35.506166 0.943546 -4.416110 35.792180 0.026568 1.694494 0.104584 -0.038209 182158.000000 0 0 1
-35.724324 1.877346 -3.631710 35.957490 -0.052503 1.671969 0.092318 -0.034274 249258.000000 0 0 1
35.397096 2.612746 -2.804410 35.604010 0.073679 1.649645 0.085101 -0.033731 -574498.000000 0 0 1
-35.825607 3.909346 -2.416710 36.119214 -0.108692 1.637756 0.071230 -0.036438 -150971.000000 0 0 1
-35.564895 4.769146 -3.515110 36.054993 -0.133302 1.668444 0.087700 -0.036887 229694.000000 0 0 1
-34.311620 4.574846 -4.132710 34.861093 -0.132550 1.689624 0.069995 -0.031654 -761447.000000 0 0 1
-33.262359 5.587846 -3.708110 33.931676 -0.166439 1.680297 0.043008 -0.028455 -793270.000000 0 0 1
-32.827139 5.523546 -2.360110 33.372155 -0.166700 1.641576 0.049391 -0.030087 403575.000000 0 0 1
-32.549349 6.866846 -2.000710 33.325914 -0.207918 1.630867 0.058208 -0.035922 -372058.000000 0 0 1
-32.042409 7.090846 -0.558710 32.822374 -0.217786 1.587819 0.054705 -0.034949 -180897.000000 0 0 1
-30.627849 7.047446 -0.499210 31.432163 -0.226163 1.586679 0.064815 -0.023625 267698.000000 0 0 1
-29.997689 7.491846 0.665690 30.926239 -0.244741 1.549270 0.072473 -0.026573 -50799.600000 0 0 1
-29.886749 9.011046 0.913890 31.229024 -0.292838 1.541528 0.077669 -0.029325 -975301.000000 0 0 1
-31.159849 9.547546 1.113090 32.608753 -0.297323 1.536655 0.053513 -0.031476 -190333.000000 0 0 1
-31.049599 10.896246 1.469290 32.938801 -0.337503 1.526175 0.057344 -0.014869 54613.500000 0 0 1
-32.424869 11.590746 1.431890 34.464008 -0.343309 1.529237 0.044630 -0.018222 -474357.000000 0 0 1
-32.888249 11.820346 0.106790 34.948089 -0.345033 1.567741 0.038701 -0.013567 1187730.000000 0 0 1
-34.084799 12.634746 0.007690 36.351209 -0.354983 1.570585 0.030633 -0.008843 624227.000000 0 0 1
-35.431134 11.967646 0.267390 37.398681 -0.325740 1.563647 0.040079 -0.018738 -839739.000000 0 0 1
-35.837133 11.064346 -0.750310 37.513769 -0.299455 1.590799 0.044983 -0.015460 606599.000000 0 0 1
34.915956 10.359646 -0.424610 36.422885 0.288429 1.582454 0.057119 -0.018447 615964.000000 0 0 1
34.609976 9.133046 -1.291810 35.818037 0.258003 1.606870 0.058774 -0.027963 18584.900000 0 0 1
34.129426 9.416346 -2.575110 35.498119 0.269204 1.643402 0.064513 -0.018185 109653.000000 0 0 1
33.857066 8.234246 -3.250810 34.995307 0.238574 1.663823 0.056396 -0.022821 -333242.000000 0 0 1
33.245556 8.638646 -4.588010 34.654625 0.254222 1.703579 0.061084 -0.010390 80636.800000 0 0 1
31.901966 9.114946 -4.540810 33.487858 0.278303 1.706811 0.078913 -0.016524 407245.000000 0 0 1
31.521266 9.483146 -5.805710 33.424939 0.292236 1.745376 0.066908 -0.008795 -1249330.000000 0 0 1
30.194626 10.172046 -5.926610 32.408497 0.324942 1.754703 0.068790 -0.005744 -873362.000000 0 0 1
29.105656 9.259946 -5.791910 31.087490 0.308023 1.758201 0.049893 -0.006734 -423605.000000 0 0 1
27.990146 9.879146 -6.293510 30.342282 0.339301 1.779730 0.040770 0.005544 -632631.000000 0 0 1
26.723156 8.949346 -6.406310 28.900842 0.323152 1.794318 0.051188 0.010223 345583.000000 0 0 1
26.791256 7.920346 -7.389010 28.898110 0.287444 1.829360 0.044697 0.005477 534111.000000 0 0 1
25.625956 7.104946 -7.370510 27.595186 0.270462 1.841173 0.042409 -0.003246 55764.100000 0 0 1
25.618356 6.163446 -8.639410 27.729544 0.236100 1.887630 0.043502 -0.011869 -520663.000000 0 0 1
26.532156 5.110546 -8.582110 28.350055 0.190287 1.878341 0.062483 -0.016493 380170.000000 0 0 1
26.216556 4.040346 -9.499810 28.175851 0.152911 1.914696 0.050226 -0.019623 -449473.000000 0 0 1
27.245446 2.862746 -9.461410 28.983235 0.104688 1.903336 0.073303 -0.016631 -857855.000000 0 0 1
28.527736 3.197346 -9.906110 30.367512 0.111613 1.903085 0.124526 -0.010714 459542.000000 0 0 1
29.574506 2.903246 -8.960210 31.038131 0.097854 1.863648 0.081906 -0.022619 501675.000000 0 0 1
29.946136 1.464646 -8.554010 31.178315 0.048870 1.848718 0.098078 -0.030569 321343.000000 0 0 1
28.783686 0.783446 -7.979510 29.879541 0.027212 1.841133 0.105734 -0.028922 1342450.000000 0 0 1
29.076326 -0.505154 -7.520710 30.037460 -0.017372 1.823867 0.098709 -0.024893 -233980.000000 0 0 1
29.093426 -1.684754 -8.500110 30.356510 -0.057844 1.854600 0.088947 -0.023753 -134246.000000 0 0 1
30.210526 -1.726154 -9.378610 31.679864 -0.057075 1.871344 0.099860 -0.030974 326678.000000 0 0 1
30.186666 -2.909454 -10.165810 31.985050 -0.096085 1.894236 0.078655 -0.032167 -410784.000000 0 0 1
31.340326 -3.028554 -11.136110 33.397621 -0.096335 1.910747 0.077529 -0.026491 -910816.000000 0 0 1
32.631336 -3.338954 -10.713310 34.506923 -0.101969 1.886482 0.088090 -0.031020 -257113.000000 0 0 1
33.458046 -3.604854 -11.817310 35.666295 -0.107328 1.908509 0.066801 -0.037352 -82375.700000 0 0 1
34.885526 -4.027554 -11.404310 36.922614 -0.114942 1.884802 0.074695 -0.034976 -246008.000000 0 0 1
34.998176 -5.253454 -10.646610 36.957021 -0.148994 1.863018 0.065267 -0.032660 501066.000000 0 0 1
-35.604592 -5.648054 -10.475110 37.540850 0.157322 1.853583 0.075088 -0.027168 241525.000000 0 0 1
-35.517492 -6.968154 -9.698210 37.471358 0.193729 1.832593 0.074079 -0.035640 -86071.500000 0 0 1
-35.898721 -6.830154 -8.316110 37.477018 0.188015 1.794558 0.067919 -0.035157 321909.000000 0 0 1
35.588256 -8.070454 -7.916310 37.340650 -0.223001 1.784420 0.061609 -0.031216 -557559.000000 0 0 1
35.174436 -8.096054 -6.472110 36.669814 -0.226229 1.748223 0.065245 -0.025632 -380913.000000 0 0 1
-35.759531 -7.773554 -5.526810 37.009699 0.214054 1.720691 0.072808 -0.032643 544027.000000 0 0 1
-35.786247 -8.566054 -4.296610 37.047181 0.234947 1.687035 0.083279 -0.032445 -334787.000000 0 0 1
-35.408137 -10.081454 -4.317610 37.067690 0.277381 1.687540 0.091938 -0.036767 -298721.000000 0 0 1
35.717896 -10.798154 -5.181410 37.672473 -0.293582 1.708772 0.072498 -0.030603 286793.000000 0 0 1
-35.484162 -11.840554 -5.776610 37.850941 0.322068 1.724010 0.064036 -0.028177 228598.000000 0 0 1
35.894326 -12.354354 -7.120810 38.623032 -0.331487 1.756224 0.047986 -0.026987 15186.800000 0 0 1
35.815136 -11.369954 -8.111110 38.442033 -0.307399 1.783390 0.068748 -0.028988 200360.000000 0 0 1
35.239346 -11.860154 -9.311210 38.329798 -0.324652 1.816175 0.055073 -0.022788 -89707.500000 0 0 1
35.528466 -11.145054 -10.649910 38.728603 -0.303972 1.849374 0.036809 -0.032693 117747.000000 0 0 1
34.666996 -10.014554 -10.831610 37.675133 -0.281223 1.862412 0.041943 -0.032495 497317.000000 0 0 1
34.908086 -9.470454 -12.066210 38.129482 -0.264920 1.892785 0.048854 -0.038260 -1126300.000000 0 0 1
33.829096 -8.537454 -12.579010 37.088103 -0.247208 1.916826 0.055483 -0.035242 -748717.000000 0 0 1
34.147596 -7.798954 -13.736410 37.624074 -0.224538 1.944533 0.060677 -0.025712 277770.000000 0 0 1
33.120956 -6.867254 -13.964910 36.594748 -0.204442 1.962333 0.060465 -0.030652 -114697.000000 0 0 1
33.453326 -5.897654 -15.095910 37.172488 -0.174502 1.988983 0.054293 -0.029424 -224520.000000 0 0 1
34.409546 -4.913754 -14.825810 37.788444 -0.141843 1.973967 0.056834 -0.015059 84076.800000 0 0 1
34.234646 -3.855654 -15.787310 37.896124 -0.112152 2.000492 0.080288 -0.027514 876964.000000 0 0 1
35.472856 -2.860154 -15.724010 38.906921 -0.080455 1.986839 0.063596 -0.031483 246088.000000 0 0 1
-35.680647 -2.922754 -16.866710 39.574449 0.081732 2.011087 0.068954 -0.027401 257429.000000 0 0 1
-34.435969 -2.221454 -16.732310 38.350242 0.064420 2.022282 0.066063 -0.021347 456049.000000 0 0 1
-34.443666 -0.662254 -16.543510 38.216390 0.019225 2.018493 0.061922 -0.018271 -969485.000000 0 0 1
-34.689931 0.057246 -17.725410 38.956190 -0.001650 2.043178 0.047578 -0.015405 250432.000000 0 0 1
-34.657637 1.420346 -17.369210 38.792508 -0.040959 2.035040 0.050494 -0.027064 -431875.000000 0 0 1
-34.913922 2.342346 -18.616810 39.636526 -0.066989 2.059734 0.042607 -0.021647 -241349.000000 0 0 1
-33.857299 2.275646 -19.526810 39.150882 -0.067112 2.092961 0.040490 -0.015091 290109.000000 0 0 1
-34.172602 3.194346 -20.575910 40.016730 -0.093206 2.110851 0.034280 -0.022990 -250155.000000 0 0 1
-33.162379 3.158646 -21.717710 39.766561 -0.094961 2.148534 0.032699 -0.015028 -1000180.000000 0 0 1
-31.907009 3.664046 -21.392310 38.589032 -0.114334 2.158393 0.038939 -0.021105 -289799.000000 0 0 1
-31.090689 3.652346 -22.541010 38.575481 -0.116938 2.194857 0.042651 -0.013894 709690.000000 0 0 1
-29.570559 4.026346 -22.372610 37.298299 -0.135328 2.214084 0.048416 -0.015345 726568.000000 0 0 1
-28.853489 3.079846 -21.603310 36.176129 -0.106338 2.210765 0.053929 -0.005692 711010.000000 0 0 1
-27.467399 3.427746 -21.663810 35.150080 -0.124151 2.234861 0.033656 0.001013 313802.000000 0 0 1
-26.494969 2.653846 -20.807510 33.793176 -0.099831 2.234110 0.047716 -0.001687 -424600.000000 0 0 1
-26.723049 2.953346 -19.456010 33.187045 -0.110070 2.197222 0.045416 -0.001868 -180932.000000 0 0 1
-26.167709 1.902846 -18.720410 32.230786 -0.072590 2.190537 0.051292 -0.004042 -157220.000000 0 0 1
-25.340819 2.443546 -17.512010 30.899814 -0.096130 2.173334 0.052457 -0.012904 233143.000000 0 0 1
-24.122609 3.060546 -17.881610 30.183094 -0.126200 2.204878 0.053496 -0.010025 331343.000000 0 0 1
-23.362909 3.367346 -16.705910 28.918022 -0.143146 2.186703 0.060932 -0.015078 -81745.900000 0 0 1
-22.217009 4.360746 -16.812810 28.200748 -0.193816 2.209535 0.063490 -0.018565 -408458.000000 0 0 1
-21.053009 3.897446 -17.430610 27.608793 -0.183053 2.254080 0.086851 -0.026933 -526556.000000 0 0 1
-20.098209 4.916246 -17.529410 27.118033 -0.239900 2.273668 0.080378 -0.025056 88259.400000 0 0 1
-18.799209 4.416146 -18.238510 26.562301 -0.230728 2.327642 0.094198 -0.019571 219126.000000 0 0 1
-18.275309 3.310846 -17.494910 25.515103 -0.179221 2.326318 0.105534 -0.027231 -316540.000000 0 0 1
-17.186009 2.662746 -18.084010 25.089451 -0.153715 2.375725 0.077562 -0.021805 -875554.000000 0 0 1
-17.194309 1.089146 -17.752510 24.738272 -0.063259 2.371165 0.066161 -0.021913 -114699.000000 0 1 0
-18.147309 0.226546 -18.294010 25.769108 -0.012483 2.360181 0.057324 -0.024430 141558.000000 0 0 1
-19.486609 0.504446 -17.871110 26.445396 -0.025881 2.312811 0.067614 -0.031787 295667.000000 0 0 1
-20.496009 -0.630754 -18.176710 27.402135 0.030765 2.296059 0.063960 -0.026787 -141585.000000 0 0 1
-20.311609 -1.738454 -17.366210 26.780010 0.085381 2.276378 0.047282 -0.024914 151767.000000 0 0 1
-21.184009 -2.748554 -17.772910 27.788363 0.129026 2.264749 0.053803 -0.009444 -227393.000000 0 0 1
-21.277409 -3.926054 -16.777210 27.379131 0.182465 2.230362 0.059503 -0.011915 -44682.900000 0 0 1
-21.896609 -3.530854 -15.569510 27.098673 0.159875 2.182849 0.057801 -0.017428 343867.000000 0 0 1
-22.064809 -4.596454 -14.682610 26.899112 0.205379 2.148188 0.051425 -0.022415 20386.900000 0 0 1
-22.355109 -4.086454 -13.223510 26.292798 0.180801 2.097785 0.055908 -0.020718 512547.000000 0 0 1
-23.486009 -3.209954 -13.106210 27.086328 0.135834 2.075866 0.055234 -0.029194 878313.000000 0 0 1
-23.587909 -2.688754 -11.759310 26.493400 0.113499 2.030696 0.055077 -0.032000 -212472.000000 0 0 1
-24.639509 -1.573154 -11.563910 27.263606 0.063760 2.008821 0.086251 -0.035239 -251504.000000 0 0 1
-24.989509 -1.292654 -10.228810 27.032852 0.051682 1.958847 0.086088 -0.038728 437680.000000 0 0 1
-25.793579 -0.135354 -10.144310 27.717036 0.005248 1.945499 0.101633 -0.042434 -302332.000000 0 0 1
-26.245589 0.100346 -8.688710 27.646604 -0.003823 1.890492 0.110089 -0.036131 3077.070000 0 0 1
-25.146509 0.306346 -7.815310 26.334765 -0.012182 1.872103 0.093457 -0.033727 357851.000000 0 0 1
-25.624279 0.779046 -6.594410 26.470679 -0.030393 1.822569 0.092035 -0.036579 25183.500000 0 0 1
-24.511109 1.122546 -5.560810 25.159038 -0.045765 1.793663 0.066849 -0.029862 -148406.000000 0 0 1
-23.954509 2.386946 -5.832610 24.769646 -0.099317 1.808503 0.073347 -0.029379 527303.000000 0 1 0
-22.816309 2.681746 -5.027910 23.517134 -0.117000 1.786257 0.069340 -0.025116 152180.000000 0 1 0
-22.260409 4.088146 -5.306710 23.246503 -0.181627 1.801107 0.077265 -0.020491 -429919.000000 0 1 0
-22.861209 5.082046 -4.515410 23.850598 -0.218743 1.761267 0.085034 -0.016634 507190.000000 0 1 0
-22.425709 6.383946 -4.831210 23.811925 -0.277335 1.775105 0.086190 -0.016738 -523786.000000 0 1 0
-22.910709 7.579746 -3.932910 24.450377 -0.319504 1.732351 0.085797 -0.015363 -371449.000000 0 1 0
-22.381509 7.670746 -2.628510 23.805070 -0.330181 1.681440 0.083956 -0.012483 1968390.000000 0 1 0
-20.960209 8.006746 -2.552610 22.582165 -0.364891 1.684075 0.085268 -0.011432 1334550.000000 0 1 0
-20.443309 9.428246 -2.789610 22.684855 -0.432120 1.694081 0.072507 -0.005822 -609898.000000 0 1 0
-20.361309 9.899346 -4.133910 23.014543 -0.452534 1.751398 0.063082 0.001744 238347.000000 0 1 0
-19.869109 11.207346 -4.164710 23.189026 -0.513573 1.751374 0.076021 0.007513 -266453.000000 0 1 0
-19.639909 11.699646 -5.592110 23.534643 -0.537257 1.810703 0.065981 -0.000797 -302284.000000 0 1 0
-18.577209 11.032946 -6.216210 22.482879 -0.535920 1.850932 0.045733 0.000211 2394.310000 0 1 0
-18.509809 11.590346 -7.507210 23.093448 -0.559443 1.901892 0.055271 -0.002489 770874.000000 0 1 0
-17.279409 11.114846 -8.396110 22.194874 -0.571610 1.958745 0.049860 -0.000205 488214.000000 0 1 0
-17.250909 9.705646 -8.647210 21.600178 -0.512478 1.982674 0.059293 -0.008003 402290.000000 0 1 0
-18.225409 9.190546 -9.564010 22.541117 -0.467059 2.008976 0.066233 -0.005810 -15852.900000 0 1 0
-18.352209 9.779046 -11.025910 23.537290 -0.489584 2.058325 0.089558 -0.012689 78217.600000 0 1 0
-17.150709 9.534946 -11.735610 22.864526 -0.507400 2.109784 0.073916 -0.016007 134493.000000 0 1 0
-17.217409 10.196546 -12.985310 23.854287 -0.534682 2.146422 0.076614 -0.018892 -556279.000000 0 1 0
-16.014409 9.987046 -13.871510 23.422664 -0.557613 2.204615 0.053714 -0.014496 -696448.000000 0 1 0
-15.927909 8.722646 -14.543510 23.265780 -0.501024 2.246060 0.055775 -0.024327 147930.000000 0 1 0
-15.491509 7.603046 -13.772910 22.079090 -0.456251 2.244390 0.041839 -0.019982 -368475.000000 0 1 0
-15.551109 6.252946 -14.506010 22.166656 -0.382307 2.284194 0.050228 -0.021518 -175791.000000 0 1 0
-14.702309 6.237846 -15.630210 22.346635 -0.401258 2.345415 0.064112 -0.016208 306333.000000 0 1 0
-14.784409 5.001246 -16.285210 22.556580 -0.326194 2.377444 0.061970 -0.016240 34739.300000 0 1 0
31.828396 -15.787554 28.367853 45.464588 -0.460459 0.897003 0.021128 0.001178 -418128.000000 0 0 1
31.101226 -14.590054 28.506623 44.640604 -0.438636 0.878144 0.031056 0.004344 19007.800000 0 0 1
30.006916 -14.638254 29.400333 44.486774 -0.453864 0.848808 0.043559 0.002962 46850.600000 0 0 1
30.359606 -14.745654 30.904803 45.762942 -0.452142 0.829393 0.043842 -0.008560 161080.000000 0 0 1
31.078836 -13.600354 31.443393 46.255277 -0.412501 0.823334 0.036722 -0.009488 472915.000000 0 0 1
31.339866 -13.758854 32.850658 47.441111 -0.413686 0.805915 0.029712 -0.012959 -225862.000000 0 0 1
31.752926 -12.379654 33.375814 47.701668 -0.371747 0.795849 0.033751 -0.016513 -47987.600000 0 0 1
31.620946 -12.134454 -33.793350 47.844746 -0.366417 2.355072 0.019130 -0.021622 52748.100000 0 0 1
31.979686 -10.838454 -33.448250 47.528495 -0.326767 2.351461 0.040708 -0.014280 -395902.000000 0 0 1
31.544496 -10.506454 -32.035830 46.170718 -0.321511 2.337626 0.036008 -0.007959 540577.000000 0 0 1
30.134476 -10.563954 -31.785050 45.055224 -0.337174 2.353881 0.073837 -0.017229 600894.000000 0 0 1
29.790596 -10.020054 -30.558760 43.837414 -0.324463 2.342131 0.051384 -0.003796 -83612.700000 0 0 1
28.436366 -10.481854 -29.958500 42.614644 -0.353154 2.350417 0.060512 -0.001285 155042.000000 0 0 1
28.105236 -10.054354 -28.662820 41.382987 -0.343553 2.335916 0.050633 -0.004231 342765.000000 0 0 1
27.208756 -11.016054 -28.096270 40.633364 -0.384699 2.334302 0.080179 -0.007668 -354151.000000 0 0 1
26.708656 -10.902854 -26.627940 39.259034 -0.387568 2.316192 0.079928 -0.007846 -359865.000000 0 0 1
25.868656 -9.771454 -26.328300 38.181776 -0.361165 2.331666 0.076673 -0.011411 1176130.000000 0 0 1
24.593056 -9.627354 -26.964810 37.743944 -0.373128 2.366583 0.070352 -0.019452 1046600.000000 0 0 1
23.547856 -10.808154 -26.816230 37.288442 -0.430302 2.373384 0.071259 -0.012541 -473249.000000 0 0 1
23.895756 -11.840254 -27.661350 38.423288 -0.460038 2.374470 0.066094 -0.016284 -38837.900000 0 0 1
23.078056 -12.970454 -27.531930 38.194718 -0.512029 2.375797 0.067439 -0.025547 -305170.000000 0 0 1
23.776556 -14.134454 -28.141040 39.459163 -0.536344 2.364805 0.062060 -0.007605 -143148.000000 0 0 1
23.812656 -14.022554 -29.568730 40.472020 -0.532195 2.389992 0.062273 -0.016081 -106369.000000 0 0 1
24.916556 -14.650054 -30.147280 41.765025 -0.531523 2.377240 0.057041 -0.007143 -447071.000000 0 0 1
24.968456 -14.598654 -31.661810 42.883735 -0.529082 2.401369 0.065220 -0.013182 59870.200000 0 0 1
23.776256 -15.151454 -32.248970 42.835417 -0.567361 2.423189 0.062596 -0.012129 635074.000000 0 0 1
23.824556 -15.460554 -33.620990 44.011466 -0.575625 2.440154 0.055022 -0.003608 20963.600000 0 0 1
23.933856 -14.200054 34.017169 43.950413 -0.535481 0.685678 0.037403 -0.010830 -67846.100000 0 0 1
22.784656 -13.419154 34.222407 43.247976 -0.532259 0.657853 0.055839 -0.013272 -234968.000000 0 0 1
22.855956 -12.243054 33.435316 42.310843 -0.491768 0.659611 0.041671 -0.007623 -983254.000000 0 0 1
21.663056 -11.297254 33.434992 41.410321 -0.480698 0.631052 0.043019 -0.010836 -202516.000000 0 0 1
20.381556 -11.810054 33.118086 40.641024 -0.525171 0.618252 0.042825 -0.019374 326833.000000 0 0 1
20.190556 -12.142954 31.738493 39.527735 -0.541461 0.638581 0.024396 -0.005150 -748306.000000 0 0 1
18.733556 -12.552554 31.369863 38.633937 -0.590346 0.623265 0.029821 -0.008247 459671.000000 0 0 1
17.866556 -11.444454 31.470723 37.955181 -0.569705 0.593202 0.028434 -0.002695 -383058.000000 0 0 1
17.032856 -11.559854 32.571155 38.530878 -0.596273 0.563621 0.010849 -0.004173 -208185.000000 0 0 1
16.270756 -10.233754 33.024870 38.211376 -0.561446 0.527103 0.013057 -0.001755 -338323.000000 0 0 1
15.388756 -9.762754 31.984493 36.812131 -0.565336 0.517907 0.024419 0.002677 535053.000000 0 0 1
14.499056 -8.684854 32.302133 36.456510 -0.539680 0.482052 0.029341 0.000086 848955.000000 0 0 1
13.506756 -9.016854 33.451854 37.185516 -0.588635 0.451958 0.040529 -0.003443 -1515400.000000 0 0 1
12.587056 -10.029454 33.186408 36.883081 -0.672791 0.451547 0.041904 0.004907 -427000.000000 0 0 1
11.352156 -9.928354 33.821361 37.031448 -0.718591 0.419446 0.038833 0.000852 -94554.800000 0 0 1
10.285956 -9.114154 33.042506 35.786533 -0.725070 0.394152 0.065816 0.000506 -600687.000000 0 0 1
10.550156 -7.718754 33.087439 35.576166 -0.631637 0.376261 0.063394 -0.004318 -367899.000000 0 0 1
9.525156 -7.028954 32.504421 34.592950 -0.635735 0.349262 0.065535 0.000234 -815326.000000 0 0 1
9.976356 -5.615554 32.337283 34.303965 -0.512683 0.340257 0.053459 0.001573 42176.700000 0 0 1
9.947156 -4.835554 33.495613 35.274418 -0.452486 0.318927 0.035449 -0.005079 161764.000000 0 0 1
10.423256 -3.513054 33.290379 35.060450 -0.325083 0.319114 0.020017 -0.006154 -221813.000000 0 0 1
10.234856 -2.582754 -34.017860 35.617941 -0.247188 2.840714 0.020259 -0.015558 481597.000000 0 0 1
8.850856 -2.332054 -33.768210 34.986685 -0.257628 2.876901 0.013197 -0.005311 219263.000000 0 0 1
8.668256 -1.490754 -32.662580 33.826101 -0.170312 2.878548 0.008957 -0.007722 379354.000000 0 0 1
7.181756 -1.407754 -32.200280 33.021469 -0.193564 2.918111 0.005764 -0.005205 326477.000000 0 0 1
6.448756 -0.595954 -33.091960 33.719719 -0.092152 2.948331 0.019005 -0.006574 88920.100000 0 0 1
5.210056 -0.150854 -32.551910 32.966563 -0.028946 2.982820 0.022093 -0.001687 155785.000000 0 0 1
4.563056 0.957246 -33.376370 33.700443 0.206783 3.002800 0.027248 -0.003249 -36077.800000 0 0 1
5.213356 2.265046 -33.315240 33.796667 0.409864 2.972603 0.019917 -0.009613 337578.000000 0 0 1
4.622156 3.092246 -34.276247 34.724450 0.589620 2.980749 0.028146 -0.011268 -105168.000000 0 0 1
5.462356 4.372246 34.245664 34.953103 0.675004 0.201536 0.031442 -0.012019 30283.300000 0 0 1
5.094356 5.281546 33.229519 34.030107 0.803437 0.217342 0.045348 -0.021497 -529056.000000 0 0 1
5.937256 6.389946 33.172632 34.300233 0.822105 0.257123 0.048026 -0.025987 -423446.000000 0 0 1
5.656956 7.515246 32.085843 33.436229 0.925550 0.285173 0.065894 -0.024121 203660.000000 0 0 1
4.502956 8.266846 32.492473 33.828659 1.072031 0.281998 0.071554 -0.024507 407272.000000 0 0 1
4.273856 9.446646 31.735483 33.386313 1.145931 0.315782 0.072654 -0.030658 -146472.000000 0 0 1
3.862856 9.373446 30.250483 31.904152 1.179897 0.323377 0.067395 -0.031083 30222.100000 0 0 1
2.514656 8.940846 30.112673 31.512463 1.296624 0.299176 0.075860 -0.028441 -77080.900000 0 0 1
2.299356 8.725946 28.791593 30.172587 1.313145 0.303721 0.049533 -0.016323 701435.000000 0 0 1
0.913456 8.117546 28.369903 29.522540 1.458739 0.280355 0.052442 -0.014760 1096310.000000 0 0 1
-0.239444 8.853346 28.811713 30.142228 -1.543757 0.298228 0.062146 -0.017033 -29111.200000 0 0 1
-1.307344 8.548446 27.960763 29.267548 -1.419039 0.299953 0.067417 -0.004518 -1596290.000000 0 0 1
-2.652944 8.749646 28.522993 29.952555 -1.276401 0.310200 0.060504 -0.003943 -1731050.000000 0 0 1
-2.931744 10.136146 28.761003 30.635468 -1.289243 0.351626 0.072372 -0.004330 399140.000000 0 0 1
-4.275544 10.210946 29.250603 31.275254 -1.174256 0.361794 0.057984 -0.001890 523368.000000 0 0 1
-4.542244 11.665046 29.736433 32.263923 -1.199470 0.398454 0.042449 0.000386 -11280.800000 0 0 1
-4.454044 12.679746 28.721163 31.709931 -1.232988 0.437658 0.042987 -0.002890 276787.000000 0 0 1
-5.688144 12.869346 28.044143 31.375931 -1.154622 0.465024 0.038394 -0.005370 254505.000000 0 0 1
-5.802944 14.335546 27.597473 31.635464 -1.186164 0.510790 0.020706 -0.002753 -336993.000000 0 0 1
-4.914544 14.698146 26.602433 30.787623 -1.248118 0.527511 0.026657 0.001889 -443024.000000 0 0 1
-5.058344 16.091646 26.263313 31.213612 -1.266231 0.570917 0.021827 0.004171 286048.000000 0 0 1
-3.831744 16.680146 25.488343 30.701225 -1.344995 0.591319 0.037033 0.004669 114551.000000 0 0 1
-3.621544 16.116346 24.231303 29.325897 -1.349756 0.598331 0.028408 0.008738 -506577.000000 0 0 1
-2.862344 16.928546 23.414023 29.034207 -1.403297 0.632708 0.034600 0.010664 -292544.000000 0 0 1
-2.768244 16.397746 21.960023 27.546177 -1.403555 0.648141 0.038048 0.008191 107434.000000 0 0 1
-1.891844 15.309746 21.723423 26.643471 -1.447848 0.617484 0.025635 0.007657 -44708.000000 0 0 1
-1.827744 15.041446 20.330623 25.355867 -1.449875 0.640476 0.025049 0.005744 222010.000000 0 0 1
-0.992844 13.824946 19.806423 24.174559 -1.499104 0.610592 0.025789 0.000391 -12015.700000 0 1 0
-1.563044 12.544146 19.994823 23.655690 -1.446832 0.563775 0.030906 -0.000058 -106939.000000 0 1 0
-0.773544 11.580946 19.337923 22.553757 -1.504101 0.540571 0.031463 -0.005088 -190525.000000 0 1 0
-1.585044 10.267646 19.123023 21.762972 -1.417633 0.497674 0.015331 -0.007093 -704095.000000 0 1 0
-1.755244 9.384546 20.187123 22.330932 -1.385897 0.441766 0.022169 -0.016358 -35690.000000 0 1 0
-2.469444 9.847246 21.328923 23.621799 -1.325088 0.444248 0.035559 -0.010633 830742.000000 0 1 0
-3.999044 10.104646 21.024823 23.667265 -1.193948 0.477056 0.033206 -0.010705 336423.000000 0 1 0
-4.778444 8.929446 20.864423 23.192514 -1.079439 0.451900 0.027737 -0.015452 -1053800.000000 0 1 0
-6.100844 9.230146 20.626923 23.406962 -0.986748 0.492338 0.036078 -0.015612 -599601.000000 0 1 0
-7.089444 8.028746 20.821023 23.414440 -0.847449 0.475118 0.035601 -0.014835 194420.000000 0 1 0
-7.128644 7.455846 22.098823 24.387809 -0.807829 0.436724 0.035057 -0.023849 -183209.000000 0 1 0
-7.834744 6.262646 21.985423 24.165322 -0.674340 0.428013 0.038648 -0.021148 -94453.000000 0 1 0
-7.645144 5.358846 23.242223 25.047283 -0.611362 0.381965 0.034537 -0.017713 -28625.700000 0 0 1
-8.309544 5.868146 24.366923 26.405125 -0.614871 0.395484 0.028493 -0.013588 8836.220000 0 0 1
-8.520244 4.933046 25.426923 27.266425 -0.524820 0.369423 0.033412 -0.000810 164495.000000 0 0 1
-9.548444 5.363646 26.520203 28.692554 -0.511804 0.391629 0.025823 0.005063 247780.000000 0 0 1
-9.091144 6.451746 27.229093 29.422737 -0.617189 0.388591 0.022598 0.007204 502940.000000 0 0 1
-10.130244 6.801046 28.148193 30.678932 -0.591245 0.409025 0.026698 0.007102 709298.000000 0 0 1
-9.733744 8.100046 28.921793 31.572562 -0.694046 0.412698 0.030055 0.003300 -30944.900000 0 0 1
-8.697144 7.811946 29.811263 32.021528 -0.731831 0.373720 0.030897 0.003267 -110831.000000 0 0 1
-8.279844 8.941946 30.611833 32.948423 -0.823825 0.378869 0.032883 -0.002147 345312.000000 0 0 1
-7.258844 8.565146 31.721203 33.649477 -0.867763 0.340178 0.053424 -0.005757 617174.000000 0 0 1
-5.976044 8.101946 31.297613 32.876971 -0.935275 0.311217 0.058073 -0.007823 178781.000000 0 0 1
-5.216044 7.633046 32.407843 33.700724 -0.971332 0.277890 0.081037 -0.016364 594495.000000 0 0 1
-3.683344 7.543746 32.152653 33.230532 -1.116581 0.255395 0.061617 -0.011343 521711.000000 0 0 1
-3.144744 8.857646 32.160193 33.505602 -1.229646 0.284346 0.050671 -0.010470 49132.900000 0 0 1
-1.722444 8.812646 32.201983 33.430484 -1.377778 0.271938 0.059595 -0.013488 813287.000000 0 0 1
-0.920344 10.115746 31.860353 33.440357 -1.480065 0.308627 0.063716 -0.011186 313125.000000 0 0 1
-0.940744 11.098646 32.944930 34.776909 -1.486236 0.326028 0.068441 -0.022623 184486.000000 0 0 1
-1.554644 12.287246 32.417053 34.702431 -1.444940 0.364944 0.063792 -0.020360 -125301.000000 0 0 1
-1.610844 13.420246 33.490339 36.115102 -1.451337 0.383603 0.057629 -0.021560 1237610.000000 0 0 1
-0.295644 14.001346 33.759069 36.548596 -1.549684 0.393230 0.073739 -0.028115 1177700.000000 0 0 1
-0.288744 14.894346 -33.708450 36.853555 -1.551413 2.725461 0.068047 -0.028117 -504.049000 0 0 1
1.149856 15.270746 -33.294390 36.647432 1.495640 2.710490 0.071219 -0.030053 -26872.800000 0 0 1
1.695556 16.312846 -34.141570 37.876519 1.467228 2.693769 0.071822 -0.028263 -517175.000000 0 0 1
2.970956 16.592846 -33.665830 37.650196 1.393623 2.677379 0.076975 -0.031099 -496287.000000 0 0 1
3.751456 17.501046 33.902420 38.337112 1.359636 0.485753 0.084114 -0.017191 99332.800000 0 0 1
3.285356 18.814846 34.013406 39.009022 1.397924 0.511652 0.071798 -0.015777 12950.200000 0 0 1
4.289756 19.645546 33.523322 39.091721 1.355813 0.540298 0.049575 -0.001844 -35769.600000 0 0 1
3.910856 21.101446 33.790085 40.029186 1.387540 0.565844 0.055247 -0.008920 2211.590000 0 0 1
4.101656 21.527946 -33.437920 39.979627 1.382526 2.561431 0.069140 -0.024932 139822.000000 0 0 1
3.745356 22.890646 -33.541460 40.780374 1.408614 2.536572 0.057145 -0.019108 85794.200000 0 0 1
3.872856 23.574946 -32.177920 40.077371 1.407972 2.502932 0.071545 -0.021766 -79784.400000 0 0 1
3.393456 24.894946 -32.054700 40.728094 1.435320 2.476795 0.070347 -0.025864 85326.900000 0 0 1
3.309356 25.185446 -30.655190 39.812048 1.440145 2.449634 0.069629 -0.021806 -47276.000000 0 0 1
2.693556 26.615346 -30.439730 40.524179 1.469937 2.420599 0.066251 -0.025211 378931.000000 0 0 1
3.579156 27.633446 -30.913600 41.618125 1.441991 2.408027 0.061382 -0.032345 279171.000000 0 0 1
3.181656 28.947446 -30.533020 42.194110 1.461324 2.379847 0.058045 -0.033210 -351123.000000 0 0 1
4.348156 29.934746 -30.319050 42.828031 1.426551 2.357353 0.065496 -0.041167 -19175.100000 0 0 1
5.141456 29.584946 -29.202290 41.886482 1.398729 2.342248 0.069874 -0.053899 -287266.000000 0 0 1
5.917356 30.674746 -28.807750 42.495195 1.380231 2.315707 0.075872 -0.051588 -815794.000000 0 0 1
7.057356 30.431746 -27.813920 41.827163 1.342917 2.298254 0.075707 -0.056830 -213336.000000 0 0 1
8.219556 29.860146 -28.380950 42.007949 1.302181 2.312587 0.073220 -0.053977 1583810.000000 0 0 1
9.394856 30.744246 -28.604230 43.031081 1.274227 2.297934 0.071274 -0.053551 1335800.000000 0 0 1
9.230956 32.028146 -29.410320 44.451992 1.290187 2.293773 0.081540 -0.056596 -1327930.000000 0 0 1
8.699556 33.075946 -28.583090 44.572340 1.313604 2.266954 0.085650 -0.054066 166199.000000 0 0 1
8.557956 34.317446 -29.294550 45.924899 1.326405 2.262538 0.082825 -0.049278 11945.000000 0 0 1
7.285256 -34.323113 -30.192920 46.289993 -1.361645 2.281353 0.063734 -0.024983 -109652.000000 0 0 1
7.390056 33.523946 -31.334510 46.479236 1.353825 2.310625 0.057884 -0.028213 182698.000000 0 0 1
6.112156 33.298546 -31.929390 46.536411 1.389261 2.326933 0.033127 -0.016980 326044.000000 0 0 1
6.082156 32.523746 -33.234180 46.896667 1.385925 2.358405 0.039440 -0.035577 -176695.000000 0 0 1
6.753256 33.056746 34.235596 48.066943 1.369276 0.778100 0.050091 -0.032942 -4721.580000 0 0 1
6.404356 32.420346 33.037158 46.728454 1.375766 0.785545 0.040095 -0.024243 -218930.000000 0 0 1
5.630956 33.259546 31.983433 46.484891 1.403083 0.812013 0.029547 -0.016537 209352.000000 0 0 1
6.470756 34.112546 31.229333 46.699119 1.383335 0.838290 0.034102 -0.020310 50068.200000 0 0 1
5.716556 -33.846613 30.336623 45.810293 -1.403479 0.847015 0.022494 -0.022750 -266791.000000 0 0 1
18.126991 -21.903854 29.381073 40.885378 -0.879469 0.768980 0.042200 -0.007867 382839.000000 0 0 1
17.253891 -20.815254 29.830613 40.259621 -0.878677 0.736303 0.032542 -0.007074 1128070.000000 0 0 1
15.903391 -21.161954 30.114863 40.095525 -0.926330 0.721103 0.021749 -0.002716 342713.000000 0 0 1
15.559491 -21.793854 31.454663 41.309390 -0.950776 0.705263 0.018054 -0.017665 -298360.000000 0 0 1
16.196191 -23.043654 31.767413 42.455802 -0.958161 0.725381 0.027010 -0.017423 404452.000000 0 0 1
15.827891 -23.406654 33.085176 43.508878 -0.976214 0.706831 0.051722 -0.014062 4963.770000 0 0 1
16.642891 -24.612454 33.577368 44.835236 -0.976224 0.724387 0.052095 -0.021598 -362288.000000 0 0 1
16.325691 -25.915124 33.073939 45.077792 -1.008633 0.747033 0.061971 -0.024568 381191.000000 0 0 1
17.083791 -26.845364 33.905678 46.498651 -1.004057 0.753680 0.063618 -0.018076 423249.000000 0 0 1
16.777091 -28.296974 33.676598 47.077625 -1.035619 0.773683 0.048529 -0.010580 -12118.300000 0 0 1
17.366091 -28.825694 32.475613 46.767160 -1.028576 0.803196 0.042467 -0.014399 92408.500000 0 0 1
16.963991 -30.136114 32.282013 47.308464 -1.058094 0.819793 0.037392 -0.010848 -382103.000000 0 0 1
17.643591 -30.953184 31.143323 47.321269 -1.052721 0.852470 0.041441 -0.005778 865062.000000 0 0 1
18.932891 -31.433614 31.612363 48.434161 -1.028677 0.859670 0.025188 -0.007945 887552.000000 0 0 1
19.553191 -32.166644 30.584793 48.502060 -1.024609 0.888486 0.021016 -0.007259 -10673.700000 0 0 1
20.984891 -32.668304 30.952503 49.655223 -0.999809 0.897779 0.027390 -0.007476 22741.800000 0 0 1
21.893491 -31.608974 30.941953 49.354399 -0.965030 0.893185 0.032794 -0.004514 -1429210.000000 0 0 1
23.034891 -31.963084 31.583583 50.495224 -0.946331 0.895054 0.020625 -0.005411 -1443600.000000 0 0 1
24.139191 -30.894544 31.497703 50.291935 -0.907536 0.894002 0.020121 -0.008173 -38265.500000 0 0 1
24.848691 -30.894824 30.257633 49.874562 -0.893439 0.918926 0.023744 -0.011991 -116415.000000 0 0 1
25.558391 -29.688454 30.070963 49.385205 -0.860016 0.916115 0.020476 -0.010708 -209212.000000 0 0 1
26.649291 -29.805554 29.003363 49.393834 -0.841248 0.943218 0.012700 -0.012891 55681.900000 0 0 1
27.857591 -30.333384 29.516793 50.669524 -0.827919 0.948952 0.000679 -0.011891 287509.000000 0 0 1
28.803291 -30.734544 28.535883 50.877681 -0.817824 0.975357 0.002328 -0.019957 416502.000000 0 0 1
29.804891 -31.817964 28.995543 52.358914 -0.818054 0.983894 -0.009323 -0.019557 22775.200000 0 0 1
29.189891 -33.115634 29.129723 52.888900 -0.848323 0.987507 -0.018865 -0.016995 53336.600000 0 0 1
30.092991 -34.015364 29.710133 54.270850 -0.846505 0.991492 -0.009489 -0.008573 -758858.000000 0 0 1
29.464191 33.547104 30.572383 54.113005 0.850104 0.970396 -0.016033 -0.005769 -444323.000000 0 0 1
28.748691 33.908449 31.745013 54.626148 0.867562 0.950677 -0.006732 0.003192 893403.000000 0 0 1
27.530691 -34.041754 31.652183 54.024445 -0.890753 0.944823 -0.019214 0.010399 1012520.000000 0 0 1
26.349791 34.210548 30.707403 52.986958 0.914477 0.952647 -0.004672 0.002346 70660.400000 0 0 1
25.666991 33.025438 31.143773 52.147949 0.910120 0.930766 0.000210 -0.001045 -226656.000000 0 0 1
24.449591 32.989744 30.445463 51.117824 0.932998 0.932792 -0.009274 -0.001020 -218676.000000 0 0 1
23.816291 31.613376 30.658033 50.065320 0.925148 0.911753 -0.007152 -0.012525 -295590.000000 0 0 1
24.405191 30.613466 29.810763 49.208528 0.897762 0.920019 -0.006965 -0.007601 -58661.600000 0 0 1
23.748291 29.422736 29.863373 48.181944 0.891716 0.902303 0.020674 -0.024346 -735334.000000 0 0 1
23.198591 29.045526 28.470553 46.822960 0.896850 0.917198 0.023852 -0.026572 -751709.000000 0 0 1
22.020191 29.729846 28.131453 46.477212 0.933289 0.920686 0.049241 -0.032594 -99293.300000 0 0 1
21.557791 29.238666 26.880843 45.190902 0.935470 0.933744 0.048194 -0.025041 367152.000000 0 0 1
20.209791 29.787616 26.326403 44.596157 0.974672 0.939330 0.073096 -0.028231 325061.000000 0 0 1
20.190591 31.114616 25.836163 45.202728 0.995188 0.962388 0.067311 -0.034812 1375500.000000 0 0 1
18.826591 31.642776 25.749993 44.930701 1.034081 0.960507 0.069990 -0.027618 1069800.000000 0 0 1
18.733791 33.080489 25.247233 45.636569 1.055518 0.984567 0.079962 -0.023056 -276438.000000 0 0 1
19.262691 33.256583 23.944933 45.281468 1.045801 1.013608 0.076816 -0.018290 -328014.000000 0 0 1
20.619191 33.585533 23.995453 46.140230 1.020197 1.023881 0.070651 -0.009402 -748305.000000 0 0 1
21.333991 33.598939 22.639123 45.788184 1.005067 1.053616 0.072268 -0.013792 109887.000000 0 0 1
20.813791 -34.030274 21.814123 45.465695 -1.021872 1.070378 0.075981 -0.002138 720366.000000 0 0 1
21.457691 -34.127439 20.533623 45.240958 -1.009504 1.099690 0.084493 -0.006514 220703.000000 0 0 1
21.077191 -33.016664 19.543023 43.775311 -1.002633 1.108014 0.070450 0.004387 -25523.800000 0 0 1
21.369791 -31.739804 20.048623 43.197574 -0.978229 1.088162 0.069735 0.006314 35295.500000 0 0 1
20.710091 -30.688444 19.362823 41.780467 -0.977150 1.088921 0.067297 -0.008008 -87808.600000 0 0 1
21.483791 -29.880844 18.262223 41.084388 -0.947444 1.110175 0.059022 -0.010382 -109668.000000 0 0 1
21.584791 -30.553684 16.973723 41.079655 -0.955752 1.144841 0.056383 -0.006252 350865.000000 0 0 1
22.276091 -29.713624 16.062723 40.461522 -0.927492 1.162564 0.047861 -0.006696 -177026.000000 0 0 1
22.009691 -30.093564 14.588423 40.035874 -0.939322 1.197825 0.040580 -0.018700 -251986.000000 0 0 1
22.500991 -31.421794 14.256723 41.193178 -0.949350 1.217391 0.065643 -0.014096 145791.000000 0 0 1
22.478591 -31.720124 12.909323 40.964667 -0.954286 1.250199 0.069380 -0.025995 57461.300000 0 0 1
21.123791 -31.873194 12.153423 40.122571 -0.985514 1.263054 0.071835 -0.024140 151480.000000 0 0 1
20.408191 -33.007384 12.554323 40.787163 -1.017036 1.257916 0.073316 -0.025020 140115.000000 0 0 1
19.111191 -33.152804 11.994223 40.102462 -1.047867 1.267058 0.064895 -0.020503 854799.000000 0 0 1
18.116191 -34.002094 12.874023 40.621167 -1.081257 1.248307 0.042728 -0.014323 201668.000000 0 0 1
17.815891 -33.351364 14.077923 40.347334 -1.080174 1.214380 0.036675 -0.009788 357155.000000 0 0 1
18.655791 -33.753044 15.169823 41.441888 -1.065872 1.196035 0.035945 -0.009952 -496222.000000 0 0 1
18.576391 -32.726554 16.333823 41.023206 -1.054523 1.161286 0.042081 -0.011309 366963.000000 0 0 1
17.318191 -32.290104 16.852223 40.330732 -1.078508 1.139718 0.039142 -0.013372 159272.000000 0 0 1
16.391891 -33.224324 17.350823 40.909667 -1.112467 1.132801 0.031398 -0.010666 -595044.000000 0 0 1
16.601091 -34.092161 18.641723 42.253822 -1.117645 1.113878 0.034717 -0.013270 35027.800000 0 0 1
17.472091 33.480082 18.362823 41.992655 1.089810 1.118217 0.035324 -0.011712 381705.000000 0 0 1
17.801791 32.811965 19.595723 42.160659 1.073699 1.087402 0.037463 -0.008342 421922.000000 0 0 1
18.582491 31.472236 19.377923 41.368037 1.037435 1.083286 0.058300 -0.014644 598874.000000 0 0 1
17.698391 30.422936 19.008123 40.001210 1.043908 1.075618 0.045048 -0.019765 141791.000000 0 0 1
18.445191 29.187236 19.048523 39.433058 1.007207 1.066650 0.050934 -0.019822 96214.800000 0 0 1
17.812391 27.812376 18.820623 38.013489 1.001165 1.052842 0.063547 -0.025014 -413996.000000 0 0 1
17.397191 27.268886 20.019323 38.039817 1.002913 1.016585 0.077136 -0.027451 -124168.000000 0 0 1
17.115091 25.877106 19.833523 36.822813 0.986449 1.001997 0.063059 -0.029382 -757061.000000 0 0 1
16.871191 25.008586 21.052723 36.787003 0.977311 0.961504 0.067068 -0.029082 -382434.000000 0 0 1
15.664691 25.095806 21.731723 36.707626 1.012776 0.937231 0.072989 -0.028737 -529386.000000 0 0 1
14.542891 24.538016 21.079323 35.467559 1.035786 0.934368 0.072613 -0.024287 -656593.000000 0 0 1
13.271091 24.732876 21.902523 35.602774 1.078317 0.908167 0.063996 -0.034368 -588845.000000 0 0 1
12.680491 25.998486 21.729523 36.178561 1.117005 0.926522 0.063243 -0.035055 -1387570.000000 0 0 1
11.394191 26.050006 22.199623 36.072894 1.158472 0.907890 0.035440 -0.032191 -1589670.000000 0 0 1
10.677791 27.116356 21.471923 36.198832 1.195666 0.935810 0.020383 -0.028466 -803987.000000 0 0 1
11.203991 28.412116 21.748423 37.493621 1.195180 0.951998 0.022534 -0.032843 -11059.200000 0 0 1
10.979291 29.279166 20.657223 37.477130 1.212038 0.987000 0.022376 -0.030331 -69617.600000 0 0 1
11.469591 30.769526 20.802223 38.872197 1.213993 1.006118 0.024904 -0.025425 -123577.000000 0 0 1
10.712991 31.615256 21.640523 39.781966 1.244084 0.995625 0.033053 -0.022813 -682256.000000 0 0 1
11.296191 31.777226 22.897523 40.763864 1.229247 0.974344 0.022905 -0.024110 -283336.000000 0 0 1
10.441391 32.586016 23.851023 41.710219 1.260707 0.962065 0.015425 -0.016291 1550740.000000 0 0 1
9.163191 32.032406 24.342413 41.262479 1.292177 0.939811 0.019948 -0.014718 1387670.000000 0 0 1
8.819591 32.760531 25.484623 42.432341 1.307817 0.926552 0.018220 -0.005837 -1191420.000000 0 0 1
7.482091 32.455256 26.128383 42.332230 1.344219 0.905589 0.043166 -0.015740 -631789.000000 0 0 1
6.348891 33.153695 25.608583 42.370691 1.381588 0.921792 0.033195 -0.016192 658264.000000 0 0 1
5.800491 32.633236 24.366213 41.137405 1.394886 0.936870 0.035525 -0.027409 -76705.900000 0 0 1
5.050291 31.264776 24.433823 40.000042 1.410647 0.913669 0.030453 -0.029104 -181505.000000 0 0 1
5.942091 30.218676 24.704933 39.481775 1.376637 0.894729 0.008954 -0.017384 -416727.000000 0 0 1
5.245691 29.008316 24.604033 38.397371 1.391896 0.875290 0.008031 -0.015830 -449440.000000 0 0 1
6.202891 27.780976 24.653073 37.656772 1.351121 0.857039 -0.002759 -0.013873 -36320.000000 0 0 1
7.214191 27.654736 23.662923 37.104756 1.315617 0.879245 0.003421 -0.012637 564030.000000 0 0 1
8.287491 28.574246 23.746993 38.066911 1.288508 0.897172 0.012873 -0.017043 -418642.000000 0 0 1
9.436391 28.269196 24.769583 38.752099 1.248622 0.877364 0.012011 -0.023471 -504897.000000 0 0 1
9.142091 28.277346 26.198863 39.617755 1.258102 0.848258 0.008429 -0.014754 -490141.000000 0 0 1
10.214791 28.030906 27.045853 40.268496 1.221341 0.834379 0.025201 -0.007312 -816762.000000 0 0 1
11.201891 29.152196 27.316043 41.490952 1.203936 0.852157 0.027103 -0.009699 -343080.000000 0 0 1
10.720491 30.254966 28.119643 42.673249 1.230262 0.851371 0.014617 -0.010654 179422.000000 0 0 1
11.753091 31.191716 28.292593 43.721037 1.210447 0.867001 0.010914 0.000107 -206125.000000 0 0 1
11.327591 32.371076 29.181933 45.030946 1.234184 0.865786 0.000187 -0.002753 -138684.000000 0 0 1
11.288591 32.004266 30.546783 45.659734 1.231699 0.837921 0.007133 -0.024848 1279420.000000 0 0 1
9.973691 31.608096 31.033003 45.404774 1.265142 0.818285 0.019398 -0.014466 895399.000000 0 0 1
9.958691 31.556826 32.578960 46.437026 1.265108 0.793194 0.049930 -0.024591 -147618.000000 0 0 1
10.676991 30.434176 33.047620 46.177726 1.233389 0.773226 0.026381 -0.027746 222686.000000 0 0 1
10.694391 30.378276 -34.116378 46.916275 1.232305 2.384995 0.055342 -0.027797 -202722.000000 0 0 1
10.789191 28.940056 -33.586290 45.628635 1.213946 2.398056 0.042877 -0.027418 -39659.600000 0 0 1
12.067291 28.351186 -33.759490 45.706809 1.168387 2.401802 0.046898 -0.012964 196512.000000 0 0 1
12.053191 27.020516 -33.312050 44.554240 1.151211 2.415349 0.045627 -0.022048 612761.000000 0 0 1
13.240591 26.178156 -33.923090 44.848468 1.102529 2.428578 0.060320 -0.016993 492702.000000 0 0 1
13.240491 24.778546 -33.700390 43.874858 1.080045 2.446669 0.030853 -0.014150 -245338.000000 0 0 1
13.340591 24.287146 -32.423480 42.651130 1.068501 2.434421 0.025323 -0.011571 -538142.000000 0 0 1
13.315291 22.777206 -32.223100 41.646443 1.041786 2.455504 0.019607 -0.029711 -190273.000000 0 0 1
14.358891 22.166206 -32.954210 42.231486 0.995981 2.465979 0.008652 -0.017661 76645.200000 0 0 1
14.232291 20.739506 -32.830930 41.358858 0.969365 2.487839 0.008453 -0.010886 597176.000000 0 0 1
15.568091 20.047306 -33.290970 41.863452 0.910508 2.490179 0.020262 -0.012639 1023100.000000 0 0 1
16.670191 20.248306 -32.406990 41.690552 0.882016 2.461194 0.021133 -0.023281 86469.800000 0 0 1
17.850491 19.669806 -32.907400 42.289931 0.833849 2.462492 0.026808 -0.023087 -387475.000000 0 0 1
19.074791 20.009006 -32.057310 42.330593 0.809296 2.429978 0.015770 -0.020372 -213428.000000 0 0 1
19.667991 21.293406 -32.385680 43.463447 0.825059 2.411518 0.010999 -0.018873 213751.000000 0 0 1
20.587991 21.767406 -31.398760 43.400086 0.813237 2.379615 0.012130 -0.010792 316983.000000 0 0 1
20.014391 22.150106 -29.980640 42.308885 0.836007 2.358327 0.005530 -0.013927 -37704.300000 0 0 1
19.353691 23.405406 -30.025920 42.707543 0.879873 2.350486 0.002265 -0.001691 47781.000000 0 0 1
18.833491 23.782216 -28.791060 41.823669 0.901005 2.330066 0.009421 0.006063 -263186.000000 0 0 1
19.910891 24.365376 -27.790390 41.981197 0.885667 2.294243 0.014499 0.006759 911820.000000 0 0 1
20.782691 25.405536 -28.236760 43.297530 0.885153 2.281222 0.020234 0.005363 124272.000000 0 0 1
20.089991 26.587986 -28.587960 43.906721 0.923718 2.279838 0.017150 0.008603 -795842.000000 0 0 1
20.922991 27.614576 -29.381910 45.427227 0.922399 2.274165 0.018219 0.005581 -392854.000000 0 0 1
21.152291 27.275826 -30.767200 46.238627 0.911177 2.298826 0.018298 0.001026 223611.000000 0 0 1
21.856491 26.096446 -31.187340 46.166880 0.873588 2.312486 0.020641 -0.000453 67074.700000 0 0 1
23.297591 25.906706 -30.652290 46.405797 0.838375 2.292317 0.034487 -0.003362 -566842.000000 0 0 1
24.129591 26.964396 -30.995300 47.644773 0.840823 2.279105 0.034473 -0.005813 -1240050.000000 0 0 1
25.381491 26.690036 -30.466560 47.799470 0.810523 2.261893 0.040905 -0.021276 -678141.000000 0 0 1
26.508091 27.660856 -30.902340 49.221504 0.806676 2.249548 0.026193 -0.014064 -101271.000000 0 0 1
26.485191 28.923906 -30.307320 49.564012 0.829383 2.228724 0.019838 -0.001158 -81469.600000 0 0 1
27.563591 29.743466 -30.693160 50.857599 0.823418 2.218694 0.019524 -0.000142 77119.200000 0 0 1
27.754591 30.933046 -29.732860 51.100035 0.839504 2.191805 0.015918 0.007700 29646.800000 0 0 1
28.217691 30.563886 -28.442760 50.392259 0.825291 2.170535 0.036437 0.000136 77705.000000 0 0 1
27.701891 31.366486 -27.408810 50.024934 0.847359 2.150652 0.027065 0.015814 63272.000000 0 0 1
28.323791 31.012986 -25.998830 49.396170 0.830688 2.125078 0.047162 0.009796 -376153.000000 0 0 1
28.285991 29.709116 -25.576550 48.341377 0.809932 2.128315 0.042940 0.020930 -364988.000000 0 0 1
27.051491 29.111216 -25.291660 47.105351 0.822056 2.137575 0.037405 0.022543 -263011.000000 0 0 1
26.411791 29.375386 -23.875610 46.157781 0.838471 2.114444 0.039193 0.021750 47190.200000 0 0 1
25.866591 30.701686 -23.774910 46.657479 0.870665 2.105473 0.047804 0.023084 279756.000000 0 0 1
25.285891 30.846736 -22.486910 45.788192 0.884142 2.084157 0.047192 0.027221 208896.000000 0 0 1
3.380891 -26.412624 -19.450910 32.975673 -1.443486 2.201677 0.054978 -0.003317 -331037.000000 0 0 1
3.495291 -27.542094 -18.579510 33.406320 -1.444564 2.160563 0.056233 0.004533 238782.000000 0 0 1
2.988791 -27.248414 -17.265110 32.395879 -1.461546 2.132869 0.042429 0.001105 41330.100000 0 0 1
2.888591 -28.529714 -16.433010 33.050452 -1.469892 2.091176 0.037006 0.003775 360964.000000 0 0 1
4.121891 -28.971564 -15.858210 33.283995 -1.429471 2.067411 0.034838 0.003198 289329.000000 0 0 1
3.966591 -29.933444 -14.862410 33.654660 -1.439050 2.028194 0.034678 -0.000519 -529412.000000 0 0 1
5.284691 -30.472254 -14.336710 34.088524 -1.399078 2.004873 0.057415 0.001233 -849011.000000 0 0 1
6.130491 -29.536904 -13.749110 33.151918 -1.366148 1.998443 0.042674 0.010224 -1006000.000000 0 0 1
7.462591 -29.954924 -13.769410 33.802136 -1.326639 1.990350 0.051407 0.005368 -253910.000000 0 0 1
7.905491 -30.772334 -12.537710 34.155929 -1.319332 1.946656 0.052296 -0.009699 -818270.000000 0 0 1
8.329991 -29.931214 -11.425210 33.102896 -1.299361 1.923187 0.046557 -0.016900 71322.600000 0 0 1
8.452191 -30.640254 -10.206210 33.383101 -1.301638 1.881501 0.060182 -0.017798 615023.000000 0 0 1
9.727091 -31.554864 -10.124010 34.537245 -1.271779 1.868299 0.057451 -0.021619 725781.000000 0 0 1
10.786191 -31.058674 -9.314510 34.172258 -1.236543 1.846865 0.053452 -0.019580 31322.700000 0 0 1
11.938891 -31.860084 -9.394810 35.296806 -1.212263 1.840210 0.048063 -0.021039 516971.000000 0 0 1
13.171491 -31.322064 -8.589610 35.047700 -1.172728 1.818402 0.050125 -0.017104 39613.700000 0 0 1
13.969291 -30.366774 -9.229110 34.676484 -1.139642 1.840192 0.047223 -0.020092 -57652.000000 0 0 1
14.967391 -30.058454 -8.268110 34.581716 -1.108796 1.812224 0.046951 -0.020985 -366232.000000 0 0 1
16.186091 -29.323934 -8.826810 34.638060 -1.066438 1.828468 0.069307 -0.032500 -264329.000000 0 0 1
15.878491 -27.997104 -9.197110 33.474634 -1.054883 1.849125 0.057703 -0.024286 82047.600000 0 0 1
15.487991 -27.855624 -10.541510 33.569883 -1.063351 1.890217 0.046805 -0.018099 -51784.700000 0 0 1
15.041491 -26.397134 -10.912410 32.282128 -1.052867 1.915622 0.036828 -0.008798 -262334.000000 0 0 1
13.864291 -26.010234 -10.230710 31.199652 -1.081074 1.904888 0.017052 -0.005532 409720.000000 0 0 1
13.234991 -24.757654 -10.530310 29.983226 -1.079868 1.929656 0.018996 0.007370 216600.000000 0 0 1
12.838491 -24.427554 -11.983810 30.085610 -1.086899 1.980485 -0.003059 0.010782 -36822.100000 0 0 1
13.912791 -23.928954 -12.794010 30.493397 -1.044150 2.003764 0.006884 0.008051 327314.000000 0 0 1
13.503591 -24.048054 -14.174610 31.009280 -1.059148 2.045538 0.013655 0.002932 -78979.300000 0 0 1
14.322291 -23.385854 -15.276710 31.391146 -1.021284 2.079055 0.026229 0.000274 -23757.500000 0 0 1
15.384191 -24.229254 -15.743310 32.735025 -1.005079 2.072513 0.038069 -0.008427 307704.000000 0 0 1
15.934991 -23.609054 -16.908710 33.124248 -0.977079 2.106520 0.051489 -0.016403 -926154.000000 0 0 1
16.856391 -24.614854 -17.642210 34.659436 -0.970341 2.104838 0.056711 -0.016402 940953.000000 0 0 1
18.172791 -24.809754 -17.092110 35.184008 -0.938599 2.078065 0.076001 -0.016587 1551840.000000 0 0 1
19.072791 -23.658454 -17.302810 34.969716 -0.892303 2.088394 0.079673 -0.016950 691442.000000 0 0 1
20.539091 -23.861354 -16.763310 35.668292 -0.860084 2.060062 0.068135 -0.013115 1164230.000000 0 0 1
21.216391 -24.817254 -17.607310 37.095130 -0.863462 2.065366 0.078202 -0.008349 623356.000000 0 0 1
22.444491 -25.353614 -17.088010 37.928367 -0.846186 2.038159 0.083331 -0.001233 783516.000000 0 0 1
23.024391 -26.443674 -17.976010 39.402124 -0.854409 2.044538 0.058974 -0.002162 -225965.000000 0 0 1
23.642391 -26.072944 -19.196010 40.090496 -0.834249 2.070103 0.049630 -0.002656 -50105.400000 0 0 1
24.018991 -27.140044 -20.024710 41.406315 -0.846330 2.075576 0.038067 -0.012115 47775.400000 0 0 1
25.056191 -26.651924 -21.095410 42.227409 -0.816249 2.093895 0.027200 -0.003281 177317.000000 0 0 1
24.623891 -25.553384 -21.905910 41.703481 -0.803920 2.123838 0.035051 -0.008894 -160910.000000 0 0 1
25.347491 -24.392454 -21.526510 41.241699 -0.766200 2.119943 0.038691 -0.007188 -691817.000000 0 0 1
24.643391 -23.069854 -21.557610 40.053033 -0.752431 2.139128 0.047126 -0.000676 -443373.000000 0 0 1
24.389091 -22.425154 -22.790010 40.213180 -0.743471 2.173328 0.052725 0.002156 -169023.000000 0 0 1
23.632191 -23.113354 -23.737710 40.696271 -0.774299 2.193569 0.030239 -0.005399 -648065.000000 0 0 1
22.847191 -22.065054 -24.579710 40.162456 -0.767985 2.229392 0.032065 -0.003292 -127773.000000 0 0 1
23.662591 -21.234554 -25.349410 40.662232 -0.731371 2.243898 0.018040 0.003476 -324167.000000 0 0 1
22.848891 -20.715854 -26.348040 40.563994 -0.736475 2.277779 0.017064 0.008307 -165918.000000 0 0 1
23.557091 -19.990054 -27.552390 41.396533 -0.703669 2.299057 0.019732 0.004893 -267470.000000 0 0 1
22.691991 -19.190354 -28.296140 41.034957 -0.701986 2.331680 0.025816 0.001788 -376522.000000 0 0 1
23.292191 -18.766254 -29.470810 41.990798 -0.678200 2.348773 0.032772 -0.004345 -520970.000000 0 0 1
22.568791 -17.722654 -30.348000 41.766540 -0.665696 2.384172 0.056952 -0.012324 -54267.900000 0 0 1
21.315191 -18.255654 -30.777740 41.651837 -0.708234 2.402275 0.051628 -0.011351 296276.000000 0 0 1
20.566291 -17.191354 -31.291740 41.203009 -0.696251 2.433268 0.059876 -0.015650 29052.000000 0 0 1
19.300391 -17.668254 -32.064650 41.386158 -0.741278 2.457144 0.036919 -0.017312 184723.000000 0 0 1
19.600691 -18.312354 -33.236500 42.710588 -0.751430 2.462558 0.038491 -0.014741 503811.000000 0 0 1
18.460491 -19.074554 -33.623390 42.838775 -0.801756 2.473302 0.041998 -0.020726 181547.000000 0 0 1
18.605491 -19.912654 33.681711 43.325925 -0.819321 0.680270 0.048025 -0.021396 -401952.000000 0 0 1
19.580191 -20.890454 33.831905 44.321471 -0.817762 0.702344 0.046285 -0.015616 -243622.000000 0 0 1
19.800791 -21.718854 32.692385 43.961028 -0.831562 0.732257 0.044961 -0.018206 -167255.000000 0 0 1
20.430091 -23.048554 33.125067 45.231566 -0.845550 0.749038 0.035761 -0.011887 -295666.000000 0 0 1
19.704491 -23.888354 33.989883 45.980785 -0.881081 0.738886 0.037783 -0.013840 -289780.000000 0 0 1
19.862091 -23.606154 -33.188610 45.312658 -0.871319 2.392689 0.038842 -0.020249 -170084.000000 0 0 1
18.938991 -24.478354 -32.303350 44.736804 -0.912297 2.377594 0.049719 -0.023089 -345114.000000 0 0 1
19.361291 -25.819364 -32.236430 45.614543 -0.927375 2.355639 0.041344 -0.027433 274200.000000 0 0 1
20.313891 -25.988054 -31.178760 45.388855 -0.907337 2.328046 0.029374 -0.029642 373931.000000 0 0 1
20.718191 -27.447734 -30.978200 46.284667 -0.924215 2.304059 0.023723 -0.024986 -515271.000000 0 0 1
19.589491 -28.180884 -30.598160 45.979971 -0.963344 2.298916 0.019738 -0.024831 -122942.000000 0 0 1
19.878191 -29.559174 -30.436090 46.853418 -0.978774 2.277858 0.014837 -0.015197 219335.000000 0 0 1
18.608991 -30.323244 -29.894500 46.470149 -1.020373 2.269604 0.032684 -0.014326 2093400.000000 0 0 1
17.448991 -30.518584 -30.772790 46.720615 -1.051408 2.289827 0.045634 -0.025084 922587.000000 0 0 1
17.687391 -30.970314 -32.071430 47.964370 -1.051892 2.303190 0.040375 -0.027843 -783029.000000 0 0 1
16.472491 -31.703044 -32.688950 48.425132 -1.091602 2.311817 0.064063 -0.043436 601535.000000 0 0 1
15.397091 -30.872824 -33.114110 47.819932 -1.108168 2.335710 0.070642 -0.033969 751399.000000 0 0 1
14.250391 -31.611224 -33.574700 48.265967 -1.147276 2.340077 0.060769 -0.030260 679773.000000 0 0 1
13.164191 -30.725404 -34.176402 47.805573 -1.166010 2.367283 0.066032 -0.016933 291021.000000 0 0 1
12.382191 -29.838284 -33.353180 46.433570 -1.177446 2.372150 0.086500 -0.027015 -335703.000000 0 0 1
11.407891 -29.209194 -34.078480 46.310472 -1.198456 2.397747 0.069974 -0.015458 -507631.000000 0 0 1
10.405291 -28.406214 -33.180520 44.901336 -1.219672 2.402329 0.082079 -0.025334 162692.000000 0 0 1
9.516191 -29.336614 -32.576860 44.860301 -1.257126 2.383552 0.074111 -0.015721 -243196.000000 0 0 1
8.560191 -28.557054 -31.860910 43.633700 -1.279562 2.389397 0.045429 -0.017260 607362.000000 0 0 1
7.409491 -29.463814 -31.282800 43.607688 -1.324427 2.370815 0.025460 -0.016206 233046.000000 0 0 1
6.405791 -29.948044 -32.162810 44.411326 -1.360075 2.380674 0.019733 -0.010332 267907.000000 0 0 1
6.707791 -31.179214 -32.804440 45.752258 -1.358890 2.370288 0.024097 -0.007205 295818.000000 0 0 1
5.335591 -31.754664 -33.227310 46.269659 -1.404326 2.371898 0.052155 -0.025908 647916.000000 0 0 1
4.486491 -32.155154 -32.166780 45.703219 -1.432165 2.351555 0.060111 -0.027319 475472.000000 0 0 1
3.264891 -32.757724 -32.604900 46.333654 -1.471457 2.351385 0.064022 -0.044448 -238773.000000 0 0 1
2.375091 -33.149994 -31.398450 45.721175 -1.499272 2.327788 0.053886 -0.046537 37475.500000 0 0 1
1.600191 -32.105094 -30.894250 44.584216 -1.520995 2.336357 0.031191 -0.031201 700473.000000 0 0 1
0.517291 -31.539444 -31.681950 44.707383 -1.554396 2.358381 0.017034 0.006727 158445.000000 0 0 1
-0.216509 -30.440154 -30.935960 43.401422 1.563684 2.364260 0.010545 0.007067 -221950.000000 0 0 1
-1.068909 -30.809344 -29.847360 42.909476 1.536116 2.340036 0.000048 0.001414 154000.000000 0 0 1
-1.633009 -29.658764 -29.329810 41.743823 1.515792 2.349861 0.023847 0.000655 -242496.000000 0 0 1
-2.332609 -29.828214 -27.990190 40.970894 1.492754 2.322895 0.026905 -0.002583 -319851.000000 0 0 1
-1.464509 -30.234784 -26.966550 40.539879 1.522396 2.298539 0.024037 -0.000237 86773.100000 0 0 1
-2.133709 -30.174234 -25.702620 39.694606 1.500201 2.275108 0.030747 -0.012880 790408.000000 0 0 1
-1.106009 -30.532354 -24.571510 39.207231 1.534588 2.248119 0.023751 -0.009078 393160.000000 0 0 1
-1.716209 -30.530964 -23.293610 38.440570 1.514643 2.221774 0.041712 -0.017389 -322277.000000 0 0 1
-0.833109 -30.903804 -22.254210 38.091850 1.543845 2.194721 0.033201 -0.007806 -74073.400000 0 0 1
-1.431509 -30.816534 -20.826410 37.221598 1.524377 2.164609 0.005392 0.003396 -68212.100000 0 0 1
-1.578509 -29.563734 -20.305110 35.899910 1.517454 2.171961 0.009024 0.003328 -73215.200000 0 0 1
-0.338709 -28.946804 -20.011610 35.192282 1.559096 2.175643 0.030792 -0.005446 11047.300000 0 0 1
-0.373909 -27.516974 -19.484010 33.718694 1.557209 2.186876 0.037504 -0.017528 -151205.000000 0 0 1
-1.063609 -27.430004 -18.252510 32.964989 1.532040 2.157590 0.030213 -0.018205 82835.900000 0 0 1
-1.038009 -26.141974 -17.625310 31.545710 1.531111 2.163641 0.033842 -0.014906 -152983.000000 0 0 1
-1.739309 -26.114774 -16.281010 30.823334 1.504292 2.127280 0.025997 -0.013929 -269046.000000 0 0 1
-1.839409 -24.837154 -15.724610 29.453879 1.496873 2.133970 0.022133 -0.010430 -39839.700000 0 0 1
-2.651009 -24.867854 -14.590710 28.953874 1.464594 2.098938 0.017307 -0.009285 -269453.000000 0 0 1
-2.427609 -23.658754 -13.600710 27.397249 1.468545 2.090273 0.017463 -0.007920 -465144.000000 0 0 1
-1.225909 -23.800354 -12.908810 27.103451 1.519334 2.067215 0.015686 -0.005815 -743962.000000 0 0 1
-1.145809 -22.777854 -11.900910 25.724991 1.520535 2.051745 0.015965 -0.001108 529509.000000 0 0 1
0.276391 -22.628454 -11.269810 25.281059 -1.558583 2.032843 0.020440 0.001024 539388.000000 0 0 1
0.465491 -21.432054 -10.495310 23.868413 -1.549080 2.026078 0.009344 0.004998 -16543.300000 0 1 0
1.755191 -21.446354 -9.901010 23.686637 -1.489137 2.002039 0.015729 0.005821 335801.000000 0 1 0
2.117991 -20.005254 -9.426310 22.216016 -1.465318 2.008988 0.011782 0.007597 -1043570.000000 0 1 0
2.534591 -19.187954 -10.488710 22.013967 -1.439464 2.067417 0.002402 0.013045 379891.000000 0 1 0
3.494991 -18.151554 -10.228410 21.126151 -1.380579 2.076198 0.006655 0.010659 1173190.000000 0 1 0
4.910191 -18.590654 -9.729710 21.549702 -1.312572 2.039243 0.018395 0.000653 -54528.500000 0 1 0
4.798691 -19.094654 -8.413010 21.410558 -1.324584 1.974620 0.020481 0.003650 -617803.000000 0 1 0
5.729391 -20.097654 -8.108110 22.416134 -1.293085 1.940896 0.021373 0.008685 -622843.000000 0 1 0
5.309391 -21.039154 -6.944810 22.783020 -1.323600 1.880550 0.024686 0.000804 488914.000000 0 1 0
4.339891 -22.033154 -7.358710 23.631444 -1.376315 1.887457 0.017978 -0.001163 514731.000000 0 1 0
4.292891 -23.136054 -6.479710 24.406813 -1.387333 1.839506 0.033332 -0.006587 153953.000000 0 1 0
3.427591 -24.219154 -7.182210 25.493135 -1.430206 1.856394 0.032450 -0.001197 372142.000000 0 0 1
4.005191 -24.784054 -8.409210 26.476512 -1.410578 1.894004 0.035340 -0.001247 571176.000000 0 0 1
3.044091 -25.333164 -9.327310 27.166788 -1.451207 1.921262 0.024939 0.000178 523437.000000 0 0 1
3.734591 -26.306044 -10.301310 28.496879 -1.429772 1.940661 0.017596 -0.001986 132976.000000 0 0 1
3.872591 -27.649964 -9.859010 29.609416 -1.431644 1.910247 0.032491 -0.008954 -72385.300000 0 0 1
4.734991 -28.378764 -10.726310 30.705506 -1.405469 1.927651 0.049245 -0.003697 280064.000000 0 0 1
4.550191 -29.918524 -10.559010 32.051755 -1.419867 1.906503 0.050533 -0.013199 182883.000000 0 0 1
3.260091 -30.338954 -10.972610 32.426509 -1.463751 1.915995 0.050291 -0.010960 116132.000000 0 0 1
3.235791 -31.766464 -11.050110 33.788807 -1.469285 1.903960 0.049693 -0.013496 25244.900000 0 0 1
1.884091 -32.369544 -11.483810 34.397893 -1.512656 1.911184 0.032834 -0.013769 -82823.500000 0 0 1
1.679791 -32.245884 -12.891210 34.767830 -1.518750 1.950645 0.035638 -0.013996 -256485.000000 0 0 1
0.843391 -33.269104 -13.276510 35.830299 -1.545451 1.950385 0.027660 -0.008891 -804434.000000 0 0 1
0.559591 -33.333874 -14.739710 36.451603 -1.554010 1.987079 0.029630 0.001693 -392133.000000 0 0 1
-0.288509 -32.289614 -15.064810 35.632161 1.561862 2.007315 0.020404 0.004713 -444854.000000 0 0 1
-0.511609 -32.305154 -16.442610 36.252505 1.554961 2.041550 0.004011 0.000261 -283305.000000 0 0 1
-1.522609 -31.221614 -16.800610 35.487575 1.522067 2.063968 -0.003120 0.003091 402285.000000 0 0 1
-2.843509 -31.464044 -16.328210 35.562368 1.480668 2.047827 0.003072 -0.004781 206451.000000 0 0 1
-3.845809 -30.915514 -17.164210 35.569219 1.447035 2.074369 0.013921 -0.003228 638046.000000 0 0 1
-5.263509 -30.944154 -16.532110 35.476131 1.402312 2.055568 0.014701 -0.004432 239491.000000 0 0 1
-5.485709 -30.082574 -15.402910 34.238924 1.390423 2.037411 0.006116 -0.000698 -410385.000000 0 0 1
-6.835809 -29.961324 -15.050210 34.218680 1.346481 2.026199 0.018490 -0.002490 -32109.900000 0 0 1
-7.564409 -30.921194 -14.071910 34.804585 1.330873 1.987023 0.026354 -0.013207 160104.000000 0 0 1
-7.772609 -32.140194 -14.699110 36.186591 1.333517 1.989092 0.032542 -0.014655 -317522.000000 0 0 1
-8.587409 -32.987904 -13.935110 36.825707 1.316129 1.958871 0.042740 -0.014982 10324.600000 0 0 1
-8.843409 34.291660 -14.566410 38.292350 -1.318408 1.961025 0.067752 -0.022580 416409.000000 0 0 1
-7.752809 33.375674 -14.673510 37.274033 -1.342555 1.975412 0.057915 -0.018960 -69403.500000 0 0 1
-8.258709 32.180496 -15.214810 36.541497 -1.319581 2.000246 0.075249 -0.025760 -194510.000000 0 0 1
-7.491709 -21.629354 -3.164710 23.107792 1.237361 1.708182 0.038900 -0.020390 99480.100000 0 1 0
-7.107209 -20.521254 -4.002810 22.082952 1.237391 1.753066 0.018460 -0.022102 -4485.200000 0 1 0
-6.150809 -20.997854 -4.907410 22.423760 1.285842 1.791431 0.011761 -0.010570 6654.160000 0 1 0
-5.906109 -20.072054 -6.114310 21.798033 1.284627 1.855109 0.005064 -0.007010 127457.000000 0 1 0
-6.710909 -20.462454 -7.198210 22.706002 1.253888 1.893380 0.008326 -0.003030 -456092.000000 0 1 0
-6.984309 -19.339354 -7.940210 22.041736 1.224228 1.939316 0.009661 -0.005345 30932.700000 0 1 0
-7.909509 -19.551454 -9.182610 23.003044 1.186375 1.981431 0.023343 -0.009641 111788.000000 0 1 0
-7.287409 -20.133454 -10.295910 23.758537 1.223511 2.019010 0.035114 -0.008153 34042.100000 0 1 0
-8.167909 -20.408754 -11.405510 24.765251 1.190104 2.049405 0.056926 -0.008194 -23125.600000 0 1 0
-7.481909 -21.287854 -12.398110 25.746161 1.232818 2.073221 0.049213 -0.008228 25376.100000 0 0 1
-6.332009 -20.773254 -13.057810 25.340261 1.274928 2.112153 0.046238 -0.006651 112328.000000 0 0 1
-6.040809 -21.564354 -14.135910 26.482762 1.297668 2.133858 0.032556 -0.008256 -68266.900000 0 0 1
-4.994309 -20.908254 -15.082210 26.259689 1.336322 2.182604 0.027296 0.001398 -245299.000000 0 0 1
-3.738709 -20.840254 -14.434710 25.625280 1.393286 2.169170 0.023776 -0.002776 301006.000000 0 0 1
-2.708709 -20.234254 -15.236510 25.473778 1.437720 2.211956 0.032113 0.002547 337533.000000 0 0 1
-2.778009 -18.697054 -15.487910 24.437113 1.423295 2.257235 0.027907 0.009222 -978678.000000 0 1 0
-3.772509 -18.159154 -16.319910 24.704780 1.365963 2.292410 0.032975 0.006564 -122536.000000 0 1 0
-3.625009 -18.511654 -17.679610 25.853252 1.377420 2.323815 0.050856 -0.003254 -1018150.000000 0 0 1
-4.865409 -18.194554 -18.483510 26.388523 1.309500 2.346807 0.044046 0.010356 45993.700000 0 0 1
-5.979109 -18.998654 -18.042010 26.874016 1.265897 2.306832 0.031347 0.009839 -93259.500000 0 0 1
-7.150809 -18.590754 -18.687410 27.312442 1.203598 2.324314 0.032864 0.005008 648372.000000 0 0 1
-8.412109 -19.436154 -18.186210 27.915334 1.162331 2.280327 0.065652 -0.000376 787994.000000 0 0 1
-8.249609 -20.831754 -18.314510 28.938543 1.193733 2.256058 0.060382 0.003670 411103.000000 0 0 1
-9.356009 -21.622154 -17.888610 29.581325 1.162418 2.220219 0.064223 -0.001785 236872.000000 0 0 1
-8.990709 -23.117054 -18.033910 30.666805 1.199877 2.199454 0.058271 -0.009339 -712100.000000 0 0 1
-9.152509 -23.528354 -19.350910 31.808954 1.199809 2.224774 0.037721 -0.011350 212408.000000 0 0 1
-8.429509 -24.683454 -19.712210 32.694048 1.241710 2.217965 0.062803 -0.026617 -202995.000000 0 0 1
-6.882709 -24.608554 -19.723110 32.279307 1.298077 2.228137 0.078401 -0.029798 -1054670.000000 0 0 1
-6.307109 -23.739854 -20.599310 32.057633 1.311119 2.268645 0.085969 -0.024437 -57095.300000 0 0 1
-6.011909 -22.418554 -20.162710 30.745235 1.308794 2.286037 0.065088 -0.021245 -808305.000000 0 0 1
-5.025009 -22.280854 -19.005810 29.713768 1.348977 2.264813 0.072968 -0.010334 -160989.000000 0 0 1
-3.677909 -22.541254 -19.407910 29.971689 1.409058 2.275150 0.062442 -0.022414 952807.000000 0 0 1
-2.749809 -22.061554 -18.403310 28.860967 1.446793 2.262245 0.023164 -0.015057 -52457.500000 0 0 1
-1.343509 -22.610654 -18.492110 29.240465 1.511447 2.255463 0.040888 -0.015662 -650501.000000 0 0 1
-0.533309 -22.099954 -19.542410 29.505901 1.546669 2.294710 0.053332 -0.013361 713500.000000 0 0 1
0.737791 -22.791154 -19.476410 29.988524 -1.538436 2.277673 0.034569 -0.015662 889617.000000 0 0 1
1.870591 -22.319154 -20.392310 30.290098 -1.487181 2.309369 0.049416 -0.019061 21811.200000 0 0 1
1.674191 -22.442454 -21.755910 31.301538 -1.496335 2.339276 0.062151 -0.028616 -324099.000000 0 0 1
1.183991 -21.284854 -22.374010 30.903773 -1.515228 2.380365 0.067826 -0.017083 -445223.000000 0 0 1
0.988791 -21.510154 -23.863210 32.142141 -1.524860 2.407483 0.078173 -0.025036 155123.000000 0 0 1
0.462091 -20.394754 -24.568210 31.933626 -1.548143 2.448623 0.061072 -0.022970 970569.000000 0 0 1
-0.967009 -20.218354 -24.387010 31.692952 1.523004 2.448819 0.061714 -0.023651 707641.000000 0 0 1
-1.473609 -19.169654 -25.345800 31.812839 1.494075 2.492638 0.058571 -0.012365 -343771.000000 0 0 1
-1.025109 -17.886854 -25.082950 30.824418 1.513548 2.521348 0.049468 -0.014050 -85422.700000 0 0 1
-1.441209 -16.968854 -26.077630 31.145816 1.486067 2.563078 0.045953 -0.014454 -139394.000000 0 0 1
-1.093609 -15.482854 -25.723320 30.043368 1.500280 2.598678 0.042220 -0.013607 -683377.000000 0 0 1
0.265191 -15.247454 -25.880760 30.039456 -1.553406 2.609129 0.046416 -0.016156 -1004850.000000 0 0 1
0.708591 -14.019254 -25.324650 28.954783 -1.520295 2.635463 0.040846 -0.016639 245656.000000 0 0 1
0.300691 -12.649554 -26.008710 28.923254 -1.547030 2.688807 0.041441 -0.012669 69568.900000 0 0 1
1.048691 -11.527454 -25.540890 28.041380 -1.480073 2.716083 0.033479 -0.011295 61630.100000 0 0 1
0.676091 -10.416454 -26.249010 28.248365 -1.505981 2.763099 0.035128 -0.013626 -726499.000000 0 0 1
1.548791 -9.182554 -26.087840 27.700062 -1.403702 2.798733 0.044525 -0.017595 303168.000000 0 0 1
2.934791 -9.188854 -26.395480 28.102836 -1.261650 2.791224 0.053208 -0.013475 86994.800000 0 0 1
3.154691 -9.257654 -27.804680 29.474675 -1.242372 2.803356 0.053590 -0.011181 424577.000000 0 0 1
4.610791 -8.877454 -28.278790 29.995975 -1.091764 2.801587 0.051963 -0.008438 337996.000000 0 0 1
4.870991 -7.522654 -28.318580 29.702842 -0.996174 2.835095 0.047407 -0.011736 38169.000000 0 0 1
6.121791 -7.136154 -28.861980 30.354817 -0.861759 2.826670 0.038936 -0.005158 -312751.000000 0 0 1
7.292391 -7.160354 -27.830640 29.647836 -0.776263 2.789657 0.052180 -0.012744 -165337.000000 0 0 1
7.752591 -8.432154 -27.412450 29.709364 -0.827361 2.745790 0.043172 -0.011054 96556.600000 0 0 1
8.650991 -9.007554 -28.337100 30.967191 -0.805588 2.726474 0.048768 -0.014514 -559689.000000 0 0 1
8.998891 -10.437054 -27.805280 31.032978 -0.859259 2.681455 0.048927 -0.010804 -43169.100000 0 0 1
7.852091 -11.254554 -27.702000 30.914739 -0.961628 2.681649 0.050657 -0.018644 5535.520000 0 0 1
7.938591 -12.352554 -26.814900 30.571975 -0.999593 2.640602 0.051289 -0.015360 -96501.400000 0 0 1
8.925591 -13.505254 -27.154210 31.613433 -0.986798 2.604003 0.044546 -0.022245 -8481.520000 0 0 1
8.527191 -14.369554 -28.240030 32.813052 -1.035229 2.607310 0.059240 -0.028738 -541654.000000 0 0 1
9.542991 -15.215054 -28.707080 33.862413 -1.010611 2.582537 0.045318 -0.036035 -195626.000000 0 0 1
9.058191 -16.122654 -29.884420 35.143553 -1.058916 2.587452 0.056291 -0.033623 -345.760000 0 0 1
8.734691 -15.370054 -31.045970 35.726540 -1.054017 2.623952 0.055043 -0.031556 12225.100000 0 0 1
7.945491 -16.205554 -31.836030 36.596224 -1.114943 2.625850 0.068677 -0.028901 -359614.000000 0 0 1
6.689491 -15.568554 -32.479420 36.633890 -1.164969 2.660727 0.067439 -0.021078 -47717.200000 0 0 1
6.901791 -14.456754 -33.328930 36.979048 -1.125384 2.693540 0.081869 -0.019307 -526505.000000 0 0 1
5.715891 -13.831954 -33.706280 36.879638 -1.178930 2.723718 0.043674 -0.025462 -215194.000000 0 0 1
5.967691 -12.608454 33.995795 36.746436 -1.128729 0.389378 0.090898 -0.021825 96218.500000 0 0 1
6.595691 -12.902954 32.770580 35.831555 -1.098247 0.416345 0.091022 -0.015558 117290.000000 0 0 1
6.692691 -11.643554 32.065673 34.764520 -1.049114 0.396631 0.091591 -0.026083 -168322.000000 0 0 1
7.216591 -11.747354 30.649803 33.607885 -1.019917 0.422705 0.082378 -0.016696 289854.000000 0 0 1
6.253291 -12.245654 29.712533 32.739797 -1.098662 0.433418 0.074727 -0.008427 865870.000000 0 0 1
6.755591 -12.063454 28.352063 31.543691 -1.060304 0.453729 0.068732 -0.005974 803814.000000 0 0 1
5.791791 -12.801654 27.342123 30.741160 -1.145927 0.474699 0.054148 -0.017555 325216.000000 0 0 1
6.022891 -14.198854 27.357553 31.405706 -1.169619 0.513356 0.058571 -0.013790 -135270.000000 0 0 1
5.592891 -14.910154 26.232873 30.688056 -1.211933 0.545586 0.032694 -0.013504 -2007.700000 0 0 1
4.096791 -15.267654 25.964293 30.397853 -1.308640 0.546884 0.040915 -0.020325 21935.800000 0 0 1
3.431491 -14.076354 25.618133 29.431406 -1.331683 0.514711 0.026179 -0.019549 -240898.000000 0 0 1
2.288391 -14.431454 24.842533 28.821087 -1.413536 0.531679 0.016610 -0.012427 -93219.200000 0 0 1
1.382691 -13.234754 24.684773 28.042977 -1.466700 0.494412 0.022860 -0.006328 -1062480.000000 0 0 1
1.738891 -12.395854 23.556413 26.675561 -1.431426 0.488429 -0.000513 -0.003553 476924.000000 0 0 1
0.805591 -11.304654 23.414823 26.013422 -1.499655 0.450785 0.001689 0.005287 2492140.000000 0 0 1
-0.744709 -11.675954 23.203523 25.986265 1.507101 0.467018 0.022257 0.002913 951042.000000 0 0 1
-0.925409 -12.347154 21.960823 25.210838 1.495987 0.513386 0.018536 0.004345 -227853.000000 0 0 1
-2.125709 -13.082254 21.933523 25.627006 1.409716 0.543555 0.031541 0.003293 -22435.900000 0 0 1
-2.531309 -13.647654 20.586823 24.829081 1.387405 0.593226 0.043818 -0.003043 -202214.000000 0 1 0
-1.559009 -14.511954 20.075623 24.820515 1.463777 0.628633 0.051076 -0.014038 -567553.000000 0 1 0
-1.848709 -15.079054 18.835723 24.198762 1.448804 0.678722 0.052946 -0.023636 351574.000000 0 1 0
-2.780109 -16.351054 18.864023 25.118466 1.402381 0.721218 0.041196 -0.019613 495229.000000 0 0 1
-2.416009 -17.375954 17.918423 25.076498 1.432639 0.774815 0.028813 -0.016116 -804239.000000 0 0 1
-3.241509 -18.456354 18.149823 26.087554 1.396938 0.801364 0.037528 -0.002175 -267727.000000 0 0 1
-2.982509 -19.762454 17.374123 26.482260 1.421009 0.855201 0.039859 -0.004200 270975.000000 0 0 1
-1.841909 -20.480754 17.819723 27.210227 1.481104 0.856758 0.034607 -0.011813 -163527.000000 0 0 1
-1.932809 -21.909554 17.647723 28.199405 1.482806 0.894615 0.038402 -0.018261 439685.000000 0 0 1
-0.752809 -22.709754 18.331223 29.194750 1.537659 0.891951 0.045897 -0.009381 312214.000000 0 0 1
0.401591 -22.675154 17.558523 28.681451 -1.553088 0.911968 0.064332 -0.018054 -905636.000000 0 0 1
1.325891 -23.669854 17.960123 29.741991 -1.514839 0.922456 0.064519 -0.006940 -157488.000000 0 0 1
2.698491 -23.521754 17.289423 29.316871 -1.456572 0.940056 0.054518 -0.014340 -219174.000000 0 0 1
3.244191 -22.247254 17.566623 28.531585 -1.425993 0.907534 0.051529 -0.013168 -1216880.000000 0 0 1
4.385391 -22.068354 16.825323 28.095114 -1.374633 0.928707 0.041429 -0.011228 -818125.000000 0 0 1
4.931691 -20.669654 17.100723 27.276197 -1.336580 0.893168 0.043149 -0.006280 -567599.000000 0 0 1
5.431091 -20.541354 18.419623 28.119859 -1.312313 0.856561 0.042068 -0.005227 -42226.400000 0 0 1
6.007191 -19.251254 18.793823 27.566373 -1.268329 0.820622 0.044052 -0.002954 397269.000000 0 0 1
7.231891 -18.692854 18.075923 26.990036 -1.201651 0.836957 0.057788 -0.007698 -621187.000000 0 0 1
6.827791 -18.266354 16.775923 25.723725 -1.213086 0.860369 0.043794 -0.006306 -200221.000000 0 0 1
7.868091 -17.673254 16.044723 25.133323 -1.151943 0.878399 0.056950 -0.005851 -345343.000000 0 0 1
7.484991 -16.608454 15.025823 23.614428 -1.147382 0.881106 0.046765 0.000119 96744.500000 0 1 0
6.659991 -17.180454 14.003123 23.143270 -1.200982 0.920952 0.037459 0.000815 46739.900000 0 1 0
6.039891 -16.216054 13.255423 21.797865 -1.214251 0.917123 0.027945 -0.004213 -187272.000000 0 1 0
6.221391 -16.513454 11.772923 21.213241 -1.210495 0.982457 0.023376 -0.006881 827482.000000 0 1 0
7.569591 -16.111754 11.466223 21.174551 -1.131585 0.998565 0.029454 -0.004600 614636.000000 0 1 0
7.904091 -16.424654 10.151723 20.863878 -1.122274 1.062638 0.027000 -0.007035 -353197.000000 0 1 0
9.371791 -16.042654 10.000623 21.099992 -1.042091 1.077010 0.032986 -0.005361 -130543.000000 0 1 0
10.018091 -16.564154 8.830123 21.276852 -1.026851 1.142842 0.036821 -0.005344 838328.000000 0 1 0
11.381591 -16.107554 8.712823 21.561707 -0.955655 1.154815 0.034657 -0.007305 1071680.000000 0 1 0
12.281691 -17.032554 7.868523 22.424573 -0.946068 1.212277 0.042990 -0.011758 -48259.300000 0 1 0
12.522091 -18.263554 8.506723 23.721815 -0.969778 1.204025 0.057823 -0.016129 319692.000000 0 1 0
13.289691 -19.143754 7.654423 24.529358 -0.963970 1.253445 0.062989 -0.019666 470292.000000 0 1 0
13.960191 -20.329254 8.357823 26.038792 -0.969049 1.244037 0.073079 -0.024332 -509951.000000 0 0 1
12.987791 -21.200054 8.785123 26.368606 -1.021142 1.231137 0.073824 -0.023569 -589628.000000 0 0 1
13.541891 -22.321054 9.349323 27.731248 -1.025474 1.226919 0.063188 -0.017683 56447.400000 0 0 1
12.468191 -23.226154 10.008223 28.197066 -1.078131 1.207948 0.068744 -0.020618 96241.400000 0 0 1
12.243091 -22.689554 11.306623 28.152244 -1.075979 1.157507 0.075023 -0.026979 159434.000000 0 0 1
11.210091 -23.232754 12.158423 28.517613 -1.121236 1.130345 0.078411 -0.020243 336838.000000 0 0 1
11.394191 -24.639354 12.804723 30.014768 -1.137647 1.130051 0.071964 -0.016093 687762.000000 0 0 1
12.566391 -24.769454 13.659223 30.951808 -1.101299 1.113743 0.049197 -0.010230 875490.000000 0 0 1
12.690091 -26.091054 14.148623 32.279483 -1.118106 1.117072 0.039764 -0.012252 -299518.000000 0 0 1
13.992291 -26.256694 14.919123 33.283305 -1.081174 1.105994 0.034478 -0.012862 -392553.000000 0 0 1
13.899691 -25.650324 16.206423 33.373473 -1.074200 1.063738 0.032974 -0.006501 71357.900000 0 0 1
14.903291 -26.139714 17.057323 34.588221 -1.052622 1.055085 0.035681 -0.005808 -287938.000000 0 0 1
14.657891 -25.758814 18.524223 34.950209 -1.053450 1.012175 0.032788 -0.002031 24763.500000 0 0 1
14.720691 -24.413654 18.837823 34.169999 -1.028196 0.986878 0.009157 -0.004262 1034380.000000 0 0 1
16.014091 -24.067754 19.398123 34.813720 -0.983688 0.979789 0.012820 -0.006003 858420.000000 0 0 1
16.212691 -22.570254 19.602123 34.007513 -0.947880 0.956473 0.005713 -0.014925 86376.400000 0 0 1
16.622291 -21.856954 18.440823 33.077046 -0.920607 0.979411 0.005412 -0.008869 -145859.000000 0 0 1
15.533691 -21.168354 17.926023 31.792091 -0.937733 0.971754 0.021316 -0.007670 -802285.000000 0 0 1
15.940891 -20.257254 16.719923 30.724976 -0.904080 0.995385 0.006718 -0.010549 222926.000000 0 0 1
16.755091 -19.169554 17.160123 30.703008 -0.852506 0.977729 -0.000311 -0.004143 451628.000000 0 0 1
18.161091 -19.344754 17.050623 31.539951 -0.816947 0.999641 0.011662 -0.005616 2419.490000 0 0 1
18.820091 -18.042754 17.501123 31.401053 -0.764314 0.979615 0.030193 -0.003022 -510533.000000 0 0 1
18.800891 -17.889854 18.857923 32.080238 -0.760573 0.942415 0.023454 -0.005038 113110.000000 0 0 1
19.254391 -16.590554 19.156723 31.827003 -0.711219 0.924916 0.036700 -0.009030 -229811.000000 0 0 1
19.768591 -16.557054 20.590923 32.998778 -0.697218 0.896957 0.039148 -0.004304 -197495.000000 0 0 1
21.102291 -16.997854 20.691923 34.093833 -0.678084 0.918628 0.036831 0.000140 -358585.000000 0 0 1
21.467291 -16.870754 22.028823 35.081847 -0.666073 0.891910 0.038739 0.009188 17047.000000 0 0 1
33.053636 -1.127254 -7.240210 33.856081 -0.034091 1.786313 0.112184 -0.033469 -1047750.000000 0 0 1
34.250526 -0.973654 -7.888510 35.160704 -0.028420 1.797078 0.086516 -0.033721 -550751.000000 0 0 1
34.957136 -2.195554 -8.142110 35.959919 -0.062725 1.799199 0.090495 -0.044308 483255.000000 0 0 1
-35.643321 -1.890654 -8.845710 36.773190 0.052994 1.813727 0.061826 -0.035191 168446.000000 0 0 1
-34.736734 -2.939354 -8.608410 35.908011 0.084417 1.812889 0.080433 -0.034255 292542.000000 0 0 1
-33.418759 -2.612054 -9.058010 34.722958 0.078003 1.834715 0.151406 -0.041083 371407.000000 0 0 1
-32.414869 -3.741954 -8.823010 33.801945 0.114931 1.834876 0.153437 -0.039123 -211343.000000 0 0 1
-31.965459 -3.816654 -7.443010 33.041728 0.118837 1.798007 0.125460 -0.043052 -258893.000000 0 0 1
-30.997659 -4.799354 -7.305810 32.206576 0.153610 1.799630 0.118223 -0.041985 -450454.000000 0 0 1
-30.367969 -4.748854 -5.915810 31.301150 0.155121 1.760937 0.099753 -0.049149 -272333.000000 0 0 1
-29.733829 -3.555354 -5.583110 30.461652 0.119008 1.755122 0.102591 -0.046451 249845.000000 0 0 1
-29.344019 -3.564154 -4.214810 29.858655 0.120869 1.712428 0.107734 -0.048186 -189437.000000 0 0 1
-29.198249 -2.188954 -3.493410 29.487848 0.074829 1.689545 0.116779 -0.042318 -338160.000000 0 0 1
-27.898849 -1.662454 -3.614410 28.181084 0.059518 1.699407 0.098226 -0.037621 353852.000000 0 0 1
-27.930159 -0.309454 -3.170610 28.111249 0.011079 1.683825 0.105071 -0.046065 264391.000000 0 0 1
-26.506909 0.204246 -2.798710 26.655032 -0.007705 1.675988 0.113371 -0.029140 84460.100000 0 0 1
-25.995959 -0.212054 -1.563710 26.043810 0.008157 1.630874 0.091596 -0.025387 1762790.000000 0 0 1
-24.559509 0.038346 -1.497510 24.605152 -0.001561 1.631696 0.079431 -0.019912 1592990.000000 0 1 0
-23.883109 -0.685254 -0.277110 23.894545 0.028684 1.582394 0.050989 -0.017307 -191460.000000 0 1 0
-24.043209 -2.090654 -0.243010 24.135157 0.086736 1.580865 0.056798 -0.018802 530120.000000 0 1 0
-23.235509 -2.722954 0.761290 23.406899 0.116657 1.538266 0.036538 -0.012687 -334768.000000 0 1 0
-23.158309 -4.253054 0.708490 23.556267 0.181627 1.540715 0.028530 -0.008801 -180971.000000 0 1 0
-24.382809 -4.899854 0.996190 24.890206 0.198314 1.530762 0.030929 -0.007637 184969.000000 0 1 0
-24.265709 -6.289154 1.197390 25.096052 0.253599 1.523066 0.012886 -0.007022 -176747.000000 0 0 1
-25.522699 -6.979254 1.770990 26.518947 0.266927 1.503965 0.039240 -0.004976 -22014.500000 0 0 1
-25.638259 -7.049354 3.124790 26.772711 0.268324 1.453814 0.041111 -0.004107 413814.000000 0 0 1
-26.942379 -7.495754 3.461890 28.179120 0.271352 1.447632 0.058402 0.001313 229378.000000 0 0 1
-27.246379 -7.590054 4.956590 28.714837 0.271683 1.397313 0.052882 -0.002480 45780.400000 0 0 1
-26.569489 -8.682154 5.628990 28.513209 0.315833 1.372074 0.061301 0.013376 340093.000000 0 0 1
-26.437059 -8.577754 7.054290 28.675058 0.313743 1.322237 0.048541 0.008392 173559.000000 0 0 1
-25.669019 -7.423854 7.787090 27.832551 0.281533 1.287228 0.054249 0.008526 224092.000000 0 0 1
-24.259109 -7.451854 7.614590 26.495594 0.298029 1.279295 0.071112 -0.004438 181877.000000 0 0 1
-23.773209 -6.190654 7.993490 25.833806 0.254747 1.256214 0.063416 -0.009771 -1194080.000000 0 0 1
-22.383409 -6.039354 7.451590 24.351940 0.263538 1.259812 0.075465 -0.012509 -612250.000000 0 1 0
-21.348109 -6.588454 8.281790 23.827244 0.299346 1.215811 0.073264 -0.025571 1797210.000000 0 1 0
-20.033009 -6.331054 7.681790 22.369926 0.306099 1.220264 0.063976 -0.024139 1373100.000000 0 1 0
-18.856909 -6.671154 8.613190 21.777841 0.340036 1.164181 0.065071 -0.027773 -224968.000000 0 1 0
-18.689009 -5.783054 9.709390 21.840216 0.300091 1.110108 0.053386 -0.022665 -45706.000000 0 1 0
-17.713309 -6.229054 10.620790 21.572288 0.338152 1.056026 0.048836 -0.024628 -175397.000000 0 1 0
-17.338309 -5.193454 11.672090 21.536634 0.291031 0.998023 0.025944 -0.014642 403241.000000 0 1 0
-18.361409 -5.038954 12.673490 22.872467 0.267838 0.983522 0.039971 -0.020513 565041.000000 0 1 0
-18.427909 -3.727954 13.105390 22.918044 0.199605 0.962053 0.041048 -0.014910 -194209.000000 0 1 0
-19.714309 -3.444254 13.896590 24.364566 0.172963 0.963851 0.046139 -0.024990 -100742.000000 0 1 0
-19.738509 -4.018754 15.183990 25.225239 0.200854 0.924872 0.060291 -0.020924 106345.000000 0 0 1
-21.015209 -3.896654 15.766090 26.559227 0.183338 0.935247 0.052324 -0.013647 -7799.930000 0 0 1
-20.920709 -4.739054 17.091590 27.427307 0.222765 0.898020 0.043270 -0.003601 10976.500000 0 0 1
-21.993109 -4.556354 17.973090 28.766112 0.204282 0.895920 0.038679 -0.008136 306327.000000 0 0 1
-21.624409 -5.305454 19.108490 29.341051 0.240593 0.861560 0.038602 -0.007468 211186.000000 0 0 1
-22.540509 -5.006154 20.340290 30.771148 0.218549 0.848621 0.043495 -0.005948 -187275.000000 0 0 1
-22.400309 -3.650354 20.789190 30.778066 0.161540 0.829215 0.049856 -0.006170 452048.000000 0 0 1
-23.051809 -3.496954 22.060590 32.098041 0.150552 0.813048 0.052924 -0.013081 -9404.910000 0 0 1
-23.082009 -2.007254 22.421790 32.241974 0.086744 0.801789 0.046173 -0.006369 -62022.600000 0 0 1
-23.980609 -1.123154 21.773490 32.410121 0.046802 0.834145 0.053330 -0.011903 26008.500000 0 0 1
-23.854409 0.256546 22.125690 32.536822 -0.010754 0.823006 0.049219 -0.012473 304491.000000 0 0 1
-25.169169 0.934146 21.649590 33.212414 -0.037098 0.860772 0.050030 -0.013756 771820.000000 0 0 1
-26.300559 0.721946 22.481990 34.607521 -0.027443 0.863702 0.052003 -0.014829 -647440.000000 0 0 1
-27.427759 1.406846 22.061490 35.227412 -0.051248 0.894051 0.034105 -0.009335 -648459.000000 0 0 1
-28.393419 1.401746 23.275290 36.740853 -0.049329 0.884729 0.033340 -0.009711 -619013.000000 0 0 1
-27.947489 2.040946 24.449290 37.188646 -0.072898 0.853381 0.036973 -0.010867 -246543.000000 0 0 1
-28.829459 1.831746 25.505390 38.535930 -0.063452 0.847499 0.034680 -0.011337 -600383.000000 0 0 1
-28.513039 2.637646 26.772990 39.201321 -0.092244 0.818987 0.050172 -0.016069 291643.000000 0 0 1
-27.299189 2.231946 27.399990 38.742570 -0.081577 0.785221 0.040811 -0.025304 376691.000000 0 0 1
-27.028499 3.099646 28.450390 39.364607 -0.114182 0.763037 0.037744 -0.025117 270489.000000 0 0 1
-25.746079 2.707646 29.248990 39.060150 -0.104782 0.724518 0.058792 -0.028621 248205.000000 0 0 1
-25.865569 1.510946 29.927290 39.584761 -0.058349 0.713569 0.053530 -0.023553 171574.000000 0 0 1
-24.701109 1.171446 30.648790 39.381029 -0.047389 0.678902 0.039182 -0.031847 14312.000000 0 0 1
-24.980009 -0.057754 31.619290 40.296199 0.002312 0.668630 0.036335 -0.041179 -116937.000000 0 0 1
-25.191429 -1.163954 30.783290 39.794143 0.046172 0.686351 0.044192 -0.028212 -438808.000000 0 0 1
-25.595039 -2.345454 31.469590 40.631789 0.091382 0.684862 0.041083 -0.012804 -1108390.000000 0 0 1
-26.459349 -3.176554 30.521490 40.518502 0.119482 0.717772 0.030949 -0.010105 206000.000000 0 0 1
-27.781559 -2.703154 30.264890 41.171418 0.096995 0.744990 0.043339 -0.016025 397356.000000 0 0 1
-27.821269 -1.525654 29.426490 40.524918 0.054783 0.758115 0.043263 -0.016316 -41851.200000 0 0 1
-29.286879 -1.042154 29.064890 41.274389 0.035569 0.789519 0.036877 -0.019806 1377730.000000 0 0 1
-29.999999 -0.776554 30.257690 42.616086 0.025879 0.781289 0.037813 -0.007016 625452.000000 0 0 1
-31.388509 -0.456354 30.002990 43.423797 0.014538 0.808016 0.033654 -0.009679 1167370.000000 0 0 1
-32.204559 -0.092854 31.238590 44.866377 0.002883 0.800625 0.040652 0.003388 -292061.000000 0 0 1
-32.465319 -1.165954 32.115690 45.681221 0.035898 0.791134 0.044352 0.006041 -158558.000000 0 0 1
-32.926309 -0.839954 33.382290 46.895892 0.025505 0.778684 0.064190 0.006679 60530.800000 0 0 1
-33.239899 -2.131354 34.199990 47.739636 0.064033 0.772188 0.062313 0.005726 93123.700000 0 0 1
-34.192679 -2.978254 33.586190 48.021261 0.086883 0.796235 0.052890 0.002825 68168.900000 0 0 1
-34.163174 -4.279354 34.184990 48.518542 0.124613 0.788971 0.045340 0.001440 -391023.000000 0 0 1
-35.306758 -5.167054 33.691290 49.075133 0.145316 0.814098 0.047207 -0.004903 -220346.000000 0 0 1
35.448766 -4.789554 -34.229443 49.509692 -0.134299 2.334178 0.054644 -0.013272 -567999.000000 0 0 1
34.373646 -5.470254 33.759890 48.489188 -0.157818 0.800657 0.048351 -0.018643 -1247370.000000 0 0 1
33.047196 -4.985854 -34.244143 47.850154 -0.149741 2.368356 0.061813 -0.018463 -961399.000000 0 0 1
32.626886 -5.495154 -32.959643 46.701697 -0.166858 2.354275 0.063710 -0.021334 278565.000000 0 0 1
32.117296 -6.839054 -33.032943 46.577556 -0.209806 2.359163 0.063659 -0.020010 634455.000000 0 0 1
30.664356 -6.987454 -33.645443 46.055869 -0.224043 2.389902 0.060105 -0.023361 361670.000000 0 0 1
29.685356 -6.386354 -32.863643 44.743993 -0.211905 2.395699 0.064969 -0.021736 -579778.000000 0 0 1
28.403306 -6.778754 -33.269743 44.267089 -0.234278 2.421233 0.064175 -0.021291 36452.000000 0 0 1
27.205926 -6.369754 -32.336843 42.736490 -0.229988 2.428980 0.073169 -0.034852 498069.000000 0 0 1
26.067156 -7.126754 -32.729743 42.444356 -0.266878 2.451397 0.073988 -0.029818 -685536.000000 0 0 1
24.972256 -6.792554 -31.946643 41.113749 -0.265579 2.460731 0.076535 -0.030819 -796204.000000 0 0 1
23.696456 -7.394254 -32.606643 40.980364 -0.302466 2.490901 0.069722 -0.036857 -76620.200000 0 0 1
23.499856 -8.762654 -32.315843 40.906492 -0.356912 2.481594 0.077225 -0.044461 167201.000000 0 0 1
22.878456 -9.002054 -31.070343 39.621042 -0.374867 2.472183 0.086269 -0.047399 -513900.000000 0 0 1
22.630756 -10.494754 -30.851243 39.674806 -0.434220 2.461641 0.079491 -0.035919 -551861.000000 0 0 1
21.688156 -11.075354 -31.693543 39.968991 -0.472142 2.486437 0.087904 -0.043302 -333926.000000 0 0 1
21.630256 -12.459454 -31.447443 40.150313 -0.522600 2.470661 0.073618 -0.028311 -769623.000000 0 0 1
20.476356 -13.193954 -32.193543 40.370606 -0.572394 2.493854 0.061339 -0.024160 913015.000000 0 0 1
19.173556 -12.867254 -31.670143 39.194253 -0.591061 2.511597 0.056988 -0.029860 510292.000000 0 0 1
18.715956 -11.710854 -32.398443 39.205743 -0.559113 2.543427 0.051706 -0.035609 -175923.000000 0 0 1
17.294156 -11.235154 -31.897043 37.983390 -0.576129 2.567643 0.036084 -0.035340 481749.000000 0 0 1
16.271656 -11.852454 -32.633743 38.343300 -0.629540 2.588861 0.012353 -0.021496 -685978.000000 0 0 1
15.059856 -11.723454 -31.928043 37.197293 -0.661466 2.602828 0.022574 -0.022993 -573605.000000 0 0 1
13.862256 -12.084154 -32.773643 37.580588 -0.716975 2.630253 0.022451 -0.019267 -1693640.000000 0 0 1
13.595556 -13.436454 -32.977943 38.117216 -0.779513 2.616289 0.037155 -0.018116 1315540.000000 0 0 1
12.290956 -13.770254 -33.537243 38.280990 -0.842100 2.638469 0.031754 -0.015555 1127770.000000 0 0 1
11.074456 -13.592954 -32.624043 37.037011 -0.887144 2.648451 0.029623 -0.011820 -750299.000000 0 0 1
10.909156 -12.253154 -32.199343 36.137891 -0.843358 2.670369 0.081483 -0.012281 -449946.000000 0 0 1
9.918256 -12.145354 -31.202843 34.921324 -0.885997 2.675917 0.072479 -0.016496 216923.000000 0 0 1
8.657456 -11.366054 -31.649843 34.725370 -0.919853 2.717550 0.054745 -0.008656 -119868.000000 0 0 1
8.919656 -10.012554 -31.998543 34.694643 -0.843061 2.744762 0.056819 -0.007232 321148.000000 0 0 1
7.793756 -9.326054 -32.530643 34.726945 -0.874665 2.784037 0.053063 -0.001156 108461.000000 0 0 1
8.116156 -7.831054 -32.827043 34.710404 -0.767522 2.810663 0.055639 -0.001835 -84753.600000 0 0 1
8.381856 -7.060154 -31.686443 33.528078 -0.700015 2.808611 0.046195 -0.003887 242412.000000 0 0 1
8.874756 -5.772154 -32.010443 33.715687 -0.576657 2.822189 0.038707 -0.002426 -206519.000000 0 0 1
9.036556 -4.860554 -30.795243 32.459688 -0.493488 2.819967 0.037036 -0.010003 -749160.000000 0 0 1
7.858956 -4.418454 -30.224943 31.540975 -0.512176 2.851703 0.034225 -0.010091 -976786.000000 0 0 1
8.025456 -3.475254 -29.166743 30.449700 -0.408651 2.850275 0.035864 -0.009065 -752107.000000 0 0 1
6.811156 -2.790954 -28.621443 29.552805 -0.388894 2.889870 0.033782 -0.011060 -1383320.000000 0 0 1
6.071856 -1.988554 -29.525643 30.209028 -0.316495 2.928484 0.023481 -0.006146 1249240.000000 0 0 1
4.835656 -1.473654 -28.957443 29.395387 -0.295807 2.968760 0.030356 -0.009975 1070540.000000 0 0 1
3.610556 -2.407254 -28.899243 29.223231 -0.588044 2.992548 0.029594 -0.005899 -771366.000000 0 0 1
3.767756 -3.502754 -28.032443 28.500582 -0.748965 2.960095 0.038089 -0.017110 -389234.000000 0 0 1
2.720156 -4.443454 -27.921543 28.403453 -1.021475 2.957122 0.053478 -0.016928 -278643.000000 0 0 1
2.902856 -5.557454 -26.902743 27.623712 -1.089440 2.912621 0.054842 -0.023216 -379610.000000 0 0 1
2.747856 -5.088754 -25.592443 26.237746 -1.075674 2.919350 0.055786 -0.026154 72460.500000 0 0 1
3.222056 -6.012954 -24.589943 25.518671 -1.078880 2.870975 0.059254 -0.029902 57973.700000 0 0 1
3.146756 -5.423154 -23.157343 23.991149 -1.045029 2.877177 0.051615 -0.034209 145002.000000 0 1 0
4.228156 -4.583354 -22.808043 23.645111 -0.825687 2.874714 0.043398 -0.031714 104670.000000 0 1 0
3.896056 -3.935254 -21.574143 22.273508 -0.790403 2.890337 0.031805 -0.030808 -10656.600000 0 1 0
4.731556 -2.682554 -21.292443 21.976166 -0.515763 2.891494 0.032193 -0.028255 -465661.000000 0 1 0
6.010056 -3.002354 -20.838843 21.895029 -0.463292 2.829722 0.030215 -0.031295 -788821.000000 0 1 0
6.786856 -1.855154 -20.679243 21.843400 -0.266827 2.813642 0.037254 -0.017211 -431576.000000 0 1 0
8.266656 -2.013254 -20.319343 22.028766 -0.238889 2.745046 0.046675 -0.020290 -1495120.000000 0 1 0
8.943656 -2.431954 -21.484043 23.398024 -0.265500 2.734306 0.054181 -0.027599 688241.000000 0 1 0
10.166256 -3.176554 -21.307343 23.821128 -0.302849 2.678046 0.046558 -0.025399 819241.000000 0 1 0
11.325556 -2.504054 -20.585843 23.628700 -0.217597 2.628483 0.046795 -0.023146 -1336640.000000 0 1 0
11.045756 -2.388054 -19.210943 22.288380 -0.212920 2.609853 0.040462 -0.013340 516580.000000 0 1 0
12.129156 -1.781754 -18.480843 22.177300 -0.145855 2.555888 0.041056 -0.020949 240526.000000 0 1 0
12.246156 -0.258854 -18.532943 22.214980 -0.021134 2.557575 0.030959 -0.020308 8533.110000 0 1 0
12.872956 0.247246 -19.695043 23.530169 0.019204 2.562597 0.040338 -0.024636 232089.000000 0 1 0
13.013756 1.672346 -19.621443 23.604144 0.127806 2.552187 0.065135 -0.035729 69600.400000 0 1 0
13.499856 2.425846 -20.895043 24.994673 0.177797 2.560712 0.067103 -0.033011 1262840.000000 0 1 0
14.889756 2.249046 -21.290643 26.077855 0.149913 2.525991 0.064157 -0.027483 1309660.000000 0 0 1
15.224356 3.300346 -22.150043 27.079471 0.213478 2.528660 0.071312 -0.033037 -70996.800000 0 0 1
16.666656 3.410446 -22.729243 28.390616 0.201841 2.499076 0.051580 -0.026487 363982.000000 0 0 1
17.011356 2.452546 -23.678543 29.258753 0.143185 2.513723 0.048703 -0.020558 58106.100000 0 0 1
17.222156 1.143546 -23.202943 28.918626 0.066302 2.502023 0.028901 -0.012693 -923357.000000 0 0 1
9.037391 27.232046 3.701590 28.930270 1.250367 1.442496 -0.020648 0.016648 7846.400000 0 0 1
9.193591 27.503246 5.080990 29.440909 1.248200 1.397345 -0.011485 0.012274 2504.230000 0 0 1
10.509991 27.854746 5.429890 30.262691 1.209998 1.390394 -0.004680 0.017843 -256423.000000 0 0 1
10.666891 28.443046 6.794190 31.127969 1.212003 1.350759 -0.002549 0.008722 -96812.600000 0 0 1
10.526791 27.375046 7.747190 30.335218 1.203688 1.312549 0.001603 0.001824 122982.000000 0 0 1
10.246591 28.007946 9.023690 31.158701 1.220075 1.276983 0.020309 -0.002626 -309684.000000 0 0 1
10.016291 26.941646 10.089790 30.462801 1.214854 1.233204 0.024437 -0.005898 492581.000000 0 0 1
11.174791 26.270346 10.612990 30.457226 1.168607 1.214873 0.021684 0.002082 864847.000000 0 0 1
11.921591 25.465346 9.660690 29.731080 1.132952 1.239853 0.021307 0.000881 -163791.000000 0 0 1
13.116691 24.759246 10.323690 29.860449 1.083618 1.217778 0.020853 -0.002779 -86322.300000 0 0 1
14.180191 25.677246 10.556490 31.174321 1.066229 1.225338 0.017184 0.000550 553688.000000 0 0 1
15.349491 24.978946 11.020090 31.320872 1.019785 1.211255 0.026768 0.000689 458766.000000 0 0 1
16.545491 25.913546 11.227990 32.731222 1.002556 1.220649 0.034029 -0.005646 -949146.000000 0 0 1
17.038291 26.570746 10.056190 33.127554 1.000602 1.262370 0.040103 -0.008453 -645711.000000 0 0 1
18.417891 26.511446 10.037690 33.805779 0.963626 1.269328 0.049062 -0.018947 -524623.000000 0 0 1
19.340191 27.290846 11.025290 35.219175 0.954276 1.252396 0.051143 -0.023879 -600057.000000 0 0 1
19.351391 28.763546 10.819390 36.316348 0.978577 1.268283 0.054171 -0.038818 1076160.000000 0 0 1
18.101291 29.414546 11.222190 36.315421 1.019141 1.256634 0.040566 -0.023932 1138310.000000 0 0 1
18.232291 30.842346 11.763790 37.710125 1.036913 1.253548 0.034604 -0.021113 -771322.000000 0 0 1
18.550891 31.874746 10.830790 38.437495 1.043722 1.285151 0.051891 -0.033254 -31532.200000 0 0 1
17.720191 32.097046 9.700390 37.925230 1.066356 1.312145 0.048131 -0.034225 -164825.000000 0 0 1
16.346091 32.724146 9.920090 37.900826 1.107540 1.305974 0.040685 -0.024518 -376360.000000 0 0 1
16.396291 34.074646 10.199090 39.165563 1.122312 1.307350 0.037205 -0.023786 519634.000000 0 0 1
15.092591 -34.029113 10.203890 38.599044 -1.153344 1.303260 0.042920 -0.014421 622178.000000 0 0 1
15.242091 -32.543113 10.464190 37.428263 -1.132775 1.287440 0.037786 -0.004937 -310561.000000 0 0 1
15.939491 -31.872513 9.473490 36.873724 -1.107068 1.310965 0.050425 -0.009904 -153820.000000 0 0 1
15.804691 -30.478413 9.574390 35.642543 -1.092416 1.298834 0.056512 -0.008206 -22673.700000 0 0 1
16.630491 -29.767813 8.474690 35.135684 -1.061318 1.327195 0.042651 -0.006747 -211460.000000 0 0 1
16.132791 -29.961513 7.176590 34.777330 -1.076864 1.362945 0.034386 -0.007362 -6402.070000 0 0 1
16.932291 -29.402413 6.139890 34.480467 -1.048300 1.391773 0.033090 -0.002949 -102471.000000 0 0 1
16.358491 -29.610013 4.768890 34.162778 -1.066063 1.430746 0.033974 -0.004838 -432758.000000 0 0 1
16.434791 -30.924713 4.250290 35.277545 -1.082310 1.450021 0.039798 -0.010705 -101737.000000 0 0 1
16.162491 -30.955913 2.827290 35.035528 -1.089615 1.490011 0.036722 -0.004694 -120000.000000 0 0 1
16.259691 -32.366913 2.251390 36.291368 -1.105266 1.508720 0.021251 -0.009103 708667.000000 0 0 1
17.608791 -32.872013 2.138190 37.352518 -1.079016 1.513521 0.030902 -0.004105 948020.000000 0 0 1
17.714791 -34.158313 1.548790 38.509777 -1.092373 1.530567 0.047127 -0.011189 -942425.000000 0 0 1
19.087691 33.909446 1.647490 38.947461 1.058102 1.528483 0.051270 -0.018137 -591886.000000 0 0 1
19.559091 33.727146 2.993790 39.102956 1.045271 1.494160 0.055697 -0.036471 459870.000000 0 0 1
20.926991 33.328046 2.925490 39.462084 1.010108 1.496594 0.066442 -0.033515 303896.000000 0 0 1
21.624291 33.255546 4.283490 39.898491 0.994248 1.463229 0.065453 -0.040573 -388619.000000 0 0 1
21.156291 32.240446 5.111190 38.899348 0.990073 1.439020 0.071189 -0.043097 -167433.000000 0 0 1
21.943791 31.077546 5.071090 38.380461 0.955990 1.438282 0.051136 -0.045514 -269550.000000 0 0 1
21.479491 30.058246 6.162090 37.454480 0.950342 1.405523 0.054012 -0.037369 701099.000000 0 0 1
20.109591 29.711646 5.936190 36.365037 0.975794 1.406824 0.051195 -0.027834 57978.600000 0 0 1
19.461091 29.467946 7.148890 36.030550 0.987134 1.371059 0.048970 -0.039912 659719.000000 0 0 1
17.901191 29.302146 6.963590 35.036552 1.022388 1.370712 0.063487 -0.025995 997735.000000 0 0 1
17.123191 30.424846 6.565490 35.524366 1.058177 1.384911 0.048290 -0.029266 475.371000 0 0 1
17.413991 30.982346 5.289390 35.932304 1.058740 1.423055 0.065767 -0.031156 -734466.000000 0 0 1
17.461091 32.510146 5.359290 37.289694 1.077914 1.426576 0.072913 -0.028980 1180990.000000 0 0 1
16.155691 33.104546 5.569690 37.255050 1.116778 1.420732 0.052302 -0.027426 924444.000000 0 0 1
16.273591 -34.200213 5.702190 38.301427 -1.126669 1.421364 0.051648 -0.028626 574095.000000 0 0 1
14.847791 -33.536713 5.771390 37.127846 -1.154003 1.414717 0.038448 -0.024833 793425.000000 0 0 1
14.147691 -33.678813 4.537290 36.810415 -1.173103 1.447221 0.028231 -0.017931 -655259.000000 0 0 1
13.064191 -32.797913 4.577590 35.599586 -1.191736 1.441854 0.018934 -0.011172 -428106.000000 0 0 1
12.202191 -32.793513 3.317390 35.147021 -1.214578 1.476270 0.015156 -0.008753 1514010.000000 0 0 1
11.004291 -31.916213 3.368190 33.927626 -1.238773 1.471357 0.024453 -0.013410 1703990.000000 0 0 1
10.408591 -31.783713 2.085390 33.509581 -1.254321 1.508523 0.036818 -0.014838 -988153.000000 0 0 1
9.655091 -30.479713 1.947390 32.031641 -1.264025 1.509963 0.050928 -0.013569 -461901.000000 0 0 1
9.168691 -30.145313 0.689690 31.516353 -1.275537 1.548911 0.059583 -0.013054 -162339.000000 0 0 1
8.152091 -30.957213 0.175090 32.013065 -1.313308 1.565327 0.053630 -0.013002 -807431.000000 0 0 1
8.613091 -31.514513 -1.204210 32.692507 -1.304006 1.607639 0.069282 -0.018154 -6743.960000 0 0 1
9.644591 -32.462413 -1.043810 33.880908 -1.282002 1.601609 0.059879 -0.011809 -193544.000000 0 0 1
9.806991 -33.298213 -2.173510 34.780343 -1.284375 1.633330 0.068780 -0.006772 -959339.000000 0 0 1
11.055191 -34.119313 -2.090910 35.926546 -1.257455 1.629029 0.045741 -0.002897 -1013660.000000 0 0 1
11.087391 33.766846 -0.955210 35.553376 1.253536 1.597666 0.036945 0.003049 -530566.000000 0 0 1
12.077491 32.806446 -0.871610 34.969821 1.218050 1.595724 0.040432 -0.003575 -957737.000000 0 0 1
11.980291 31.891646 0.358290 34.069529 1.211451 1.560280 0.028821 -0.001379 -341091.000000 0 0 1
12.275291 32.566946 1.581190 34.839473 1.210339 1.525396 0.023675 -0.003759 2839330.000000 0 0 1
13.669891 33.104446 1.706490 35.856413 1.179191 1.523186 0.031129 -0.007339 2539190.000000 0 0 1
14.883391 32.163646 1.923690 35.492479 1.137399 1.516570 0.048060 -0.014736 -59195.100000 0 0 1
15.343591 31.522446 0.698490 35.065343 1.117804 1.550875 0.049656 -0.015443 109262.000000 0 0 1
16.306291 30.520146 0.943290 34.615953 1.080103 1.543543 0.064593 -0.014909 54985.100000 0 0 1
17.030591 29.931246 -0.319010 34.438674 1.053490 1.580060 0.063838 -0.011766 473322.000000 0 0 1
18.075791 30.681746 -0.950210 35.623120 1.038402 1.597473 0.054321 -0.004401 360474.000000 0 0 1
17.622591 31.750646 -1.727610 36.354420 1.064099 1.618336 0.062557 -0.016968 508929.000000 0 0 1
18.841291 32.564346 -2.289110 37.691788 1.046271 1.631566 0.052712 -0.008940 577857.000000 0 0 1
19.631391 33.271646 -1.366910 38.655690 1.037737 1.606165 0.044494 -0.004816 59244.800000 0 0 1
20.454291 34.162446 -2.086010 39.872323 1.031307 1.623137 0.036031 -0.004281 -1385050.000000 0 0 1
21.410491 -33.608413 -1.307910 39.870355 -1.003573 1.603606 0.039204 -0.007246 -1333920.000000 0 0 1
22.448691 -34.205213 -0.615910 40.918452 -0.990009 1.585849 0.035548 -0.012842 197538.000000 0 0 1
23.364691 33.593146 -1.246710 40.938521 0.963084 1.601254 0.033233 -0.004434 -426984.000000 0 0 1
24.198491 34.273646 -2.386210 42.023134 0.956030 1.627610 0.027593 -0.010597 -1195210.000000 0 0 1
23.538591 -34.110813 -3.580610 41.598481 -0.966771 1.656978 0.027600 -0.017589 -353685.000000 0 0 1
24.445491 -33.492113 -4.439510 41.701474 -0.940292 1.677458 0.034360 -0.010155 -413187.000000 0 0 1
23.891191 -32.891013 -5.696310 41.049430 -0.942588 1.710013 0.033652 -0.012152 -298452.000000 0 0 1
22.930891 -31.873413 -5.513610 39.650222 -0.947145 1.710305 0.027063 -0.010132 52162.200000 0 0 1
22.268291 -31.600413 -6.703910 39.235256 -0.956934 1.742503 0.026178 -0.016365 -330961.000000 0 0 1
21.253991 -30.457213 -6.605110 37.722691 -0.961527 1.746800 0.030349 -0.016926 -530083.000000 0 0 1
20.071191 -30.766613 -5.944110 37.212493 -0.992757 1.731218 0.040269 -0.012377 -455119.000000 0 0 1
19.305691 -29.557313 -5.792610 35.775673 -0.992202 1.733427 0.048951 -0.019406 453331.000000 0 0 1
18.087691 -29.602313 -4.851010 35.028472 -1.022311 1.709730 0.044076 -0.010787 -189767.000000 0 0 1
16.952391 -30.260613 -5.350910 35.095876 -1.060146 1.723859 0.048889 -0.017002 -570952.000000 0 0 1
15.956391 -30.080813 -4.363510 34.329316 -1.083086 1.698248 0.035884 -0.010800 280556.000000 0 0 1
14.630491 -30.854513 -4.635410 34.460692 -1.128020 1.705718 0.037039 -0.015814 325059.000000 0 0 1
14.780691 -32.243913 -4.724410 35.783499 -1.140977 1.703211 0.038142 -0.000752 216090.000000 0 0 1
13.514491 -32.848813 -4.981310 35.867805 -1.180488 1.710126 0.052767 0.000532 488274.000000 0 0 1
13.512091 34.322646 -5.197610 37.250984 1.195751 1.710783 0.050642 -0.006425 12835.400000 0 0 1
13.993891 33.511146 -4.115810 36.548130 1.175219 1.683649 0.051584 -0.012840 -13068.500000 0 0 1
14.189291 32.163146 -4.504810 35.441462 1.155313 1.698247 0.057013 -0.013569 205943.000000 0 0 1
12.968991 31.253146 -4.881710 34.187497 1.177455 1.714078 0.054484 -0.016081 -24503.800000 0 0 1
12.133891 30.793946 -3.873610 33.324215 1.195443 1.687300 0.044178 -0.005869 -303504.000000 0 0 1
12.580391 29.626246 -3.258310 32.351156 1.169233 1.671684 0.054166 -0.010389 -136846.000000 0 0 1
11.416591 28.778246 -2.654710 31.073678 1.193130 1.656333 0.034339 0.001776 590590.000000 0 0 1
10.714691 29.557246 -1.674810 31.483970 1.223024 1.624017 0.015420 0.005359 -67290.300000 0 0 1
9.833791 28.797146 -0.892010 30.442975 1.241727 1.600102 -0.000650 0.017616 678568.000000 0 0 1
8.750691 29.533546 0.003690 30.802678 1.282741 1.570677 -0.010246 0.028777 1212970.000000 0 0 1
7.931091 28.774946 0.894690 29.861350 1.301849 1.540830 -0.011336 0.021599 437193.000000 0 0 1
6.631291 29.305646 1.034190 30.064339 1.348264 1.536390 0.013029 0.024536 308868.000000 0 0 1
5.530991 28.583846 1.819990 29.170884 1.379658 1.508365 0.014987 0.017831 173086.000000 0 0 1
5.117491 27.377046 1.168290 27.875729 1.386003 1.528873 0.025095 0.007016 76623.100000 0 0 1
3.934391 26.848946 1.726490 27.190552 1.425294 1.507258 0.025845 -0.000640 212788.000000 0 0 1
3.356991 25.624946 0.906890 25.859809 1.440533 1.535720 0.032157 -0.005203 283169.000000 0 0 1
2.201791 25.091746 1.536790 25.235002 1.483271 1.509859 0.046057 -0.017387 228654.000000 0 0 1
1.465291 24.326846 0.572690 24.377664 1.510636 1.547302 0.035062 -0.015371 520381.000000 0 1 0
0.078791 23.855546 1.116090 23.881770 1.567494 1.524045 0.029949 -0.011434 674054.000000 0 1 0
-0.920509 24.873446 1.158790 24.917433 -1.533806 1.524274 0.041282 -0.014262 -1495670.000000 0 1 0
-2.131609 24.304546 0.980690 24.417544 -1.483316 1.530622 0.030133 -0.011603 -1823230.000000 0 1 0
-3.300109 25.241446 1.359890 25.492560 -1.440792 1.517426 0.045800 -0.023857 -307717.000000 0 0 1
-4.500209 24.482846 1.346790 24.929410 -1.389015 1.516746 0.037578 -0.020843 30898.800000 0 1 0
-5.506809 24.936746 2.216890 25.633588 -1.353453 1.484204 0.032271 -0.026621 -760372.000000 0 0 1
-6.707609 25.496346 1.510090 26.407121 -1.313544 1.513580 0.032787 -0.025909 -972440.000000 0 0 1
-6.472309 26.735346 0.899990 27.522345 -1.333278 1.538090 0.039285 -0.024237 -74166.600000 0 0 1
-7.382009 26.728446 -0.168010 27.729625 -1.301328 1.576855 0.033428 -0.016939 -290254.000000 0 0 1
-7.194409 27.782246 -1.292910 28.727762 -1.317405 1.615817 0.027511 -0.011714 -123532.000000 0 0 1
-7.366909 29.100146 -0.833010 30.029715 -1.322848 1.598539 0.039525 -0.023152 -49105.600000 0 0 1
-7.345009 29.980846 -1.921110 30.927188 -1.330538 1.632954 0.034443 -0.018918 -73667.900000 0 0 1
-7.507809 31.509646 -1.533710 32.428032 -1.336888 1.618110 0.029972 -0.016407 -605628.000000 0 0 1
-7.560109 32.431246 -2.612410 33.403079 -1.341774 1.649085 0.022684 0.000964 244146.000000 0 0 1
-6.402409 32.550046 -3.423910 33.349955 -1.376581 1.673644 0.011206 -0.000360 -5399.650000 0 0 1
-5.144009 33.198146 -2.843310 33.714420 -1.417070 1.655232 0.019767 -0.009997 -742054.000000 0 0 1
-5.238309 -34.053413 -2.833810 34.570295 1.418166 1.652861 0.014032 -0.002140 -235636.000000 0 0 1
-4.517209 -33.542313 -1.796910 33.892785 1.436930 1.623839 0.027597 -0.000817 -532808.000000 0 0 1
-4.282009 -32.013913 -1.815410 32.349992 1.437831 1.626944 0.027462 -0.007576 -72560.700000 0 0 1
-5.401709 -31.228613 -1.514010 31.728488 1.399518 1.618532 0.021746 -0.007484 -304644.000000 0 0 1
-5.117009 -29.898113 -1.826810 30.387797 1.401290 1.630949 0.031859 -0.006731 164708.000000 0 0 1
-6.393309 -29.036213 -1.751210 29.783264 1.354071 1.629629 0.040708 0.000834 273699.000000 0 0 1
-6.934909 -29.010413 -0.420910 29.830760 1.336151 1.584907 0.039571 0.000509 194749.000000 0 0 1
-8.210309 -28.398313 -0.308910 29.562963 1.289358 1.581246 0.035549 -0.002403 168364.000000 0 0 1
-8.274009 -27.952313 1.168990 29.174605 1.283009 1.530717 0.040353 -0.001196 -45684.000000 0 0 1
-7.466209 -26.874013 1.567290 27.935878 1.299808 1.514664 0.056429 -0.014195 -328797.000000 0 0 1
-7.447509 -26.708513 2.978590 27.886952 1.298860 1.463783 0.052675 -0.007352 -95578.200000 0 0 1
-8.362009 -25.613013 3.544090 27.175545 1.255231 1.440009 0.052634 -0.006385 -25373.300000 0 0 1
-8.234509 -24.341213 2.921190 25.861848 1.244587 1.457601 0.047227 -0.009023 219545.000000 0 0 1
-9.118309 -23.387513 3.589390 25.357505 1.199045 1.428768 0.047660 -0.004869 197556.000000 0 0 1
-8.587009 -21.969113 3.586290 23.858754 1.198188 1.419911 0.025224 0.015650 -122454.000000 0 1 0
-7.491809 -21.969413 4.470190 23.638209 1.242152 1.380542 0.025270 0.011901 -302611.000000 0 1 0
-6.921509 -20.676713 4.811290 22.328956 1.247772 1.353620 0.000257 0.005818 60869.000000 0 1 0
-7.824809 -19.733513 5.676090 21.974012 1.193290 1.309525 0.007101 0.003626 177570.000000 0 1 0
-8.090609 -20.327013 6.901390 22.940676 1.191996 1.265227 0.007799 0.007238 221751.000000 0 1 0
-8.921009 -19.440813 7.658690 22.719709 1.140582 1.226967 0.006524 0.012322 30508.100000 0 1 0
-27.220759 29.018546 -5.927110 40.226563 -0.817354 1.718678 0.068368 -0.015385 -41408.000000 0 0 1
-26.657899 29.563646 -4.782710 40.093978 -0.837036 1.690369 0.048877 -0.025151 -1287400.000000 0 0 1
-25.427119 29.078346 -4.426210 38.880328 -0.852287 1.684886 0.045954 -0.023012 -532717.000000 0 0 1
-24.622109 30.021346 -3.469510 38.981624 -0.883887 1.659918 0.036262 -0.019729 7576.970000 0 0 1
-25.072819 29.919046 -2.123810 39.093556 -0.873297 1.625149 0.032269 -0.024237 106185.000000 0 0 1
-24.500109 30.800346 -1.182310 39.374034 -0.898836 1.600828 0.037821 -0.026320 573455.000000 0 0 1
-23.052209 30.574646 -0.651710 38.296711 -0.924763 1.587815 0.036458 -0.018885 816624.000000 0 0 1
-21.961809 30.667846 -1.547710 37.752262 -0.949334 1.611804 0.043045 -0.029174 291065.000000 0 0 1
-20.720909 30.592146 -0.880610 36.959585 -0.975449 1.594625 0.037079 -0.028573 699217.000000 0 0 1
-19.462609 30.374946 -1.809210 36.120683 -1.000954 1.620905 0.048550 -0.031397 1221520.000000 0 0 1
-18.225809 30.390346 -1.085710 35.453237 -1.030580 1.601425 0.053060 -0.027626 -708891.000000 0 0 1
-17.192109 30.097046 -1.910810 34.713859 -1.051806 1.625869 0.049444 -0.032337 -1406500.000000 0 0 1
-15.823009 30.322946 -1.291010 34.227407 -1.089848 1.608524 0.046492 -0.032512 -436629.000000 0 0 1
-15.447309 29.468746 -0.198110 33.272595 -1.087982 1.576751 0.038403 -0.029500 -273501.000000 0 0 1
-14.364109 29.954046 0.543790 33.224512 -1.123652 1.554428 0.038009 -0.031755 -88784.000000 0 0 1
-13.930309 28.975846 1.707690 32.195797 -1.122662 1.517731 0.036011 -0.029705 11213.300000 0 0 1
-14.794109 28.992946 2.851290 32.673941 -1.098970 1.483420 0.026265 -0.024041 140447.000000 0 0 1
-14.257309 28.276346 3.964490 31.914570 -1.103784 1.446253 0.033220 -0.025755 160302.000000 0 0 1
-13.181609 29.022746 4.778090 32.232045 -1.144470 1.422008 0.044728 -0.022958 -104228.000000 0 0 1
-13.593909 30.187546 5.442790 33.551546 -1.147680 1.407855 0.034927 -0.021011 -385488.000000 0 0 1
-13.505509 31.346246 4.598790 34.440308 -1.163982 1.436867 0.042597 -0.017559 -44038.700000 0 0 1
-13.267909 32.639946 5.346490 35.636897 -1.184705 1.420201 0.045623 -0.010459 553056.000000 0 0 1
-14.358509 32.947846 6.228290 36.476279 -1.159818 1.399206 0.043559 -0.009679 677335.000000 0 0 1
-13.954009 34.105846 6.990590 37.507219 -1.182437 1.383320 0.065046 -0.020853 664573.000000 0 0 1
-15.052709 -34.076413 7.986090 38.099392 1.154838 1.359618 0.045995 -0.016414 390883.000000 0 0 1
-15.142409 33.907946 9.190290 38.255755 -1.150795 1.328191 0.028271 -0.015162 893375.000000 0 0 1
-16.351209 34.282946 9.900890 39.251880 -1.125759 1.315802 0.037973 -0.015901 465626.000000 0 0 1
-16.519109 33.402446 11.178590 38.904566 -1.111520 1.279354 0.039393 -0.013945 407052.000000 0 0 1
-15.721709 33.797446 12.341590 39.265180 -1.135395 1.251063 0.040591 -0.012741 415804.000000 0 0 1
-14.448609 33.188646 12.191390 38.195268 -1.160194 1.245926 0.036126 -0.006295 84349.900000 0 0 1
-13.409109 33.444446 13.346490 38.424783 -1.189483 1.216063 0.040184 -0.002713 336922.000000 0 0 1
-13.767209 32.710546 14.529190 38.348575 -1.172421 1.182220 0.035013 0.000405 -68120.400000 0 0 1
-13.132109 31.492746 14.715890 37.159155 -1.175731 1.163614 0.019720 0.004406 -519968.000000 0 0 1
-13.833909 30.222246 14.138890 36.120208 -1.141525 1.168601 0.024933 0.002687 11068.300000 0 0 1
-14.088609 30.303146 12.739790 35.764114 -1.135603 1.206580 0.030531 0.003259 318877.000000 0 0 1
-15.338809 29.733646 12.403490 35.682143 -1.094530 1.215775 0.029315 -0.004211 81032.000000 0 0 1
-15.580109 29.660946 10.885490 35.227907 -1.087135 1.256653 0.025848 -0.001569 357751.000000 0 0 1
-14.756009 28.632346 10.319090 33.823582 -1.094935 1.260768 0.032021 -0.001566 341928.000000 0 0 1
-14.843209 28.662346 8.964490 33.499448 -1.092960 1.299894 0.023350 -0.003749 -437501.000000 0 0 1
-14.260209 27.491046 8.233790 32.045382 -1.092284 1.310940 0.022567 -0.004249 -1127350.000000 0 0 1
-12.887509 27.423746 8.118490 31.369725 -1.131485 1.309016 0.034748 -0.007986 -960570.000000 0 0 1
-12.386209 26.163446 7.846090 29.991752 -1.128641 1.306108 0.029109 -0.009658 681623.000000 0 0 1
-10.967309 26.122646 7.177990 29.226667 -1.173305 1.322661 0.051781 -0.018956 609478.000000 0 0 1
-11.110909 26.417446 5.819190 29.243747 -1.172667 1.370470 0.054354 -0.020656 568436.000000 0 0 1
-9.938209 26.112046 5.074490 28.396433 -1.207126 1.391130 0.069779 -0.022077 131901.000000 0 0 1
-10.109209 26.558046 3.598790 28.643973 -1.207085 1.444825 0.053431 -0.019660 10475.000000 0 0 1
-10.077209 27.997546 3.379990 29.947238 -1.225301 1.457690 0.058870 -0.021127 73441.600000 0 0 1
-10.343809 28.235246 1.978390 30.135320 -1.219636 1.505099 0.055140 -0.027141 -157616.000000 0 0 1
-9.873609 29.570346 1.353790 31.204587 -1.248534 1.527398 0.064149 -0.023437 140259.000000 0 0 1
-10.598109 30.613746 1.936590 32.454148 -1.237522 1.511089 0.052244 -0.029957 222558.000000 0 0 1
-10.079409 31.841546 1.442490 33.429917 -1.264227 1.527633 0.037388 -0.022079 -222391.000000 0 0 1
-10.710309 32.937246 2.276390 34.709579 -1.256408 1.505165 0.035393 -0.018684 -649973.000000 0 0 1
-12.019409 33.333546 2.057790 35.494028 -1.224727 1.512788 0.052144 -0.025140 -843509.000000 0 0 1
-12.145309 34.090646 0.825690 36.198929 -1.228551 1.547985 0.043705 -0.018360 139710.000000 0 0 1
-13.619609 -34.147613 0.519090 36.767142 1.191286 1.556678 0.052152 -0.024187 532124.000000 0 0 1
-14.361209 33.509546 0.016290 36.457294 -1.165905 1.570350 0.051096 -0.022551 -580521.000000 0 0 1
-14.631409 33.631046 -1.380410 36.701920 -1.160439 1.608417 0.059492 -0.022589 -634451.000000 0 0 1
-13.450209 33.422246 -2.314310 36.101395 -1.188194 1.634946 0.047896 -0.016891 -625850.000000 0 0 1
-13.027809 32.123546 -2.515410 34.755910 -1.185512 1.643233 0.043553 -0.014261 -408940.000000 0 0 1
-11.696109 32.255046 -2.945210 34.436336 -1.222929 1.656427 0.035458 -0.005879 -336618.000000 0 0 1
-10.919709 30.931346 -2.912910 32.931342 -1.231424 1.659366 0.018597 -0.018111 -297852.000000 0 0 1
-11.258009 30.027146 -3.936310 32.308928 -1.212089 1.692933 0.020191 -0.008737 -82724.800000 0 0 1
-10.227809 29.933346 -4.891410 32.008424 -1.241547 1.724214 0.026447 -0.009375 32293.000000 0 0 1
-10.696709 29.092446 -6.125110 31.595996 -1.218459 1.765889 0.031149 -0.001673 94414.500000 0 0 1
-10.925109 27.712346 -5.955910 30.377706 -1.195272 1.768137 0.020506 0.004070 58960.100000 0 0 1
-11.049509 27.101446 -7.214310 30.143429 -1.183662 1.812475 0.014550 0.009988 7568.950000 0 0 1
-11.547509 25.630046 -7.101810 28.994481 -1.147489 1.818251 0.034513 0.005786 781935.000000 0 0 1
-10.602109 24.768446 -6.393610 27.690411 -1.166346 1.803795 0.019473 0.006556 695467.000000 0 0 1
-10.912109 23.403646 -6.592510 26.650815 -1.134506 1.820757 0.036978 -0.000935 -234784.000000 0 0 1
-10.249209 22.398946 -5.630010 25.267689 -1.141660 1.795497 0.027938 -0.011526 -442811.000000 0 0 1
-8.854409 22.321046 -5.902310 24.727857 -1.193152 1.811814 0.021651 -0.007847 225776.000000 0 1 0
-8.345009 21.063146 -5.461910 23.305102 -1.193579 1.807362 0.030709 -0.010904 -375826.000000 0 1 0
-8.170609 20.941146 -3.893610 22.813388 -1.198793 1.742308 0.028362 -0.020519 -147886.000000 0 1 0
-9.353609 20.898346 -3.094710 23.104288 -1.149960 1.705145 0.028471 -0.019947 134068.000000 0 1 0
-10.144009 19.731346 -3.221110 22.418798 -1.095927 1.714974 0.035017 -0.021110 -247898.000000 0 1 0
-11.460009 19.706146 -2.417010 22.923916 -1.044057 1.676429 0.037271 -0.022424 -90129.900000 0 1 0
-11.377809 19.655946 -0.984110 22.732779 -1.046075 1.614100 0.039158 -0.020772 43735.200000 0 1 0
-11.238309 18.287446 -0.562510 21.471998 -1.019756 1.596997 0.041737 -0.020889 -334423.000000 0 1 0
-11.059909 18.169246 0.913790 21.290329 -1.023993 1.527863 0.039180 -0.020083 578288.000000 0 1 0
-12.277909 18.329746 1.663090 22.124478 -0.980603 1.495556 0.051364 -0.014991 480617.000000 0 1 0
-12.003309 18.405346 3.070790 22.187067 -0.992901 1.431946 0.045050 -0.015623 348998.000000 0 1 0
-13.245809 18.463546 4.024690 23.077091 -0.948486 1.395498 0.037135 -0.010431 313753.000000 0 1 0
-13.829309 17.233046 4.270490 22.504772 -0.894540 1.379879 0.033042 -0.010701 1022850.000000 0 1 0
-15.040109 17.298446 5.071990 23.476929 -0.855119 1.353038 0.036144 -0.009887 816602.000000 0 1 0
-15.413609 15.919746 5.571290 22.848565 -0.801550 1.324478 0.014787 -0.011015 -601684.000000 0 1 0
-14.724109 15.361846 6.679690 22.302555 -0.806592 1.266624 0.027072 -0.013588 85619.800000 0 1 0
-15.193609 15.903846 7.911090 23.374418 -0.808233 1.225526 0.018202 -0.011407 -721650.000000 0 1 0
-14.122509 15.788246 9.040790 23.031497 -0.841031 1.167404 0.013729 -0.012909 590538.000000 0 1 0
-12.965609 16.550946 8.765290 22.778743 -0.906275 1.175804 0.022087 -0.016659 281803.000000 0 1 0
-12.019609 16.038546 7.821990 21.514867 -0.927666 1.198708 0.022147 -0.018880 -660018.000000 0 1 0
-10.846709 16.968546 7.504990 21.492034 -1.002034 1.214081 0.037405 -0.030129 -240969.000000 0 1 0
-10.029309 17.236646 8.591190 21.713994 -1.043822 1.164018 0.046631 -0.022843 -543259.000000 0 1 0
-9.228909 18.382146 8.441290 22.233566 -1.105503 1.181363 0.047265 -0.025631 -590048.000000 0 1 0
-7.959109 18.406346 9.260290 22.088322 -1.162665 1.138189 0.048354 -0.025621 -1279920.000000 0 1 0
-6.986709 17.471246 8.839990 20.789516 -1.190378 1.131598 0.033606 -0.023145 669269.000000 0 1 0
-5.688609 17.692146 9.435090 20.842102 -1.259703 1.101012 0.027680 -0.024696 1172970.000000 0 1 0
-4.868309 18.771246 8.711290 21.259038 -1.317038 1.148596 0.021769 -0.028287 -1545770.000000 0 1 0
-5.199009 20.084746 9.039690 22.630570 -1.317502 1.159884 0.030467 -0.032422 -160935.000000 0 1 0
-4.561609 21.109246 8.297290 23.135548 -1.357973 1.203988 0.033759 -0.031000 324534.000000 0 1 0
-3.125809 21.550946 8.689490 23.446134 -1.426758 1.191125 0.028704 -0.028849 732620.000000 0 1 0
-2.016509 20.829046 8.174190 22.466260 -1.474285 1.198406 0.018241 -0.019189 -197151.000000 0 1 0
-0.798009 21.509546 8.314190 23.074296 -1.533713 1.202183 0.012407 -0.015533 705482.000000 0 1 0
0.442491 20.570546 8.072190 22.102113 1.549289 1.196924 0.010606 -0.014387 594301.000000 0 1 0
0.634791 19.553846 9.011990 21.540005 1.538344 1.139131 0.015177 -0.032768 -1221800.000000 0 1 0
1.980091 19.204346 9.028990 21.313149 1.468053 1.133342 0.000171 -0.027864 -568540.000000 0 1 0
2.523591 18.715046 10.391890 21.554880 1.436762 1.067731 -0.006362 -0.043995 867058.000000 0 1 0
3.953891 18.542246 10.507290 21.676053 1.360706 1.064728 0.017831 -0.020164 954701.000000 0 1 0
4.309091 17.985546 11.747390 21.910027 1.335643 1.004909 0.009576 -0.027742 -126906.000000 0 1 0
5.779391 18.079146 12.174990 22.549662 1.261391 1.000456 0.030062 -0.023242 179984.000000 0 1 0
6.705191 17.324146 11.383790 21.787067 1.201509 1.021013 0.019718 -0.022210 261341.000000 0 1 0
7.660191 16.733446 12.241590 22.103015 1.141494 0.983824 0.024666 -0.014332 -78052.400000 0 1 0
8.901591 16.014646 11.665790 21.720909 1.063480 1.003829 0.026808 -0.013629 640606.000000 0 1 0
9.782491 16.914246 10.970090 22.408296 1.046442 1.059217 0.036037 -0.029393 -477800.000000 0 1 0
10.971891 16.299846 10.615590 22.332893 0.978333 1.075452 0.035297 -0.019692 -778406.000000 0 1 0
11.886691 17.278146 9.885390 23.185096 0.968196 1.130322 0.039695 -0.017138 -411730.000000 0 1 0
13.027091 16.617146 9.373790 23.102004 0.905916 1.152990 0.040110 -0.012390 10606.000000 0 1 0
13.710191 17.594146 8.530390 23.880763 0.908838 1.205520 0.036523 -0.002450 847680.000000 0 1 0
14.815091 16.985346 7.591690 23.782823 0.853539 1.245902 0.029553 -0.005507 -541793.000000 0 1 0
15.996091 16.621946 8.163890 24.470658 0.804583 1.230656 0.047025 -0.005614 -915446.000000 0 1 0
16.948291 16.220346 7.182590 24.534339 0.763455 1.273688 0.068355 -0.002482 632187.000000 0 1 0
18.395191 16.178946 7.763690 25.698565 0.721385 1.263895 0.051695 0.000688 85984.300000 0 0 1
18.594591 15.023746 8.531990 25.382408 0.679578 1.227983 0.051673 -0.001048 199347.000000 0 0 1
19.631391 15.271446 9.463390 26.611357 0.661125 1.207225 0.049859 0.003354 -48864.900000 0 0 1
19.809491 14.101146 10.454490 26.467992 0.618627 1.164744 0.043361 -0.003644 192606.000000 0 0 1
20.666991 13.106846 9.910890 26.403403 0.565182 1.186007 0.055661 -0.007419 297156.000000 0 0 1
20.891691 12.038246 10.783390 26.413323 0.522752 1.150254 0.067221 -0.012215 -148715.000000 0 0 1
21.708991 10.940146 10.036590 26.300194 0.466799 1.179252 0.065926 -0.014736 224786.000000 0 0 1
23.093891 11.342746 10.051890 27.622928 0.456549 1.198348 0.057469 -0.010007 1045860.000000 0 0 1
23.928591 10.703746 9.119590 27.754541 0.420623 1.235997 0.068844 -0.016255 -560638.000000 0 0 1
24.331091 9.279246 9.392390 27.682547 0.364347 1.224635 0.089518 -0.026564 -961406.000000 0 0 1
23.279391 8.320346 9.428590 26.458581 0.343263 1.206435 0.092595 -0.023989 76965.400000 0 0 1
23.511591 6.988646 9.789090 26.409513 0.288925 1.191071 0.083720 -0.026710 -209758.000000 0 0 1
24.507091 6.250246 8.848790 26.794853 0.249715 1.234236 0.096044 -0.027543 214522.000000 0 0 1
24.012391 6.061846 7.579090 25.899488 0.247280 1.273815 0.101083 -0.016233 356677.000000 0 0 1
24.989291 5.452046 6.736190 26.449305 0.214809 1.313276 0.104791 -0.020450 101030.000000 0 0 1
24.403591 5.075846 5.393890 25.502814 0.205072 1.357685 0.103199 -0.031167 -586387.000000 0 0 1
23.602891 3.944046 5.503790 24.554911 0.165570 1.344734 0.106466 -0.028073 222060.000000 0 1 0
22.989891 3.731246 4.209590 23.668078 0.160896 1.391986 0.086944 -0.024549 -549244.000000 0 1 0
22.044691 2.581946 4.210590 22.591235 0.116592 1.383318 0.073704 -0.016480 -921436.000000 0 1 0
22.698491 1.362146 4.442090 23.169141 0.059939 1.377877 0.093033 -0.013731 303999.000000 0 1 0
21.893691 0.280646 4.054890 22.267793 0.012818 1.387678 0.068798 -0.010569 -382706.000000 0 1 0
22.558891 -1.078954 4.222890 22.976085 -0.047792 1.385950 0.079812 -0.010910 -544213.000000 0 1 0
22.638391 -1.508354 5.540190 23.355205 -0.066530 1.331299 0.088440 -0.016099 698017.000000 0 1 0
22.565791 -2.925454 5.601690 23.433995 -0.128922 1.329418 0.068618 -0.017800 -553955.000000 0 1 0
22.271891 -3.473954 7.020390 23.609137 -0.154732 1.268871 0.074731 -0.019504 -152008.000000 0 1 0
22.101291 -4.825954 7.047090 23.694269 -0.214982 1.268810 0.056400 -0.019292 557240.000000 0 1 0
22.174791 -5.218654 8.414190 24.284857 -0.231136 1.216981 0.080836 -0.018353 -114387.000000 0 1 0
21.997591 -6.742254 8.798590 24.632645 -0.297409 1.205536 0.067988 -0.026137 160705.000000 0 1 0
20.672091 -7.205854 8.600190 23.520692 -0.335408 1.196472 0.046620 -0.027675 516035.000000 0 1 0
20.513391 -8.477254 9.124390 23.998282 -0.391880 1.180773 0.052203 -0.022368 -159207.000000 0 1 0
-26.060819 -33.135313 4.839190 42.432688 0.904343 1.456504 0.038900 -0.012901 418154.000000 0 0 1
-27.011979 -33.992513 5.495490 43.764579 0.899329 1.444895 0.038822 -0.014567 406184.000000 0 0 1
-26.881369 -33.952013 6.948890 43.859255 0.901109 1.411690 0.040564 -0.001318 -236687.000000 0 0 1
-27.553789 33.532746 7.637290 44.067954 -0.882964 1.396610 0.041705 0.000322 -385271.000000 0 0 1
-28.918409 33.459746 7.355990 44.832350 -0.858073 1.405973 0.052742 -0.005233 -887695.000000 0 0 1
-29.433449 32.214646 7.746490 44.318387 -0.830482 1.395102 0.058383 -0.004082 -490364.000000 0 0 1
-30.952269 32.182446 7.858390 45.337701 -0.804881 1.396586 0.072570 -0.004295 -347552.000000 0 0 1
-31.600549 32.380346 6.600190 45.723561 -0.797586 1.425940 0.047020 -0.004438 181142.000000 0 0 1
-33.004059 32.275546 6.718190 46.648825 -0.774239 1.426278 0.027259 0.000801 113390.000000 0 0 1
-33.870349 32.291346 5.464290 47.114648 -0.761537 1.454556 0.019938 0.002876 -224241.000000 0 0 1
-33.600719 31.230346 4.607790 46.103954 -0.748852 1.470686 0.024041 0.000837 326420.000000 0 0 1
-34.456864 31.237746 3.471190 46.638197 -0.736436 1.496299 0.039169 0.002818 102478.000000 0 0 1
-34.173616 29.973646 2.651490 45.533349 -0.720018 1.512532 0.043093 -0.005883 -97510.200000 0 0 1
-34.615774 28.793946 3.291690 45.146189 -0.693842 1.497820 0.066394 -0.010927 393456.000000 0 0 1
-34.054740 27.675146 2.656490 43.962438 -0.682417 1.510333 0.054816 -0.005125 -183180.000000 0 0 1
-34.607552 26.489846 3.451490 43.718502 -0.653307 1.491766 0.068602 -0.010325 -1119290.000000 0 0 1
-35.920067 26.201146 3.172890 44.573742 -0.630205 1.499553 0.076646 -0.012537 -1115430.000000 0 0 1
35.579526 25.241646 4.175790 43.823288 0.617035 1.475365 0.076605 -0.010513 -503569.000000 0 0 1
34.106536 24.866046 4.098590 42.407246 0.629971 1.473997 0.082853 -0.015291 -830951.000000 0 0 1
33.617356 24.111546 2.973090 41.476892 0.622200 1.499054 0.062549 -0.017303 177494.000000 0 0 1
34.157106 22.812046 2.876690 41.174904 0.588826 1.500874 0.047199 -0.010621 -1299650.000000 0 0 1
33.452056 21.973646 1.797390 40.063846 0.581189 1.525918 0.038389 -0.011652 -59846.700000 0 0 1
32.142736 21.542246 2.096490 38.750731 0.590449 1.516668 0.033497 -0.016773 153103.000000 0 0 1
31.957196 20.779546 3.233790 38.255840 0.576537 1.486165 0.020316 -0.007413 -1105750.000000 0 0 1
32.296846 19.298346 3.258390 37.764130 0.538602 1.484406 0.026664 -0.016716 -479611.000000 0 0 1
31.561696 18.543046 2.355090 36.681489 0.531191 1.506548 0.016764 -0.019184 17586.300000 0 0 1
31.905286 17.176146 2.374190 36.312588 0.493853 1.505368 0.011536 -0.020898 -625338.000000 0 0 1
31.468696 16.239446 3.516790 35.586040 0.476406 1.471810 0.037206 -0.023834 -108621.000000 0 0 1
30.082806 16.010046 3.358390 34.242891 0.489074 1.472563 0.047858 -0.015776 34672.700000 0 0 1
29.527206 15.217146 4.362390 33.502953 0.475860 1.440216 0.061872 -0.026235 490544.000000 0 0 1
27.968986 15.303846 4.393190 32.183412 0.500669 1.433864 0.065034 -0.016398 681244.000000 0 0 1
27.242906 14.629146 3.364890 31.104828 0.492799 1.462405 0.070783 -0.012554 320897.000000 0 0 1
25.874456 14.974746 3.313990 30.078448 0.524645 1.460394 0.052298 -0.008931 60853.300000 0 0 1
25.170756 14.438446 2.043590 29.089722 0.520796 1.500487 0.048081 -0.014429 -359627.000000 0 0 1
25.458356 14.989846 0.775490 29.553761 0.532143 1.544553 0.053119 -0.010267 272003.000000 0 0 1
26.661956 14.553546 0.176390 30.375923 0.499655 1.564989 0.059111 -0.008655 -457732.000000 0 0 1
27.095276 15.368046 -1.112210 31.169983 0.515942 1.606486 0.061542 -0.010904 30712.800000 0 0 1
27.588786 16.672046 -0.965110 32.249491 0.543579 1.600727 0.044007 -0.018131 556099.000000 0 0 1
28.726286 16.864946 -0.131710 33.311308 0.530874 1.574750 0.036850 -0.020562 -261654.000000 0 0 1
29.286516 18.281846 -0.041110 34.524305 0.558053 1.571987 0.037943 -0.018841 -330591.000000 0 0 1
29.731866 18.682946 -1.303610 35.138807 0.561027 1.607904 0.014818 -0.013285 171809.000000 0 0 1
30.465586 19.878646 -1.097610 36.393918 0.578127 1.600960 0.009106 -0.006818 29974.400000 0 0 1
30.551436 20.637746 -2.421810 36.948234 0.594099 1.636389 0.019286 -0.012522 -165308.000000 0 0 1
31.353266 21.793946 -2.373710 38.257520 0.607436 1.632882 -0.016825 -0.004217 63831.800000 0 0 1
30.978246 22.711646 -3.362210 38.558722 0.632628 1.658104 0.005704 -0.005610 -277932.000000 0 0 1
31.934386 23.921846 -3.437010 40.048380 0.642921 1.656723 -0.007733 0.003798 -220019.000000 0 0 1
31.965786 24.816246 -2.351410 40.536239 0.660145 1.628837 -0.000829 0.004383 -170522.000000 0 0 1
32.687476 24.356346 -1.272810 40.783854 0.640376 1.602010 0.017614 0.010556 -870404.000000 0 0 1
32.415016 25.217946 -0.026010 41.069195 0.661164 1.571430 0.019064 -0.009743 -170368.000000 0 0 1
32.975686 26.515446 -0.093410 42.313987 0.677230 1.573004 0.028863 -0.001539 234564.000000 0 0 1
34.323156 26.483646 0.382290 43.354454 0.657181 1.561978 0.053168 -0.001204 700720.000000 0 0 1
35.108666 27.821046 0.026290 44.795421 0.670106 1.570209 0.047386 -0.010298 -18099.700000 0 0 1
35.478346 28.040346 -1.328810 45.240908 0.668830 1.600172 0.033064 -0.005658 412994.000000 0 0 1
34.440536 28.061046 -2.331410 44.486046 0.683681 1.623228 0.031645 -0.002261 285874.000000 0 0 1
34.904376 27.659746 -3.745910 44.692380 0.670116 1.654710 0.035362 -0.003719 287787.000000 0 0 1
35.714436 28.635746 -4.426110 45.990405 0.675836 1.667185 0.017952 0.002009 513940.000000 0 0 1
-35.638587 28.054546 -5.612210 45.701897 -0.666885 1.693907 0.021241 -0.001441 283344.000000 0 0 1
35.371836 27.788646 -6.813910 45.495110 0.665908 1.721134 0.017149 -0.001072 -166279.000000 0 0 1
34.462586 26.756746 -6.614210 44.128688 0.660184 1.721248 0.023486 0.006715 -552532.000000 0 0 1
33.534406 26.695746 -7.659610 43.541806 0.672340 1.747630 0.014076 0.005690 178833.000000 0 0 1
32.337796 25.726946 -7.425010 41.984992 0.672033 1.748581 0.002444 0.013575 21186.400000 0 0 1
32.619596 24.346646 -7.640310 41.414630 0.641181 1.756342 0.002294 0.009322 211153.000000 0 0 1
33.668346 23.796046 -6.856310 41.794956 0.615260 1.735588 0.007473 0.004478 171104.000000 0 0 1
33.595666 22.270246 -6.934410 40.898884 0.585384 1.741169 0.012079 0.001746 58322.000000 0 0 1
32.575026 21.689446 -6.148810 39.615303 0.587424 1.726639 0.003875 -0.002830 229160.000000 0 0 1
32.717436 20.297246 -6.133910 38.987609 0.555270 1.728782 0.022352 -0.021609 -720688.000000 0 0 1
31.456096 19.719846 -5.535710 37.536681 0.559965 1.718811 0.022939 -0.015554 -480225.000000 0 0 1
30.388676 19.636346 -6.484410 36.757384 0.573680 1.748135 0.022730 -0.018218 416027.000000 0 0 1
29.286556 19.068246 -5.762810 35.419068 0.577143 1.734226 0.043118 -0.028164 436095.000000 0 0 1
28.017636 18.797746 -6.629810 34.384554 0.590945 1.764825 0.027661 -0.024615 261966.000000 0 0 1
28.179306 17.674846 -7.500910 34.098931 0.560200 1.792585 0.028830 -0.022038 162414.000000 0 0 1
27.078336 17.566546 -8.387910 33.349316 0.575482 1.825043 0.035580 -0.020001 -100306.000000 0 0 1
27.369436 16.671146 -9.585610 33.449919 0.547095 1.861437 0.034236 -0.017682 488884.000000 0 0 1
26.273956 16.547446 -10.523210 32.785312 0.562047 1.897553 0.035905 -0.012521 753060.000000 0 0 1
26.575856 15.550546 -11.455910 32.853211 0.529420 1.926980 0.040035 -0.007571 -193556.000000 0 0 1
25.830256 15.606346 -12.800310 32.781216 0.543494 1.971946 0.040660 -0.006244 -93127.700000 0 0 1
24.432556 15.393746 -12.679110 31.538501 0.562223 1.984518 0.040573 -0.004220 388207.000000 0 0 1
23.709856 15.484146 -13.902210 31.546592 0.578529 2.027161 0.040712 -0.006572 -41654.900000 0 0 1
23.666256 14.120146 -14.621510 31.197095 0.537942 2.058594 0.045623 -0.009119 -373541.000000 0 0 1
24.889856 13.647946 -15.160510 32.180933 0.501563 2.061336 0.045613 -0.016158 300920.000000 0 0 1
25.210856 14.282746 -16.425210 33.307231 0.515447 2.086495 0.044339 -0.017359 -942407.000000 0 0 1
26.601756 13.919046 -16.923810 34.464599 0.482065 2.084090 0.051237 -0.016986 -485336.000000 0 0 1
26.793356 12.591746 -17.301110 34.289421 0.439326 2.099670 0.047206 -0.025576 441190.000000 0 0 1
28.153846 12.413646 -17.694810 35.494281 0.415279 2.092694 0.044434 -0.016032 613757.000000 0 0 1
28.509746 11.040646 -18.337910 35.650812 0.369474 2.111076 0.017388 -0.020766 -298846.000000 0 0 1
27.815236 10.785246 -19.557010 35.671915 0.369898 2.151063 0.031243 -0.022704 -13137.300000 0 0 1
27.810756 9.452746 -19.928410 35.495550 0.327645 2.166914 0.020319 -0.005317 -431649.000000 0 0 1
29.082026 8.926646 -20.594510 36.736672 0.297818 2.165904 0.022272 -0.006519 -958911.000000 0 0 1
29.396836 9.584446 -21.792010 37.827599 0.315169 2.184730 0.020137 -0.015388 363537.000000 0 0 1
30.083646 8.773346 -22.752410 38.725567 0.283762 2.198799 0.013524 -0.009524 -1219250.000000 0 0 1
31.522216 8.440546 -22.557110 39.670091 0.261628 2.175621 0.014416 -0.002898 -1747530.000000 0 0 1
32.412226 9.516846 -22.625310 40.657440 0.285592 2.160947 0.017839 -0.002382 1272660.000000 0 0 1
33.793916 9.044046 -22.527310 41.608932 0.261495 2.142904 -0.002997 -0.001571 1676660.000000 0 0 1
34.830336 10.194646 -22.406110 42.651106 0.284741 2.123905 0.024091 0.000112 -41184.300000 0 0 1
34.836826 10.747246 -21.139110 42.142256 0.299239 2.096259 0.012419 -0.006626 152344.000000 0 0 1
35.650516 11.895146 -21.059510 43.080817 0.322044 2.081553 0.003958 0.002103 -221880.000000 0 0 1
35.578736 12.578046 -19.706810 42.572433 0.339814 2.052061 -0.005285 -0.005159 -367332.000000 0 0 1
-35.847529 11.868646 -18.638710 42.110707 -0.319727 2.029306 0.001908 -0.008551 192785.000000 0 0 1
35.667466 12.379446 -17.399410 41.571123 0.334071 2.002640 0.012910 -0.010350 -242681.000000 0 0 1
-35.767531 11.483646 -16.211410 40.914548 -0.310667 1.978199 0.012553 -0.016438 126415.000000 0 0 1
35.328516 10.350746 -15.951610 40.121015 0.285009 1.979682 0.007508 -0.020065 657217.000000 0 0 1
35.947265 9.326146 -15.174510 40.117934 0.253843 1.958699 0.007689 -0.024509 -845539.000000 0 0 1
35.041226 8.171146 -15.083110 39.014809 0.229093 1.967738 0.048888 -0.016906 -598535.000000 0 0 1
33.881816 8.395746 -14.301710 37.722737 0.242902 1.959649 0.059138 -0.021783 358452.000000 0 0 1
34.108036 8.158646 -12.926110 37.376543 0.234789 1.923925 0.064182 -0.021631 -320530.000000 0 0 1
32.970146 8.788346 -12.049410 36.186376 0.260498 1.910261 0.077662 -0.014675 194977.000000 0 0 1
32.940286 10.229146 -11.936410 36.498983 0.301095 1.903960 0.077074 -0.019229 -85635.400000 0 0 1
32.122656 10.738946 -10.904610 35.582306 0.322630 1.882270 0.050710 -0.009608 -389945.000000 0 0 1
32.631376 10.557046 -9.453910 35.575755 0.312897 1.839768 0.067219 -0.005854 -1001980.000000 0 0 1
33.818976 11.108946 -9.077610 36.736015 0.317379 1.820487 0.063197 -0.003392 -911656.000000 0 0 1
33.671926 12.486646 -8.682810 36.947343 0.355112 1.808020 0.070151 -0.009510 -25843.400000 0 0 1
33.208956 12.851246 -7.231910 36.335792 0.369233 1.771164 0.058770 -0.016919 -214125.000000 0 0 1
34.258176 12.537046 -6.379610 37.033763 0.350820 1.743925 0.070781 -0.015239 -56467.400000 0 0 1
33.971316 12.895446 -5.017310 36.681279 0.362796 1.708008 0.054079 -0.009305 -303741.000000 0 0 1
35.190886 12.633846 -4.117510 37.616039 0.344678 1.680478 0.065130 -0.000941 18195.500000 0 0 1
-35.862423 13.704346 -4.353110 38.637703 -0.365013 1.683701 0.063569 -0.002051 -708172.000000 0 0 1
-34.667449 13.536546 -3.674210 37.397459 -0.372263 1.669203 0.048740 -0.006653 -743872.000000 0 0 1
-33.788979 14.782946 -3.689110 37.065350 -0.412417 1.670491 0.043639 -0.008941 -220989.000000 0 0 1
-34.271611 15.741146 -2.785210 37.816457 -0.430566 1.644514 0.055905 -0.009478 193911.000000 0 0 1
-33.565849 16.952646 -2.866910 37.713096 -0.467685 1.646889 0.071240 -0.011950 -258881.000000 0 0 1
-33.908699 17.902046 -1.730510 38.383301 -0.485756 1.615897 0.061771 -0.009398 -46022.300000 0 0 1
-35.177057 18.496946 -1.883310 39.788305 -0.484093 1.618147 0.045176 -0.011585 225690.000000 0 0 1
-35.579302 19.159346 -0.684510 40.415787 -0.493969 1.587734 0.024646 -0.006326 -156272.000000 0 0 1
35.271376 20.202746 -0.860510 40.656628 0.520164 1.591963 0.017949 -0.000186 -139019.000000 0 0 1
35.641546 21.425146 -1.498210 41.612514 0.541249 1.606808 0.040072 -0.001442 3118.450000 0 0 1
35.395566 21.457946 -2.907610 41.493900 0.544990 1.640927 0.021835 -0.003659 -121513.000000 0 0 1
35.766186 22.780746 -3.616510 42.558919 0.567136 1.655875 0.048413 -0.021562 834797.000000 0 0 1
-34.791969 22.974846 -3.884810 41.873815 -0.583616 1.663704 0.060663 -0.012592 797444.000000 0 0 1
-34.612342 23.931846 -4.877610 42.361994 -0.604948 1.686193 0.068981 -0.016459 72456.600000 0 0 1
-33.114989 24.080146 -5.200110 41.273443 -0.628728 1.697124 0.068611 -0.024552 60315.800000 0 0 1
-32.442519 23.030546 -5.853010 40.214187 -0.617331 1.716861 0.049410 -0.023604 -229115.000000 0 0 1
-31.121409 23.438946 -6.138210 39.441145 -0.645511 1.727061 0.052461 -0.015480 -228937.000000 0 0 1
-30.528639 22.586146 -7.259310 38.663023 -0.636964 1.759676 0.039004 -0.033606 -467975.000000 0 0 1
-31.141209 22.696046 -8.547410 39.470795 -0.629801 1.789076 0.052053 -0.044621 -331653.000000 0 0 1
-30.277509 22.307846 -9.550210 38.801728 -0.634986 1.819480 0.028816 -0.046275 -197331.000000 0 0 1
-30.911459 22.168546 -11.003410 39.598457 -0.622152 1.852377 0.039906 -0.022918 -174827.000000 0 0 1
-31.564809 23.347446 -11.399910 40.882739 -0.636855 1.853387 0.051934 -0.025351 201551.000000 0 0 1
-32.327669 23.189046 -12.604210 41.733394 -0.622251 1.877604 0.033533 -0.017278 -267556.000000 0 0 1
-32.912829 24.547046 -13.091310 43.095176 -0.640821 1.879451 0.053689 -0.014716 -165251.000000 0 0 1
-32.081879 25.632246 -13.445510 43.209267 -0.674109 1.887222 0.056270 -0.025242 -871541.000000 0 0 1
-31.224969 25.388446 -14.482910 42.770627 -0.682667 1.916244 0.049740 -0.025211 -125677.000000 0 0 1
-29.803769 26.003946 -14.348910 42.075659 -0.717415 1.918805 0.046166 -0.018319 1048910.000000 0 0 1
-28.754419 25.438446 -13.527610 40.705373 -0.724286 1.909569 0.058333 -0.025723 919874.000000 0 0 1
-29.010879 25.350946 -12.115610 40.386750 -0.718174 1.875478 0.058419 -0.029247 -386156.000000 0 0 1
-29.194579 26.645946 -11.223110 41.088783 -0.739789 1.847455 0.077224 -0.020592 539056.000000 0 0 1
-27.962299 27.322346 -10.978710 40.607054 -0.773823 1.844568 0.066343 -0.019130 455945.000000 0 0 1
-28.140369 28.281846 -9.952910 41.119382 -0.787906 1.815274 0.061624 -0.022723 376802.000000 0 0 1
-26.911379 29.233346 -9.911110 40.951690 -0.826731 1.815243 0.060017 -0.015105 385888.000000 0 0 1
-27.080749 30.405046 -9.145510 41.730974 -0.843162 1.791744 0.026776 -0.012973 -1242050.000000 0 0 1
-25.935409 31.144346 -9.119210 41.542457 -0.876403 1.792114 0.029153 -0.008553 -1153720.000000 0 0 1
34.346746 -25.354644 33.766685 54.431112 -0.635904 0.901599 0.004471 0.004346 -381805.000000 0 0 1
33.933526 -24.032754 33.902686 53.651185 -0.616228 0.886782 -0.000306 -0.000762 -138596.000000 0 0 1
32.855036 -23.938654 -33.787050 52.859032 -0.629673 2.264243 -0.005625 -0.001781 -306177.000000 0 0 1
32.441406 -22.525754 -33.373760 51.707468 -0.606925 2.272388 -0.009720 -0.005526 -170954.000000 0 0 1
31.754446 -21.895154 34.155373 51.520211 -0.603654 0.846043 -0.011129 -0.002426 192155.000000 0 0 1
31.271386 -20.586054 -34.058480 50.612896 -0.582190 2.308947 -0.011836 0.005258 212036.000000 0 0 1
30.973216 -19.741054 33.261450 49.551725 -0.567437 0.834906 -0.010719 0.010181 232844.000000 0 0 1
32.131816 -19.308654 32.553723 49.648994 -0.541096 0.855717 -0.000615 0.000801 476371.000000 0 0 1
31.828526 -18.574254 31.425173 48.431390 -0.528253 0.864712 0.004332 0.005040 208163.000000 0 0 1
33.083376 -18.490154 30.497973 48.646911 -0.509647 0.893196 0.005659 0.000920 343081.000000 0 0 1
34.012246 -17.495254 30.868383 49.150523 -0.475086 0.891767 0.004606 -0.008792 1062740.000000 0 0 1
35.062456 -17.377854 29.866763 49.227931 -0.460142 0.918889 0.021550 -0.013959 990573.000000 0 0 1
-35.766628 -16.331854 30.126753 49.533851 0.428348 0.916999 0.023069 -0.021587 80861.100000 0 0 1
-34.840749 -16.035054 29.063203 48.121415 0.431336 0.922341 0.039402 -0.016006 1447020.000000 0 0 1
-33.688299 -15.252554 29.410133 47.249316 0.425143 0.898933 0.036250 -0.019628 -72378.800000 0 0 1
-32.603789 -15.995954 30.145373 47.197682 0.456113 0.877983 0.048696 -0.023343 -1863290.000000 0 0 1
-31.694849 -15.051054 30.624873 46.572315 0.443345 0.853199 0.040970 -0.018279 -775536.000000 0 0 1
-30.758779 -15.726754 31.382343 46.672098 0.472641 0.833349 0.040663 -0.022341 -487736.000000 0 0 1
-29.647299 -14.786154 31.966853 46.037728 0.462635 0.803263 0.044172 -0.022007 174820.000000 0 0 1
-29.940759 -14.050154 33.157924 46.832722 0.438759 0.784123 0.046285 -0.020408 980541.000000 0 0 1
-28.795529 -13.320854 33.660476 46.256408 0.433284 0.755843 0.042258 -0.018188 741912.000000 0 0 1
-29.156669 -12.646354 -33.512520 46.185827 0.409248 2.382705 0.032028 -0.007524 -58622.600000 0 0 1
-29.278889 -13.630854 -32.514030 45.828110 0.435712 2.359553 0.057312 -0.009381 280010.000000 0 0 1
-29.445369 -13.047954 -31.256120 44.880106 0.417121 2.341215 0.059355 -0.002203 -402581.000000 0 0 1
-29.533209 -14.043054 -30.094100 44.441790 0.443857 2.314689 0.056913 -0.000848 -420755.000000 0 0 1
-30.716219 -14.772954 -30.143250 45.501009 0.448291 2.294913 0.039925 0.000022 -494839.000000 0 0 1
-30.964359 -15.407454 -28.875270 45.055104 0.461715 2.266451 0.023954 0.001308 401481.000000 0 0 1
-32.125029 -16.432254 -28.889560 46.223837 0.472813 2.245918 0.006610 0.000483 73232.300000 0 0 1
-31.847019 -17.618654 -29.537180 46.873176 0.505318 2.252544 0.009443 -0.001230 -218304.000000 0 0 1
-32.944659 -18.490254 -29.587710 47.986171 0.511441 2.235198 -0.007195 0.001922 -285093.000000 0 0 1
-32.617799 -19.722754 -30.425350 48.770993 0.543841 2.244444 -0.003261 -0.003600 -747114.000000 0 0 1
-33.739389 -20.514554 -30.469400 49.875622 0.546303 2.228003 -0.017955 -0.002347 -578530.000000 0 0 1
-33.392879 -21.766054 -31.044530 50.523344 0.577652 2.232497 -0.015512 -0.005073 1270840.000000 0 0 1
-34.701807 -22.627454 -31.410310 51.988697 0.577818 2.219527 -0.021577 0.003841 1222250.000000 0 0 1
-35.543607 -22.863854 -30.302850 52.003524 0.571624 2.192853 -0.025498 0.002968 555378.000000 0 0 1
35.344976 -23.805354 -30.555810 52.436817 -0.592728 2.192864 -0.016724 0.005182 357208.000000 0 0 1
35.762056 -25.271484 -30.589210 53.416031 -0.615179 2.180543 -0.008881 0.003316 -431491.000000 0 0 1
-35.518597 -25.537644 -31.813780 54.091206 0.623360 2.199567 0.010537 0.005420 199773.000000 0 0 1
-34.812625 -26.794464 -31.850960 54.261826 0.655976 2.198128 0.011338 0.002005 69123.500000 0 0 1
-34.744893 -27.444604 -33.266540 55.381193 0.668545 2.215151 0.020990 -0.011452 307648.000000 0 0 1
35.956033 -28.046914 -33.546340 56.611153 -0.662447 2.205048 0.036808 -0.014444 -122828.000000 0 0 1
35.855996 -29.114204 34.089369 57.405352 -0.682001 0.934978 0.024391 -0.013689 350286.000000 0 0 1
-35.367670 -30.441664 -34.061830 57.773482 0.710685 2.201330 0.019150 -0.017901 350068.000000 0 0 1
35.895346 -31.027124 -32.988080 57.787297 -0.712782 2.178341 0.035474 -0.020166 -335964.000000 0 0 1
-35.246179 -31.880494 -32.274110 57.448039 0.735301 2.167352 0.033613 -0.023435 -299673.000000 0 0 1
-35.956758 -32.359774 -31.026790 57.469167 0.732795 2.141098 0.027550 -0.028434 -298888.000000 0 0 1
35.258536 -33.536794 -31.085880 57.742643 -0.760376 2.139277 0.044567 -0.028445 7626.510000 0 0 1
34.780456 -33.867134 -29.771150 56.947206 -0.772094 2.120911 0.029167 -0.022557 513898.000000 0 0 1
33.526546 33.889381 -29.712740 56.172647 0.790780 2.128164 0.032240 -0.022771 -12450.500000 0 0 1
32.358236 -34.278342 -30.241760 56.005573 -0.814205 2.141207 0.036034 -0.025954 -956251.000000 0 0 1
31.252126 33.829368 -29.618490 54.757433 0.824978 2.142307 0.054870 -0.019030 113534.000000 0 0 1
29.870256 -34.344914 -30.108630 54.574123 -0.854968 2.155199 0.032885 -0.006764 105991.000000 0 0 1
29.550486 33.529494 -31.215250 54.514677 0.848393 2.180473 0.035824 -0.008543 163471.000000 0 0 1
28.378466 34.040185 -31.850210 54.575703 0.875856 2.193947 0.029585 -0.006397 269309.000000 0 0 1
28.107056 33.413783 -33.280610 54.900696 0.871444 2.222066 0.023313 -0.008066 -297294.000000 0 0 1
27.636816 32.100096 -33.198230 53.817583 0.859975 2.235551 0.006156 -0.004270 -52406.100000 0 0 1
27.392326 31.624776 34.067067 53.953971 0.856991 0.887426 0.006720 0.000449 43048.000000 0 0 1
27.335306 30.062056 33.932113 52.937080 0.832869 0.875010 0.015857 -0.012823 290906.000000 0 0 1
28.640106 29.497906 34.051650 53.384427 0.800152 0.879083 0.023901 -0.008407 -9772.620000 0 0 1
28.634336 28.076176 -34.282653 52.758858 0.775556 2.278116 0.020491 -0.013279 516038.000000 0 0 1
30.038686 27.419846 -34.091563 53.069815 0.739852 2.268410 0.048065 -0.024118 408554.000000 0 0 1
30.542266 27.636196 -32.807880 52.658772 0.735489 2.243404 0.045619 -0.017364 -424100.000000 0 0 1
31.513426 26.712386 -32.376660 52.487100 0.703129 2.235530 0.051478 -0.019541 -64828.500000 0 0 1
32.083246 27.053466 -30.988330 52.168010 0.700549 2.206831 0.062821 -0.023704 130723.000000 0 0 1
33.128856 28.017456 -30.868950 53.248390 0.701999 2.189177 0.048472 -0.019448 217299.000000 0 0 1
32.858706 29.355816 -31.288530 54.041008 0.729154 2.188270 0.067748 -0.024127 9812.980000 0 0 1
31.926606 30.109316 -30.272180 53.313075 0.756112 2.174650 0.062515 -0.010492 139456.000000 0 0 1
32.491886 30.382836 -29.025990 53.116358 0.751867 2.148928 0.050112 -0.006843 -766060.000000 0 0 1
31.572936 30.541886 -27.986000 52.085250 0.768801 2.138042 0.053039 -0.007045 -353531.000000 0 0 1
32.166916 31.002306 -26.597590 51.993127 0.766964 2.107795 0.047903 -0.005688 50008.900000 0 0 1
32.403486 32.380286 -26.506980 52.925313 0.785040 2.095362 0.045869 -0.010984 -134053.000000 0 0 1
33.113496 32.756974 -25.371420 53.039908 0.779986 2.069566 0.024720 -0.006590 -134188.000000 0 0 1
33.328496 34.334250 -25.370830 54.160025 0.800261 2.058323 0.023836 -0.007287 -135756.000000 0 0 1
32.144806 -33.624154 -25.190820 52.900375 -0.807887 2.067117 0.026353 0.002615 -49459.100000 0 0 1
32.399216 -32.195294 -25.218550 52.174912 -0.782241 2.075269 0.018887 -0.004395 -598001.000000 0 0 1
33.101256 -31.452654 -26.356860 52.722354 -0.759865 2.094301 0.012554 -0.008082 262220.000000 0 0 1
34.400536 -31.854634 -26.764780 53.985813 -0.746991 2.089523 0.013111 -0.009851 -75558.300000 0 0 1
35.397926 -31.171294 -26.059140 53.886376 -0.721991 2.075553 0.013941 -0.006990 47398.600000 0 0 1
-35.110705 -31.711104 -26.319150 54.139204 0.734566 2.078462 0.012558 -0.005530 398836.000000 0 0 1
-34.791536 -33.039184 -25.844180 54.497342 0.759570 2.064884 0.013484 -0.009201 -132349.000000 0 0 1
-34.856220 -33.367804 -24.425410 54.082965 0.763585 2.039386 0.019855 -0.010219 286513.000000 0 0 1
-33.618109 -32.797534 -23.656410 52.587843 0.773044 2.037389 0.005487 -0.007791 523274.000000 0 0 1
-33.668049 -31.420694 -23.524910 51.712851 0.750884 2.043072 -0.021157 -0.013213 -326671.000000 0 0 1
-32.924359 -30.978894 -22.406310 50.455406 0.754964 2.030945 0.014051 -0.022306 -263649.000000 0 0 1
-32.736309 -29.427584 -22.362210 49.373242 0.732223 2.040836 0.013303 -0.011639 -448104.000000 0 0 1
-33.845659 -28.598854 -22.530810 49.709762 0.701572 2.041201 0.005392 -0.007316 -747007.000000 0 0 1
-33.947299 -28.303944 -23.901210 50.247390 0.694991 2.066523 0.002168 -0.006864 227301.000000 0 0 1
-35.228279 -27.497734 -24.268610 50.853932 0.662773 2.068287 -0.001860 -0.004414 263497.000000 0 0 1
-35.237985 -26.172534 -23.667510 49.868509 0.638836 2.065304 -0.002125 -0.002118 63473.600000 0 0 1
35.738696 -25.263944 -24.158410 49.991500 -0.615347 2.075160 -0.013161 -0.000228 200310.000000 0 0 1
-35.811235 -24.673254 -25.520390 50.423252 0.603292 2.101480 -0.010537 -0.000458 -340285.000000 0 0 1
-34.748292 -23.771854 -25.518610 49.231538 0.599986 2.115703 -0.012313 -0.005902 -500092.000000 0 0 1
-34.604610 -23.163454 -26.799540 49.520097 0.589875 2.142642 -0.016428 -0.011535 147499.000000 0 0 1
-33.415069 -22.183654 -26.968840 48.332181 0.586072 2.162757 -0.004457 -0.017232 -199813.000000 0 0 1
-33.451139 -21.007154 -26.118120 47.354360 0.560750 2.155013 -0.011341 -0.010111 175781.000000 0 0 1
-34.472873 -20.044954 -26.461310 47.857916 0.526683 2.156654 -0.020489 -0.006988 -158015.000000 0 0 1
-35.355891 -19.898854 -25.220380 47.771027 0.512629 2.126973 0.000255 -0.011375 -974386.000000 0 0 1
-34.826524 -19.550354 -23.979010 46.584290 0.511526 2.111506 0.009272 -0.010756 -434769.000000 0 0 1
-34.095453 -20.560254 -23.268810 46.115740 0.542637 2.099685 -0.006802 -0.013529 -720619.000000 0 0 1
-34.823407 -21.703054 -22.596710 46.843394 0.557327 2.074176 0.025069 -0.007352 -30055.300000 0 0 1
-35.702817 -21.332054 -21.543310 46.838679 0.538571 2.048732 0.017877 -0.008951 453047.000000 0 0 1
35.467996 -22.419554 -21.030410 46.934990 -0.563693 2.035408 0.021825 -0.000561 -38114.800000 0 0 1
34.185696 -22.227754 -20.245710 45.526076 -0.576520 2.031642 0.017802 -0.001157 -79217.800000 0 0 1
33.059676 -21.822654 -21.032010 44.849926 -0.583442 2.058889 0.028390 -0.001478 434883.000000 0 0 1
31.928636 -21.810054 -20.148410 43.601315 -0.599285 2.051164 0.029945 0.002655 122831.000000 0 0 1
30.710986 -21.141154 -20.796110 42.691817 -0.602892 2.079587 0.029093 0.012395 -956644.000000 0 0 1
30.122606 -21.981754 -21.799110 43.194561 -0.630410 2.099799 0.028329 0.013623 411220.000000 0 0 1
28.809546 -21.597154 -22.168610 42.283262 -0.643279 2.122675 0.037874 0.012422 237879.000000 0 0 1
28.658426 -20.185754 -22.880010 41.860063 -0.613644 2.149075 0.065108 -0.001625 -719547.000000 0 0 1
28.879976 -19.020654 -22.123110 41.052044 -0.582404 2.139932 0.048761 0.003632 111239.000000 0 0 1
29.206826 -17.871754 -22.975810 41.235011 -0.549126 2.161796 0.055462 0.002955 -220448.000000 0 0 1
30.191476 -16.921354 -22.314910 41.180246 -0.510844 2.143473 0.044280 -0.000289 -278755.000000 0 0 1
29.576616 -16.194654 -21.196810 39.828982 -0.500960 2.131988 0.031150 -0.005966 631678.000000 0 0 1
30.429066 -15.556554 -20.232210 39.714944 -0.472599 2.105325 0.021232 -0.008312 84818.500000 0 0 1
31.182166 -16.479554 -19.250310 40.180563 -0.486181 2.070420 0.044433 -0.013479 591767.000000 0 0 1
32.323726 -17.145354 -19.802310 41.604302 -0.487691 2.066861 0.039326 -0.012360 561023.000000 0 0 1
33.139656 -17.918254 -18.940710 42.166943 -0.495667 2.036648 0.039383 -0.014177 867235.000000 0 0 1
34.428076 -18.383254 -19.728310 43.731484 -0.490446 2.038820 0.022672 -0.013296 935135.000000 0 0 1
35.307476 -17.315354 -20.128710 44.176966 -0.455951 2.043885 0.011064 -0.011027 183442.000000 0 0 1
-35.646307 -17.874954 -20.927010 45.034575 0.464809 2.054078 0.006956 -0.010367 -12840.500000 0 0 1
-34.647646 -16.896554 -21.586110 44.180460 0.453734 2.081269 -0.001242 -0.004418 753718.000000 0 0 1
-33.640039 -16.294054 -20.750310 42.751886 0.451061 2.077578 0.007993 -0.012752 562451.000000 0 0 1
-32.766859 -15.437954 -21.472010 42.107537 0.440299 2.105903 0.003843 -0.011030 -571992.000000 0 0 1
-31.641669 -14.865954 -20.588010 40.571640 0.439215 2.103017 0.013111 -0.005618 382644.000000 0 0 1
-30.538089 -15.766454 -20.312310 39.921747 0.476593 2.104590 0.006723 -0.010062 608380.000000 0 0 1
-30.801129 -17.067754 -19.767410 40.382772 0.506007 2.082314 0.006046 -0.010149 -787556.000000 0 0 1
-29.630209 -18.095654 -19.701810 39.919460 0.548262 2.086950 0.001509 -0.013909 -44644.300000 0 0 1
-30.066629 -19.352554 -19.315410 40.639988 0.571902 2.066080 0.009684 -0.016071 -573654.000000 0 0 1
-29.099809 -20.338054 -19.368510 40.442237 0.609992 2.070218 0.003121 -0.014717 -716653.000000 0 0 1
-29.532619 -21.795654 -19.187210 41.417088 0.635790 2.052476 0.004872 -0.003258 -527805.000000 0 0 1
-30.392849 -22.390254 -20.124510 42.779021 0.634931 2.060574 0.014416 -0.009388 37670.500000 0 0 1
-30.687109 -23.721954 -19.789010 43.543480 0.658076 2.042568 0.018882 -0.005039 -158690.000000 0 0 1
-31.769969 -24.229754 -20.756410 45.024887 0.651556 2.049917 0.006334 -0.003269 -324235.000000 0 0 1
-31.313689 -24.262954 -22.094010 45.358388 0.659207 2.079561 0.008579 -0.009902 -207225.000000 0 0 1
-32.143519 -24.961054 -22.981710 46.737769 0.660278 2.084856 0.010690 -0.008889 -490996.000000 0 0 1
-31.728459 -25.024354 -24.434910 47.222645 0.667815 2.114654 0.015255 -0.003312 153870.000000 0 0 1
-30.502659 -25.725194 -24.614910 46.883810 0.700636 2.123534 0.021771 -0.010945 103621.000000 0 0 1
-30.298949 -26.147774 -25.958100 47.702781 0.711989 2.146188 0.033161 -0.006704 174059.000000 0 0 1
-28.865659 -26.695794 -26.251190 47.275963 0.746365 2.159491 0.048946 -0.011733 392101.000000 0 0 1
-28.015269 -25.588344 -26.366440 46.203980 0.740154 2.178097 0.055198 -0.018348 -629815.000000 0 0 1
-26.640299 -25.855854 -26.269490 45.478751 0.770456 2.186608 0.055040 -0.012945 543315.000000 0 0 1
-25.738149 -24.573654 -26.396480 44.306782 0.762257 2.209016 0.065733 -0.014316 333356.000000 0 0 1
-25.787619 -24.057254 -27.730250 44.863343 0.750697 2.237126 0.077212 -0.019628 60998.200000 0 0 1
-24.849409 -23.006654 -27.911110 43.884272 0.746911 2.260121 0.096775 -0.018036 210082.000000 0 0 1
-24.723909 -22.507954 -29.341350 44.483643 0.738516 2.291081 0.074778 -0.009811 100701.000000 0 0 1
-24.051209 -23.401854 -30.236900 45.170538 0.771715 2.304189 0.068271 -0.008077 350164.000000 0 0 1
-23.837009 -22.787854 -31.478100 45.589035 0.762900 2.332942 0.072228 -0.003921 -290739.000000 0 0 1
-23.492909 -23.710754 -32.629310 46.677495 0.790013 2.344847 0.060518 -0.010018 157411.000000 0 0 1
-24.591709 -24.517454 -33.031500 47.926378 0.783886 2.331199 0.040905 -0.009914 167650.000000 0 0 1
-24.230709 -25.427664 -34.030840 48.905945 0.809497 2.340389 0.032253 -0.008574 34886.700000 0 0 1
-19.797709 -14.824754 -12.071510 27.521700 0.642740 2.024856 0.014541 0.017301 134232.000000 0 0 1
-20.139709 -14.172854 -10.885210 26.925183 0.613223 1.986984 0.006088 0.012867 -18154.000000 0 0 1
-19.297409 -14.617254 -9.871610 26.143886 0.648266 1.957986 0.010366 0.006464 -168024.000000 0 0 1
-19.514209 -13.819454 -8.566110 25.399998 0.616191 1.914789 0.025034 -0.005311 -575449.000000 0 0 1
-20.637609 -14.360054 -7.952810 26.369855 0.607915 1.877153 0.034973 -0.010489 -174636.000000 0 0 1
-20.737109 -13.875754 -6.629210 25.816868 0.589704 1.830484 0.027416 -0.016177 -322953.000000 0 0 1
-21.959409 -14.511654 -5.947510 26.984748 0.583958 1.793024 0.032596 -0.021871 -632271.000000 0 0 1
-21.982709 -15.917554 -5.661310 27.724690 0.626714 1.776440 0.026557 -0.019691 429713.000000 0 0 1
-21.122009 -16.340454 -4.603610 27.098762 0.658449 1.741507 0.037033 -0.016511 70518.600000 0 0 1
-21.122109 -17.863854 -4.495710 28.026277 0.702017 1.731903 0.032079 -0.016323 563494.000000 0 0 1
-22.217809 -18.258454 -3.647010 28.987978 0.687889 1.696942 0.039813 -0.014149 717579.000000 0 0 1
-21.841209 -19.308554 -2.779210 29.284513 0.723928 1.665843 0.031152 -0.009266 521157.000000 0 0 1
-23.034309 -20.172254 -2.194610 30.697158 0.719254 1.642350 0.041767 -0.026154 637349.000000 0 0 1
-23.626809 -21.009054 -3.160110 31.774089 0.726818 1.670417 0.008264 -0.024210 514947.000000 0 0 1
-24.731409 -21.776354 -2.647010 33.058416 0.721944 1.650953 0.022365 -0.020688 636263.000000 0 0 1
-25.003209 -23.008454 -3.531010 34.161637 0.743875 1.674343 0.037339 -0.025109 -655182.000000 0 0 1
-23.814309 -23.735954 -3.605410 33.815911 0.783750 1.677618 0.035779 -0.024762 -438773.000000 0 0 1
-23.866709 -24.597954 -4.722210 34.597376 0.800485 1.707714 0.037231 -0.018760 -174570.000000 0 0 1
-22.481109 -24.838254 -5.383110 33.931062 0.835171 1.730118 0.051029 -0.016014 521578.000000 0 0 1
-21.997509 -23.718554 -6.140310 32.926640 0.823027 1.758379 0.038555 -0.008695 193841.000000 0 0 1
-21.425209 -22.680854 -5.343710 31.654636 0.813859 1.740421 0.028459 -0.008814 -593214.000000 0 0 1
-21.287909 -21.309254 -6.015410 30.715542 0.785899 1.767913 0.035186 0.002664 -13657.400000 0 0 1
-20.195909 -21.077154 -6.887810 29.992717 0.806746 1.802514 0.022152 0.006704 155985.000000 0 0 1
-20.408009 -19.823554 -7.571610 29.441287 0.770872 1.830896 0.015796 -0.000794 303080.000000 0 0 1
-19.178609 -19.399854 -8.409910 28.546453 0.791133 1.869838 0.035909 0.002920 -53109.500000 0 0 1
-18.960309 -20.161654 -9.591410 29.291309 0.816096 1.904399 0.027933 0.005660 352770.000000 0 0 1
-17.636409 -19.916954 -10.068010 28.444557 0.846052 1.932590 0.068911 0.014122 456266.000000 0 0 1
-17.192409 -18.592954 -10.723410 27.500334 0.824516 1.971360 0.060252 0.014534 -602051.000000 0 0 1
-17.022509 -17.511054 -9.850710 26.333236 0.799544 1.954200 0.049667 0.007813 -1197810.000000 0 0 1
-15.712709 -17.357654 -9.484310 25.261225 0.835098 1.955678 0.068620 0.006590 -1465850.000000 0 0 1
-15.470009 -16.108854 -8.621510 23.940484 0.805626 1.939196 0.051569 0.007745 93478.700000 0 1 0
-16.079809 -16.248154 -7.338010 24.008523 0.790606 1.881409 0.029921 0.009829 280943.000000 0 1 0
-16.319209 -15.034454 -6.654110 23.165245 0.744445 1.862146 0.036295 0.003125 138963.000000 0 1 0
-16.900409 -15.223154 -5.198410 23.332203 0.733233 1.795482 0.035831 -0.004526 39724.300000 0 1 0
-17.179709 -14.067854 -4.552210 22.666485 0.686138 1.773006 0.019018 -0.002607 -5164.680000 0 1 0
-17.477209 -14.399254 -3.214410 22.871899 0.689138 1.711803 0.010587 -0.005266 -150508.000000 0 1 0
-18.365009 -13.273654 -2.608810 22.809413 0.625844 1.685421 0.014739 -0.008069 -181814.000000 0 1 0
-19.681509 -13.273954 -3.104410 23.941533 0.593363 1.700829 0.026041 -0.020596 366139.000000 0 1 0
-20.500809 -12.335054 -2.401910 24.045912 0.541658 1.670852 0.027508 -0.013827 -195728.000000 0 1 0
-21.993209 -12.330954 -2.748810 25.363549 0.510999 1.679386 0.024257 -0.016851 -331760.000000 0 0 1
-22.352709 -11.690754 -3.932110 25.529959 0.481888 1.725431 0.026345 -0.026449 -236194.000000 0 0 1
-23.710209 -11.890154 -4.191010 26.853572 0.464830 1.727506 0.027182 -0.027071 -853071.000000 0 0 1
-24.310809 -11.186854 -5.376910 27.296013 0.431271 1.769078 0.031646 -0.033991 -591331.000000 0 0 1
-23.860509 -11.712654 -6.566310 27.379309 0.456325 1.812984 0.029668 -0.036806 314818.000000 0 0 1
-24.481709 -11.215454 -7.758510 28.023829 0.429582 1.851315 0.034997 -0.036298 -403907.000000 0 0 1
-23.517909 -11.524854 -8.900310 27.660980 0.455653 1.898388 0.047738 -0.037839 -427069.000000 0 0 1
-22.484809 -10.579054 -8.956510 26.414051 0.439769 1.916736 0.041160 -0.028662 -488445.000000 0 0 1
-21.600109 -10.997354 -9.954910 26.203182 0.470928 1.960498 0.032005 -0.024246 -520699.000000 0 0 1
-20.283009 -10.192454 -9.963410 24.790242 0.465655 1.984397 0.026852 -0.018853 -386144.000000 0 1 0
-20.294309 -8.912354 -10.583010 24.561945 0.413799 2.016253 0.030412 -0.023335 661059.000000 0 1 0
-19.268609 -8.040554 -10.079510 23.184614 0.395320 2.020557 0.025452 -0.017987 272174.000000 0 1 0
-19.148209 -6.779854 -10.868110 23.037711 0.340298 2.062074 0.014264 -0.019519 -88951.600000 0 1 0
-18.485109 -7.020354 -12.101810 23.182718 0.362958 2.120012 0.015844 -0.017744 353725.000000 0 1 0
-18.431809 -5.867954 -12.926610 23.265032 0.308215 2.159910 0.033131 -0.014016 -302870.000000 0 1 0
-17.736509 -5.964754 -14.279410 23.538555 0.324416 2.222622 0.023196 -0.009466 -155740.000000 0 1 0
-18.487809 -6.771154 -15.169210 24.854628 0.351077 2.227257 0.031958 -0.012000 478003.000000 0 1 0
-18.106509 -6.488454 -16.500110 25.341652 0.344093 2.279837 0.035152 -0.011090 -11879.300000 0 0 1
-18.797809 -7.379054 -17.584310 26.777155 0.374066 2.287219 0.033914 -0.007590 751321.000000 0 0 1
-20.148709 -7.020854 -17.915710 27.861004 0.335295 2.269256 0.044138 -0.012442 1028420.000000 0 0 1
-20.644309 -7.813654 -18.968110 29.103778 0.361826 2.280673 0.058008 -0.014883 -1924.480000 0 0 1
-22.059009 -7.461754 -19.497510 30.371542 0.326181 2.267857 0.051942 -0.015316 -928806.000000 0 0 1
-22.104909 -6.278754 -20.254810 30.631799 0.276754 2.293260 0.055815 -0.018375 178505.000000 0 0 1
-23.271209 -6.089954 -21.019410 31.944519 0.255955 2.288953 0.045459 -0.021150 119997.000000 0 0 1
-24.606509 -5.965254 -20.255710 32.424656 0.237837 2.245545 0.070453 -0.020931 -850942.000000 0 0 1
-24.727409 -4.705854 -19.612010 31.909572 0.188060 2.232691 0.071322 -0.017170 97338.100000 0 0 1
-25.889459 -4.543954 -18.827410 32.332383 0.173744 2.192361 0.092824 -0.010971 -148275.000000 0 0 1
-26.006619 -3.120454 -18.307910 31.957175 0.119416 2.180822 0.066083 -0.008679 57951.700000 0 0 1
-26.274149 -2.078354 -19.258510 32.642621 0.078938 2.201831 0.070904 -0.013470 177988.000000 0 0 1
-27.610599 -1.965354 -19.715810 33.984128 0.071061 2.189706 0.077557 -0.014248 77053.300000 0 0 1
-27.783699 -0.752054 -20.668710 34.636615 0.027062 2.210216 0.077837 -0.012813 -258242.000000 0 0 1
-27.197749 -0.863954 -21.979110 34.979212 0.031755 2.250224 0.079419 -0.016435 119723.000000 0 0 1
-27.635769 -1.842154 -22.921510 35.951702 0.066560 2.262128 0.089661 -0.009333 -83710.100000 0 0 1
-26.769999 -1.805854 -24.202510 36.133855 0.067356 2.304738 0.102117 -0.014923 -282200.000000 0 0 1
-27.042899 -0.696954 -25.049110 36.868171 0.025766 2.317773 0.090306 -0.016227 -17073.600000 0 0 1
-26.805509 0.656046 -24.687710 36.447891 -0.024469 2.314941 0.075407 -0.005878 -356421.000000 0 0 1
-25.411389 1.078146 -24.173410 35.089241 -0.042402 2.330784 0.070079 -0.010626 -455022.000000 0 0 1
-24.435309 0.942146 -25.139590 35.070942 -0.038538 2.370029 0.055896 -0.009140 352816.000000 0 0 1
-23.108709 0.716646 -24.610810 33.767114 -0.031002 2.387422 0.052208 -0.009784 1113890.000000 0 0 1
-22.168309 0.093446 -25.668940 33.916620 -0.004215 2.429238 0.036944 -0.006628 -54502.100000 0 0 1
-21.937209 0.947146 -26.798680 34.645454 -0.043149 2.455160 0.016020 -0.002695 442214.000000 0 0 1
-20.943609 0.377846 -27.656990 34.694187 -0.018039 2.493381 0.013386 -0.008877 273148.000000 0 0 1
-20.891609 0.951646 -29.078300 35.817768 -0.045520 2.518093 0.005248 0.012755 -153691.000000 0 0 1
-20.389609 2.303046 -29.100560 35.607342 -0.112475 2.527442 0.009553 0.013411 300393.000000 0 0 1
-20.400609 2.934746 -30.431160 36.753953 -0.142876 2.546274 0.000327 0.013225 244276.000000 0 0 1
-19.568609 2.154346 -31.572010 37.207035 -0.109650 2.584034 -0.000844 0.013824 -143185.000000 0 0 1
-18.180609 2.254946 -31.471550 36.415351 -0.123400 2.614431 -0.000155 0.017475 -612858.000000 0 0 1
-17.614209 1.847146 -32.697370 37.185889 -0.104485 2.645176 -0.004450 0.014007 -616237.000000 0 0 1
-16.109609 1.757846 -32.849790 36.629472 -0.108688 2.683309 0.001187 0.004975 -129890.000000 0 0 1
-15.451409 3.083746 -32.722370 36.318164 -0.196989 2.692847 0.009238 0.009352 626405.000000 0 0 1
-14.060809 3.022046 -33.003000 36.000516 -0.211706 2.730630 0.010917 0.009451 364272.000000 0 0 1
-13.367509 4.310946 -33.449630 36.278813 -0.311964 2.744051 0.022721 0.009317 -198322.000000 0 0 1
-13.053109 5.158346 -32.397840 35.307396 -0.376346 2.732780 0.039342 -0.010807 515929.000000 0 0 1
-12.438209 6.428546 -32.832520 35.693271 -0.477028 2.738499 0.045122 -0.005039 226175.000000 0 0 1
-11.967109 7.346146 -31.699480 34.670371 -0.550549 2.724598 0.046121 -0.014880 -756331.000000 0 0 1
-10.914409 6.978146 -30.899070 33.504796 -0.568853 2.744601 0.050023 -0.023365 -133764.000000 0 0 1
-11.368409 6.012146 -29.940550 32.585628 -0.486458 2.735894 0.049967 -0.025059 302477.000000 0 0 1
-10.168609 5.181246 -29.367290 31.506882 -0.471245 2.770940 0.051980 -0.022981 194052.000000 0 0 1
-9.492709 4.362846 -30.305860 32.056062 -0.430808 2.809622 0.041123 -0.025272 323270.000000 0 0 1
-10.267509 3.264046 -30.753150 32.585763 -0.307797 2.804621 0.046680 -0.021560 -336496.000000 0 0 1
-9.769609 2.520846 -32.008140 33.560705 -0.252521 2.836232 0.042589 -0.021446 -134206.000000 0 0 1
-10.697609 1.553346 -32.432390 34.186425 -0.144197 2.819870 0.035421 -0.012234 446841.000000 0 0 1
-10.200509 0.812546 -33.579300 35.103846 -0.079490 2.845797 0.030045 -0.013263 -154902.000000 0 0 1
-10.629009 1.439746 33.618129 35.287779 -0.134635 0.308847 0.042033 -0.015008 -485072.000000 0 0 1
-11.987509 1.210046 33.406917 35.513190 -0.100601 0.346137 0.004760 -0.000405 -773611.000000 0 0 1
-12.324509 1.580046 32.115783 34.435645 -0.127508 0.369157 0.005627 0.007529 -1007140.000000 0 0 1
-13.759109 1.312946 31.770183 34.646522 -0.095136 0.410352 0.008119 0.011325 -1128580.000000 0 0 1
-14.699209 2.303046 32.024443 35.311977 -0.155415 0.434928 0.009015 0.021706 -576428.000000 0 0 1
-15.932909 1.948646 31.479153 35.335420 -0.121699 0.471547 0.001057 0.022949 -3968.170000 0 0 1
-17.010709 3.058246 31.299143 35.754069 -0.177883 0.504532 0.009972 0.018853 72402.600000 0 0 1
-17.500609 3.666546 32.472843 37.070210 -0.206522 0.503328 0.014161 0.013480 -9073.910000 0 0 1
-16.779509 4.757846 32.933916 37.267035 -0.276298 0.487028 0.019129 0.013719 -390804.000000 0 0 1
-17.531509 5.332946 34.142139 38.748933 -0.295298 0.492588 0.028529 0.012049 -396371.000000 0 0 1
-18.793109 5.782346 33.796818 39.100402 -0.298492 0.526920 0.013724 0.011237 -969488.000000 0 0 1
-19.778309 5.435446 -33.834730 39.566584 -0.268198 2.596606 0.007181 0.016840 -314415.000000 0 0 1
-20.980209 6.386646 -33.917390 40.389946 -0.295500 2.567616 0.006580 0.010945 -725611.000000 0 0 1
-20.765809 7.740446 -33.578650 40.232562 -0.356796 2.558228 0.017545 0.004545 -6781.990000 0 0 1
-20.247509 8.541146 33.995142 40.479409 -0.399188 0.573857 0.013673 -0.003571 -376820.000000 0 0 1
-20.090309 9.996446 -34.150878 40.863577 -0.461706 2.560255 0.029599 -0.005537 -73624.400000 0 0 1
-19.036809 10.161146 -33.172940 39.573892 -0.490292 2.564868 0.035396 -0.010522 744335.000000 0 0 1
-18.704809 11.442446 -32.814670 39.466467 -0.549006 2.552521 0.038045 -0.018955 -152395.000000 0 0 1
-17.975509 12.248846 -33.901620 40.279933 -0.598146 2.571128 0.019470 -0.031265 -622930.000000 0 0 1
-18.803209 12.617246 33.567496 40.491139 -0.591007 0.593464 0.031834 -0.019372 270770.000000 0 0 1
-18.050909 12.633146 32.390893 39.173992 -0.610633 0.597318 0.030073 -0.015454 -93414.400000 0 0 1
-18.802709 11.966846 31.180923 38.327500 -0.566785 0.620584 0.034306 -0.015364 53441.400000 0 0 1
-18.831909 10.534146 31.071623 37.829285 -0.510014 0.606998 0.030714 -0.008182 775154.000000 0 0 1
-17.548209 9.955346 30.810623 36.828563 -0.516039 0.579757 0.029093 -0.003636 847662.000000 0 0 1
-17.767809 8.398746 30.971703 36.680791 -0.441566 0.565431 0.031238 -0.000540 753120.000000 0 0 1
-18.739909 7.942246 30.011913 36.262631 -0.400866 0.595931 0.038361 -0.004232 609329.000000 0 0 1
-18.628609 6.556046 29.865773 35.804626 -0.338397 0.584240 0.032065 -0.001377 -26705.400000 0 0 1
-19.283809 5.975446 28.580743 34.991858 -0.300486 0.614984 0.045004 -0.007213 -483269.000000 0 0 1
-20.672809 6.081346 28.577223 35.791137 -0.286101 0.646090 0.064538 -0.016518 -707552.000000 0 0 1
-21.213309 5.254846 27.581383 35.190206 -0.242827 0.670067 0.057297 -0.016182 -896611.000000 0 0 1
-22.721909 5.114646 27.579763 36.098312 -0.221407 0.701278 0.054295 -0.014919 -482892.000000 0 0 1
-23.326609 6.135246 26.760673 36.026457 -0.257190 0.733544 0.055537 -0.017249 -32878.500000 0 0 1
-24.727609 6.138346 26.747933 36.940302 -0.243320 0.761089 0.048909 -0.013069 -354476.000000 0 0 1
-25.422439 7.002146 25.655553 36.790459 -0.268768 0.799113 0.041794 -0.013769 -77655.200000 0 0 1
-25.422989 6.517046 24.311123 35.774726 -0.250941 0.823632 0.034838 -0.011838 397556.000000 0 0 1
-26.153359 5.311846 24.052683 35.926947 -0.200378 0.837276 0.032516 -0.011851 -246292.000000 0 0 1
-26.199539 4.951246 22.569023 34.932671 -0.186779 0.868369 0.034146 0.000574 262698.000000 0 0 1
-27.205849 5.579346 21.762923 35.283313 -0.202274 0.906119 0.016203 -0.000613 207421.000000 0 0 1
-27.314749 4.921946 20.557723 34.538979 -0.178281 0.933277 0.042475 0.004042 -118499.000000 0 0 1
-28.094419 5.609446 19.416123 34.608498 -0.197073 0.975177 0.043309 -0.005803 -23039.200000 0 0 1
-29.461549 5.689946 19.748323 35.921507 -0.190782 0.988716 0.059309 -0.010244 -4073.440000 0 0 1
-30.216489 6.291446 18.686123 36.080323 -0.205279 1.026398 0.077755 -0.009709 571542.000000 0 0 1
-31.739249 6.378146 19.017223 37.546178 -0.198313 1.039673 0.085029 -0.008549 424274.000000 0 0 1
-32.126979 7.401246 19.907623 38.512786 -0.226424 1.027560 0.083928 -0.026504 96292.600000 0 0 1
-33.263109 6.931046 20.616623 39.743163 -0.205431 1.025412 0.083093 -0.015742 152483.000000 0 0 1
-33.762229 7.971746 21.581423 40.855779 -0.231868 1.014277 0.078454 -0.015550 83648.800000 0 0 1
-32.854409 8.118846 22.659023 40.727868 -0.242262 0.980807 0.069115 -0.007639 615521.000000 0 0 1
-33.572189 8.740246 23.721433 42.026066 -0.254688 0.971035 0.079269 -0.007599 345457.000000 0 0 1
-0.221609 32.760946 11.853590 34.840154 -1.564032 1.223637 0.009164 -0.008275 -301642.000000 0 0 1
-0.316509 33.026946 13.206390 35.570888 -1.561213 1.190420 0.002913 -0.004701 127349.000000 0 0 1
-0.612009 -34.342513 13.445490 36.885824 1.552977 1.197683 0.004572 -0.010011 -512896.000000 0 0 1
-0.642409 -33.862313 14.941790 37.017915 1.551827 1.155308 -0.004698 -0.004951 -311395.000000 0 0 1
-1.724909 -34.261413 15.724390 37.736934 1.520493 1.141001 -0.005650 0.002364 -541525.000000 0 0 1
-1.460509 -33.930513 17.078090 38.014129 1.527779 1.104864 -0.004591 -0.005416 571088.000000 0 0 1
-2.682209 -33.855013 18.072190 38.470251 1.491735 1.081766 0.010996 -0.002755 121433.000000 0 0 1
-3.257209 33.642246 18.430890 38.498154 -1.474278 1.071569 0.004118 0.002033 -434851.000000 0 0 1
-4.163509 33.948846 19.451590 39.347469 -1.448765 1.053704 0.008093 0.000712 -459971.000000 0 0 1
-5.227309 32.906546 19.829390 38.773319 -1.413259 1.033962 0.003528 -0.000999 -155720.000000 0 0 1
-6.205409 32.865246 18.830490 38.382533 -1.384180 1.058018 0.000234 -0.003708 -206260.000000 0 0 1
-7.363009 32.117246 19.162890 38.117552 -1.345437 1.044041 0.001118 -0.015090 -353515.000000 0 0 1
-8.225309 31.977346 17.944990 37.579636 -1.319031 1.072968 -0.013223 -0.013477 -1027040.000000 0 0 1
-8.893609 33.180146 17.670390 38.629795 -1.308912 1.095694 -0.008536 -0.008708 -243286.000000 0 0 1
-9.635809 33.088246 16.468390 38.195402 -1.287418 1.125017 -0.005471 0.002491 -78243.000000 0 0 1
-10.790509 34.074146 16.280690 39.275226 -1.264110 1.143372 0.015126 -0.008290 -318070.000000 0 0 1
-11.904609 33.851146 17.121590 39.758881 -1.232630 1.125599 0.014755 -0.005621 -101823.000000 0 0 1
-12.790209 -33.760813 16.859190 39.844877 1.208657 1.133910 0.004400 -0.012290 -161176.000000 0 0 1
-14.082509 -33.853313 17.684090 40.707382 1.176585 1.121402 0.031114 -0.008920 -211026.000000 0 0 1
-13.905909 -33.354613 18.952990 40.805886 1.175797 1.087764 0.016178 0.002554 613433.000000 0 0 1
-14.936609 -33.771813 19.877190 41.937338 1.154381 1.076998 0.004652 -0.006049 560814.000000 0 0 1
-14.663809 -33.226013 21.304190 42.105389 1.155171 1.040287 0.011729 -0.016733 -221596.000000 0 0 1
-14.883009 -31.818613 21.447290 41.157191 1.133284 1.022649 0.033332 -0.014867 53038.400000 0 0 1
-14.628709 -31.403413 22.758690 41.450349 1.134855 0.989558 0.018190 -0.009551 -29917.900000 0 0 1
-14.791609 -29.856813 22.886290 40.422806 1.110821 0.968941 0.041144 -0.015028 -188751.000000 0 0 1
-14.744909 -29.388213 24.232290 40.844624 1.105767 0.935669 0.039765 -0.010141 -154550.000000 0 0 1
-14.860909 -27.984213 24.338690 39.954157 1.082621 0.915789 0.026726 -0.001911 -91733.800000 0 0 1
-16.166009 -27.253413 23.936390 39.711952 1.035411 0.923853 0.043649 -0.001281 -636032.000000 0 0 1
-17.241309 -27.525413 24.801390 40.865879 1.011207 0.918645 0.053959 -0.000614 -569528.000000 0 0 1
-18.338409 -26.847113 24.225890 40.545758 0.971525 0.930423 0.053274 0.006321 -812177.000000 0 0 1
-19.397209 -26.587113 25.339790 41.535903 0.940498 0.914648 0.044380 0.001283 254841.000000 0 0 1
-20.207709 -27.705413 25.827190 42.930003 0.940625 0.925279 0.053111 -0.005410 1085610.000000 0 0 1
-21.068109 -28.310013 24.831590 43.150086 0.931022 0.957617 0.051448 -0.006005 201318.000000 0 0 1
-22.436109 -27.614213 24.567090 43.237318 0.888489 0.966489 0.035356 -0.002380 -96699.700000 0 0 1
-22.368109 -26.302713 24.008290 42.054287 0.866064 0.963209 0.037527 -0.009811 -1155710.000000 0 0 1
-23.536509 -26.043113 23.368990 42.170140 0.835912 0.983443 0.029431 -0.009182 -1322720.000000 0 0 1
-23.848609 -24.572813 23.071890 41.290331 0.800353 0.977892 0.015976 0.006399 -183748.000000 0 0 1
-24.222309 -23.847913 24.219390 41.737538 0.777610 0.951726 0.011287 0.009883 191011.000000 0 0 1
-24.925509 -22.676513 23.890890 41.307141 0.738187 0.954065 0.005621 0.011773 24515.500000 0 0 1
-25.387189 -21.764013 25.084190 41.801893 0.708707 0.927204 0.007093 0.015294 416105.000000 0 0 1
-26.558579 -22.234813 25.750790 43.160726 0.697015 0.931507 -0.002452 0.018946 446564.000000 0 0 1
-26.991079 -21.436313 26.806190 43.664696 0.671194 0.909792 -0.004391 0.011907 -627520.000000 0 0 1
-28.169469 -22.049313 27.564190 45.160556 0.664126 0.914282 -0.002104 0.016769 -67636.100000 0 0 1
-29.494519 -22.071413 27.084990 45.723852 0.642427 0.936811 0.001960 0.019223 413453.000000 0 0 1
-29.768049 -22.690513 25.843590 45.485023 0.651291 0.966506 -0.006408 0.015363 -1105880.000000 0 0 1
-31.274419 -22.980113 25.766490 46.584192 0.633695 0.984696 0.003060 0.016882 -139123.000000 0 0 1
-31.806359 -23.591013 24.585390 46.611391 0.638173 1.015195 -0.005295 0.009028 260895.000000 0 0 1
-31.410169 -24.924813 24.456790 46.967857 0.670781 1.023110 -0.004719 0.010250 -722020.000000 0 0 1
-31.961249 -25.577513 23.176890 47.041459 0.674903 1.055617 0.001785 0.014427 -231549.000000 0 0 1
-33.342319 -25.821513 23.130290 48.098556 0.658958 1.069123 0.019064 0.010655 -323554.000000 0 0 1
-33.701319 -26.397413 21.884590 48.078453 0.664459 1.098216 0.023713 0.009418 470759.000000 0 0 1
-35.030341 -27.230813 21.850590 49.457965 0.660776 1.113191 0.041746 0.000839 177023.000000 0 0 1
-35.138261 -28.427213 22.591090 50.528816 0.680211 1.107283 0.046652 -0.006059 221917.000000 0 0 1
-34.150829 -29.447213 22.400090 50.350586 0.711574 1.109753 0.031929 0.000282 8197.690000 0 0 1
-34.469055 -30.415713 21.238790 50.639091 0.723009 1.137996 0.048953 -0.006111 -46766.700000 0 0 1
-34.466326 -29.898213 19.930890 49.790272 0.714544 1.158956 0.039570 -0.000928 160622.000000 0 0 1
-34.962564 -30.820813 18.999690 50.331815 0.722521 1.183714 0.053128 -0.002868 -507971.000000 0 0 1
-35.166004 -30.255113 17.595190 49.614619 0.710473 1.208270 0.045394 0.004399 371979.000000 0 0 1
-33.974009 -30.104213 16.776290 48.393604 0.725080 1.216785 0.059624 0.004967 885619.000000 0 0 1
-34.267791 -29.611113 15.490190 47.864867 0.712628 1.241240 0.058301 0.004601 184258.000000 0 0 1
-35.198358 -30.311813 14.441890 48.644616 0.710944 1.269367 0.064168 0.008066 203848.000000 0 0 1
-34.613650 -31.448013 13.878790 48.782201 0.737515 1.282306 0.074017 -0.000438 48008.800000 0 0 1
-35.366385 -32.106613 12.827290 49.458621 0.737123 1.308443 0.065701 -0.002765 254344.000000 0 0 1
-35.445768 -31.391213 11.449090 48.712344 0.724809 1.333542 0.063074 0.001429 -40603.500000 0 0 1
35.673536 -30.261913 11.426790 48.155541 -0.703507 1.331222 0.048697 -0.001137 45915.600000 0 0 1
35.713586 -29.632213 10.170390 47.507527 -0.692601 1.355047 0.029669 0.004317 487617.000000 0 0 1
34.535946 -28.597813 10.025990 45.946566 -0.691618 1.350817 0.056481 0.007187 421199.000000 0 0 1
34.806666 -27.593813 9.112690 45.342735 -0.670319 1.368445 0.063990 -0.035365 175925.000000 0 0 1
33.657546 -26.807113 8.900590 43.939415 -0.672583 1.366820 0.038981 -0.027402 -39868.200000 0 0 1
33.928856 -25.746913 7.807690 43.301626 -0.649141 1.389495 0.033388 -0.031018 353994.000000 0 0 1
34.648956 -24.558513 8.166290 43.247648 -0.616595 1.380830 0.058412 -0.039017 191993.000000 0 0 1
34.882206 -23.722813 7.043490 42.768574 -0.597234 1.405354 0.056813 -0.040909 -58445.700000 0 0 1
35.421036 -22.348113 7.406890 42.531753 -0.562851 1.395754 0.068620 -0.047213 -382079.000000 0 0 1
34.462056 -21.460913 7.936290 41.366518 -0.556973 1.377746 0.066970 -0.037034 -244996.000000 0 0 1
34.965036 -20.147313 7.969490 41.133694 -0.522746 1.375817 0.079896 -0.032869 -255782.000000 0 0 1
34.040606 -19.237713 8.742590 40.066012 -0.514393 1.350822 0.094608 -0.015867 -342038.000000 0 0 1
34.350366 -19.333713 10.110290 40.693465 -0.512647 1.319717 0.086450 -0.029726 -593317.000000 0 0 1
33.611926 -18.566113 10.966090 39.933911 -0.504659 1.292616 0.087335 -0.020990 -538064.000000 0 0 1
34.127976 -18.638213 12.396890 40.814025 -0.499865 1.262180 0.080623 -0.030969 -79129.600000 0 0 1
35.353216 -18.032913 12.720090 41.675371 -0.471678 1.260629 0.049410 -0.020989 323841.000000 0 0 1
35.916696 -18.575613 13.972490 42.781923 -0.477302 1.238094 0.052795 -0.016372 973552.000000 0 0 1
-34.724643 -17.869813 14.457690 41.643197 0.475271 1.216234 0.057039 -0.013717 788018.000000 0 0 1
-33.503179 -18.237013 13.858290 40.584527 0.498485 1.222319 0.035722 -0.008757 23457.000000 0 0 1
-32.386089 -17.709913 14.554090 39.677718 0.500412 1.195221 0.018420 -0.007575 211531.000000 0 0 1
-31.135529 -17.849613 13.647490 38.396404 0.520546 1.207415 0.042625 -0.010136 -39932.900000 0 0 1
-30.555559 -19.150613 13.510190 38.508615 0.559855 1.212333 0.028952 -0.006009 50805.600000 0 0 1
-29.429319 -19.084313 12.666190 37.292469 0.575306 1.224257 -0.024889 0.009459 -79178.300000 0 0 1
-28.901869 -20.521613 12.388990 37.549191 0.617435 1.234556 -0.030615 -0.000508 -15057.300000 0 0 1
-29.561039 -21.225513 11.348090 38.120291 0.622720 1.268523 -0.010740 0.000744 -243016.000000 0 0 1
-28.651019 -22.029913 10.657790 37.680054 0.655491 1.284033 -0.011515 0.006617 -563409.000000 0 0 1
-29.340619 -22.781513 9.474290 38.335772 0.660215 1.321069 0.000837 0.003248 487418.000000 0 0 1
-30.059329 -23.945913 9.845790 39.672530 0.672678 1.319999 0.006455 -0.000981 -528476.000000 0 0 1
-31.279459 -23.735313 10.478490 40.639493 0.649119 1.310010 0.036317 -0.011945 -898300.000000 0 0 1
-32.180129 -24.999113 10.664890 42.121921 0.660464 1.314819 0.064030 -0.013130 335593.000000 0 0 1
-32.736689 -25.485913 9.447190 42.549642 0.661501 1.346903 0.056274 -0.012134 -342028.000000 0 0 1
-33.409049 -26.671613 9.537990 43.800831 0.673725 1.351279 0.074978 -0.007680 -150952.000000 0 0 1
-33.491619 -27.320513 8.078290 43.969964 0.684266 1.386024 0.060063 -0.012566 127663.000000 0 0 1
-32.247189 -27.736113 7.570790 43.202894 0.710334 1.394649 0.053365 -0.007354 -301938.000000 0 0 1
-32.405419 -28.422613 6.316990 43.564441 0.720015 1.425280 0.035127 -0.005867 -898476.000000 0 0 1
-31.108699 -28.802913 5.667390 42.772401 0.746931 1.437904 0.036906 -0.001646 -922647.000000 0 0 1
-30.535409 -27.684013 5.067690 41.527067 0.736461 1.448458 0.034934 0.001571 -793084.000000 0 0 1
-29.338459 -28.105113 4.455890 40.871721 0.763931 1.461558 0.030365 -0.004743 -99901.200000 0 0 1
-28.558999 -26.896613 3.886790 39.422727 0.755430 1.472043 0.031385 -0.003274 -112912.000000 0 0 1
-29.122869 -26.306613 2.760190 39.342065 0.734634 1.500580 0.039844 -0.000847 -107622.000000 0 0 1
-28.286649 -25.229413 2.305890 37.973345 0.728333 1.510035 0.039847 -0.013260 -121775.000000 0 0 1
-28.593229 -24.559313 0.925990 37.703980 0.709650 1.546234 0.042011 -0.013672 -402304.000000 0 0 1
-28.018489 -25.229713 -0.189010 37.704242 0.733073 1.575809 0.040669 -0.014238 -72449.800000 0 0 1
-28.245539 -24.671313 -1.453910 37.531294 0.717956 1.609545 0.043326 -0.023654 1096120.000000 0 0 1
-29.747839 -24.623413 -1.965610 38.666653 0.691427 1.621653 0.047014 -0.023730 791775.000000 0 0 1
-30.537929 -23.567913 -1.541510 38.605542 0.657282 1.610737 0.040362 -0.021598 -1062710.000000 0 0 1
-31.794099 -23.748613 -2.113210 39.740748 0.641546 1.623996 0.055280 -0.025286 -866695.000000 0 0 1
-32.631519 -22.464613 -2.083810 39.671364 0.602921 1.623347 0.051507 -0.023212 -305799.000000 0 0 1
-32.878359 -22.081613 -0.762610 39.612696 0.591421 1.590049 0.061791 -0.026732 -50876.200000 0 0 1
-33.855349 -21.077613 -0.783810 39.888154 0.556856 1.590448 0.059397 -0.012792 -67676.200000 0 0 1
-34.384511 -20.570813 0.652790 40.073421 0.539138 1.554506 0.079385 -0.019624 229508.000000 0 0 1
-35.097332 -21.626013 1.292590 41.245339 0.552226 1.539452 0.062855 -0.029106 145855.000000 0 0 1
-34.957822 -21.525813 2.757090 41.146221 0.551931 1.503739 0.063966 -0.022051 -964599.000000 0 0 1
-35.900191 -22.451413 3.537490 42.490040 0.558876 1.487445 0.079667 -0.015164 -76093.300000 0 0 1
34.675766 -22.239013 3.398790 41.334420 -0.570264 1.488477 0.055609 -0.007065 -111706.000000 0 0 1
34.184656 -21.009913 4.024190 40.326186 -0.551086 1.470839 0.053856 -0.017895 -270452.000000 0 0 1
33.020356 -20.414513 3.167790 38.950368 -0.553724 1.489378 0.041303 -0.003456 744895.000000 0 0 1
31.815766 -21.174113 3.245790 38.355198 -0.587210 1.486070 0.036428 0.001328 -34028.400000 0 0 1
30.732916 -20.614513 2.523690 37.092308 -0.590833 1.502706 0.026896 -0.000065 48182.700000 0 0 1
29.528586 -21.545713 2.740190 36.656020 -0.630353 1.495972 0.018822 0.010301 -581824.000000 0 0 1
29.492606 -22.760813 2.004890 37.308015 -0.657274 1.517032 0.016619 0.003374 -142141.000000 0 0 1
28.415406 -23.558713 2.444790 36.992233 -0.692224 1.504659 0.019667 0.004428 19123.700000 0 0 1
28.160636 -24.733113 1.468690 37.508737 -0.720688 1.531630 0.020810 0.004351 -136486.000000 0 0 1
27.612396 -24.283613 0.243490 36.772239 -0.721343 1.564175 0.024041 0.000006 1354.680000 0 0 1
26.929926 -25.368113 -0.366310 36.998598 -0.755543 1.580697 0.024429 -0.007013 -579432.000000 0 0 1
25.970456 -24.842713 -1.390710 35.966082 -0.763208 1.609473 0.015317 -0.015315 -542247.000000 0 0 1
26.608156 -24.335713 -2.561010 36.149408 -0.740821 1.641701 0.026162 -0.025319 219012.000000 0 0 1
27.100576 -25.288013 -3.482010 37.229682 -0.750814 1.664461 0.023764 -0.025718 -427400.000000 0 0 1
26.154556 -25.708913 -4.620110 36.964232 -0.776806 1.696113 0.019052 -0.030484 -227221.000000 0 0 1
25.849356 -24.740513 -5.561810 36.210716 -0.763483 1.725002 0.025910 -0.043291 1759010.000000 0 0 1
24.730156 -23.808213 -5.257910 34.728335 -0.766406 1.722782 0.033574 -0.040961 1123100.000000 0 0 1
24.132956 -22.849313 -6.355810 33.836179 -0.758083 1.759760 0.044565 -0.046485 -172858.000000 0 0 1
23.399356 -23.481613 -7.385110 33.962566 -0.787153 1.789996 0.050386 -0.049077 103227.000000 0 0 1
22.419356 -22.579313 -7.878510 32.779930 -0.788953 1.813518 0.055961 -0.043827 -225759.000000 0 0 1
22.859456 -21.403713 -8.770810 32.520775 -0.752522 1.843876 0.060237 -0.042808 -1024860.000000 0 0 1
23.136756 -21.799613 -10.116310 33.359741 -0.755651 1.878897 0.067802 -0.049622 115956.000000 0 0 1
22.851156 -20.750913 -11.033710 32.779849 -0.737267 1.914101 0.069891 -0.048909 -543268.000000 0 0 1
23.775856 -20.713513 -12.255910 33.831173 -0.716673 1.941495 0.062018 -0.038510 -513657.000000 0 0 1
24.979156 -20.128013 -11.832710 34.192224 -0.678263 1.924169 0.065656 -0.035754 145191.000000 0 0 1
25.880856 -19.842413 -12.953710 35.090436 -0.654093 1.948893 0.046032 -0.036161 85672.000000 0 0 1
27.310836 -20.188113 -12.572210 36.214668 -0.636552 1.925335 0.035469 -0.030766 -807597.000000 0 0 1
27.482906 -21.633113 -12.535310 37.154215 -0.666855 1.914935 0.020441 -0.032269 583032.000000 0 0 1
28.724736 -22.070213 -11.970010 38.150831 -0.655132 1.889941 0.023777 -0.034076 392866.000000 0 0 1
29.006476 -23.594013 -12.354810 39.378858 -0.682861 1.889928 0.009657 -0.021315 -394867.000000 0 0 1
29.774126 -23.856013 -13.488410 40.466593 -0.675492 1.910621 0.006445 -0.021618 97888.700000 0 0 1
30.010946 -25.240013 -13.612710 41.509288 -0.699262 1.904922 0.006922 -0.009576 -36632.700000 0 0 1
-4.743409 -9.350654 -27.595880 29.520624 1.101341 2.778492 0.051039 -0.009828 -4002.020000 0 0 1
-4.294809 -8.059254 -27.164300 28.658265 1.081173 2.817279 0.024580 -0.006541 56181.700000 0 0 1
-4.880909 -7.026654 -27.890470 29.173198 0.963685 2.843950 0.017465 -0.006029 -211682.000000 0 0 1
-4.678909 -5.647454 -27.258320 28.227680 0.878918 2.878765 0.013143 -0.010155 111176.000000 0 0 1
-5.407009 -5.353654 -26.068120 27.155925 0.780440 2.857592 0.018256 -0.012754 222679.000000 0 0 1
-4.915009 -4.214954 -25.427370 26.238794 0.708871 2.892252 0.024102 -0.020473 -108694.000000 0 0 1
-5.354209 -4.084554 -23.962010 24.890341 0.651686 2.867618 0.024341 -0.020131 -158691.000000 0 1 0
-4.683809 -4.965654 -23.122610 24.109145 0.814598 2.854533 0.021652 -0.029365 264807.000000 0 1 0
-5.274809 -4.777654 -21.862710 22.991905 0.735982 2.826886 0.019459 -0.016446 56024.200000 0 1 0
-4.774709 -5.792054 -20.776110 22.090552 0.881380 2.794888 0.023903 -0.021587 -321752.000000 0 1 0
-5.240609 -7.100954 -20.932210 22.716623 0.935010 2.742590 0.017512 -0.019956 215919.000000 0 1 0
-4.409309 -7.993154 -20.234310 22.198194 1.066698 2.717785 0.019123 -0.025503 -1406610.000000 0 1 0
-4.953909 -9.373954 -20.083910 22.710695 1.084628 2.655868 0.022829 -0.028095 216886.000000 0 1 0
-6.079509 -9.519454 -19.190210 22.267568 1.002448 2.609606 0.017387 -0.024361 442186.000000 0 1 0
-7.284709 -9.065654 -19.773410 22.939939 0.893894 2.609928 0.014758 -0.020467 -971949.000000 0 1 0
-8.453809 -9.339854 -18.787710 22.620296 0.835153 2.550924 0.010009 -0.015123 -261784.000000 0 1 0
-9.002509 -10.650854 -18.789110 23.399071 0.869073 2.503084 0.025593 -0.010755 351311.000000 0 1 0
-9.607809 -10.947754 -17.508810 22.775464 0.850493 2.447693 0.024262 -0.011775 177543.000000 0 1 0
-10.359509 -12.339154 -17.601910 23.862133 0.872392 2.400380 0.054573 -0.013529 226629.000000 0 1 0
-11.605709 -12.352354 -18.267010 24.919004 0.816553 2.393600 0.054542 -0.029756 341502.000000 0 1 0
-11.439609 -12.379054 -19.668910 25.903121 0.824819 2.433073 0.058817 -0.024716 -728176.000000 0 0 1
-12.773509 -12.044154 -20.377510 26.897344 0.756018 2.430429 0.045524 -0.025014 644489.000000 0 0 1
-13.775109 -13.061054 -20.386010 27.855595 0.758796 2.391823 0.049257 -0.015652 100111.000000 0 0 1
-14.534809 -13.171554 -19.205010 27.451465 0.736234 2.345632 0.041978 -0.005472 -711295.000000 0 0 1
-15.635209 -14.224954 -19.463810 28.734108 0.738205 2.314987 0.037579 -0.002721 -160433.000000 0 0 1
-15.130109 -15.545054 -19.739010 29.329122 0.798924 2.309077 0.052057 -0.006712 37017.200000 0 0 1
-15.647909 -16.074854 -20.928910 30.680242 0.798856 2.321512 0.070278 -0.005957 49272.400000 0 0 1
-15.211109 -17.517654 -21.227010 31.445699 0.855756 2.311811 0.038009 -0.004353 250372.000000 0 0 1
-15.955409 -18.523654 -20.460410 31.879919 0.859748 2.267635 0.044226 0.004530 763171.000000 0 0 1
-15.542709 -19.827854 -20.910910 32.741194 0.905961 2.263569 0.034792 0.004648 320580.000000 0 0 1
-16.352309 -20.946254 -20.153010 33.350973 0.907948 2.219646 0.036831 0.001916 283832.000000 0 0 1
-15.933509 -22.203454 -20.638910 34.246674 0.948346 2.217620 0.027700 0.001086 -94149.400000 0 0 1
-16.689209 -23.253054 -20.087110 34.967502 0.948276 2.182729 0.037735 0.000330 -145371.000000 0 0 1
-16.148109 -24.669654 -20.351110 35.826260 0.991212 2.174931 0.030485 -0.001546 -308813.000000 0 0 1
-16.256409 -25.035854 -21.725910 36.919913 0.994896 2.199950 0.016338 -0.002206 407421.000000 0 0 1
-15.564809 -26.289494 -21.968410 37.629932 1.036240 2.194199 0.020934 -0.002090 20875.100000 0 0 1
-15.670909 -26.768654 -23.438810 38.878221 1.041166 2.217899 0.026792 -0.007116 149133.000000 0 0 1
-16.923909 -27.374414 -23.723210 39.982095 1.017074 2.206005 0.033017 -0.009263 407510.000000 0 0 1
-16.712109 -28.774074 -23.802710 40.912234 1.044611 2.191736 0.029633 -0.002285 -265388.000000 0 0 1
-17.861409 -29.336094 -24.625510 42.261709 1.023892 2.192832 0.032289 -0.010704 -441210.000000 0 0 1
-17.790209 -29.323004 -26.055320 43.072146 1.025466 2.220465 0.034787 -0.011963 13393.300000 0 0 1
-17.965609 -28.052274 -26.662390 42.668211 1.001176 2.245770 0.049363 -0.022206 -425296.000000 0 0 1
-16.827109 -27.664994 -27.588190 42.539531 1.024336 2.276449 0.050691 -0.023163 -560324.000000 0 0 1
-16.986509 -28.029554 -28.936250 43.720750 1.025961 2.294070 0.049901 -0.019269 -950175.000000 0 0 1
-15.843009 -27.883044 -29.677650 43.694713 1.054091 2.317475 0.044840 -0.014969 -923757.000000 0 0 1
-16.061209 -28.121354 -31.133070 44.922612 1.051868 2.336491 0.050511 -0.017470 -131510.000000 0 0 1
-16.338109 -29.473024 -31.403400 46.062636 1.064626 2.320954 0.047207 -0.014734 144080.000000 0 0 1
-16.797509 -29.655364 -32.714380 47.242222 1.055431 2.335720 0.047199 -0.009387 -169683.000000 0 0 1
-16.692609 -31.175884 -33.107250 48.442429 1.079205 2.323254 0.031269 -0.005134 -771901.000000 0 0 1
-15.441809 -31.605024 -33.529740 48.595992 1.116321 2.332243 0.044609 -0.005514 -590518.000000 0 0 1
-15.567809 -32.514364 34.025018 49.570580 1.124254 0.814276 0.024907 0.002413 101845.000000 0 0 1
-14.211109 -32.866234 33.348420 48.931198 1.162681 0.820935 0.018068 0.000448 327068.000000 0 0 1
-13.538709 -33.826934 34.159634 49.944356 1.190088 0.817628 0.040646 0.003102 -590333.000000 0 0 1
-12.472009 34.335041 33.457460 49.536327 -1.222372 0.829272 0.039370 0.002178 -494140.000000 0 0 1
-11.587209 33.276762 34.211612 49.112531 -1.235720 0.800154 0.056578 -0.000431 472638.000000 0 0 1
-10.611609 33.984486 -33.593520 48.949730 -1.268140 2.327167 0.063527 -0.006220 -159965.000000 0 0 1
-9.777409 33.099849 -32.893620 47.677961 -1.283573 2.332164 0.062441 -0.016836 235102.000000 0 0 1
-8.769209 33.860029 -31.958210 47.378558 -1.317380 2.311123 0.055856 -0.026021 650044.000000 0 0 1
-9.472909 -34.252752 -30.830940 47.048208 1.300981 2.285383 0.070262 -0.023104 294137.000000 0 0 1
-8.749209 -33.168204 -30.259290 45.741699 1.312888 2.293647 0.054121 -0.022120 -480432.000000 0 0 1
-9.580109 -32.211504 -29.424340 44.667116 1.281715 2.289949 0.076312 -0.020476 -244989.000000 0 0 1
-9.781309 -32.438534 -28.032180 43.974261 1.277933 2.262004 0.099008 -0.017645 -70234.200000 0 0 1
-10.389609 -33.701264 -27.655580 44.816853 1.271756 2.235823 0.106256 -0.024628 113329.000000 0 0 1
-10.880709 -33.703744 -26.193880 44.050557 1.258525 2.207604 0.108974 -0.029058 559499.000000 0 0 1
-9.740409 -33.715284 -25.333320 43.282480 1.289552 2.196049 0.102676 -0.032924 154619.000000 0 0 1
-10.089009 -33.835204 -24.007610 42.696305 1.281009 2.167946 0.116515 -0.039557 190472.000000 0 0 1
-8.881809 -33.692244 -23.035010 41.769193 1.313044 2.154938 0.107114 -0.046957 463058.000000 0 0 1
-8.053609 33.846022 -23.034610 41.725377 -1.337192 2.155620 0.091053 -0.037325 -108393.000000 0 0 1
-7.178609 33.837448 -21.941510 40.962607 -1.361746 2.136070 0.094570 -0.029887 -697577.000000 0 0 1
-6.406409 32.543396 -21.757510 39.667416 -1.376424 2.151364 0.082017 -0.026014 -546620.000000 0 0 1
-5.293709 32.524086 -22.611410 39.963926 -1.409448 2.172194 0.052622 -0.038437 -120987.000000 0 0 1
-4.763409 31.183146 -22.596710 38.803221 -1.419212 2.192402 0.040374 -0.022254 375009.000000 0 0 1
-3.306409 31.090456 -23.150310 38.903543 -1.464847 2.208148 0.036639 -0.030871 146671.000000 0 0 1
-3.293909 31.380376 -24.555710 39.982005 -1.466212 2.232129 0.034331 -0.029090 -249977.000000 0 0 1
-2.105309 31.929766 -25.046710 40.635944 -1.504956 2.234919 0.014702 -0.035174 -429588.000000 0 0 1
-2.331009 32.241736 -26.518320 41.811295 -1.498624 2.257819 0.013912 -0.018396 430412.000000 0 0 1
-1.307909 33.104464 -27.056260 42.774494 -1.531308 2.255615 0.027603 -0.027518 297614.000000 0 0 1
-1.600709 -34.243254 -26.717290 43.462355 1.524085 2.232830 0.028848 -0.022799 66549.800000 0 0 1
-0.591509 -33.151934 -27.212490 42.894291 1.552956 2.258039 0.007026 -0.009967 46690.800000 0 0 1
0.559791 -33.194174 -26.402850 42.417886 -1.553934 2.242661 0.024230 -0.014640 136651.000000 0 0 1
1.530291 -32.215554 -26.848650 41.964672 -1.523330 2.265024 0.019625 -0.002469 672033.000000 0 0 1
2.601491 -31.795594 -25.812520 41.036736 -1.489159 2.251075 0.022972 0.000632 -411087.000000 0 0 1
2.143491 -31.187754 -24.682910 39.831101 -1.502176 2.239143 0.026117 0.003214 -614283.000000 0 0 1
3.169591 -30.440004 -24.141210 38.979971 -1.467044 2.238677 0.009786 0.006377 -618420.000000 0 0 1
2.877791 -29.863624 -22.801610 37.683300 -1.474729 2.220669 0.026850 0.004067 -235907.000000 0 0 1
3.073291 -30.880624 -21.833310 37.944057 -1.471601 2.183899 0.035355 0.004995 321327.000000 0 0 1
3.330291 -30.205854 -20.611110 36.719236 -1.460987 2.166772 0.033462 0.006490 -287200.000000 0 0 1
3.236991 -31.132394 -19.396110 36.822726 -1.467194 2.125561 0.031094 0.011896 -312257.000000 0 0 1
1.931891 -31.539324 -19.072110 36.908082 -1.509619 2.113842 0.024697 0.007615 -311584.000000 0 0 1
1.588291 -32.827614 -19.457410 38.193791 -1.522451 2.105329 0.039443 0.009192 -335444.000000 0 0 1
2.216791 -34.073966 -18.759810 38.959977 -1.505830 2.073179 0.023981 -0.004466 753917.000000 0 0 1
3.633891 -34.231369 -18.928310 39.284510 -1.465036 2.073534 0.027383 0.002002 496252.000000 0 0 1
4.057491 33.466809 -18.038310 38.234423 1.450146 2.062107 0.046439 -0.014904 -42893.600000 0 0 1
5.163991 32.596906 -18.646310 37.906595 1.413682 2.085069 0.057909 -0.012446 -858399.000000 0 0 1
6.340491 33.281397 -18.857810 38.774607 1.382541 2.078697 0.062990 -0.007956 -938582.000000 0 0 1
7.343791 32.339546 -19.224810 38.332373 1.347499 2.096162 0.061831 -0.027180 685117.000000 0 0 1
8.734791 32.939182 -19.596610 39.310474 1.311583 2.092674 0.058744 -0.015993 737360.000000 0 0 1
9.519891 33.266576 -18.449810 39.213376 1.292076 2.060651 0.052605 -0.009738 -651165.000000 0 0 1
10.763191 33.805937 -18.715110 40.111631 1.262562 2.056212 0.048391 0.001798 -711809.000000 0 0 1
11.578091 34.100918 -17.468810 40.026043 1.243484 2.022430 0.031075 -0.001823 -193442.000000 0 0 1
12.230091 32.990322 -16.866810 39.018274 1.215785 2.017816 0.030088 -0.002948 -374342.000000 0 0 1
12.950391 33.308919 -15.743110 39.051789 1.199985 1.985735 0.026199 -0.013332 -683560.000000 0 0 1
14.171291 32.430786 -15.467610 38.624193 1.158831 1.982820 0.020596 -0.009254 -170845.000000 0 0 1
13.937991 31.071586 -15.004610 37.213564 1.149127 1.985810 0.024267 -0.012143 -260368.000000 0 0 1
15.171491 30.398336 -14.880910 37.090085 1.107877 1.983634 0.022081 -0.007633 66641.500000 0 0 1
15.067991 29.242626 -13.914410 35.718151 1.095004 1.970952 0.025505 -0.012128 -298309.000000 0 0 1
14.785591 29.748076 -12.604310 35.530696 1.109530 1.933437 0.023809 -0.015319 684323.000000 0 0 1
13.426791 29.712076 -12.129510 34.788089 1.146366 1.926946 0.042785 -0.022132 679475.000000 0 0 1
12.861791 28.352216 -11.704810 33.260733 1.144917 1.930408 0.041807 -0.018457 -806636.000000 0 0 1
12.403691 27.525466 -12.734310 32.766835 1.147422 1.969945 0.032413 -0.022090 -119797.000000 0 0 1
11.996191 26.217246 -12.398110 31.384163 1.141666 1.976912 0.055855 -0.024729 -17627.800000 0 0 1
11.102291 25.983536 -11.163810 30.381502 1.166995 1.947067 0.054050 -0.023247 -636457.000000 0 0 1
9.847691 26.597506 -11.356810 30.551292 1.216198 1.951667 0.050853 -0.024510 -409663.000000 0 0 1
9.210291 26.718556 -10.118710 30.018310 1.238837 1.914615 0.040282 -0.013011 9760.310000 0 0 1
8.068791 27.754176 -10.197110 30.649318 1.287872 1.909964 0.043084 -0.015623 -154623.000000 0 0 1
8.607191 28.985096 -10.486110 32.002781 1.282138 1.904625 0.048766 -0.023529 78964.200000 0 0 1
7.649091 30.051426 -10.528910 32.748354 1.321556 1.898120 0.038335 -0.018989 379839.000000 0 0 1
8.262891 31.418636 -10.865410 34.255849 1.313627 1.893555 0.062308 -0.030882 -423611.000000 0 0 1
9.215991 31.943546 -10.006910 34.719776 1.289915 1.863163 0.042955 -0.027050 -722605.000000 0 0 1
9.642891 33.250031 -10.302610 36.120543 1.288528 1.860041 0.064280 -0.029966 192437.000000 0 0 1
10.812591 33.351264 -11.319310 36.842173 1.257285 1.883085 0.035342 -0.025035 151205.000000 0 0 1
12.104691 33.177692 -10.754810 36.918135 1.220959 1.866398 0.028079 -0.021105 95276.600000 0 0 1
13.090291 33.567725 -11.691210 37.879180 1.198969 1.884564 0.046169 -0.021602 732830.000000 0 0 1
14.576991 33.428681 -11.218710 38.155272 1.159593 1.869235 0.041178 -0.024519 742722.000000 0 0 1
14.939491 34.270717 -10.166210 38.743028 1.159708 1.836306 0.056923 -0.022532 -714163.000000 0 0 1
16.315591 -34.201400 -10.161310 39.232467 -1.125681 1.832786 0.045289 -0.021178 -422291.000000 0 0 1
16.615591 -33.239334 -9.005410 38.236482 -1.107247 1.808549 0.061864 -0.023790 -137102.000000 0 0 1
16.600191 -33.864524 -7.767110 38.505848 -1.115024 1.773902 0.057049 -0.024362 8918.520000 0 0 1
17.214691 -33.094334 -6.759710 37.911399 -1.091143 1.750058 0.052193 -0.019729 -929388.000000 0 0 1
17.525691 -34.080263 -5.634210 38.734461 -1.095816 1.716771 0.037506 -0.008516 117567.000000 0 0 1
18.562291 33.713663 -5.936410 38.941118 1.067503 1.723839 0.019554 -0.010472 -225292.000000 0 0 1
19.874191 34.272247 -5.873110 40.050765 1.045294 1.717969 0.026406 -0.007215 -790813.000000 0 0 1
20.800891 33.322910 -6.617510 39.835723 1.012757 1.737690 0.023629 -0.003118 -343832.000000 0 0 1
20.940191 32.090196 -5.941010 38.775867 0.992636 1.724616 0.032071 0.003794 -555118.000000 0 0 1
21.866291 32.059006 -4.907110 39.115141 0.972210 1.696581 0.033905 0.006765 -913260.000000 0 0 1
22.131491 30.604856 -4.450310 38.029795 0.944711 1.688087 0.015603 0.003166 -23136.900000 0 0 1
22.822991 29.842606 -5.431810 37.960171 0.917904 1.714382 0.018704 0.011522 -32857.500000 0 0 1
23.120791 28.513096 -5.063010 37.056736 0.889454 1.707854 0.009122 0.021235 127781.000000 0 0 1
24.065091 27.832756 -6.117010 37.298910 0.857869 1.735540 -0.006248 0.032667 93439.900000 0 0 1
25.350991 28.434836 -6.118910 38.583075 0.842671 1.730059 0.015958 0.021987 -437218.000000 0 0 1
26.294691 27.763476 -6.871610 38.851517 0.812562 1.748600 0.005139 0.024583 -580462.000000 0 0 1
27.055791 26.731986 -6.088310 38.518598 0.779378 1.729524 0.006084 0.025535 -956384.000000 0 0 1
27.875491 27.251316 -5.051110 39.308916 0.774076 1.699650 0.004215 0.018309 2422.020000 0 0 1
28.524491 26.203396 -4.336010 38.975191 0.743012 1.682278 -0.002952 0.018793 -208763.000000 0 0 1
29.594091 26.784356 -3.414710 40.060856 0.735602 1.656138 0.001208 0.016410 -394874.000000 0 0 1
29.090891 27.469376 -2.305910 40.076973 0.756737 1.628365 0.008282 0.008892 187970.000000 0 0 1
30.173091 27.718496 -1.410310 40.996578 0.743024 1.605204 0.011555 0.004099 307764.000000 0 0 1
30.279991 29.181676 -0.902510 42.062603 0.766929 1.592254 0.042944 -0.014801 -228612.000000 0 0 1
30.747291 29.958926 -1.968010 42.974483 0.772412 1.616607 0.033448 -0.007600 -53088.800000 0 0 1
30.647091 31.333136 -1.699810 43.862272 0.796466 1.609559 0.059012 -0.020047 6065.280000 0 0 1
33.245406 22.866246 19.222123 44.694656 0.602492 1.126219 0.035093 -0.004648 73841.900000 0 0 1
33.421916 22.495146 20.591723 45.244615 0.592420 1.098289 0.029373 -0.015248 -519102.000000 0 0 1
34.257806 23.393546 21.217823 46.594542 0.599135 1.098007 0.038912 -0.016740 -387410.000000 0 0 1
34.259736 23.341046 22.751123 47.287922 0.598063 1.068865 0.035844 -0.015582 -196147.000000 0 0 1
33.092356 23.946546 23.232523 46.992459 0.626408 1.053665 0.028125 -0.012015 -232804.000000 0 0 1
33.262476 24.447346 24.548103 48.027851 0.633821 1.034306 0.029451 -0.018551 -381872.000000 0 0 1
31.971906 24.679746 25.340043 47.680294 0.657383 1.010476 0.046295 -0.013498 56542.500000 0 0 1
31.212036 25.768046 24.814583 47.475751 0.690145 1.020806 0.020510 -0.005612 406154.000000 0 0 1
29.997766 26.037646 25.507943 47.206781 0.714844 0.999949 0.020657 -0.010673 498729.000000 0 0 1
29.746836 27.576246 25.844263 48.096253 0.747550 1.003511 0.007960 -0.001442 -152426.000000 0 0 1
29.554226 28.512146 24.730873 47.937572 0.767454 1.028741 -0.002064 0.006360 332520.000000 0 0 1
29.449946 29.832346 25.282933 48.954008 0.791849 1.028081 -0.011953 0.004936 -251338.000000 0 0 1
29.334166 30.897346 24.181063 48.988398 0.811345 1.054563 -0.006393 -0.001998 -97656.400000 0 0 1
30.531296 31.324946 23.536783 49.672854 0.798228 1.077155 -0.015795 -0.002707 217267.000000 0 0 1
30.309786 32.128446 22.396923 49.523150 0.814517 1.101508 -0.018378 0.011647 -386976.000000 0 0 1
31.661276 32.563746 21.840923 50.397023 0.799449 1.122559 -0.011530 0.001426 145044.000000 0 0 1
32.360336 33.535046 22.619223 51.801737 0.803223 1.118925 -0.009134 0.009349 -776450.000000 0 0 1
33.711516 33.554846 22.323723 52.542770 0.783069 1.131981 0.003827 0.011455 -607434.000000 0 0 1
34.468506 -34.054913 23.153823 53.702091 -0.779362 1.125026 0.021587 0.008284 -78657.400000 0 0 1
34.201626 -32.728013 22.811923 52.547673 -0.763384 1.121737 0.013414 0.003750 3256.030000 0 0 1
34.596686 -31.823713 23.800133 52.688953 -0.743674 1.102115 0.018118 0.001864 -738630.000000 0 0 1
33.966506 -30.449913 23.483123 51.306704 -0.730861 1.095389 0.024422 0.001924 260679.000000 0 0 1
32.568366 -30.458113 23.669713 50.484161 -0.751929 1.082803 0.012091 0.000610 302801.000000 0 0 1
31.710366 -30.802913 22.580523 49.641181 -0.770883 1.098565 0.002667 0.007922 189410.000000 0 0 1
30.852716 -32.077213 22.900123 50.052506 -0.804854 1.095590 -0.006788 0.011010 -154868.000000 0 0 1
29.916076 -31.985413 23.934283 49.908799 -0.818815 1.070643 0.000173 0.003191 -307837.000000 0 0 1
29.268196 -33.184913 24.116473 50.393155 -0.848031 1.071775 -0.013458 0.009253 -238375.000000 0 0 1
28.408376 -33.180413 25.411593 50.534392 -0.862726 1.043895 -0.012885 0.005799 -79223.700000 0 0 1
28.039016 34.198846 25.739113 51.168833 0.884049 1.043703 -0.014636 -0.003925 -37306.300000 0 0 1
27.384586 34.150446 26.955063 51.407626 0.894910 1.018857 -0.014703 -0.002988 -1023960.000000 0 0 1
27.091906 32.673446 27.435733 50.539538 0.878519 0.996961 -0.003351 0.002166 531983.000000 0 0 1
26.386556 31.853446 26.475823 49.110708 0.878992 1.001422 -0.010569 -0.004559 422321.000000 0 0 1
25.039456 32.247546 26.264423 48.545839 0.910565 0.999143 -0.004045 -0.012346 -166400.000000 0 0 1
24.340756 31.428446 25.098623 47.012344 0.911810 1.007622 0.018122 -0.012389 234852.000000 0 0 1
24.650756 31.975146 23.837883 46.886186 0.914031 1.037447 0.025367 -0.017134 1185840.000000 0 0 1
26.023656 32.238846 23.447523 47.606304 0.891672 1.055802 0.001701 -0.008598 591097.000000 0 0 1
26.040556 32.861746 22.043723 47.370145 0.900690 1.086766 0.019847 0.005130 725279.000000 0 0 1
27.351336 32.982346 21.467123 47.924609 0.878460 1.106342 0.004546 0.009657 639887.000000 0 0 1
27.199316 33.827246 20.365323 47.946134 0.893581 1.132106 0.010333 0.002224 155442.000000 0 0 1
28.449036 -34.172313 19.752223 48.654342 -0.876540 1.152756 0.006623 0.000984 8341.550000 0 0 1
29.367666 33.620146 19.225023 48.604275 0.852809 1.164139 0.002140 0.004172 -521590.000000 0 0 1
30.384186 34.220946 18.465223 49.348114 0.844716 1.187281 -0.001388 0.001552 -322280.000000 0 0 1
31.320216 33.167646 17.856323 48.988743 0.814038 1.197702 -0.015232 0.015792 -471109.000000 0 0 1
32.163886 32.496446 18.746223 49.416146 0.790541 1.181698 -0.017222 0.002042 170166.000000 0 0 1
32.920916 31.497746 18.030823 49.000054 0.763309 1.193965 0.014704 -0.002394 461725.000000 0 0 1
33.908476 30.638846 18.902823 49.455438 0.734787 1.178600 0.034973 -0.018085 -34414.900000 0 0 1
34.925706 31.419446 19.439423 50.841693 0.732599 1.178456 0.036316 -0.015000 -329217.000000 0 0 1
35.889766 30.574746 20.046323 51.232270 0.705600 1.168771 0.053832 -0.020617 -441554.000000 0 0 1
-34.932978 31.295546 20.727923 51.277392 -0.730531 1.154658 0.086159 -0.022853 -287571.000000 0 0 1
-34.109348 32.024146 19.811223 50.808249 -0.753878 1.170250 0.092428 -0.025074 514401.000000 0 0 1
-32.953389 32.664746 20.358123 50.669169 -0.780999 1.157331 0.076758 -0.019008 451880.000000 0 0 1
-33.121289 33.965846 21.128423 51.933696 -0.797986 1.151810 0.066968 -0.014186 -275245.000000 0 0 1
-33.330139 33.762546 22.503323 52.509116 -0.791843 1.127898 0.065888 -0.012400 186224.000000 0 0 1
-33.212329 -33.713713 23.200323 52.706055 0.792890 1.114994 0.050969 -0.005141 4621.900000 0 0 1
-33.202409 -34.044413 24.748013 53.608639 0.797919 1.090951 0.059388 -0.012422 219522.000000 0 0 1
-34.535205 -34.027513 25.253793 54.665402 0.777994 1.090581 0.048146 -0.001411 421077.000000 0 0 1
-34.499571 34.346746 26.615753 55.482589 -0.783178 1.070468 0.054810 -0.008711 903389.000000 0 0 1
-35.935684 34.237046 27.237633 56.616582 -0.761196 1.068899 0.029355 -0.016475 530330.000000 0 0 1
-35.921130 33.685946 28.505473 56.900198 -0.753298 1.046073 0.050110 -0.020803 -497386.000000 0 0 1
34.781306 33.605046 29.126533 56.457004 0.768200 1.028731 0.055021 -0.034128 -486477.000000 0 0 1
34.743246 32.508146 30.197563 56.353931 0.752175 1.005276 0.054214 -0.019526 -253139.000000 0 0 1
34.806826 31.136646 29.879443 55.441744 0.729799 1.001625 0.038391 -0.019582 460001.000000 0 0 1
35.968262 30.702946 29.163843 55.560026 0.706587 1.018191 0.037943 -0.020114 -103025.000000 0 0 1
35.929614 29.202346 28.759483 54.505248 0.682476 1.014969 0.033162 -0.014378 -879229.000000 0 0 1
34.997076 28.882346 27.796533 53.213086 0.689966 1.021177 0.034980 -0.007912 -422818.000000 0 0 1
35.082426 27.564446 27.257753 52.283462 0.665964 1.022369 0.027159 -0.012971 -36152.100000 0 0 1
34.434676 26.380746 28.099123 51.684151 0.653732 0.995993 0.036777 -0.015969 -56287.400000 0 0 1
35.196516 25.999846 29.241123 52.629175 0.636233 0.981704 0.019650 -0.012408 -84579.400000 0 0 1
35.106106 24.643646 29.650703 52.143189 0.612051 0.965945 0.020470 -0.015441 78362.700000 0 0 1
35.971083 23.689846 28.792713 51.808763 0.582383 0.981532 0.026503 -0.014980 -203870.000000 0 0 1
35.406766 23.570446 27.502133 50.651479 0.587336 0.996829 0.016329 -0.013781 300249.000000 0 0 1
-35.926678 22.551046 26.650263 50.095034 -0.560536 1.009842 0.010260 -0.015359 -84920.700000 0 0 1
35.720136 21.038546 26.989923 49.467206 0.532279 0.993677 0.012613 -0.015190 614536.000000 0 0 1
34.357946 20.668446 26.670283 48.155551 0.541567 0.983832 0.053354 -0.008268 1096870.000000 0 0 1
33.935946 19.406446 27.180393 47.613363 0.519468 0.963248 0.052948 -0.004382 -606920.000000 0 0 1
33.559226 19.384246 28.725153 48.240078 0.523796 0.932955 0.047914 -0.008011 22091.000000 0 0 1
32.413346 20.136446 29.095903 47.986176 0.555890 0.919347 0.042420 -0.009181 329830.000000 0 0 1
32.545476 21.513046 28.883693 48.541600 0.584080 0.933494 0.044881 -0.020594 -1373510.000000 0 0 1
31.724296 22.266146 29.974203 48.996582 0.611976 0.912511 0.058070 -0.030419 1113720.000000 0 0 1
30.303656 21.908646 30.052873 47.973696 0.625977 0.893813 0.069393 -0.036528 1975200.000000 0 0 1
29.515326 22.385246 28.937643 47.006818 0.648873 0.907643 0.063847 -0.038131 -530659.000000 0 0 1
29.274016 23.897846 29.067153 47.675722 0.684631 0.915134 0.057938 -0.036625 -1967020.000000 0 0 1
30.371966 24.692046 28.879073 48.643133 0.682610 0.935156 0.045564 -0.027800 -1098670.000000 0 0 1
30.407126 25.923346 29.618563 49.738039 0.705968 0.932919 0.029845 -0.018896 9812.150000 0 0 1
30.836626 25.828446 31.073273 50.828677 0.697245 0.913052 0.036347 -0.025436 -1530100.000000 0 0 1
32.155066 25.541046 31.265403 51.612196 0.671261 0.920056 0.045460 -0.025589 -1484780.000000 0 0 1
32.541486 25.335246 32.655888 52.604468 0.661526 0.901057 0.058878 -0.017693 -134886.000000 0 0 1
31.898286 24.156546 33.434850 52.143347 0.648156 0.874722 0.069235 -0.021296 -516185.000000 0 0 1
32.349896 24.010646 -33.813110 52.596134 0.638501 2.269051 0.048066 -0.031217 72349.900000 0 0 1
31.860606 22.828146 -33.201580 51.366987 0.621715 2.273601 0.026727 -0.031018 -131574.000000 0 0 1
32.319086 22.764446 -31.695760 50.669167 0.613650 2.246624 0.026761 -0.031676 -262781.000000 0 0 1
31.799046 23.737246 -30.858470 50.268095 0.641242 2.231760 0.015554 -0.031123 -12319.400000 0 0 1
32.194726 23.534746 -29.508970 49.610120 0.631238 2.207835 0.053798 -0.038874 -337527.000000 0 0 1
33.617786 23.927846 -29.054130 50.466225 0.618576 2.184274 0.049379 -0.011847 36991.100000 0 0 1
34.049056 23.407746 -27.811680 49.807131 0.602268 2.163237 0.053258 -0.020004 -601043.000000 0 0 1
35.103156 24.209446 -27.362370 50.665848 0.603757 2.141299 0.057914 -0.014744 -64824.800000 0 0 1
35.818586 23.515746 -26.127370 50.185664 0.580948 2.118367 0.049655 -0.014296 191519.000000 0 0 1
-35.065208 22.639246 -26.484740 49.432234 -0.573299 2.136226 0.039558 -0.010221 281010.000000 0 0 1
-35.338207 21.298346 -26.376570 48.970725 -0.542403 2.139594 0.024396 0.001595 -191918.000000 0 0 1
-34.137792 20.435546 -26.831890 47.989069 -0.539404 2.164126 0.030720 0.004780 -171053.000000 0 0 1
-32.980259 20.578146 -26.063500 46.802389 -0.557846 2.161426 0.033848 0.000984 -645633.000000 0 0 1
-32.144889 19.467346 -26.286280 45.861094 -0.544536 2.181168 0.007906 -0.000289 722688.000000 0 0 1
-30.811359 19.508646 -25.443920 44.467069 -0.564449 2.179978 0.011144 0.001720 747320.000000 0 0 1
-31.059839 19.567946 -24.068110 43.896378 -0.562192 2.151119 0.010016 -0.001833 -68826.000000 0 0 1
-29.832559 19.729846 -23.388910 42.735109 -0.584315 2.149931 0.015761 0.004971 151590.000000 0 0 1
-29.930179 20.004746 -21.855510 42.114948 -0.589188 2.116417 0.006015 0.004344 84269.900000 0 0 1
-30.629879 18.941346 -21.215510 41.797870 -0.553835 2.103163 0.004989 0.001032 18506.200000 0 0 1
-31.102509 19.370146 -19.966710 41.728146 -0.557004 2.069736 0.016396 0.000821 434025.000000 0 0 1
-32.305229 18.429646 -19.437710 41.965513 -0.518434 2.052380 0.014060 -0.001117 1365530.000000 0 0 1
-33.077849 18.979446 -18.367810 42.328949 -0.520918 2.019647 0.021429 -0.006654 178749.000000 0 0 1
-33.967079 19.993346 -18.743210 43.644063 -0.532002 2.014687 0.013965 0.001159 -898837.000000 0 0 1
-35.172670 20.198946 -17.812110 44.298819 -0.521293 1.984595 0.022670 -0.003462 -196664.000000 0 0 1
-34.861145 20.839946 -16.582910 43.870214 -0.538799 1.958431 0.024461 -0.011168 1298480.000000 0 0 1
35.954865 20.750146 -15.666510 44.370716 0.523423 1.931660 0.031213 -0.002315 474915.000000 0 0 1
-35.793003 21.605146 -14.361410 44.206012 -0.543072 1.901675 0.034761 -0.005531 -135886.000000 0 0 1
35.931204 22.992546 -14.504210 45.056417 0.569246 1.898545 0.044832 -0.010409 -687266.000000 0 0 1
34.590096 23.316846 -14.465410 44.151989 0.593124 1.904588 0.044875 -0.001679 -1001350.000000 0 0 1
34.280726 24.747846 -14.869510 44.818817 0.625285 1.908975 0.049789 -0.006891 -55155.300000 0 0 1
34.622386 25.634746 -13.819110 45.241769 0.637335 1.881208 0.046972 -0.008209 -123290.000000 0 0 1
34.511816 27.034146 -14.065210 46.040641 0.664493 1.881255 0.030524 -0.004100 -127159.000000 0 0 1
35.711266 27.802546 -14.686310 47.581129 0.661516 1.884578 0.061828 -0.010212 172749.000000 0 0 1
-35.955947 27.285646 -15.965510 47.877282 -0.649149 1.910775 0.067417 -0.006377 -664800.000000 0 0 1
-34.813799 27.928946 -16.404510 47.551389 -0.676104 1.923019 0.060595 -0.012893 -1303170.000000 0 0 1
-34.493038 27.665546 -17.894210 47.700680 -0.675997 1.955339 0.044565 -0.012498 -179991.000000 0 0 1
-34.039100 26.386746 -18.300010 46.795417 -0.659428 1.972584 0.040625 -0.013587 -146398.000000 0 0 1
-32.655559 26.262946 -18.072210 45.636966 -0.677322 1.977952 0.045848 -0.005323 -292163.000000 0 0 1
-32.071319 24.913546 -18.553210 44.648358 -0.660444 1.999334 0.041706 -0.006328 -96597.000000 0 0 1
-31.831619 24.884346 -19.967910 45.068837 -0.663513 2.029798 0.024140 -0.001223 85104.300000 0 0 1
-31.454759 23.608546 -20.406510 44.307911 -0.643857 2.049424 0.022929 0.000908 -510095.000000 0 0 1
-31.143569 23.653346 -21.850710 44.797949 -0.649549 2.080320 0.013244 0.009280 -693426.000000 0 0 1
-32.168069 24.028146 -22.714310 46.131078 -0.641550 2.085626 0.023385 0.004312 -489661.000000 0 0 1
-31.921699 23.802746 -24.099410 46.544035 -0.640718 2.115046 0.024674 0.008796 -202789.000000 0 0 1
-32.912079 24.566346 -25.006810 48.083790 -0.641208 2.117726 0.010171 0.009450 -262525.000000 0 0 1
-32.634389 25.953146 -25.043410 48.638889 -0.671850 2.111669 -0.000604 0.015204 -60880.100000 0 0 1
-33.462149 26.599846 -25.986120 50.025450 -0.671638 2.117013 0.020154 0.006348 -103130.000000 0 0 1
-32.937549 28.049246 -26.264230 50.610791 -0.705416 2.116413 0.006648 0.007722 -175428.000000 0 0 1
-31.791749 28.089546 -27.052360 50.314691 -0.723651 2.138460 -0.015894 0.005480 -671454.000000 0 0 1
-31.254539 29.384346 -27.300850 50.849016 -0.754566 2.137555 -0.009072 0.003631 455744.000000 0 0 1
-29.817229 29.364846 -27.885160 50.288602 -0.777754 2.158561 0.001666 0.005740 959461.000000 0 0 1
-28.779039 28.873746 -26.973610 48.882532 -0.787041 2.155323 -0.013908 0.007999 980163.000000 0 0 1
-27.513629 28.823546 -27.648320 48.499755 -0.808645 2.177389 0.005956 0.013415 1159350.000000 0 0 1
-26.603289 30.100546 -27.463750 48.662464 -0.846996 2.170469 0.003198 0.008613 -294414.000000 0 0 1
-26.095639 30.418346 -26.195600 47.879720 -0.861739 2.149707 -0.003936 0.012878 -728136.000000 0 0 1
-27.024119 30.753746 -25.208990 48.078988 -0.849860 2.122718 -0.001957 0.018469 -574793.000000 0 0 1
-26.486719 31.221646 -23.839410 47.377790 -0.867264 2.098067 -0.023103 0.010779 -10650.600000 0 0 1
-25.948409 32.533446 -23.882110 47.980207 -0.897526 2.091798 0.001767 0.001655 213836.000000 0 0 1
-24.958209 32.835146 -22.910510 47.179980 -0.920858 2.077844 0.009572 0.013375 79427.900000 0 0 1
-24.392409 34.263346 -22.975210 47.925221 -0.952122 2.070764 0.010695 0.015022 -424545.000000 0 0 1
-25.295869 -33.464113 -22.497810 47.601253 0.923523 2.063070 -0.001331 0.000146 -191673.000000 0 0 1
-24.957609 -32.105913 -22.714110 46.578994 0.910018 2.080189 0.013779 -0.002096 -257420.000000 0 0 1
16.714591 8.141946 -25.258680 31.363510 0.453287 2.507066 0.060597 -0.020541 -570520.000000 0 0 1
15.408891 7.715146 -25.057810 30.411367 0.464203 2.539164 0.062359 -0.019496 -587136.000000 0 0 1
15.204391 6.376646 -25.310500 30.206895 0.397114 2.564229 0.077698 -0.022295 843471.000000 0 0 1
13.663291 6.059246 -25.458930 29.522146 0.417409 2.610723 0.070970 -0.031767 1100760.000000 0 0 1
13.031491 6.239746 -24.194110 28.179942 0.446561 2.603247 0.061710 -0.032103 745736.000000 0 0 1
11.677091 5.760546 -24.221010 27.499012 0.458290 2.648336 0.057275 -0.030653 798872.000000 0 0 1
10.906991 5.946546 -22.834010 25.994535 0.499154 2.643333 0.058685 -0.031499 532685.000000 0 0 1
11.461691 5.051146 -21.812410 25.152846 0.415092 2.620337 0.057406 -0.022539 586014.000000 0 0 1
10.918591 5.240246 -20.487210 23.799193 0.447470 2.607707 0.063646 -0.024093 -2722.390000 0 1 0
11.343991 6.563746 -19.739010 23.693826 0.524543 2.555461 0.069884 -0.035010 -134126.000000 0 1 0
11.192391 6.584946 -18.318910 22.454701 0.531803 2.524936 0.062943 -0.027685 -292389.000000 0 1 0
11.469791 7.879246 -17.855610 22.637611 0.601918 2.479583 0.065824 -0.027448 306755.000000 0 1 0
12.950491 8.342646 -17.725010 23.483844 0.572284 2.426107 0.069492 -0.022511 -45616.100000 0 1 0
13.414091 7.731246 -16.555610 22.667118 0.522850 2.389674 0.074754 -0.019662 -298957.000000 0 1 0
14.787991 7.929946 -16.367610 23.440720 0.492219 2.343754 0.071524 -0.018594 -533798.000000 0 1 0
15.081591 7.625446 -14.885110 22.520398 0.468128 2.292895 0.064576 -0.021857 -57676.000000 0 1 0
16.487191 7.648946 -14.678310 23.362077 0.434380 2.250158 0.063829 -0.026125 505829.000000 0 1 0
16.871491 7.976346 -13.379410 22.962533 0.441628 2.192797 0.046771 -0.020502 -148488.000000 0 1 0
17.150691 9.458546 -13.119810 23.574132 0.503991 2.161005 0.059636 -0.019913 -322016.000000 0 1 0
16.030891 10.324346 -13.121310 23.146282 0.572166 2.173518 0.047559 -0.015808 410726.000000 0 1 0
16.508191 11.625446 -13.003710 24.015991 0.613555 2.142970 0.065285 -0.016575 667670.000000 0 1 0
15.258091 12.520946 -12.710210 23.476219 0.687182 2.142907 0.057302 -0.020304 466871.000000 0 1 0
14.713791 12.488046 -11.423210 22.426249 0.703757 2.105246 0.060408 -0.014878 97977.600000 0 1 0
15.315891 13.481746 -10.612010 22.998886 0.721793 2.050385 0.062538 -0.009587 -221292.000000 0 1 0
14.954391 14.960646 -10.766310 23.735378 0.785607 2.041594 0.054689 -0.004246 408642.000000 0 1 0
13.766491 15.261446 -10.000610 22.856951 0.836853 2.023647 0.069560 -0.014802 850151.000000 0 1 0
13.342291 16.614946 -10.158110 23.606363 0.894211 2.015635 0.058595 -0.016761 -305096.000000 0 1 0
12.174391 17.005746 -9.265910 22.875058 0.949480 1.987847 0.057163 -0.012429 -355091.000000 0 1 0
12.420291 16.806546 -7.879510 22.334061 0.934363 1.931361 0.053644 -0.022754 -232507.000000 0 1 0
11.341991 17.208946 -7.120110 21.805608 0.988068 1.903423 0.045703 -0.018877 -316847.000000 0 1 0
11.789591 17.004946 -5.606710 21.438233 0.964579 1.835402 0.044610 -0.017674 1024260.000000 0 1 0
12.818491 17.958146 -5.277710 22.686184 0.950870 1.805587 0.054881 -0.016158 761153.000000 0 1 0
13.641091 17.601246 -4.174610 22.656359 0.911482 1.756113 0.074038 -0.015406 257906.000000 0 1 0
14.753191 18.660346 -3.939710 24.111957 0.901803 1.734925 0.068188 -0.015033 174822.000000 0 1 0
15.843291 18.677346 -4.852410 24.967960 0.867312 1.766386 0.068186 -0.023215 420686.000000 0 1 0
16.612891 19.861746 -4.578910 26.295314 0.874235 1.745823 0.047160 -0.018347 -232820.000000 0 0 1
17.997591 19.952846 -5.236710 27.376130 0.836874 1.763270 0.051513 -0.014827 -189245.000000 0 0 1
18.882291 18.956446 -4.728410 27.170676 0.787358 1.745713 0.051995 -0.025105 127391.000000 0 0 1
19.104791 17.995446 -5.736210 26.865093 0.755506 1.785972 0.062692 -0.025825 150289.000000 0 0 1
20.196291 16.945146 -5.309510 26.892732 0.698087 1.769535 0.072125 -0.025475 -118389.000000 0 0 1
21.484091 17.439346 -5.150910 28.146560 0.681854 1.754837 0.054126 -0.030479 -175003.000000 0 0 1
22.246991 16.534746 -4.307310 28.051370 0.639158 1.724957 0.061090 -0.029747 1381640.000000 0 0 1
23.812091 16.732346 -4.358310 29.427571 0.612524 1.719446 0.053605 -0.026701 1127630.000000 0 0 1
24.413591 17.856746 -3.744910 30.478044 0.631508 1.693980 0.055583 -0.025632 -106597.000000 0 0 1
25.810291 17.739646 -3.782110 31.546323 0.602158 1.690976 0.047334 -0.025892 -163629.000000 0 0 1
26.596391 18.907946 -3.108110 32.780158 0.618018 1.665756 0.054768 -0.023806 -180078.000000 0 0 1
26.500691 20.112846 -3.875510 33.493772 0.649208 1.686764 0.044956 -0.018092 131447.000000 0 0 1
26.727791 21.204046 -3.092510 34.257116 0.670663 1.661193 0.052416 0.002155 -360006.000000 0 0 1
26.441791 22.567546 -3.770010 34.966776 0.706511 1.678823 0.026694 0.008365 3989.320000 0 0 1
27.336191 23.171546 -4.713810 36.144265 0.703129 1.701585 0.016501 0.015130 257816.000000 0 0 1
27.401191 22.466546 -5.941710 35.928747 0.686765 1.736934 0.020406 0.007003 -26978.800000 0 0 1
28.406291 23.073246 -6.953110 37.251011 0.682171 1.758553 0.014201 0.009994 -93392.100000 0 0 1
27.909691 24.100746 -7.845510 37.700780 0.712294 1.780428 0.009656 0.015447 327898.000000 0 0 1
28.913191 24.695446 -8.655510 38.996865 0.706883 1.794614 -0.001409 0.021555 -11561.900000 0 0 1
29.740991 23.841846 -9.628010 39.314867 0.675746 1.818208 -0.003039 0.010447 -124999.000000 0 0 1
29.202091 23.759746 -10.959110 39.209562 0.682998 1.854071 0.007554 0.013463 49397.700000 0 0 1
30.111491 23.178346 -11.882710 39.813772 0.656022 1.873872 -0.002442 0.005944 -33944.600000 0 0 1
29.587291 22.793946 -13.267010 39.635657 0.656428 1.912109 0.014543 0.011174 -129732.000000 0 0 1
29.653391 23.880846 -14.174610 40.626813 0.677984 1.927191 0.010595 0.004676 41795.500000 0 0 1
29.522191 23.317746 -15.439610 40.665201 0.668514 1.960243 0.015853 -0.002489 -176411.000000 0 0 1
29.785991 24.198846 -16.722310 41.861976 0.682271 1.981727 0.018553 -0.002256 -378554.000000 0 0 1
31.119291 24.602846 -16.863310 43.105470 0.668982 1.972743 0.019766 0.001773 -455119.000000 0 0 1
31.357591 25.380946 -18.023310 44.185186 0.680449 1.990953 0.029560 -0.004029 -45195.900000 0 0 1
32.840991 25.746946 -18.225010 45.536655 0.664901 1.982561 0.028382 -0.009266 -102302.000000 0 0 1
33.615691 24.627946 -18.510210 45.598007 0.632293 1.988807 0.036314 -0.006574 -1309700.000000 0 0 1
34.970591 24.901246 -18.452210 46.727918 0.618776 1.976740 0.035356 -0.010121 -1006900.000000 0 0 1
35.909091 23.718246 -18.641910 46.899241 0.583727 1.979575 0.035767 -0.015565 -341491.000000 0 0 1
35.786591 23.128446 -19.938310 47.044036 0.573761 2.008458 0.028579 -0.008106 153418.000000 0 0 1
-35.125774 23.528146 -20.802810 47.118474 -0.590186 2.028066 0.033114 -0.007701 -241615.000000 0 0 1
-35.042074 22.604546 -22.016310 47.155385 -0.572901 2.056565 0.040963 -0.009181 -15220.000000 0 0 1
-34.620274 21.246846 -21.743710 46.073645 -0.550440 2.062279 0.039206 -0.006975 300474.000000 0 0 1
-34.308474 20.583446 -22.966510 46.132529 -0.540384 2.091900 0.033925 -0.007393 46200.300000 0 0 1
-34.122374 19.061546 -22.889210 45.294535 -0.509440 2.100574 0.021441 -0.004193 325058.000000 0 0 1
-35.295874 18.391146 -22.457710 45.698815 -0.480351 2.084526 0.027695 -0.010137 216566.000000 0 0 1
-35.071274 17.025346 -22.707610 45.116430 -0.451940 2.098223 0.013274 -0.008998 -122910.000000 0 0 1
35.824591 15.992646 -22.218110 45.086699 0.419869 2.086085 0.008516 -0.009451 297965.000000 0 0 1
34.738991 16.119746 -23.153310 44.751754 0.434455 2.114574 0.049966 -0.012835 532268.000000 0 0 1
33.620391 15.282946 -22.893710 43.451365 0.426651 2.125723 0.061225 -0.002930 -12572.800000 0 0 1
33.723891 13.822546 -23.452410 43.340271 0.388989 2.142568 0.027878 -0.005994 -851650.000000 0 0 1
33.853691 13.829346 -24.820910 44.197294 0.387815 2.167107 0.038674 0.008048 205578.000000 0 0 1
33.909391 12.452346 -25.139800 44.010422 0.351936 2.178792 0.037161 0.006098 -223407.000000 0 0 1
33.799391 12.238346 -26.672030 44.761290 0.347403 2.209148 0.053177 0.008843 -369335.000000 0 0 1
32.555491 12.504946 -27.248830 44.257569 0.366735 2.234054 0.040180 0.008154 -382470.000000 0 0 1
32.472191 13.814246 -27.831010 44.942649 0.402224 2.238591 0.032926 0.004845 -39676.100000 0 0 1
32.803191 14.040946 -29.353450 46.204140 0.404439 2.259192 0.031361 0.008325 298918.000000 0 0 1
34.191991 14.189846 -29.612460 47.406136 0.393374 2.245485 0.041962 0.006031 19629.200000 0 0 1
34.394891 14.361746 -31.013660 48.488301 0.395547 2.264789 0.048746 0.004780 824204.000000 0 0 1
35.941591 14.521546 -31.387190 49.878141 0.383977 2.251419 0.063310 -0.007317 1642650.000000 0 0 1
-35.176674 13.418546 -31.103370 48.835186 -0.364423 2.261273 0.065454 -0.004579 183340.000000 0 0 1
-34.935274 13.171846 -29.701060 47.708740 -0.360554 2.242793 0.058046 -0.003527 -788164.000000 0 0 1
-33.765174 12.184946 -29.463260 46.439677 -0.346328 2.258082 0.060306 -0.001842 80213.600000 0 0 1
-34.084674 10.852346 -29.843750 46.585275 -0.308245 2.266110 0.063985 -0.008533 89165.400000 0 0 1
-33.063374 9.946946 -29.521420 45.427334 -0.292232 2.278197 0.062100 -0.012340 -204666.000000 0 0 1
-33.435774 8.545346 -29.951280 45.695220 -0.250219 2.285585 0.071211 -0.009854 -287580.000000 0 0 1
-33.534874 8.511746 -31.378240 46.707939 -0.248569 2.307428 0.066891 -0.011218 105764.000000 0 0 1
-33.868774 7.246446 -32.059110 47.195247 -0.210779 2.317587 0.064032 -0.011773 -167925.000000 0 0 1
-35.217174 6.572046 -31.768410 47.881865 -0.184493 2.296250 0.076237 0.000642 -292481.000000 0 0 1
-35.196774 5.905046 -30.519660 46.958834 -0.166224 2.278280 0.080823 -0.013480 349521.000000 0 0 1
35.508391 5.280046 -30.314990 46.986416 0.147617 2.272063 0.072493 -0.002305 18944.600000 0 0 1
35.277791 4.564346 -28.934870 45.853926 0.128668 2.253667 0.078797 -0.008778 -168605.000000 0 0 1
35.962291 3.355046 -28.805950 46.198760 0.093024 2.244036 0.092657 -0.009822 175313.000000 0 0 1
35.736791 2.832546 -27.518500 45.193024 0.079096 2.225483 0.086240 -0.018810 -408985.000000 0 0 1
-35.605174 1.488646 -27.180890 44.819028 -0.041785 2.222396 0.118024 -0.026192 -701097.000000 0 0 1
-34.210574 1.476146 -27.062780 43.645578 -0.043122 2.239613 0.111784 -0.021945 -398929.000000 0 0 1
-33.721174 0.196046 -26.849600 43.105186 -0.005814 2.243222 0.125166 -0.027401 756084.000000 0 0 1
-32.272674 0.234146 -26.215560 41.579273 -0.007255 2.252988 0.106602 -0.025826 597633.000000 0 0 1
-32.326374 0.173646 -24.791210 40.738541 -0.005372 2.225021 0.094504 -0.026883 273301.000000 0 0 1
-31.120774 0.385746 -24.077010 39.349127 -0.012394 2.229234 0.104115 -0.018846 -60453.400000 0 0 1
-31.204974 0.245646 -22.536510 38.492922 -0.007872 2.196258 0.077238 -0.013826 -539062.000000 0 0 1
-31.339074 -1.125954 -22.181510 38.411258 0.035913 2.186428 0.077690 -0.023019 220902.000000 0 0 1
-31.690374 -1.230454 -20.831010 37.943706 0.038808 2.151961 0.069091 -0.013260 509789.000000 0 0 1
-33.207474 -1.128854 -20.436510 39.008481 0.033981 2.122219 0.056116 -0.011765 603865.000000 0 0 1
-33.980574 -2.290154 -20.763610 39.887990 0.067294 2.118289 0.051996 -0.010941 -416483.000000 0 0 1
-35.291874 -2.067754 -20.357510 40.794855 0.058523 2.093266 0.041179 -0.011142 -370440.000000 0 0 1
35.801291 -3.351254 -20.160110 41.223699 -0.093335 2.081787 0.050803 -0.009659 -282785.000000 0 0 1
35.316591 -3.986154 -21.317610 41.443836 -0.112393 2.111073 0.050425 -0.006221 43103.100000 0 0 1
-35.735974 -4.460254 -22.308110 42.362784 0.124169 2.125389 0.020089 -0.007454 -456267.000000 0 0 1
35.561891 -5.308554 -23.435210 42.918969 -0.148182 2.148419 0.017169 -0.001200 -554830.000000 0 0 1
35.267091 -6.585754 -22.874310 42.548489 -0.184613 2.138391 0.016106 0.006165 521477.000000 0 0 1
34.618191 -7.584654 -23.692010 42.629303 -0.215686 2.160083 0.010782 0.008593 786324.000000 0 0 1
33.140791 -7.307354 -24.110010 41.629341 -0.217022 2.188493 0.005447 0.008371 -147204.000000 0 0 1
33.051691 -6.310154 -25.105540 41.982383 -0.188648 2.211802 0.021535 -0.001333 838538.000000 0 0 1
31.690691 -5.879254 -25.301860 40.976208 -0.183434 2.236327 0.019095 -0.002938 869600.000000 0 0 1
31.568491 -4.630954 -26.149100 41.252767 -0.145657 2.257350 0.048199 -0.035268 -26372.600000 0 0 1
31.678491 -4.909654 -27.514790 42.245652 -0.153761 2.280099 0.039002 -0.026694 442818.000000 0 0 1
31.094791 -3.888654 -28.339050 42.250555 -0.124412 2.306000 0.055750 -0.034290 120622.000000 0 0 1
30.949891 -4.276254 -29.833370 43.199677 -0.137298 2.333104 0.065597 -0.026363 -26051.100000 0 0 1
30.431591 -3.199354 -30.539520 43.231700 -0.104748 2.355217 0.063459 -0.036118 -87657.200000 0 0 1
30.096491 -3.503754 -31.881360 43.982908 -0.115896 2.381624 0.064628 -0.037359 -620873.000000 0 0 1
29.548091 -2.229854 -32.601190 44.055641 -0.075322 2.403867 0.071975 -0.035486 668386.000000 0 0 1
28.377591 -1.592954 -32.052170 42.838846 -0.056075 2.416146 0.054068 -0.031422 1575660.000000 0 0 1
27.142091 -2.328954 -31.915450 41.960852 -0.085596 2.435034 0.051252 -0.031450 534983.000000 0 0 1
26.301091 -2.458654 -33.180360 42.411421 -0.093210 2.469218 0.057765 -0.029240 -809955.000000 0 0 1
26.756191 -3.549954 -33.975200 43.391360 -0.131907 2.470262 0.068238 -0.035253 -275921.000000 0 0 1
26.029391 -3.652854 33.460656 42.549830 -0.139425 0.665857 0.061196 -0.032156 -961741.000000 0 0 1
26.403891 -4.889054 32.618169 42.249418 -0.183090 0.688754 0.062606 -0.035848 240457.000000 0 0 1
27.711391 -5.068054 32.072073 42.687519 -0.180888 0.720733 0.061198 -0.026319 373296.000000 0 0 1
28.086991 -4.270954 30.981123 42.035106 -0.150906 0.742131 0.058456 -0.029788 -205482.000000 0 0 1
28.534091 -2.784254 31.191103 42.365450 -0.097268 0.743300 0.048655 -0.028816 26174.200000 0 0 1
29.861891 -2.719854 31.700913 43.635743 -0.090830 0.757597 0.056260 -0.027683 182737.000000 0 0 1
30.333191 -1.428254 31.786943 43.960802 -0.047051 0.762553 0.054674 -0.022126 -65697.200000 0 0 1
31.749191 -1.311654 32.404583 45.384894 -0.041290 0.775609 0.054212 -0.023816 324948.000000 0 0 1
32.732491 -1.831554 31.525343 45.482061 -0.055897 0.804963 0.054169 -0.015946 261375.000000 0 0 1
34.044191 -1.766754 32.060533 46.797502 -0.051849 0.816068 0.052983 -0.006704 1057260.000000 0 0 1
35.252491 -2.470454 31.360123 47.247207 -0.069964 0.844981 0.050304 -0.001287 764021.000000 0 0 1
35.562391 -1.849254 30.115303 46.637269 -0.051953 0.868811 0.041523 0.005982 -461503.000000 0 0 1
-35.229274 -2.335354 29.525283 46.024972 0.066193 0.874337 0.042242 0.003360 -250523.000000 0 0 1
-35.065674 -1.791854 28.129893 44.990034 0.051056 0.895348 0.039464 0.004149 -319255.000000 0 0 1
-35.923274 -2.241254 27.131653 45.073623 0.062309 0.924867 0.045544 -0.006206 -522532.000000 0 0 1
-35.629474 -1.568754 25.959313 44.111295 0.044001 0.941599 0.041565 -0.004111 68008.500000 0 0 1
-27.095479 15.065446 12.061490 33.265781 -0.507448 1.199762 0.064722 -0.010420 83367.500000 0 0 1
-28.051079 14.440346 12.899190 34.084831 -0.475408 1.182682 0.018762 0.000915 243996.000000 0 0 1
-29.031649 15.355946 13.365490 35.458117 -0.486529 1.184309 0.033769 -0.002002 -897033.000000 0 0 1
-30.096399 14.632446 14.105390 36.316164 -0.452535 1.171896 0.039938 -0.005716 -1067860.000000 0 0 1
-30.980939 15.496846 14.749790 37.650062 -0.463812 1.168253 0.033886 -0.013552 -563974.000000 0 0 1
-31.881069 14.753546 15.534090 38.410645 -0.433421 1.154450 0.035109 0.002854 275666.000000 0 0 1
-33.017589 15.490846 16.321790 39.956581 -0.438680 1.149999 0.042386 -0.008955 485827.000000 0 0 1
-32.541049 16.469346 17.292490 40.363219 -0.468524 1.128051 0.035488 -0.005245 289892.000000 0 0 1
-33.430819 16.588646 18.375490 41.598816 -0.460610 1.113269 0.028824 -0.017247 7332.770000 0 0 1
-32.601909 16.990746 19.650190 41.685728 -0.480430 1.079931 0.030344 -0.018469 221941.000000 0 0 1
-31.941899 15.786146 20.024290 40.871255 -0.459008 1.058780 0.038984 -0.015586 1194690.000000 0 0 1
-30.755109 15.930946 20.878390 40.442292 -0.477939 1.028328 0.033218 -0.015067 1369440.000000 0 0 1
-30.978929 16.429646 22.284190 41.547713 -0.487631 1.004688 0.041953 -0.024683 -713457.000000 0 0 1
-31.540009 17.714346 22.305290 42.498191 -0.511741 1.018254 0.030420 -0.021607 -98083.900000 0 0 1
-31.729769 18.304746 23.584290 43.566739 -0.523257 0.998770 0.022615 -0.022624 -1097910.000000 0 0 1
-32.698609 17.572446 24.523390 44.490297 -0.493123 0.986985 0.022171 -0.020974 -801963.000000 0 0 1
-33.993019 17.362146 24.066890 45.124103 -0.472216 1.008242 0.046608 -0.025023 -1015790.000000 0 0 1
-34.818546 18.450446 24.034190 46.156174 -0.487283 1.023109 0.035548 -0.021174 -1501460.000000 0 0 1
35.726086 18.067046 23.555790 46.450475 0.468205 1.038961 0.010463 -0.025886 -762.157000 0 0 1
35.174516 17.157146 24.504090 46.174286 0.453817 1.011385 0.022283 -0.019273 -932324.000000 0 0 1
34.004116 16.532546 24.147590 44.863249 0.452541 1.002438 0.029102 -0.014506 -614874.000000 0 0 1
33.450776 15.589946 25.263790 44.724265 0.436126 0.970510 0.028347 -0.006750 -55894.200000 0 0 1
32.671536 16.294346 26.245590 44.964052 0.462633 0.947516 0.029790 -0.011756 438520.000000 0 0 1
32.344346 15.537846 27.426490 45.164076 0.447836 0.918185 0.030105 -0.010541 242712.000000 0 0 1
31.350846 14.326046 27.287990 43.963002 0.428626 0.901157 0.025846 -0.013697 -274094.000000 0 0 1
31.911276 13.183646 26.788990 43.701122 0.391778 0.910938 0.022390 -0.003766 38542.000000 0 0 1
31.101406 12.067846 27.123890 42.995765 0.370133 0.888148 0.020534 -0.002698 -541396.000000 0 0 1
31.626856 10.820246 26.554590 42.690538 0.329639 0.899470 0.033465 0.003415 -569097.000000 0 0 1
32.594776 10.360346 27.470790 43.867989 0.307754 0.894107 0.028785 0.002552 46629.600000 0 0 1
33.189376 9.148346 27.033090 43.772307 0.268962 0.905129 0.028529 0.001962 -250984.000000 0 0 1
34.147886 8.398146 27.935190 44.910821 0.241149 0.899483 0.028882 0.002510 1368960.000000 0 0 1
35.439066 9.061446 28.129790 46.144580 0.250328 0.915239 0.033034 0.004701 1769160.000000 0 0 1
-35.527798 8.184146 28.686890 46.391188 -0.226409 0.904130 0.033532 0.003667 649309.000000 0 0 1
-34.150780 8.799646 29.028390 45.676657 -0.252185 0.882116 0.040574 0.005134 199912.000000 0 0 1
-33.434639 8.976846 27.829190 44.417594 -0.262303 0.893697 0.046231 0.004420 1003500.000000 0 0 1
-32.201419 9.735246 28.041490 43.795337 -0.293587 0.875927 0.046596 0.003011 1406430.000000 0 0 1
-31.428489 10.305346 26.796490 42.567616 -0.316851 0.889881 0.049560 0.000876 202973.000000 0 0 1
-30.848939 9.296146 25.963390 41.378412 -0.292689 0.892507 0.047066 -0.001820 171160.000000 0 0 1
-30.060619 9.959846 25.000790 40.346981 -0.319942 0.902506 0.042581 -0.004592 -338970.000000 0 0 1
-29.261339 8.992746 24.147490 38.989700 -0.298164 0.902907 0.042715 -0.002741 -20336.700000 0 0 1
-28.227179 9.699546 23.471490 37.970590 -0.330984 0.904410 0.034019 -0.012908 281736.000000 0 0 1
-27.510709 8.700746 22.678990 36.699846 -0.306314 0.904653 0.011728 -0.002919 720381.000000 0 0 1
-26.421149 9.412846 21.789090 35.516802 -0.342242 0.910328 0.020418 0.002181 -1100310.000000 0 0 1
-25.282199 9.795146 22.503290 35.235388 -0.369626 0.878046 0.018644 -0.003997 415053.000000 0 0 1
-24.330209 10.595846 21.739690 34.305177 -0.410732 0.884451 0.007362 0.005163 1181170.000000 0 0 1
-23.605509 9.845946 20.542690 32.804951 -0.395163 0.894118 0.004160 0.004713 -767561.000000 0 0 1
-24.575509 9.489246 19.557290 32.809892 -0.368489 0.932187 0.002266 0.001964 222600.000000 0 0 1
-24.253609 8.491946 18.615190 31.731310 -0.336792 0.943880 0.003426 -0.004925 -443003.000000 0 0 1
-24.235609 6.955146 19.072690 31.614970 -0.279470 0.923188 0.002602 0.002424 -299666.000000 0 0 1
-23.123409 6.514246 19.834990 31.153720 -0.274600 0.880609 0.006527 0.007320 434990.000000 0 0 1
-23.135009 5.134946 20.172090 31.120886 -0.218415 0.865598 0.027589 -0.003592 -415025.000000 0 0 1
-23.032309 4.035746 19.064490 30.170006 -0.173460 0.886791 0.025407 -0.004690 187759.000000 0 0 1
-24.211109 3.972746 18.229090 30.565671 -0.162638 0.931799 0.035881 -0.002224 947215.000000 0 0 1
-24.195709 3.187246 17.036390 29.762887 -0.130974 0.961362 0.044623 -0.001847 -270013.000000 0 0 1
-24.297609 1.649146 17.338790 29.895269 -0.067769 0.952087 0.048298 -0.002702 25640.900000 0 0 1
-23.065809 1.006746 17.596090 29.028735 -0.043619 0.919571 0.039619 -0.001759 412510.000000 0 0 1
-23.370709 -0.075854 18.440290 29.769785 0.003246 0.902780 0.054606 -0.007135 356539.000000 0 0 1
-22.177709 -1.042054 18.766690 29.071039 0.046952 0.869058 0.045358 -0.003188 472451.000000 0 0 1
-21.112809 -0.378154 19.452190 28.710301 0.017909 0.826392 0.042499 -0.007006 702143.000000 0 0 1
-20.123309 -1.372954 19.788990 28.256622 0.068121 0.794935 0.040423 -0.006125 280452.000000 0 0 1
-18.993509 -0.894554 20.697190 28.105645 0.047063 0.743052 0.034167 -0.006007 187534.000000 0 0 1
-19.370709 -0.756654 22.089290 29.389346 0.039042 0.720299 0.037832 -0.007734 458029.000000 0 0 1
-18.180009 -0.633554 22.880290 29.230494 0.034835 0.671717 0.035291 -0.014749 -106876.000000 0 0 1
-18.371509 -0.586154 24.377390 30.530527 0.031895 0.646064 0.037178 -0.010591 -4815.830000 0 0 1
-19.164909 0.445046 24.973790 31.483043 -0.023218 0.654675 0.029527 -0.024106 962870.000000 0 0 1
-20.569909 0.111346 24.851090 32.260041 -0.005413 0.691427 0.084427 -0.030024 318602.000000 0 0 1
-21.408309 1.067446 25.696990 33.463270 -0.049820 0.695215 0.070193 -0.034495 -739261.000000 0 0 1
-21.424509 2.373246 25.275190 33.218626 -0.110323 0.706137 0.060014 -0.028684 234544.000000 0 0 1
-22.624909 2.821046 24.659590 33.584821 -0.124047 0.746238 0.057831 -0.020623 -499088.000000 0 0 1
-22.498009 3.963646 23.621090 32.860718 -0.174388 0.768686 0.049342 -0.011312 -381761.000000 0 0 1
-21.988809 3.577646 22.371590 31.572065 -0.161290 0.783301 0.041706 -0.007121 1146630.000000 0 0 1
-20.546909 3.559346 22.379690 30.589131 -0.171528 0.750098 0.042634 -0.007708 219517.000000 0 0 1
-19.950009 2.698846 21.259990 29.279239 -0.134464 0.758147 0.035748 -0.010628 -373738.000000 0 0 1
-19.715809 3.420246 20.069490 28.340706 -0.171768 0.783921 0.031117 -0.006059 495895.000000 0 0 1
-19.157709 2.621046 19.004490 27.111959 -0.135970 0.794049 0.034314 -0.012785 56095.200000 0 0 1
-18.738609 3.310546 17.711390 25.995933 -0.174865 0.821240 0.028280 -0.006977 -148432.000000 0 0 1
-17.519609 4.010746 17.782690 25.283332 -0.225051 0.790716 0.041795 -0.017566 -287788.000000 0 0 1
-17.222609 4.675146 16.617090 24.384481 -0.265067 0.821038 0.044455 -0.013755 -297053.000000 0 1 0
-15.755609 5.119446 16.451490 23.347365 -0.314167 0.788881 0.057959 -0.015744 -172521.000000 0 1 0
-15.193809 6.041646 17.316290 23.816113 -0.378469 0.756733 0.056193 -0.023415 20651.900000 0 1 0
-15.791109 7.354646 17.346790 24.583756 -0.435871 0.787499 0.047485 -0.027402 -419152.000000 0 1 0
-15.190809 8.273646 16.306490 23.772158 -0.498725 0.814889 0.032134 -0.024201 96711.900000 0 1 0
-15.665309 8.040646 14.972490 23.113402 -0.474213 0.866124 0.035242 -0.019100 379258.000000 0 1 0
-17.025809 8.314646 14.656690 23.954751 -0.454289 0.912400 0.019730 -0.014554 212557.000000 0 1 0
-17.447609 7.629446 13.408090 23.289577 -0.412224 0.957322 0.022147 -0.013057 -361825.000000 0 1 0
-17.341309 6.230246 13.529690 22.860216 -0.344911 0.937451 0.021199 -0.010575 224277.000000 0 1 0
-17.708809 5.618946 12.327990 22.296946 -0.307249 0.984955 0.017874 -0.011533 -143161.000000 0 1 0
-17.305209 4.169346 12.401990 21.694770 -0.236424 0.962271 0.009069 -0.006841 -65095.000000 0 1 0
-18.015309 3.346046 13.337890 22.663775 -0.183641 0.941580 0.017834 -0.007330 375009.000000 0 1 0
-17.549009 1.987646 13.419590 22.181160 -0.112782 0.921031 0.015391 -0.009839 -672048.000000 0 1 0
-18.353709 1.159446 14.447990 23.386906 -0.063088 0.904878 0.015655 -0.014361 228845.000000 0 1 0
-19.688109 0.951246 14.051790 24.207010 -0.048278 0.951473 0.033422 -0.008767 292893.000000 0 1 0
-20.551309 0.315346 14.977990 25.432183 -0.015343 0.941052 0.040627 -0.013406 1638580.000000 0 0 1
-22.076609 0.058946 14.623790 26.480849 -0.002670 0.985747 0.047428 -0.014370 1218320.000000 0 0 1
-22.197409 -1.032854 13.770990 26.142531 0.046497 1.016005 0.068849 -0.022586 -168440.000000 0 0 1
-23.524509 -1.326854 13.459090 27.135036 0.056343 1.051805 0.078815 -0.021091 -516199.000000 0 0 1
-23.737509 -2.363654 12.397990 26.884314 0.099247 1.091493 0.086826 -0.029347 -244184.000000 0 0 1
-23.376809 -3.584254 12.940890 26.959019 0.152140 1.070118 0.080808 -0.026434 265696.000000 0 0 1
-23.308509 -4.643754 11.947690 26.600721 0.196655 1.104984 0.091301 -0.028205 -73599.000000 0 0 1
-23.011409 -6.031754 12.523090 26.883727 0.256353 1.086231 0.075465 -0.025108 -292088.000000 0 0 1
-24.091709 -6.470654 13.283090 28.261640 0.262392 1.081501 0.064394 -0.020304 -72921.600000 0 0 1
-24.148309 -7.883154 13.428590 28.733464 0.315541 1.084505 0.072029 -0.019658 -2059.050000 0 0 1
-24.984509 -8.279554 14.693990 30.144486 0.319998 1.061627 0.066874 -0.009773 -137997.000000 0 0 1
-26.356059 -8.173454 14.431390 31.140203 0.300712 1.088931 0.069625 -0.008022 -523342.000000 0 0 1
-27.122169 -8.499354 15.538090 32.392643 0.303680 1.070507 0.061094 -0.008266 88518.800000 0 0 1
-28.550789 -7.830154 15.558190 33.444224 0.267672 1.086938 0.058432 -0.007517 1260200.000000 0 0 1
-29.578079 -8.314654 14.657290 34.041627 0.274036 1.125673 0.051326 -0.004438 1091900.000000 0 0 1
-29.952949 -9.664554 14.573090 34.683681 0.312112 1.137162 0.057990 -0.012897 -699401.000000 0 0 1
-30.385269 -10.368654 15.871890 35.814668 0.328849 1.111668 0.058399 -0.018419 -787576.000000 0 0 1
-29.361769 -10.607154 16.800690 35.452622 0.346668 1.077092 0.062058 -0.013969 -183969.000000 0 0 1
-29.815309 -11.218554 17.966090 36.573064 0.359882 1.057285 0.065523 -0.009390 38471.900000 0 0 1
-28.713789 -11.288454 19.073290 36.272597 0.374576 1.017103 0.067951 -0.006778 350862.000000 0 0 1
-27.710699 -12.208354 18.681890 35.580047 0.414980 1.018003 0.059809 0.001600 -335242.000000 0 0 1
-26.539129 -11.982954 19.412890 34.996812 0.424117 0.982789 0.053800 -0.004421 -175685.000000 0 0 1
-25.267059 -12.740154 19.003090 34.085968 0.467018 0.979419 0.044940 0.001983 -95216.600000 0 0 1
-24.682209 -12.376754 17.764290 32.832385 0.464802 0.999099 0.040533 0.007236 -120683.000000 0 0 1
-23.644109 -13.278054 17.479790 32.262884 0.511690 0.998228 0.037940 -0.000897 -392266.000000 0 0 1
-23.252909 -13.244354 16.011390 31.184536 0.517750 1.031608 0.045335 -0.004727 -186269.000000 0 0 1
-22.695509 -11.970254 15.607990 30.033023 0.485349 1.024303 0.045186 -0.005271 143706.000000 0 0 1
-22.275009 -11.960154 14.263690 29.028851 0.492754 1.057143 0.054387 0.004177 -541379.000000 0 0 1
-21.033809 -11.191854 13.911190 27.589852 0.488988 1.042325 0.053374 -0.003286 -829060.000000 0 0 1
-21.274409 -9.796154 13.568890 27.068060 0.431524 1.045710 0.051146 -0.010630 -608921.000000 0 0 1
-20.102609 -9.073354 13.431590 25.823405 0.423978 1.023790 0.055475 -0.014402 -629111.000000 0 0 1
-19.512409 -9.172554 11.978790 24.664981 0.439433 1.063679 0.065285 -0.008085 -252957.000000 0 1 0
-18.819209 -10.359654 11.645990 24.435919 0.503214 1.074021 0.052671 -0.011796 347296.000000 0 1 0
-18.316309 -10.406154 10.322890 23.459268 0.516660 1.115159 0.053966 -0.008959 -436914.000000 0 1 0
-17.671909 -11.727754 9.894190 23.403666 0.585903 1.134305 0.032113 -0.004443 862293.000000 0 1 0
-16.251609 -11.888454 10.004190 22.484082 0.631572 1.109683 0.041787 -0.011121 973019.000000 0 1 0
-15.703309 -11.937254 11.315590 22.740592 0.649981 1.049973 0.053901 -0.008987 -67760.500000 0 1 0
-14.176809 -12.206054 11.127690 21.766836 0.710838 1.034190 0.053396 -0.012954 350213.000000 0 1 0
-13.926709 -13.583654 11.008290 22.352882 0.772929 1.055862 0.051031 -0.013019 697785.000000 0 1 0
-12.525109 -13.790954 10.801690 21.534746 0.833463 1.045356 0.046490 -0.015801 597293.000000 0 1 0
-12.148609 -15.244354 10.619690 22.198127 0.897933 1.071959 0.050099 -0.019170 -245895.000000 0 1 0
-12.467509 -15.898354 9.411590 22.288438 0.905763 1.134856 0.043886 -0.017619 89894.900000 0 1 0
-12.399609 -17.303854 9.541390 23.328347 0.949029 1.149434 0.040354 -0.006830 146546.000000 0 1 0
-12.945609 -18.022454 8.272290 23.681816 0.947891 1.213962 0.030699 -0.003630 -511719.000000 0 1 0
-12.043509 -17.987654 7.247490 22.828226 0.980805 1.247726 0.030586 -0.003424 -482837.000000 0 1 0
-12.499309 -18.809154 6.196690 23.418283 0.984272 1.302998 0.021218 0.001959 206953.000000 0 1 0
-11.665809 -18.635254 4.880090 22.520637 1.011473 1.352369 0.024576 0.003652 59469.900000 0 1 0
-12.084109 -19.361354 3.744990 23.128179 1.012819 1.408157 0.039879 0.000596 -536504.000000 0 1 0
-11.283109 -19.197754 2.639090 22.423807 1.039447 1.452831 0.036742 -0.009763 -433565.000000 0 1 0
-11.543109 -20.088054 1.464190 23.214589 1.049243 1.507682 0.041608 -0.006322 -226968.000000 0 1 0
-11.174609 -21.461854 1.769290 24.261357 1.090747 1.497805 0.034960 -0.012678 -363962.000000 0 1 0
-11.349509 -22.458454 0.740290 25.174224 1.102873 1.541385 0.029809 -0.012867 430504.000000 0 0 1
-10.275609 -22.417854 -0.422910 24.664289 1.141006 1.587944 0.032304 -0.008585 372488.000000 0 1 0
-10.436309 -21.351654 -1.411610 23.807610 1.116163 1.630124 0.035462 -0.020911 -206935.000000 0 1 0
-11.528409 -21.592454 -2.279910 24.583252 1.080391 1.663672 0.044125 -0.010182 459954.000000 0 1 0
-12.587709 -20.429054 -2.212510 24.097549 1.018574 1.662741 0.045750 -0.011330 518002.000000 0 1 0
-13.387709 -20.341054 -1.025110 24.372937 0.988705 1.612868 0.045384 -0.011988 296520.000000 0 1 0
-14.169809 -19.153254 -1.102710 23.850505 0.933847 1.617047 0.043570 -0.010239 184731.000000 0 1 0
26.586091 -19.970254 -4.299410 33.527842 -0.644239 1.699384 0.051778 -0.024167 423932.000000 0 0 1
25.292291 -20.310354 -3.790610 32.658524 -0.676583 1.687127 0.055155 -0.017437 648265.000000 0 0 1
25.408391 -21.283354 -2.784810 33.261429 -0.697281 1.654619 0.042085 -0.020033 -189344.000000 0 0 1
24.084391 -21.447254 -2.017410 32.312730 -0.727544 1.633271 0.031672 -0.020543 -101964.000000 0 0 1
23.033591 -21.823954 -2.866510 31.859820 -0.758439 1.660891 0.033420 -0.027451 -473305.000000 0 0 1
21.972291 -22.427254 -2.170510 31.471803 -0.795645 1.639818 0.038336 -0.022828 314609.000000 0 0 1
20.953991 -23.144454 -3.108810 31.375152 -0.835029 1.670044 0.038067 -0.026515 351037.000000 0 0 1
20.174791 -22.299254 -3.927610 30.326639 -0.835374 1.700671 0.050215 -0.026925 -75740.200000 0 0 1
19.197391 -23.037954 -4.664810 30.348766 -0.876081 1.725115 0.066005 -0.025100 629274.000000 0 0 1
18.068291 -22.098354 -5.208210 29.015958 -0.885397 1.751269 0.060033 -0.014070 624425.000000 0 0 1
17.111891 -21.653154 -4.217510 27.918869 -0.902015 1.722440 0.057419 -0.007655 815689.000000 0 0 1
17.527091 -20.553454 -3.412810 27.226653 -0.864704 1.696475 0.052637 -0.014908 38207.300000 0 0 1
16.298391 -20.155954 -2.555510 26.046701 -0.890825 1.669067 0.062491 -0.004383 358664.000000 0 0 1
15.932591 -21.144154 -1.613710 26.524079 -0.925045 1.631673 0.061587 -0.009755 465696.000000 0 0 1
14.934491 -20.663554 -0.695410 25.505001 -0.944967 1.598065 0.058315 -0.003344 255582.000000 0 0 1
14.785691 -21.447654 0.593090 26.057058 -0.967230 1.548033 0.052679 -0.006141 -732.018000 0 0 1
13.963691 -22.610354 0.516090 26.579675 -1.017551 1.551378 0.063025 -0.009145 238079.000000 0 0 1
13.303591 -22.838954 1.787490 26.491479 -1.043347 1.503271 0.052914 -0.006220 476123.000000 0 0 1
12.260391 -23.979854 1.737590 26.988327 -1.098166 1.506369 0.057077 -0.011920 394499.000000 0 0 1
12.894791 -25.240714 1.915490 28.408421 -1.098488 1.503318 0.048293 -0.013572 51778.300000 0 0 1
11.953191 -26.234514 1.668390 28.877535 -1.143272 1.512989 0.045648 -0.012695 -185888.000000 0 0 1
12.270391 -27.631254 2.271390 30.318442 -1.152879 1.495808 0.040969 -0.009618 -13516.700000 0 0 1
12.101491 -27.681804 3.686390 30.435470 -1.158668 1.449377 0.044949 -0.011318 184655.000000 0 0 1
12.749391 -28.821074 4.238690 31.798864 -1.154311 1.437101 0.045564 -0.012599 -7500.900000 0 0 1
12.366191 -28.940474 5.704190 31.984551 -1.166981 1.391495 0.051138 -0.005650 -54680.400000 0 0 1
12.645591 -30.210534 6.220390 33.335875 -1.174374 1.383099 0.038859 -0.011821 -311087.000000 0 0 1
12.366391 -30.267334 7.584790 33.564388 -1.182922 1.342850 0.045139 -0.005592 71682.000000 0 0 1
12.303191 -31.701064 8.135090 34.964348 -1.200590 1.335976 0.030403 -0.008843 69105.100000 0 0 1
12.165891 -31.669594 9.524990 35.237729 -1.204028 1.297085 0.036143 -0.004713 -186787.000000 0 0 1
11.199691 -32.629724 9.902690 35.891437 -1.240160 1.291263 0.042252 -0.008283 5572.400000 0 0 1
11.099291 -32.820204 11.450890 36.489491 -1.244686 1.251590 0.048592 -0.010852 -884847.000000 0 0 1
12.238791 -33.376864 11.982290 37.515041 -1.219335 1.245700 0.040432 -0.013875 -750445.000000 0 0 1
12.124091 -33.671834 13.357790 38.199693 -1.225182 1.213563 0.051147 -0.014011 334523.000000 0 0 1
11.048891 33.965437 13.795890 38.289104 1.256295 1.202198 0.057417 -0.015801 329154.000000 0 0 1
11.315991 32.647446 13.332090 37.035820 1.237143 1.202552 0.057638 -0.015947 -357770.000000 0 0 1
10.228491 31.770136 13.418690 35.972556 1.259323 1.188528 0.055212 -0.009415 -301255.000000 0 0 1
10.287991 30.612646 12.397290 34.592913 1.246585 1.204268 0.050078 -0.007754 -183828.000000 0 0 1
10.010491 30.709316 11.021390 34.128332 1.255682 1.241962 0.057076 -0.007104 -6821.190000 0 0 1
10.928691 31.498766 10.300890 34.895800 1.236836 1.271142 0.038493 -0.008788 2910.620000 0 0 1
10.392391 31.889986 8.876290 34.695266 1.255766 1.312084 0.030411 -0.010793 -491064.000000 0 0 1
9.279191 32.700950 8.957790 35.152489 1.294305 1.313128 0.043173 -0.014719 -636000.000000 0 0 1
8.525591 32.850890 7.769090 34.817028 1.316874 1.345761 0.028392 -0.011392 72679.300000 0 0 1
8.914891 34.037322 6.838790 35.843878 1.314635 1.378826 0.030930 -0.004944 -93559.900000 0 0 1
8.457391 -33.403274 7.392690 35.241425 -1.322817 1.359454 0.040892 -0.009530 319006.000000 0 0 1
8.841491 -32.345384 6.501490 34.156481 -1.303968 1.379284 0.047505 -0.007575 -63480.100000 0 0 1
8.279291 -31.003024 6.905190 32.824013 -1.309838 1.358843 0.046603 -0.003645 -2497.480000 0 0 1
8.840391 -30.648894 8.171190 32.928340 -1.289978 1.320026 0.043076 -0.002970 81861.700000 0 0 1
8.389991 -29.415184 8.708290 31.803762 -1.292948 1.293441 0.066710 0.001357 -101533.000000 0 0 1
8.941991 -28.130274 8.040690 30.592878 -1.263020 1.304843 0.064683 -0.003549 -57020.800000 0 0 1
9.105691 -27.083984 8.985790 29.953301 -1.246466 1.266111 0.055780 0.000833 38151.300000 0 0 1
9.852991 -25.960094 8.533990 29.048871 -1.208048 1.272617 0.062794 -0.016132 -66647.500000 0 0 1
9.232891 -25.008954 7.512290 27.697086 -1.217135 1.296125 0.043643 -0.014557 -241643.000000 0 0 1
9.274791 -25.523434 6.181990 27.851112 -1.222249 1.346966 0.052841 -0.010712 -288117.000000 0 0 1
8.793191 -24.688754 5.177690 26.714476 -1.228643 1.375746 0.050102 -0.012189 -55004.500000 0 0 1
8.841691 -25.319224 3.739790 27.078121 -1.234827 1.432242 0.042799 -0.012080 21147.700000 0 0 1
7.937491 -26.382984 3.510290 27.773868 -1.278554 1.444069 0.067936 -0.014342 -134220.000000 0 0 1
8.174991 -27.651434 4.183890 29.136527 -1.283340 1.426702 0.062185 -0.011081 -229736.000000 0 0 1
7.172891 -28.701734 3.664790 29.810578 -1.325901 1.447549 0.055982 -0.008086 -798385.000000 0 0 1
5.954091 -28.467684 4.290990 29.398517 -1.364616 1.424314 0.051176 -0.001682 -415738.000000 0 0 1
4.882191 -29.400924 4.046290 30.076944 -1.406242 1.435856 0.046188 -0.002093 689801.000000 0 0 1
4.976991 -30.907924 4.437690 31.619034 -1.411140 1.429983 0.045876 -0.007949 13641.800000 0 0 1
5.962291 -31.672304 3.714790 32.442001 -1.384725 1.456039 0.053713 -0.005719 375662.000000 0 0 1
5.939191 -33.010174 4.123490 33.792732 -1.392781 1.448468 0.048471 -0.008194 192505.000000 0 0 1
7.149291 -33.779524 3.520790 34.706837 -1.362228 1.469178 0.043588 -0.006768 174403.000000 0 0 1
7.074791 -33.867194 2.110790 34.662587 -1.364860 1.509863 0.052551 -0.004846 -339255.000000 0 0 1
8.099491 34.073987 1.541190 35.057290 1.337424 1.526820 0.035172 -0.000673 -460188.000000 0 0 1
7.659391 33.440518 0.208190 34.307110 1.345635 1.564728 0.032948 0.007073 998520.000000 0 0 1
6.490491 32.614666 0.186990 33.254742 1.374357 1.565173 0.027709 0.005716 942213.000000 0 0 1
5.216691 33.196551 -0.097110 33.604081 1.414925 1.573686 0.037460 -0.004783 600312.000000 0 0 1
3.999491 32.326976 0.218490 32.574177 1.447702 1.564089 0.044303 -0.006898 -110255.000000 0 0 1
3.828091 31.155876 -0.618310 31.396260 1.448540 1.590491 0.050160 0.000968 45331.300000 0 0 1
2.708191 30.355766 -0.287910 30.477692 1.481817 1.580243 0.047923 -0.009700 186420.000000 0 0 1
2.507091 29.165786 -1.284110 29.301493 1.485047 1.614634 0.047774 -0.003997 87898.300000 0 0 1
2.256091 29.647236 -2.612610 29.847517 1.494845 1.658440 0.052889 -0.013746 9458.610000 0 0 1
1.915891 28.621576 -3.504510 28.898907 1.503957 1.692363 0.043252 -0.012978 -166542.000000 0 0 1
1.631191 29.228946 -4.898410 29.681416 1.515047 1.736588 0.044886 -0.021630 666084.000000 0 0 1
0.398191 29.975686 -4.922910 30.379851 1.557513 1.733559 0.051187 -0.022051 667675.000000 0 0 1
0.188791 30.783356 -6.085210 31.379618 1.564664 1.765955 0.031912 -0.011483 -178227.000000 0 0 1
-0.054609 30.124666 -7.492810 31.042562 -1.568984 1.814576 0.037960 -0.010108 311710.000000 0 0 1
-1.325709 29.475776 -7.680710 30.488886 -1.525850 1.825458 0.032820 -0.008634 626198.000000 0 0 1
-1.535309 28.970066 -9.017710 30.379943 -1.517849 1.872169 0.033935 -0.010596 144698.000000 0 0 1
-1.612309 30.009846 -10.194310 31.735065 -1.517122 1.897826 0.017897 -0.015564 177190.000000 0 0 1
-0.310509 30.413316 -10.620210 32.215758 -1.560587 1.906739 0.025039 -0.025532 386045.000000 0 0 1
-0.363409 31.620796 -11.257610 33.566956 -1.559304 1.912802 0.006076 -0.019467 29472.500000 0 0 1
-0.611809 32.883601 -10.373310 34.486389 -1.552193 1.876322 -0.002649 -0.004855 -188347.000000 0 0 1
0.418191 33.175024 -9.461010 34.500258 1.558191 1.848585 0.004552 -0.018254 -278235.000000 0 0 1
0.002891 34.180744 -8.533710 35.229923 1.570712 1.815459 0.002492 -0.008062 -237734.000000 0 0 1
0.978691 -34.132317 -7.401210 34.939244 -1.542131 1.784244 0.018978 -0.017378 -297841.000000 0 0 1
2.040891 -33.376104 -7.887410 34.356088 -1.509724 1.802441 0.033074 -0.018213 -1099300.000000 0 0 1
2.974191 -33.091524 -6.915910 33.937068 -1.481159 1.776020 0.039250 -0.027038 -1158340.000000 0 0 1
4.140591 -32.214764 -7.406010 33.313428 -1.442966 1.794983 0.033411 -0.025506 415347.000000 0 0 1
5.168791 -32.790994 -8.200010 34.193652 -1.414454 1.812967 0.047027 -0.024458 94788.500000 0 0 1
5.994491 -33.684114 -7.517510 35.029508 -1.394678 1.787084 0.064692 -0.010176 -1482840.000000 0 0 1
6.367191 33.713474 -8.318310 35.303452 1.384133 1.808656 0.054266 -0.007589 -118432.000000 0 0 1
5.380291 32.744306 -8.518410 34.259311 1.407939 1.822078 0.040567 -0.011023 -66031.400000 0 0 1
4.282791 33.032849 -9.394910 34.608896 1.441863 1.845705 0.044002 -0.015260 217011.000000 0 0 1
3.425491 31.842356 -9.690210 33.459973 1.463632 1.864612 0.039516 -0.022282 -330357.000000 0 0 1
4.111391 30.817776 -10.325610 32.760602 1.438170 1.891447 0.043473 -0.021099 36850.600000 0 0 1
3.171891 29.769406 -10.442110 31.706719 1.464648 1.906395 0.044983 -0.018969 474048.000000 0 0 1
3.795791 28.630486 -11.232510 30.988417 1.438986 1.941718 0.044966 -0.019559 93470.900000 0 0 1
3.728691 28.982796 -12.603910 31.823955 1.442847 1.978009 0.054292 -0.016785 -157684.000000 0 0 1
4.909991 28.533416 -13.214210 31.825763 1.400387 1.998964 0.052516 -0.026994 -195934.000000 0 0 1
5.077491 29.041726 -14.667310 32.929208 1.397711 2.032439 0.058501 -0.023218 162088.000000 0 0 1
4.139091 28.518586 -15.623710 32.780209 1.426666 2.067602 0.048410 -0.016459 388959.000000 0 0 1
4.228091 29.198316 -16.827510 33.964444 1.426990 2.089143 0.067742 -0.018447 6624.840000 0 0 1
3.270291 28.579296 -17.821310 33.838883 1.456863 2.125453 0.056187 -0.014840 270641.000000 0 0 1
3.860291 27.363166 -18.296610 33.142278 1.430645 2.155632 0.057883 -0.014121 -175320.000000 0 0 1
3.028991 26.828796 -19.265410 33.167983 1.458372 2.190561 0.069672 -0.023560 -49429.100000 0 0 1
3.484891 25.505996 -20.010110 32.605288 1.435007 2.231544 0.069178 -0.019657 195160.000000 0 0 1
3.459791 24.301966 -19.233910 31.184916 1.429380 2.235429 0.067750 -0.022909 -137787.000000 0 0 1
4.568591 23.509606 -19.581110 30.935311 1.378860 2.256179 0.061841 -0.024658 -80476.700000 0 0 1
4.625991 22.319006 -18.640710 29.445099 1.366423 2.256305 0.067919 -0.019522 416021.000000 0 0 1
3.657891 21.276206 -18.763710 28.603040 1.400537 2.286308 0.081056 -0.014018 -38821.100000 0 0 1
4.202991 20.120006 -18.105810 27.391607 1.364862 2.292945 0.073317 -0.006058 297023.000000 0 0 1
3.260191 18.900906 -17.859610 26.207609 1.399988 2.320561 0.078266 -0.012925 -320238.000000 0 0 1
2.382291 19.125206 -16.812910 25.575823 1.446872 2.288126 0.074102 -0.018290 -607795.000000 0 0 1
1.626291 17.980406 -16.490210 24.451316 1.480594 2.310962 0.057022 -0.011951 -2923.180000 0 1 0
2.352791 16.965406 -15.545710 23.130709 1.432994 2.307812 0.050413 -0.009311 -176162.000000 0 1 0
3.342091 16.159706 -16.115010 23.065108 1.366855 2.344340 0.055913 -0.015579 -398338.000000 0 1 0
2.879791 15.073606 -16.950210 22.865179 1.382023 2.405818 0.060107 -0.020059 -306653.000000 0 1 0
3.068191 15.327006 -18.399110 24.142455 1.373226 2.437356 0.061260 -0.018794 -280207.000000 0 1 0
4.342191 15.347706 -19.002410 24.809238 1.295081 2.443300 0.064742 -0.020131 -341641.000000 0 1 0
4.380091 15.759606 -20.333310 26.095859 1.299707 2.464149 0.069806 -0.006715 -486135.000000 0 0 1
4.624291 14.678206 -21.485110 26.428086 1.265595 2.520022 0.053693 -0.029958 278955.000000 0 0 1
3.630491 13.719306 -21.855910 26.059175 1.312100 2.565694 0.049487 -0.021005 185277.000000 0 0 1
2.383891 14.235506 -22.270410 26.538721 1.404875 2.566546 0.053460 -0.018392 19221.700000 0 0 1
1.354291 13.207606 -22.760810 26.350131 1.468615 2.613527 0.054302 -0.018031 113760.000000 0 0 1
0.713991 12.409406 -21.762310 25.061949 1.513323 2.622643 0.055851 -0.014798 -37573.200000 0 0 1
-0.258109 11.599606 -22.360210 25.191198 -1.548548 2.662948 0.036492 -0.004499 -324450.000000 0 0 1
-0.845009 10.563206 -21.363510 23.847325 -1.490971 2.681126 0.030555 -0.008522 -1061280.000000 0 1 0
-1.758109 11.127606 -20.498310 23.390068 -1.414096 2.639065 0.030792 -0.009670 -288200.000000 0 1 0
-2.353809 10.229806 -19.551810 22.191499 -1.344639 2.648873 0.017948 -0.005962 468889.000000 0 1 0
-3.293609 9.090406 -20.033610 22.244749 -1.223191 2.691943 0.023251 -0.007048 -559650.000000 0 1 0
-2.617709 8.069506 -20.673410 22.346346 -1.257112 2.752190 0.016395 -0.007782 -548338.000000 0 1 0
-3.578709 7.141406 -21.165310 22.622493 -1.106252 2.780714 0.009639 0.002150 183114.000000 0 1 0
-2.988009 5.913006 -21.894210 22.874621 -1.102895 2.847756 0.014627 -0.006690 -316206.000000 0 1 0
-2.377109 5.022806 -21.036010 21.757595 -1.128766 2.883330 0.015670 -0.005869 -234156.000000 0 1 0
-1.990409 3.861006 -21.806110 22.234557 -1.094813 2.944963 0.024459 -0.014220 -142321.000000 0 1 0
-1.079009 2.984406 -20.946710 21.185740 -1.223870 2.991234 0.024564 -0.017370 700289.000000 0 1 0
0.323291 3.283206 -20.798410 21.058438 1.472645 2.984281 0.020751 -0.018001 869494.000000 0 1 0
0.898191 2.201806 -20.096110 20.236312 1.183469 3.023811 0.017379 -0.011032 -480727.000000 0 1 0
2.409391 2.079906 -20.239210 20.487967 0.712136 2.985604 0.012446 -0.010449 -482516.000000 0 1 0
2.967791 1.664506 -21.471110 21.739064 0.511140 2.984422 0.025979 -0.006509 38656.100000 0 1 0
4.377091 1.701706 -21.351910 21.862269 0.370793 2.925095 0.036387 -0.004749 40859.300000 0 1 0
5.095091 1.016406 -22.523510 23.114963 0.196902 2.914889 0.025094 -0.003611 -1653270.000000 0 1 0
6.451791 1.033006 -22.460010 23.391126 0.158764 2.858491 0.023405 -0.009685 -1474030.000000 0 1 0
7.086591 0.490206 -23.615110 24.660363 0.069064 2.849398 0.025729 -0.011875 184858.000000 0 1 0
8.628591 0.548206 -23.562410 25.098611 0.063448 2.789907 0.037593 -0.018985 77971.200000 0 0 1
9.061791 1.881806 -23.552210 25.305411 0.204754 2.767168 0.035333 -0.031159 342937.000000 0 0 1
10.410191 2.137006 -23.176310 25.496671 0.202467 2.711659 0.042352 -0.026377 180197.000000 0 0 1
14.021391 -21.139154 22.649523 34.006825 -0.985135 0.841924 0.050460 -0.008436 18326.300000 0 0 1
12.929391 -22.015354 22.399723 33.964578 -1.039775 0.850640 0.031260 0.004838 260556.000000 0 0 1
11.626191 -21.486954 22.520323 33.226834 -1.074826 0.826064 0.032082 0.000095 467622.000000 0 0 1
11.040391 -20.968254 21.173923 31.778813 -1.086152 0.841573 0.043516 -0.010933 -240790.000000 0 0 1
11.512891 -19.742254 20.719123 30.847777 -1.042851 0.834353 0.040887 -0.013803 -123036.000000 0 0 1
10.897791 -19.502554 19.472423 29.635903 -1.061231 0.853891 0.059448 -0.008223 148163.000000 0 0 1
11.173191 -18.147854 18.884523 28.474726 -1.018930 0.845706 0.065701 -0.017123 -107929.000000 0 0 1
10.342391 -17.209154 19.534423 28.012742 -1.029655 0.799116 0.079745 -0.019685 -50596.100000 0 0 1
10.553291 -15.942054 19.000823 26.954635 -0.986047 0.788488 0.079551 -0.020180 234178.000000 0 0 1
9.482791 -14.878954 19.418423 26.237030 -1.003380 0.737555 0.069954 -0.026006 -420774.000000 0 0 1
8.205291 -15.313254 19.142823 25.850923 -1.078898 0.736970 0.059917 -0.021354 -884071.000000 0 0 1
7.242891 -14.267054 19.275823 25.051261 -1.101035 0.692809 0.038005 -0.017403 1094040.000000 0 0 1
5.840791 -14.600654 18.643223 24.389828 -1.190259 0.700709 0.011466 -0.008791 433657.000000 0 1 0
5.743991 -14.706154 17.234823 23.373137 -1.198433 0.741617 0.005363 -0.003145 825831.000000 0 1 0
4.369191 -14.912154 16.835523 22.910631 -1.285778 0.745374 -0.007621 -0.001093 1070260.000000 0 1 0
3.771491 -16.364454 17.032523 23.919163 -1.344283 0.778330 -0.009165 0.009248 316244.000000 0 1 0
2.459991 -16.313554 16.454423 23.300894 -1.421130 0.786720 -0.009362 0.006791 397317.000000 0 1 0
1.692591 -17.436554 16.895223 24.338177 -1.474028 0.803508 -0.000881 0.002350 556836.000000 0 1 0
0.218591 -17.313954 16.429923 23.869712 -1.558172 0.811630 0.020705 0.000980 -47746.600000 0 1 0
0.081391 -17.564154 15.030423 23.117521 -1.566162 0.862982 0.016830 0.004315 -204335.000000 0 1 0
-1.288809 -17.477454 14.714523 22.883173 1.497188 0.872351 0.014815 0.001630 -99137.600000 0 1 0
-1.640809 -18.242554 13.412723 22.702074 1.481094 0.938728 0.011998 -0.000564 -268422.000000 0 1 0
-3.036709 -18.261554 13.239623 22.759472 1.406014 0.949956 0.009108 -0.007789 -450884.000000 0 1 0
-3.361209 -19.395754 12.439223 23.285774 1.399204 1.007237 0.024829 -0.017630 704058.000000 0 1 0
-4.902609 -19.624954 12.367223 23.709125 1.325992 1.022044 0.029154 -0.013784 989749.000000 0 1 0
-5.621009 -19.820954 13.601523 24.687394 1.294462 0.987294 0.030757 -0.019913 252744.000000 0 1 0
-5.989809 -21.170754 13.831723 25.988367 1.295074 1.009567 0.017705 -0.003797 -127332.000000 0 0 1
-6.636109 -21.685054 15.113723 27.252599 1.273824 0.982939 0.024243 -0.004706 -1145400.000000 0 0 1
-7.953309 -21.335654 15.175923 27.363733 1.213981 0.982914 0.035457 -0.000366 -1355060.000000 0 0 1
-8.788309 -22.344554 15.722823 28.700534 1.196072 0.991036 0.041374 -0.012098 19370.800000 0 0 1
-10.287909 -22.037354 15.715223 28.956075 1.134027 0.997117 0.047988 -0.009802 -44826.300000 0 0 1
-10.694309 -20.967354 16.564723 28.781735 1.099144 0.957545 0.034968 -0.003984 -441865.000000 0 0 1
-11.902109 -20.368954 16.153723 28.591909 1.041982 0.970393 0.040941 -0.007273 -79849.400000 0 0 1
-12.242909 -19.196654 17.076623 28.460699 1.003072 0.927286 0.048912 -0.000696 -624400.000000 0 0 1
-12.714609 -19.711954 18.309423 29.756636 0.997930 0.908023 0.052521 -0.001727 -129727.000000 0 0 1
-13.044509 -18.646654 19.184823 29.764314 0.960364 0.870351 0.051275 -0.005991 -114253.000000 0 0 1
-13.518509 -19.147854 20.558023 31.177279 0.956051 0.850788 0.044640 -0.010739 -127587.000000 0 0 1
-14.682809 -19.939454 20.480923 32.134638 0.936076 0.879746 0.041493 -0.007625 -44245.800000 0 0 1
-15.003809 -20.545154 21.695323 33.435082 0.940033 0.864686 0.042052 0.003699 -979731.000000 0 0 1
-16.289709 -21.293254 21.504123 34.368366 0.917753 0.894774 0.049386 -0.006461 -1627120.000000 0 0 1
-16.201909 -22.471554 20.730123 34.600731 0.946117 0.928390 0.045139 -0.004866 610502.000000 0 0 1
-17.467309 -22.967454 20.308623 35.285280 0.920594 0.957514 0.035033 0.001583 715265.000000 0 0 1
-18.563709 -23.422654 21.319823 36.711945 0.900612 0.951168 0.029503 -0.011223 -495331.000000 0 0 1
-19.201809 -22.383254 21.999723 36.792762 0.861754 0.929873 0.043900 -0.008539 -630555.000000 0 0 1
-20.162509 -22.951354 22.813823 38.128231 0.849994 0.929363 0.031535 -0.009935 -580246.000000 0 0 1
-20.703109 -21.862454 23.780893 38.368171 0.812628 0.902298 0.028860 0.003673 36293.700000 0 0 1
-21.458309 -20.790754 23.178523 37.814791 0.769599 0.911009 0.031155 0.007277 347914.000000 0 0 1
-21.752609 -19.847954 24.176023 38.099835 0.739646 0.883378 0.030739 0.003051 -518779.000000 0 0 1
-22.678809 -18.774154 23.691753 37.790163 0.691480 0.893191 0.025687 0.002143 -609610.000000 0 0 1
-22.288209 -18.287554 22.405123 36.512853 0.687119 0.910156 0.041731 0.004563 -329227.000000 0 0 1
-23.197809 -17.344254 21.945623 36.339674 0.642007 0.922408 0.027636 0.005329 -286470.000000 0 0 1
-22.804609 -16.676254 20.589723 34.958323 0.631404 0.941001 0.034726 0.016452 94264.300000 0 0 1
-21.825409 -15.662754 20.688623 33.907071 0.622466 0.914538 0.045133 0.012768 -264846.000000 0 0 1
-21.199809 -15.441054 19.465223 32.661185 0.629506 0.932318 0.042818 0.012917 315315.000000 0 0 1
-20.439209 -14.100354 19.176623 31.373940 0.603893 0.913185 0.040637 0.003874 193465.000000 0 0 1
-19.882709 -14.110654 17.889323 30.240049 0.617203 0.937783 0.041258 0.002752 -128128.000000 0 0 1
-19.164709 -12.931254 17.647223 29.084840 0.593573 0.918831 0.042773 -0.009087 -310528.000000 0 0 1
-18.552309 -12.930954 16.218523 27.828731 0.608710 0.948629 0.034048 -0.010658 27701.800000 0 0 1
-18.143609 -11.709654 15.606223 26.643212 0.573126 0.944993 0.030372 -0.014140 607572.000000 0 0 1
-16.865709 -11.252254 16.060423 25.865084 0.588349 0.900867 0.036213 -0.021616 351992.000000 0 0 1
-16.313409 -10.047554 15.256923 24.491925 0.552034 0.898305 0.032667 -0.019700 133469.000000 0 1 0
-17.126709 -8.912654 15.495923 24.756478 0.479830 0.894468 0.045976 -0.023958 250465.000000 0 1 0
-16.780109 -7.790354 14.699223 23.628983 0.434650 0.899394 0.047843 -0.020479 -553218.000000 0 1 0
-17.036309 -6.417254 15.486623 23.900889 0.360244 0.865904 0.052652 -0.019175 329596.000000 0 1 0
-16.229309 -6.171654 16.627623 24.040750 0.363390 0.807034 0.051307 -0.013528 126227.000000 0 1 0
-14.838609 -6.056854 16.369723 22.909335 0.387540 0.774825 0.051097 -0.018713 -24298.700000 0 1 0
-13.995509 -6.074054 17.694823 23.363972 0.409469 0.711543 0.042576 -0.014928 118363.000000 0 1 0
-14.021309 -7.276654 18.532223 24.351388 0.478709 0.705891 0.037862 -0.016226 44895.200000 0 1 0
-13.407209 -8.414154 17.917023 23.907551 0.560456 0.723596 0.048887 -0.013310 -325154.000000 0 1 0
-13.438809 -9.725154 18.798323 25.071043 0.626431 0.723033 0.043289 -0.013058 -447217.000000 0 0 1
-14.718309 -10.164554 19.122923 26.184594 0.604393 0.752018 0.045317 -0.013652 -660932.000000 0 0 1
-15.294709 -9.500654 20.249623 27.096823 0.555842 0.726798 0.025433 -0.009918 214396.000000 0 0 1
-16.728009 -10.075254 20.609823 28.391933 0.542108 0.758448 0.023312 -0.008695 1708870.000000 0 0 1
-17.859309 -10.033154 19.740023 28.447981 0.511849 0.803907 0.031952 -0.008860 763739.000000 0 0 1
-18.142809 -8.721554 19.269523 27.866495 0.448102 0.807241 0.023587 -0.010994 -830337.000000 0 0 1
-19.084609 -8.623954 18.029423 27.634308 0.424416 0.860011 0.041506 -0.019051 1494.380000 0 0 1
-20.390309 -8.933854 18.469123 28.925542 0.412949 0.878241 0.034825 -0.018806 -1080640.000000 0 0 1
-21.199809 -8.939754 17.377823 28.832965 0.399064 0.923907 0.056030 -0.018857 -254072.000000 0 0 1
-22.680109 -9.275854 17.719823 30.239394 0.388229 0.944702 0.049596 -0.012279 486680.000000 0 0 1
-23.280209 -8.310054 18.622623 30.948784 0.342860 0.925139 0.053051 -0.010804 -366792.000000 0 0 1
-24.624309 -8.595954 18.798423 32.150082 0.335859 0.946276 0.063633 -0.008329 -606002.000000 0 0 1
-25.498449 -7.522254 19.499223 32.969303 0.286871 0.937958 0.072141 -0.010318 84329.700000 0 0 1
-25.221819 -7.494354 20.881223 33.590638 0.288829 0.899964 0.070364 -0.016979 204948.000000 0 0 1
-25.896599 -6.399754 21.493323 34.257169 0.242273 0.892572 0.067861 -0.015503 -567462.000000 0 0 1
-25.840949 -6.359954 23.029623 35.193284 0.241323 0.857440 0.070692 -0.016965 -385663.000000 0 0 1
-24.677009 -5.959154 23.665513 34.706236 0.236950 0.820466 0.045180 -0.017206 517819.000000 0 0 1
-23.498409 -6.821054 23.535423 33.950231 0.282513 0.804831 0.050468 -0.016099 884257.000000 0 0 1
-22.384509 -6.541954 24.571323 33.876442 0.284335 0.759295 0.050755 -0.011316 7819.450000 0 0 1
-21.723909 -5.300454 24.393333 33.091657 0.239316 0.741962 0.052111 -0.013018 95319.500000 0 0 1
-21.049709 -4.977654 25.578973 33.498525 0.232206 0.701949 0.045517 -0.013365 -93208.300000 0 0 1
-20.241409 -3.676854 25.565353 32.814954 0.179691 0.677605 0.046712 -0.019888 4108.290000 0 0 1
-19.420209 -3.446354 26.728403 33.217908 0.175634 0.635730 0.048424 -0.016830 271985.000000 0 0 1
-20.061209 -3.215854 28.020893 34.611621 0.158950 0.627359 0.047653 -0.025114 -102053.000000 0 0 1
-21.106809 -2.126554 28.208083 35.294696 0.100413 0.644807 0.057299 -0.032483 -1804840.000000 0 0 1
-22.338709 -2.379854 27.740493 35.696171 0.106135 0.680707 0.067012 -0.037529 -2700060.000000 0 0 1
-23.192909 -1.628054 28.504213 36.783852 0.070081 0.684222 0.067266 -0.028526 -444681.000000 0 0 1
-24.477209 -1.146854 27.787593 37.048609 0.046820 0.722688 0.053665 -0.031725 -724743.000000 0 0 1
-24.155009 -0.348554 26.693113 36.001504 0.014429 0.735576 0.056654 -0.036570 -3601.030000 0 0 1
-25.257049 0.206446 26.002593 36.250462 -0.008174 0.770871 0.057026 -0.025257 -189728.000000 0 0 1
-26.241589 -0.749154 25.295693 36.456198 0.028541 0.803953 0.045510 -0.025408 -388987.000000 0 0 1
-27.112609 -1.455154 26.179043 37.716752 0.053619 0.803633 0.043399 -0.023504 167672.000000 0 0 1
-27.693019 -2.634954 25.638043 37.830617 0.094863 0.826158 0.043265 -0.031269 -16631.900000 0 0 1
-26.775349 -3.886154 25.537503 37.204645 0.144133 0.814261 0.048379 -0.030149 59860.100000 0 0 1
-26.298749 -4.205654 26.830403 37.804527 0.158576 0.781704 0.045983 -0.032317 -388525.000000 0 0 1
-25.515599 -5.367454 26.784973 37.380345 0.207337 0.771949 0.033509 -0.028232 -186741.000000 0 0 1
-24.969709 -5.773254 28.190673 38.098962 0.227218 0.737826 0.019882 -0.012429 8081.390000 0 0 1
-25.891769 -6.328454 29.121593 39.477845 0.239720 0.741185 0.034752 -0.012082 110935.000000 0 0 1
-25.236629 -7.155954 30.060193 39.896245 0.276302 0.717489 0.030555 -0.010731 667727.000000 0 0 1
-26.346719 -7.804154 31.030893 41.448411 0.287976 0.724753 0.025270 -0.003647 593540.000000 0 0 1
-27.191159 -8.724954 30.484813 41.770897 0.310496 0.752752 0.020295 -0.004025 -535493.000000 0 0 1
-28.142019 -9.223254 31.388033 43.153798 0.316708 0.756340 0.014796 0.004209 -329471.000000 0 0 1
-29.216509 -10.083254 30.728783 43.583650 0.332322 0.788298 0.007739 -0.010017 -339701.000000 0 0 1
-28.705159 -11.190754 30.016003 43.013714 0.371727 0.798441 0.013256 -0.012243 772720.000000 0 0 1
-29.803079 -11.835454 29.343293 43.466428 0.378023 0.829724 0.024839 -0.009318 476796.000000 0 0 1
-29.367799 -13.003754 28.553793 42.975393 0.416842 0.844076 0.030528 -0.011626 -119608.000000 0 0 1
-28.568959 -12.574054 27.472793 41.581807 0.414616 0.849055 0.030999 -0.008797 -231828.000000 0 0 1
-27.662689 -13.537454 27.029063 40.976302 0.455112 0.850474 0.035761 -0.015600 -588651.000000 0 0 1
-26.343339 -12.909854 26.563113 39.575685 0.455665 0.834973 0.030784 -0.013319 -444642.000000 0 0 1
-25.498479 -12.311054 27.546623 39.503809 0.449806 0.799151 0.025374 -0.011884 -255169.000000 0 0 1
-25.876679 -11.087954 28.170853 39.826401 0.404825 0.785067 0.029946 -0.014059 -941086.000000 0 0 1
-25.889119 -9.760854 27.360863 38.911921 0.360545 0.790980 0.026976 -0.006662 -91940.800000 0 0 1
-24.678809 -9.323954 26.791703 37.600201 0.361234 0.777682 0.023116 -0.013573 -298180.000000 0 0 1
-24.135609 -10.024654 25.693543 36.649413 0.393666 0.793909 0.017970 -0.016848 -191474.000000 0 0 1
-24.912209 -9.940854 24.365213 36.236754 0.379675 0.833364 0.043285 -0.012017 -21606.600000 0 0 1
-26.226299 -10.470254 24.385653 37.310924 0.379840 0.858492 0.043135 -0.012041 29289.000000 0 0 1
-26.813619 -10.433554 23.103123 36.899641 0.371087 0.894246 0.058753 -0.007828 134042.000000 0 0 1
-28.043819 -11.393754 22.904223 37.958884 0.385912 0.923044 0.064921 -0.013392 23926.100000 0 0 1
-29.281719 -10.981354 23.356123 39.032265 0.358792 0.929319 0.056728 -0.016751 -905223.000000 0 0 1
-29.412449 -10.860954 24.778433 39.962773 0.353732 0.902005 0.057488 -0.018189 -907395.000000 0 0 1
-30.858339 -10.670454 25.266333 41.285388 0.332918 0.912219 0.025290 -0.010484 -279917.000000 0 0 1
-31.388379 -9.327254 24.962363 41.174599 0.288846 0.919452 0.040805 -0.014230 -76629.700000 0 0 1
-32.637819 -9.009154 25.519783 42.398720 0.269327 0.924918 0.031225 -0.007359 -242128.000000 0 0 1
-32.710329 -9.072354 27.130353 43.454911 0.270554 0.896518 0.020622 -0.009314 -313307.000000 0 0 1
-32.995389 -10.352254 27.608423 44.250310 0.304022 0.897054 0.013693 -0.015837 -130855.000000 0 0 1
-33.574869 -10.360454 28.882253 45.484013 0.299307 0.882790 0.025124 -0.013501 -556820.000000 0 0 1
-34.003519 -11.823254 29.351383 46.449245 0.334630 0.886791 0.041391 -0.016239 454705.000000 0 0 1
-35.246981 -12.259254 28.813053 47.146909 0.334723 0.913305 0.019126 -0.010198 -55272.800000 0 0 1
35.589696 -11.841354 29.516003 47.728802 -0.321197 0.904078 0.033529 -0.007019 -102440.000000 0 0 1
34.258296 -12.351854 28.842893 46.455480 -0.346043 0.900942 0.032426 -0.013306 636687.000000 0 0 1
34.003376 -11.800254 27.579093 45.344040 -0.334028 0.916982 0.019714 -0.002051 -699031.000000 0 0 1
32.922076 -12.431454 26.985153 44.346394 -0.361050 0.916617 0.028138 0.012196 -494627.000000 0 0 1
32.819946 -12.172754 25.484683 43.298890 -0.355167 0.941500 0.016903 0.006724 19303.800000 0 0 1
32.365556 -10.847254 25.265063 42.467818 -0.323383 0.933627 0.029247 -0.013990 28655.600000 0 0 1
32.491806 -10.503454 23.913283 41.687949 -0.312662 0.959871 0.017922 -0.010980 -449658.000000 0 0 1
32.126566 -9.044154 23.632873 40.895301 -0.274414 0.954659 0.036636 0.008113 387812.000000 0 0 1
30.749376 -8.669754 23.653663 39.751535 -0.274815 0.933484 0.045656 -0.000865 194611.000000 0 0 1
30.599426 -7.483554 22.975623 38.989841 -0.239857 0.940639 0.053126 0.006873 -428483.000000 0 0 1
29.144816 -7.100154 22.746523 37.646206 -0.238962 0.922012 0.059100 0.012257 -400397.000000 0 0 1
28.518876 -7.834454 21.738823 36.705332 -0.268098 0.936945 0.056940 0.008488 52950.900000 0 0 1
27.126616 -7.575154 21.637023 35.516152 -0.272315 0.915724 0.070471 -0.012723 124868.000000 0 0 1
14.345891 -16.840954 27.047983 34.943035 -0.865232 0.685568 0.019657 -0.011480 -276849.000000 0 0 1
13.945591 -18.166054 26.783123 35.239477 -0.916080 0.707434 0.016967 -0.012984 63442.400000 0 0 1
15.060791 -19.016754 26.798743 36.147434 -0.900968 0.735682 0.015794 0.000903 -696082.000000 0 0 1
14.719991 -20.505554 26.529013 36.618908 -0.948188 0.760542 0.012132 -0.002728 864624.000000 0 0 1
13.911791 -21.260654 27.523413 37.457865 -0.991373 0.745449 0.005827 -0.001142 -149922.000000 0 0 1
12.602891 -20.868254 27.636753 36.852504 -1.027495 0.722842 0.019197 -0.005245 -1254310.000000 0 0 1
11.921191 -21.331954 29.004443 37.926571 -1.061190 0.700139 0.025147 -0.007110 175870.000000 0 0 1
12.373591 -20.660554 30.172143 38.604695 -1.031187 0.673623 0.029659 -0.009388 -260606.000000 0 0 1
11.462591 -19.744954 30.681023 38.243684 -1.044814 0.639740 0.037670 -0.013203 -344842.000000 0 0 1
11.358791 -18.352454 29.941183 36.909473 -1.016578 0.624585 0.048868 -0.011699 383604.000000 0 0 1
12.456091 -17.484554 30.205973 37.057586 -0.951793 0.617879 0.034629 0.000626 11304.800000 0 0 1
12.172691 -16.078054 29.918573 36.080455 -0.922767 0.593089 0.025056 0.001369 426078.000000 0 0 1
13.346991 -15.076754 30.209103 36.304829 -0.846179 0.587920 0.030238 -0.005774 494261.000000 0 0 1
12.945491 -13.741154 29.833323 35.304847 -0.815204 0.564193 0.044341 -0.001539 501381.000000 0 0 1
13.823291 -12.831354 30.451633 35.819394 -0.748201 0.554538 0.039062 0.004404 -51882.700000 0 0 1
13.181691 -11.454654 30.200163 34.885756 -0.715411 0.524274 0.032864 0.010182 123952.000000 0 0 1
13.404391 -10.646154 29.014283 33.687489 -0.671212 0.533017 0.053578 0.009770 -1227500.000000 0 0 1
14.739391 -10.551054 28.713163 33.956150 -0.621278 0.563117 0.036441 0.012296 -1342410.000000 0 0 1
14.947891 -9.682654 27.445673 32.717858 -0.574799 0.575612 0.027235 0.008801 -2830.340000 0 0 1
15.034391 -8.272854 27.655203 32.546633 -0.503044 0.555361 0.025205 0.006075 24485.400000 0 0 1
16.347191 -7.832454 27.929063 33.295804 -0.446814 0.575691 0.028420 -0.000181 -646751.000000 0 0 1
16.673791 -6.386954 27.570073 32.846879 -0.365813 0.574707 0.026860 -0.003850 -1399620.000000 0 0 1
18.020791 -6.155254 27.672103 33.591388 -0.329140 0.602740 0.022051 -0.010538 -1365850.000000 0 0 1
18.347091 -4.951454 27.055103 33.062233 -0.263597 0.612335 0.026684 -0.015717 131150.000000 0 0 1
19.842891 -4.790254 26.688393 33.599958 -0.236877 0.652944 0.032646 -0.017017 -932535.000000 0 0 1
20.300491 -5.697354 25.704163 33.245658 -0.273612 0.686990 0.042025 -0.012061 -197306.000000 0 0 1
21.683391 -5.801154 25.533953 33.997141 -0.261417 0.721128 0.057585 -0.016536 -417314.000000 0 0 1
22.602991 -6.110154 26.707323 35.517746 -0.264015 0.719792 0.056846 -0.019797 -1253350.000000 0 0 1
22.922991 -4.931154 27.487113 36.129229 -0.211889 0.706252 0.061552 -0.021505 68225.700000 0 0 1
23.893691 -5.273654 28.478193 37.546337 -0.217231 0.709817 0.062249 -0.032368 105392.000000 0 0 1
24.481691 -3.976054 29.058483 38.204158 -0.161004 0.706543 0.065351 -0.031055 351269.000000 0 0 1
25.341091 -3.252754 28.130703 38.001155 -0.127661 0.737341 0.057466 -0.017470 559302.000000 0 0 1
25.654891 -1.931854 28.596303 38.466272 -0.075160 0.732638 0.045495 -0.022217 -821796.000000 0 0 1
26.613291 -1.171154 27.736553 38.457187 -0.043978 0.765217 0.051766 -0.017947 52676.100000 0 0 1
27.971391 -1.608754 27.867533 39.516911 -0.057451 0.788084 0.062940 -0.018141 255356.000000 0 0 1
28.746491 -0.869554 26.931763 39.400974 -0.030240 0.818208 0.056295 0.000298 -124984.000000 0 0 1
30.229491 -0.853254 27.326703 40.759034 -0.028218 0.835988 0.048870 -0.000451 -279478.000000 0 0 1
30.485991 0.006846 28.428623 41.684317 0.000225 0.820305 0.038599 0.001398 636877.000000 0 0 1
31.893291 0.016746 28.712313 42.913625 0.000525 0.837837 0.040956 -0.002885 802592.000000 0 0 1
32.292091 1.119846 29.696503 43.885254 0.034665 0.827545 0.041687 -0.002233 -79995.300000 0 0 1
32.245091 2.416746 29.211053 43.576051 0.074809 0.836121 0.030187 0.003599 -9764.430000 0 0 1
32.607491 3.393646 30.218363 44.586038 0.103702 0.826093 0.032610 -0.002845 14483.400000 0 0 1
32.812791 4.749046 29.566073 44.422803 0.143733 0.842551 0.024947 0.003235 67960.000000 0 0 1
32.843791 5.897046 30.381653 45.127980 0.177655 0.832224 0.023682 0.008103 1020830.000000 0 0 1
31.505691 6.280746 30.750673 44.470892 0.196773 0.807262 0.027935 0.007380 780862.000000 0 0 1
31.623891 7.257846 31.940263 45.529411 0.225598 0.793254 0.029041 0.003052 -136766.000000 0 0 1
32.170491 6.670846 33.064098 46.611965 0.204462 0.782224 0.025292 0.002418 98734.700000 0 0 1
32.047591 7.549446 34.158233 47.442883 0.231352 0.767014 0.032491 0.005113 -75703.700000 0 0 1
32.308391 6.948546 -33.029710 46.723401 0.211842 2.355930 0.039862 0.009628 -253715.000000 0 0 1
31.264391 6.158446 -32.517530 45.527776 0.194490 2.366327 0.030759 0.002697 -173969.000000 0 0 1
31.220991 4.828346 -32.923950 45.629483 0.153435 2.376835 0.038160 -0.001420 256109.000000 0 0 1
32.218791 3.848846 -32.194280 45.709253 0.118896 2.352272 0.039821 -0.007829 315983.000000 0 0 1
32.062191 2.518246 -32.640220 45.822588 0.078382 2.363591 0.045867 -0.012271 126907.000000 0 0 1
32.689791 1.688146 -31.714420 45.577151 0.051596 2.340386 0.044805 -0.017593 -125523.000000 0 0 1
32.571891 0.195346 -32.073610 45.713047 0.005997 2.348478 0.054146 -0.025378 -547854.000000 0 0 1
33.504591 -0.158154 -33.068970 47.075890 -0.004720 2.349646 0.058950 -0.017107 114850.000000 0 0 1
34.012891 -1.484454 -32.855080 47.313176 -0.043616 2.338406 0.053839 -0.017086 697906.000000 0 0 1
34.871691 -1.903254 -31.565820 47.075027 -0.054525 2.305737 0.061812 -0.015553 140052.000000 0 0 1
34.168491 -2.014554 -30.323130 45.727852 -0.058891 2.295778 0.057578 -0.021687 -192451.000000 0 0 1
34.991291 -1.823854 -29.185130 45.601411 -0.052076 2.265301 0.055110 -0.024156 -418803.000000 0 0 1
34.262991 -1.564354 -27.873630 44.196595 -0.045626 2.253217 0.062107 -0.028213 -391462.000000 0 0 1
33.649491 -0.277054 -27.899170 43.711883 -0.008233 2.263021 0.042836 -0.020087 46625.800000 0 0 1
32.938291 -0.043454 -26.722820 42.415115 -0.001319 2.252389 0.040473 -0.017425 -492591.000000 0 0 1
32.208891 1.302346 -26.740360 41.882641 0.040412 2.263291 0.023882 -0.012298 -331706.000000 0 0 1
31.206891 1.400246 -27.713740 41.759815 0.044840 2.296479 0.027361 -0.018248 128647.000000 0 0 1
30.430491 2.568546 -27.524400 41.112100 0.084207 2.304327 0.011655 -0.011249 -68491.600000 0 0 1
29.677291 2.957746 -28.812120 41.468399 0.099336 2.338934 0.022149 -0.013582 275345.000000 0 0 1
28.766491 4.049446 -28.504110 40.698812 0.139851 2.346708 0.011826 -0.005523 579657.000000 0 0 1
28.184891 4.616146 -29.643150 41.163251 0.162340 2.374795 -0.002733 -0.005448 -235630.000000 0 0 1
26.934991 5.475146 -29.337550 40.201527 0.200540 2.388770 -0.009445 -0.003844 -710108.000000 0 0 1
26.008691 4.738146 -28.633520 38.971534 0.180199 2.396064 0.000302 -0.002981 -651808.000000 0 0 1
25.309491 5.580246 -27.751090 37.971469 0.217008 2.390349 -0.004311 -0.006522 -488306.000000 0 0 1
23.891991 5.085846 -27.439660 36.737283 0.209738 2.414208 0.001442 0.001739 -234403.000000 0 0 1
23.037791 5.047046 -28.564120 37.042158 0.215670 2.451402 0.025594 -0.003322 683519.000000 0 0 1
21.763891 4.430146 -28.355840 36.018701 0.200811 2.477138 0.032974 -0.001875 193977.000000 0 0 1
21.099491 4.057446 -29.643820 36.611575 0.189982 2.514410 0.022285 0.002166 -511065.000000 0 0 1
21.561691 2.884946 -30.265880 37.272683 0.133010 2.518388 0.010769 -0.001809 -74704.000000 0 0 1
20.761491 2.386946 -31.310460 37.644149 0.114467 2.553046 0.009048 -0.005453 -316326.000000 0 0 1
20.800991 3.044846 -32.696560 38.871807 0.145348 2.570181 0.022758 -0.004728 31808.000000 0 0 1
22.013691 2.827646 -33.397310 40.099607 0.127750 2.555049 0.018746 -0.005003 -43403.600000 0 0 1
22.090091 3.575046 33.967193 40.675832 0.160448 0.582535 0.035735 -0.020742 -190429.000000 0 0 1
23.484691 3.239946 33.410172 40.966664 0.137095 0.617125 0.043232 -0.015006 -189290.000000 0 0 1
23.602991 1.885646 33.060426 40.665079 0.079721 0.621522 0.046239 -0.022829 -713674.000000 0 0 1
24.893591 1.510346 32.713166 41.135426 0.060598 0.651368 0.041559 -0.026793 -1046600.000000 0 0 1
25.093491 -0.042654 32.544979 41.095752 -0.001700 0.656832 0.037818 -0.027722 -663264.000000 0 0 1
24.536091 -0.567954 31.361573 39.823242 -0.023144 0.664023 0.045023 -0.028803 937046.000000 0 0 1
23.105491 -0.561454 31.218103 38.842617 -0.024295 0.637296 0.055675 -0.033629 664055.000000 0 0 1
22.401691 -1.641754 32.162533 39.229576 -0.073156 0.609640 0.053742 -0.037456 -640714.000000 0 0 1
22.666991 -3.022154 31.833293 39.195465 -0.132547 0.622938 0.063965 -0.045634 95998.900000 0 0 1
21.984091 -3.832454 32.735207 39.617947 -0.172594 0.598339 0.064785 -0.038837 -315319.000000 0 0 1
21.995391 -5.293554 32.236783 39.383107 -0.236175 0.611926 0.064541 -0.038394 330144.000000 0 0 1
23.320191 -5.799654 32.266203 40.231520 -0.243752 0.640138 0.063410 -0.030341 158340.000000 0 0 1
23.239091 -7.235554 32.264043 40.415060 -0.301839 0.646300 0.064561 -0.024952 -617197.000000 0 0 1
24.575491 -7.897554 32.015853 41.125916 -0.310935 0.678550 0.063240 -0.025330 -523921.000000 0 0 1
25.018591 -7.739754 30.672233 40.331372 -0.300022 0.706705 0.072505 -0.024434 -214010.000000 0 0 1
26.300191 -8.261154 30.403863 41.040731 -0.304351 0.736504 0.069032 -0.015814 -65084.200000 0 0 1
26.602691 -7.890054 28.947773 40.098999 -0.288324 0.764241 0.066020 -0.017230 465719.000000 0 0 1
25.741891 -8.517154 27.953313 38.943223 -0.319530 0.770164 0.060052 -0.011261 310584.000000 0 0 1
26.112891 -8.097754 26.645183 38.176203 -0.300702 0.798262 0.067521 -0.009368 -147892.000000 0 0 1
25.463291 -8.904854 25.552083 37.156219 -0.336419 0.812489 0.057661 -0.004918 -355354.000000 0 0 1
24.138691 -8.540154 25.257993 35.966330 -0.340052 0.792218 0.053628 -0.006982 -526095.000000 0 0 1
23.576791 -9.618354 24.497513 35.334204 -0.387348 0.804726 0.060974 -0.017075 181599.000000 0 0 1
22.182291 -9.158554 23.974483 33.922102 -0.391558 0.785901 0.043773 -0.013226 5570.360000 0 0 1
21.240691 -9.251254 25.008433 34.090679 -0.410767 0.747213 0.027747 -0.004081 -607267.000000 0 0 1
19.965491 -8.934654 24.516403 32.855790 -0.420777 0.728488 0.024539 -0.000608 -142346.000000 0 0 1
18.812491 -8.753254 25.515793 32.887459 -0.435496 0.682732 0.012855 0.006970 -205020.000000 0 0 1
18.194991 -9.905854 26.110603 33.330875 -0.498555 0.670718 0.015528 0.006643 615426.000000 0 0 1
19.101091 -10.862154 26.746133 34.614935 -0.517062 0.687750 0.018099 0.005155 353983.000000 0 0 1
18.363291 -11.871754 27.688883 35.282053 -0.573906 0.668445 0.016917 0.006908 417373.000000 0 0 1
17.653891 -12.848354 26.904063 34.649224 -0.629136 0.681753 0.020103 0.004984 305696.000000 0 0 1
16.839391 -13.791154 27.577013 35.131933 -0.686208 0.668172 0.011391 0.008228 -192085.000000 0 0 1
17.506391 -14.866954 28.484363 36.590422 -0.704047 0.678580 0.013374 0.011414 -299023.000000 0 0 1
16.591991 -15.788854 29.052633 36.995102 -0.760600 0.667599 0.007532 0.006064 346244.000000 0 0 1
17.272891 -16.756654 29.878563 38.364916 -0.770229 0.678047 0.023277 0.001247 70612.300000 0 0 1
17.830091 -17.974154 29.160723 38.617744 -0.789422 0.714971 0.024004 0.002278 -115590.000000 0 0 1
18.712291 -17.646254 28.111443 38.102406 -0.756086 0.741011 0.025762 0.001993 171642.000000 0 0 1
19.286291 -18.733454 27.441543 38.417986 -0.770858 0.775189 0.023908 0.002459 -851169.000000 0 0 1
20.220491 -18.346754 26.336423 37.935193 -0.736853 0.803422 0.024270 -0.003002 -413782.000000 0 0 1
21.489891 -18.103954 26.941083 38.928017 -0.700089 0.806437 0.032478 -0.001999 205125.000000 0 0 1
22.360391 -17.587854 25.935973 38.496680 -0.666494 0.831565 0.038264 0.000348 -329368.000000 0 0 1
23.839991 -17.411654 26.264923 39.514011 -0.630809 0.843705 0.040709 0.001150 -334218.000000 0 0 1
24.458391 -18.684054 26.387863 40.541659 -0.652345 0.862050 0.044270 -0.006576 593169.000000 0 0 1
25.877391 -18.510654 26.406693 41.347275 -0.620935 0.878046 0.030543 -0.001082 263272.000000 0 0 1
26.663591 -19.804654 26.616533 42.563027 -0.638852 0.895224 0.016673 -0.001158 -295529.000000 0 0 1
26.477491 -20.404454 27.892023 43.535781 -0.656577 0.875427 0.017672 0.003550 -224324.000000 0 0 1
27.251091 -21.528654 28.073643 44.656851 -0.668620 0.890977 0.017753 -0.004964 -755089.000000 0 0 1
26.624891 -22.581954 28.956583 45.357614 -0.703420 0.878370 0.019837 -0.006206 -126372.000000 0 0 1
26.453091 -22.288254 30.362293 46.026092 -0.700157 0.850409 0.023629 -0.009041 253611.000000 0 0 1
25.670691 -23.352554 30.912463 46.474795 -0.738147 0.843109 0.042342 -0.011449 -154487.000000 0 0 1
25.521391 -23.189554 32.409773 47.323252 -0.737564 0.816386 0.035418 -0.006665 48984.000000 0 0 1
24.893991 -24.330254 32.984968 47.954981 -0.773946 0.812298 0.036086 -0.012001 119011.000000 0 0 1
24.653091 -24.076854 -34.218153 48.562864 -0.773574 2.352678 0.035114 -0.012745 -599428.000000 0 0 1
24.334191 -25.372954 -33.383160 48.480666 -0.806293 2.330335 0.033118 -0.012993 795392.000000 0 0 1
23.058191 -26.007604 -33.522030 48.288737 -0.845437 2.338104 0.028502 -0.012981 442832.000000 0 0 1
22.593191 -26.248864 33.694028 48.319175 -0.860106 0.799142 0.033936 -0.014292 67526.800000 0 0 1
21.294191 -27.090234 33.527709 48.077340 -0.904622 0.799075 0.032572 -0.016578 710516.000000 0 0 1
21.655791 -28.437914 33.703519 49.128560 -0.919969 0.814782 0.025424 -0.004135 1035640.000000 0 0 1
20.453191 -29.220784 33.891407 49.201776 -0.960102 0.810930 0.033711 -0.005222 542075.000000 0 0 1
20.655191 -30.749744 34.123436 50.364596 -0.979304 0.826400 0.018803 -0.006019 -168362.000000 0 0 1
21.274691 -31.082414 -33.177690 50.194502 -0.970576 2.292924 0.010298 -0.005776 561737.000000 0 0 1
21.797491 -32.391404 -33.195010 51.246876 -0.978463 2.275420 -0.023205 0.009276 7632.560000 0 0 1
22.499291 -32.897114 -31.907780 51.054330 -0.970938 2.245898 -0.012143 0.009447 -1239060.000000 0 0 1
23.276391 -34.032084 -32.100320 52.253264 -0.970921 2.232323 -0.018094 0.007247 159063.000000 0 0 1
23.834291 34.253753 -30.824530 51.880099 0.962884 2.207004 -0.002202 0.010280 -908899.000000 0 0 1
24.996791 -33.645124 -30.358960 51.754230 -0.931820 2.197649 0.000781 0.011488 -2053430.000000 0 0 1
25.354491 -33.710954 -28.968930 51.171061 -0.925943 2.172587 0.018177 0.007266 904494.000000 0 0 1
26.476991 -32.798644 -28.761190 51.029287 -0.891645 2.169559 0.022700 0.006886 764676.000000 0 0 1
27.187091 -32.876814 -27.398030 50.701823 -0.879844 2.141680 0.020448 0.008101 645339.000000 0 0 1
28.172691 -33.928774 -27.323170 51.878877 -0.877822 2.125478 0.027626 0.014460 -212390.000000 0 0 1
29.125091 -33.671714 -26.365720 51.741728 -0.857674 2.105474 0.029459 0.007231 -389348.000000 0 0 1
-26.309909 -31.046413 9.670590 41.828357 0.867792 1.337489 0.047273 -0.014322 -98211.600000 0 0 1
-25.538199 -32.190413 9.322390 42.134657 0.900125 1.347698 0.043771 -0.018696 -56725.000000 0 0 1
-24.605709 -32.507013 10.325090 42.056561 0.922871 1.322756 0.038721 -0.013534 2452.970000 0 0 1
-25.063919 -33.709113 11.239690 43.483733 0.931445 1.309348 0.025820 -0.006606 56825.800000 0 0 1
-25.131759 33.727846 10.586890 43.373438 -0.930417 1.324218 0.027083 -0.003103 22384.400000 0 0 1
-25.277219 32.705046 11.502590 42.905331 -0.912809 1.299384 0.021293 0.001259 -168453.000000 0 0 1
-25.183109 31.335546 10.820990 41.631710 -0.893828 1.307855 0.012226 -0.004195 279102.000000 0 0 1
-26.332609 31.204546 9.992590 42.035483 -0.869871 1.330781 0.024236 -0.007429 180315.000000 0 0 1
-26.437109 30.084446 9.097690 41.070215 -0.849839 1.347428 0.033855 -0.014895 -646050.000000 0 0 1
-25.603049 30.127046 7.822290 40.303142 -0.866397 1.375470 0.020468 -0.006724 -199136.000000 0 0 1
-24.249109 29.870046 8.119490 39.321305 -0.888889 1.362809 0.017912 -0.004025 12042.000000 0 0 1
-23.407009 29.917646 6.964090 38.619324 -0.906891 1.389478 -0.004729 -0.003122 1128590.000000 0 0 1
-22.136609 28.975246 7.119390 37.152121 -0.918406 1.377976 0.039682 0.000533 642688.000000 0 0 1
-22.444009 27.588346 7.184390 36.283134 -0.887858 1.371470 0.029857 -0.005814 155143.000000 0 0 1
-22.996509 27.053746 5.998690 36.010122 -0.866285 1.403433 0.034846 -0.010261 -313436.000000 0 0 1
-23.406709 25.589746 6.037290 35.201676 -0.829924 1.398438 0.046691 -0.008252 -921855.000000 0 0 1
-24.420609 25.342746 6.964390 35.876506 -0.803926 1.375435 0.047827 -0.014167 -161570.000000 0 0 1
-24.623909 23.986146 7.333190 35.148937 -0.772279 1.360620 0.051344 -0.018672 -387419.000000 0 0 1
-25.071479 23.074446 6.161490 34.626191 -0.743943 1.391901 0.046014 -0.029720 -222016.000000 0 0 1
-26.461189 23.231446 5.868190 35.697763 -0.720495 1.405661 0.047194 -0.030172 471690.000000 0 0 1
-26.853039 22.665746 4.664390 35.448248 -0.701039 1.438831 0.053181 -0.027940 -15175.100000 0 0 1
-26.602659 23.585046 3.412090 35.715518 -0.725344 1.475115 0.044968 -0.029267 -1145980.000000 0 0 1
-25.259689 23.872846 3.301790 34.912269 -0.757179 1.476081 0.038891 -0.030099 -855090.000000 0 0 1
-25.067979 24.792446 2.242590 35.328433 -0.779872 1.507275 0.044290 -0.029533 -250771.000000 0 0 1
-23.588409 25.131046 2.009090 34.525628 -0.817051 1.512572 0.056616 -0.024124 -206742.000000 0 0 1
-23.300609 25.946046 0.888690 34.884172 -0.839065 1.545318 0.050527 -0.030044 226928.000000 0 0 1
-21.927509 26.321046 0.965490 34.271640 -0.876208 1.542621 0.046179 -0.027652 112750.000000 0 0 1
-21.246309 27.090146 -0.272810 34.429001 -0.905713 1.578720 0.042000 -0.030570 429835.000000 0 0 1
-20.914009 26.354246 -1.428310 33.674651 -0.899987 1.613224 0.042547 -0.030299 -299590.000000 0 0 1
-19.848309 25.503746 -1.129910 32.336870 -0.909459 1.605745 0.050452 -0.036274 -603253.000000 0 0 1
-19.296809 24.656746 -2.300510 31.394495 -0.906744 1.644140 0.055363 -0.035519 -658138.000000 0 0 1
-20.293109 23.774146 -2.648710 31.369348 -0.864228 1.655333 0.052295 -0.038286 -406052.000000 0 0 1
-19.897809 22.769746 -3.560210 30.447648 -0.852606 1.687993 0.048034 -0.035371 -793351.000000 0 0 1
-21.081209 22.119646 -4.222410 30.846797 -0.809431 1.708111 0.044273 -0.028577 -574155.000000 0 0 1
-21.779609 22.885846 -5.144310 32.009018 -0.810160 1.732211 0.048960 -0.020875 107445.000000 0 0 1
-23.062909 22.321746 -5.391410 32.545744 -0.769069 1.737220 0.058960 -0.023189 388883.000000 0 0 1
-23.722209 22.760846 -6.717610 33.554815 -0.764719 1.772356 0.048127 -0.010689 -118607.000000 0 0 1
-23.144309 22.176046 -7.869110 33.005438 -0.764037 1.811533 0.046520 -0.010229 -311583.000000 0 0 1
-22.083809 22.852446 -8.466610 32.887876 -0.802502 1.831167 0.041576 -0.018517 -671859.000000 0 0 1
-21.448509 22.133446 -9.637310 32.292503 -0.801113 1.873852 0.039125 -0.023547 -513863.000000 0 0 1
-22.198709 21.922746 -10.813510 33.020016 -0.779144 1.904435 0.035394 -0.009216 11448.700000 0 0 1
-21.419109 21.354746 -11.873310 32.492752 -0.783893 1.944874 0.029435 -0.001911 418929.000000 0 0 1
-22.219509 21.186746 -13.220010 33.426837 -0.761610 1.977399 0.019572 0.001153 1160210.000000 0 0 1
-23.248009 20.141746 -13.092510 33.430131 -0.713930 1.973207 0.014268 -0.005915 811195.000000 0 0 1
-23.892709 20.049846 -14.332210 34.325939 -0.698168 2.001525 0.020544 -0.003774 9077.470000 0 0 1
-24.858109 18.858346 -14.490410 34.402540 -0.649008 2.005566 0.037711 -0.012118 406280.000000 0 0 1
-24.419909 17.964846 -15.544610 34.069085 -0.634263 2.044592 0.029276 -0.011299 743758.000000 0 0 1
-25.442029 16.968346 -15.679210 34.366542 -0.588193 2.044556 0.054891 -0.018766 166308.000000 0 0 1
-25.082519 16.044646 -16.822410 34.198785 -0.569082 2.085068 0.056019 -0.015269 -209741.000000 0 0 1
-23.976409 15.243346 -16.538610 32.874814 -0.566303 2.097953 0.053919 -0.008477 -401913.000000 0 0 1
-23.716309 14.579646 -17.792910 33.039628 -0.551196 2.139491 0.054853 -0.020626 -95289.000000 0 0 1
-23.106409 13.200346 -17.558110 31.881695 -0.519038 2.154031 0.047337 -0.023798 -1744510.000000 0 0 1
-21.804909 13.250146 -17.208910 30.776079 -0.546039 2.164175 0.057981 -0.026349 -1803900.000000 0 0 1
-21.181009 11.957946 -17.299310 29.847843 -0.513953 2.189014 0.062061 -0.019357 -660911.000000 0 0 1
-19.989209 11.980646 -16.390910 28.491513 -0.539946 2.183756 0.059977 -0.020932 -1323390.000000 0 0 1
-18.982609 12.891746 -16.734310 28.400241 -0.596585 2.200903 0.050316 -0.011434 -291664.000000 0 0 1
-17.914909 12.840046 -15.820010 27.130858 -0.621862 2.193336 0.051618 -0.008506 -246308.000000 0 0 1
-16.953309 14.028746 -15.926410 27.163780 -0.691282 2.197293 0.042329 -0.008218 -294183.000000 0 0 1
-16.212909 14.029546 -17.133410 27.445224 -0.713328 2.245001 0.054916 -0.018110 -103179.000000 0 0 1
-15.423509 15.182946 -17.134810 27.604496 -0.777538 2.240464 0.041900 -0.002222 -382269.000000 0 0 1
-14.509309 15.363446 -18.352310 27.988619 -0.813983 2.285914 0.036942 0.002662 317527.000000 0 0 1
-13.450609 14.416746 -18.430610 26.989791 -0.820053 2.322485 0.036601 0.002139 361515.000000 0 0 1
-12.689109 14.505346 -19.650510 27.523828 -0.852086 2.365913 0.046966 0.001437 115349.000000 0 0 1
-11.668309 13.397646 -19.788210 26.593601 -0.854280 2.409978 0.041241 -0.002175 8506.170000 0 0 1
-12.233709 12.124046 -20.129210 26.492286 -0.780896 2.433823 0.054564 -0.007030 -170723.000000 0 0 1
-11.194009 11.199146 -20.097310 25.585710 -0.785628 2.474283 0.043295 0.004724 -232499.000000 0 0 1
-11.266609 9.983346 -21.031110 25.863319 -0.725082 2.520363 0.045387 0.002855 -173822.000000 0 0 1
-11.316809 10.355546 -22.357810 27.114188 -0.741073 2.540255 0.046590 -0.006705 -25982.500000 0 0 1
-11.636209 9.218946 -23.099710 27.458822 -0.670006 2.570386 0.045480 0.016707 -181728.000000 0 0 1
-11.148009 9.324146 -24.556510 28.534891 -0.696543 2.607201 0.037467 -0.003119 557846.000000 0 0 1
-9.733309 9.085946 -24.714910 28.073448 -0.751013 2.647430 0.022207 -0.001426 849302.000000 0 0 1
-9.448109 8.393746 -25.922280 28.838973 -0.726372 2.687964 0.004780 -0.006040 -297305.000000 0 0 1
-9.357109 9.237746 -27.232100 30.240349 -0.778979 2.691765 0.027422 -0.008574 167191.000000 0 0 1
-8.147409 9.938346 -27.525270 30.377483 -0.884101 2.704787 0.021263 -0.012612 373164.000000 0 0 1
-7.852309 11.076946 -26.742520 29.991997 -0.954130 2.671785 0.009425 -0.000558 -136456.000000 0 0 1
-6.383209 11.548746 -26.758200 29.834882 -1.065868 2.683452 0.016668 0.001978 -234931.000000 0 0 1
-5.974909 12.152546 -27.929390 31.039245 -1.113844 2.690128 0.014452 -0.009937 -186293.000000 0 0 1
-4.621809 12.521046 -27.833980 30.868563 -1.217188 2.694467 0.033040 -0.017012 -181426.000000 0 0 1
-4.027409 12.982046 -29.184420 32.194470 -1.269982 2.705725 0.039842 -0.016189 493646.000000 0 0 1
-2.606309 13.148946 -29.138280 32.073774 -1.375118 2.710421 0.060090 -0.032275 562948.000000 0 0 1
-2.145609 12.899546 -30.474300 33.161497 -1.405973 2.736248 0.060511 -0.031218 -628659.000000 0 0 1
-0.636309 12.827646 -30.586720 33.173797 -1.521232 2.744048 0.078860 -0.040492 -936662.000000 0 0 1
-0.094409 11.789946 -29.770230 32.019968 -1.562789 2.764501 0.064111 -0.023981 577187.000000 0 0 1
1.296191 11.479546 -29.880010 32.035528 1.458359 2.772665 0.080988 -0.029463 681881.000000 0 0 1
1.791591 10.757246 -31.134250 32.988932 1.405764 2.804677 0.085207 -0.023960 -425856.000000 0 0 1
1.794291 11.627746 -32.209620 34.291159 1.417693 2.791375 0.087119 -0.035988 205039.000000 0 0 1
2.041291 10.911346 -33.429560 35.224421 1.385854 2.820988 0.084036 -0.033022 -37421.100000 0 0 1
2.137691 11.831346 33.891056 35.960453 1.392045 0.340902 0.092872 -0.036717 -109947.000000 0 0 1
3.408591 12.404846 33.639242 36.015238 1.302636 0.365268 0.084698 -0.035114 -147822.000000 0 0 1
3.375591 13.294346 32.543353 35.315777 1.322139 0.398881 0.077227 -0.027729 -32785.500000 0 0 1
4.769091 13.668146 31.994223 35.116845 1.235084 0.424902 0.074860 -0.022435 -50783.000000 0 0 1
5.323491 12.474946 31.459533 34.258810 1.167457 0.407056 0.066221 -0.023545 614732.000000 0 0 1
6.719691 12.615646 31.158753 34.280850 1.081373 0.430096 0.067060 -0.011882 586638.000000 0 0 1
7.450391 11.368046 30.734833 33.606112 0.990648 0.416376 0.058388 -0.006827 -308881.000000 0 0 1
7.107491 10.905346 29.453893 32.202094 0.993196 0.416136 0.042327 -0.015799 -173510.000000 0 0 1
7.899191 9.825946 29.003193 31.624858 0.893675 0.410049 0.044119 -0.017811 -254981.000000 0 0 1
7.228191 8.918446 28.013753 30.274673 0.889700 0.388918 0.020975 -0.011617 -149566.000000 0 0 1
6.257491 8.086946 28.625473 30.396918 0.912251 0.343080 0.018701 -0.012655 -57183.000000 0 0 1
5.908391 7.133046 27.660093 29.169679 0.879029 0.323124 0.032962 -0.011747 -60238.100000 0 0 1
5.184191 5.863846 28.145883 29.213889 0.846839 0.271231 0.047643 -0.019799 -130463.000000 0 0 1
6.074091 4.981846 28.757293 29.810993 0.686925 0.266669 0.027702 -0.010756 -78108.000000 0 0 1
5.436991 4.397446 29.841443 30.649799 0.680085 0.230177 0.027607 -0.014465 -690931.000000 0 0 1
6.203491 3.285946 30.467573 31.265856 0.487119 0.226457 0.035171 -0.015159 -365191.000000 0 0 1
6.139691 2.015946 29.799183 30.491822 0.317256 0.213551 0.031865 -0.011261 -168102.000000 0 0 1
7.323191 1.782846 29.073253 30.034343 0.238806 0.253660 0.033816 -0.008562 -467475.000000 0 0 1
7.352991 0.531646 28.203903 29.151489 0.072178 0.255669 0.029935 -0.016296 -96347.200000 0 0 1
7.420891 -0.623954 28.997123 29.938138 -0.083883 0.251388 0.024545 -0.014159 -198688.000000 0 0 1
7.547791 -1.809654 28.202813 29.251371 -0.235317 0.268562 0.038410 -0.012134 -170320.000000 0 0 1
8.216891 -2.936954 29.008913 30.292904 -0.343278 0.292194 0.029943 -0.008916 666994.000000 0 0 1
9.601491 -2.652654 29.226163 30.877076 -0.269551 0.328483 0.022751 -0.011861 238745.000000 0 0 1
10.418691 -3.787454 29.047063 31.090607 -0.348673 0.364586 0.030947 -0.006503 -436471.000000 0 0 1
11.928291 -3.483654 29.034513 31.582003 -0.284147 0.404403 0.019743 0.000277 320981.000000 0 0 1
12.849191 -4.475854 28.606613 31.677647 -0.335193 0.443970 0.022697 -0.000947 278507.000000 0 0 1
13.021091 -5.527754 29.512283 32.727355 -0.401467 0.446968 0.041453 -0.001673 -717708.000000 0 0 1
12.273491 -6.836154 29.220873 32.422693 -0.508190 0.448156 0.046350 0.003224 1643.520000 0 0 1
10.866991 -6.780354 29.346593 32.020107 -0.557837 0.411542 0.058142 0.000406 -192592.000000 0 0 1
10.304291 -8.025054 29.040633 31.842398 -0.661684 0.422635 0.073999 -0.000871 156706.000000 0 0 1
8.790791 -8.098954 28.697803 31.087537 -0.744459 0.394656 0.081279 -0.004209 250974.000000 0 0 1
8.060191 -7.734854 29.851553 31.873341 -0.764804 0.358090 0.084756 -0.007452 -757958.000000 0 0 1
6.702791 -7.769954 29.523663 31.256140 -0.859001 0.334509 0.064312 0.004495 -550226.000000 0 0 1
5.697291 -7.155054 30.498423 31.840348 -0.898339 0.291358 0.045288 -0.000449 -58653.400000 0 0 1
5.540891 -7.784654 31.766373 33.172350 -0.952214 0.292188 0.040800 -0.005576 257789.000000 0 0 1
4.895191 -6.989754 32.811290 33.902807 -0.959843 0.254439 0.037438 -0.010073 362469.000000 0 0 1
5.739991 -5.785854 33.300554 34.283386 -0.789377 0.240025 0.044290 -0.004647 138500.000000 0 0 1
5.751891 -4.654354 32.496600 33.328311 -0.680318 0.223873 0.047298 -0.009406 -112198.000000 0 0 1
6.498391 -3.543954 32.999615 33.819570 -0.499273 0.220652 0.030096 -0.005928 -69929.600000 0 0 1
6.416691 -2.216554 32.223843 32.931188 -0.332603 0.207638 0.018308 -0.003585 -257500.000000 0 0 1
5.087091 -1.760654 32.167343 32.614665 -0.333198 0.165812 0.030145 -0.006426 -304542.000000 0 0 1
5.078191 -0.518554 31.510093 31.920885 -0.101761 0.160604 0.022738 -0.014001 1382570.000000 0 0 1
3.606891 0.058746 31.274153 31.481515 0.016286 0.114839 0.026916 -0.014644 1239750.000000 0 0 1
2.913091 0.354346 32.466533 32.598887 0.121045 0.090142 0.031912 -0.018588 -274642.000000 0 0 1
1.666291 0.971346 32.197633 32.255351 0.527780 0.059832 0.043306 -0.021065 -36180.900000 0 0 1
0.930091 1.199446 33.514982 33.549333 0.911215 0.045257 0.049030 -0.022086 -348119.000000 0 0 1
1.510091 2.199446 -34.273409 34.377093 0.969135 3.063906 0.043332 -0.013128 -520262.000000 0 0 1
0.763191 2.378746 -33.133490 33.227535 1.260334 3.066338 0.033380 -0.009373 -505661.000000 0 0 1
1.300091 3.397646 -32.124500 32.329827 1.205340 3.028830 0.031438 0.001719 649177.000000 0 0 1
2.509591 2.951746 -31.470670 31.708263 0.866183 3.019098 0.021660 0.001830 837724.000000 0 0 1
3.072491 4.050546 -30.698400 31.116537 0.921854 2.977471 0.017957 0.003560 533575.000000 0 0 1
4.199191 3.604046 -29.714910 30.225787 0.709277 2.957474 0.015613 0.003044 117361.000000 0 0 1
3.735691 2.969946 -28.539300 28.935577 0.671697 2.975903 0.017155 -0.010928 109527.000000 0 0 1
4.797491 2.750746 -27.662100 28.209472 0.520610 2.944276 0.019460 -0.010820 -21244.400000 0 0 1
4.226091 1.864846 -26.520000 26.919285 0.415570 2.969143 0.014596 -0.014541 309109.000000 0 0 1
3.858891 0.551246 -26.914740 27.195554 0.141891 2.997763 0.024504 -0.015873 -62337.800000 0 0 1
3.365591 -0.145854 -25.808120 26.027054 -0.043310 3.011796 0.033992 -0.014607 -319942.000000 0 0 1
3.911591 -1.585354 -25.546200 25.892513 -0.385064 2.977855 0.041816 -0.023739 263329.000000 0 0 1
5.304791 -1.643354 -25.278700 25.881540 -0.300411 2.925337 0.039124 -0.027190 81055.900000 0 0 1
5.624691 -3.012354 -25.303310 26.095381 -0.491689 2.894580 0.049744 -0.026592 -880165.000000 0 0 1
6.910891 -3.229854 -24.518210 25.677519 -0.437194 2.839955 0.053006 -0.032043 -417781.000000 0 0 1
7.964591 -2.941254 -25.404060 26.785293 -0.353756 2.819052 0.046961 -0.022936 -584725.000000 0 0 1
9.260991 -3.218154 -24.921210 26.780388 -0.334442 2.766782 0.034033 -0.017109 341291.000000 0 0 1
-29.413979 -4.922754 18.136623 34.904911 0.165824 1.024413 0.064949 0.006323 -35710.700000 0 0 1
-30.793999 -4.650054 18.134523 36.038234 0.149873 1.043496 0.056250 0.006674 -323977.000000 0 0 1
-31.451579 -5.491054 19.068723 37.188301 0.172845 1.032398 0.048389 -0.005774 304142.000000 0 0 1
-32.918559 -5.060254 19.328323 38.507425 0.152526 1.044959 0.043337 -0.000201 47704.000000 0 0 1
-33.749819 -5.176854 18.213023 38.698376 0.152203 1.080780 0.040191 -0.002433 361696.000000 0 0 1
-35.083202 -4.764854 18.521923 39.957434 0.134990 1.088809 0.026595 -0.002247 371825.000000 0 0 1
35.832326 -4.783954 17.418323 40.127793 -0.132725 1.121789 0.029119 -0.003400 -40774.700000 0 0 1
34.500286 -4.651654 17.874923 39.133368 -0.134021 1.096436 0.018501 -0.003806 -192416.000000 0 0 1
33.610416 -4.806054 16.785123 37.874775 -0.142030 1.111660 0.029656 -0.008691 -1100700.000000 0 0 1
32.271106 -5.221654 17.284223 36.978836 -0.160416 1.084439 0.032261 -0.008123 -1190440.000000 0 0 1
31.541886 -4.343254 18.144623 36.646716 -0.136837 1.052820 0.040167 -0.013410 -85363.800000 0 0 1
30.461586 -5.037754 18.669523 36.080996 -0.163897 1.026947 0.055293 -0.016920 -543543.000000 0 0 1
29.749106 -4.433454 19.887923 36.058207 -0.147939 0.986574 0.055287 -0.006964 91916.800000 0 0 1
28.784256 -3.412554 19.680123 35.035499 -0.118005 0.974334 0.064202 -0.008538 66896.800000 0 0 1
29.246026 -2.160054 19.214123 35.059641 -0.073724 0.990776 0.066311 -0.014735 -19283.500000 0 0 1
28.342216 -0.919054 19.569823 34.454374 -0.032416 0.966732 0.043302 -0.005534 -210644.000000 0 0 1
28.940576 0.300546 19.252123 34.760488 0.010385 0.983814 0.058853 -0.010032 -185482.000000 0 0 1
28.119286 1.338946 19.692723 34.355354 0.047581 0.960382 0.053619 -0.003243 63426.000000 0 0 1
28.378016 2.751346 19.095123 34.314799 0.096651 0.980666 0.056279 -0.002154 123076.000000 0 0 1
28.485056 2.658146 17.698923 33.640988 0.093048 1.016774 0.047600 -0.008675 -30877.100000 0 0 1
28.424236 3.958846 17.087023 33.400240 0.138387 1.033769 0.046502 -0.001935 187326.000000 0 0 1
28.168506 3.834746 15.550023 32.403291 0.135304 1.070267 0.049597 -0.003981 10526.400000 0 0 1
28.006636 5.091846 14.909123 32.133791 0.179844 1.088324 0.038152 -0.001930 81917.900000 0 0 1
27.548066 4.855346 13.582323 31.095817 0.174458 1.118770 0.042713 -0.001793 -7952.300000 0 0 1
26.811256 6.062446 12.984023 30.400355 0.222376 1.129512 0.049406 0.000301 103203.000000 0 0 1
25.760756 6.565146 13.799323 29.952279 0.249539 1.092001 0.052167 0.000243 -114367.000000 0 0 1
25.298456 7.822546 13.243023 29.607124 0.299885 1.107061 0.059811 -0.010597 -859027.000000 0 0 1
24.118956 8.435246 14.003823 29.137338 0.336439 1.069441 0.061930 -0.011191 194742.000000 0 0 1
22.841456 7.824446 13.914923 27.867170 0.330027 1.047971 0.068244 -0.008095 643100.000000 0 0 1
22.792456 6.437346 14.323423 27.678438 0.275264 1.026877 0.078341 -0.008700 -200840.000000 0 0 1
21.390356 5.705646 14.090223 26.241877 0.260670 1.003995 0.085426 -0.011685 1143710.000000 0 0 1
21.175456 5.713746 12.693823 25.341270 0.263552 1.046141 0.101070 -0.012659 224147.000000 0 0 1
20.023956 4.970446 12.390123 24.066144 0.243307 1.029980 0.091178 -0.012966 -386767.000000 0 1 0
19.813956 4.821246 10.905223 23.124904 0.238687 1.079716 0.104300 -0.016991 -71608.400000 0 1 0
20.742856 4.022146 10.207123 23.465488 0.191528 1.120775 0.107724 -0.019248 459875.000000 0 1 0
20.321056 3.938746 8.858123 22.515004 0.191452 1.166435 0.112737 -0.020469 263680.000000 0 1 0
21.402356 3.253846 7.985323 23.074093 0.150877 1.217414 0.107541 -0.015841 -555802.000000 0 1 0
21.728856 1.916146 8.384923 23.369248 0.087957 1.203813 0.111885 -0.018873 1064740.000000 0 1 0
22.808856 1.389646 7.592223 24.079387 0.060851 1.250024 0.119552 -0.010786 962170.000000 0 1 0
24.266256 1.909446 7.841023 25.573009 0.078525 1.259163 0.110970 -0.011404 158496.000000 0 0 1
25.035456 1.324946 8.885323 26.598468 0.052873 1.230195 0.090011 -0.003652 478932.000000 0 0 1
24.606856 1.743146 10.137223 26.670193 0.070722 1.180897 0.087055 -0.002181 -389159.000000 0 0 1
25.330156 0.996746 11.293923 27.751811 0.039330 1.151671 0.065892 0.000057 780132.000000 0 0 1
26.737256 1.270046 11.331023 29.066922 0.047465 1.170354 0.061454 0.001848 614965.000000 0 0 1
27.362776 0.483546 12.326623 30.015012 0.017670 1.147594 0.061637 -0.006940 14601.500000 0 0 1
28.900206 0.412746 12.191023 31.368987 0.014281 1.171649 0.067404 -0.005976 249591.000000 0 0 1
29.520936 1.628846 12.598123 32.138007 0.055120 1.167991 0.054759 0.000019 1124810.000000 0 0 1
30.964496 1.473146 12.583323 33.456094 0.047539 1.185197 0.060600 -0.004978 1446590.000000 0 0 1
31.767756 2.733646 12.955123 34.416542 0.085840 1.184866 0.052024 -0.007699 -538378.000000 0 0 1
31.733566 3.656746 11.880623 34.081376 0.114727 1.214724 0.058254 -0.011688 162781.000000 0 0 1
32.504616 4.832746 12.131723 35.029762 0.147598 1.217144 0.052056 -0.015386 164339.000000 0 0 1
33.975726 4.687646 11.677223 36.230947 0.137105 1.242639 0.059615 -0.008091 -343010.000000 0 0 1
34.625556 3.729146 12.501523 37.001672 0.107286 1.226150 0.056261 -0.014884 -158498.000000 0 0 1
-35.937852 3.893646 12.302923 38.184442 -0.107923 1.242747 0.061382 -0.003034 321226.000000 0 0 1
-35.045837 2.913746 13.141123 37.541840 -0.082950 1.213183 0.071224 0.002697 -461928.000000 0 0 1
-35.022329 1.578046 12.630323 37.263639 -0.045028 1.225001 0.069988 0.002383 606993.000000 0 0 1
35.783266 0.753746 12.881723 38.038784 0.021061 1.225318 0.065689 -0.000667 538592.000000 0 0 1
35.422216 0.509646 14.400823 38.241036 0.014387 1.184694 0.069800 -0.003092 -617327.000000 0 0 1
-35.552591 -0.140654 15.110023 38.630549 0.003956 1.168924 0.057211 0.001401 -265247.000000 0 0 1
35.929801 -0.253654 16.440223 39.513237 -0.007060 1.141679 0.059881 -0.002599 356700.000000 0 0 1
-35.040017 -1.021254 17.361923 39.118820 0.029137 1.110933 0.053910 0.001091 -92238.700000 0 0 1
-33.853679 -0.313054 17.639323 38.174800 0.009247 1.090472 0.056142 0.000349 28090.300000 0 0 1
-32.794519 -1.066754 18.192223 37.517668 0.032517 1.064550 0.052733 0.002021 356209.000000 0 0 1
-32.864829 -1.076654 19.710923 38.337667 0.032748 1.030792 0.043788 -0.001889 -99685.700000 0 0 1
-33.885049 -1.919154 20.235223 39.513845 0.056577 1.033163 0.041416 -0.010776 189536.000000 0 0 1
-34.210500 -1.720254 21.584223 40.486989 0.050242 1.008518 0.033332 -0.007522 364921.000000 0 0 1
-34.853551 -3.011554 22.225423 41.446459 0.086192 1.004815 0.027223 -0.003388 984131.000000 0 0 1
-33.848409 -4.057054 22.401123 40.791970 0.119290 0.989443 0.033836 -0.008474 866922.000000 0 0 1
-34.389639 -5.221754 22.979323 41.688887 0.150690 0.986983 0.026799 -0.011602 -35774.500000 0 0 1
-34.409206 -5.122454 24.534593 42.569699 0.147783 0.956554 0.021924 -0.011180 -1123520.000000 0 0 1
-33.157409 -4.927654 25.039183 41.840844 0.147534 0.929245 0.033025 -0.014885 -1564410.000000 0 0 1
-33.172139 -4.954454 26.440633 42.708834 0.148260 0.903212 0.037847 -0.016398 525309.000000 0 0 1
-32.076229 -4.009654 27.049073 42.149901 0.124359 0.874038 0.036489 -0.020751 398379.000000 0 0 1
-32.233919 -2.619554 26.822873 42.016118 0.081089 0.878385 0.031363 -0.013605 -311128.000000 0 0 1
-31.719819 -2.289754 25.545353 40.791604 0.072062 0.894075 0.027327 -0.012580 -269727.000000 0 0 1
-31.584639 -0.782954 25.242983 40.440211 0.024784 0.896683 0.027171 -0.007687 303131.000000 0 0 1
-32.831949 -0.110154 25.125333 41.342852 0.003355 0.917596 0.031935 -0.015119 -72988.000000 0 0 1
-32.669749 1.173146 24.619673 40.924529 -0.035894 0.925310 0.023667 -0.010805 -623923.000000 0 0 1
-33.918579 2.054246 24.547013 41.919516 -0.060490 0.945207 0.036255 -0.004273 -701282.000000 0 0 1
-34.679450 1.530646 23.502173 41.920869 -0.044108 0.975648 0.038606 0.002378 342694.000000 0 0 1
-35.774550 2.393146 23.061423 42.630680 -0.066796 0.999220 0.042576 0.006193 1095860.000000 0 0 1
-35.339744 3.698746 22.303623 41.952710 -0.104283 1.010264 0.048335 0.009415 -178961.000000 0 0 1
-34.677835 3.442646 21.101823 40.739306 -0.098951 1.026318 0.039857 -0.014420 -2578.950000 0 0 1
-35.601799 3.346646 20.022823 40.982943 -0.093727 1.060352 0.054539 -0.009180 393182.000000 0 0 1
-34.943421 2.612246 18.826323 39.778097 -0.074618 1.077782 0.064735 -0.012862 -45291.900000 0 0 1
-34.045818 3.398846 18.100323 38.707772 -0.099502 1.084206 0.076835 -0.015157 -310544.000000 0 0 1
-33.529979 2.711246 17.016123 37.698260 -0.080685 1.102489 0.084084 -0.002019 14572.500000 0 0 1
-32.461649 3.441746 16.182923 36.434754 -0.105630 1.110558 0.083802 -0.006998 428550.000000 0 0 1
-33.107329 4.615446 15.705323 36.933112 -0.138516 1.131573 0.077036 -0.011992 347283.000000 0 0 1
-32.236469 5.246946 14.804423 35.859327 -0.161349 1.145218 0.088153 -0.008998 -279279.000000 0 0 1
-32.706719 6.610646 14.304423 36.304912 -0.199432 1.165808 0.084376 -0.011303 -633394.000000 0 0 1
-31.783769 7.239546 13.508623 35.286002 -0.223954 1.177936 0.101787 -0.012523 -928135.000000 0 0 1
-32.109059 8.583646 13.314723 35.804365 -0.261220 1.189769 0.085331 -0.016104 308196.000000 0 0 1
-31.362709 9.201146 12.057623 34.837722 -0.285371 1.217377 0.082490 -0.009734 327430.000000 0 0 1
-31.674079 10.567146 11.914623 35.452364 -0.322010 1.228051 0.066332 -0.001988 -187555.000000 0 0 1
-30.820089 11.241446 11.034823 34.612358 -0.349749 1.246321 0.050160 -0.003033 -526804.000000 0 0 1
-31.159729 12.741746 10.803823 35.355387 -0.388170 1.260251 0.042463 0.009275 -46370.500000 0 0 1
-30.466169 13.349146 9.728223 34.655815 -0.412967 1.286263 0.038068 0.011479 52779.300000 0 0 1
-30.471449 14.806446 9.807423 35.269330 -0.452314 1.289010 0.037897 0.010076 -114193.000000 0 0 1
-29.635279 15.420646 8.650723 34.509145 -0.479793 1.317415 0.045580 0.001573 -999742.000000 0 0 1
-28.283999 15.339246 8.916123 33.388236 -0.496935 1.300472 0.053831 0.006214 -1477420.000000 0 0 1
-27.580419 16.069046 7.995623 32.906287 -0.527546 1.325358 0.043118 -0.010462 -397720.000000 0 0 1
-26.127889 16.277246 8.499323 31.935150 -0.557148 1.301407 0.054656 -0.007092 -255543.000000 0 0 1
-26.018689 16.970646 9.739623 32.555111 -0.577954 1.266970 0.045804 -0.007500 198586.000000 0 0 1
-26.256029 18.348546 9.706623 33.470386 -0.609941 1.276563 0.047189 -0.015797 -405511.000000 0 0 1
-26.393999 19.063646 11.058523 34.385415 -0.625518 1.243372 0.068690 0.002066 5932.920000 0 0 1
-25.189839 19.136746 11.801823 33.764272 -0.649681 1.213721 0.057308 0.003440 301079.000000 0 0 1
-25.357219 19.575246 13.107023 34.611745 -0.657420 1.182419 0.066747 -0.011115 -97970.400000 0 0 1
-25.897489 18.562746 14.182023 34.876715 -0.621898 1.152031 0.064701 -0.002344 -279491.000000 0 0 1
-25.004609 17.538046 14.440023 33.783544 -0.611660 1.129151 0.069538 -0.008673 -455341.000000 0 0 1
-25.315639 16.827446 15.581523 34.158870 -0.586644 1.097134 0.069001 -0.008225 -326439.000000 0 0 1
-24.299309 15.732346 15.990723 33.070627 -0.574574 1.066110 0.070931 -0.010193 6081.620000 0 0 1
-23.060609 16.245046 16.460223 32.659335 -0.613706 1.042575 0.067769 -0.009544 -94567.900000 0 0 1
-22.143109 15.229946 16.804723 31.696487 -0.602488 1.011988 0.044159 -0.020697 -290779.000000 0 0 1
-22.449009 14.240646 17.928523 32.065339 -0.565298 0.977467 0.039997 -0.007604 -800324.000000 0 0 1
-22.189009 14.730846 19.244723 32.858931 -0.586071 0.945081 0.039779 -0.005982 186211.000000 0 0 1
-22.601309 13.863546 20.340523 33.417869 -0.550211 0.916410 0.020418 -0.000529 -578099.000000 0 0 1
-22.270309 14.347346 21.817723 34.319471 -0.572313 0.881850 0.032439 -0.002919 1198210.000000 0 0 1
-20.836709 14.324646 22.031323 33.537191 -0.602268 0.854067 0.040928 -0.013845 956241.000000 0 0 1
-20.284409 15.557646 21.692623 33.527116 -0.654277 0.867130 0.039531 0.000115 -1325470.000000 0 0 1
-18.804409 15.666446 22.099723 32.976372 -0.694616 0.836361 0.049071 -0.019190 -281655.000000 0 0 1
-17.929909 14.855746 21.391023 31.618835 -0.691906 0.827759 0.036736 -0.014953 -385819.000000 0 0 1
-17.553409 15.431646 20.145523 30.856118 -0.721162 0.859408 0.037332 -0.016005 -1718720.000000 0 0 1
-16.410209 14.697446 19.339223 29.314083 -0.730394 0.850344 0.041217 -0.010929 1657640.000000 0 0 1
-15.187309 14.351146 20.021523 28.939094 -0.757098 0.806748 0.040769 -0.015363 766808.000000 0 0 1
-14.619609 15.445446 20.698723 29.677128 -0.812860 0.798944 0.033514 -0.023419 -1713060.000000 0 0 1
-13.511709 15.053846 21.719123 29.680042 -0.839332 0.749873 0.009870 -0.018978 234386.000000 0 0 1
-12.293809 14.662746 21.113923 28.494414 -0.873053 0.736261 0.024420 -0.020415 -479776.000000 0 0 1
-11.480309 14.083946 22.073923 28.590438 -0.886895 0.688699 0.040468 -0.021349 -805328.000000 0 0 1
-10.251209 13.401646 21.535323 27.358026 -0.917814 0.664595 0.045588 -0.018193 -1228160.000000 0 0 1
-9.804409 12.358746 22.421323 27.414974 -0.900143 0.613132 0.056097 -0.019176 1142060.000000 0 0 1
-8.516609 11.820946 22.046523 26.425681 -0.946465 0.583963 0.057788 -0.016949 1284090.000000 0 0 1
-7.231009 12.617746 22.389023 26.697629 -1.050404 0.576061 0.051063 -0.009903 -381023.000000 0 0 1
-7.050609 13.593046 21.319223 26.248643 -1.092307 0.622878 0.044597 -0.006394 -486150.000000 0 0 1
-6.228909 14.670846 21.629523 26.867626 -1.169284 0.635053 0.035478 0.002886 -437512.000000 0 0 1
-6.901409 15.856146 22.382523 28.284699 -1.160275 0.657815 0.031817 -0.009873 724223.000000 0 0 1
-7.974309 16.498946 21.667223 28.377340 -1.120580 0.702019 0.009032 -0.008298 416608.000000 0 0 1
-7.491009 17.279846 20.553823 27.877732 -1.161739 0.741754 0.010438 0.000820 -170351.000000 0 0 1
-8.648509 17.569846 19.568123 27.684069 -1.113379 0.785780 0.018944 0.004740 566099.000000 0 0 1
-9.712309 18.398046 19.933623 28.812608 -1.085079 0.806766 0.011235 0.001034 193297.000000 0 0 1
-10.739209 17.774646 20.726123 29.340089 -1.027304 0.786384 0.024137 -0.009138 80613.500000 0 0 1
-12.041409 18.561546 20.905523 30.439570 -0.995315 0.813736 0.011348 -0.015538 -61306.700000 0 0 1
-12.905709 18.613946 19.797123 30.082593 -0.964557 0.852514 0.018389 -0.013034 348305.000000 0 0 1
-14.186209 19.116346 20.208723 31.226202 -0.932371 0.866927 0.009804 -0.014397 499793.000000 0 0 1
-15.140209 19.235646 19.008923 30.993147 -0.903976 0.910531 0.037339 -0.016330 -533008.000000 0 0 1
-15.584809 18.020146 18.519923 30.176141 -0.857741 0.910023 0.046113 -0.017756 -31482.800000 0 0 1
-16.353709 18.339446 17.364723 30.088415 -0.842573 0.955595 0.063432 -0.025832 -765807.000000 0 0 1
-17.131509 17.165046 16.760623 29.479585 -0.786376 0.966054 0.063942 -0.029357 631970.000000 0 0 1
-18.335909 16.706246 17.362523 30.278069 -0.738926 0.960103 0.061638 -0.022844 611883.000000 0 0 1
-19.455209 17.595146 17.295623 31.420263 -0.735237 0.987880 0.075855 -0.020174 -67065.600000 0 0 1
33.632376 -9.951654 12.003290 37.070893 -0.287687 1.241061 0.050738 -0.005978 -136786.000000 0 0 1
32.323276 -10.337154 11.636490 35.875602 -0.309526 1.240465 0.040834 0.000718 129043.000000 0 0 1
32.005896 -11.451954 12.452990 36.202232 -0.343613 1.219640 0.073007 -0.007221 -32317.000000 0 0 1
30.502526 -11.824454 12.307190 34.952664 -0.369819 1.210972 0.060089 0.003974 -539143.000000 0 0 1
29.779036 -10.831454 12.961490 34.236115 -0.348851 1.182523 0.061004 0.006033 -951881.000000 0 0 1
28.406876 -11.024854 12.930190 33.101176 -0.370210 1.169484 0.052849 -0.000512 -716914.000000 0 0 1
27.825506 -11.860654 14.056290 33.354358 -0.402930 1.135783 0.030847 -0.003432 -1003850.000000 0 0 1
27.812326 -11.130654 15.280390 33.628965 -0.380684 1.099118 0.040113 -0.003402 77230.500000 0 0 1
27.086676 -11.700454 16.359190 33.737394 -0.407754 1.064550 0.044811 -0.013634 1422590.000000 0 0 1
25.536356 -11.332854 16.338590 32.364928 -0.417680 1.041618 0.049930 -0.023354 1127110.000000 0 0 1
25.330056 -9.966554 16.648290 31.907828 -0.374862 1.021881 0.056240 -0.010510 -200889.000000 0 0 1
24.687856 -9.311854 15.574790 30.639434 -0.360684 1.037558 0.062657 -0.014152 -26072.600000 0 0 1
24.612256 -7.728754 15.804090 30.253364 -0.304270 1.021144 0.072229 -0.035511 -113662.000000 0 0 1
25.874956 -7.103354 15.808690 31.142987 -0.267926 1.038380 0.068560 -0.033383 -92814.700000 0 0 1
25.771556 -5.734254 16.137690 30.943171 -0.218937 1.022157 0.069234 -0.027925 111830.000000 0 0 1
27.103086 -4.981154 15.942590 31.836384 -0.181757 1.046312 0.072507 -0.026254 -15685.600000 0 0 1
27.380646 -4.561754 14.636490 31.380507 -0.165089 1.085557 0.082511 -0.024263 -465114.000000 0 0 1
28.596276 -3.898554 14.586290 32.337371 -0.135496 1.102837 0.075202 -0.017270 -813213.000000 0 0 1
28.938156 -3.135554 13.280490 31.994062 -0.107933 1.142752 0.071959 -0.015755 -522700.000000 0 0 1
29.513516 -4.000854 12.380590 32.254201 -0.134739 1.176840 0.054438 -0.005168 160180.000000 0 0 1
29.658486 -3.324154 11.130990 31.852390 -0.111615 1.213807 0.063311 -0.005604 -81331.900000 0 0 1
30.121316 -4.306754 9.988490 32.025174 -0.142018 1.253610 0.079491 0.002048 -496359.000000 0 0 1
31.467736 -4.649754 10.042290 33.356951 -0.146701 1.264997 0.067693 -0.000021 -641688.000000 0 0 1
31.783076 -5.385654 8.879290 33.436671 -0.167856 1.302016 0.080398 -0.002873 176879.000000 0 0 1
33.138126 -6.153854 8.880490 34.854963 -0.183612 1.313172 0.070626 -0.002578 210476.000000 0 0 1
34.264936 -5.298954 8.845190 35.782707 -0.153431 1.321015 0.073633 -0.001360 -479549.000000 0 0 1
35.334556 -6.084754 8.388290 36.822798 -0.170532 1.340977 0.071762 -0.012710 -463480.000000 0 0 1
-35.459085 -5.193954 7.936890 36.705832 0.145443 1.352845 0.066958 -0.011636 -130469.000000 0 0 1
-35.686034 -4.544854 6.725490 36.597554 0.126675 1.385977 0.065986 -0.016791 278797.000000 0 0 1
-34.498711 -3.833454 6.436990 35.302851 0.110665 1.387434 0.064877 -0.009713 84527.500000 0 0 1
-34.460822 -3.164754 5.046690 34.971889 0.091579 1.425984 0.074189 -0.021984 -284113.000000 0 0 1
-34.323483 -3.971054 3.927290 34.774910 0.115183 1.457620 0.071296 -0.028462 243662.000000 0 0 1
-34.144102 -3.202154 2.764290 34.405157 0.093510 1.490364 0.075593 -0.026395 -50899.700000 0 0 1
-33.511969 -3.928554 1.534190 33.776313 0.116696 1.525359 0.100683 -0.034260 45876.000000 0 0 1
-34.250347 -5.020654 1.010390 34.631115 0.145550 1.541616 0.096977 -0.028325 -9673.960000 0 0 1
-35.127223 -4.761254 -0.055210 35.448475 0.134722 1.572354 0.090155 -0.023216 -418226.000000 0 0 1
-34.492774 -4.964154 -1.452610 34.878423 0.142937 1.612456 0.109116 -0.026461 -1397650.000000 0 0 1
-34.194923 -6.304454 -1.822310 34.818956 0.182321 1.623157 0.100662 -0.040381 263812.000000 0 0 1
-33.198549 -6.410754 -2.811610 33.928551 0.190756 1.653760 0.102187 -0.040702 -260062.000000 0 0 1
-31.780829 -6.038654 -2.342710 32.434160 0.187771 1.643089 0.103642 -0.046629 -1305540.000000 0 0 1
-31.223459 -6.971054 -1.443310 32.024727 0.219661 1.615880 0.112632 -0.046595 390717.000000 0 0 1
-30.021659 -6.343354 -0.952510 30.699274 0.208230 1.601828 0.094783 -0.051251 492959.000000 0 0 1
-29.304699 -7.285054 0.087890 30.196773 0.243658 1.567886 0.078518 -0.041142 -108365.000000 0 0 1
-28.734639 -8.392354 -0.547810 29.940127 0.284160 1.589094 0.075484 -0.040895 266753.000000 0 0 1
-28.444249 -9.446254 0.366690 29.974013 0.320638 1.558562 0.088138 -0.028450 -194674.000000 0 0 1
-27.995399 -10.724454 -0.370210 29.981550 0.365835 1.583145 0.071216 -0.023385 -645136.000000 0 0 1
-26.804199 -10.470054 -1.086210 28.796996 0.372388 1.608525 0.054154 -0.032059 261414.000000 0 0 1
-26.149279 -11.661954 -1.490610 28.670680 0.419503 1.622811 0.037554 -0.018187 -97219.900000 0 0 1
-26.932209 -12.672354 -2.428110 29.863492 0.439793 1.652193 0.052306 -0.023235 -1003960.000000 0 0 1
-27.869989 -13.401954 -1.751110 30.974426 0.448230 1.627361 0.069395 -0.031117 -409519.000000 0 0 1
-28.421139 -14.381554 -2.595210 31.958181 0.468449 1.652092 0.061379 -0.029163 -819987.000000 0 0 1
-29.456769 -15.242754 -1.926410 33.222791 0.477519 1.628813 0.083758 -0.027411 -1036580.000000 0 0 1
-28.950269 -16.150354 -1.052510 33.167149 0.508862 1.602535 0.065749 -0.018467 -334855.000000 0 0 1
-29.869649 -16.807554 -0.225610 34.274491 0.512539 1.577379 0.068396 -0.007618 -339472.000000 0 0 1
-30.101849 -18.349154 -0.467310 35.256647 0.547426 1.584051 0.063986 -0.007370 238775.000000 0 0 1
-29.038169 -19.223754 -0.084410 34.824921 0.584777 1.573220 0.068255 -0.024174 522243.000000 0 0 1
-29.494189 -20.569454 -0.088210 35.958551 0.608984 1.573249 0.062676 -0.023734 46949.300000 0 0 1
-30.396739 -21.080054 1.048490 37.005807 0.606348 1.542459 0.062833 -0.019034 -282186.000000 0 0 1
-29.796229 -21.289154 2.291290 36.691870 0.620386 1.508309 0.055367 -0.025710 141235.000000 0 0 1
-30.747419 -21.799554 3.208490 37.827487 0.616733 1.485875 0.046310 -0.018669 348975.000000 0 0 1
-30.025919 -22.018754 4.563990 37.512816 0.632743 1.448829 0.028878 -0.009274 -319074.000000 0 0 1
-29.598839 -20.801854 5.151090 36.542333 0.612598 1.429363 0.020160 -0.011091 18238.900000 0 0 1
-28.743029 -21.019554 6.256390 36.154195 0.631420 1.396873 0.013302 -0.006965 -54211.900000 0 0 1
-28.240439 -19.678354 6.800190 35.085647 0.608585 1.375745 0.006016 0.004049 -495113.000000 0 0 1
-27.308459 -19.895054 7.796090 34.674834 0.629619 1.344023 0.001487 0.003428 -635395.000000 0 0 1
-26.875969 -18.663454 8.355690 33.770694 0.606977 1.320775 0.013159 0.001951 20690.400000 0 0 1
-25.664739 -18.868354 9.266190 33.174627 0.633952 1.287715 0.017332 0.011205 -209302.000000 0 0 1
-26.102579 -19.611054 10.393790 34.263230 0.644337 1.262589 0.011990 0.006547 267177.000000 0 0 1
-25.061339 -19.930854 11.300590 33.956045 0.671858 1.231524 0.015689 0.018610 -84403.300000 0 0 1
-24.815809 -19.080654 12.494790 33.704829 0.655482 1.191021 0.010783 0.014108 -589166.000000 0 0 1
-24.296609 -17.819354 12.106690 32.471935 0.632798 1.188733 0.014593 0.009554 141580.000000 0 0 1
-23.853409 -16.997954 13.182390 32.119947 0.619133 1.147891 0.017887 0.010275 178855.000000 0 0 1
-22.957909 -17.522954 14.339990 32.245229 0.651936 1.109938 0.030844 0.004853 -302769.000000 0 0 1
-23.692709 -18.215454 15.361690 33.602511 0.655438 1.095998 0.013256 0.013471 34308.300000 0 0 1
-23.063209 -18.239854 16.628790 33.780476 0.669145 1.056112 0.029925 0.011005 -114195.000000 0 0 1
-24.067609 -18.761354 17.680690 35.268187 0.662132 1.045671 0.021098 0.010903 409927.000000 0 0 1
-24.986809 -17.745354 18.077390 35.581319 0.617531 1.037867 0.030601 0.011208 -27034.700000 0 0 1
-25.814369 -18.221654 19.125590 36.935058 0.614656 1.026499 0.010013 0.019314 -220718.000000 0 0 1
-26.795689 -17.166454 19.666690 37.409555 0.569769 1.017243 0.009443 0.016487 -364490.000000 0 0 1
-26.268719 -16.335954 20.679690 37.209657 0.556352 0.981518 0.027241 0.009031 -21232.100000 0 0 1
-27.207269 -15.462954 21.267590 37.837135 0.516814 0.973895 0.041068 -0.002935 -75634.200000 0 0 1
-26.544659 -14.677054 22.402890 37.708412 0.505082 0.934639 0.039697 -0.002535 638009.000000 0 0 1
-25.476509 -13.816454 21.943590 36.352002 0.496929 0.922735 0.030945 -0.001304 73723.700000 0 0 1
-24.502809 -13.741354 22.940390 36.269463 0.511103 0.886021 0.028217 -0.005940 -581971.000000 0 0 1
-23.248409 -13.066854 22.344290 34.792219 0.512050 0.873404 0.033586 -0.001396 -336230.000000 0 0 1
-23.381509 -11.697054 22.106690 34.237725 0.463863 0.868880 0.048511 -0.006695 -83455.700000 0 0 1
-22.393509 -11.201454 21.247090 32.838707 0.463815 0.867135 0.047218 -0.007904 -769963.000000 0 0 1
-22.082309 -9.689354 21.504790 32.310493 0.413487 0.842543 0.051086 -0.010355 48378.800000 0 0 1
-21.472909 -9.407354 22.757490 32.672427 0.412917 0.800239 0.044875 -0.010449 258277.000000 0 0 1
-20.091009 -9.723854 22.761090 31.878977 0.450758 0.775624 0.021496 -0.005479 -346736.000000 0 0 1
-19.561309 -9.813454 24.193890 32.623504 0.464988 0.735330 0.019477 -0.000735 15863.300000 0 0 1
-19.849109 -11.005754 24.891290 33.685161 0.506269 0.739302 0.029425 0.004519 26976.200000 0 0 1
-19.226909 -10.923254 26.148690 34.245372 0.516651 0.701975 0.026706 -0.002276 -535890.000000 0 0 1
-19.231109 -12.321154 26.826590 35.232263 0.569802 0.705294 0.022694 -0.007229 385018.000000 0 0 1
-20.296509 -12.716454 27.704990 36.622711 0.559702 0.712855 0.023762 -0.003183 700220.000000 0 0 1
-21.551509 -12.933754 27.053090 36.927215 0.540517 0.748654 0.016216 0.001473 -54009.800000 0 0 1
-22.711109 -13.339454 27.916390 38.380468 0.531069 0.756330 0.007211 -0.001694 -1060350.000000 0 0 1
-22.512809 -14.631854 28.485990 39.145490 0.576329 0.755840 -0.000394 0.000867 -9487.980000 0 0 1
-21.712109 -14.613354 29.644890 39.544725 0.592409 0.723256 0.008031 0.008165 -75258.800000 0 0 1
-22.118809 -15.691354 30.712590 40.972228 0.617015 0.723346 0.007262 0.002389 -435083.000000 0 0 1
-21.984309 -17.070454 30.276890 41.126638 0.660236 0.743378 0.012825 0.004561 -101204.000000 0 0 1
-21.990209 -18.053054 31.348990 42.334870 0.687391 0.736982 0.022069 -0.003921 -222576.000000 0 0 1
-23.261309 -18.410354 32.180190 43.767502 0.669511 0.744756 0.050574 -0.002762 10041.400000 0 0 1
-23.713809 -17.356654 32.998890 44.187384 0.631830 0.727567 0.061966 -0.001218 1062800.000000 0 0 1
-25.084279 -17.615254 33.393290 45.328027 0.612230 0.742615 0.069263 -0.015348 1087200.000000 0 0 1
-25.873039 -16.431354 34.040890 45.805957 0.565812 0.733024 0.064551 -0.014719 41531.100000 0 0 1
-25.591939 -16.228754 -33.151143 44.914565 0.565142 2.401036 0.089554 -0.015977 -96168.200000 0 0 1
-26.391339 -15.261754 -32.519143 44.574865 0.524301 2.388445 0.073177 -0.011534 -159401.000000 0 0 1
-25.755049 -14.799854 -31.181343 43.065467 0.521563 2.380445 0.074683 -0.006388 -16003.800000 0 0 1
-26.164099 -15.639954 -30.135243 42.863751 0.538774 2.350470 0.079750 0.001996 91912.500000 0 0 1
-25.671719 -15.104954 -28.914843 41.512227 0.531838 2.341358 0.077232 0.002743 -302481.000000 0 0 1
-26.165739 -15.748754 -27.616643 41.174606 0.541804 2.305976 0.072623 -0.001740 379834.000000 0 0 1
-27.450219 -15.333154 -27.147243 41.540257 0.509407 2.283017 0.078262 -0.004865 658530.000000 0 0 1
-27.390889 -14.049654 -26.500843 40.619555 0.473939 2.281564 0.057976 -0.008472 -226628.000000 0 0 1
-26.480099 -13.997554 -25.226243 39.159807 0.486270 2.270756 0.059560 -0.013499 342214.000000 0 0 1
-25.087899 -13.983654 -25.502343 38.409827 0.508496 2.296890 0.054196 -0.013808 477263.000000 0 0 1
-24.308409 -14.218454 -24.327643 37.214210 0.529257 2.283285 0.044187 -0.013706 129715.000000 0 0 1
-23.583109 -15.562154 -24.213743 37.210873 0.583293 2.279325 0.047904 -0.012764 -4709.970000 0 0 1
-22.593709 -15.936354 -25.174243 37.392320 0.614304 2.309387 0.064943 -0.005180 503826.000000 0 0 1
-22.522109 -17.314254 -25.331043 38.061668 0.655404 2.298995 0.082612 -0.009552 -77631.700000 0 0 1
-21.545109 -17.619254 -26.499743 38.430017 0.685491 2.331676 0.068731 -0.002772 141402.000000 0 0 1
-22.044409 -17.577854 -27.835743 39.620267 0.673144 2.349789 0.073101 -0.005837 539088.000000 0 0 1
-23.100609 -18.533554 -28.060143 40.798314 0.676140 2.329219 0.083082 -0.009905 597834.000000 0 0 1
-23.701409 -18.565154 -29.499243 42.150055 0.664471 2.346001 0.080735 -0.010123 714541.000000 0 0 1
-22.712909 -19.098054 -30.414743 42.493159 0.699156 2.368503 0.076626 -0.007110 841846.000000 0 0 1
-23.133409 -19.015054 -31.759343 43.650691 0.687997 2.385583 0.065249 -0.003733 -879244.000000 0 0 1
-22.107409 -19.484954 -32.765543 44.067923 0.722430 2.409121 0.058773 -0.009107 -482453.000000 0 0 1
-20.946609 -18.624954 -32.803943 43.147978 0.726796 2.434519 0.055215 0.000881 1777390.000000 0 0 1
-19.664509 -19.293454 -32.779843 42.818786 0.775874 2.442689 0.039020 -0.005860 834221.000000 0 0 1
-19.365809 -20.280054 -33.928543 44.016602 0.808454 2.450912 0.028497 -0.009348 -1454820.000000 0 0 1
-19.287809 -19.817354 33.298490 43.284368 0.798939 0.693058 0.029083 -0.007286 175515.000000 0 0 1
-19.117509 -20.897454 32.425990 43.053775 0.829851 0.717958 0.019841 -0.012218 -670334.000000 0 0 1
-20.347209 -21.615354 31.884090 43.564064 0.815610 0.749705 0.018820 -0.002075 -504540.000000 0 0 1
-21.113409 -22.288454 32.873290 44.980045 0.812465 0.751242 0.024867 -0.001906 1375040.000000 0 0 1
-22.490309 -22.605354 32.540690 45.559988 0.787949 0.775261 0.027064 -0.000575 1346890.000000 0 0 1
-22.626009 -23.847354 31.589890 45.591158 0.811673 0.805300 0.027957 0.007595 -518899.000000 0 0 1
-22.093209 -25.035254 32.170590 46.366159 0.847743 0.803992 0.028567 0.010078 234417.000000 0 0 1
-21.906509 -26.088894 31.261290 46.236282 0.872320 0.828312 0.031403 0.020074 -69120.800000 0 0 1
-21.228109 -27.284234 32.001890 47.108205 0.909592 0.823951 0.034048 0.005568 -221802.000000 0 0 1
-22.020909 -27.809644 33.045990 48.480245 0.901048 0.820797 0.023119 -0.001053 271654.000000 0 0 1
-21.394609 -28.833264 33.852690 49.346642 0.932428 0.814794 0.027422 -0.017278 -400184.000000 0 0 1
-22.472909 -29.467344 -33.809943 50.164412 0.919256 2.310383 0.023707 -0.021667 -501847.000000 0 0 1
-23.415209 -30.226994 34.028490 51.184776 0.911708 0.843548 0.020176 -0.014407 468092.000000 0 0 1
-24.586209 -29.531624 33.636390 51.068632 0.876527 0.851772 0.015129 -0.009474 -410189.000000 0 0 1
-25.617759 -29.107744 -33.886943 51.496168 0.849084 2.289020 0.011431 -0.004197 -155939.000000 0 0 1
-26.822819 -28.583264 34.095690 51.951734 0.817161 0.854898 0.014854 -0.000297 157160.000000 0 0 1
-27.781959 -28.316964 -33.524043 51.937936 0.794935 2.272426 0.016566 0.007507 -748355.000000 0 0 1
-28.781519 -27.223994 -33.952443 52.175570 0.757595 2.279348 0.005974 0.001524 -101162.000000 0 0 1
-29.576629 -27.865734 33.599590 52.727683 0.755622 0.879899 0.003870 -0.003659 -169725.000000 0 0 1
-30.640589 -27.014104 33.243290 52.666155 0.722581 0.887687 0.011877 -0.004935 -138293.000000 0 0 1
