# x y z rho theta phi s1 s2 stress_xx np intf bulk
-0.723284 -10.644172 -14.296391 17.838395 1.502949 2.500494 -0.007955 -0.000950 -312997.000000 1 0 0
2.197916 -13.272172 -12.993091 18.702989 -1.406682 2.338808 -0.010105 0.000748 423338.000000 1 0 0
2.132916 -11.076972 -14.736891 18.558680 -1.380570 2.488272 -0.009774 0.006601 7579.080000 1 0 0
-5.537084 -6.281572 -16.440791 18.450395 0.848308 2.670517 0.004552 -0.004644 -362575.000000 1 0 0
4.601016 -13.954972 -11.491091 18.653573 -1.252315 2.234484 -0.008505 0.000579 783448.000000 1 0 0
13.934516 -10.606972 -7.883791 19.205019 -0.650632 1.993806 0.005984 -0.013857 -157832.000000 1 0 0
7.071416 10.840928 -10.865791 16.899587 0.992814 2.269156 0.000334 -0.004959 41045.100000 1 0 0
5.697216 -4.145372 -12.544191 14.387464 -0.629019 2.629832 -0.005188 -0.001325 1945240.000000 1 0 0
13.627916 0.591928 -10.021691 16.926451 0.043408 2.204425 -0.001780 0.007402 906887.000000 1 0 0
14.189816 5.202328 -10.402391 18.347338 0.351407 2.173619 -0.003871 0.002329 -85630.300000 1 0 0
4.244316 4.311828 -13.540491 14.830744 0.793288 2.721378 -0.001516 0.003919 1556020.000000 1 0 0
10.311716 -4.964172 -13.703091 17.853548 -0.448666 2.445771 0.013274 -0.003800 -815929.000000 1 0 0
2.526516 -7.474772 -12.020891 14.379059 -1.244847 2.560749 -0.010582 0.000424 2072000.000000 1 0 0
-5.587984 -1.998072 -15.191091 16.309111 0.343399 2.769169 0.003736 -0.005651 1157190.000000 1 0 0
10.644216 0.130428 -9.625491 14.351530 0.012253 2.305941 0.003218 0.003904 1199660.000000 1 0 0
-1.622584 -9.577172 -16.910591 19.501874 1.402968 2.620200 0.000414 -0.002055 1330700.000000 1 0 0
8.648016 1.707628 -18.088791 20.122339 0.194951 2.688142 0.009308 0.005806 -640564.000000 1 0 0
16.314816 -5.931472 -8.840891 19.481194 -0.348707 2.041840 0.016882 -0.005754 -2513380.000000 1 0 0
10.140216 7.709328 -9.924691 16.147978 0.650043 2.232686 -0.004588 -0.000056 759873.000000 1 0 0
13.729716 -2.273172 -10.562591 17.471140 -0.164077 2.220027 0.007246 0.002088 -1450110.000000 1 0 0
7.260416 -1.824672 -13.605091 15.528734 -0.246219 2.638558 0.005032 -0.003712 1551130.000000 1 0 0
-2.733884 6.555428 -13.791291 15.512816 -1.175686 2.666009 -0.001305 -0.001100 -464741.000000 1 0 0
11.259516 2.004828 -14.006791 18.082760 0.176210 2.456869 0.001818 0.005261 743163.000000 1 0 0
-2.282084 10.720428 -12.968591 16.979983 -1.361055 2.439911 0.001096 0.003428 -1562800.000000 1 0 0
2.913316 -1.078372 -15.312191 15.624132 -0.354514 2.941432 0.002435 -0.006334 1004150.000000 1 0 0
-8.987384 0.330128 -15.275791 17.726586 -0.036716 2.609495 0.003623 0.000441 -1678100.000000 1 0 0
2.434616 -1.819872 -18.132491 18.385498 -0.641898 2.975503 0.012807 -0.011265 737516.000000 1 0 0
1.134516 7.840928 -13.075991 15.288846 1.427102 2.596855 0.002878 -0.004114 -1905670.000000 1 0 0
9.215116 -8.975872 -9.829591 16.189673 -0.772247 2.223268 0.006467 -0.004891 -1746430.000000 1 0 0
3.990016 7.249628 -13.617691 15.934831 1.067665 2.595550 0.000917 0.001080 1632920.000000 1 0 0
-2.655884 9.025728 -15.489591 18.123049 -1.284617 2.595750 -0.003833 0.002148 1242470.000000 1 0 0
5.568616 -7.569472 -15.292891 17.949343 -0.936531 2.590595 0.001600 -0.002985 2062020.000000 1 0 0
4.250816 7.124328 -16.462391 18.434636 1.032835 2.674795 0.005205 0.000167 826956.000000 1 0 0
-0.128984 5.023628 -13.413591 14.324032 -1.545126 2.783137 0.004693 -0.006862 2151760.000000 1 0 0
8.907116 4.220428 -16.738291 19.424704 0.442490 2.609409 0.010141 0.004039 -524818.000000 1 0 0
5.375616 0.260728 -14.426691 15.397878 0.048464 2.784529 -0.002823 0.001153 -344403.000000 1 0 0
6.304116 7.947828 -11.631891 15.434077 0.900223 2.424394 -0.005910 0.001486 630707.000000 1 0 0
2.760416 -8.234272 -15.046191 17.372708 -1.247335 2.618107 -0.004528 0.000245 -740968.000000 1 0 0
4.098616 11.568728 -13.851691 18.506849 1.230310 2.416538 -0.004796 -0.002827 -2250520.000000 1 0 0
0.629416 -4.489372 -13.736591 14.465288 -1.431503 2.822832 0.000429 -0.002134 214292.000000 1 0 0
8.501016 -0.006372 -11.560091 14.349321 -0.000750 2.507517 -0.003454 0.004788 1189310.000000 1 0 0
-0.905084 -5.030072 -16.266491 17.050500 1.392767 2.837164 0.000488 -0.004681 1261580.000000 1 0 0
4.465316 0.971028 -11.714791 12.574509 0.214126 2.769669 0.000702 -0.001083 252406.000000 1 0 0
-2.852384 -7.196272 -15.620291 17.433184 1.193423 2.681495 -0.005135 -0.000790 1725000.000000 1 0 0
11.311016 -3.767672 -11.303291 16.428598 -0.321538 2.329561 0.009627 -0.002878 -208889.000000 1 0 0
6.433816 -6.978872 -12.512991 15.705846 -0.826013 2.492627 -0.002073 -0.002142 -1390240.000000 1 0 0
3.453116 -3.932472 -14.668391 15.574018 -0.850212 2.798891 0.001459 -0.003107 3962120.000000 1 0 0
-0.515384 -1.505772 -18.314991 18.384011 1.241022 3.054913 0.018238 -0.012501 1026830.000000 1 0 0
14.862316 2.958228 -8.526791 17.388091 0.196474 2.083323 -0.001631 0.001689 -1378510.000000 1 0 0
7.084016 4.348328 -14.365791 16.597204 0.550521 2.617054 0.003923 0.005855 1621600.000000 1 0 0
10.081716 -9.480472 -14.041191 19.714852 -0.754673 2.363443 0.019492 -0.008563 -990052.000000 1 0 0
9.063616 -3.125172 -15.618291 18.326125 -0.332039 2.591052 0.011249 -0.011237 -270464.000000 1 0 0
-5.365184 -2.061172 -18.114491 19.004431 0.366791 2.834353 -0.000180 0.002976 -488084.000000 1 0 0
4.997316 -9.015872 -11.159791 15.192105 -1.064673 2.395841 -0.013513 0.002115 1256510.000000 1 0 0
-2.401784 3.902628 -17.208591 17.808275 -1.019110 2.881342 0.003445 0.000111 1715070.000000 1 0 0
9.496316 9.388128 -14.489291 19.704226 0.779669 2.396963 0.004341 -0.006750 -1448010.000000 1 0 0
9.820816 10.167928 -11.705291 18.353447 0.802762 2.262397 -0.000172 -0.002228 -156242.000000 1 0 0
11.986116 -5.960972 -9.656591 16.506057 -0.461504 2.195717 0.012409 -0.005848 -196313.000000 1 0 0
8.201416 6.944628 -13.678991 17.395570 0.702610 2.475673 0.002171 0.004374 -141315.000000 1 0 0
4.051816 -4.079772 -17.564091 18.481316 -0.788836 2.825220 0.014254 -0.013073 -1883220.000000 1 0 0
9.309816 -7.377472 -12.300291 17.099618 -0.670114 2.373636 0.010944 -0.007946 -245451.000000 1 0 0
11.807516 -8.710772 -8.780591 17.099525 -0.635603 2.110054 0.005769 -0.010017 327847.000000 1 0 0
-2.909784 -2.453072 -13.831491 14.345541 0.700441 2.873080 0.004363 -0.006359 -1125820.000000 1 0 0
-0.397884 6.083828 -17.605591 18.631374 -1.505489 2.808217 0.006448 -0.000100 506447.000000 1 0 0
1.061216 -8.439472 -17.370091 19.340913 -1.445709 2.686228 -0.003440 -0.005882 464509.000000 1 0 0
0.177716 8.531828 -15.973591 18.110198 1.549970 2.650932 0.002020 0.005079 -1698130.000000 1 0 0
1.844216 3.360228 -14.950491 15.434035 1.068847 2.890616 0.009710 -0.003250 915237.000000 1 0 0
-1.883584 -0.451172 -15.730191 15.848986 0.235099 3.019079 0.010188 -0.007626 2525050.000000 1 0 0
14.024816 -4.271972 -8.426891 16.910284 -0.295672 2.092467 0.012081 -0.006147 1024640.000000 1 0 0
0.575616 0.666628 -14.536091 14.562749 0.858532 3.081076 0.008410 -0.005886 1864780.000000 1 0 0
8.836216 2.774128 -12.415391 15.489236 0.304205 2.500679 -0.000003 0.005199 2046490.000000 1 0 0
5.991616 0.994228 -17.166591 18.209333 0.164438 2.801536 0.009342 -0.000746 -609853.000000 1 0 0
15.302016 1.606228 -12.373191 19.744050 0.104585 2.248081 -0.003375 0.003764 -1968950.000000 1 0 0
8.782816 -11.085072 -11.924091 18.498666 -0.900762 2.271286 0.011595 -0.007525 1313870.000000 1 0 0
-4.596484 0.732328 -15.072591 15.774884 -0.157996 2.842080 0.007332 -0.003634 383558.000000 1 0 0
2.299116 5.063028 -17.310191 18.181389 1.144539 2.830772 0.011184 -0.001939 981612.000000 1 0 0
5.950016 -11.595772 -12.402791 17.991494 -1.096708 2.331415 -0.003754 0.000559 -144819.000000 1 0 0
12.814916 7.223028 -8.684191 17.082429 0.513257 2.104087 0.002019 0.001053 -403019.000000 1 0 0
-4.938584 3.600828 -15.687391 16.835968 -0.630004 2.770078 0.003522 -0.003141 1527190.000000 1 0 0
-0.561984 -4.336772 -19.016191 19.512533 1.441929 2.915559 0.014221 -0.011642 -139306.000000 1 0 0
9.866316 4.496328 -10.141691 14.846382 0.427605 2.322807 -0.007393 0.007321 126683.000000 1 0 0
13.433816 3.777428 -12.879291 18.989800 0.274110 2.316136 -0.008476 0.001820 564564.000000 1 0 0
-6.101584 5.891928 -17.048491 19.041932 -0.767919 2.679930 0.000377 0.001275 -1511110.000000 1 0 0
-10.121784 3.080728 -15.491491 18.759736 -0.295458 2.542387 0.008711 0.001636 801476.000000 1 0 0
10.757916 13.331028 -8.307491 19.038473 0.891812 2.022338 0.023967 -0.006136 63645.500000 1 0 0
7.389316 13.452228 -12.331791 19.688512 1.068490 2.247651 0.005729 -0.004819 729661.000000 1 0 0
5.300816 15.213928 -11.194091 19.618102 1.235531 2.178033 -0.000264 -0.003359 -1039870.000000 1 0 0
14.147116 9.402028 -9.967991 19.695173 0.586563 2.101469 0.018861 -0.003902 -1123100.000000 1 0 0
8.230216 -17.358072 -2.038991 19.318297 -1.128047 1.676540 0.011703 0.000512 -1006990.000000 1 0 0
0.707616 -16.053472 -0.056891 16.069161 -1.526746 1.574337 0.002171 -0.003794 3128040.000000 1 0 0
-9.255784 -11.724972 7.595609 16.758216 0.902548 1.100392 0.007039 -0.008982 -501322.000000 1 0 0
2.008716 -16.017272 -2.623391 16.354514 -1.446038 1.731900 0.003610 -0.002649 3261280.000000 1 0 0
-1.357884 -10.944272 -9.435791 14.513962 1.447355 2.278536 -0.002739 -0.000400 1093300.000000 1 0 0
-4.728384 -12.564872 -12.906991 18.623213 1.210871 2.336521 0.010674 -0.008424 -660882.000000 1 0 0
-8.284984 -17.848472 -1.775891 19.757599 1.136209 1.660802 0.012389 -0.004432 392948.000000 1 0 0
-11.379884 -7.082172 -8.867291 16.071334 0.556685 2.155252 0.022310 -0.003305 1664240.000000 1 0 0
-13.540084 -11.466872 -4.752091 18.368598 0.702682 1.832480 0.008487 -0.000563 -1208370.000000 1 0 0
-5.923084 -13.412572 9.926309 17.706260 1.154944 0.975674 0.012790 -0.007756 627473.000000 1 0 0
0.089516 -14.062072 -3.697991 14.540462 -1.564431 1.827945 0.003957 -0.001151 744822.000000 1 0 0
-14.768984 -11.639872 1.979709 18.908431 0.667461 1.465904 0.002068 -0.001473 746743.000000 1 0 0
-4.063284 -16.440272 -7.543391 18.539029 1.328498 1.989846 -0.002050 -0.001819 964846.000000 1 0 0
0.479216 -15.208972 -9.239191 17.801830 -1.539298 2.116480 0.000814 0.002719 -95688.900000 1 0 0
4.465916 -14.306072 -2.636991 15.217156 -1.268213 1.744966 -0.000696 0.000908 -1037250.000000 1 0 0
-3.624184 -18.006172 -2.482891 18.534338 1.372176 1.705162 0.001988 -0.011415 769131.000000 1 0 0
-0.881084 -13.489672 0.574309 13.530610 1.505574 1.528338 0.001993 0.000256 1146880.000000 1 0 0
-8.368884 -11.268172 -10.515491 17.538115 0.931983 2.213772 0.015890 -0.010156 1664780.000000 1 0 0
-3.713484 -14.123372 -0.367891 14.608044 1.313684 1.595983 -0.003274 0.001849 3828820.000000 1 0 0
-1.592784 -14.855472 -7.254491 16.608722 1.463986 2.022821 -0.003226 0.001329 -182422.000000 1 0 0
-14.254384 -7.969872 -1.782491 16.428135 0.509816 1.679513 0.008308 0.001681 1388180.000000 1 0 0
-10.719284 -7.237572 -11.716591 17.451762 0.593881 2.306852 0.022910 -0.006128 -1877330.000000 1 0 0
-9.492984 -14.741072 6.863809 18.828910 0.998663 1.197662 -0.000457 -0.003847 -381859.000000 1 0 0
-2.473484 -14.223772 -12.242791 18.929336 1.398620 2.274129 0.005946 -0.005382 355478.000000 1 0 0
2.253016 -17.971572 -4.709391 18.714482 -1.446081 1.825175 0.009886 -0.005285 24369.900000 1 0 0
-6.527784 -9.532372 -9.191091 14.763273 0.970344 2.242812 0.007616 -0.008838 1779050.000000 1 0 0
-10.994684 -15.304172 0.311509 18.846692 0.947821 1.554267 0.006022 -0.001456 574553.000000 1 0 0
-12.630284 -11.101772 4.077409 17.303141 0.721080 1.332914 0.006408 -0.003300 1585070.000000 1 0 0
-17.099784 -8.953872 -1.569491 19.365891 0.482368 1.651929 0.003064 -0.000440 -633115.000000 1 0 0
-1.565784 -19.254272 -4.111391 19.750499 1.489653 1.780496 0.003716 -0.002011 1044790.000000 1 0 0
3.216816 -14.274772 -8.818991 17.084836 -1.349149 2.113191 -0.010956 0.003786 401903.000000 1 0 0
-4.263884 -7.857072 -13.037391 15.807842 1.073590 2.540542 0.001505 -0.002328 419882.000000 1 0 0
5.396816 -16.589872 1.217709 17.488062 -1.256286 1.501109 0.012963 -0.005704 4911550.000000 1 0 0
-2.822084 -13.800372 -3.183891 14.441316 1.369084 1.793094 -0.003208 0.000999 -683976.000000 1 0 0
-0.445084 -14.075772 3.612609 14.538790 1.539186 1.319685 0.001659 0.000003 -3901260.000000 1 0 0
1.135216 -16.305972 7.034809 17.794999 -1.501289 1.164375 0.017334 -0.007558 1877190.000000 1 0 0
-5.443184 -10.256872 -14.596691 18.651945 1.082902 2.469600 0.010232 -0.009880 -743948.000000 1 0 0
-0.348384 -17.362072 -5.999791 18.372817 1.550733 1.903456 0.008250 -0.000226 1839770.000000 1 0 0
-6.455184 -13.349472 -1.288591 14.884162 1.120392 1.657479 -0.003235 -0.000233 1773120.000000 1 0 0
-1.748084 -17.731372 -0.189391 17.818340 1.472527 1.581426 0.004342 -0.003353 1383710.000000 1 0 0
-9.463384 -9.730172 -4.850291 14.413786 0.799297 1.913998 0.014735 -0.003498 2095300.000000 1 0 0
-0.900284 -16.793672 4.877309 17.510742 1.517239 1.288531 0.007255 -0.004939 2259460.000000 1 0 0
-6.788984 -9.871172 -6.299691 13.535747 0.968333 2.054896 0.009419 -0.006235 2386980.000000 1 0 0
-6.025784 -14.397072 -8.706191 17.871305 1.174408 2.079632 0.000430 -0.007290 532051.000000 1 0 0
-5.630284 -12.046272 -10.300491 16.820015 1.133577 2.229883 0.004612 -0.008936 -1272660.000000 1 0 0
-10.575084 -12.095672 -8.793191 18.315510 0.852371 2.071560 0.027499 -0.018109 -2039840.000000 1 0 0
3.840416 -17.159272 6.565209 18.769427 -1.350615 1.213458 0.032461 -0.014952 219824.000000 1 0 0
-6.815184 -14.292372 -4.162591 16.372104 1.125847 1.827867 0.003484 -0.004472 174898.000000 1 0 0
-2.875384 -12.177372 -7.068391 14.370747 1.338918 2.085021 -0.001649 -0.002420 1999680.000000 1 0 0
-7.041984 -12.847572 4.542009 15.338823 1.069399 1.270177 0.002231 -0.000127 3696600.000000 1 0 0
2.473616 -16.517172 2.339809 16.864473 -1.422141 1.431605 0.010694 -0.005883 1883190.000000 1 0 0
-6.335484 -11.960072 7.354709 15.403682 1.083657 1.073030 0.003908 -0.003129 839095.000000 1 0 0
-11.251484 -12.745472 -0.987091 17.029895 0.847575 1.628791 0.007147 0.003785 -490829.000000 1 0 0
-14.199984 -8.703472 4.594609 17.277164 0.549866 1.301622 0.002289 -0.003813 -1135260.000000 1 0 0
-7.968484 -15.558572 4.479709 18.045324 1.097468 1.319925 0.001769 0.003643 1321690.000000 1 0 0
-16.482984 -9.204572 1.207909 18.917504 0.509291 1.506901 -0.006920 -0.003625 -289449.000000 1 0 0
-6.727684 -17.121272 2.433909 18.555959 1.196388 1.439251 0.009748 0.002671 2549540.000000 1 0 0
-11.576684 -14.840772 -4.792791 19.422641 0.908333 1.820135 0.025614 -0.004748 -123948.000000 1 0 0
-10.016284 -9.928572 -12.594191 18.908097 0.781000 2.299729 0.023883 -0.007623 191812.000000 1 0 0
-4.428084 -15.940872 -4.567891 17.163478 1.299846 1.840183 -0.001828 -0.003841 -506090.000000 1 0 0
-11.793184 -8.293972 0.035809 14.417713 0.612927 1.568313 0.005615 0.002220 2761770.000000 1 0 0
-9.595384 -11.272172 3.525309 15.217131 0.865580 1.337005 0.002983 0.005055 2630040.000000 1 0 0
-14.162884 -12.878972 -0.620991 19.153090 0.737955 1.603225 0.005956 0.004402 -650892.000000 1 0 0
5.526116 -14.924672 -7.254091 17.490158 -1.216181 1.998467 -0.005693 -0.000651 -754518.000000 1 0 0
-7.449084 -10.551372 -1.253491 12.976577 0.956067 1.667544 0.002176 0.002588 1786760.000000 1 0 0
-11.697184 -8.116072 -6.051091 15.469662 0.606585 1.972686 0.020300 -0.004109 2428160.000000 1 0 0
-14.417084 -6.614272 -9.189191 18.331452 0.430131 2.095874 0.014585 -0.007431 3231240.000000 1 0 0
-3.935684 -16.444372 1.438309 16.969847 1.335882 1.485938 -0.003650 -0.000417 2069970.000000 1 0 0
-7.910184 -15.552172 0.200409 17.449391 1.100275 1.559311 0.012283 0.001795 1745880.000000 1 0 0
0.918516 -18.656172 3.765209 19.054481 -1.521602 1.371885 0.009629 -0.010349 -837673.000000 1 0 0
-14.161784 -8.626472 -4.573591 17.201450 0.547111 1.839917 0.010590 -0.005901 818056.000000 1 0 0
-3.394484 -14.487572 11.170909 18.606490 1.340645 0.926824 0.004966 -0.009068 525576.000000 1 0 0
-10.826184 -12.076172 -3.786091 16.654569 0.839923 1.800132 0.013075 -0.008637 2306510.000000 1 0 0
-9.986184 -10.711372 0.555809 14.654907 0.820421 1.532861 0.003529 0.006664 1826070.000000 1 0 0
-0.004784 -13.033772 -11.114291 17.129119 1.570429 2.276873 0.002115 -0.002426 1265720.000000 1 0 0
-5.954084 -12.632372 -6.404791 15.363896 1.130342 2.000799 -0.002197 -0.008113 1384820.000000 1 0 0
1.829216 -15.922572 9.908409 18.842795 -1.456416 1.017087 0.017261 -0.009528 1052490.000000 1 0 0
-9.008284 -15.717572 -5.575291 18.954554 1.050365 1.869352 0.023322 -0.007906 -170789.000000 1 0 0
-3.338084 -15.428372 5.922009 16.859646 1.357721 1.211887 -0.000165 -0.003005 -1378660.000000 1 0 0
-17.431984 -5.374672 -6.546391 19.380826 0.299074 1.915350 0.001537 0.000132 6224.600000 1 0 0
18.819616 5.507628 -2.799091 19.807746 0.284703 1.712584 -0.001842 0.006323 -501920.000000 1 0 0
12.671616 -12.546472 -5.963691 18.802910 -0.780436 1.893539 0.011297 -0.006914 -1146670.000000 1 0 0
10.911316 -13.474972 -1.627191 17.414920 -0.890140 1.664369 0.014347 -0.004284 490572.000000 1 0 0
18.635516 -2.958672 4.610909 19.424126 -0.157451 1.331128 0.017691 -0.002081 -1336440.000000 1 0 0
8.623716 -17.010772 4.778809 19.661431 -1.101599 1.325282 0.030740 -0.015838 -915140.000000 1 0 0
17.926716 -0.985572 6.637509 19.141448 -0.054923 1.216681 0.029917 -0.007042 -973374.000000 1 0 0
17.792016 -4.267972 -5.031191 18.975887 -0.235433 1.839141 0.027205 -0.010394 -800625.000000 1 0 0
5.380316 -11.837572 14.685909 19.615092 -1.144197 0.724691 0.003518 -0.001305 -822721.000000 1 0 0
15.809816 -8.972772 -0.772491 18.194990 -0.516213 1.613265 0.008207 -0.002055 619134.000000 1 0 0
13.782516 -12.717272 -1.485791 18.812079 -0.745222 1.649859 0.018997 0.002598 1189240.000000 1 0 0
11.062516 -2.173472 13.769009 17.795754 -0.194001 0.686097 -0.000288 0.003877 -2591110.000000 1 0 0
16.737416 -6.232172 -1.506791 17.923490 -0.356445 1.654964 0.015291 -0.003309 -84180.700000 1 0 0
17.789216 3.656328 -0.924991 18.184624 0.202713 1.621685 0.006016 0.004232 1772170.000000 1 0 0
9.691516 -11.260772 9.430509 17.597300 -0.860155 1.005215 0.012355 -0.004404 1924460.000000 1 0 0
8.980116 -11.219772 4.259509 14.988969 -0.895822 1.282649 0.007656 -0.004957 -1413790.000000 1 0 0
13.932116 -10.128672 6.675709 18.473195 -0.628619 1.201057 0.023244 -0.012626 682927.000000 1 0 0
16.113816 -0.533872 -4.704791 16.795093 -0.033119 1.854725 0.009410 -0.005358 587317.000000 1 0 0
15.723016 -0.549372 -1.650591 15.818960 -0.034926 1.675329 0.012179 -0.001822 1177660.000000 1 0 0
12.844216 -5.175572 -0.315891 13.851362 -0.383047 1.593604 0.005248 -0.003639 -75610.700000 1 0 0
14.149216 -7.554972 1.067409 16.075362 -0.490437 1.504347 0.012292 -0.000307 2569880.000000 1 0 0
15.497816 2.372628 3.643009 16.096061 0.151915 1.342489 0.009982 -0.003828 398370.000000 1 0 0
15.878816 -7.118472 4.973109 18.098101 -0.421439 1.292429 0.023675 -0.006842 -1904850.000000 1 0 0
13.659916 -12.131672 3.238909 18.554280 -0.726214 1.395333 0.018627 -0.005429 -545413.000000 1 0 0
13.952516 -1.055772 9.198609 16.745201 -0.075525 0.989236 0.016537 -0.008763 1234880.000000 1 0 0
14.119616 -2.856372 -1.604091 14.494672 -0.199604 1.681691 0.002345 -0.001949 540845.000000 1 0 0
14.968016 1.770528 9.181709 17.648797 0.117740 1.023658 0.020641 -0.007890 221597.000000 1 0 0
14.265516 -10.216972 -3.029291 17.806405 -0.621516 1.741751 0.011357 -0.002808 678514.000000 1 0 0
7.255216 -12.752572 6.100309 15.889620 -1.053542 1.176761 0.003531 -0.007476 -37280.200000 1 0 0
12.355316 -4.758272 7.058809 15.004058 -0.367613 1.080984 0.006294 -0.004760 2219020.000000 1 0 0
14.800416 -8.940972 -5.671691 18.197840 -0.543431 1.887745 0.015487 -0.011612 -567760.000000 1 0 0
14.208316 -4.624272 4.679409 15.657490 -0.314650 1.267298 0.007399 -0.005965 741922.000000 1 0 0
17.011216 -4.334772 0.929109 17.579390 -0.249509 1.517920 0.019801 -0.004179 -1505250.000000 1 0 0
10.195716 -14.522872 1.149009 17.781638 -0.958699 1.506134 0.022812 -0.005164 -266818.000000 1 0 0
16.363516 -2.624972 8.523609 18.636176 -0.159061 1.095762 0.034781 -0.010676 376957.000000 1 0 0
15.969516 -2.685272 3.234909 16.513654 -0.166591 1.373628 0.017707 -0.004294 2690000.000000 1 0 0
7.678616 -15.257472 2.685409 17.290547 -1.104537 1.414854 0.014120 -0.012134 2463160.000000 1 0 0
16.616016 -7.173172 7.906909 19.750078 -0.407534 1.158899 0.031491 -0.006598 -1528910.000000 1 0 0
10.180816 -8.683972 5.190709 14.352834 -0.706218 1.200759 0.004308 -0.005735 927351.000000 1 0 0
10.870216 -11.845472 2.175209 16.223697 -0.828305 1.436315 0.012391 -0.005117 804924.000000 1 0 0
12.272816 -7.377872 11.934409 18.640953 -0.541269 0.876005 0.011579 -0.015539 -1407190.000000 1 0 0
15.307316 -9.850672 4.260509 18.694962 -0.571811 1.340880 0.028740 -0.007638 -921736.000000 1 0 0
7.251016 -10.451872 7.769909 14.906051 -0.964275 1.022471 0.001913 -0.003187 579915.000000 1 0 0
15.154516 -3.250872 -4.368491 16.103144 -0.211313 1.845521 0.017232 -0.003929 716918.000000 1 0 0
11.816116 -9.190072 9.756309 17.867949 -0.661031 0.993187 0.012723 -0.011152 -2237870.000000 1 0 0
16.897916 -6.745872 2.346009 18.345302 -0.379828 1.442565 0.025528 -0.002179 2679170.000000 1 0 0
17.495416 4.013228 2.056309 18.067207 0.225486 1.456735 0.003586 0.002651 37502.000000 1 0 0
14.771016 -5.050072 8.735809 17.888558 -0.329432 1.060603 0.028982 -0.012327 1084570.000000 1 0 0
12.785416 -12.653272 5.943809 18.944683 -0.780204 1.251661 0.016899 -0.010376 -1737160.000000 1 0 0
18.268616 0.753828 -1.079091 18.315977 0.041240 1.629746 0.023138 -0.001012 822955.000000 1 0 0
11.624116 -2.245272 10.872209 16.073775 -0.190807 0.827940 -0.001182 0.001138 34387.200000 1 0 0
5.730016 -12.679472 10.494809 17.428228 -1.146353 0.924576 0.002901 -0.001315 -2590060.000000 1 0 0
10.733016 -5.172672 10.997009 16.213833 -0.449096 0.825420 0.002516 -0.002077 -24015.800000 1 0 0
17.800516 1.217228 4.872009 18.495310 0.068275 1.304232 0.022343 -0.004340 -1533380.000000 1 0 0
12.262516 -7.833472 7.115009 16.197405 -0.568472 1.116012 0.015176 -0.008464 -1625560.000000 1 0 0
10.629616 -8.024572 14.299009 19.540833 -0.646646 0.749910 0.015212 -0.009128 -230194.000000 1 0 0
14.148716 -0.303272 3.728809 14.634963 -0.021431 1.313168 0.006469 -0.001805 293505.000000 1 0 0
11.498516 -7.628072 2.605109 14.042434 -0.585735 1.384198 0.004615 -0.003033 1739000.000000 1 0 0
9.220816 6.014128 3.552909 11.567901 0.577944 1.258615 0.002062 -0.003047 3014950.000000 1 0 0
-3.802584 14.777028 -9.912391 18.195485 -1.318930 2.146914 -0.001072 0.003116 1042380.000000 1 0 0
8.870216 -6.655572 9.232909 14.429968 -0.643711 0.876503 -0.000583 -0.002551 -680984.000000 1 0 0
5.751416 -10.556172 -8.556391 14.755453 -1.071924 2.189378 -0.012249 -0.001500 32508.300000 1 0 0
5.380916 1.014528 0.558609 5.504141 0.186354 1.469132 0.000178 -0.002149 3747300.000000 1 0 0
-0.550584 9.930528 10.958809 14.799122 -1.515409 0.736976 -0.009517 0.004790 104542.000000 1 0 0
-6.260484 -5.223372 1.065809 8.222726 0.695332 1.440813 0.002764 -0.000743 5273340.000000 1 0 0
-0.961984 3.986028 -10.836891 11.586718 -1.333986 2.779862 0.011246 -0.007406 872612.000000 1 0 0
10.941016 5.773528 1.326009 12.441774 0.485558 1.464016 0.003732 0.000273 510979.000000 1 0 0
-10.102984 -1.888772 -13.640191 17.079009 0.184818 2.495849 0.010882 -0.007104 570519.000000 1 0 0
7.485016 10.914528 -6.052891 14.553002 0.969675 1.999751 0.001441 -0.003797 -405608.000000 1 0 0
-12.413084 -2.886272 -9.616591 15.965402 0.228459 2.217225 0.007064 -0.006269 1002520.000000 1 0 0
-3.931784 -8.692572 2.504609 9.863712 1.146019 1.314064 0.003635 0.001370 -1018220.000000 1 0 0
7.943916 -6.659372 -5.848191 11.901864 -0.697661 2.084456 -0.004849 -0.004090 532462.000000 1 0 0
14.370416 3.197128 -4.161491 15.298643 0.218914 1.846285 0.007550 -0.000401 2025690.000000 1 0 0
-2.525084 -4.917572 9.813909 11.263720 1.096422 0.512982 0.000972 -0.000401 2013430.000000 1 0 0
3.557416 -1.942272 -4.597591 6.129068 -0.499750 2.419053 -0.007563 -0.002119 -3790300.000000 1 0 0
-3.950884 8.371828 -3.466491 9.885016 -1.129859 1.929095 -0.000808 -0.002202 576526.000000 1 0 0
5.712716 0.115828 11.736409 13.053422 0.020273 0.453074 -0.003624 0.000593 808651.000000 1 0 0
7.054116 4.728228 12.341409 14.980890 0.590499 0.602696 -0.004297 0.002387 -71462.100000 1 0 0
1.167916 -14.481472 12.428109 19.118969 -1.490322 0.863158 0.005553 -0.004704 -913959.000000 1 0 0
3.033116 8.747828 -9.136291 13.007540 1.237039 2.349538 -0.000358 -0.000450 1217430.000000 1 0 0
-4.431484 -8.898772 -4.590491 10.949831 1.108759 2.003393 0.005553 -0.004120 1421250.000000 1 0 0
5.719816 -6.634772 -3.968791 9.617058 -0.859321 1.996193 -0.006436 -0.004773 1486450.000000 1 0 0
-3.155184 3.397128 8.617909 9.785909 -0.822306 0.493575 -0.006901 0.003453 2521700.000000 1 0 0
-3.739084 3.240328 -11.123591 12.174348 -0.714058 2.723071 0.005064 -0.008711 1154000.000000 1 0 0
3.099916 -6.074972 8.518509 10.912367 -1.098961 0.675125 -0.003436 0.004063 1000100.000000 1 0 0
-5.098384 -8.726772 10.484809 14.563011 1.042058 0.767049 0.007977 -0.004707 2433220.000000 1 0 0
-13.317984 -2.510972 6.500309 15.030892 0.186352 1.123573 0.002179 -0.001814 411283.000000 1 0 0
3.984516 -5.950872 -8.314091 10.973302 -0.980788 2.430525 -0.010631 -0.001869 695130.000000 1 0 0
2.855916 -0.579572 12.326609 12.666391 -0.200218 0.232148 -0.000339 -0.001885 1328440.000000 1 0 0
1.493616 -1.515672 -7.535491 7.830184 -0.792727 2.866369 -0.001927 -0.005077 -1406720.000000 1 0 0
3.623916 -3.560172 3.347509 6.083865 -0.776526 0.988160 -0.000929 -0.003260 1981120.000000 1 0 0
1.561916 0.456328 -11.790291 11.902049 0.284248 3.004446 0.004281 -0.006217 1072180.000000 1 0 0
4.067416 3.646428 -10.603591 11.927969 0.730877 2.665885 -0.002188 0.000471 363586.000000 1 0 0
2.824016 3.176228 3.354009 5.414136 0.844030 0.902702 -0.008548 0.001069 -226184.000000 1 0 0
-5.272584 0.868328 2.575509 5.931895 -0.163222 1.121669 -0.001632 -0.002643 1944740.000000 1 0 0
-9.491184 -9.343472 5.749709 14.506626 0.777556 1.163258 0.003872 -0.000721 -1079510.000000 1 0 0
-3.071484 3.890428 -0.619491 4.995319 -0.902492 1.695131 0.000984 -0.005805 172391.000000 1 0 0
-15.887384 -6.460772 4.930609 17.845488 0.386235 1.290860 0.012702 -0.007104 232234.000000 1 0 0
1.065616 6.705828 -8.136591 10.597536 1.413205 2.446168 0.003007 -0.003008 1399840.000000 1 0 0
-1.626684 6.529228 -9.460391 11.609303 -1.326628 2.523349 0.007093 -0.003590 -288429.000000 1 0 0
2.044416 -0.397472 5.237409 5.636317 -0.192023 0.378485 -0.002527 -0.002165 1943290.000000 1 0 0
-3.405184 -0.526172 -6.335991 7.212276 0.153308 2.643512 0.010668 -0.011001 151645.000000 1 0 0
1.923816 -1.194572 -2.528991 3.394682 -0.555674 2.411310 -0.000650 -0.001123 1250340.000000 1 0 0
2.461216 -8.597472 -7.565991 11.714023 -1.291981 2.272987 -0.012031 -0.000151 2499740.000000 1 0 0
-2.420084 14.037828 -5.528791 15.280214 -1.400077 1.941023 -0.007565 0.006535 2670820.000000 1 0 0
6.794716 -5.084372 -8.097391 11.729738 -0.642402 2.332742 -0.007847 -0.002307 2397200.000000 1 0 0
-14.267284 -4.941472 -2.140091 15.249706 0.333419 1.711598 0.008311 -0.001425 701468.000000 1 0 0
-2.736884 6.798328 -6.831091 10.018563 -1.188066 2.321076 0.004491 -0.003429 -2022690.000000 1 0 0
-5.671384 -1.051072 -8.099991 9.943802 0.183250 2.522796 0.012684 -0.013420 321781.000000 1 0 0
-5.764784 -10.533772 3.593709 12.534267 1.070054 1.280005 -0.000109 0.000581 -2452640.000000 1 0 0
8.014216 -7.750772 6.641809 12.977510 -0.768689 1.033525 -0.000228 -0.002438 112086.000000 1 0 0
8.764516 -6.115972 13.099509 16.906182 -0.609255 0.684342 0.005441 -0.003111 -81219.700000 1 0 0
-4.689184 9.534528 -0.784391 10.654151 -1.113721 1.644486 -0.001466 0.000339 1526590.000000 1 0 0
2.753916 6.587728 12.156209 14.098072 1.174838 0.531080 -0.004409 -0.000963 -171839.000000 1 0 0
5.996216 -2.844272 10.953209 12.806923 -0.442913 0.544750 -0.003297 -0.000413 487986.000000 1 0 0
-9.659984 -6.446272 -1.097891 11.665123 0.588453 1.665053 0.008989 -0.001285 384273.000000 1 0 0
0.845616 -13.445072 6.240209 14.846725 -1.507985 1.137011 0.003770 -0.004857 668007.000000 1 0 0
-0.511284 -3.176472 8.672709 9.250258 1.411205 0.355237 0.000395 -0.001220 1203740.000000 1 0 0
4.181916 0.701628 3.426709 5.451884 0.166228 0.891126 -0.005491 0.000080 2024640.000000 1 0 0
-10.170084 5.575228 8.309409 14.267447 -0.501459 0.949114 -0.003528 -0.002798 340566.000000 1 0 0
9.348116 7.963128 0.050809 12.280116 0.705563 1.566659 0.002588 -0.000322 -738600.000000 1 0 0
4.241216 2.816928 8.109709 9.575509 0.586279 0.560627 -0.008959 -0.001827 3641350.000000 1 0 0
1.414616 2.654028 -9.712091 10.167090 1.081093 2.841293 0.006755 -0.006569 1485190.000000 1 0 0
-1.460884 -10.188472 3.044309 10.733451 1.428381 1.283221 0.002153 -0.000087 -2103820.000000 1 0 0
-9.866084 9.569028 9.017909 16.438631 -0.770115 0.990131 0.000470 -0.007741 1454050.000000 1 0 0
9.752416 -1.905572 -7.645891 12.537961 -0.192964 2.226629 0.002001 0.000775 1386970.000000 1 0 0
-5.208484 -1.903672 6.645909 8.655656 0.350411 0.695379 -0.000690 -0.002402 1636410.000000 1 0 0
3.146116 -7.832872 -4.881491 9.750943 -1.188864 2.095108 -0.011501 -0.002361 2151620.000000 1 0 0
-5.035284 4.903928 -13.099391 14.865956 -0.772183 2.649121 -0.002681 -0.008761 3716330.000000 1 0 0
-5.573584 9.639428 5.489809 12.414564 -1.046555 1.112738 -0.001749 0.000673 -270360.000000 1 0 0
-0.441084 -1.734872 -9.352391 9.522161 1.321826 2.952478 0.003584 -0.008177 1150810.000000 1 0 0
-16.687884 0.140428 6.387509 17.869120 -0.008415 1.205249 0.006482 -0.002003 -92028.400000 1 0 0
-5.998684 -2.883872 4.019709 7.775538 0.448130 1.027491 -0.002960 -0.002102 1982390.000000 1 0 0
1.009216 -5.713972 -5.133791 7.747503 -1.395977 2.295132 -0.002577 -0.003471 483021.000000 1 0 0
-7.026084 1.432628 -8.498991 11.119853 -0.201144 2.440764 0.003198 -0.006414 99988.500000 1 0 0
7.949816 1.897928 4.717609 9.437030 0.234352 1.047308 -0.002272 -0.003265 726798.000000 1 0 0
0.438816 -8.065772 -0.491791 8.092657 -1.516445 1.631604 -0.001482 0.000380 975515.000000 1 0 0
5.426616 5.606528 -3.369291 8.499026 0.801703 1.978424 -0.003962 0.001458 190473.000000 1 0 0
-0.764084 -0.304972 -1.200491 1.455339 0.379760 2.540800 0.001577 -0.003340 1555150.000000 1 0 0
9.063616 6.475728 -6.332591 12.813504 0.620375 2.087725 -0.001514 0.000560 1105670.000000 1 0 0
-15.001384 -7.121372 2.437309 16.783800 0.443215 1.425063 -0.002102 -0.004968 1683960.000000 1 0 0
-6.406484 6.859028 8.879309 12.920195 -0.819499 0.813110 -0.002779 0.002845 -611655.000000 1 0 0
-9.464684 -3.199372 -9.662291 13.898780 0.325974 2.339480 0.014035 -0.007719 628112.000000 1 0 0
14.901716 3.465428 -1.155191 15.342907 0.228491 1.646159 0.000629 0.003085 1444090.000000 1 0 0
12.070916 1.670528 -5.703591 13.454688 0.137519 2.008556 0.005416 0.001849 -122137.000000 1 0 0
1.663316 -9.498472 12.704609 15.949755 -1.397440 0.649247 -0.007359 0.002955 -1061290.000000 1 0 0
-3.586384 6.381328 7.862809 10.742777 -1.058777 0.749667 -0.006134 0.004233 672540.000000 1 0 0
-3.895184 13.059528 -12.353791 18.394017 -1.280933 2.307190 -0.000520 0.000354 668458.000000 1 0 0
-10.236984 7.790428 6.426909 14.380256 -0.650509 1.107470 -0.002692 -0.004038 1885960.000000 1 0 0
7.942316 -9.282672 -7.178991 14.169908 -0.863056 2.102075 -0.004595 -0.004591 -671339.000000 1 0 0
5.756916 -3.850172 -0.348491 6.934505 -0.589472 1.621072 -0.001503 -0.003049 -2236850.000000 1 0 0
-1.662984 -4.423072 4.248809 6.354641 1.211167 0.838451 0.001788 -0.002027 1642070.000000 1 0 0
9.810816 -2.003872 -2.556391 10.334541 -0.201480 1.820755 -0.001701 -0.002599 -3317950.000000 1 0 0
13.484516 7.186828 1.474409 15.351109 0.489674 1.474602 -0.000651 0.003022 199901.000000 1 0 0
5.414616 -3.739572 -3.228391 7.329732 -0.604419 2.026898 -0.002346 -0.005378 -2162910.000000 1 0 0
-12.258484 -5.917372 1.846809 13.736682 0.449725 1.435944 0.006357 -0.001074 2276080.000000 1 0 0
3.679716 -5.748072 -0.319091 6.832457 -1.001366 1.617516 -0.000472 -0.003372 100589.000000 1 0 0
-5.188584 3.764128 -8.659491 10.773897 -0.627612 2.504363 0.004432 -0.007682 1107550.000000 1 0 0
-1.690484 -9.264672 7.308209 11.920646 1.390316 0.910854 0.003663 -0.001196 2393040.000000 1 0 0
-7.433284 -7.360772 2.621509 10.784572 0.780497 1.325257 0.005430 -0.001735 -3388000.000000 1 0 0
-5.745984 13.248428 -8.568791 16.791705 -1.161571 2.106329 0.005552 0.001929 2576300.000000 1 0 0
9.093816 -13.859072 -4.119491 17.080444 -0.990101 1.814380 0.006833 -0.002230 -242739.000000 1 0 0
-6.592784 -5.079572 -6.689691 10.677960 0.656477 2.247845 0.011738 -0.008527 1127140.000000 1 0 0
3.386616 0.356828 -6.219091 7.090387 0.104977 2.640620 -0.002161 -0.004622 -161503.000000 1 0 0
-3.693484 5.826628 4.948709 8.490061 -1.005824 0.948525 -0.003471 0.002997 -552094.000000 1 0 0
-2.705784 -10.807872 -2.881591 11.508038 1.325485 1.823888 0.003265 0.000835 1668650.000000 1 0 0
-12.518284 -0.410172 1.704709 12.640479 0.032754 1.435523 0.000542 -0.000399 1675500.000000 1 0 0
8.304916 -12.049872 -6.087591 15.850231 -0.967347 1.964996 0.000770 -0.006331 185498.000000 1 0 0
6.020916 3.925528 1.054309 7.264486 0.577767 1.425150 -0.002611 -0.000792 -967330.000000 1 0 0
3.345816 -4.770972 -10.873591 12.336598 -0.959208 2.649634 -0.008402 -0.000908 1423140.000000 1 0 0
-7.639884 4.196328 8.587209 12.235896 -0.502279 0.792869 -0.004681 0.002248 1690260.000000 1 0 0
8.197516 8.702928 4.090509 12.636158 0.815294 1.241143 0.004443 -0.003502 1027240.000000 1 0 0
0.344316 10.424128 -6.325191 12.197911 1.537778 2.115947 -0.000880 0.001876 709913.000000 1 0 0
5.468816 8.060728 3.283009 10.279174 0.974679 1.245716 -0.000181 -0.001831 2335150.000000 1 0 0
8.107016 6.744328 -3.726891 11.184783 0.693899 1.910503 -0.000144 0.000208 270565.000000 1 0 0
10.553516 2.575628 -8.145091 13.577668 0.239375 2.214158 -0.003465 0.004502 701552.000000 1 0 0
3.269316 -12.646372 -0.280791 13.065145 -1.317817 1.592290 -0.002377 -0.001509 -2301540.000000 1 0 0
0.604416 2.060728 5.232309 5.655880 1.285496 0.389472 -0.003166 -0.000523 1189430.000000 1 0 0
-4.754784 13.417828 1.501509 14.314350 -1.230240 1.465708 -0.004253 0.002926 2268880.000000 1 0 0
8.241916 4.141628 -7.980391 12.197086 0.465652 2.284035 -0.004822 0.004453 649739.000000 1 0 0
-13.912884 -0.508672 -3.590591 14.377741 0.036545 1.823200 0.001809 -0.002014 681126.000000 1 0 0
-8.511784 0.040028 -0.510591 8.527179 -0.004703 1.630710 -0.000891 -0.002972 899130.000000 1 0 0
1.759116 -3.819872 -1.164191 4.363629 -1.139231 1.840862 0.001686 -0.002865 -2525550.000000 1 0 0
8.017016 -5.634572 -0.228591 9.801694 -0.612621 1.594120 -0.001930 -0.003479 2733030.000000 1 0 0
-2.275984 -1.260772 7.318209 7.766971 0.505868 0.341594 0.000315 -0.001125 1843460.000000 1 0 0
-5.781384 8.844028 -11.729391 15.786698 -0.991821 2.408326 -0.002417 -0.000700 -519389.000000 1 0 0
-6.117184 9.264828 -8.878891 14.215895 -0.987243 2.245383 0.000340 0.000165 -288778.000000 1 0 0
-1.377984 13.967728 -8.329091 16.320846 -1.472460 2.106370 0.002563 0.004335 -194808.000000 1 0 0
-1.458784 7.195828 9.709209 12.172786 -1.370781 0.647464 -0.008169 0.001582 -244675.000000 1 0 0
10.055216 2.354428 -3.930891 11.050005 0.230006 1.934498 0.000902 0.002893 -1279290.000000 1 0 0
-2.993084 -7.477672 -6.972591 10.653223 1.190058 2.284324 0.004170 -0.004998 1686530.000000 1 0 0
-5.537884 -4.933072 -1.667691 7.601615 0.727701 1.791982 0.005044 0.000109 558188.000000 1 0 0
5.719316 7.445128 -8.849591 12.901774 0.915751 2.326664 -0.003328 0.000755 -811209.000000 1 0 0
-9.419684 5.283828 -7.487291 13.141872 -0.511200 2.176971 -0.004560 0.003687 152308.000000 1 0 0
-0.359184 6.207028 -5.357291 8.207117 -1.512993 2.282020 0.003515 -0.004359 -1581310.000000 1 0 0
-8.264884 2.825928 -6.331091 10.787812 -0.329458 2.197989 -0.000151 -0.001120 7052.730000 1 0 0
3.700416 1.401728 -2.039091 4.451495 0.362100 2.046618 -0.003364 -0.001393 2119600.000000 1 0 0
-6.643784 12.466828 -3.364391 14.521735 -1.081163 1.804600 0.008022 0.000936 1076880.000000 1 0 0
-6.558384 3.186128 -2.349491 7.660543 -0.452231 1.882521 0.001788 -0.005022 -603954.000000 1 0 0
12.104816 4.005028 -0.667491 12.767629 0.319525 1.623100 0.005188 0.000629 1800010.000000 1 0 0
2.209116 12.384928 -5.508191 13.733419 1.394281 1.983491 0.002326 0.000069 1120550.000000 1 0 0
-9.158284 -1.339872 -4.348691 10.226463 0.145271 2.010022 0.005689 -0.003501 -476113.000000 1 0 0
-1.164684 5.686728 3.460309 6.757892 -1.368783 1.033239 -0.005657 0.000667 1033390.000000 1 0 0
11.420616 2.617628 12.039509 16.799768 0.225310 0.771813 0.001483 0.006451 -534121.000000 1 0 0
-7.049584 -2.282972 -5.735191 9.370220 0.313187 2.229467 0.012308 -0.007655 -1546300.000000 1 0 0
7.551416 -7.567472 10.837309 15.222936 -0.786460 0.778587 0.000371 -0.002177 -1378140.000000 1 0 0
-5.457784 -1.970172 -10.904091 12.351850 0.346426 2.652565 0.013123 -0.007033 113601.000000 1 0 0
0.766616 -6.184772 4.465809 7.666978 -1.447473 0.949028 -0.001063 -0.001253 764120.000000 1 0 0
-4.832984 -9.357172 7.403609 12.873532 1.094036 0.958066 0.003254 -0.004576 3025020.000000 1 0 0
-8.732384 9.444428 1.614009 12.963671 -0.824551 1.445970 -0.001944 -0.002016 1292110.000000 1 0 0
-8.048584 7.309028 -9.120991 14.191338 -0.737280 2.268834 -0.002923 0.001520 -256096.000000 1 0 0
-1.346684 -10.690672 -0.103591 10.775656 1.445488 1.580410 -0.000329 0.002108 -64563.900000 1 0 0
-3.872784 10.451128 7.758609 13.580152 -1.215923 0.962683 0.001561 0.003665 1617900.000000 1 0 0
-7.443384 12.193928 2.016209 14.427784 -1.022752 1.430593 -0.003908 -0.000864 741583.000000 1 0 0
-8.116884 -8.205072 -2.826791 11.882667 0.790801 1.810991 0.011318 -0.001084 46616.400000 1 0 0
5.492816 4.593928 -8.055791 10.778264 0.696517 2.414953 -0.003492 0.002012 -89520.400000 1 0 0
-8.883384 -0.211172 -10.192091 13.521754 0.023767 2.424554 0.006536 -0.005379 -1361310.000000 1 0 0
-15.315584 -2.210872 -1.540991 15.550875 0.143364 1.670053 0.011239 -0.003837 -578895.000000 1 0 0
-7.143784 -5.787272 8.709209 12.663984 0.680877 0.812460 0.001950 -0.006025 -1138410.000000 1 0 0
8.091016 3.543028 -0.899391 8.878428 0.412743 1.672271 -0.000957 0.001525 2594950.000000 1 0 0
11.900116 7.298028 -5.868591 15.143128 0.550122 1.968760 -0.003027 0.001597 128846.000000 1 0 0
3.722716 13.304828 -9.521791 16.779200 1.297971 2.174233 -0.003220 -0.000019 603115.000000 1 0 0
-9.741684 5.446428 -0.462491 11.170402 -0.509791 1.612211 -0.004188 -0.001161 362739.000000 1 0 0
11.234716 -1.265972 -5.083391 12.396064 -0.112211 1.993339 0.003850 -0.001817 -876497.000000 1 0 0
10.604016 1.774028 -1.178491 10.815783 0.165763 1.679973 0.003868 0.000230 -641114.000000 1 0 0
14.538816 4.967228 4.771609 16.087845 0.329219 1.269669 0.003715 -0.007594 1872210.000000 1 0 0
0.809716 -0.806072 10.277309 10.340622 -0.783143 0.110716 0.002175 -0.002086 -5983.720000 1 0 0
-7.883384 1.325028 -12.623491 14.941753 -0.166522 2.577075 0.000979 -0.006086 -401371.000000 1 0 0
3.088016 -11.577772 -7.815691 14.306141 -1.310145 2.148757 -0.009751 0.001099 -315659.000000 1 0 0
2.971916 5.001828 -6.723291 8.891187 1.034678 2.428244 -0.000890 -0.001171 -1241180.000000 1 0 0
6.451916 8.021828 0.592809 10.311564 0.893442 1.513275 0.000997 -0.002285 1747580.000000 1 0 0
-9.081384 -5.484472 6.693709 12.544190 0.543300 1.007933 -0.001210 -0.002396 -2400390.000000 1 0 0
-0.280884 -6.814572 -11.707991 13.549699 1.529601 2.614111 -0.006045 0.000437 1961030.000000 1 0 0
6.339116 -13.510672 -4.692591 15.644266 -1.132096 1.875443 -0.002844 -0.000481 2372770.000000 1 0 0
-3.198484 -0.403672 10.009809 10.516156 0.125544 0.311579 -0.003466 0.002054 469833.000000 1 0 0
8.584916 8.474828 6.994309 13.944312 0.778945 1.045362 0.002373 -0.005317 -1332730.000000 1 0 0
-7.987484 5.718428 -2.716291 10.192083 -0.621333 1.840566 0.001381 -0.003699 526325.000000 1 0 0
-5.401084 5.821228 -6.385991 10.190156 -0.822819 2.248085 0.004384 -0.003524 -856985.000000 1 0 0
3.217616 -13.687572 2.587909 14.296851 -1.339913 1.388780 0.006284 -0.006590 -2168850.000000 1 0 0
-11.314284 -7.085372 6.528609 14.860628 0.559485 1.115952 0.004618 -0.003524 -520794.000000 1 0 0
-12.935084 -3.678172 -6.802291 15.070385 0.277044 2.039094 0.013873 -0.005012 785715.000000 1 0 0
6.044016 0.380928 -7.190791 9.401208 0.062942 2.441651 -0.006402 0.001551 1327990.000000 1 0 0
-1.416984 2.293128 -2.516491 3.687683 -1.017300 2.321843 0.004297 -0.007320 3103840.000000 1 0 0
7.568516 0.964028 -4.922991 9.080067 0.126691 2.143820 -0.003005 0.001157 263146.000000 1 0 0
3.711716 -4.531272 10.866809 12.344910 -0.884497 0.494373 -0.004305 0.002607 -893613.000000 1 0 0
6.031016 -2.585872 2.033009 6.869717 -0.405053 1.270359 0.001273 -0.003779 -657279.000000 1 0 0
-6.265784 7.795628 1.058809 10.057482 -0.893769 1.465325 -0.003357 -0.000169 1196550.000000 1 0 0
6.074616 -3.432772 7.930509 10.563042 -0.514363 0.721556 -0.001887 -0.001141 -788918.000000 1 0 0
6.672116 -2.283772 -7.789891 10.507861 -0.329786 2.405860 -0.004675 -0.001932 1159820.000000 1 0 0
11.925216 -8.209472 -5.767591 15.584329 -0.602907 1.949901 0.005824 -0.009863 -685645.000000 1 0 0
5.520616 -9.795672 9.979509 15.034061 -1.057589 0.844917 -0.004270 0.000868 1877210.000000 1 0 0
-6.609584 7.550428 -4.458091 10.980443 -0.851744 1.988872 0.003605 -0.002341 1680280.000000 1 0 0
-1.252584 -7.561972 9.828509 12.464027 1.406644 0.662349 0.003003 -0.003006 -1326730.000000 1 0 0
9.973816 -9.292672 0.784709 13.654542 -0.750059 1.513296 0.002778 -0.003812 41174.000000 1 0 0
10.995316 6.047428 9.755909 15.894846 0.502843 0.909959 -0.000692 -0.004549 616394.000000 1 0 0
-15.324084 -4.185572 -4.941891 16.636371 0.266633 1.872402 0.004539 -0.001865 1871430.000000 1 0 0
-4.701184 -4.663372 7.778809 10.215578 0.781360 0.705226 0.004346 -0.004649 -1248440.000000 1 0 0
3.000516 10.905428 -11.179291 15.903081 1.302300 2.350353 -0.004438 0.000888 -523065.000000 1 0 0
9.858116 -1.298772 1.598509 10.070973 -0.130992 1.411398 -0.000596 -0.003505 -1160870.000000 1 0 0
-1.647184 -2.646672 0.689009 3.192620 1.014097 1.353272 0.002591 -0.004649 69740.300000 1 0 0
1.602616 3.029328 0.823509 3.524680 1.084193 1.334976 -0.006340 -0.001097 -461263.000000 1 0 0
-8.967384 -2.404572 4.303609 10.233132 0.261983 1.136738 -0.001020 -0.002992 2804940.000000 1 0 0
9.971516 4.985628 -2.652291 11.459592 0.463637 1.804361 -0.000641 0.002233 1642130.000000 1 0 0
2.629916 8.446828 2.534509 9.202668 1.268960 1.291780 -0.005165 -0.001191 712995.000000 1 0 0
-8.100784 -0.106472 2.461709 8.467234 0.013143 1.275803 -0.005678 -0.002679 265924.000000 1 0 0
6.874116 2.036228 13.731109 15.490095 0.287982 0.481191 -0.005778 0.003851 -641876.000000 1 0 0
6.695116 4.361828 3.810109 8.852516 0.577425 1.125862 -0.006058 -0.001189 86129.200000 1 0 0
-0.382184 3.360728 7.739909 8.446700 -1.457562 0.411996 -0.007563 0.001619 -707951.000000 1 0 0
2.675916 -10.269172 9.157609 14.017069 -1.315887 0.858837 -0.001504 -0.003296 1081800.000000 1 0 0
1.441716 -4.527372 6.785909 8.283973 -1.262505 0.610849 -0.001726 -0.000715 -999566.000000 1 0 0
-0.192684 10.834828 -2.004291 11.020336 -1.553014 1.753686 -0.003529 -0.002917 2222230.000000 1 0 0
8.735616 5.537228 8.010909 13.082299 0.564951 0.911770 -0.003808 -0.004245 -837610.000000 1 0 0
2.586116 11.408228 -2.885291 12.048260 1.347875 1.812624 0.000228 -0.005715 643486.000000 1 0 0
1.557516 2.421828 -6.693291 7.286374 0.999276 2.735329 0.002399 -0.004285 2892430.000000 1 0 0
-13.603684 -2.191772 3.538209 14.226138 0.159743 1.319446 0.004087 -0.002502 1208520.000000 1 0 0
-0.934384 -10.670572 -5.312491 11.956452 1.483453 2.031211 -0.000671 -0.001548 786188.000000 1 0 0
-5.665784 2.876628 0.418509 6.367986 -0.469804 1.505028 0.001712 -0.004272 -584700.000000 1 0 0
3.809716 7.277528 -5.009991 9.621661 1.088533 2.118466 -0.000945 -0.001500 -2025150.000000 1 0 0
3.112216 9.796828 -6.495291 12.159462 1.263203 2.134329 0.002773 -0.001699 1340870.000000 1 0 0
-12.195884 1.765428 -2.594991 12.593264 -0.143757 1.778345 0.000719 -0.001177 683327.000000 1 0 0
-2.420084 9.552428 -5.787791 11.428220 -1.322670 2.101856 -0.002619 -0.000674 1645430.000000 1 0 0
-1.308484 3.346028 1.704609 3.976647 -1.198024 1.127793 -0.006509 -0.001648 750737.000000 1 0 0
12.744916 3.656928 9.656609 16.402930 0.279425 0.941331 0.006579 -0.004943 -32280.500000 1 0 0
-2.541484 -9.607272 11.580309 15.259829 1.312183 0.709212 -0.000768 -0.005097 740114.000000 1 0 0
-0.404084 -8.944872 -7.488091 11.672426 1.525652 2.267274 0.000756 -0.003439 1058160.000000 1 0 0
2.333516 7.662528 -0.449691 8.022584 1.275183 1.626879 -0.004338 -0.000841 1600800.000000 1 0 0
-11.854984 -1.242472 -5.560891 13.153247 0.104425 2.007304 0.002231 0.000285 -703893.000000 1 0 0
-6.134484 -7.014172 -10.890591 14.333021 0.852202 2.433841 0.009027 -0.005206 1719820.000000 1 0 0
-4.731384 -2.170872 -1.477591 5.411281 0.430168 1.847366 0.003260 -0.002932 -1077160.000000 1 0 0
-10.458384 3.714028 4.504509 11.977579 -0.341233 1.185236 -0.004993 -0.004162 2635260.000000 1 0 0
6.797916 9.440328 -3.555191 12.164326 0.946712 1.867389 0.002988 -0.001647 245284.000000 1 0 0
1.286316 -2.636272 -11.491391 11.859874 -1.116851 2.891665 0.000236 -0.005558 -2023420.000000 1 0 0
1.220616 8.718828 7.493409 11.561100 1.431703 0.865634 -0.010798 0.005283 1520170.000000 1 0 0
10.262616 0.370828 10.390809 14.609165 0.036118 0.779518 -0.004589 0.003161 -710259.000000 1 0 0
-5.296984 -0.719672 -4.028391 6.693572 0.135038 2.216587 0.007865 -0.007865 -1565160.000000 1 0 0
11.658716 5.580928 5.412409 14.013086 0.446456 1.174245 0.004084 -0.004775 2454420.000000 1 0 0
9.978716 -3.427472 3.702109 11.181590 -0.330853 1.233338 0.004423 -0.004617 -1653170.000000 1 0 0
7.270916 -1.626172 -3.350391 8.169197 -0.220033 1.993387 -0.001935 -0.001628 -3256450.000000 1 0 0
2.291416 9.192328 10.425209 14.086677 1.326500 0.737613 -0.008890 0.002162 1344890.000000 1 0 0
2.316316 -10.900572 6.311809 12.807292 -1.361416 1.055458 -0.002037 -0.001806 973536.000000 1 0 0
5.880016 -7.613172 -1.198491 9.693883 -0.913145 1.694747 -0.005150 -0.004065 1538730.000000 1 0 0
-0.226884 -5.526572 -2.313091 5.995404 1.529766 1.966883 0.001544 0.000512 1125940.000000 1 0 0
7.742516 -5.023872 2.642709 9.600508 -0.575579 1.291928 0.000307 -0.003404 1249050.000000 1 0 0
-2.660584 -12.478072 4.659509 13.582784 1.360721 1.220639 -0.000629 -0.001074 -1017570.000000 1 0 0
4.769716 -10.395072 -1.063691 11.486477 -1.140612 1.663533 -0.002949 -0.004022 1194900.000000 1 0 0
0.971316 0.137128 1.047609 1.435181 0.140250 0.752549 -0.005792 -0.000976 -2162990.000000 1 0 0
-1.600284 8.445428 2.363809 8.914805 -1.383531 1.302431 -0.006713 0.001444 681884.000000 1 0 0
-7.521884 0.633528 -3.144191 8.177165 -0.084026 1.965472 0.001026 -0.003818 -1233480.000000 1 0 0
4.407416 -6.469072 12.838409 15.036587 -0.972727 0.547533 -0.001285 0.000243 -522718.000000 1 0 0
-5.005484 13.118928 8.491409 16.409301 -1.206298 1.026898 0.006384 -0.000346 3193010.000000 1 0 0
0.580116 6.052128 8.179509 10.191622 1.475235 0.639202 -0.009104 0.003546 -18821.400000 1 0 0
7.930016 -0.507272 -0.696491 7.976690 -0.063882 1.658223 0.002487 -0.002663 2644050.000000 1 0 0
2.337316 -9.295072 -2.389791 9.877880 -1.324446 1.815154 -0.005176 -0.000805 179000.000000 1 0 0
-7.136084 12.157528 4.907609 14.926949 -1.040014 1.235790 0.002603 -0.000937 190233.000000 1 0 0
-14.955684 0.339828 0.156309 14.960361 -0.022718 1.560348 0.006348 -0.003405 484088.000000 1 0 0
6.780616 -0.645372 3.941209 7.869332 -0.094893 1.046237 -0.002365 -0.000803 466549.000000 1 0 0
-4.244484 -5.084672 5.040309 8.323116 0.875216 0.920302 0.001909 -0.004073 49458.700000 1 0 0
2.798216 5.047728 6.811709 8.927987 1.064618 0.702914 -0.010541 -0.000108 -1466360.000000 1 0 0
2.047116 -7.173572 1.805809 7.675400 -1.292816 1.333298 -0.002342 -0.002031 2135210.000000 1 0 0
-2.433884 6.426728 -1.826991 7.110873 -1.208775 1.830640 0.001486 -0.003424 1192740.000000 1 0 0
2.738216 -3.867872 -6.529791 8.068236 -0.954762 2.513791 -0.008321 -0.004551 -992991.000000 1 0 0
-5.076184 0.906128 -12.156091 13.204517 -0.176645 2.740413 0.006444 -0.006702 228878.000000 1 0 0
-7.387084 6.414528 -11.909891 15.413004 -0.715048 2.453907 -0.003943 -0.004589 1845790.000000 1 0 0
-0.994784 11.085528 -9.045991 14.342541 -1.481299 2.253265 0.000016 0.001834 1882030.000000 1 0 0
4.589016 5.881928 -0.616191 7.485708 0.908252 1.653205 -0.002454 0.000756 379069.000000 1 0 0
-2.548184 13.380728 3.641009 14.099435 -1.382613 1.309598 -0.004509 0.006201 210630.000000 1 0 0
1.558116 -7.885272 10.227509 13.007966 -1.375711 0.666080 -0.007353 0.001054 -2305680.000000 1 0 0
12.969116 -0.245172 -1.002591 13.010122 -0.018902 1.647935 0.004727 -0.003266 -323184.000000 1 0 0
-0.965884 3.107228 -5.441691 6.340331 -1.269415 2.602678 0.007030 -0.009159 1167030.000000 1 0 0
6.501216 1.041328 7.213809 9.766740 0.158825 0.739791 -0.002619 -0.001448 1251320.000000 1 0 0
5.526916 -6.124672 6.805709 10.694676 -0.836656 0.881021 -0.004113 0.001006 531832.000000 1 0 0
12.162816 -4.868172 2.592909 13.355013 -0.380722 1.375403 0.003049 -0.002742 -566864.000000 1 0 0
4.399716 -9.283772 13.767509 17.178191 -1.128234 0.641076 0.000549 0.000951 672302.000000 1 0 0
-2.746384 -4.260572 -1.440091 5.269627 0.998223 1.847599 0.006257 -0.002922 1830950.000000 1 0 0
-9.337384 -5.137172 -7.546991 13.058880 0.502976 2.186974 0.016161 -0.006807 -166511.000000 1 0 0
-10.606184 -3.187572 7.795309 13.543212 0.291951 0.957473 -0.000309 -0.001232 471921.000000 1 0 0
12.036616 -0.653772 1.705409 12.174398 -0.054262 1.430253 0.003889 -0.002773 375478.000000 1 0 0
-7.584284 4.724728 4.346209 9.936496 -0.557133 1.118093 -0.005457 -0.001087 1852880.000000 1 0 0
-1.045584 10.614828 6.936609 12.723378 -1.472611 0.994185 -0.007601 0.005306 1235580.000000 1 0 0
7.364516 -10.142272 1.856909 12.670828 -0.942754 1.423717 0.001545 -0.005663 2735630.000000 1 0 0
-4.375584 -1.658072 1.644309 4.959707 0.362218 1.232868 -0.002622 -0.001607 1850980.000000 1 0 0
6.629316 -15.047772 -0.939091 16.470130 -1.155828 1.627845 0.007691 -0.003188 -1348040.000000 1 0 0
-10.335484 1.668228 2.385309 10.737547 -0.160028 1.346781 -0.008141 -0.000045 617015.000000 1 0 0
-2.974084 8.292428 -11.418891 14.422226 -1.226436 2.484476 0.000767 0.000045 -938215.000000 1 0 0
-1.256684 -5.124672 -6.807791 8.613219 1.330319 2.482240 -0.000578 -0.005948 -723965.000000 1 0 0
12.822116 -0.452972 6.463309 14.366148 -0.035313 1.104145 0.007287 -0.005473 2454800.000000 1 0 0
5.823216 -13.359972 3.734809 15.044850 -1.159755 1.319928 0.006688 -0.006937 105211.000000 1 0 0
-5.555084 3.477828 -4.961691 8.220257 -0.559363 2.218797 0.005993 -0.006810 2395470.000000 1 0 0
-4.386384 8.061128 3.349209 9.769306 -1.072463 1.220869 -0.003080 0.001156 70783.700000 1 0 0
13.950416 6.251328 -3.932691 15.784779 0.421281 1.822593 0.010350 0.003371 -1570670.000000 1 0 0
-6.794684 -8.422272 5.395709 12.091984 0.891952 1.108257 0.003975 -0.001540 65792.800000 1 0 0
1.750416 11.330728 2.734609 11.786748 1.417524 1.336656 -0.005633 -0.001465 3285260.000000 1 0 0
-7.378684 7.264928 5.929609 11.932494 -0.777630 1.050739 -0.003778 -0.001278 -878961.000000 1 0 0
-17.447584 -3.985172 4.961709 18.571977 0.224556 1.300351 0.018053 -0.009410 -476453.000000 1 0 0
7.437416 -13.020872 -8.603691 17.288197 -1.051829 2.091698 -0.004887 -0.003657 -375677.000000 1 0 0
-2.171584 12.882528 -2.788091 13.358471 -1.403798 1.781055 -0.010083 0.002779 1088400.000000 1 0 0
-5.474784 13.872928 -5.713491 15.971079 -1.194921 1.936643 0.007296 0.001748 2079200.000000 1 0 0
-5.658184 2.362428 7.443809 9.643983 -0.395521 0.689034 -0.003945 0.001216 1413030.000000 1 0 0
-7.385584 5.142928 1.405409 9.108882 -0.608270 1.415888 -0.002020 -0.001672 2599020.000000 1 0 0
10.608016 -5.714272 -5.031791 13.057635 -0.494107 1.966386 -0.000704 -0.003412 3495550.000000 1 0 0
-9.475684 -0.783772 6.748509 11.659557 0.082526 0.953544 -0.005515 -0.002225 844450.000000 1 0 0
-11.292884 -4.535272 -2.569691 12.437895 0.381889 1.778897 0.006396 -0.000699 1288350.000000 1 0 0
6.506616 -4.442672 13.517409 15.645886 -0.599084 0.527716 0.004263 -0.003825 -1851810.000000 1 0 0
0.280616 10.301528 -11.712491 15.600726 1.543563 2.420017 -0.003123 0.003703 -958835.000000 1 0 0
-11.748984 -3.117972 1.420409 12.238380 0.259403 1.454472 0.004871 -0.002168 2606230.000000 1 0 0
5.156716 5.937328 5.445809 9.565585 0.855646 0.965127 -0.006112 -0.000202 -4662930.000000 1 0 0
-7.139484 -0.089772 8.106309 10.802432 0.012573 0.722106 -0.004346 0.001555 325537.000000 1 0 0
1.676616 2.066928 9.607609 9.969422 0.889285 0.270237 -0.004744 -0.000698 3303110.000000 1 0 0
10.441816 -4.918072 -2.087091 11.729233 -0.440178 1.749688 -0.004843 -0.002308 2519430.000000 1 0 0
-9.648884 -2.319372 -1.695191 10.067479 0.235902 1.739985 0.004666 -0.001825 -428752.000000 1 0 0
-1.885084 -5.143372 -9.864991 11.283876 1.219492 2.634696 0.008697 -0.007295 362768.000000 1 0 0
7.672216 -1.601072 6.509009 10.187911 -0.205732 0.877735 -0.000571 -0.002487 223828.000000 1 0 0
1.451416 -11.880072 -2.602091 12.248004 -1.449226 1.784878 -0.002851 -0.000328 -3588720.000000 1 0 0
-0.753584 -1.568872 4.764909 5.072830 1.123004 0.350212 0.001641 -0.002058 1064510.000000 1 0 0
7.573616 1.539728 9.859909 12.527898 0.200568 0.664806 -0.004686 -0.000221 918003.000000 1 0 0
-3.804484 10.817328 -7.958691 13.958132 -1.232605 2.177525 0.000298 0.004127 3472470.000000 1 0 0
-9.563584 12.736128 6.440109 17.179816 -0.926718 1.186545 -0.003301 -0.001958 2258340.000000 1 0 0
-2.501984 -2.437372 -10.982291 11.524384 0.772318 2.833657 0.011737 -0.009581 -1788110.000000 1 0 0
1.094316 -11.939772 10.983009 16.259833 -1.479399 0.829196 -0.002347 0.000348 2116880.000000 1 0 0
1.428916 3.469828 -2.005291 4.254726 1.180149 2.061571 -0.002242 -0.002905 2685780.000000 1 0 0
-1.876484 -9.239072 -11.990191 15.252748 1.370419 2.475271 -0.005577 -0.001730 -1287910.000000 1 0 0
1.243716 -2.714172 1.516609 3.348681 -1.141119 1.100784 0.005104 -0.003768 2831760.000000 1 0 0
-1.046384 -2.196272 -6.555991 6.992821 1.126177 2.786262 0.004567 -0.010589 486215.000000 1 0 0
1.830716 5.831728 3.993209 7.301115 1.266615 0.992102 -0.010823 0.001979 -857694.000000 1 0 0
-10.879984 8.661928 3.592909 14.363566 -0.672379 1.317971 -0.011846 -0.001577 949210.000000 1 0 0
-16.391284 -1.417072 3.842209 16.895113 0.086238 1.341374 0.014230 -0.005094 703689.000000 1 0 0
-12.173884 0.240128 6.849709 13.970670 -0.019722 1.058371 -0.006747 -0.000690 1037420.000000 1 0 0
-5.160684 3.029628 4.665409 7.587974 -0.530850 0.908610 -0.005080 0.001597 1859240.000000 1 0 0
5.290916 -6.054372 3.847809 8.913745 -0.852590 1.124451 -0.007399 -0.001064 1308810.000000 1 0 0
9.846316 3.433028 6.285809 12.175673 0.335482 1.028318 0.000799 -0.002508 532766.000000 1 0 0
-12.039684 5.943928 3.159509 13.793722 -0.458591 1.339690 -0.005053 -0.002257 1205390.000000 1 0 0
-4.681584 12.377828 -1.243391 13.291872 -1.209203 1.664479 -0.011220 0.002815 1300220.000000 1 0 0
-1.869984 -12.246072 10.324409 16.126269 1.419266 0.876008 0.003253 -0.004284 1955510.000000 1 0 0
5.185616 6.322728 13.881909 16.111328 0.883886 0.532335 0.000084 -0.000712 116845.000000 1 0 0
12.849316 -3.739672 -5.880991 14.617665 -0.283217 1.984847 0.000924 -0.003813 1318260.000000 1 0 0
3.617616 -2.586572 6.336109 7.741045 -0.620718 0.611987 -0.002315 0.000700 1292960.000000 1 0 0
7.175516 -11.947672 -0.696391 13.954206 -1.029952 1.620723 0.000595 0.000543 -474496.000000 1 0 0
-6.112384 -6.585472 -4.163091 9.902576 0.822638 2.004688 0.010998 -0.002447 -134492.000000 1 0 0
0.211816 -8.970272 5.029909 10.286430 -1.547188 1.059871 -0.000602 -0.001678 27950.200000 1 0 0
-10.214984 2.462628 -0.376191 10.514369 -0.236566 1.606583 -0.004704 -0.000755 -1172690.000000 1 0 0
-1.825484 8.931728 -0.415091 9.125812 -1.369191 1.616297 -0.000422 -0.002445 -1045840.000000 1 0 0
-3.480984 2.352528 -6.688191 7.898325 -0.594315 2.580710 0.010164 -0.011520 985833.000000 1 0 0
-12.655684 3.027128 6.400809 14.501731 -0.234780 1.113658 -0.001987 -0.003041 964257.000000 1 0 0
11.248616 1.606228 7.977909 13.883744 0.141835 0.958654 0.005559 -0.007046 -1550560.000000 1 0 0
6.005716 2.718428 -3.247591 7.348831 0.425047 2.028534 -0.003441 0.001416 1355950.000000 1 0 0
10.479916 -2.405872 6.449209 12.538308 -0.225660 1.030535 0.005695 -0.004158 3425940.000000 1 0 0
-0.970484 10.936228 4.013009 11.689617 -1.482288 1.220371 -0.005594 0.003783 1469710.000000 1 0 0
-1.626084 -12.201072 7.455209 14.390638 1.438303 1.026215 -0.002024 -0.000109 -657034.000000 1 0 0
8.067016 8.700028 -7.814991 14.207087 0.823134 2.153253 -0.000653 -0.001993 456835.000000 1 0 0
-4.599884 -5.787272 -8.745191 11.451193 0.899217 2.439810 0.011058 -0.008887 638990.000000 1 0 0
-8.499484 -5.285872 -11.591791 15.315068 0.556371 2.429335 0.015758 -0.005554 1108500.000000 1 0 0
6.070516 -0.527072 -9.887391 11.614193 -0.086608 2.589292 -0.004585 0.002670 -372553.000000 1 0 0
-11.196484 -5.440472 -5.412991 13.574258 0.452311 1.980970 0.010380 -0.005845 -892840.000000 1 0 0
3.915816 8.933828 -2.738991 10.131582 1.157703 1.844544 0.003186 -0.004149 640675.000000 1 0 0
11.622616 -10.483372 -4.043391 16.165869 -0.733908 1.823599 0.006502 -0.005688 -496352.000000 1 0 0
3.857916 -11.341272 3.923109 12.605505 -1.242909 1.254318 -0.001492 -0.001523 -40972.100000 1 0 0
-0.984884 0.825528 3.187709 3.437002 -0.697602 0.383213 -0.000076 -0.002462 -1246110.000000 1 0 0
-10.655384 -5.108672 4.478909 12.637103 0.447069 1.208497 0.004725 -0.004598 3287270.000000 1 0 0
4.537616 -8.734272 2.785109 10.229091 -1.091656 1.295041 -0.005319 -0.001154 5964440.000000 1 0 0
-3.620084 -5.791072 2.595309 7.305967 1.012115 1.207635 0.002467 -0.000904 1348670.000000 1 0 0
9.887516 5.091328 12.309609 16.589486 0.475516 0.734729 -0.003513 0.001988 487947.000000 1 0 0
1.581516 -12.405372 -5.345491 13.600321 -1.443994 1.974733 -0.002131 -0.000467 774855.000000 1 0 0
9.760816 -10.762372 -1.671691 14.625209 -0.834161 1.685349 0.002071 -0.002622 1368380.000000 1 0 0
9.608116 -4.498772 -9.087991 13.969482 -0.437907 2.279118 0.001944 -0.003216 2426490.000000 1 0 0
-7.380584 -3.065072 -13.081191 15.329229 0.393616 2.593173 0.007665 -0.003634 2545720.000000 1 0 0
0.483616 6.233928 -2.582991 6.765174 1.493373 1.962547 -0.001557 -0.003719 2859270.000000 1 0 0
-6.009184 -9.459672 1.048809 11.255918 1.004866 1.477483 0.002312 0.001877 380441.000000 1 0 0
-8.955084 -4.002172 0.520909 9.822538 0.420286 1.517739 0.001112 -0.000541 5886970.000000 1 0 0
1.807016 3.798728 12.084609 12.795836 1.126785 0.334979 -0.003706 -0.004213 845850.000000 1 0 0
6.530416 4.263628 9.597609 12.366849 0.578403 0.682378 -0.008982 0.000991 1823200.000000 1 0 0
-8.230384 9.922328 -3.512491 13.361490 -0.878336 1.836804 0.005321 0.001698 2467160.000000 1 0 0
16.364116 2.157528 -6.081591 17.590479 0.131089 1.923815 0.009945 -0.002042 -1655810.000000 1 0 0
-11.003984 2.713328 -5.163891 12.454541 -0.241754 1.998321 -0.005839 0.003810 388035.000000 1 0 0
-13.587484 4.090128 1.472909 14.265985 -0.292394 1.467366 -0.003066 -0.000321 -785798.000000 1 0 0
-17.226484 10.587128 3.420209 20.506995 -0.551074 1.403231 0.013696 -0.010359 -630568.000000 1 0 0
-14.245484 2.935928 -1.199791 14.594279 -0.203250 1.653099 0.003803 -0.000430 521877.000000 1 0 0
-14.278484 5.172228 5.077709 16.012813 -0.347537 1.248123 -0.005603 -0.006218 991917.000000 1 0 0
-17.430784 7.662628 3.235309 19.313605 -0.414174 1.402488 0.016927 -0.010874 -1291460.000000 1 0 0
-15.173184 12.633628 -3.239691 20.008240 -0.694322 1.733430 0.040775 -0.005040 -769159.000000 1 0 0
-8.546884 12.626428 -9.530591 17.980769 -0.975740 2.129448 0.016430 -0.008004 262203.000000 1 0 0
-12.227584 8.863028 -9.978991 18.101031 -0.627203 2.154711 0.000681 0.002541 -506449.000000 1 0 0
-13.971984 -3.327672 -12.206591 18.849154 0.233812 2.275218 0.019396 -0.006284 -1266720.000000 1 0 0
-14.719984 5.915528 -7.715191 17.640736 -0.382118 2.023447 0.010678 0.007717 282580.000000 1 0 0
-10.913784 13.638328 -8.232891 19.310494 -0.895916 2.011242 0.031446 -0.009923 1644340.000000 1 0 0
-10.923984 13.685428 3.956709 17.952156 -0.897142 1.348569 -0.003397 0.001672 35545.500000 1 0 0
-15.057484 3.348728 3.009309 15.716162 -0.218835 1.378128 0.003202 0.000973 51371.700000 1 0 0
-10.954884 9.529528 -12.609591 19.230787 -0.715928 2.285903 -0.001199 -0.005896 -72827.400000 1 0 0
-12.947984 11.471628 -8.855891 19.433871 -0.725014 2.043948 0.021680 -0.022329 840017.000000 1 0 0
-8.745184 14.605528 -3.392691 17.358284 -1.031290 1.767513 0.010128 -0.005939 1643900.000000 1 0 0
-16.720584 8.225828 -4.066691 19.073022 -0.457193 1.785663 0.024771 0.007540 -1506120.000000 1 0 0
-16.837884 6.731328 0.398809 18.137921 -0.380310 1.548807 0.014778 0.003508 -405364.000000 1 0 0
-10.417084 2.809428 -12.610691 16.596326 -0.263427 2.433876 0.004556 -0.005658 931303.000000 1 0 0
-16.879384 1.067428 2.334209 17.073416 -0.063154 1.433651 0.015605 -0.003553 626659.000000 1 0 0
-12.695884 1.211028 -6.991991 14.544415 -0.095100 2.072288 0.003777 0.000705 1003520.000000 1 0 0
-12.272884 9.110828 -5.346691 16.193146 -0.638590 1.907293 0.012285 0.004783 513172.000000 1 0 0
-9.597584 14.111728 1.337809 17.118534 -0.973542 1.492567 0.010539 -0.000370 -29295.700000 1 0 0
-12.163884 11.229328 2.666209 16.768022 -0.745469 1.411113 -0.004452 0.000586 664457.000000 1 0 0
-12.552184 6.829828 -3.633391 14.744674 -0.498314 1.819782 0.003168 0.003586 172670.000000 1 0 0
-15.621884 3.762128 -9.506391 18.669985 -0.236324 2.105029 0.004767 0.002176 -1592960.000000 1 0 0
-15.092384 5.914028 -4.801391 16.905891 -0.373465 1.858767 0.014665 0.009591 341516.000000 1 0 0
-17.832184 5.214528 7.585609 20.067874 -0.284490 1.183164 0.009945 -0.008655 -774316.000000 1 0 0
-15.813584 10.086528 -1.921091 18.854657 -0.567779 1.672863 0.022605 -0.001217 -721415.000000 1 0 0
-8.758984 10.022228 -8.341391 15.708076 -0.852558 2.130607 0.003111 -0.004084 241170.000000 1 0 0
-16.915884 4.255328 -1.278391 17.489689 -0.246445 1.643956 0.004424 0.003283 1211640.000000 1 0 0
-10.235484 5.466128 -4.592991 12.479553 -0.490505 1.947698 -0.003729 0.002830 667396.000000 1 0 0
-17.992584 2.772528 6.037709 19.180040 -0.152890 1.250560 0.005644 -0.004326 -550828.000000 1 0 0
-10.272484 10.189928 -5.649291 15.532966 -0.781364 1.943030 0.007314 -0.001766 998930.000000 1 0 0
-15.405584 0.461428 -5.963391 16.525948 -0.029943 1.939976 0.007484 0.002078 -321987.000000 1 0 0
-16.375984 -4.099772 -8.860791 19.065534 0.245311 2.054154 -0.000975 -0.004914 -2064730.000000 1 0 0
-9.998884 9.729028 -1.060991 13.991332 -0.771720 1.646701 0.003502 0.000150 2695850.000000 1 0 0
-17.432684 -3.050972 -3.198391 17.984344 0.173260 1.749590 0.011968 -0.002104 60185.200000 1 0 0
-11.849584 5.075428 -11.627491 17.360045 -0.404680 2.304715 -0.000727 0.002114 -960225.000000 1 0 0
-16.229884 7.077928 5.942809 18.676809 -0.411239 1.246975 0.000987 -0.007425 -1119680.000000 1 0 0
-12.019084 6.030728 -8.889091 16.119677 -0.465057 2.154890 0.000088 0.004645 2348480.000000 1 0 0
-14.453284 8.375228 0.135309 16.705094 -0.525186 1.562696 0.009094 0.003645 1410820.000000 1 0 0
-14.737084 12.051128 3.935809 19.439700 -0.685466 1.366925 -0.005980 -0.008798 840284.000000 1 0 0
-17.293684 4.130328 -4.162191 18.260749 -0.234443 1.800749 0.014990 0.004715 -150665.000000 1 0 0
-13.826184 13.530628 -0.773691 19.360781 -0.774595 1.610769 0.020522 -0.001738 -731012.000000 1 0 0
-9.957884 6.861028 -13.100291 17.828370 -0.603308 2.396168 -0.008787 -0.008354 -646669.000000 1 0 0
-15.815984 -1.154672 -8.358291 17.925949 0.072877 2.055863 -0.000124 -0.003636 -1100640.000000 1 0 0
-11.380384 12.066428 -0.115091 16.586894 -0.814649 1.577735 0.010927 -0.001067 -331574.000000 1 0 0
-11.973384 7.396828 -0.902891 14.102844 -0.553385 1.634862 -0.001087 0.004049 1801490.000000 1 0 0
-11.405384 0.166528 -11.784391 16.400683 -0.014600 2.372483 0.006050 -0.009441 -98616.100000 1 0 0
-19.080784 -1.144172 -4.658391 19.674503 0.059893 1.809839 0.012618 -0.003496 -740672.000000 1 0 0
-17.921484 1.516928 -5.088391 18.691506 -0.084442 1.846506 0.008805 0.002249 899498.000000 1 0 0
-13.255284 -0.084172 -9.532591 16.327276 0.006350 2.194252 0.005451 -0.004855 201305.000000 1 0 0
-6.047584 11.344528 -13.293291 18.492787 -1.081033 2.372924 -0.008948 0.004637 -219570.000000 1 0 0
16.245216 5.645928 7.117609 18.613003 0.334485 1.178404 0.005747 -0.012873 -563237.000000 1 0 0
14.873816 10.151728 -5.534291 18.839224 0.598900 1.868959 0.029525 0.002191 -632842.000000 1 0 0
2.427416 16.800328 4.390509 17.533395 1.427303 1.317694 0.006245 -0.006095 1388510.000000 1 0 0
-3.816784 18.262728 -5.823591 19.545058 -1.364769 1.873348 0.000155 0.001842 1118440.000000 1 0 0
5.398516 14.493928 5.682209 16.477421 1.214248 1.218719 0.003228 -0.007634 -212834.000000 1 0 0
9.905216 6.121328 15.016009 19.001697 0.553543 0.659586 0.004396 0.002290 -1487310.000000 1 0 0
4.648716 12.701328 -1.140991 13.573362 1.219937 1.654957 0.003936 -0.008144 2168370.000000 1 0 0
3.445316 13.570928 13.005309 19.109640 1.322174 0.822266 -0.002961 -0.006445 -1064490.000000 1 0 0
-0.716184 12.403828 9.161909 15.437242 -1.513121 0.935403 -0.005802 0.003249 357510.000000 1 0 0
-7.680584 13.969028 8.404509 18.021123 -1.068084 1.085614 0.008281 -0.009607 1284780.000000 1 0 0
11.545416 12.946428 -4.130391 17.831622 0.842539 1.804552 0.026598 0.000125 1279150.000000 1 0 0
-5.710284 16.157128 0.866209 17.158393 -1.231076 1.520292 -0.003645 0.002297 1306670.000000 1 0 0
3.229716 10.580528 6.744909 12.956559 1.274529 1.023268 -0.008709 0.004770 703078.000000 1 0 0
-1.167184 15.574728 2.478709 15.813869 -1.495995 1.413405 -0.002717 0.001090 -863659.000000 1 0 0
9.784816 8.781128 9.491109 16.215177 0.731390 0.945519 0.010338 -0.006473 2173380.000000 1 0 0
7.237916 12.209228 6.272909 15.517798 1.035670 1.154649 0.006633 -0.005558 861184.000000 1 0 0
11.915916 13.990828 -1.478191 18.436848 0.865319 1.651058 0.017417 -0.002868 -626322.000000 1 0 0
9.638016 15.822828 -1.194191 18.565541 1.023697 1.635164 0.015092 -0.008283 1277610.000000 1 0 0
10.202516 13.692128 3.095909 17.353684 0.930415 1.391436 0.014537 -0.006023 1771500.000000 1 0 0
-5.967784 14.525528 6.273109 16.910272 -1.180973 1.190749 0.000586 -0.004631 512724.000000 1 0 0
-0.888784 18.242928 -6.191191 19.285362 -1.522115 1.897614 0.007273 0.006952 957734.000000 1 0 0
-3.490184 15.756828 5.438609 17.030487 -1.352813 1.245758 -0.001390 0.000735 1532910.000000 1 0 0
7.112716 12.175928 10.616809 17.651079 1.042104 0.925441 0.012341 -0.012117 3641820.000000 1 0 0
1.527116 14.512628 6.224009 15.864638 1.465955 1.167644 -0.004337 0.000043 654362.000000 1 0 0
17.472716 7.750528 -1.344391 19.161781 0.417501 1.641014 0.006030 0.011322 1151810.000000 1 0 0
2.065716 16.135728 -3.316691 16.602088 1.443468 1.771925 -0.004342 -0.001327 2269450.000000 1 0 0
6.794116 11.205628 0.611509 13.118691 1.025748 1.524166 0.007974 -0.004623 513932.000000 1 0 0
12.619916 9.311828 3.297809 16.026477 0.635691 1.363543 0.004543 -0.000348 -1733250.000000 1 0 0
5.992616 14.173128 -3.493691 15.779571 1.170778 1.794052 -0.000967 -0.005291 974583.000000 1 0 0
3.147316 16.519528 1.506309 16.883997 1.382532 1.481462 -0.001116 -0.006536 -598057.000000 1 0 0
2.850616 18.867928 -2.672991 19.268357 1.420848 1.709970 -0.000429 -0.004810 -1183050.000000 1 0 0
3.979616 11.781628 10.674009 16.388367 1.245048 0.861479 -0.004431 -0.005879 3098180.000000 1 0 0
8.064716 11.549228 3.396009 14.489899 0.961219 1.334225 0.005075 -0.000950 892626.000000 1 0 0
0.762216 12.488128 0.219309 12.513289 1.509837 1.553269 -0.000605 -0.003277 -1648960.000000 1 0 0
12.020716 9.955628 -4.566291 16.262323 0.691705 1.855413 0.012503 0.002943 922494.000000 1 0 0
-1.135784 16.642728 9.932709 19.414662 -1.502657 1.033740 -0.001954 0.002414 775228.000000 1 0 0
8.173316 14.661428 -7.993291 18.591752 1.062236 2.015220 0.010106 -0.006617 1243450.000000 1 0 0
14.480416 7.718728 -1.338591 16.463688 0.489734 1.652192 0.004481 0.005798 1751300.000000 1 0 0
12.459816 8.264328 6.051609 16.129727 0.585653 1.186201 0.006292 -0.006478 -2045070.000000 1 0 0
-2.937284 14.280528 10.249709 17.821831 -1.367941 0.958044 -0.001448 -0.002611 1446830.000000 1 0 0
-4.563584 17.176428 -3.134991 18.046721 -1.311107 1.745397 -0.000802 0.002421 1206840.000000 1 0 0
-6.983884 16.464128 -1.674691 17.962370 -1.169614 1.664165 0.000302 0.002319 509506.000000 1 0 0
8.403716 11.346928 -1.826591 14.237684 0.933328 1.699444 0.008886 -0.004524 -1497040.000000 1 0 0
8.650316 12.913928 -4.184791 16.096893 0.980597 1.833793 0.018357 -0.004510 3140640.000000 1 0 0
2.485916 14.796628 -7.343291 16.704607 1.404345 2.025946 -0.014131 0.003107 121753.000000 1 0 0
11.318716 11.239528 9.767809 18.704288 0.781888 1.021341 0.024760 -0.010737 1301960.000000 1 0 0
8.596816 15.642428 1.538709 17.915312 1.068273 1.484802 0.010327 -0.007770 -378787.000000 1 0 0
6.004716 9.905328 7.706609 13.912726 1.025823 0.983725 0.000125 -0.000022 3839890.000000 1 0 0
14.375616 11.410628 2.704109 18.551899 0.670918 1.424516 0.013376 0.002504 2556360.000000 1 0 0
12.158616 12.626228 1.172409 17.567815 0.804263 1.504011 0.016726 0.000233 2005720.000000 1 0 0
5.268116 15.727528 8.286909 18.541333 1.247581 1.107452 0.013634 -0.011748 -2657340.000000 1 0 0
11.592316 15.017828 5.266809 19.688987 0.913424 1.299999 0.031427 -0.005990 149287.000000 1 0 0
6.043516 16.805528 1.848709 17.954597 1.225582 1.467648 -0.002028 -0.009528 -46127.100000 1 0 0
-0.660784 16.172728 -4.170191 16.714791 -1.529961 1.822951 -0.004305 0.003647 186230.000000 1 0 0
16.001516 6.506628 2.602209 17.468721 0.386205 1.421276 0.000004 -0.004292 700574.000000 1 0 0
7.661716 16.609928 -3.204591 18.570433 1.138607 1.744229 -0.005427 -0.005700 134912.000000 1 0 0
14.777016 8.029728 7.493909 18.411828 0.497757 1.151611 0.014025 -0.011254 -459592.000000 1 0 0
2.121316 12.870828 8.607909 15.628637 1.407449 0.987500 -0.004739 -0.000628 6056.020000 1 0 0
15.874216 7.381628 -5.827991 18.451142 0.435264 1.892160 0.003811 0.006013 -1798560.000000 1 0 0
-2.980484 17.113128 0.738409 17.386422 -1.398362 1.528313 -0.004462 0.001906 200666.000000 1 0 0
-2.768084 18.607228 4.657509 19.379979 -1.423115 1.328095 -0.004557 -0.001162 282296.000000 1 0 0
-0.836784 19.163628 0.865809 19.201418 -1.527159 1.525690 -0.001117 -0.001732 1480880.000000 1 0 0
6.973216 16.679628 -6.062991 19.068182 1.174812 1.894377 -0.000531 -0.003640 1818700.000000 1 0 0
10.975916 10.041528 0.912009 14.904186 0.740970 1.509567 0.005445 0.001413 -1996210.000000 1 0 0
9.049716 8.842228 14.195509 19.015647 0.773802 0.727984 0.008379 0.000619 -15649.500000 1 0 0
6.340216 12.400128 -8.378191 16.252864 1.098148 2.112376 0.006278 -0.004018 1390190.000000 1 0 0
6.255916 9.020028 13.230809 17.191617 0.964407 0.692569 0.000792 -0.005763 1402400.000000 1 0 0
16.628716 9.483328 3.251909 19.417070 0.518294 1.402527 0.010530 0.001403 -964155.000000 1 0 0
2.590016 14.740428 -0.690891 14.982180 1.396863 1.616927 -0.002366 -0.005117 -232685.000000 1 0 0
9.157516 12.811328 8.336509 17.818182 0.950207 1.083922 0.021176 -0.011065 517140.000000 1 0 0
7.103516 9.292328 10.525909 15.735376 0.918111 0.838024 0.001766 -0.005947 474695.000000 1 0 0
4.299116 15.740128 -5.259991 17.143556 1.304169 1.882647 -0.004191 -0.004406 850507.000000 1 0 0
0.220116 16.412328 -8.229391 18.361259 1.557386 2.035539 -0.007344 0.008474 1169640.000000 1 0 0
-2.402784 15.705928 -1.912091 16.003301 -1.418988 1.690563 -0.008145 0.004649 896565.000000 1 0 0
13.285016 10.419028 7.775709 18.587884 0.665075 1.139200 0.021632 -0.010052 1633910.000000 1 0 0
-0.936084 15.921828 7.048009 17.437181 -1.512071 1.154699 0.000743 -0.000813 2861780.000000 1 0 0
13.437016 13.296928 6.909609 20.127205 0.780158 1.220371 0.034726 -0.005537 1193860.000000 1 0 0
5.364716 17.252528 4.580109 18.638865 1.269322 1.322525 0.001446 -0.009354 -1404490.000000 1 0 0
10.800116 9.557628 -1.798291 14.533568 0.724441 1.694848 0.003752 0.001647 1861120.000000 1 0 0
3.246616 12.706728 4.713809 13.936335 1.320644 1.225752 -0.001285 0.001628 132317.000000 1 0 0
-0.072284 18.040228 3.518309 18.380249 -1.566790 1.378190 0.000231 -0.002683 1058750.000000 1 0 0
-7.607184 16.011828 -5.739891 18.633149 -1.127268 1.883936 0.029084 -0.007087 -127345.000000 1 0 0
-12.476484 -9.144672 8.303309 17.556555 0.632501 1.078165 0.003704 -0.004434 -685697.000000 1 0 0
-13.278184 -11.758572 6.902109 19.031902 0.724777 1.199676 0.008272 -0.002843 -1663550.000000 1 0 0
-6.519084 -12.029672 12.467909 18.511084 1.074180 0.831812 0.015041 -0.009621 -354884.000000 1 0 0
-1.761384 -10.755872 14.389709 18.051454 1.408477 0.648237 0.000584 -0.000024 1170310.000000 1 0 0
-8.778784 2.864728 11.025609 14.381856 -0.315429 0.697215 -0.004140 0.000234 1778080.000000 1 0 0
0.610816 9.974128 15.184709 18.177781 1.509633 0.582037 -0.010710 0.000416 -150684.000000 1 0 0
1.004516 -6.765072 16.580809 17.935955 -1.423388 0.391218 0.006666 -0.009011 1913840.000000 1 0 0
6.040816 2.363828 17.767409 18.914544 0.372992 0.350061 0.008137 -0.002342 1460820.000000 1 0 0
-5.158284 -3.044672 17.703909 18.689738 0.533219 0.326244 0.012736 -0.008869 -50132.700000 1 0 0
-4.315884 8.198728 12.999609 15.963578 -1.086245 0.619224 -0.011499 0.004264 215636.000000 1 0 0
0.178216 -4.729172 18.478609 19.075005 -1.533130 0.250720 0.015400 -0.016652 1898500.000000 1 0 0
-11.648884 2.046628 11.137009 16.245558 -0.173918 0.815449 0.000111 -0.003280 1800560.000000 1 0 0
-3.410084 -6.036472 14.406009 15.987519 1.056575 0.448546 0.008822 -0.007127 1208990.000000 1 0 0
-7.489484 -2.278172 14.677509 16.634654 0.295290 0.489974 0.002165 -0.001369 1294680.000000 1 0 0
-6.155284 -1.173672 10.533409 12.256334 0.188415 0.536651 -0.003403 -0.000632 1684680.000000 1 0 0
-3.979684 2.292428 11.154209 12.062731 -0.522610 0.390593 -0.007822 0.005425 773808.000000 1 0 0
-6.419684 6.247828 13.516009 16.215122 -0.771832 0.585305 -0.010570 0.001645 1186270.000000 1 0 0
-8.968084 5.466228 12.479509 16.310865 -0.547390 0.699593 -0.003993 -0.001025 -475050.000000 1 0 0
-12.184284 -2.145272 15.820809 20.083749 0.174283 0.663662 -0.002167 -0.000083 1538850.000000 1 0 0
-3.394884 -7.580072 17.059309 18.973739 1.149715 0.453085 0.015540 -0.003163 -2510200.000000 1 0 0
-0.508484 -5.313372 14.418309 15.374593 1.475388 0.354555 0.007636 -0.002309 2087000.000000 1 0 0
-14.196784 -2.401672 13.685609 19.864858 0.167584 0.810777 -0.000900 -0.000860 73178.100000 1 0 0
-6.522884 1.363028 12.228409 13.926229 -0.205997 0.498952 -0.003548 0.000927 1748700.000000 1 0 0
2.196116 -2.252872 14.544609 14.880995 -0.798155 0.213029 0.005487 -0.001969 691875.000000 1 0 0
-12.594184 3.990228 9.114409 16.050166 -0.306826 0.966880 -0.007980 -0.001995 -580288.000000 1 0 0
-9.074184 -3.044872 12.515409 15.755873 0.323747 0.652888 -0.005977 0.001470 2137810.000000 1 0 0
-7.091484 -7.225072 15.298009 18.344479 0.794729 0.584605 0.012707 -0.005988 -820358.000000 1 0 0
-3.254684 5.929128 19.542909 20.680252 -1.068774 0.333191 -0.001445 0.004328 233753.000000 1 0 0
0.578316 5.395828 16.232009 17.115126 1.464026 0.322641 -0.003899 0.001613 703971.000000 1 0 0
3.485516 1.413328 16.713109 17.131092 0.385227 0.221355 0.004205 -0.004590 2272920.000000 1 0 0
-11.738484 11.488328 7.910709 18.230551 -0.774628 1.121951 -0.000108 -0.010252 -458594.000000 1 0 0
0.677316 -9.479672 15.515609 18.194974 -1.499468 0.549585 -0.009592 0.007913 805101.000000 1 0 0
-2.541084 -3.686172 18.825009 19.350089 0.967250 0.233493 0.017035 -0.020459 1501460.000000 1 0 0
-12.969584 2.224428 13.673609 18.976980 -0.169858 0.766220 0.004437 -0.009119 -189731.000000 1 0 0
-5.439484 -0.626572 15.856109 16.774885 0.114684 0.332501 0.005288 -0.001697 173758.000000 1 0 0
-4.487084 -5.969172 11.675909 13.859718 0.926202 0.569010 0.005628 -0.002527 1080900.000000 1 0 0
2.322416 1.775128 13.950509 14.253470 0.652619 0.206548 0.002043 -0.004070 -499017.000000 1 0 0
0.064716 3.240028 14.262109 14.625653 1.550825 0.223429 0.005265 -0.004128 -631255.000000 1 0 0
-12.988084 7.023928 12.193009 19.149291 -0.495751 0.880541 0.002496 -0.008244 532533.000000 1 0 0
0.865616 1.248228 18.177309 18.240667 0.964462 0.083372 0.011023 -0.004452 1215570.000000 1 0 0
-2.056684 6.387728 12.424609 14.121045 -1.259304 0.495219 -0.008180 0.005164 2301220.000000 1 0 0
-13.462884 -2.769372 10.890809 17.536487 0.202874 0.900731 0.000602 -0.002212 -77735.200000 1 0 0
-2.608684 3.615328 13.440809 14.160903 -0.945745 0.320274 -0.006130 0.003348 -627494.000000 1 0 0
3.497616 6.012328 16.352209 17.770091 1.043911 0.402181 0.000056 -0.000635 1045320.000000 1 0 0
-3.702084 12.365628 12.332609 17.852379 -1.279904 0.808187 -0.005524 -0.001156 1089310.000000 1 0 0
3.872116 -1.519872 16.982509 17.484533 -0.374039 0.240212 0.019030 -0.008754 899892.000000 1 0 0
-15.796684 0.245828 9.159909 18.261971 -0.015561 1.045368 -0.000512 -0.002737 103112.000000 1 0 0
-4.704184 4.579428 15.243009 16.596681 -0.771961 0.406685 -0.006273 0.000939 941383.000000 1 0 0
-7.965384 -8.207872 10.443109 15.487900 0.800390 0.830813 0.005673 -0.006790 1871430.000000 1 0 0
-2.688884 -0.470772 14.739009 14.989667 0.173324 0.183133 0.006896 -0.003807 1582580.000000 1 0 0
-1.863184 0.987628 17.158109 17.287208 -0.487417 0.122288 0.004211 -0.003234 25314.200000 1 0 0
-0.695484 -2.435772 14.493809 14.713503 1.292668 0.173025 0.007919 -0.003524 429144.000000 1 0 0
5.126916 -8.333372 16.422509 19.116202 -1.019256 0.537310 0.007713 -0.005356 130788.000000 1 0 0
-4.470584 9.983628 10.610509 15.239483 -1.149780 0.800635 -0.004210 -0.000274 -1724990.000000 1 0 0
-6.125084 2.015728 15.278409 16.583413 -0.317930 0.399369 -0.001635 0.001156 -401300.000000 1 0 0
-5.029284 6.835028 17.333909 19.299630 -0.936439 0.455259 -0.008407 0.010006 359552.000000 1 0 0
-4.053284 9.120328 15.774709 18.666840 -1.152590 0.564108 -0.014260 0.010654 312932.000000 1 0 0
-4.447184 -10.033672 18.414009 21.436598 1.153590 0.537486 0.025983 -0.001713 -1453080.000000 1 0 0
-6.858384 -4.165972 11.045309 13.652531 0.545863 0.628296 -0.000734 -0.000553 234072.000000 1 0 0
-2.466084 -0.796272 19.486609 19.658168 0.312322 0.132211 0.009220 -0.010379 -1638730.000000 1 0 0
-5.755984 -4.575772 15.373509 17.041532 0.671660 0.446138 0.011657 -0.005465 2127190.000000 1 0 0
-12.921484 -0.039272 9.788709 16.210648 0.003039 0.922481 -0.006069 -0.000609 883295.000000 1 0 0
-14.432384 8.678928 10.352509 19.768458 -0.541412 1.019622 -0.004580 -0.011615 -997751.000000 1 0 0
-8.302584 10.510428 12.791709 18.521064 -0.902221 0.808399 -0.000881 -0.010837 -28749.200000 1 0 0
-10.469884 7.211328 10.726109 16.633434 -0.603148 0.869966 -0.000530 -0.001831 -484252.000000 1 0 0
-9.816084 -6.591672 14.771909 18.921283 0.591353 0.675006 0.002026 -0.006086 -1551420.000000 1 0 0
-0.734284 -13.512172 14.437809 19.788085 1.516507 0.753028 -0.003628 0.001470 1700930.000000 1 0 0
3.877116 -5.746172 16.898709 18.265182 -0.977232 0.389268 0.012757 -0.012349 3077580.000000 1 0 0
-7.290184 9.305328 10.335309 15.702055 -0.906234 0.852353 -0.002756 -0.003493 732555.000000 1 0 0
-10.218784 -6.760972 11.782009 16.998530 0.584502 0.804989 -0.002831 -0.005372 1094370.000000 1 0 0
-10.866084 -3.928372 10.674709 15.730649 0.346906 0.824951 -0.002668 -0.001348 -1444130.000000 1 0 0
-10.140184 -10.227372 9.856809 17.452196 0.789679 0.970619 0.010425 -0.010620 1054960.000000 1 0 0
-9.898784 -3.700172 15.212609 18.522977 0.357719 0.607140 0.005090 -0.002806 341160.000000 1 0 0
5.753616 -3.479472 16.071809 17.421649 -0.543901 0.396238 0.010727 -0.005910 187666.000000 1 0 0
-11.169784 0.536928 15.168909 18.845375 -0.048033 0.635266 0.000423 -0.008343 -582043.000000 1 0 0
-3.098984 3.154228 18.687109 19.203148 -0.794232 0.232353 -0.003150 0.000707 -274767.000000 1 0 0
0.472016 7.293028 13.982209 15.776984 1.506165 0.481630 -0.008527 -0.000378 949047.000000 1 0 0
-13.021684 -7.427672 12.162409 19.304372 0.518376 0.889199 -0.013852 -0.002765 -211206.000000 1 0 0
-1.552184 -1.146372 12.131009 12.283518 0.636136 0.157744 0.005824 -0.004034 1167860.000000 1 0 0
2.025316 -4.915272 13.145209 14.179504 -1.179949 0.384311 0.001632 -0.002465 2576540.000000 1 0 0
-14.652384 -4.111772 8.504409 17.433416 0.273585 1.061203 0.003310 -0.009149 -576143.000000 1 0 0
8.064116 0.887228 16.063509 17.995929 0.109581 0.467675 0.004998 0.001541 -1017160.000000 1 0 0
-1.317584 11.298428 13.401509 17.578138 -1.454704 0.703788 -0.015048 0.005159 834705.000000 1 0 0
2.883016 -12.120972 -13.822291 18.608747 -1.337282 2.408016 -0.009668 0.003728 -323452.000000 1 0 0
0.829316 -10.586672 -14.003491 17.574503 -1.492620 2.492789 -0.010034 0.006485 -2593780.000000 1 0 0
3.389616 -14.189472 -12.479991 19.198458 -1.336308 2.278449 -0.007142 0.001022 -825410.000000 1 0 0
-5.050784 -10.257872 -16.148191 19.786319 1.113262 2.525477 0.005695 -0.014334 -512352.000000 1 0 0
-1.126684 -12.095772 -14.906891 19.229990 1.477917 2.457812 -0.003441 -0.006073 87444.300000 1 0 0
5.846616 -14.853872 -11.974491 19.955172 -1.195812 2.214384 -0.013629 0.001205 228928.000000 1 0 0
1.893516 -11.884072 -16.113391 20.111140 -1.412792 2.500123 -0.008325 0.006131 -478759.000000 1 0 0
1.306016 -14.198072 -13.921591 19.927409 -1.479069 2.344257 -0.002729 0.000455 -702680.000000 1 0 0
-1.137184 -10.697872 -15.844291 19.151481 1.464894 2.545106 -0.001305 -0.003210 -529365.000000 1 0 0
-6.153084 -5.787772 -15.073791 17.279408 0.754814 2.630797 0.013580 -0.003177 11666.300000 1 0 0
-6.218984 -7.646272 -16.815791 19.491333 0.887977 2.611444 0.005063 0.004562 9971.100000 1 0 0
5.001516 -12.391572 -11.383691 17.554334 -1.187171 2.276387 -0.009942 0.001586 11203.400000 1 0 0
-1.828484 -15.332172 -13.176491 20.298738 1.452099 2.277235 0.006785 -0.006815 69464.700000 1 0 0
15.577216 -7.314372 -8.797091 19.327144 -0.438997 2.043357 0.002087 -0.004941 -243053.000000 1 0 0
19.140416 -3.712972 -4.367191 19.980341 -0.191606 1.791150 0.025484 -0.013468 206111.000000 1 0 0
14.880516 -11.551172 -8.766491 20.777649 -0.660098 2.006358 0.013660 -0.013715 288134.000000 1 0 0
17.721216 -3.577772 -6.476691 19.203892 -0.199214 1.914800 0.032830 -0.007121 385899.000000 1 0 0
9.434416 -8.912972 -15.402191 20.141419 -0.756985 2.441376 0.025658 -0.016342 67566.800000 1 0 0
1.333416 1.904628 -15.179691 15.356713 0.960008 2.989609 0.010267 -0.007860 -320597.000000 1 0 0
4.842216 -4.340572 -13.904291 15.349819 -0.730824 2.704126 -0.002158 -0.001664 1126120.000000 1 0 0
13.146416 -5.510872 -8.688791 16.694102 -0.396941 2.118198 0.013330 -0.005053 -2395760.000000 1 0 0
2.987516 0.997228 -12.262891 12.660893 0.322169 2.890190 0.000752 -0.003010 -2524020.000000 1 0 0
0.650216 6.339728 -12.811191 14.308792 1.468592 2.679984 0.008795 -0.006315 578160.000000 1 0 0
3.165016 -1.139872 -16.895891 17.227529 -0.345686 2.945060 0.010139 -0.007401 -343379.000000 1 0 0
13.254916 4.509428 -11.492991 18.113988 0.327925 2.258134 -0.008528 0.004602 845549.000000 1 0 0
-3.829784 9.305028 -16.535391 19.356393 -1.180345 2.594922 -0.004157 -0.001088 -87011.800000 1 0 0
-0.125984 -4.963972 -17.643791 18.329219 1.545422 2.867254 0.003391 -0.004385 248216.000000 1 0 0
-0.515284 -8.575872 -17.524191 19.516874 1.510783 2.685771 0.001684 -0.002406 -1599400.000000 1 0 0
5.601816 -10.052472 -12.261591 16.816039 -1.062398 2.387891 -0.004527 0.001807 396636.000000 1 0 0
1.736016 -9.753772 -17.943491 20.496797 -1.394657 2.637119 -0.002624 -0.006302 -451728.000000 1 0 0
11.051716 9.067328 -14.655391 20.472844 0.687084 2.368630 0.013007 -0.005268 -727955.000000 1 0 0
10.966316 -3.772972 -12.863891 17.319789 -0.331365 2.407932 0.011771 -0.005603 343448.000000 1 0 0
5.092416 7.334828 -12.485591 15.349996 0.963920 2.520759 -0.003148 0.003451 -575272.000000 1 0 0
9.562816 -5.852072 -12.616791 16.878318 -0.549168 2.415109 0.008523 -0.007528 -1366320.000000 1 0 0
-3.331984 0.253328 -15.894891 16.242348 -0.075883 2.934379 0.012464 -0.004254 -1267980.000000 1 0 0
-0.710684 10.627328 -12.894691 16.724779 -1.504022 2.451196 -0.007874 0.003315 -2317350.000000 1 0 0
6.634416 -5.388872 -12.359891 15.027386 -0.682172 2.536573 -0.003612 -0.002834 -206988.000000 1 0 0
17.738916 -6.173672 -8.186991 20.489270 -0.334919 1.981849 0.016705 -0.008099 -475579.000000 1 0 0
13.284916 4.845828 -14.043991 19.929995 0.349765 2.352749 -0.002258 0.003089 341841.000000 1 0 0
14.208116 0.894028 -11.490291 18.294716 0.062841 2.249862 0.002636 0.004949 -305122.000000 1 0 0
15.208316 6.224328 -11.160291 19.864220 0.388473 2.167391 0.005280 -0.002548 635088.000000 1 0 0
8.289216 1.549528 -11.525091 14.280751 0.184800 2.509913 -0.008292 0.007748 549532.000000 1 0 0
9.920716 1.333428 -8.903691 13.396804 0.133608 2.297772 -0.002779 0.005221 -205267.000000 1 0 0
-0.069284 -5.699072 -12.928591 14.129143 1.558640 2.726379 -0.005879 -0.002692 166215.000000 1 0 0
10.604916 -5.697172 -8.884691 14.961943 -0.492978 2.206594 0.005233 -0.006239 -919238.000000 1 0 0
10.209216 8.663928 -11.206691 17.460861 0.703703 2.267663 -0.003979 -0.003360 643378.000000 1 0 0
8.544916 8.131828 -14.653391 18.811275 0.760633 2.463815 0.007870 0.001496 555708.000000 1 0 0
8.665016 10.700128 -10.777291 17.485000 0.890105 2.234925 0.002503 -0.003261 -877798.000000 1 0 0
7.069716 1.795228 -17.961091 19.385678 0.248676 2.755834 0.012058 0.002618 -2272250.000000 1 0 0
12.245616 2.732628 -12.966891 18.043354 0.219554 2.372658 -0.001908 0.004562 -943786.000000 1 0 0
2.729716 -0.974772 -19.445691 19.660530 -0.342983 2.993624 0.020845 -0.011600 -470942.000000 1 0 0
10.309516 -2.068372 -15.650491 18.854765 -0.197999 2.550003 0.013555 -0.003447 707590.000000 1 0 0
8.283216 -0.708772 -13.002491 15.433042 -0.085359 2.572722 0.000273 0.001571 1000830.000000 1 0 0
0.670616 4.378128 -14.591891 15.249295 1.418804 2.846893 0.008161 -0.005467 -717445.000000 1 0 0
3.996316 -7.464872 -15.667991 17.809570 -1.079271 2.646135 0.001026 -0.005901 -86948.800000 1 0 0
11.466716 -5.795872 -14.445891 19.332912 -0.468000 2.414662 0.016432 -0.008363 -949727.000000 1 0 0
-5.778184 4.341328 -16.768291 18.259521 -0.644352 2.734640 0.003011 -0.003125 -223566.000000 1 0 0
11.441316 7.927528 -9.019491 16.586158 0.605936 2.145750 -0.002611 -0.002593 -1526610.000000 1 0 0
9.578116 6.187928 -13.399891 17.595108 0.573592 2.436527 0.004974 0.004130 -857301.000000 1 0 0
12.044016 0.713328 -10.133091 15.755846 0.059158 2.269378 0.000068 0.007473 -1434660.000000 1 0 0
5.486416 -7.222172 -13.739791 16.463365 -0.921140 2.558144 -0.000575 -0.003490 -943465.000000 1 0 0
8.485516 -10.044572 -10.741091 16.978470 -0.869337 2.255741 0.003764 -0.005230 -389030.000000 1 0 0
10.195316 5.000628 -16.174391 19.762633 0.456005 2.529475 0.013885 0.010937 243319.000000 1 0 0
9.955216 -0.390372 -10.977691 14.824588 -0.039193 2.404619 -0.001286 0.005285 -50829.200000 1 0 0
-1.582984 5.466028 -13.976491 15.090580 -1.288904 2.754931 0.001524 -0.004759 645675.000000 1 0 0
1.410916 -0.677872 -14.934791 15.016597 -0.447884 3.037164 0.007749 -0.006733 -92596.500000 1 0 0
11.407416 -10.287972 -14.386191 21.045997 -0.733846 2.323425 0.019289 -0.009330 -283490.000000 1 0 0
9.360816 -7.644272 -10.718091 16.153552 -0.684796 2.296301 0.008417 -0.007361 -602795.000000 1 0 0
13.952416 -0.990572 -9.730491 17.039178 -0.070878 2.178600 -0.001294 0.008472 840218.000000 1 0 0
4.046916 11.109428 -12.348291 17.096117 1.221459 2.377899 0.000079 -0.004459 -1129820.000000 1 0 0
-1.211684 2.783828 -17.014091 17.282858 -1.160269 2.965005 0.005189 -0.006219 924961.000000 1 0 0
6.045416 -0.553472 -17.620591 18.637023 -0.091298 2.809805 0.003223 -0.003789 -20451.600000 1 0 0
6.480716 -6.499072 -16.102891 18.534851 -0.786812 2.623550 0.011458 -0.002551 422756.000000 1 0 0
-1.752984 -5.231972 -19.649591 20.409628 1.247500 2.867831 0.013709 -0.018597 -141886.000000 1 0 0
-0.079284 -4.282072 -15.089291 15.685316 1.552283 2.865035 -0.000607 -0.004075 -604443.000000 1 0 0
0.477616 0.773928 -12.928091 12.960039 1.017875 3.071362 0.006269 -0.007928 803705.000000 1 0 0
15.552316 0.564928 -13.591791 20.662295 0.036308 2.288699 -0.009786 0.000978 465007.000000 1 0 0
0.054216 7.049528 -16.455391 17.901918 1.563106 2.736833 0.003800 0.005763 -941400.000000 1 0 0
-5.027284 -0.489572 -18.125391 18.816032 0.097077 2.869814 0.005409 -0.004331 -294893.000000 1 0 0
10.410716 -8.286672 -13.076191 18.655796 -0.672282 2.347481 0.016412 -0.013634 1029990.000000 1 0 0
4.230916 8.352128 -17.480191 19.829669 1.101909 2.649862 0.005419 -0.003125 -122470.000000 1 0 0
9.186716 0.396728 -17.316491 19.606479 0.043158 2.653444 0.007875 0.008754 -237682.000000 1 0 0
3.182616 4.906528 -18.620191 19.517033 0.995371 2.837264 0.013120 -0.000833 -556157.000000 1 0 0
1.442616 -8.093272 -15.872991 17.875515 -1.394400 2.663717 -0.009765 -0.001755 -857955.000000 1 0 0
4.535216 7.803228 -15.017991 17.521375 1.044317 2.600456 0.002327 0.004317 935110.000000 1 0 0
-5.700684 -0.419972 -15.216391 16.254622 0.073538 2.782247 -0.001346 -0.003690 -1071250.000000 1 0 0
3.052716 3.377928 -13.941691 14.666295 0.835927 2.825940 0.003513 0.001189 -1341740.000000 1 0 0
-2.285484 -10.350672 -18.179391 21.044004 1.353478 2.613709 0.003149 -0.001458 220219.000000 1 0 0
6.131316 -9.078772 -15.432991 18.926023 -0.976809 2.524281 0.000221 -0.004396 136821.000000 1 0 0
-1.761884 5.357728 -17.212791 18.113245 -1.253087 2.824954 0.002367 -0.006140 125172.000000 1 0 0
10.058616 -11.954472 -11.506491 19.403208 -0.871310 2.205601 0.017194 -0.013193 -249168.000000 1 0 0
10.951516 3.684828 -9.239291 14.794531 0.324569 2.245297 -0.005790 0.003722 -1282330.000000 1 0 0
4.905816 -0.388372 -10.940791 11.996615 -0.079001 2.718905 -0.001774 -0.001922 -98438.000000 1 0 0
6.380816 9.528628 -11.497891 16.239183 0.980733 2.357506 -0.003329 -0.004463 193320.000000 1 0 0
10.612516 -9.529172 -9.393691 17.078409 -0.731664 2.153200 0.010304 -0.009889 -2354420.000000 1 0 0
3.224116 -2.349372 -14.469891 15.009737 -0.629721 2.872579 0.002085 -0.005175 -443859.000000 1 0 0
9.304716 -4.501772 -14.824791 18.072579 -0.450617 2.532718 0.017211 -0.004358 -76495.800000 1 0 0
-3.951084 -6.491772 -16.543091 18.205165 1.024056 2.710963 -0.006689 -0.003470 -672362.000000 1 0 0
5.887616 -7.689772 -11.153091 14.771190 -0.917359 2.426537 -0.007698 0.000625 325620.000000 1 0 0
5.517416 6.220428 -16.884191 18.820508 0.845219 2.683996 0.006414 -0.008027 -474947.000000 1 0 0
8.927916 1.577928 -19.659391 21.649231 0.174934 2.709490 0.008791 0.003839 481138.000000 1 0 0
13.080316 5.865228 -9.459291 17.174800 0.421523 2.154078 -0.007107 0.002047 756036.000000 1 0 0
-1.505584 -0.806872 -17.240691 17.325105 0.491969 3.042837 0.012494 -0.009456 922574.000000 1 0 0
-0.423984 -0.544772 -19.634191 19.646323 0.909442 3.106448 0.020685 -0.013186 -317574.000000 1 0 0
2.805516 6.413328 -16.545991 17.965843 1.158427 2.741357 0.004621 0.000204 -509909.000000 1 0 0
7.914216 3.681928 -15.572091 17.851650 0.435446 2.630694 0.009807 -0.000859 467735.000000 1 0 0
3.063416 -9.803172 -15.004791 18.183247 -1.267918 2.541350 -0.006485 0.004814 117184.000000 1 0 0
8.975416 -10.381872 -13.326991 19.129821 -0.857928 2.341528 0.017543 -0.008349 -110867.000000 1 0 0
3.894216 0.107028 -14.883591 15.384981 0.027477 2.885592 0.000984 -0.004873 -2787160.000000 1 0 0
-1.188784 -2.853772 -18.824991 19.077146 1.176091 2.978824 0.020535 -0.009780 535897.000000 1 0 0
9.251616 10.232628 -13.188791 19.085158 0.835705 2.333736 0.005420 -0.005592 159794.000000 1 0 0
4.680116 2.199628 -10.648091 11.837385 0.439356 2.689490 -0.003059 0.001725 151602.000000 1 0 0
-0.431184 7.013228 -18.893391 20.157666 -1.509392 2.785542 0.016762 0.000046 -67361.500000 1 0 0
0.907316 -1.832972 -17.735191 17.852731 -1.111159 3.026779 0.021466 -0.010478 -3114360.000000 1 0 0
-4.459684 -2.240372 -14.087091 14.945039 0.465535 2.801109 0.007617 -0.007502 -2246920.000000 1 0 0
10.022316 6.133528 -10.334891 15.648545 0.549187 2.292198 -0.003872 0.002580 89.369900 1 0 0
8.114716 5.132528 -17.752391 20.182637 0.563972 2.645790 0.004718 0.001133 -494710.000000 1 0 0
11.393716 0.405628 -13.728491 17.845245 0.035586 2.448554 0.000955 0.011126 724740.000000 1 0 0
6.707516 12.122028 -11.761991 18.173573 1.065398 2.274706 0.004213 -0.007187 -227463.000000 1 0 0
-0.881484 0.641828 -15.147791 15.186986 -0.629351 3.069733 0.009679 -0.008899 -794204.000000 1 0 0
-4.285484 -2.777372 -19.030191 19.703485 0.575030 2.879418 -0.000579 -0.004714 -568306.000000 1 0 0
5.857516 -12.054972 -13.902791 19.311148 -1.118492 2.374506 -0.003180 -0.000947 -200559.000000 1 0 0
2.150916 -4.747972 -14.156891 15.085995 -1.145436 2.788804 -0.001414 -0.000425 -107630.000000 1 0 0
11.685416 2.114528 -15.549591 19.565530 0.179017 2.489382 0.005430 0.007765 476149.000000 1 0 0
9.735816 2.392028 -13.693291 16.970979 0.240921 2.509622 0.003304 0.002943 -133752.000000 1 0 0
-2.233784 -4.114072 -16.409591 17.064292 1.073373 2.863691 -0.002043 -0.004777 -777239.000000 1 0 0
-2.862184 10.094628 -14.288791 17.727469 -1.294512 2.508202 -0.000389 0.000606 26157.600000 1 0 0
3.620316 5.715428 -13.763891 15.336802 1.006159 2.684733 -0.002605 0.004027 -69562.300000 1 0 0
-5.093784 -2.611372 -16.596991 17.556367 0.473723 2.809477 0.004455 -0.003019 554508.000000 1 0 0
-4.228884 6.181628 -13.545391 15.478165 -0.970818 2.636499 -0.003265 -0.003588 -1539680.000000 1 0 0
5.888916 -1.186172 -14.102791 15.328896 -0.198765 2.738911 0.001912 0.001689 -1423630.000000 1 0 0
6.757416 -2.910372 -12.581291 14.574698 -0.406683 2.612426 -0.002675 -0.003743 1616230.000000 1 0 0
3.038616 -3.261872 -18.413391 18.945342 -0.820818 2.904061 0.010174 -0.010786 -772471.000000 1 0 0
7.456416 -11.990272 -12.112391 18.603085 -1.014449 2.279824 -0.000955 0.001494 -771507.000000 1 0 0
-6.020584 -5.372472 -17.643491 19.401125 0.728573 2.712649 0.017413 -0.003632 164892.000000 1 0 0
0.658516 8.767728 -11.881591 14.781032 1.495830 2.504520 -0.000319 0.000217 -337998.000000 1 0 0
0.564616 8.486328 -14.428091 16.748324 1.504362 2.608943 0.002732 -0.000385 481541.000000 1 0 0
7.820116 -2.410972 -14.979191 17.068777 -0.299058 2.641584 0.008562 -0.012591 -508625.000000 1 0 0
14.197316 1.607428 -8.977791 16.874488 0.112740 2.131797 -0.009313 0.005958 153668.000000 1 0 0
2.912416 10.984128 -14.708191 18.586665 1.311613 2.483778 0.004419 0.008537 -847484.000000 1 0 0
6.198716 1.048628 -15.596691 16.816078 0.167582 2.758430 0.004460 -0.000518 851784.000000 1 0 0
16.526616 -5.511472 -10.391291 20.285076 -0.321892 2.108614 0.026851 -0.010081 476758.000000 1 0 0
4.830816 -4.135072 -11.214691 12.892048 -0.707954 2.625780 -0.006236 0.000537 503118.000000 1 0 0
8.626716 -3.459172 -17.128191 19.487458 -0.381354 2.644419 0.000048 -0.011408 553035.000000 1 0 0
13.173416 -9.541272 -8.813491 18.500065 -0.626838 2.067356 0.007786 -0.013107 376083.000000 1 0 0
2.339316 -7.687272 -13.566391 15.767483 -1.275390 2.606856 -0.008788 0.001325 307169.000000 1 0 0
-6.831384 -2.476572 -18.637291 20.003746 0.347792 2.769834 -0.003452 0.002083 -711013.000000 1 0 0
-1.440684 -6.488872 -15.859891 17.196429 1.352316 2.744730 -0.003521 0.000950 11604.200000 1 0 0
1.458616 -7.233872 -18.342391 19.771185 -1.371827 2.759090 0.004448 -0.004787 -191642.000000 1 0 0
5.401016 10.954328 -14.568591 19.010842 1.112725 2.443906 0.002515 -0.008560 -222354.000000 1 0 0
5.433916 -3.367772 -17.329191 18.470793 -0.554829 2.788172 0.013713 -0.012333 -1690550.000000 1 0 0
3.985516 13.174128 -13.922991 19.577836 1.277024 2.361944 -0.001008 -0.005606 -163076.000000 1 0 0
9.121116 10.353728 -15.691691 20.895540 0.848606 2.420309 0.001454 -0.013596 202971.000000 1 0 0
2.414116 3.807128 -16.355891 16.965770 1.005677 2.872650 0.009637 -0.001040 340981.000000 1 0 0
16.643616 1.812528 -11.569491 20.350635 0.108475 2.175487 -0.004463 0.006464 -835982.000000 1 0 0
9.956616 -3.683972 -10.469791 14.910479 -0.354382 2.349246 0.005056 -0.001568 -402289.000000 1 0 0
14.429516 -2.126572 -11.992491 18.882613 -0.146323 2.258944 0.002906 0.002091 183163.000000 1 0 0
-2.707684 -8.696272 -16.126491 18.520810 1.268949 2.627466 -0.004388 0.002103 -478041.000000 1 0 0
14.031916 8.176728 -8.952291 18.544462 0.527619 2.074586 0.016274 -0.001786 -153119.000000 1 0 0
-8.171784 0.117528 -16.608791 18.510640 -0.014381 2.684312 -0.008299 -0.000614 -849421.000000 1 0 0
-3.357084 3.843028 -15.937991 16.734946 -0.852787 2.831738 0.004235 -0.003171 47735.100000 1 0 0
15.027216 4.042528 -9.687791 18.330645 0.262792 2.127632 -0.000704 0.004602 395413.000000 1 0 0
5.356216 1.142328 -13.045691 14.148640 0.210123 2.744129 -0.000352 0.003496 461360.000000 1 0 0
7.843716 -7.626372 -12.745691 16.796966 -0.771350 2.432279 0.008433 -0.006946 -3903330.000000 1 0 0
3.154616 -6.000072 -11.830391 13.634904 -1.086751 2.621262 -0.007718 -0.000234 -827274.000000 1 0 0
-3.230084 3.602128 -18.556091 19.176477 -0.839799 2.886534 0.004371 -0.000278 -154456.000000 1 0 0
0.778316 5.033228 -17.788491 18.503231 1.417376 2.862741 0.013205 -0.008990 -1186380.000000 1 0 0
6.397816 7.190028 -10.263291 14.069957 0.843635 2.388310 -0.006081 0.002470 361112.000000 1 0 0
9.770816 3.780528 -11.558991 15.600369 0.369180 2.405270 -0.001582 0.006087 611455.000000 1 0 0
4.591116 1.643428 -17.662091 18.322900 0.343747 2.872210 0.010884 -0.000163 -12625.400000 1 0 0
2.668116 8.040128 -13.141091 15.634921 1.250381 2.568995 -0.001184 -0.001641 -2092050.000000 1 0 0
14.326116 -3.490872 -9.787291 17.697877 -0.239014 2.156782 0.011238 -0.000318 172136.000000 1 0 0
-1.182384 9.299928 -16.074391 18.608405 -1.444336 2.613608 0.003506 0.001547 -1586950.000000 1 0 0
-5.183084 2.022128 -15.722491 16.677832 -0.371977 2.801482 0.003160 -0.004541 357286.000000 1 0 0
4.528416 4.335428 -11.986891 13.527307 0.763629 2.659713 -0.000168 0.002827 601713.000000 1 0 0
9.407016 2.984728 -17.585391 20.165479 0.307240 2.630180 0.008242 0.002786 438938.000000 1 0 0
-4.146684 14.372528 -13.194691 19.946539 -1.289910 2.293617 0.001175 -0.005672 -191574.000000 1 0 0
15.493316 -4.852972 -7.981391 18.091345 -0.303550 2.027700 0.017080 -0.007872 1536800.000000 1 0 0
1.248016 9.310528 -16.844991 19.287229 1.437547 2.632886 0.007857 0.009128 -457299.000000 1 0 0
0.634816 -3.186572 -12.846991 13.251506 -1.374155 2.893873 0.001872 -0.004728 -51222.300000 1 0 0
7.611416 3.652128 -12.995291 15.496751 0.447376 2.565471 0.001176 0.006656 336927.000000 1 0 0
-2.783184 7.514128 -15.032291 17.034612 -1.216070 2.651854 -0.005680 0.001795 449262.000000 1 0 0
12.061116 -5.155372 -11.031591 17.138973 -0.403933 2.270061 0.015649 -0.006545 -778949.000000 1 0 0
0.705516 -4.473072 -20.023391 20.529060 -1.414360 2.919180 0.019480 -0.011069 133426.000000 1 0 0
3.409016 -4.387672 -16.190691 17.117580 -0.910267 2.811005 0.006228 -0.007554 92490.400000 1 0 0
-5.624984 4.083028 -14.333491 15.929863 -0.627881 2.690079 -0.000348 -0.004150 888937.000000 1 0 0
12.193116 -7.540472 -9.814291 17.373863 -0.553854 2.171094 0.009168 -0.006698 287479.000000 1 0 0
-1.904584 -1.793672 -14.864491 15.092972 0.755417 2.967371 0.008420 -0.005238 456966.000000 1 0 0
7.187516 5.917528 -14.392691 17.141385 0.688791 2.567427 0.006914 0.005743 37267.300000 1 0 0
4.343716 -5.448572 -18.296191 19.578187 -0.897752 2.777702 0.016636 -0.015313 127483.000000 1 0 0
7.703816 7.443728 -12.224291 16.253958 0.768230 2.422010 -0.002435 0.000214 -459168.000000 1 0 0
12.174516 -2.556772 -10.784991 16.464263 -0.207002 2.285051 0.008289 -0.003292 -1367330.000000 1 0 0
7.484816 -0.733972 -10.601191 12.997940 -0.097749 2.524571 -0.003515 0.003525 -1156820.000000 1 0 0
5.543416 3.970828 -14.444591 15.973201 0.621591 2.700537 -0.002069 0.005250 -343414.000000 1 0 0
14.840916 3.009128 -12.975791 19.941885 0.200047 2.279276 -0.006219 -0.001564 321039.000000 1 0 0
-6.451884 6.661228 -15.720591 18.252007 -0.801361 2.608634 0.000672 0.000651 568609.000000 1 0 0
-11.248184 3.688828 -16.440891 20.259121 -0.316897 2.517563 0.031410 -0.009786 -1201.340000 1 0 0
-4.858884 6.608628 -17.743691 19.547923 -0.936813 2.708571 0.000809 0.002673 -352069.000000 1 0 0
-9.996184 1.499028 -15.614291 18.600453 -0.148851 2.567081 0.012589 -0.004321 -788219.000000 1 0 0
-7.465684 5.860828 -17.880591 20.243549 -0.665549 2.653595 -0.004934 0.002414 156166.000000 1 0 0
-8.676684 3.833928 -15.715791 18.356741 -0.416069 2.598534 -0.005754 0.004868 774312.000000 1 0 0
8.969316 13.521228 -11.962591 20.158765 0.985093 2.206096 0.010059 -0.009474 -69412.700000 1 0 0
13.726016 9.065228 -11.494691 20.067630 0.583680 2.180711 0.002531 -0.005964 333630.000000 1 0 0
8.513316 15.786628 -9.089691 20.107627 1.076225 2.039861 0.020556 -0.007493 108155.000000 1 0 0
7.175016 13.503028 -13.926791 20.682556 1.082374 2.309540 0.001657 -0.008762 -154837.000000 1 0 0
4.563916 16.025328 -12.374491 20.754963 1.293348 2.209579 0.009426 -0.008597 308525.000000 1 0 0
11.126416 11.111028 -11.749191 19.628947 0.784706 2.212504 0.009579 -0.004449 320965.000000 1 0 0
15.713216 9.827628 -10.018391 21.067880 0.558914 2.066362 0.031448 0.005251 1039430.000000 1 0 0
13.264716 10.579728 -9.400391 19.397182 0.673266 2.076733 0.038846 -0.007178 -226492.000000 1 0 0
10.432716 11.766328 -8.359091 17.809055 0.845401 2.059377 0.015172 0.000269 207457.000000 1 0 0
5.503516 16.191128 -9.934691 19.777244 1.243139 2.097087 -0.003010 -0.007356 25398.200000 1 0 0
6.721716 14.762128 -11.666991 19.980504 1.143515 2.194344 0.006828 0.009177 -1196060.000000 1 0 0
10.836016 13.832128 -9.822391 20.130235 0.906263 2.080527 0.029618 0.000247 -406808.000000 1 0 0
8.152416 -18.755772 -1.286191 20.491344 -1.160771 1.633605 0.020819 0.004965 -284296.000000 1 0 0
7.314916 -17.327572 -3.352891 19.104833 -1.171338 1.747210 0.018884 -0.002661 -528705.000000 1 0 0
4.436416 -18.377872 5.670509 19.737848 -1.333928 1.279399 0.034155 -0.005596 435687.000000 1 0 0
9.720816 -17.109972 -2.531591 19.840725 -1.054135 1.698741 0.012966 -0.001668 -1045630.000000 1 0 0
-9.488884 -12.235172 -9.918391 18.387845 0.911148 2.140520 0.026327 -0.012906 -671645.000000 1 0 0
-5.052084 -6.881772 -12.071791 14.785482 0.937533 2.526054 0.004625 -0.003146 406731.000000 1 0 0
-10.840284 -9.395572 -5.622691 15.407894 0.714125 1.944346 0.018542 -0.003973 229989.000000 1 0 0
-4.527084 -11.423772 -14.020391 18.643187 1.193496 2.421945 0.011614 -0.010726 562985.000000 1 0 0
-3.030684 -15.412972 7.484409 17.400033 1.376641 1.126151 0.005596 -0.006585 299211.000000 1 0 0
-4.683784 -11.808172 -11.501891 17.136635 1.193176 2.306606 0.005715 -0.006987 -233668.000000 1 0 0
-14.462684 -12.701172 -4.353291 19.734238 0.720641 1.793222 0.016135 -0.001991 -178591.000000 1 0 0
-3.291584 -12.247672 -3.330291 13.112240 1.308248 1.827593 0.001433 -0.000602 936185.000000 1 0 0
-2.485784 -17.361672 -1.555491 17.607565 1.428586 1.659254 -0.003560 -0.005412 -564545.000000 1 0 0
-5.783384 -12.088372 3.857709 13.944827 1.124557 1.290500 -0.000657 0.000172 786688.000000 1 0 0
-8.758684 -10.673272 -11.934091 18.249817 0.883609 2.283563 0.019544 -0.006485 320629.000000 1 0 0
-9.871484 -12.004972 -7.382891 17.206761 0.882615 2.014258 0.022855 -0.011961 -116014.000000 1 0 0
-10.938784 -15.154472 6.281309 19.717248 0.945576 1.246577 0.008180 -0.006738 -305159.000000 1 0 0
-9.460084 -15.674672 0.579109 18.317312 1.027788 1.539176 0.012074 0.005875 -779431.000000 1 0 0
-14.914184 -7.788872 -8.246291 18.737682 0.481286 2.026497 0.006513 -0.001097 43836.500000 1 0 0
-2.463784 -16.551372 5.193909 17.521268 1.423025 1.269839 0.006423 -0.005476 -123020.000000 1 0 0
4.191716 -15.772272 5.765309 17.308202 -1.311036 1.231210 0.021396 -0.011930 -450080.000000 1 0 0
4.126016 -14.574972 -10.105991 18.209472 -1.294925 2.159142 -0.007823 0.002157 -43439.900000 1 0 0
-7.464384 -14.044672 -0.239791 15.906833 1.082287 1.585872 0.001152 0.003873 1016590.000000 1 0 0
2.963316 -14.803972 9.552709 17.865976 -1.373237 1.006659 0.015461 -0.015662 -174442.000000 1 0 0
2.548816 -17.301272 10.369609 20.331239 -1.424529 1.035573 0.031020 -0.011020 -133055.000000 1 0 0
-8.257384 -17.148372 -5.643391 19.851925 1.122037 1.859046 0.020146 -0.005915 -82704.100000 1 0 0
-6.379784 -9.070872 -7.645791 13.469985 0.957841 2.174405 0.009350 -0.008021 456962.000000 1 0 0
-6.252384 -12.995072 -4.886791 15.226455 1.122354 1.897519 -0.002744 -0.005487 496945.000000 1 0 0
2.043016 -19.550672 -4.865291 20.250278 -1.466676 1.813428 0.006246 -0.001681 43641.000000 1 0 0
-5.722284 -12.901572 8.469609 16.459933 1.153333 1.030303 0.009729 -0.005623 935946.000000 1 0 0
2.068916 -17.559072 3.478909 18.019552 -1.453511 1.376513 0.011156 -0.010584 403835.000000 1 0 0
-17.805184 -10.133672 -2.399991 20.627066 0.517420 1.687412 0.015209 -0.000243 809138.000000 1 0 0
-3.604484 -15.529072 2.687409 16.166835 1.342723 1.403791 -0.002453 0.000369 -11807.900000 1 0 0
-10.004384 -10.344472 -14.138891 20.174341 0.802109 2.347364 0.017852 -0.012514 -104319.000000 1 0 0
5.918416 -14.642472 -5.724891 16.798929 -1.186679 1.918552 -0.007525 -0.002051 568439.000000 1 0 0
-7.101084 -12.189072 -10.794691 17.763002 1.043286 2.223966 0.006992 -0.011707 -3475540.000000 1 0 0
-7.027384 -14.347972 4.159209 16.509011 1.115356 1.316116 -0.001084 0.005075 426666.000000 1 0 0
3.254916 -15.116472 -3.155891 15.781694 -1.358712 1.772125 0.003431 -0.002551 -933416.000000 1 0 0
-7.726284 -11.345572 7.804409 15.790069 0.972939 1.053812 0.006298 -0.012741 -2153420.000000 1 0 0
-12.750184 -12.303072 -1.062991 17.750007 0.767554 1.630719 0.008783 0.005208 -2474940.000000 1 0 0
-1.909184 -13.657672 3.974509 14.351784 1.431908 1.290194 -0.004345 0.000994 -2931700.000000 1 0 0
-3.188384 -13.891372 5.336109 15.218741 1.345181 1.212555 -0.003851 -0.000571 315858.000000 1 0 0
-14.425084 -10.199672 -4.500591 18.231064 0.615461 1.820239 0.003994 -0.003420 526646.000000 1 0 0
-6.137984 -8.533272 -10.377491 14.771050 0.947234 2.349779 0.007328 -0.006821 435205.000000 1 0 0
0.729116 -19.610672 2.562209 19.790780 -1.533634 1.440967 0.011135 -0.008596 329652.000000 1 0 0
6.297216 -14.062072 -8.316191 17.508736 -1.149760 2.065731 -0.008830 -0.001972 -3024840.000000 1 0 0
-4.086184 -16.716272 -5.926391 18.200351 1.331054 1.902463 -0.000671 -0.003202 -26861.800000 1 0 0
-3.638184 -13.647472 -13.142991 19.293214 1.310272 2.320229 0.012132 -0.004978 -2281890.000000 1 0 0
-8.293984 -14.692972 -4.594891 17.486756 1.056899 1.836682 0.008772 -0.005053 -1655260.000000 1 0 0
-4.670884 -14.384872 10.227809 18.257869 1.256828 0.976186 0.011326 -0.004682 -215181.000000 1 0 0
-0.306984 -12.038872 -9.918091 15.601193 1.545302 2.259746 0.001310 -0.001534 662661.000000 1 0 0
2.297116 -17.370472 6.850009 18.813098 -1.439317 1.198121 0.022435 -0.009358 -1843710.000000 1 0 0
-3.003084 -19.089372 -3.448291 19.629400 1.414758 1.747382 -0.000938 -0.007277 -718591.000000 1 0 0
0.614416 -15.436972 -3.187791 15.774652 -1.531016 1.774281 0.005412 -0.001962 311563.000000 1 0 0
5.899016 -17.934072 0.506509 18.886130 -1.253016 1.543974 0.015710 -0.008380 -481367.000000 1 0 0
-7.102584 -16.813672 3.962909 18.677551 1.171105 1.356996 0.004705 0.007611 441428.000000 1 0 0
-5.137984 -13.419772 -9.610891 17.287521 1.205147 2.160294 -0.000377 -0.006467 19848.500000 1 0 0
5.607216 -15.287372 -2.157891 16.425624 -1.219245 1.702551 0.005986 0.001042 -795292.000000 1 0 0
-8.854684 -10.288172 -0.513991 13.583671 0.860142 1.608644 0.003086 0.003287 109878.000000 1 0 0
-7.400684 -18.243672 -3.068991 19.925371 1.185422 1.725436 0.007558 -0.008145 416077.000000 1 0 0
7.786016 -16.135272 -1.075291 17.947850 -1.121209 1.630744 0.010588 -0.000786 -288850.000000 1 0 0
-8.039284 -10.078872 -9.499691 16.014303 0.897498 2.205825 0.015307 -0.008492 427949.000000 1 0 0
-9.090784 -15.243372 -7.093291 19.113282 1.033046 1.951010 0.024883 -0.005555 110511.000000 1 0 0
-11.400484 -10.517372 -11.979691 19.598448 0.745128 2.228444 0.026175 0.000451 367289.000000 1 0 0
6.500316 -16.321872 2.424609 17.735173 -1.191793 1.433655 0.022191 -0.008777 1133900.000000 1 0 0
-2.274484 -11.131272 -6.072191 12.882158 1.369238 2.061634 0.000598 -0.002502 -112514.000000 1 0 0
-12.435584 -15.267272 -3.499991 19.999582 0.887261 1.746705 0.013687 -0.005887 -126910.000000 1 0 0
-0.474084 -19.780872 -2.944391 20.004427 1.546834 1.718520 0.018002 -0.009049 1144960.000000 1 0 0
-5.915784 -15.460872 -4.769991 17.227533 1.205354 1.851344 -0.005758 -0.006486 -2674860.000000 1 0 0
2.007116 -15.989272 -1.026391 16.147409 -1.445921 1.634403 0.007044 -0.004851 1017030.000000 1 0 0
-13.164684 -11.975272 5.316009 18.573530 0.738122 1.280523 0.009725 -0.004033 447230.000000 1 0 0
1.955016 -15.252372 -8.736291 17.685580 -1.443314 2.087456 -0.002591 0.004704 -2255000.000000 1 0 0
-11.767184 -16.626672 -0.136691 20.369868 0.954902 1.577507 0.019687 -0.004226 224802.000000 1 0 0
-7.537284 -16.600572 -1.031991 18.260741 1.144590 1.627341 0.013897 -0.000583 921695.000000 1 0 0
-2.968984 -14.422572 -1.732091 14.826517 1.367776 1.687888 -0.003518 0.000244 194338.000000 1 0 0
-1.744784 -10.404872 -13.090691 16.812847 1.404653 2.463248 -0.006208 -0.005245 -5857.270000 1 0 0
1.358316 -19.504272 5.078009 20.200194 -1.501267 1.316686 0.019440 -0.014759 102341.000000 1 0 0
-17.419884 -9.457372 2.466709 19.974456 0.497381 1.446987 -0.000098 -0.007766 -215228.000000 1 0 0
-2.755784 -15.608672 -8.002891 17.755880 1.396043 2.038366 -0.003268 -0.001229 -330854.000000 1 0 0
-10.439184 -12.181172 0.260409 16.044480 0.862256 1.554565 0.004427 0.007639 422876.000000 1 0 0
-6.852984 -11.392772 -6.649791 14.865341 1.029260 2.034580 0.006676 -0.006887 -127017.000000 1 0 0
-2.318784 -13.627072 -6.675891 15.350615 1.402251 2.020717 -0.007801 0.000876 313765.000000 1 0 0
-14.310684 -14.393472 -1.117591 20.327733 0.788282 1.625803 0.015825 0.003737 196740.000000 1 0 0
-9.542484 -11.242972 -4.326891 15.368325 0.867028 1.856201 0.011748 -0.007396 1433600.000000 1 0 0
9.464116 -15.056072 -5.111891 18.503682 -1.009619 1.850700 0.003690 -0.003256 334119.000000 1 0 0
-5.516184 -10.762072 -9.352991 15.288196 1.097153 2.229103 0.006426 -0.008212 -588218.000000 1 0 0
-10.501684 -15.944172 -5.071291 19.753987 0.988362 1.830426 0.025455 -0.005888 -1510440.000000 1 0 0
2.218516 -17.494072 -3.193691 17.921050 -1.444654 1.749962 0.008944 -0.003436 603860.000000 1 0 0
-0.439684 -14.434472 -8.222691 16.618061 1.540345 2.088406 0.000973 0.001268 -1109700.000000 1 0 0
-0.689084 -18.348972 -7.228891 19.733638 1.533260 1.945851 0.003439 0.005453 40794.100000 1 0 0
-1.657184 -9.774472 -10.527091 14.460505 1.402851 2.386181 -0.001218 -0.003367 102679.000000 1 0 0
-5.152184 -17.294572 2.059909 18.162887 1.281260 1.457139 0.003391 -0.002757 739031.000000 1 0 0
0.214716 -12.876972 -2.649491 13.148472 -1.554123 1.773691 0.000411 -0.000949 -1512710.000000 1 0 0
2.486616 -15.045672 2.946309 15.531782 -1.407006 1.379944 0.010000 -0.004356 -1449200.000000 1 0 0
-9.436684 -13.139972 6.898909 17.587064 0.947982 1.167696 0.002147 -0.007322 -877213.000000 1 0 0
-1.110284 -17.842572 -4.709691 18.487058 1.508650 1.828392 0.002307 -0.004387 -185456.000000 1 0 0
-9.756484 -17.369172 -2.257691 20.049297 1.059005 1.683643 0.022946 -0.017279 -32183.700000 1 0 0
1.202916 -16.422872 1.403809 16.526597 -1.497681 1.485751 0.004796 -0.004840 -228113.000000 1 0 0
-0.497784 -18.039172 3.996309 18.483236 1.543209 1.352863 0.013711 -0.016178 -1217820.000000 1 0 0
-17.442384 -9.231672 -0.064591 19.734860 0.486786 1.574069 -0.002524 -0.003335 1024860.000000 1 0 0
-14.737684 -7.100472 -10.653991 19.522386 0.448974 2.148059 0.014912 -0.009164 526423.000000 1 0 0
2.761416 -12.697772 -8.903891 15.752400 -1.356658 2.171521 -0.009663 0.002623 594603.000000 1 0 0
-11.636884 -14.741372 1.660809 18.854268 0.902550 1.482595 0.006647 0.003388 11433.500000 1 0 0
-2.353084 -15.590472 10.674709 19.040726 1.420996 0.975656 0.007451 -0.003159 -143646.000000 1 0 0
-7.136984 -15.880572 1.516309 17.476507 1.148428 1.483924 0.012357 0.000637 -1237040.000000 1 0 0
-12.612584 -14.772572 -6.059891 20.347689 0.864110 1.873202 0.021559 -0.007604 1111040.000000 1 0 0
0.894916 -13.824472 -5.088191 14.758272 -1.506152 1.922789 0.003223 -0.000792 765449.000000 1 0 0
5.848716 -16.473472 -7.485491 19.016186 -1.229640 1.975382 -0.000150 -0.001936 83184.700000 1 0 0
-6.655284 -12.874372 6.121709 15.732692 1.093688 1.171134 0.004345 -0.003373 -491554.000000 1 0 0
-2.480784 -13.624472 0.529509 13.858604 1.390687 1.532579 0.000003 -0.000429 493775.000000 1 0 0
-4.336084 -15.496372 0.230709 16.093241 1.297961 1.556460 -0.004136 0.001683 324945.000000 1 0 0
-17.784884 -7.547072 -1.947191 19.417826 0.401323 1.671244 -0.003006 0.004621 485266.000000 1 0 0
1.267116 -12.593972 -11.893291 17.368480 -1.470521 2.325075 -0.003570 0.003678 -960152.000000 1 0 0
1.239416 -17.176772 -5.645991 18.123324 -1.498765 1.887601 0.006571 -0.003887 862722.000000 1 0 0
-12.801284 -6.344972 -8.993391 16.882317 0.460163 2.132597 0.013859 -0.004156 1943160.000000 1 0 0
-11.550884 -13.322172 -8.865491 19.735758 0.856491 2.036677 0.036118 -0.017260 -378166.000000 1 0 0
-4.347984 -9.728972 3.667309 11.269739 1.150514 1.239349 0.001578 0.000039 -2344120.000000 1 0 0
-7.232284 -14.338172 10.028309 18.932937 1.103629 1.012579 0.012984 -0.004170 -395926.000000 1 0 0
-5.373384 -15.758872 -8.155291 18.539797 1.242184 2.026262 -0.003811 -0.009454 -622158.000000 1 0 0
-0.268584 -13.519172 2.084609 13.681584 1.550932 1.417834 -0.000329 -0.000992 709607.000000 1 0 0
-10.865984 -13.462972 -4.508891 17.878796 0.891740 1.825741 0.024247 -0.003827 -1000540.000000 1 0 0
-9.855384 -10.557172 6.684009 15.914096 0.819765 1.137345 0.006731 -0.005250 -730682.000000 1 0 0
-15.627084 -7.978672 -4.860291 18.206795 0.472065 1.841022 0.011087 -0.000921 691759.000000 1 0 0
-14.582284 -7.323372 5.394309 17.186430 0.465414 1.251530 0.008871 -0.003391 266254.000000 1 0 0
-1.688284 -19.333472 -0.157291 19.407684 1.483693 1.578901 0.007077 -0.005760 -502589.000000 1 0 0
-15.247584 -12.051072 -1.422491 19.486935 0.668835 1.643858 0.000349 0.004349 -155354.000000 1 0 0
-4.440884 -12.226372 -6.761191 14.660127 1.222392 2.050139 -0.002936 -0.004317 -744670.000000 1 0 0
-7.570384 -18.426372 2.041209 20.025195 1.180976 1.468687 0.014598 0.000743 122266.000000 1 0 0
-2.504784 -11.723572 -8.573491 14.738414 1.360307 2.191626 -0.001163 -0.001847 486024.000000 1 0 0
-1.619484 -20.282872 -5.344591 21.037640 1.491120 1.827661 0.006030 -0.002424 -186447.000000 1 0 0
-5.237384 -8.861572 -13.790891 17.208903 1.037004 2.500397 0.004106 -0.007244 49080.800000 1 0 0
-8.385484 -19.113272 -0.769491 20.886015 1.157358 1.607647 0.014847 0.001962 73798.300000 1 0 0
-17.109184 -7.200972 5.658309 19.406047 0.398379 1.274924 0.011337 -0.008416 -297544.000000 1 0 0
-3.665084 -14.597272 -4.249791 15.638859 1.324801 1.846003 -0.004820 -0.000789 -2459470.000000 1 0 0
-2.869884 -14.883472 -10.841391 18.635711 1.380311 2.191679 -0.002671 -0.004102 -308155.000000 1 0 0
-0.199184 -16.833972 6.296709 17.974172 1.558965 1.212884 0.013642 -0.008319 -360448.000000 1 0 0
-11.134384 -11.657772 3.860509 16.576540 0.808358 1.335748 0.005528 0.001002 569838.000000 1 0 0
-0.177784 -14.677272 -0.222191 14.680031 1.558684 1.585932 0.001308 0.001035 1082300.000000 1 0 0
-7.202484 -9.469472 -2.437491 12.144466 0.920545 1.772877 0.008027 0.000955 200349.000000 1 0 0
-11.107184 -14.358572 -0.902391 18.175600 0.912388 1.620465 0.009143 -0.003199 283817.000000 1 0 0
0.467816 -14.491872 -10.646391 17.988298 -1.538526 2.204150 -0.002027 0.000807 -20575.800000 1 0 0
-1.466484 -14.109972 -3.931191 14.720603 1.467236 1.841131 -0.003637 -0.000871 -2766720.000000 1 0 0
-11.347784 -8.025172 -7.612391 15.846895 0.615543 2.071874 0.019412 -0.003518 704727.000000 1 0 0
-0.268284 -17.238572 -0.418591 17.245741 1.555235 1.595071 0.002467 -0.004660 -1287300.000000 1 0 0
-12.863784 -9.556472 4.607109 16.674188 0.638940 1.290852 0.006280 -0.001433 -1204300.000000 1 0 0
3.826916 -16.876072 1.531309 17.372162 -1.347802 1.482534 0.012997 -0.008287 1502730.000000 1 0 0
-3.924284 -17.911872 -8.164291 20.072140 1.355116 1.989687 0.003801 -0.000390 -18002.600000 1 0 0
-13.376784 -11.321172 2.704409 17.731924 0.702360 1.417682 0.001106 -0.001024 -206079.000000 1 0 0
-8.564084 -12.373272 4.086709 15.593030 0.965362 1.305614 0.005046 0.000909 1741070.000000 1 0 0
-8.284584 -9.498172 -5.877691 13.906720 0.853538 2.007165 0.012690 -0.006294 -821014.000000 1 0 0
3.758916 -17.740572 -5.217091 18.869960 -1.362002 1.850922 -0.000895 0.006675 -88567.200000 1 0 0
-2.728084 -13.043972 11.433209 17.558642 1.364623 0.861705 0.005797 -0.004389 321249.000000 1 0 0
0.038516 -16.701072 -9.484691 19.206422 -1.568490 2.087284 -0.002352 0.003263 -318563.000000 1 0 0
-7.005884 -10.594472 -14.575191 19.332911 0.986534 2.424783 0.013066 -0.004320 -846551.000000 1 0 0
-4.599684 -18.721672 -1.446691 19.332641 1.329880 1.645698 0.012720 -0.015291 -1241330.000000 1 0 0
-2.540684 -17.210372 1.123309 17.433124 1.424230 1.506316 0.007131 -0.006415 1218790.000000 1 0 0
4.009216 -14.599072 -7.515791 16.902480 -1.302782 2.031587 -0.005209 0.001332 -1962330.000000 1 0 0
-1.045284 -15.936472 -6.200491 17.132129 1.505299 1.941125 0.001264 0.002109 98819.000000 1 0 0
-9.532384 -15.285472 8.380509 19.868189 1.013187 1.135361 -0.000039 -0.002779 -178610.000000 1 0 0
-7.116284 -12.004372 -1.774491 14.067525 1.035682 1.697274 -0.000527 0.001660 650078.000000 1 0 0
-7.310784 -14.921472 -9.558791 19.169465 1.115221 2.092833 0.013821 -0.011201 433512.000000 1 0 0
-4.961784 -13.138472 -0.708191 14.062016 1.209702 1.621180 -0.000018 0.002208 1369280.000000 1 0 0
-6.561884 -13.666472 -7.407891 16.873282 1.123159 2.025316 0.004431 -0.007740 195120.000000 1 0 0
5.649816 -15.301772 0.284109 16.313963 -1.217097 1.553380 0.006172 -0.001879 -66873.000000 1 0 0
-14.456284 -12.789672 0.915809 19.323524 0.724305 1.523385 0.001908 -0.001492 891709.000000 1 0 0
0.882016 -15.329572 11.104009 18.949215 -1.513323 0.944698 0.014860 -0.008326 814273.000000 1 0 0
-9.367984 -10.774772 2.016209 14.419429 0.855126 1.430511 0.002913 0.005512 -201472.000000 1 0 0
-9.397784 -8.762472 -3.589891 13.341161 0.750429 1.843238 0.011921 -0.001932 -669531.000000 1 0 0
-12.159684 -7.082372 -12.336091 18.713553 0.527413 2.290559 0.021088 -0.006166 -1238700.000000 1 0 0
-13.261884 -8.409972 -0.629891 15.716296 0.565149 1.610886 0.005047 0.000922 209986.000000 1 0 0
-11.237984 -9.693072 0.585609 14.852302 0.711722 1.531357 0.003911 0.004868 698832.000000 1 0 0
-15.876584 -12.156772 3.013809 20.222168 0.653476 1.421204 0.011452 -0.000302 -273429.000000 1 0 0
-10.472884 -12.332772 -2.271891 16.338300 0.866772 1.710301 0.014870 -0.004811 422183.000000 1 0 0
-3.308384 -8.642872 -12.032991 15.180169 1.205216 2.485986 -0.001337 -0.003906 -2197850.000000 1 0 0
-0.307984 -15.612072 3.949909 16.106938 1.551072 1.323039 0.005165 -0.005460 -645775.000000 1 0 0
-15.734884 -7.779472 1.222309 17.595477 0.459165 1.501273 -0.006293 -0.004042 102843.000000 1 0 0
-6.107984 -13.362472 -13.190391 19.744608 1.142054 2.302382 0.014137 -0.010746 -170074.000000 1 0 0
-15.344984 -10.382372 1.190209 18.565527 0.594846 1.506644 -0.000660 -0.003887 923370.000000 1 0 0
-9.929284 -8.327572 -12.533691 18.028659 0.697890 2.339507 0.028423 -0.006809 245591.000000 1 0 0
-13.206384 -11.622172 -6.321491 18.693441 0.721679 1.915764 0.014233 -0.002762 -64218.600000 1 0 0
-12.248784 -11.338572 -3.891291 17.138789 0.746828 1.799840 0.013050 -0.002433 -1785600.000000 1 0 0
-11.412084 -10.751672 -8.980091 18.068651 0.755610 2.090933 0.010787 -0.015017 193405.000000 1 0 0
-13.284484 -8.398272 -5.870791 16.777207 0.563750 1.928289 0.012495 -0.004789 -191517.000000 1 0 0
-13.553584 -8.114672 -3.202491 16.118421 0.539471 1.770812 0.012294 -0.003955 17292.000000 1 0 0
-4.432684 -16.926372 -3.309291 17.807363 1.314668 1.757721 -0.000182 -0.009953 41031.600000 1 0 0
-15.540084 -8.890272 -1.763691 17.990046 0.519642 1.668991 0.004351 0.000769 -2526890.000000 1 0 0
-9.383484 -15.545172 3.661609 18.523216 1.027714 1.371809 0.008949 -0.002008 415928.000000 1 0 0
4.762216 -17.095672 7.861309 19.409814 -1.299121 1.153799 0.041465 -0.032181 204056.000000 1 0 0
-8.389684 -15.545372 6.028009 18.665002 1.075903 1.241943 0.003858 0.005591 -180591.000000 1 0 0
0.899116 -16.180172 8.642909 18.365899 -1.515284 1.080831 0.016486 -0.008478 279503.000000 1 0 0
-10.901684 -7.781072 -10.205891 16.839003 0.619894 2.221927 0.023786 -0.002709 1023590.000000 1 0 0
-4.819984 -15.982372 5.715409 17.644670 1.277889 1.240930 0.004589 -0.004885 -1356820.000000 1 0 0
-1.298284 -13.149272 -12.098491 17.915423 1.472381 2.312183 -0.001102 -0.002772 756213.000000 1 0 0
-6.447684 -14.267272 -2.573291 15.866616 1.146346 1.733699 0.000047 -0.001920 464893.000000 1 0 0
-17.641684 -6.776872 -7.290491 20.256018 0.366759 1.938976 -0.002529 -0.003449 24716.800000 1 0 0
-17.380784 -4.197272 -10.062691 20.517468 0.236953 2.083397 0.005862 -0.008163 88828.500000 1 0 0
-15.271884 -5.273472 -8.972891 18.481145 0.332487 2.077750 0.002860 -0.009567 -84098.300000 1 0 0
-16.079484 -5.354972 -5.715591 17.885567 0.321479 1.896066 0.002445 -0.000903 -469157.000000 1 0 0
-15.311484 -4.193772 -12.265491 20.061693 0.267341 2.228611 0.026881 -0.011990 -966244.000000 1 0 0
-18.706584 -5.194872 -5.551691 20.192678 0.270877 1.849319 0.003298 0.001012 169665.000000 1 0 0
-17.358184 -4.230872 -7.617191 19.422369 0.239078 1.973804 -0.006949 -0.003361 692732.000000 1 0 0
12.293016 -8.028872 8.721909 17.077843 -0.578569 1.034780 0.016846 -0.011125 235845.000000 1 0 0
15.939016 -3.458672 1.775709 16.406334 -0.213681 1.462351 0.016526 -0.004154 300841.000000 1 0 0
11.850416 -2.345072 12.420009 17.325944 -0.195365 0.771530 0.000989 -0.000338 239924.000000 1 0 0
9.624716 -10.131872 5.183809 14.905095 -0.811063 1.215586 0.006259 -0.004280 -20409.500000 1 0 0
16.729816 -1.818972 7.251509 18.324295 -0.108301 1.163932 0.022193 -0.010611 -23279.000000 1 0 0
5.175716 -13.065572 9.045709 16.712931 -1.193627 0.998885 0.008632 -0.000298 -447893.000000 1 0 0
14.997716 -9.158972 -2.132091 17.702092 -0.548244 1.691532 0.003973 -0.001420 78326.800000 1 0 0
11.063716 -8.625072 6.527209 15.472625 -0.662166 1.135306 0.012779 -0.006604 -2826890.000000 1 0 0
19.977216 -3.310472 3.871909 20.616500 -0.164220 1.381868 0.032217 -0.004746 -638585.000000 1 0 0
13.584816 -8.575272 6.633809 17.380735 -0.563074 1.179187 0.020090 -0.010350 -1708170.000000 1 0 0
8.192416 -11.206772 8.816309 16.444900 -0.939551 1.004972 0.001479 -0.002192 -414994.000000 1 0 0
16.875516 0.035428 -0.708491 16.890419 0.002099 1.612755 0.018469 -0.000857 162703.000000 1 0 0
12.422616 -12.251472 2.297509 17.598253 -0.778462 1.439869 0.014517 -0.005557 -1327650.000000 1 0 0
10.276816 -11.749672 3.601309 16.019899 -0.852166 1.344056 0.011923 -0.004227 -1256160.000000 1 0 0
16.266416 3.073428 2.444709 16.733764 0.186742 1.424177 0.006684 -0.001439 -619299.000000 1 0 0
18.177716 -3.321872 0.480109 18.484986 -0.180750 1.544820 0.017814 -0.003019 430579.000000 1 0 0
13.355116 -11.758372 -0.273391 17.795875 -0.721903 1.586160 0.018481 0.000736 -602989.000000 1 0 0
16.824216 -7.715272 -0.879191 18.529777 -0.429967 1.618262 0.017813 -0.001691 850953.000000 1 0 0
10.189916 -5.859672 9.635209 15.198928 -0.521869 0.884159 0.004103 -0.004893 -345664.000000 1 0 0
11.371716 -13.314872 5.806009 18.447533 -0.863949 1.250623 0.024415 -0.012707 -1851760.000000 1 0 0
13.004816 -1.866872 10.199809 16.632695 -0.142578 0.910642 0.015168 -0.003920 -603115.000000 1 0 0
15.509716 -2.111572 -1.424791 15.717508 -0.135313 1.661571 0.012131 -0.004389 -711766.000000 1 0 0
10.492416 -12.532372 8.864609 18.593882 -0.873766 1.073844 0.020001 -0.016096 459804.000000 1 0 0
14.517416 1.167428 3.206609 14.913101 0.080243 1.354084 0.009309 -0.001356 1110050.000000 1 0 0
14.872816 -5.948972 5.237809 16.853058 -0.380497 1.254769 0.016312 -0.007315 -880350.000000 1 0 0
14.196616 -3.338172 -3.093791 14.908348 -0.230943 1.779836 0.003078 -0.003967 733773.000000 1 0 0
14.015216 0.512428 9.580209 16.984383 0.036546 0.971502 0.014927 -0.005923 673235.000000 1 0 0
15.287516 -3.505872 4.434109 16.299098 -0.225431 1.295277 0.013239 -0.002677 -803386.000000 1 0 0
18.258816 4.630228 -4.004491 19.257708 0.248353 1.780267 -0.022624 -0.005786 290497.000000 1 0 0
17.997316 -5.832272 -5.081891 19.589395 -0.313385 1.833218 0.037954 -0.014281 458943.000000 1 0 0
17.216316 0.029128 5.679909 18.129086 0.001692 1.252126 0.025798 -0.005689 529614.000000 1 0 0
16.957716 -6.678172 3.908009 18.639599 -0.375162 1.359567 0.017691 -0.007156 132240.000000 1 0 0
9.621616 -6.814272 14.225209 18.476103 -0.616225 0.692073 0.006523 -0.005696 -1010140.000000 1 0 0
8.492916 -12.403172 5.196609 15.905126 -0.970387 1.237960 0.008603 -0.007871 -2049540.000000 1 0 0
16.722816 -10.270072 -0.619791 19.634437 -0.550748 1.602368 0.012677 0.000151 89426.900000 1 0 0
14.723116 -8.888672 0.399809 17.202863 -0.543152 1.547553 0.015786 -0.003851 501971.000000 1 0 0
10.035516 -12.976372 1.466009 16.469578 -0.912506 1.481665 0.017531 -0.007080 235264.000000 1 0 0
16.733916 -8.439672 8.861909 20.731267 -0.467118 1.129109 0.029176 -0.013187 400978.000000 1 0 0
19.037516 -0.037072 -2.268891 19.172278 -0.001947 1.689417 0.024145 0.001371 204867.000000 1 0 0
13.480516 -1.244172 7.698009 15.573427 -0.092033 1.053762 0.012739 -0.006868 -139111.000000 1 0 0
12.715016 -9.785672 -3.154891 16.351891 -0.655937 1.764951 0.006735 -0.003244 -1426740.000000 1 0 0
8.788716 -15.197172 1.518309 17.621034 -1.046476 1.484525 0.019816 -0.004009 201120.000000 1 0 0
11.440116 -8.399672 11.115209 18.027163 -0.633331 0.906404 0.016635 -0.011965 -473496.000000 1 0 0
13.930516 -4.074872 -0.577791 14.525760 -0.284575 1.610584 0.005269 -0.005351 -1679100.000000 1 0 0
7.099216 -13.421272 10.730409 18.592232 -1.084256 0.955568 0.015511 -0.000796 -1159160.000000 1 0 0
15.329516 -6.798872 1.867309 16.873220 -0.417448 1.459902 0.011457 -0.002523 918724.000000 1 0 0
15.614516 -6.120372 -2.669191 16.982245 -0.373562 1.728626 0.014935 -0.004245 181384.000000 1 0 0
11.158616 -8.542872 3.869009 14.576166 -0.653401 1.302142 0.010240 -0.005631 1302400.000000 1 0 0
10.664216 -14.508472 -0.367491 18.009895 -0.936943 1.591203 0.024207 -0.005060 603015.000000 1 0 0
13.493916 -12.958572 4.548209 19.253482 -0.765163 1.332314 0.019830 -0.003631 120864.000000 1 0 0
12.705516 -11.108772 6.309109 18.017764 -0.718449 1.213054 0.015171 -0.010367 199340.000000 1 0 0
10.744216 -10.491472 1.388509 15.081019 -0.773497 1.478596 0.003311 -0.004282 -356796.000000 1 0 0
13.850116 -7.665372 11.851409 19.774720 -0.505490 0.928143 0.021536 -0.017175 -320806.000000 1 0 0
15.202816 -1.818472 -4.959091 16.094255 -0.119049 1.884021 0.013023 -0.006343 -409689.000000 1 0 0
12.830916 -11.400072 -7.064891 18.560893 -0.726417 1.961277 0.011620 -0.010016 -40641.200000 1 0 0
17.635816 -5.454672 1.805809 18.548218 -0.299962 1.473284 0.024340 -0.000314 150631.000000 1 0 0
10.581816 -9.969972 9.105309 17.154644 -0.755636 1.011278 0.006232 -0.005804 -505272.000000 1 0 0
16.374916 1.745028 10.001109 19.266686 0.106166 1.025013 0.024676 -0.004116 1329590.000000 1 0 0
18.107016 3.615928 0.610009 18.474606 0.197105 1.537772 -0.002971 0.002210 634029.000000 1 0 0
13.191616 -4.190772 5.826209 15.017524 -0.307601 1.172378 0.010641 -0.010249 -1404030.000000 1 0 0
11.922016 -6.287872 6.763409 15.080302 -0.485340 1.105718 0.011107 -0.007856 157817.000000 1 0 0
16.636616 -10.322372 3.565009 19.900695 -0.555329 1.390684 0.024275 -0.003427 -1304640.000000 1 0 0
16.049716 -7.954572 -5.540791 18.750172 -0.460138 1.870782 0.013109 -0.010539 -53438.000000 1 0 0
13.988216 -0.310672 5.354109 14.981094 -0.022206 1.205323 0.009668 -0.005655 794561.000000 1 0 0
18.152616 -4.285272 5.328809 19.397867 -0.231825 1.292507 0.022545 -0.001625 254813.000000 1 0 0
13.521416 -13.449772 7.162809 20.372307 -0.782742 1.211522 0.019310 -0.009104 202380.000000 1 0 0
14.854216 -13.770672 -0.918391 20.276158 -0.747563 1.616106 0.013958 0.004673 485634.000000 1 0 0
17.831216 -6.207072 8.352409 20.645647 -0.334982 1.154298 0.040441 0.002915 -132377.000000 1 0 0
14.204516 3.190828 9.265809 17.257024 0.220967 1.004003 0.008000 -0.009894 -606626.000000 1 0 0
18.681516 3.896528 3.120509 19.336999 0.205629 1.408713 0.014443 -0.000242 -97367.000000 1 0 0
14.504416 -10.489772 8.109509 19.651400 -0.626135 1.145415 0.011895 -0.019165 -562424.000000 1 0 0
14.837316 -4.964072 10.337909 18.752608 -0.322860 0.986901 0.028327 -0.015914 266674.000000 1 0 0
17.796416 -8.002972 1.794209 19.595386 -0.422601 1.479105 0.031358 -0.004250 738600.000000 1 0 0
18.240716 -5.900172 -2.056691 19.281227 -0.312840 1.677668 0.021353 -0.004990 1321910.000000 1 0 0
14.103216 -13.076072 -5.530591 20.011792 -0.747625 1.850808 0.011398 -0.008721 -1393660.000000 1 0 0
15.412916 -1.681972 9.397409 18.130039 -0.108697 1.025895 0.032369 -0.013322 -318117.000000 1 0 0
12.861516 -10.250472 10.286709 19.398638 -0.672902 1.011866 0.007755 -0.011185 -1789740.000000 1 0 0
16.525616 2.089228 4.783009 17.330263 0.125756 1.291175 0.014895 -0.005902 -2216600.000000 1 0 0
15.071016 2.347028 0.020409 15.252687 0.154490 1.569458 0.006701 0.001574 -1261160.000000 1 0 0
14.934816 -9.695172 -7.048491 19.150100 -0.575789 1.947724 0.012757 -0.013826 960110.000000 1 0 0
16.033716 -0.155572 -3.149291 16.340816 -0.009703 1.764735 0.006191 -0.000739 -16591.900000 1 0 0
11.772216 2.539828 13.569209 18.142746 0.212491 0.725883 0.002042 0.005386 -526889.000000 1 0 0
17.710916 -3.081272 9.252509 20.218301 -0.172252 1.095468 0.038594 -0.019607 288987.000000 1 0 0
7.752816 -18.255672 4.263909 20.286859 -1.169197 1.359036 0.039315 -0.017177 -441507.000000 1 0 0
6.673916 -11.387572 6.661009 14.784688 -1.040682 1.103433 0.005959 -0.005704 314116.000000 1 0 0
17.977416 2.217628 -1.585991 18.182979 0.122736 1.658131 0.014189 0.000634 449533.000000 1 0 0
17.524616 -2.389472 3.618609 18.053146 -0.135514 1.368987 0.019300 -0.003208 627015.000000 1 0 0
12.446316 -13.492972 -2.001391 18.465553 -0.825727 1.679395 0.013185 0.001819 -422037.000000 1 0 0
15.024416 -8.282672 4.300009 17.686882 -0.503826 1.325217 0.019250 -0.005588 -509928.000000 1 0 0
11.517516 -3.490172 14.628409 18.942672 -0.294236 0.688427 0.003616 -0.000259 2899.430000 1 0 0
11.897916 -13.792072 -6.590891 19.370635 -0.858996 1.917981 0.007180 -0.004359 -114322.000000 1 0 0
10.570416 -12.012572 -1.138591 16.041570 -0.849172 1.641834 0.012517 -0.004564 -1114180.000000 1 0 0
13.003516 -7.980872 2.132409 15.405613 -0.550467 1.431933 0.010674 -0.001699 349926.000000 1 0 0
8.782316 -8.085372 10.010909 15.579493 -0.744103 0.872949 0.002605 -0.004190 -2547040.000000 1 0 0
15.643216 -3.936572 7.979809 17.996782 -0.246528 1.111406 0.034038 -0.015862 -189148.000000 1 0 0
10.150416 -17.423572 4.974009 20.769029 -1.043293 1.328954 0.029307 -0.014460 -653231.000000 1 0 0
15.240316 -6.485272 8.185109 18.474902 -0.402323 1.111810 0.031095 -0.008083 -1221090.000000 1 0 0
16.463016 -5.101172 -0.403991 17.239955 -0.300475 1.594232 0.019465 -0.003487 -938593.000000 1 0 0
14.138016 -10.598572 3.438809 18.001073 -0.643277 1.378581 0.026052 -0.005017 564327.000000 1 0 0
14.877316 -10.030972 -4.519291 18.503484 -0.593232 1.817532 0.016433 -0.012775 338527.000000 1 0 0
13.530016 -6.595572 -0.039091 15.052057 -0.453579 1.573393 0.008366 -0.003154 80851.100000 1 0 0
17.673416 -0.975772 -4.957491 18.381471 -0.055155 1.843878 0.013706 -0.005889 1031580.000000 1 0 0
14.331716 0.223928 -1.533191 14.415231 0.015623 1.677357 0.003554 -0.000411 -2902910.000000 1 0 0
4.739416 -13.098272 11.663109 18.167413 -1.223617 0.873719 0.001723 0.000162 -542334.000000 1 0 0
11.907316 -7.564572 13.457109 19.496172 -0.565963 0.808971 0.010198 -0.012579 66308.200000 1 0 0
12.074216 -5.877172 11.463109 17.655897 -0.452995 0.864197 0.011228 -0.007313 -100288.000000 1 0 0
13.240316 -4.752972 8.387909 16.378453 -0.344650 1.033133 0.015919 -0.009646 -911971.000000 1 0 0
15.289616 -1.248972 3.194809 15.669687 -0.081507 1.365472 0.015440 -0.002345 -331333.000000 1 0 0
15.226216 -10.383672 5.732209 19.300687 -0.598516 1.269252 0.028928 -0.010922 873943.000000 1 0 0
13.483216 -8.058072 -5.653791 16.694160 -0.538680 1.916298 0.011770 -0.009449 -2593840.000000 1 0 0
9.518616 -2.317772 13.652309 16.803620 -0.238851 0.622433 -0.004330 0.005562 -2321740.000000 1 0 0
9.934316 -9.371672 13.740909 19.373473 -0.756263 0.782343 0.022397 -0.004402 58947.700000 1 0 0
20.218116 6.156728 -3.267191 21.385791 0.295594 1.724171 0.005278 0.005279 -81328.000000 1 0 0
11.074716 -3.710472 10.506409 15.709919 -0.323286 0.838236 0.002930 0.000132 790366.000000 1 0 0
10.068116 -14.053972 -2.857891 17.522803 -0.949155 1.734624 0.007093 -0.001936 547146.000000 1 0 0
14.832916 -12.826272 2.471509 19.764539 -0.712976 1.445420 0.017779 -0.001563 -928670.000000 1 0 0
11.493816 -0.812772 14.432509 18.467965 -0.070596 0.673748 0.016985 0.010366 47533.100000 1 0 0
18.918616 -1.904972 5.792209 19.876937 -0.100355 1.275103 0.031850 -0.004949 697752.000000 1 0 0
18.697616 -0.183172 7.802409 20.261095 -0.009796 1.175488 0.026905 -0.006908 -93668.500000 1 0 0
19.277916 0.825428 0.182909 19.296446 0.042791 1.561317 0.038192 -0.004558 215818.000000 1 0 0
18.308116 0.615028 3.476809 18.645470 0.033581 1.383229 0.016084 -0.003021 189161.000000 1 0 0
16.623116 -3.835472 -4.049891 17.533980 -0.226763 1.803875 0.021237 -0.007292 -305034.000000 1 0 0
11.003716 -8.193972 15.851209 20.963868 -0.640072 0.713432 0.024815 -0.013810 444250.000000 1 0 0
16.640616 -7.549472 6.323309 19.336206 -0.425908 1.237649 0.030465 -0.009703 762499.000000 1 0 0
18.958616 2.069228 5.619109 19.881781 0.108714 1.284266 0.034903 -0.010469 673162.000000 1 0 0
15.457016 1.629128 7.685009 17.338765 0.105010 1.111601 0.027290 -0.007883 414841.000000 1 0 0
8.557816 -15.676072 3.927909 18.286714 -1.071094 1.354314 0.019345 -0.018324 371035.000000 1 0 0
11.309616 -15.139272 2.097409 19.013261 -0.929193 1.460258 0.018787 0.000206 -315716.000000 1 0 0
8.096216 -16.414672 6.121309 19.299238 -1.112579 1.248043 0.027916 -0.007691 -317900.000000 1 0 0
14.472316 -11.748772 -2.589991 18.819926 -0.681901 1.708854 0.009796 0.001517 668340.000000 1 0 0
13.634716 -4.905272 3.181709 14.835446 -0.345346 1.354651 0.004291 -0.003856 -1797480.000000 1 0 0
-0.893484 9.959028 -5.535891 11.429201 -1.481320 2.076432 -0.005164 0.006232 -1886730.000000 1 0 0
8.196916 -1.777972 -7.978991 11.576481 -0.213599 2.331238 -0.005950 0.000316 -1606890.000000 1 0 0
2.867416 -10.186072 7.611709 13.035193 -1.296394 0.947228 -0.002574 -0.003208 643262.000000 1 0 0
-6.371184 1.262028 8.326409 10.560009 -0.195552 0.662454 -0.006237 0.001473 -609447.000000 1 0 0
7.103016 -6.238472 -7.090791 11.817389 -0.720688 2.214335 -0.008368 -0.004336 -469606.000000 1 0 0
-11.376384 -4.489872 -4.133191 12.909854 0.375900 1.896692 0.008032 -0.002919 432959.000000 1 0 0
2.106716 -3.252472 2.801209 4.781590 -0.996020 0.944890 0.001336 -0.003659 2212970.000000 1 0 0
-3.540984 -4.270672 8.763209 10.371646 0.878538 0.564381 0.001783 -0.003324 -2376720.000000 1 0 0
-4.752684 -0.975372 -2.543491 5.478020 0.202415 2.053650 0.004777 -0.003241 44445.800000 1 0 0
5.014116 -5.217172 -3.676191 8.116318 -0.805242 2.040855 -0.002849 -0.004140 32793.900000 1 0 0
2.638516 14.208628 -8.816291 16.928492 1.387190 2.118579 -0.007822 0.002110 -365216.000000 1 0 0
5.490416 -5.651072 13.675309 15.782692 -0.799817 0.522699 0.003335 -0.004059 -1010240.000000 1 0 0
-4.710484 -0.913972 9.844509 10.951637 0.191648 0.453527 -0.000485 0.001045 -857123.000000 1 0 0
-0.835684 12.071328 -2.757891 12.410531 -1.501678 1.794889 -0.005887 -0.001734 -1332110.000000 1 0 0
3.128516 9.432428 -10.572991 14.510219 1.250538 2.387157 0.001411 0.000458 -608064.000000 1 0 0
-10.633884 2.601428 1.148609 11.007553 -0.239924 1.466259 -0.006320 -0.000594 33706.600000 1 0 0
5.514616 -9.050872 -0.623491 10.616874 -1.023573 1.629557 -0.004593 -0.002682 543931.000000 1 0 0
-6.818084 5.358128 9.260809 12.686938 -0.666066 0.752550 -0.000266 0.004068 507323.000000 1 0 0
-5.609784 -1.863372 5.111909 7.814950 0.320698 0.857779 -0.001623 -0.003553 363352.000000 1 0 0
6.517716 -3.757672 -7.246391 10.445616 -0.522985 2.337445 -0.006808 -0.003609 289290.000000 1 0 0
6.139816 4.770528 11.059409 13.519090 0.660547 0.612769 -0.003645 -0.001791 -105909.000000 1 0 0
3.654216 -9.939872 3.257809 11.080058 -1.218501 1.272362 -0.007805 -0.000501 899492.000000 1 0 0
-6.669784 6.574828 -5.735691 10.982374 -0.778229 2.120299 0.000952 -0.002351 -13255.500000 1 0 0
-11.081284 8.455028 5.206509 14.879183 -0.651770 1.213312 -0.008634 -0.005434 396642.000000 1 0 0
-9.239684 -5.617172 5.085309 11.949257 0.546237 1.131199 -0.000808 -0.003993 -1230960.000000 1 0 0
3.424816 9.799428 -8.039791 13.129980 1.234575 2.229792 0.000236 -0.002049 665094.000000 1 0 0
-8.155484 -8.575672 6.195609 13.358130 0.810507 1.088508 0.002296 -0.001171 -1579630.000000 1 0 0
-7.841284 -5.600272 -7.536891 12.233295 0.620195 2.234574 0.012708 -0.007756 -1827150.000000 1 0 0
9.189616 -1.548872 6.925809 11.610981 -0.166977 0.931678 -0.000783 -0.003417 -325406.000000 1 0 0
-4.118184 -0.316272 -4.936391 6.436414 0.076649 2.444867 0.012333 -0.010728 -1518550.000000 1 0 0
9.034916 1.216828 -4.425591 10.133915 0.133875 2.022736 -0.003555 0.001829 -2436680.000000 1 0 0
-1.950584 -10.665372 10.582409 15.150654 1.389906 0.797527 -0.002281 -0.002720 78536.200000 1 0 0
-12.876284 0.355428 -2.721591 13.165564 -0.027596 1.779018 0.003671 -0.002271 -503257.000000 1 0 0
-9.816484 -5.089972 -6.048391 12.603738 0.478348 2.071324 0.011799 -0.006321 -1957400.000000 1 0 0
-5.563884 8.297628 -0.301391 9.994912 -0.980118 1.600955 -0.002918 -0.000358 207927.000000 1 0 0
6.342016 9.653128 0.439709 11.558433 0.989522 1.532745 0.006348 -0.004720 495787.000000 1 0 0
-0.516484 -12.048972 -0.023991 12.060061 1.527957 1.572786 0.001339 0.001849 -994983.000000 1 0 0
5.924216 4.683228 2.469409 7.945246 0.668935 1.254758 -0.003334 -0.001322 204649.000000 1 0 0
3.537216 -7.483472 -8.142591 11.611031 -1.129250 2.347989 -0.010781 -0.002808 1250300.000000 1 0 0
-6.539184 -9.830772 4.715909 12.713961 0.983827 1.190793 0.003176 0.001609 -2802350.000000 1 0 0
-0.098084 6.500828 -9.192591 11.259401 -1.555710 2.526010 0.005821 -0.002242 -2468360.000000 1 0 0
-17.383384 -2.645772 4.111809 18.057938 0.151042 1.341080 0.020741 -0.006634 608506.000000 1 0 0
-8.348484 0.950028 -9.206591 12.464392 -0.113309 2.401834 0.002279 -0.004105 381583.000000 1 0 0
-9.983384 -5.840772 -11.786291 16.513608 0.529354 2.365608 0.017574 -0.004658 -632851.000000 1 0 0
2.213116 9.391628 6.416109 11.587364 1.339371 0.983976 -0.008291 0.002308 -64967.400000 1 0 0
-11.299684 1.700828 -1.235091 11.493525 -0.149398 1.678464 -0.000747 -0.002077 -1453450.000000 1 0 0
-5.990384 -5.363572 -3.139791 8.631969 0.730248 1.943076 0.012157 -0.002826 564395.000000 1 0 0
-7.005584 -8.261872 1.370709 10.918589 0.867499 1.444925 0.004808 0.001069 -81734.900000 1 0 0
0.041516 10.725128 -7.841191 13.285871 1.566925 2.202091 -0.000975 0.003035 1210710.000000 1 0 0
-2.895184 9.180228 -4.315991 10.549239 -1.265297 1.992295 -0.000361 -0.002796 -588271.000000 1 0 0
3.385116 -4.718272 9.332209 10.991416 -0.948456 0.556621 -0.001758 0.001010 -795082.000000 1 0 0
-8.889484 1.558228 -0.433391 9.035421 -0.173526 1.618781 -0.004107 -0.001509 -1325650.000000 1 0 0
2.508216 3.578828 -10.364691 11.248377 0.959501 2.742564 0.002537 -0.002773 -1777750.000000 1 0 0
-13.707484 0.509828 1.119709 13.762587 -0.037176 1.489347 0.005930 -0.001368 -419454.000000 1 0 0
9.285116 -12.499072 -4.935091 16.333870 -0.931878 1.877732 0.007913 -0.004900 -2344130.000000 1 0 0
-4.687484 9.530528 -8.288391 13.472227 -1.113699 2.233462 -0.001220 0.001235 -1461710.000000 1 0 0
-2.296184 7.153128 8.341909 11.226181 -1.260183 0.733141 -0.005796 0.003973 -2227010.000000 1 0 0
-10.716884 -1.190772 -4.477691 11.675584 0.110658 1.964389 0.002846 -0.003223 -2855320.000000 1 0 0
2.749416 -7.187772 9.544609 12.260625 -1.205455 0.678561 -0.004527 0.003776 -1683010.000000 1 0 0
-16.168684 -6.582272 3.377109 17.780819 0.386612 1.379706 0.007921 -0.006553 -179828.000000 1 0 0
-10.756584 -0.061272 6.150409 12.390940 0.005696 1.051392 -0.004850 -0.002444 -916736.000000 1 0 0
-8.316084 9.849428 9.268709 15.876947 -0.869608 0.947415 -0.001641 -0.006822 -712466.000000 1 0 0
0.268216 -6.044272 -3.734891 7.110174 -1.526450 2.123850 -0.002619 -0.001119 286689.000000 1 0 0
4.978016 1.539828 -2.941891 5.983848 0.299990 2.084767 -0.004302 -0.000117 -1120410.000000 1 0 0
0.310016 5.371128 3.814809 6.595293 1.513141 0.954013 -0.007610 0.002006 -2322600.000000 1 0 0
5.920916 -11.388772 -1.549091 12.929078 -1.091363 1.690899 -0.005171 -0.002302 -1429070.000000 1 0 0
6.155516 -13.571372 5.250609 15.800045 -1.144981 1.232038 0.010549 -0.010306 47808.700000 1 0 0
8.174016 -8.228472 -6.016191 13.065866 -0.788718 2.049300 -0.003194 -0.005055 497743.000000 1 0 0
-13.132284 -1.333172 -4.696891 14.010532 0.101172 1.912656 0.002814 -0.001032 -3164760.000000 1 0 0
-6.821184 -1.426372 -7.072791 9.929122 0.206139 2.363606 0.010113 -0.009151 -349257.000000 1 0 0
-5.661184 12.761328 -4.558291 14.685997 -1.153260 1.886393 0.004508 0.000862 -47020.500000 1 0 0
-4.270684 6.842028 -6.669691 10.465986 -1.012784 2.261751 0.006183 -0.002686 -4138500.000000 1 0 0
-9.369384 -3.643272 -8.142691 12.936855 0.370856 2.251601 0.014837 -0.005702 673309.000000 1 0 0
-2.158784 -6.383172 9.312409 11.494616 1.244673 0.626382 0.002303 -0.003502 -450405.000000 1 0 0
7.550816 -6.169372 10.026509 13.985952 -0.685049 0.771453 -0.000265 -0.000066 181830.000000 1 0 0
9.671216 -5.177272 12.182009 16.393228 -0.491509 0.733087 0.008073 0.002094 -771739.000000 1 0 0
-6.478584 2.826428 -8.971591 11.421479 -0.411380 2.474303 0.000916 -0.005284 189629.000000 1 0 0
7.371916 5.406028 8.865209 12.734293 0.632745 0.800750 -0.006764 -0.002042 278165.000000 1 0 0
12.526716 3.352428 11.195509 17.131748 0.261494 0.858604 0.002098 0.002111 -793155.000000 1 0 0
-7.474584 -7.350272 -3.937791 11.198308 0.777013 1.930120 0.012997 -0.005788 -1859840.000000 1 0 0
2.264416 1.340228 -5.791891 6.361587 0.534416 2.715161 -0.001040 -0.002319 -918859.000000 1 0 0
12.808416 6.914828 -7.127091 16.206967 0.495029 2.026122 0.003753 0.004085 -191147.000000 1 0 0
0.757016 -7.734372 1.046609 7.841491 -1.473230 1.436926 -0.000007 -0.000860 972630.000000 1 0 0
-10.245684 -6.055072 -8.530491 14.642651 0.533766 2.192694 0.016902 -0.003910 -391288.000000 1 0 0
-6.679684 0.243628 3.105009 7.370116 -0.036457 1.135921 -0.002325 -0.003468 120418.000000 1 0 0
10.619116 -7.957972 1.349009 13.338470 -0.643117 1.469486 0.000838 -0.004326 -512215.000000 1 0 0
6.221116 1.061928 10.577409 12.317124 0.169068 0.537959 -0.002643 0.000385 -116250.000000 1 0 0
-12.824484 5.447128 1.882209 14.059918 -0.401654 1.436523 -0.004232 -0.000817 -440845.000000 1 0 0
2.153116 7.319628 3.564709 8.421402 1.284709 1.133721 -0.009890 0.000862 -431264.000000 1 0 0
10.058816 -9.407872 -0.828391 13.797611 -0.751972 1.630871 -0.000367 -0.002435 866752.000000 1 0 0
6.846516 -11.584272 -9.087991 16.237664 -1.037007 2.164803 -0.011147 -0.005277 -435063.000000 1 0 0
10.087716 3.486228 12.045409 16.093715 0.332742 0.725068 -0.004261 0.004322 -1282630.000000 1 0 0
-11.014284 -3.113972 -1.960491 11.612700 0.275530 1.740432 0.002113 -0.001715 -267022.000000 1 0 0
12.312716 1.008628 6.881009 14.141025 0.081735 1.062604 0.004578 -0.005802 598951.000000 1 0 0
-9.485184 9.236928 3.055209 13.587636 -0.772139 1.344005 -0.002277 -0.001586 84109.000000 1 0 0
-6.534884 7.753628 -8.793491 13.421957 -0.870488 2.285187 -0.001153 -0.001315 -286440.000000 1 0 0
8.386916 5.528028 12.061509 15.696479 0.582763 0.694426 -0.005449 0.001772 -2593730.000000 1 0 0
1.378416 4.877628 -2.761891 5.772289 1.295379 2.069712 -0.002647 -0.003493 827138.000000 1 0 0
1.243716 0.528428 9.496609 9.592270 0.401767 0.141346 -0.001319 -0.001419 619336.000000 1 0 0
2.464616 12.614628 -3.945491 13.445076 1.377849 1.868633 0.001122 -0.003668 454958.000000 1 0 0
2.032916 0.579628 12.988709 13.159608 0.277751 0.161337 0.002321 -0.005140 -398905.000000 1 0 0
-12.143384 -1.707272 0.745809 12.285471 0.139677 1.510052 0.000652 -0.001195 376926.000000 1 0 0
3.267916 8.731428 -1.276391 9.409903 1.212665 1.706859 0.000191 -0.002826 568551.000000 1 0 0
3.737016 -2.888272 -5.823391 7.497952 -0.657985 2.460149 -0.008176 -0.002247 -1222630.000000 1 0 0
-7.690384 -7.211172 9.187909 13.984301 0.753251 0.853943 0.000998 -0.005460 -50266.800000 1 0 0
-6.997784 10.901028 -3.227791 13.349907 -1.000109 1.815000 0.009777 0.002683 179904.000000 1 0 0
0.398216 0.497128 2.492409 2.572511 0.895426 0.250203 -0.004399 -0.001200 -2263370.000000 1 0 0
-7.083084 4.615628 -1.992491 8.685857 -0.577528 1.802252 0.001301 -0.004842 -646543.000000 1 0 0
-6.920184 -3.808472 -5.810691 9.805995 0.503106 2.205036 0.009952 -0.007762 166138.000000 1 0 0
2.967016 -6.193172 13.434609 15.087985 -1.124026 0.472534 -0.002554 -0.000171 -1024160.000000 1 0 0
-5.460584 -0.572772 -11.670491 12.897535 0.104510 2.701852 0.011150 -0.007435 -971285.000000 1 0 0
11.824016 2.452928 -0.474291 12.085080 0.204552 1.610052 0.003032 0.001196 -1447640.000000 1 0 0
5.986516 -11.106372 10.775509 16.592211 -1.076425 0.863959 0.001971 -0.001274 646997.000000 1 0 0
-8.089184 6.461628 -10.470691 14.724908 -0.674008 2.361839 -0.003384 -0.003320 269449.000000 1 0 0
2.784916 7.875528 11.220009 13.988148 1.230903 0.639979 -0.005668 0.001852 836682.000000 1 0 0
-6.196884 -10.174972 -0.354291 11.918765 1.023762 1.600526 0.006452 0.001530 313049.000000 1 0 0
11.224816 4.253228 6.126009 13.476440 0.362197 1.098905 0.002440 -0.004770 200547.000000 1 0 0
-8.014484 10.854828 1.390109 13.564352 -0.934804 1.468134 -0.001552 0.000416 556432.000000 1 0 0
4.353316 -2.636672 -3.520291 6.188364 -0.544578 2.175911 -0.003414 -0.004293 -5830060.000000 1 0 0
6.315816 6.395728 6.384309 11.025165 0.791685 0.953213 -0.004098 -0.002328 -4668260.000000 1 0 0
-0.352984 10.300128 -10.257091 14.540466 -1.536540 2.353808 -0.005344 0.002138 -412535.000000 1 0 0
14.035616 6.578728 -2.373191 15.681524 0.438309 1.722717 0.005297 0.005852 880903.000000 1 0 0
1.563516 9.406628 -6.255291 11.404293 1.406088 2.151369 -0.002437 -0.001987 -778645.000000 1 0 0
0.560216 7.290528 7.164309 10.236843 1.494105 0.795601 -0.010994 0.003107 -102392.000000 1 0 0
12.218716 6.387128 1.985309 13.929604 0.481668 1.427785 0.002272 -0.002028 -1700540.000000 1 0 0
-6.937884 6.825528 -3.093491 10.212333 -0.777235 1.878548 0.002425 -0.002950 53430.300000 1 0 0
1.033916 9.811128 11.128109 14.871517 1.465802 0.725326 -0.011585 0.003976 -1476410.000000 1 0 0
-3.496584 13.554828 -10.871991 17.724549 -1.318341 2.231137 -0.001566 0.003100 -98963.500000 1 0 0
-10.132584 -5.555972 -2.307991 11.784096 0.501558 1.767927 0.006819 0.000205 -713768.000000 1 0 0
-3.867784 3.930128 -12.549791 13.707768 -0.793393 2.727605 0.003064 -0.010204 243028.000000 1 0 0
-3.178984 8.257028 2.335209 9.150828 -1.203284 1.312751 -0.002094 0.000146 -2433000.000000 1 0 0
7.065516 8.851428 7.117209 13.376246 0.897133 1.009743 0.002499 -0.004563 -1586840.000000 1 0 0
-1.369384 -2.189072 -8.137891 8.537712 1.011798 2.834347 0.005431 -0.011595 -1430590.000000 1 0 0
0.813516 -1.354872 4.897709 5.146362 -1.030055 0.312123 0.000907 -0.002383 -1421950.000000 1 0 0
2.795316 -8.867072 -6.019791 11.075949 -1.265411 2.145399 -0.010568 -0.002737 353155.000000 1 0 0
5.274516 3.928828 8.674309 10.885763 0.640210 0.648735 -0.005877 -0.002058 -142330.000000 1 0 0
6.144016 -7.584472 -2.800891 10.154710 -0.889940 1.850241 -0.005460 -0.004372 728982.000000 1 0 0
1.930516 2.261028 -8.231991 8.752418 0.864087 2.795010 0.001184 -0.004689 179381.000000 1 0 0
-5.277084 11.007628 -0.608691 12.222356 -1.123762 1.620618 -0.003633 0.000956 635292.000000 1 0 0
-5.387884 3.229428 -3.417191 7.150923 -0.539969 2.069021 0.003458 -0.005773 -119563.000000 1 0 0
1.919216 13.639128 -6.416891 15.194923 1.431000 2.006783 -0.010863 0.002539 585608.000000 1 0 0
-5.242584 -2.580372 2.635909 6.410228 0.457384 1.147022 -0.002740 -0.002335 174128.000000 1 0 0
10.359816 -3.346472 -1.847591 11.042566 -0.312444 1.738902 -0.005872 -0.001587 351572.000000 1 0 0
2.394016 -3.346472 6.981309 8.103633 -0.949819 0.532573 -0.002698 0.000131 -2423110.000000 1 0 0
-2.863484 9.879328 -11.728391 15.599866 -1.288681 2.421624 -0.000160 0.003005 -2567950.000000 1 0 0
0.374416 -1.927472 9.194609 9.401924 -1.378933 0.210389 0.000910 -0.002890 88818.600000 1 0 0
9.351316 2.648028 4.947609 10.905870 0.275947 1.099923 -0.001171 -0.004711 -259984.000000 1 0 0
13.428916 2.256028 -5.104091 14.542255 0.166444 1.929417 0.004219 -0.001813 -2162000.000000 1 0 0
-6.494684 3.712028 7.605209 10.667674 -0.519237 0.777141 -0.005741 0.003459 53688.600000 1 0 0
10.619116 0.050028 1.927709 10.792784 0.004711 1.391222 0.000600 -0.001443 636619.000000 1 0 0
15.258916 6.894528 -4.435191 17.321661 0.424380 1.829729 0.006143 0.006627 -1331550.000000 1 0 0
8.051816 -4.962472 -9.136991 13.150759 -0.552331 2.338922 -0.002547 0.000451 1919070.000000 1 0 0
4.378516 5.680428 -2.200591 7.502084 0.914111 1.868505 -0.001879 -0.001662 -299268.000000 1 0 0
-1.699684 -10.579472 1.472909 10.815897 1.411499 1.434192 -0.000041 0.001615 -834054.000000 1 0 0
-2.652984 12.246828 -12.919291 17.998089 -1.357466 2.371455 -0.001815 0.002164 -162405.000000 1 0 0
8.426116 4.240228 -9.530691 13.409438 0.466224 2.361353 -0.002919 0.004745 -1858280.000000 1 0 0
4.187016 7.660028 -9.053991 12.577038 1.070563 2.374430 0.001175 -0.002318 -2447390.000000 1 0 0
-1.752284 -5.037572 -2.469891 5.877754 1.236044 2.004473 0.004128 -0.002501 441356.000000 1 0 0
-3.279784 -9.177572 7.063809 12.036703 1.227571 0.943626 0.003469 -0.001711 60630.600000 1 0 0
1.074016 7.166528 -1.392791 7.379193 1.422038 1.760681 -0.003157 -0.003638 1318660.000000 1 0 0
0.426116 -0.695472 -2.198791 2.345195 -1.021091 2.786381 0.000530 -0.003723 43229.600000 1 0 0
4.136816 -6.608472 7.370809 10.729118 -1.011488 0.813456 -0.003086 0.002146 -946974.000000 1 0 0
-13.868684 3.930528 5.910209 15.579474 -0.276168 1.181693 -0.005665 -0.002097 -655300.000000 1 0 0
4.199116 6.368328 12.668209 14.787552 0.987859 0.541996 -0.000067 -0.001498 -3221340.000000 1 0 0
8.223216 10.100028 -7.155191 14.860303 0.887470 2.073158 0.004004 -0.005893 -349317.000000 1 0 0
12.326916 5.223228 9.472409 16.400046 0.400791 0.955030 0.001954 -0.002522 -533876.000000 1 0 0
7.438116 4.170728 0.399209 8.536973 0.511039 1.524017 0.001709 0.000100 -1335700.000000 1 0 0
-10.792884 -7.556072 -0.968691 13.210562 0.610791 1.644189 0.010914 0.001992 -784922.000000 1 0 0
10.449916 6.829128 0.265609 12.486324 0.578839 1.549523 0.002976 0.000989 -704351.000000 1 0 0
14.575316 3.499628 4.216509 15.571325 0.235646 1.296586 0.008840 -0.006598 73472.900000 1 0 0
2.060916 5.432928 8.179109 10.033041 1.208228 0.617692 -0.010128 0.002386 -680980.000000 1 0 0
4.143516 0.149228 11.718609 12.430478 0.035999 0.340068 -0.001751 -0.000513 -1900680.000000 1 0 0
-1.566784 -1.548572 -0.535491 2.267077 0.779552 1.809253 0.005244 -0.005730 -779364.000000 1 0 0
3.030016 -5.355272 -9.419891 11.251413 -1.055903 2.562973 -0.011000 -0.000957 254023.000000 1 0 0
-3.981084 -5.250172 -1.363691 6.728521 0.922019 1.774883 0.003549 -0.002829 -879689.000000 1 0 0
-1.149884 -8.581272 8.601909 12.204643 1.437591 0.788646 0.000654 -0.000131 -305331.000000 1 0 0
4.014116 8.579528 -5.935691 11.178276 1.133180 2.130579 0.001207 -0.002228 98357.100000 1 0 0
-14.371084 -1.731972 -2.748091 14.733628 0.119939 1.758413 0.006034 -0.003756 -554112.000000 1 0 0
8.687716 -10.603172 -6.644591 15.233327 -0.884367 2.022154 -0.010976 -0.006669 148425.000000 1 0 0
14.758616 6.238328 1.654909 16.108141 0.399913 1.467877 -0.001175 0.000661 -1094730.000000 1 0 0
-5.787584 0.427128 -8.548391 10.332161 -0.073667 2.545183 0.011215 -0.012196 -1461.970000 1 0 0
-7.966684 -4.540072 -12.984391 15.895745 0.517980 2.526720 0.011692 -0.006868 986597.000000 1 0 0
0.863516 -10.667372 11.942109 16.035974 -1.490023 0.730700 -0.001098 0.000273 -432669.000000 1 0 0
0.295216 11.719028 3.364509 12.196011 1.545610 1.291302 -0.006230 0.000675 761604.000000 1 0 0
5.058616 -13.248172 -3.733591 14.664357 -1.206047 1.828234 -0.001332 -0.000639 1075670.000000 1 0 0
-7.591984 1.602128 -7.039991 10.476951 -0.207977 2.307635 -0.000883 -0.003674 832812.000000 1 0 0
1.453416 2.753928 4.064409 5.120152 1.085187 0.653754 -0.006648 -0.000370 -1220990.000000 1 0 0
17.136916 5.529528 1.977409 18.115179 0.312121 1.461421 -0.005436 -0.005052 352435.000000 1 0 0
2.499616 -8.189972 -3.477191 9.242001 -1.274572 1.956529 -0.008794 -0.001037 592788.000000 1 0 0
-0.550984 -9.341972 -0.574991 9.375854 1.511885 1.632162 0.000295 0.002097 -83723.000000 1 0 0
0.746016 11.756628 -5.582291 13.035981 1.507426 2.013320 -0.002363 0.001103 -522300.000000 1 0 0
6.068716 -5.026572 7.779809 11.073444 -0.691746 0.791801 -0.001741 0.001456 -798446.000000 1 0 0
-6.033384 -1.877772 -9.429691 11.351072 0.301728 2.551217 0.015026 -0.010541 -922025.000000 1 0 0
2.021916 -1.298972 11.136809 11.393155 -0.571047 0.212532 -0.000425 -0.002032 -826522.000000 1 0 0
17.936516 2.180228 -5.834291 18.987126 0.120959 1.883126 0.002208 0.001188 -1739960.000000 1 0 0
-8.930284 4.739828 7.793409 12.765311 -0.487951 0.914086 -0.002607 -0.001951 -721163.000000 1 0 0
11.234716 -7.158772 -4.799891 14.160008 -0.567325 1.916624 0.005667 -0.006776 449621.000000 1 0 0
10.733916 0.463128 8.914709 13.960783 0.043119 0.878179 -0.000166 -0.003344 -265110.000000 1 0 0
-8.361884 -7.252072 -1.570291 11.179422 0.714439 1.711725 0.010283 -0.001052 -815696.000000 1 0 0
10.224816 -10.509972 -3.233191 15.015322 -0.799150 1.787822 0.004288 -0.003705 992457.000000 1 0 0
7.564216 -13.960772 -3.771691 16.320116 -1.074256 1.804012 0.004126 -0.002201 -2659650.000000 1 0 0
1.833516 -1.134272 -11.643691 11.841617 -0.554007 2.958501 -0.000731 -0.005409 301892.000000 1 0 0
-11.853184 -2.556272 -6.413191 13.717198 0.212408 2.057290 0.009167 -0.003179 398493.000000 1 0 0
2.665516 -12.228472 -6.455891 14.082579 -1.356177 2.047025 -0.005901 0.001055 -87837.200000 1 0 0
-5.576384 1.504328 1.149509 5.889009 -0.263495 1.374339 -0.000568 -0.003086 289401.000000 1 0 0
0.167616 6.911328 -4.021491 7.997933 1.546549 2.097650 0.002321 -0.004633 827720.000000 1 0 0
5.345816 -11.828972 3.633409 13.479762 -1.146342 1.297875 -0.002796 -0.005577 -2426930.000000 1 0 0
-4.431284 -9.271672 1.134209 10.338598 1.124954 1.460869 0.003959 0.002789 -872660.000000 1 0 0
7.098416 -6.225472 -4.596091 10.500860 -0.719974 2.023821 -0.003964 -0.004321 -1269930.000000 1 0 0
-6.970184 -5.962672 2.251309 9.444857 0.707652 1.330116 0.002092 -0.000687 -81052.300000 1 0 0
-6.217884 -0.803072 7.090909 9.465094 0.128444 0.723997 -0.003291 -0.000185 -1825880.000000 1 0 0
4.247916 -5.035272 3.137609 7.296804 -0.870011 1.126306 -0.003879 -0.001949 -218494.000000 1 0 0
-2.512384 10.614128 -8.892891 14.073212 -1.338372 2.254801 -0.002438 0.002922 -293756.000000 1 0 0
-2.241084 -4.957072 2.808509 6.122315 1.146199 1.094227 0.001568 -0.001196 324650.000000 1 0 0
15.051216 4.924628 6.342509 17.059264 0.316213 1.189857 0.006409 -0.011465 321519.000000 1 0 0
6.816816 0.340628 0.109809 6.826204 0.049927 1.554709 0.002219 -0.002210 2719260.000000 1 0 0
-9.768184 9.339828 0.462009 13.522694 -0.762984 1.536624 -0.004578 -0.000884 -2361570.000000 1 0 0
7.220916 10.534228 -2.539791 13.021602 0.969888 1.767099 0.005525 -0.002568 -9005.770000 1 0 0
1.735116 -4.305072 -5.359991 7.090400 -1.187672 2.427901 -0.005018 -0.003973 -293920.000000 1 0 0
0.922816 -8.148072 -7.784491 11.306678 -1.458021 2.330196 -0.008144 -0.001909 -166764.000000 1 0 0
-10.354684 0.214728 -10.569491 14.797964 -0.020734 2.366353 0.001286 -0.005810 -3250570.000000 1 0 0
5.811516 -2.523672 0.478509 6.353866 -0.409682 1.495415 -0.001304 -0.002168 179464.000000 1 0 0
-3.316184 5.413528 -1.041091 6.433291 -1.021183 1.733340 0.004166 -0.004301 598908.000000 1 0 0
-0.336084 4.567828 -5.096991 6.852541 -1.497352 2.409550 0.005195 -0.007308 -509021.000000 1 0 0
3.918816 -9.775572 10.041109 14.551385 -1.189533 0.809245 -0.004178 -0.000237 -1886970.000000 1 0 0
7.308016 -13.564472 -0.855891 15.431609 -1.076622 1.626288 0.006187 -0.003186 552038.000000 1 0 0
13.014716 -0.061872 0.563009 13.027035 -0.004754 1.527564 0.001921 -0.004795 859663.000000 1 0 0
9.297616 2.505128 -0.574091 9.646290 0.263188 1.630346 0.002756 -0.000101 855084.000000 1 0 0
-0.793884 -5.785572 4.597909 7.432622 1.434430 0.903821 0.000017 0.000147 824598.000000 1 0 0
11.461316 -3.646972 3.273009 12.464941 -0.308068 1.305104 0.004320 -0.003442 -2241240.000000 1 0 0
1.750616 -8.212972 11.741809 14.435638 -1.360787 0.620840 -0.008058 0.002762 -95306.500000 1 0 0
9.274116 -5.811872 -5.903491 12.435365 -0.559804 2.065458 -0.008482 -0.006423 -1220120.000000 1 0 0
3.193116 6.402028 -0.078291 7.154584 1.108136 1.581739 -0.005820 0.000760 -1335870.000000 1 0 0
6.290516 -1.342372 11.411909 13.099779 -0.210243 0.513251 -0.004197 0.001531 484131.000000 1 0 0
-4.858784 -7.524672 -3.918391 9.776618 0.997440 1.983178 0.009258 -0.000943 -121672.000000 1 0 0
-3.451784 -8.532372 -5.818291 10.888926 1.186372 2.134512 0.006386 -0.004268 -307751.000000 1 0 0
9.736416 5.317028 2.224009 11.314362 0.499842 1.372943 0.003253 -0.002484 -315471.000000 1 0 0
8.833516 -1.364272 0.327909 8.944259 -0.153232 1.534127 0.001276 -0.002232 827789.000000 1 0 0
-3.825584 9.674528 9.160409 13.861626 -1.194237 0.848850 -0.002450 0.001517 208983.000000 1 0 0
-14.380584 -3.563872 -6.067491 16.009898 0.242931 1.959494 0.001022 -0.000747 -146041.000000 1 0 0
10.635616 6.358728 -5.982191 13.759955 0.538853 2.020561 -0.002676 0.000147 -850965.000000 1 0 0
-1.874284 4.506828 2.600209 5.530418 -1.176679 1.081319 -0.002667 0.000125 846264.000000 1 0 0
6.924416 -3.740472 2.567309 8.278269 -0.495277 1.255470 -0.001168 -0.003953 -2718810.000000 1 0 0
8.216516 -11.156672 -1.588391 13.946521 -0.936013 1.684936 0.004377 -0.002359 -1662290.000000 1 0 0
4.502516 0.420428 1.859009 4.889307 0.093106 1.180763 -0.001821 -0.001444 1057380.000000 1 0 0
-10.677284 2.306728 3.824909 11.573907 -0.212771 1.233987 -0.008687 -0.002579 48659.300000 1 0 0
-0.772884 -3.119272 4.391809 5.441985 1.327911 0.631702 0.000804 -0.002933 334692.000000 1 0 0
8.390916 -8.585472 -8.527291 14.725233 -0.796858 2.188413 0.000955 -0.004381 -793049.000000 1 0 0
12.046716 -4.801672 1.002409 13.007084 -0.379288 1.493653 0.001558 -0.003297 110782.000000 1 0 0
2.894316 4.770128 3.437709 6.553551 1.025422 1.018602 -0.008040 -0.000288 -340398.000000 1 0 0
6.102216 7.469528 1.993109 9.849029 0.885806 1.367023 -0.001825 -0.002203 -754752.000000 1 0 0
-1.606684 -1.251272 -10.347491 10.545980 0.661675 2.947270 0.009961 -0.009526 1426840.000000 1 0 0
-0.967584 -8.682372 6.021409 10.610239 1.459812 0.967319 0.000572 -0.002381 -977998.000000 1 0 0
-4.169284 -0.221372 2.232109 4.734369 0.053046 1.079840 -0.001944 -0.001643 412203.000000 1 0 0
-8.252984 6.178128 -8.047791 13.078530 -0.642600 2.233618 -0.004798 0.002050 -968130.000000 1 0 0
6.469116 11.191028 -9.446491 16.010145 1.046663 2.201894 0.003560 -0.005341 202882.000000 1 0 0
-11.115484 -5.677472 3.029709 12.843941 0.472228 1.332666 0.005275 -0.001201 1259520.000000 1 0 0
1.427016 -6.305072 3.033309 7.140817 -1.348218 1.132072 -0.001292 -0.001427 1002950.000000 1 0 0
10.031716 2.150328 7.175009 12.519584 0.211158 0.960509 0.001001 -0.003146 -1863300.000000 1 0 0
-3.997584 -2.509472 -10.518791 11.529228 0.560572 2.719805 0.009992 -0.008326 -1877430.000000 1 0 0
-8.343284 11.891028 5.875309 15.669275 -0.958967 1.186446 -0.002636 0.000601 -632932.000000 1 0 0
6.890416 6.054728 -2.906691 9.622183 0.720932 1.877673 -0.000478 0.001089 -1178770.000000 1 0 0
3.789316 -9.930572 -2.237891 10.862013 -1.206269 1.778312 -0.008198 -0.001935 -1630620.000000 1 0 0
8.434816 -12.957972 -7.356691 17.122385 -0.993763 2.014905 -0.001581 -0.003327 590806.000000 1 0 0
-1.201084 9.445528 3.576909 10.171277 -1.444316 1.211444 -0.007749 0.002707 102488.000000 1 0 0
0.492916 -13.324272 4.657709 14.123507 -1.533819 1.234721 0.002572 -0.004738 -1624960.000000 1 0 0
-11.181784 -6.987972 -5.062991 14.124374 0.558558 1.937412 0.013359 -0.003800 10808.700000 1 0 0
3.544016 10.292628 -3.381591 11.398833 1.239186 1.871991 0.000906 -0.004203 -669355.000000 1 0 0
11.471116 -8.100372 -7.304391 15.828982 -0.614844 2.050433 0.011145 -0.010072 384172.000000 1 0 0
11.829916 -4.979772 -5.820991 14.093579 -0.398433 1.996569 -0.000291 -0.002688 1005610.000000 1 0 0
1.217916 -10.313672 -2.662991 10.721319 -1.453253 1.821807 -0.005469 0.002436 -2008640.000000 1 0 0
2.284016 -11.991872 -3.960091 12.833708 -1.382587 1.884485 -0.003658 0.000642 -1212280.000000 1 0 0
-7.673784 -5.637672 7.240709 11.962365 0.633615 0.920665 0.000486 -0.002453 -3928470.000000 1 0 0
-7.300584 -0.880772 9.501209 12.014460 0.120064 0.658658 -0.004460 -0.000134 -361793.000000 1 0 0
16.147516 2.686728 -7.599991 18.047732 0.164876 2.005460 0.002610 -0.000168 52634.500000 1 0 0
-1.929784 6.377028 -5.518491 8.651260 -1.276942 2.262543 0.003488 -0.004662 -819405.000000 1 0 0
7.571516 1.286028 8.340509 11.337804 0.168245 0.744190 -0.001438 -0.001582 -599884.000000 1 0 0
7.872916 8.314928 -3.742791 12.046963 0.812697 1.886708 0.004544 -0.000026 -575121.000000 1 0 0
7.904016 0.508228 3.972209 8.860599 0.064212 1.105933 -0.003424 -0.004160 511314.000000 1 0 0
-6.949084 5.861828 5.303209 10.524962 -0.700731 1.042723 -0.002056 -0.002084 -647228.000000 1 0 0
-6.078284 -2.005472 -4.502191 7.825419 0.318694 2.183803 0.009277 -0.006588 -1232680.000000 1 0 0
-15.100484 -1.973472 3.052009 15.531709 0.129953 1.373007 0.008890 -0.003647 -944408.000000 1 0 0
1.155816 1.293028 -10.552691 10.694256 0.841371 2.978701 0.004967 -0.007876 379493.000000 1 0 0
1.516816 -9.233872 9.379109 13.248880 -1.407984 0.784251 -0.002822 -0.001446 -1438940.000000 1 0 0
-0.141184 -6.762472 -1.241591 6.876955 1.549922 1.752336 0.000603 -0.000140 475832.000000 1 0 0
-0.347184 -10.250972 -8.407491 13.262310 1.536941 2.257432 -0.002138 -0.002330 -198965.000000 1 0 0
-4.456784 6.514028 3.750409 8.738481 -0.970765 1.127208 -0.003386 0.001474 -183771.000000 1 0 0
10.746416 -1.058472 -8.559391 13.779296 -0.098179 2.241041 0.006285 0.002618 415078.000000 1 0 0
3.101916 -1.101472 6.195609 7.015746 -0.341206 0.488366 -0.004813 -0.001360 581220.000000 1 0 0
1.953916 -12.388572 6.632409 14.187437 -1.414366 1.084353 0.003821 -0.005338 -366944.000000 1 0 0
2.850616 -4.958572 -1.461191 5.903264 -1.049047 1.820919 0.002465 -0.004763 -1211120.000000 1 0 0
-1.124184 9.580028 -1.722491 9.798352 -1.453984 1.747509 -0.001297 -0.004320 -188671.000000 1 0 0
4.536816 -2.561472 2.608109 5.826326 -0.513981 1.106670 -0.000913 -0.002392 -1257350.000000 1 0 0
17.754116 6.683928 -2.524991 19.137897 0.360061 1.703119 0.002242 0.009125 698616.000000 1 0 0
-7.109984 3.436028 -5.478091 9.610809 -0.450173 2.177293 0.001763 -0.003525 -38546.200000 1 0 0
-13.824984 -5.984872 2.215809 15.226907 0.408545 1.424758 0.001111 -0.002035 1790870.000000 1 0 0
6.783816 -6.125372 3.267209 9.706441 -0.734437 1.227490 -0.000909 -0.003825 -16479.400000 1 0 0
-4.660384 2.097328 3.462109 6.172857 -0.422882 0.975372 -0.002196 -0.001620 496155.000000 1 0 0
6.804716 -12.154772 -5.453491 14.959385 -1.060431 1.943949 -0.003362 -0.002351 342784.000000 1 0 0
2.783516 -12.390172 3.391109 13.143970 -1.349810 1.309848 0.003416 -0.005171 -981935.000000 1 0 0
3.355316 11.353828 -6.084791 13.311357 1.283452 2.045543 0.000490 0.000146 441840.000000 1 0 0
-5.662784 -8.268172 6.493309 11.941225 0.970284 0.995871 0.006209 -0.002791 -323325.000000 1 0 0
-3.958984 6.621128 6.322009 9.974000 -1.031899 0.884277 -0.002201 0.001703 437874.000000 1 0 0
4.394016 4.370728 -6.961591 9.320643 0.782741 2.414184 -0.002930 0.000230 -2195510.000000 1 0 0
-0.357284 -2.693072 1.620009 3.163024 1.438899 1.033086 0.003272 -0.003016 -889672.000000 1 0 0
-13.164684 -0.954872 6.488909 14.708046 0.072406 1.113882 -0.003465 -0.002025 -218660.000000 1 0 0
-0.464984 -9.298672 -5.928691 11.037703 1.520833 2.137828 -0.002715 -0.000907 428099.000000 1 0 0
2.106416 -1.767472 -4.024091 4.873834 -0.698126 2.542153 -0.004628 -0.002394 -1814060.000000 1 0 0
11.264116 -1.967072 1.152609 11.492527 -0.172888 1.470335 -0.000747 -0.003433 893197.000000 1 0 0
0.484116 -4.159472 -1.969191 4.627450 -1.454929 2.010361 0.002038 -0.002272 -2669490.000000 1 0 0
1.136516 -7.317072 -11.152691 13.387073 -1.416704 2.555474 -0.010098 -0.000376 665452.000000 1 0 0
-4.505084 4.161228 -10.038391 11.763541 -0.745742 2.593170 0.003160 -0.008196 386831.000000 1 0 0
-1.014284 5.778328 -2.161091 6.252052 -1.397034 1.923740 0.001920 -0.005590 -308675.000000 1 0 0
-11.385684 1.745128 -3.950391 12.177227 -0.152090 1.901182 -0.003867 0.000717 -489953.000000 1 0 0
-1.748984 -11.261772 4.177509 12.138288 1.416724 1.219453 0.004381 0.001187 -569443.000000 1 0 0
-3.442284 -5.166472 -9.602891 11.434915 0.983066 2.567687 0.005233 -0.002599 -2069020.000000 1 0 0
-12.890384 -3.743972 -8.375791 15.821922 0.282670 2.128665 0.007051 -0.000841 -89572.200000 1 0 0
11.439216 4.460928 0.688109 12.297521 0.371828 1.514812 0.005936 0.001352 187108.000000 1 0 0
-8.934284 -2.290272 -3.110391 9.733515 0.250943 1.896056 0.005570 -0.002938 -325200.000000 1 0 0
-2.412484 -6.143372 -6.320291 9.138226 1.196601 2.334543 0.002500 -0.005864 264999.000000 1 0 0
-0.056684 2.841228 -1.922491 3.431000 -1.550848 2.165580 -0.000040 -0.005267 -748666.000000 1 0 0
8.132916 6.109428 -5.169991 11.410444 0.644267 2.041028 -0.000100 0.001463 -960387.000000 1 0 0
-9.790184 -0.845472 -1.024391 9.879874 0.086145 1.674668 -0.000431 -0.001706 512211.000000 1 0 0
6.072516 0.630028 -8.778291 10.692557 0.103381 2.533908 -0.004447 0.002220 545684.000000 1 0 0
-4.137184 2.372928 7.884309 9.214630 -0.520752 0.544031 -0.007234 0.004237 -1059780.000000 1 0 0
-10.136284 -3.267572 1.382609 10.739315 0.311846 1.441695 0.002317 -0.002183 1235740.000000 1 0 0
-1.776884 -8.152972 -7.757291 11.393149 1.356209 2.319751 0.000036 -0.006179 30355.200000 1 0 0
-9.407884 -9.893272 4.253509 14.299561 0.810541 1.268768 0.003384 0.001078 -343702.000000 1 0 0
-1.092084 -10.718872 7.496409 13.125663 1.469262 0.962919 -0.000920 -0.001412 502183.000000 1 0 0
9.463216 3.812028 -3.657391 10.837920 0.382940 1.915016 -0.002425 0.003233 -384744.000000 1 0 0
12.776216 -0.842272 3.151309 13.186048 -0.065830 1.329473 0.005529 -0.003109 -505127.000000 1 0 0
6.561116 11.944528 -6.873591 15.263232 1.068492 2.037939 0.004032 -0.003499 275010.000000 1 0 0
-11.861784 -0.029372 -6.495291 13.523742 0.002476 2.071779 0.002202 0.000486 281882.000000 1 0 0
-7.607084 -6.564172 -11.347291 15.156421 0.711937 2.416863 0.014886 -0.007903 -1016560.000000 1 0 0
3.975816 6.015128 6.519709 9.720878 0.986748 0.835656 -0.008452 0.000746 -2505380.000000 1 0 0
-4.259784 -1.337972 -7.390791 8.634797 0.304336 2.598145 0.011353 -0.013140 -614431.000000 1 0 0
9.546716 9.344728 0.878809 13.387906 0.774707 1.505107 0.005846 -0.001315 -1798370.000000 1 0 0
-8.939384 4.067828 4.901809 10.976682 -0.427042 1.107873 -0.006122 -0.002636 -49445.200000 1 0 0
-6.951384 7.905328 -12.231191 16.137471 -0.849520 2.430942 -0.001708 -0.003971 -1102140.000000 1 0 0
11.168916 -3.649972 7.293609 13.829812 -0.315857 1.015279 0.004269 -0.005393 1019900.000000 1 0 0
11.859416 6.851928 6.457909 15.142630 0.523908 1.130208 0.009933 -0.007246 -269023.000000 1 0 0
-9.858384 -0.962372 -14.900891 17.892749 0.097311 2.554924 0.003908 0.000852 455766.000000 1 0 0
1.652516 -13.012272 12.024209 17.794146 -1.444476 0.828829 0.004976 -0.002991 -7056.000000 1 0 0
2.864116 2.986728 13.006009 13.648442 0.806351 0.308039 -0.002938 -0.003422 -678798.000000 1 0 0
-2.596084 -1.481672 10.988809 11.388105 0.518622 0.265591 0.002955 -0.000872 -695023.000000 1 0 0
2.471916 -10.112372 -8.165291 13.230360 -1.331053 2.235929 -0.012002 0.001575 -1494590.000000 1 0 0
13.820216 3.630428 -7.547091 16.159733 0.256886 2.056726 -0.000846 0.002701 -2396940.000000 1 0 0
7.321816 -1.739672 4.942409 9.003491 -0.233276 0.989696 -0.002996 -0.001625 50235.800000 1 0 0
-1.141484 8.730228 10.078809 13.382909 -1.440783 0.718019 -0.006106 0.002168 -90351.400000 1 0 0
-12.195684 -4.596472 0.849909 13.060804 0.360430 1.505677 0.005654 -0.001998 -69621.500000 1 0 0
-4.871484 4.864028 -5.218691 8.638568 -0.784632 2.219452 0.007024 -0.006556 -94404.300000 1 0 0
-11.157284 0.378928 1.892109 11.322926 -0.033949 1.402904 -0.007538 0.000052 -1785670.000000 1 0 0
-1.307884 2.218228 -4.130491 4.867448 -1.038053 2.584120 0.006371 -0.007921 949620.000000 1 0 0
3.152116 -9.904672 12.965009 16.617155 -1.262686 0.675782 -0.001499 0.000292 -2317740.000000 1 0 0
8.957316 4.721128 -1.468691 10.231305 0.485068 1.714843 0.001458 -0.000140 -959533.000000 1 0 0
4.035816 2.252928 3.880709 6.035180 0.509143 0.872368 -0.009360 0.002447 324862.000000 1 0 0
-5.496384 -3.332272 7.307609 9.732185 0.545014 0.721417 0.001701 -0.003372 -13105.300000 1 0 0
1.781216 -5.739772 7.697909 9.766039 -1.269891 0.662865 -0.003457 0.001615 -510261.000000 1 0 0
-5.751684 -6.012272 -9.779291 12.839931 0.807546 2.436623 0.015998 -0.004727 -533313.000000 1 0 0
-11.757484 -5.845572 5.505109 14.237815 0.461388 1.173796 0.005782 -0.003774 -665074.000000 1 0 0
10.440616 6.140928 4.586009 12.951793 0.531681 1.208863 0.004046 -0.003632 -871131.000000 1 0 0
1.356816 -3.765772 0.353509 4.018328 -1.224973 1.482708 0.008520 -0.002704 -778721.000000 1 0 0
8.751516 4.406928 6.895809 11.981745 0.466493 0.957549 -0.002307 -0.001329 -432392.000000 1 0 0
-7.868284 12.061828 3.523909 14.826177 -0.992785 1.330818 -0.003523 -0.001196 317029.000000 1 0 0
-6.136284 13.378328 -7.058991 16.323694 -1.140753 2.017992 0.011644 -0.000496 151667.000000 1 0 0
4.465616 -6.959672 -0.970391 8.325889 -1.000319 1.687613 -0.001087 -0.003925 -806360.000000 1 0 0
-1.829184 -8.229972 11.172209 13.996307 1.352092 0.646453 -0.001691 -0.003588 15730.600000 1 0 0
11.524216 8.838628 -5.651891 15.584376 0.654268 1.941921 0.006929 0.000766 554811.000000 1 0 0
-3.347584 -2.863572 -1.971091 4.826134 0.707629 1.991519 0.006624 -0.003644 -1444780.000000 1 0 0
-2.114984 5.848928 4.750209 7.826085 -1.223823 0.918552 -0.003585 0.001085 -302748.000000 1 0 0
0.296216 -11.574772 -5.714291 12.911864 -1.545210 2.029249 -0.003479 -0.004946 -843508.000000 1 0 0
-8.945384 6.232328 -1.557491 11.013064 -0.608514 1.712694 -0.000722 -0.001674 -1211580.000000 1 0 0
2.803316 -0.114172 3.844609 4.759478 -0.040705 0.630421 -0.003553 -0.002578 1091450.000000 1 0 0
-10.095284 3.930028 -0.933091 10.873387 -0.371243 1.656716 -0.000589 -0.001934 177963.000000 1 0 0
6.442016 5.436328 13.616409 16.014363 0.700934 0.554313 0.002234 0.002032 -1297530.000000 1 0 0
-8.663684 -1.660872 5.686009 10.495171 0.189407 0.998250 -0.003253 -0.002833 -322183.000000 1 0 0
12.903216 -1.762272 -1.459991 13.104585 -0.135736 1.682439 0.001856 -0.002931 -875250.000000 1 0 0
5.399716 -5.500272 5.337609 9.375500 -0.794623 0.965124 -0.007096 -0.001671 53803.100000 1 0 0
-9.009584 -1.180472 3.276309 9.659209 0.130282 1.224740 -0.004461 0.000623 416043.000000 1 0 0
1.935216 5.445928 5.549609 8.012574 1.229362 0.805692 -0.007241 -0.000149 -1711760.000000 1 0 0
9.335216 3.193928 -7.258991 12.249097 0.329653 2.205097 -0.003234 0.002417 144511.000000 1 0 0
2.243316 -2.425272 -1.594191 3.668223 -0.824353 2.020385 0.000372 -0.001914 -191474.000000 1 0 0
-6.291484 0.457828 -4.058591 7.500969 -0.072641 2.142512 0.001141 -0.002494 -3472040.000000 1 0 0
-4.116384 4.248728 5.062509 7.786225 -0.801218 0.862965 -0.003250 0.001034 1058770.000000 1 0 0
-6.377284 1.750828 -12.435991 14.085064 -0.267940 2.652843 -0.000388 -0.004457 -2637710.000000 1 0 0
-0.180084 3.061128 6.203409 6.919914 -1.512035 0.459087 -0.004651 -0.000501 1375760.000000 1 0 0
-8.746784 9.452428 -2.058691 13.041964 -0.824152 1.729311 0.002475 0.001686 546133.000000 1 0 0
-1.290884 -3.701272 -6.094991 7.246704 1.235220 2.570056 0.001221 -0.005978 403008.000000 1 0 0
-3.345484 6.930828 -3.045091 8.276546 -1.121087 1.947565 0.002054 -0.002014 888385.000000 1 0 0
6.957216 -0.364372 -4.252891 8.162273 -0.052325 2.118868 -0.003475 0.000536 -166658.000000 1 0 0
-5.213284 -10.883672 7.046209 13.974323 1.124089 1.042312 0.001623 -0.003505 279443.000000 1 0 0
9.687416 8.462928 -1.425191 12.942115 0.718037 1.681141 0.004980 0.000551 323811.000000 1 0 0
13.858216 4.681828 -4.214991 15.222871 0.325799 1.851348 0.003300 -0.001569 400709.000000 1 0 0
4.685416 1.100228 -6.706491 8.254735 0.230641 2.519124 -0.004982 0.000161 -869261.000000 1 0 0
8.971516 -4.669572 3.610809 10.739225 -0.479904 1.227889 0.000311 -0.003898 194170.000000 1 0 0
-8.687084 -3.171472 -0.784591 9.281123 0.350045 1.655434 0.003510 -0.000975 177032.000000 1 0 0
-8.472784 -4.154672 -10.457391 14.085681 0.455902 2.407461 0.014918 -0.006262 -171883.000000 1 0 0
10.462816 -1.196272 10.655809 14.981584 -0.113841 0.779506 -0.000873 0.002222 178425.000000 1 0 0
2.147616 -11.678672 9.792109 15.391200 -1.388936 0.881214 -0.000164 -0.006124 579410.000000 1 0 0
-6.465484 -10.496172 2.155509 12.514725 1.018706 1.397695 0.005038 0.002154 -880944.000000 1 0 0
-3.690784 -1.373572 6.620109 7.702885 0.356281 0.536638 0.001703 -0.001962 -793424.000000 1 0 0
4.780216 -7.578772 3.931409 9.784898 -1.008082 1.157333 -0.005637 0.000632 379837.000000 1 0 0
11.370316 -9.618172 -5.324691 15.815994 -0.702110 1.914169 0.005672 -0.006766 403079.000000 1 0 0
11.175816 1.148428 11.392809 16.000433 0.102401 0.778409 -0.001901 0.004122 -452057.000000 1 0 0
-10.230184 -3.465972 4.418609 11.670207 0.326661 1.182488 0.002757 -0.002152 1049440.000000 1 0 0
1.980616 8.701328 8.931609 12.625751 1.346987 0.784966 -0.008649 0.003337 -249537.000000 1 0 0
6.595016 8.727328 4.175109 11.708630 0.923674 1.206187 0.001241 -0.002728 -720372.000000 1 0 0
-4.345684 3.645528 0.282009 5.679293 -0.698006 1.521120 0.001451 -0.005224 -2851250.000000 1 0 0
4.855516 6.957828 4.274909 9.500645 0.961515 1.104076 -0.003731 -0.001523 -1558630.000000 1 0 0
-8.182184 13.400028 1.297309 15.754107 -1.022612 1.488356 -0.001347 0.004744 -589468.000000 1 0 0
8.887916 8.341028 -9.155691 15.244490 0.753666 2.215035 -0.005903 -0.004412 -792702.000000 1 0 0
6.995316 1.950728 5.998909 9.419485 0.271953 0.880375 -0.005319 -0.001834 -633910.000000 1 0 0
11.435216 -6.164272 3.123709 13.361137 -0.494406 1.334822 0.003985 -0.001865 -287999.000000 1 0 0
11.415816 4.734028 -1.988191 12.517379 0.393106 1.730306 0.003063 0.002338 272178.000000 1 0 0
-3.937084 14.224628 -5.970191 15.921176 -1.300777 1.955176 -0.003335 0.004950 -1157270.000000 1 0 0
7.219316 -3.040772 6.961609 10.479925 -0.398647 0.844266 -0.000487 -0.002129 -1154450.000000 1 0 0
-8.046784 -0.569772 0.928609 8.120203 0.070689 1.456188 -0.001779 -0.002164 213956.000000 1 0 0
-3.233284 0.963328 10.752509 11.269365 -0.289567 0.304035 -0.004460 0.002389 -465882.000000 1 0 0
7.070416 -1.193072 -1.833191 7.400999 -0.167167 1.821097 0.001665 -0.002676 -2362070.000000 1 0 0
-7.674784 5.416328 2.932509 9.840657 -0.614561 1.268200 -0.002606 -0.000256 719206.000000 1 0 0
9.382716 -2.141072 2.930309 10.060132 -0.224352 1.275232 -0.001458 -0.003949 -2069060.000000 1 0 0
0.256216 3.556028 1.497209 3.866861 1.498869 1.173215 -0.004586 -0.000373 -2279130.000000 1 0 0
-7.589784 -3.078972 3.868809 9.058288 0.385388 1.129511 -0.002047 -0.004067 37572.200000 1 0 0
-2.280384 8.318328 -6.826991 11.000115 -1.303230 2.240341 -0.002048 -0.002796 -225017.000000 1 0 0
4.439816 9.705228 7.313209 12.937791 1.141751 0.970049 -0.006042 0.003751 562749.000000 1 0 0
-11.866684 -3.117172 6.812809 14.033863 0.256879 1.063913 0.001446 -0.002682 -634433.000000 1 0 0
-4.751384 2.390728 -5.719191 7.810274 -0.466176 2.392438 0.009174 -0.010371 -672304.000000 1 0 0
-2.768384 3.089728 -1.998891 4.604990 -0.840198 2.019803 0.003651 -0.005409 1979520.000000 1 0 0
2.344216 5.193728 11.455609 12.794574 1.146816 0.461582 -0.003965 -0.004529 374342.000000 1 0 0
-0.726884 1.623728 4.504509 4.843083 -1.149887 0.376135 -0.001090 -0.002596 -5738.940000 1 0 0
5.031916 1.535728 7.605109 9.247503 0.296218 0.605187 -0.008738 0.000648 -108430.000000 1 0 0
3.353216 -8.130672 1.863009 8.990144 -1.179633 1.362056 -0.004977 -0.001469 2306540.000000 1 0 0
5.121816 6.456328 -4.681191 9.477907 0.900153 2.087372 0.000320 -0.000891 -2545740.000000 1 0 0
-3.982784 2.974028 -8.015591 9.431708 -0.641399 2.586508 0.010962 -0.012681 -67572.100000 1 0 0
-8.726684 -2.174472 -12.883091 15.711696 0.244202 2.532152 0.009471 -0.009868 565093.000000 1 0 0
-7.757884 8.262728 1.119109 11.389023 -0.816900 1.472375 -0.002347 -0.000938 -1901190.000000 1 0 0
7.395316 0.977128 -6.508491 9.899794 0.131367 2.288209 -0.006358 0.002189 1260850.000000 1 0 0
8.950616 8.849928 5.503409 13.737622 0.779742 1.158615 0.005636 -0.005153 365327.000000 1 0 0
9.399016 -1.038972 -1.303091 9.545628 -0.110094 1.707736 0.002016 -0.001487 1171680.000000 1 0 0
5.313616 -0.029272 4.236709 6.795960 -0.005509 0.897693 -0.007778 -0.000634 -950836.000000 1 0 0
-4.127084 -7.101072 -8.045991 11.497653 1.044321 2.345906 0.012381 -0.011049 -224368.000000 1 0 0
-2.156484 7.461528 -0.662991 7.795151 -1.289449 1.655951 -0.000105 -0.003183 -48530.400000 1 0 0
13.257216 -3.352472 -7.374191 15.536136 -0.247687 2.065360 0.004849 -0.003754 919313.000000 1 0 0
-4.693684 -5.083172 1.649609 7.112701 0.825215 1.336741 0.004626 -0.002198 2560640.000000 1 0 0
-8.786884 1.311028 2.457509 9.217780 -0.148110 1.300927 -0.006407 -0.000201 -1373800.000000 1 0 0
-1.067784 11.138028 10.083809 15.062504 -1.475220 0.837309 -0.007836 0.000903 328922.000000 1 0 0
-8.512284 0.314628 7.355509 11.254398 -0.036945 0.858508 -0.004966 -0.000987 -217252.000000 1 0 0
-5.928184 12.993828 -2.074391 14.432118 -1.142773 1.715030 -0.006138 0.002247 785084.000000 1 0 0
-12.945384 -0.766072 3.216609 13.361003 0.059108 1.327662 0.001445 -0.001775 556302.000000 1 0 0
-6.589384 12.782828 8.796709 16.858314 -1.094836 1.021834 0.007332 -0.003823 2668180.000000 1 0 0
-7.990984 0.801728 -14.136391 16.258418 -0.099994 2.624948 -0.000015 -0.001795 -534281.000000 1 0 0
7.270116 2.916028 3.698709 8.662462 0.381452 1.129645 -0.002461 -0.001932 -485520.000000 1 0 0
-1.670584 0.797628 -1.948091 2.687400 -0.445449 2.381683 0.005004 -0.004839 961729.000000 1 0 0
-6.241084 9.656828 -10.426391 15.521439 -0.997036 2.307353 -0.001500 0.000568 -139448.000000 1 0 0
-10.123884 13.788228 5.333109 17.917877 -0.937457 1.268575 -0.005921 0.000838 620058.000000 1 0 0
-5.583084 8.403228 2.381809 10.366199 -0.984366 1.338958 -0.002287 0.000224 -1227420.000000 1 0 0
-2.491484 -10.850872 -1.258791 11.204172 1.345097 1.683384 0.001898 0.002014 251975.000000 1 0 0
-2.415984 -12.449372 8.802909 15.437456 1.379114 0.964010 0.000732 -0.002620 535116.000000 1 0 0
-14.706984 -6.416572 -1.618791 16.127252 0.411398 1.671342 0.010176 0.000334 632619.000000 1 0 0
-2.798584 -9.414872 3.327009 10.370192 1.281863 1.244197 0.000188 0.000506 -1902290.000000 1 0 0
4.700216 -2.755972 7.525409 9.290812 -0.530322 0.626672 -0.003002 0.002011 -1458760.000000 1 0 0
-15.207684 -1.174872 -0.342291 15.256839 0.077102 1.593233 0.013599 -0.003737 406055.000000 1 0 0
5.507016 8.829828 -2.841591 10.787387 1.013144 1.837360 0.000351 -0.000595 -1180380.000000 1 0 0
-5.601084 -5.684272 8.484009 11.647382 0.792769 0.754806 0.005257 -0.003860 -3751490.000000 1 0 0
3.402816 3.532328 6.871709 8.442564 0.804071 0.619900 -0.008484 -0.000505 641348.000000 1 0 0
3.249516 2.367328 9.312409 10.143202 0.629610 0.407553 -0.004569 -0.002745 1148100.000000 1 0 0
10.044216 -3.258572 5.249009 11.792229 -0.313710 1.109483 0.004512 -0.004076 -419586.000000 1 0 0
6.542016 10.075528 -5.035191 13.025643 0.994915 1.967695 0.005147 -0.003858 536007.000000 1 0 0
-4.559584 12.135128 -8.549791 15.529007 -1.211382 2.153842 0.000573 0.003524 547896.000000 1 0 0
-3.375584 -7.279072 2.031909 8.276963 1.136577 1.322772 0.002948 0.001021 747539.000000 1 0 0
-7.353184 -4.017972 1.057109 8.445762 0.500095 1.445303 0.003690 -0.000602 5073110.000000 1 0 0
-1.862284 -3.913372 -10.931891 11.759627 1.126633 2.764155 0.007425 -0.006133 -1109880.000000 1 0 0
-5.178384 8.267328 -4.477091 10.733532 -1.011214 2.001062 0.002805 -0.002409 -1175290.000000 1 0 0
-10.963084 -3.229972 -10.211791 15.326533 0.286516 2.300008 0.013003 -0.003242 -271276.000000 1 0 0
4.648716 -11.406272 -7.799991 14.579214 -1.183792 2.135313 -0.008922 -0.000996 -2529730.000000 1 0 0
-9.424684 -4.028372 7.155109 12.499922 0.403925 0.961352 -0.001687 -0.002612 -564917.000000 1 0 0
-5.793584 -9.617272 -5.067291 12.318075 1.028603 1.994753 0.007196 -0.005717 207243.000000 1 0 0
4.903316 4.418028 -9.517691 11.582224 0.733383 2.535271 -0.004045 0.003967 84117.600000 1 0 0
-3.343384 -7.152072 -14.109391 16.168032 1.133509 2.631444 -0.005533 0.000750 -109689.000000 1 0 0
0.724716 -0.829172 -8.750391 8.819415 -0.852520 3.016400 0.002176 -0.009635 215687.000000 1 0 0
-7.700484 2.183828 -2.931491 8.524095 -0.276340 1.921870 0.001615 -0.004577 123639.000000 1 0 0
-2.311884 7.469928 -12.551391 14.787902 -1.270654 2.584434 -0.001087 -0.003555 -139254.000000 1 0 0
-9.884784 8.823828 7.598409 15.274315 -0.728749 1.050124 -0.001473 -0.005950 -257062.000000 1 0 0
-10.577684 -3.247272 -14.354891 18.124433 0.297860 2.484905 0.015116 -0.005078 -676079.000000 1 0 0
-3.348784 4.796628 7.924509 9.849865 -0.961310 0.635913 -0.005177 0.002453 -518447.000000 1 0 0
8.671916 -2.302072 -3.509391 9.634183 -0.259478 1.943639 -0.002469 -0.000366 -6056750.000000 1 0 0
1.857116 -8.459472 -1.113891 8.732257 -1.354693 1.698705 -0.001343 0.000097 -300452.000000 1 0 0
-13.612084 -2.884572 5.002909 14.786436 0.208823 1.225639 0.005173 -0.004372 288948.000000 1 0 0
7.028516 2.857328 -1.952091 7.834221 0.386126 1.822624 -0.000143 -0.000347 1626700.000000 1 0 0
-11.138984 4.511628 8.927309 14.970925 -0.384835 0.931900 -0.006366 -0.002557 -2888380.000000 1 0 0
-1.741184 -2.620572 7.822909 8.431905 0.984345 0.382392 0.001292 -0.001534 -1308180.000000 1 0 0
3.024216 11.981428 -10.002091 15.897871 1.323552 2.251251 -0.002146 0.001713 606819.000000 1 0 0
3.708716 -5.061672 -7.011691 9.409512 -0.938456 2.411587 -0.012444 -0.003451 21651.500000 1 0 0
8.291616 -13.744272 -9.764791 18.788482 -1.027970 2.117322 -0.003426 0.003198 229718.000000 1 0 0
-6.224784 -5.720372 -0.443891 8.465674 0.743196 1.623255 0.006822 0.000083 -391686.000000 1 0 0
-1.136884 -4.099672 9.865609 10.743838 1.300283 0.407139 0.000223 -0.000563 1118820.000000 1 0 0
2.813716 3.185128 1.808009 4.618542 0.847233 1.168571 -0.009135 0.000538 -1023250.000000 1 0 0
-9.011084 13.432128 7.748809 17.935042 -0.979896 1.124033 -0.004873 -0.010662 -454705.000000 1 0 0
3.911616 -11.238472 0.010209 11.899752 -1.235855 1.569938 -0.002246 -0.003745 -126454.000000 1 0 0
-12.451684 -1.394772 -9.145291 15.512130 0.111550 2.201307 0.006241 -0.003197 35921.400000 1 0 0
-4.209184 0.841428 -13.522191 14.187138 -0.197302 2.834215 0.006712 -0.005429 633654.000000 1 0 0
3.987516 -3.214472 4.863309 7.062924 -0.678470 0.811283 -0.001312 0.001442 -284161.000000 1 0 0
1.766516 -1.289572 1.064109 2.432263 -0.630584 1.117982 -0.001944 -0.002445 772270.000000 1 0 0
8.084016 -9.165272 7.330509 14.250961 -0.848000 1.030504 0.005559 -0.003427 -1206390.000000 1 0 0
-0.061784 2.282728 -6.500391 6.889829 -1.543737 2.803763 0.004594 -0.009873 918843.000000 1 0 0
-3.780284 -9.658572 -3.351291 10.899987 1.197733 1.883317 0.006522 0.000997 782369.000000 1 0 0
-9.529384 2.349128 -5.530391 11.265558 -0.241695 2.083932 -0.003842 0.000336 -2370490.000000 1 0 0
8.905316 -7.723272 5.270609 12.912510 -0.714433 1.150338 0.001449 -0.003019 936261.000000 1 0 0
-5.568784 -4.325572 4.531509 8.381915 0.660405 0.999611 -0.000144 -0.003435 -66920.700000 1 0 0
-0.287384 -12.494072 10.337009 16.218452 1.547799 0.879728 0.003183 -0.003301 -17969.000000 1 0 0
-14.223984 -8.311872 3.082409 16.760376 0.528837 1.385833 -0.001720 -0.004922 -1461410.000000 1 0 0
10.825716 -1.230172 -3.556991 11.461310 -0.113149 1.886355 0.002420 -0.000697 -201571.000000 1 0 0
-13.519784 3.030328 2.703909 14.116606 -0.220496 1.378064 -0.003035 -0.002326 -1365370.000000 1 0 0
-6.297084 6.181328 0.895509 8.869274 -0.776122 1.469656 -0.002987 -0.001153 212715.000000 1 0 0
7.099816 -6.983472 -0.330591 9.964214 -0.777137 1.603980 -0.003819 -0.003769 915836.000000 1 0 0
-6.884384 7.823728 10.025309 14.460715 -0.849177 0.804767 0.000399 0.000386 7371.160000 1 0 0
-12.681784 -4.994172 -1.918291 13.764056 0.375156 1.710621 0.004322 -0.000918 -830634.000000 1 0 0
-9.432484 -5.521772 0.188909 10.931487 0.529615 1.553514 0.006370 -0.000549 -892237.000000 1 0 0
-1.734584 1.866028 2.182609 3.354791 -0.821888 0.862429 -0.000085 -0.001336 74664.700000 1 0 0
-7.107684 7.339628 7.516109 12.683895 -0.801451 0.936549 -0.001690 -0.001318 -133044.000000 1 0 0
5.538716 7.148128 -0.404091 9.051872 0.911581 1.615453 -0.000201 -0.001251 -1715220.000000 1 0 0
0.064316 -4.007772 7.389809 8.406881 -1.554750 0.496995 0.000300 -0.001435 -734352.000000 1 0 0
6.371016 0.659728 13.098409 14.580583 0.103184 0.454807 -0.004066 0.003742 602703.000000 1 0 0
5.858616 6.159728 -7.954291 11.642009 0.810447 2.322988 -0.004595 0.000498 -686064.000000 1 0 0
9.890416 5.189728 9.016009 14.354164 0.483230 0.891673 -0.001563 -0.002408 -2879850.000000 1 0 0
-1.145284 -4.973272 -8.414091 9.840835 1.344455 2.596382 0.008154 -0.006660 787911.000000 1 0 0
9.966916 -3.478272 -7.896591 13.183093 -0.335767 2.213040 0.001341 -0.004659 737972.000000 1 0 0
8.487416 -5.449172 1.273409 10.166183 -0.570752 1.445207 0.001459 -0.002869 1501390.000000 1 0 0
15.741316 3.196128 -5.055991 16.839457 0.200318 1.875748 0.010667 0.000611 319495.000000 1 0 0
-6.879684 3.656328 1.136409 7.873386 -0.488503 1.425955 -0.001804 -0.003048 587053.000000 1 0 0
-1.763784 3.776628 0.281709 4.177704 -1.133874 1.503314 -0.000217 -0.003915 -612337.000000 1 0 0
-2.593884 10.200428 6.832109 12.548094 -1.321783 0.995035 -0.003574 0.003827 -650564.000000 1 0 0
5.495316 -5.739072 -8.691091 11.775844 -0.807092 2.400963 -0.010481 -0.001571 -2539340.000000 1 0 0
-1.182484 -0.947372 6.181909 6.364887 0.675455 0.240361 0.000579 -0.002851 276919.000000 1 0 0
-5.587584 5.088228 -7.827091 10.880005 -0.738658 2.373736 0.002326 -0.003297 -448792.000000 1 0 0
6.782216 -1.321372 2.531509 7.358873 -0.192419 1.219615 -0.003245 -0.000597 -2110430.000000 1 0 0
8.732016 7.457528 3.174609 11.913898 0.706837 1.301075 0.001938 -0.002634 -303323.000000 1 0 0
-5.322784 -4.793472 -7.657591 10.485614 0.733123 2.389550 0.012741 -0.011095 1856750.000000 1 0 0
-2.239884 7.877928 -10.036491 12.954149 -1.293782 2.457148 0.002923 -0.002079 455950.000000 1 0 0
-2.872084 -2.239072 1.662209 4.003155 0.662177 1.142607 -0.001053 -0.001147 409568.000000 1 0 0
5.933516 -1.979672 -9.202391 11.126981 -0.322029 2.544607 -0.006133 0.001025 1185850.000000 1 0 0
1.074016 -7.634972 5.092809 9.240293 -1.431043 0.987052 -0.004075 0.000357 573832.000000 1 0 0
1.728716 11.693128 1.181309 11.879107 1.424019 1.471187 -0.001553 -0.001501 136797.000000 1 0 0
-0.999884 6.946028 2.552209 7.467318 -1.427828 1.221982 -0.006307 0.000419 752186.000000 1 0 0
8.705716 7.955728 -6.646191 13.537169 0.740415 2.083986 -0.000486 -0.003396 -398541.000000 1 0 0
3.627216 -11.073172 5.442609 12.860553 -1.254244 1.133820 0.002876 -0.001581 43351.400000 1 0 0
7.894416 -7.209772 12.344409 16.330556 -0.740101 0.713755 0.003982 -0.005146 -175132.000000 1 0 0
-8.803684 0.117928 -3.936191 9.644292 -0.013394 1.991209 0.003341 -0.003773 -672333.000000 1 0 0
-3.257884 -5.019272 11.211409 12.708367 0.995072 0.490268 0.003403 -0.003474 705634.000000 1 0 0
-8.160384 0.124328 -11.574091 14.162165 -0.015234 2.527427 0.003740 -0.006721 -1877190.000000 1 0 0
1.537616 -5.085772 5.285909 7.494677 -1.277197 0.787966 0.000254 -0.000780 -612563.000000 1 0 0
6.736916 3.724028 -7.723991 10.904790 0.504975 2.357900 -0.006032 0.002898 -1997490.000000 1 0 0
16.303516 4.272528 -1.162091 16.894069 0.256298 1.639638 0.000422 0.007705 529861.000000 1 0 0
7.910716 7.447328 0.156309 10.865843 0.755235 1.556410 0.002432 -0.002884 -2246120.000000 1 0 0
5.500816 -10.452472 13.856509 18.207581 -1.086355 0.705897 0.002537 -0.002445 421199.000000 1 0 0
-5.198984 -9.228372 8.978009 13.885134 1.057747 0.867689 0.002710 -0.007105 427275.000000 1 0 0
-12.555684 -3.166672 2.827409 13.253953 0.247058 1.355819 0.005528 -0.002348 88715.700000 1 0 0
-2.135284 -1.328272 -5.830191 6.349399 0.556482 2.734377 0.008582 -0.010722 -672635.000000 1 0 0
-2.467084 13.017028 -4.340191 13.941548 -1.383491 1.887371 -0.007915 0.005670 470470.000000 1 0 0
3.888416 -0.423172 -4.916491 6.282574 -0.108402 2.469563 -0.003385 -0.002078 -307105.000000 1 0 0
-8.725684 3.888728 -7.391891 12.078900 -0.419243 2.229342 0.000028 0.000351 89065.100000 1 0 0
-4.507484 7.924128 -11.333091 14.544695 -1.053611 2.464170 -0.000609 -0.003071 -1852930.000000 1 0 0
-10.125784 -6.503272 7.440909 14.148893 0.570907 1.017023 -0.000376 -0.002834 -344512.000000 1 0 0
7.906516 5.344928 4.180509 10.419112 0.594447 1.157932 -0.002569 -0.001891 -1217240.000000 1 0 0
-6.744784 -7.493772 4.067809 10.871789 0.837953 1.187304 0.006330 -0.001475 -661164.000000 1 0 0
-3.993784 11.940328 8.214009 15.033020 -1.248015 0.992739 -0.001247 0.003540 -554667.000000 1 0 0
-7.198984 10.105928 -8.018991 14.773604 -0.951828 2.144554 0.007766 -0.001934 -948676.000000 1 0 0
13.031016 5.434528 4.588509 14.845736 0.395114 1.256572 0.001204 -0.006383 -123942.000000 1 0 0
5.323116 4.071828 -3.731291 7.670585 0.652990 2.078809 -0.002213 0.001801 466220.000000 1 0 0
-2.968084 -4.168572 5.127109 7.243878 0.952052 0.784438 0.001583 -0.003109 -1789490.000000 1 0 0
12.260016 -2.447272 -5.136191 13.515827 -0.197024 1.960607 0.003434 -0.002698 -2137970.000000 1 0 0
-5.174484 9.847028 7.014109 13.150550 -1.086968 1.008217 -0.002350 0.002718 116461.000000 1 0 0
1.825616 3.804828 -0.504091 4.250141 1.123426 1.689682 -0.005832 -0.001121 374470.000000 1 0 0
-0.096184 9.613528 7.682909 12.306757 -1.560792 0.896582 -0.009317 0.004233 -404416.000000 1 0 0
-5.513084 2.045728 5.891309 8.323858 -0.355319 0.784471 -0.003909 0.000478 747641.000000 1 0 0
8.783416 0.846728 10.622709 13.809681 0.096104 0.693174 -0.004450 0.004760 -2130330.000000 1 0 0
0.495716 -2.812072 -10.136291 10.530806 -1.396308 2.867005 -0.001066 -0.005777 -2080020.000000 1 0 0
1.216316 10.603728 -2.744491 11.020467 1.456589 1.822481 -0.000535 -0.002124 -891649.000000 1 0 0
2.370216 -4.358272 11.695909 12.704596 -1.072692 0.401170 -0.001059 -0.000653 -746245.000000 1 0 0
6.572416 -3.135072 9.460309 11.938290 -0.445083 0.656007 -0.003012 0.000484 760609.000000 1 0 0
-10.660784 -8.271672 5.627309 14.619832 0.659870 1.175687 0.003292 -0.002378 -881144.000000 1 0 0
-2.915784 0.856428 -6.941191 7.577295 -0.285687 2.728918 0.011792 -0.011920 845624.000000 1 0 0
11.098216 2.691628 -4.970791 12.454879 0.237934 1.981336 0.001274 0.000624 -2777520.000000 1 0 0
-2.045484 -4.032672 -0.003691 4.521777 1.101383 1.571613 0.000841 -0.001996 898353.000000 1 0 0
-1.369084 -6.419872 -10.589291 12.458822 1.360687 2.586674 -0.000076 -0.003342 750416.000000 1 0 0
0.392616 6.775228 -6.666391 9.513077 1.512912 2.347260 0.002913 -0.001368 -2219290.000000 1 0 0
2.164516 3.777428 -6.138691 7.525797 1.050456 2.524711 -0.000574 -0.003122 -1127380.000000 1 0 0
1.485316 -14.897872 6.398509 16.281698 -1.471425 1.166918 0.013236 -0.008494 -615014.000000 1 0 0
-1.569184 5.436528 -10.634991 12.046626 -1.289796 2.652627 0.006179 -0.008156 -139588.000000 1 0 0
13.690316 4.353728 -0.741391 14.385039 0.307901 1.622358 0.001446 -0.000075 -398454.000000 1 0 0
-2.349384 3.362128 -6.169591 7.408601 -0.960890 2.554872 0.008627 -0.010657 -887438.000000 1 0 0
5.759916 7.794428 14.164309 17.162674 0.934386 0.600068 0.004864 -0.000752 527215.000000 1 0 0
15.773116 0.677228 -5.783391 16.813609 0.042909 1.921939 0.000417 -0.005527 323244.000000 1 0 0
6.256216 -8.484472 10.532709 14.901828 -0.935426 0.785823 -0.004766 0.001458 563361.000000 1 0 0
0.058916 -5.875272 -6.378991 8.672590 -1.560769 2.397252 -0.002658 -0.004428 -1680850.000000 1 0 0
8.677016 5.605628 -7.543991 12.791617 0.573581 2.201559 -0.004107 0.003568 -692026.000000 1 0 0
-16.008184 -0.807372 5.261709 16.870074 0.050392 1.253608 0.007498 -0.003253 -16651.500000 1 0 0
-0.269384 3.895228 -12.257491 12.864348 -1.501749 2.833212 0.006200 -0.005477 500367.000000 1 0 0
-11.303884 3.727328 5.858809 13.266364 -0.318512 1.113383 -0.002432 -0.004474 -513842.000000 1 0 0
5.107116 -9.615572 -9.710391 14.588816 -1.082556 2.299101 -0.014560 0.000542 428282.000000 1 0 0
1.557916 11.234128 -11.789191 16.359027 1.432998 2.375541 -0.002060 0.006159 -1398150.000000 1 0 0
5.840916 2.367828 1.251809 6.425724 0.385141 1.374730 -0.001997 -0.000569 -238369.000000 1 0 0
5.619316 4.524428 4.957509 8.753517 0.677877 0.968732 -0.007814 -0.000220 -549634.000000 1 0 0
0.445116 -1.623672 -6.339791 6.559527 -1.303228 2.882026 0.000911 -0.007726 -603575.000000 1 0 0
12.598116 6.834928 -4.476191 15.015494 0.497094 1.873503 0.000573 0.000864 -697903.000000 1 0 0
7.263716 3.165628 12.674809 14.947694 0.410994 0.558702 -0.007279 0.002354 -606784.000000 1 0 0
-2.435284 -0.268572 8.568709 8.912099 0.109840 0.278499 -0.004283 0.000826 846298.000000 1 0 0
2.264316 -15.206372 13.309909 20.335057 -1.422977 0.857235 0.012134 -0.001308 -487862.000000 1 0 0
18.947616 4.610828 -1.547491 19.561866 0.238706 1.649987 0.013116 0.004117 1375600.000000 1 0 0
-0.397284 -13.207672 7.240809 15.067507 1.540726 1.069506 -0.004698 -0.004954 -292869.000000 1 0 0
4.302716 1.487428 -0.546091 4.585196 0.332835 1.690178 -0.002110 -0.000556 707474.000000 1 0 0
2.801416 -0.636672 -7.347791 7.889443 -0.223472 2.768885 -0.005939 -0.003395 -85743.800000 1 0 0
7.183816 -11.427072 0.870209 13.525622 -1.009565 1.506414 -0.000265 -0.004395 367682.000000 1 0 0
-11.833884 -7.385972 1.300509 14.010165 0.557979 1.477836 0.007981 0.001533 353322.000000 1 0 0
0.199716 -7.088072 10.189109 12.413646 -1.542627 0.607988 -0.004030 -0.000162 -2192650.000000 1 0 0
-4.585284 -7.186372 10.627809 13.624210 1.002866 0.676022 0.007648 -0.003314 -1040480.000000 1 0 0
11.802316 0.787128 -1.540391 11.928413 0.066594 1.700294 0.004334 -0.001240 422186.000000 1 0 0
6.433816 -9.684972 -7.418791 13.792430 -0.984428 2.138727 -0.011831 -0.003939 -1201710.000000 1 0 0
-10.921984 4.830328 3.448809 12.430450 -0.416397 1.289659 -0.006928 -0.003200 45346.500000 1 0 0
5.964016 -9.242872 2.047309 11.188907 -0.997764 1.386783 -0.001126 -0.004813 4796170.000000 1 0 0
11.608516 -1.369072 5.925109 13.104920 -0.117395 1.101646 0.003854 -0.006233 367606.000000 1 0 0
-6.557584 3.530128 4.100909 8.501833 -0.493837 1.067454 -0.006926 0.000351 -1079710.000000 1 0 0
9.544016 6.411328 -3.219091 11.939678 0.591523 1.843787 0.002285 0.001132 -1244560.000000 1 0 0
-2.298484 6.591628 10.866209 12.915382 -1.235282 0.571041 -0.010025 0.002906 -334928.000000 1 0 0
1.935716 9.758528 3.082709 10.415323 1.374977 1.270317 -0.009266 -0.001534 -112091.000000 1 0 0
2.937316 6.105628 -5.635091 8.812535 1.122396 2.264567 -0.001947 -0.001577 -1929770.000000 1 0 0
11.998516 0.110728 -5.409391 13.161997 0.009228 1.994331 0.007963 -0.000009 446756.000000 1 0 0
-2.609684 -12.435872 6.238609 14.155621 1.363947 1.114400 0.000238 -0.000237 -117302.000000 1 0 0
10.949916 1.951728 -2.708191 11.447454 0.176389 1.809636 0.006392 0.002066 530693.000000 1 0 0
-8.863384 5.466228 0.809409 10.444825 -0.552623 1.493225 -0.005108 -0.002146 158653.000000 1 0 0
1.139116 -10.143272 5.506209 11.597495 -1.458962 1.076087 -0.003329 -0.000650 -336017.000000 1 0 0
9.273416 -5.716972 -1.248191 10.965309 -0.552457 1.684875 -0.002950 -0.003775 1799970.000000 1 0 0
-7.663684 8.764628 -4.482591 12.475751 -0.852313 1.938319 0.001001 -0.000299 -100663.000000 1 0 0
-7.406384 -0.023072 -1.663491 7.590933 0.003115 1.791731 0.001124 -0.002803 -1633080.000000 1 0 0
4.180216 8.838528 2.670109 10.135248 1.129019 1.304202 0.000180 -0.003512 90993.500000 1 0 0
-1.386284 -10.540572 -3.756091 11.275357 1.440028 1.910411 0.001887 0.000274 -705088.000000 1 0 0
3.214516 7.904228 -3.681991 9.293384 1.184542 1.978165 0.001729 -0.003607 -590217.000000 1 0 0
-4.243884 1.717928 -11.050391 11.961311 -0.384638 2.748802 0.007772 -0.010389 148328.000000 1 0 0
1.154016 2.789828 10.975409 11.383079 1.178577 0.268438 -0.002530 -0.001312 943763.000000 1 0 0
2.199516 5.572528 -8.048691 10.033562 1.194861 2.501728 0.000218 -0.001733 470296.000000 1 0 0
15.548316 5.994228 4.045709 17.147847 0.367964 1.332620 0.006734 -0.008898 447837.000000 1 0 0
-4.435684 9.049328 4.620809 11.086817 -1.115046 1.140892 -0.001834 0.002618 -1343820.000000 1 0 0
-0.878384 -8.135772 -12.403291 14.859474 1.463247 2.558395 -0.009064 -0.000426 -1003980.000000 1 0 0
14.265616 -4.169972 -5.276391 15.771391 -0.284386 1.911929 0.009181 -0.005207 162040.000000 1 0 0
-6.148884 -6.215972 -5.685491 10.429377 0.790824 2.147355 0.012151 -0.006422 708243.000000 1 0 0
-8.862084 2.564128 -12.313891 15.386461 -0.281646 2.498603 -0.000205 -0.005690 80649.000000 1 0 0
10.465716 5.521228 13.675109 18.083799 0.485447 0.713298 0.002341 0.001572 460800.000000 1 0 0
-0.484884 10.777028 5.508809 12.113068 -1.525834 1.098669 -0.006994 0.006046 422215.000000 1 0 0
0.276816 11.288728 -0.608591 11.308509 1.546280 1.624639 -0.003058 -0.002345 -189103.000000 1 0 0
-1.469384 -0.651772 3.634709 3.974293 0.417493 0.416390 -0.000038 -0.001841 328200.000000 1 0 0
-4.845284 6.821428 8.727909 12.090701 -0.953189 0.764296 -0.004943 0.003032 -2048800.000000 1 0 0
3.460816 -8.674872 -11.479191 14.798732 -1.191198 2.458600 -0.014399 0.002378 201250.000000 1 0 0
6.709316 -3.862172 12.000009 14.280459 -0.522318 0.572942 0.003405 -0.000411 -119971.000000 1 0 0
-2.468084 -1.835472 -12.463391 12.837309 0.639446 2.899642 0.007497 -0.007084 1044140.000000 1 0 0
-16.067984 -4.854772 5.223709 17.579422 0.293418 1.269091 0.011548 -0.007265 1824150.000000 1 0 0
-8.914984 7.249528 5.675909 12.815949 -0.682729 1.111990 -0.006469 -0.000347 -3199720.000000 1 0 0
-12.826184 1.514628 6.112209 14.288604 -0.117544 1.128774 -0.002644 -0.003838 443183.000000 1 0 0
-3.567984 3.474328 10.168809 11.322815 -0.772100 0.455409 -0.007527 0.006266 565133.000000 1 0 0
1.990216 -12.243772 -1.124891 12.455372 -1.409656 1.661233 -0.000380 -0.000944 -2966240.000000 1 0 0
10.166916 -5.044972 -3.664391 11.926680 -0.460615 1.883091 -0.000635 -0.002401 657601.000000 1 0 0
3.013516 -13.513872 1.029309 13.884002 -1.351392 1.496592 0.000928 -0.001362 364466.000000 1 0 0
10.006516 -1.553472 -6.081091 11.811998 -0.154017 2.111598 0.002656 -0.000996 416481.000000 1 0 0
11.905316 -5.343972 -1.597591 13.147125 -0.421916 1.692614 0.001616 -0.002953 -541982.000000 1 0 0
1.432616 0.891628 5.975509 6.209194 0.556711 0.275223 -0.004031 -0.002805 638153.000000 1 0 0
-10.824084 11.758928 6.688509 17.325396 -0.826770 1.174448 -0.007794 -0.005593 -176178.000000 1 0 0
4.615916 -14.193172 3.179009 15.259716 -1.256365 1.360932 0.004202 -0.004893 -3153400.000000 1 0 0
5.171116 -3.439972 -1.721091 6.444843 -0.587006 1.841126 -0.000338 -0.003665 -1526150.000000 1 0 0
1.966516 -3.060472 -7.673691 8.492303 -0.999674 2.698909 -0.004888 -0.003382 -172830.000000 1 0 0
-2.729884 14.685728 -8.736991 17.304851 -1.387007 2.100047 0.004636 -0.001417 -1919060.000000 1 0 0
-2.342784 5.994828 -8.145291 10.381347 -1.198245 2.472860 0.009060 -0.006299 -208548.000000 1 0 0
2.586516 -3.468772 -11.238091 12.042306 -0.930080 2.774062 -0.006529 -0.000239 -2451860.000000 1 0 0
14.713416 2.797728 -2.631991 15.206553 0.187905 1.744755 0.006400 0.000602 620824.000000 1 0 0
-3.445384 13.119928 2.365609 13.769505 -1.313988 1.398139 -0.003721 0.002944 -794074.000000 1 0 0
7.873616 -5.063572 13.901909 16.759972 -0.571514 0.592637 0.004904 -0.004665 -2296920.000000 1 0 0
-11.272084 7.330628 2.830609 13.740827 -0.576610 1.363311 -0.007463 -0.000681 862832.000000 1 0 0
-2.272384 11.859428 4.068009 12.741996 -1.381481 1.245848 -0.005475 0.004176 -129378.000000 1 0 0
1.753416 1.482628 0.689009 2.397371 0.701914 1.279283 -0.006444 0.000040 -1231740.000000 1 0 0
-6.772584 8.629728 5.321709 12.192649 -0.905395 1.119126 -0.004538 -0.000221 -1366720.000000 1 0 0
-1.045784 9.027928 0.980809 9.141068 -1.455472 1.463292 -0.004585 -0.000697 286415.000000 1 0 0
4.852016 12.949028 -8.468491 16.215262 1.212288 2.120289 0.001334 -0.006800 -1586280.000000 1 0 0
8.918616 6.869828 7.154809 13.338948 0.656354 1.004649 -0.004370 -0.003659 -1481600.000000 1 0 0
7.081116 -13.759472 2.854709 15.735776 -1.095509 1.388371 0.012245 -0.008664 -321047.000000 1 0 0
4.136316 -13.469972 -1.304291 14.150987 -1.272860 1.663097 -0.002591 0.003449 -3336000.000000 1 0 0
12.047916 -11.910672 -4.603291 17.555816 -0.779670 1.836107 0.006868 -0.004724 -1221410.000000 1 0 0
3.009816 -0.073372 -2.070391 3.653888 -0.024373 2.173203 -0.003178 -0.001507 1417870.000000 1 0 0
-13.604584 -3.135872 -10.672891 17.573531 0.226544 2.223489 0.007703 -0.011198 508187.000000 1 0 0
-6.539784 13.659928 5.092009 15.977827 -1.124287 1.246447 0.003850 -0.002018 334430.000000 1 0 0
7.211816 -4.331472 -0.609891 8.434685 -0.540866 1.643167 -0.004994 -0.002032 -2579880.000000 1 0 0
11.702816 1.925728 -7.221491 13.885757 0.163091 2.117723 0.005156 0.000706 -867709.000000 1 0 0
-7.582984 -4.602772 9.664209 13.118083 0.545541 0.742606 0.000439 -0.003081 458288.000000 1 0 0
0.966616 2.816328 8.392409 8.904975 1.240176 0.340941 -0.005533 0.000558 -1287730.000000 1 0 0
1.639116 8.074028 -8.708291 11.987950 1.370507 2.383895 0.001000 -0.001112 -66900.100000 1 0 0
-8.564484 -1.978572 -5.683291 10.467327 0.227037 2.144749 0.012127 -0.007111 -2299010.000000 1 0 0
6.660616 -0.527572 7.153609 9.788578 -0.079043 0.751286 -0.002736 -0.001063 399242.000000 1 0 0
-10.885984 6.510628 7.203409 14.587050 -0.539002 1.054316 -0.003002 -0.002189 593428.000000 1 0 0
-5.988384 11.064528 4.970809 13.527508 -1.074716 1.194521 0.000144 0.000854 -198737.000000 1 0 0
6.066916 -1.199872 -6.819491 9.206119 -0.195253 2.404992 -0.005777 -0.000910 -800339.000000 1 0 0
4.533916 -5.818272 11.367609 13.551060 -0.908834 0.575588 -0.003035 0.001074 -1093480.000000 1 0 0
-9.005184 -7.367772 2.754509 11.956786 0.685722 1.338336 0.004789 -0.001163 -2541400.000000 1 0 0
-1.003984 12.702528 -9.274591 15.760084 -1.491922 2.199981 0.000676 0.002240 811637.000000 1 0 0
-4.473384 9.304728 -2.327691 10.583349 -1.122655 1.792548 -0.003157 -0.001691 67589.900000 1 0 0
-3.194884 9.633028 -0.171491 10.150464 -1.250553 1.587692 -0.001597 -0.002093 -1690460.000000 1 0 0
-3.287284 10.751228 -6.439591 12.956213 -1.274065 2.090966 -0.003660 0.002845 779790.000000 1 0 0
4.824816 -4.912572 0.332209 6.893662 -0.794410 1.522587 -0.002515 -0.003700 -1810260.000000 1 0 0
-2.194884 3.051628 -10.778791 11.415441 -0.947267 2.806042 0.009802 -0.007684 -1997910.000000 1 0 0
-3.426484 12.069828 -2.154091 12.730343 -1.294186 1.740824 -0.007442 0.003600 -458663.000000 1 0 0
-0.161584 0.369328 0.060709 0.407674 -1.158379 1.421325 -0.003852 -0.001211 -2739760.000000 1 0 0
-4.904584 -1.677772 0.087509 5.184354 0.329604 1.553916 -0.002609 -0.001633 525303.000000 1 0 0
2.566916 2.466228 -2.507191 4.354003 0.765396 2.184422 -0.007062 -0.000979 1267710.000000 1 0 0
5.950316 -9.952772 8.481209 14.366448 -1.031955 0.939306 -0.002345 -0.000597 -988749.000000 1 0 0
-4.276184 -5.551872 6.542409 9.587083 0.914477 0.819729 0.003091 -0.006127 94030.900000 1 0 0
-6.237384 5.315128 -12.053991 14.575810 -0.705735 2.544522 -0.002158 -0.006062 869422.000000 1 0 0
-12.930084 3.028328 7.932809 15.468914 -0.230061 1.032327 -0.005553 -0.001695 720358.000000 1 0 0
4.734016 -7.543072 -4.871691 10.150971 -1.010331 2.071364 -0.010927 -0.003548 780501.000000 1 0 0
-5.967684 2.483428 -1.082391 6.553796 -0.394347 1.736711 0.002350 -0.005124 -729225.000000 1 0 0
-6.876084 -2.724472 -14.562691 16.333256 0.377247 2.671657 0.005962 -0.003474 -7200.490000 1 0 0
2.637016 -6.084772 0.863809 6.687636 -1.161850 1.441269 0.000002 -0.003157 201706.000000 1 0 0
4.820516 -8.022072 12.928709 15.960656 -1.029711 0.626582 -0.000732 -0.001610 -199587.000000 1 0 0
-9.974184 -1.735572 7.980809 12.891465 0.172281 0.903230 -0.001529 -0.002484 -67691.400000 1 0 0
-4.275984 13.313328 0.011009 13.983163 -1.260023 1.570009 -0.005893 0.003114 421506.000000 1 0 0
6.763916 2.296628 -4.528291 8.457569 0.327327 2.135793 -0.003318 0.002327 -1120080.000000 1 0 0
4.955316 4.496128 0.070109 6.691430 0.736852 1.560319 -0.006084 0.000103 -1355440.000000 1 0 0
-5.876984 12.295228 1.860409 13.754006 -1.124912 1.435117 -0.002020 0.000941 -803968.000000 1 0 0
6.498816 -7.358372 6.596709 11.827799 -0.847348 0.979149 -0.004099 -0.000447 -2032290.000000 1 0 0
-0.453884 4.933228 7.718109 9.171257 -1.479049 0.570642 -0.011505 0.002371 -1205420.000000 1 0 0
-5.784584 -3.344572 -1.612791 6.873767 0.524226 1.807634 0.003706 -0.002082 -1140850.000000 1 0 0
2.318216 -6.544472 -5.085091 8.605951 -1.230363 2.202946 -0.008763 -0.002359 -1622670.000000 1 0 0
-14.598784 -4.882672 -3.704291 15.833091 0.322762 1.806944 0.008604 -0.003238 -171458.000000 1 0 0
-12.405884 -5.091472 -6.372991 14.847359 0.389446 2.014441 0.015844 -0.007271 -1394430.000000 1 0 0
-14.860184 -3.753572 -1.264691 15.379006 0.247417 1.653124 0.007316 -0.003061 58836.900000 1 0 0
11.738416 2.849228 8.752309 14.916817 0.238122 0.943768 0.001456 -0.005467 -1476020.000000 1 0 0
8.745616 -6.779772 7.660409 13.458565 -0.659447 0.965282 0.001922 -0.004704 -50516.800000 1 0 0
-8.785184 -1.748572 -9.749591 13.239769 0.196469 2.398510 0.010149 -0.008643 -234516.000000 1 0 0
-8.784684 5.207128 -3.958991 10.952555 -0.535072 1.940637 -0.001100 -0.001303 -814720.000000 1 0 0
-4.052184 -6.308172 4.074509 8.533162 0.999803 1.072999 0.006558 -0.002028 -1179960.000000 1 0 0
-0.261784 -9.240372 3.524109 9.893046 1.542473 1.206576 0.000249 -0.000916 177231.000000 1 0 0
7.895016 -10.556872 3.308409 13.591335 -0.928669 1.324906 0.003083 -0.004561 -537949.000000 1 0 0
-0.038084 6.457528 9.622009 11.588105 -1.564899 0.591088 -0.009375 -0.000030 143358.000000 1 0 0
0.050316 3.502128 -9.643091 10.259466 1.556430 2.793196 0.009545 -0.006819 670809.000000 1 0 0
4.447716 -3.204672 11.086009 12.367364 -0.624366 0.459234 -0.000939 -0.000039 -2192490.000000 1 0 0
8.465116 -9.174572 1.273609 12.548029 -0.825596 1.469123 0.000559 -0.003126 -1359620.000000 1 0 0
-0.309584 -0.423572 11.329109 11.341251 0.939639 0.046277 0.005247 -0.000999 -1330310.000000 1 0 0
10.829016 5.940228 11.318709 16.753121 0.501727 0.828994 0.001961 -0.002427 395497.000000 1 0 0
-6.240184 -2.933972 -11.911591 13.763506 0.439503 2.616839 0.011555 -0.006806 523150.000000 1 0 0
-1.686184 2.782128 8.364409 8.974786 -1.025920 0.370932 -0.004319 0.002101 -1133690.000000 1 0 0
-1.478784 13.619828 -6.757791 15.275937 -1.462644 2.029049 0.000781 0.006713 682693.000000 1 0 0
7.601716 3.090828 9.776809 12.764219 0.386180 0.698272 -0.002310 0.000087 559823.000000 1 0 0
6.505416 8.516128 -8.015391 13.382502 0.918462 2.212980 0.003921 -0.002703 -981431.000000 1 0 0
6.642316 -2.989972 -3.851391 8.239752 -0.422970 2.057162 -0.002295 -0.003443 -2519430.000000 1 0 0
2.002116 8.246128 1.004209 8.544912 1.332611 1.453003 -0.004987 0.000507 883021.000000 1 0 0
-17.523484 6.328428 6.424909 19.707891 -0.346564 1.238720 0.010972 -0.007784 -600697.000000 1 0 0
-14.437884 3.136028 -10.377891 18.055132 -0.213886 2.183143 0.009065 0.001669 -804064.000000 1 0 0
-18.185884 0.149528 -4.344691 18.698264 -0.008222 1.805298 0.013896 -0.001577 295393.000000 1 0 0
-12.910784 7.964128 0.250409 15.171631 -0.552723 1.554290 -0.001534 0.001125 -733419.000000 1 0 0
-12.887084 -4.161872 -13.008691 18.778290 0.312376 2.336094 0.023259 -0.001472 -659863.000000 1 0 0
-17.265984 -0.639372 -8.723791 19.355297 0.037014 2.038366 -0.002558 -0.004654 -979553.000000 1 0 0
-16.794184 -2.205772 -2.023191 17.058820 0.130594 1.689677 0.015621 -0.006652 -1867810.000000 1 0 0
-15.172584 4.184428 1.667209 15.827076 -0.269099 1.465261 0.002808 -0.000264 -1227490.000000 1 0 0
-13.068284 6.006928 4.375009 15.033427 -0.430856 1.275505 -0.007402 -0.004452 462356.000000 1 0 0
-10.064184 14.397428 2.839709 17.794316 -0.960724 1.410526 0.010881 0.001866 -90897.000000 1 0 0
-11.873184 2.571428 -6.505591 13.780691 -0.213281 2.062445 -0.001742 0.005079 798060.000000 1 0 0
-15.812584 10.860428 4.107609 19.617828 -0.601827 1.359854 0.001597 -0.003417 -447676.000000 1 0 0
-12.799984 1.094228 -8.580191 15.448515 -0.085279 2.159647 0.004051 -0.001677 673433.000000 1 0 0
-12.302984 14.562228 4.137509 19.507457 -0.869296 1.357074 -0.000628 -0.002133 876725.000000 1 0 0
-10.466084 11.294928 -1.132491 15.440105 -0.823468 1.644210 0.008251 -0.000515 -161662.000000 1 0 0
-17.156884 5.537628 9.003609 20.151649 -0.312208 1.107619 0.012695 -0.007688 199875.000000 1 0 0
-11.663784 12.440628 -9.030591 19.296752 -0.817615 2.057806 0.020294 -0.014318 -654557.000000 1 0 0
-17.191084 -0.325772 3.020409 17.457445 0.018948 1.396906 0.017625 -0.006506 726021.000000 1 0 0
-13.053084 14.936428 -0.729391 19.849733 -0.852584 1.607550 0.024164 -0.007145 327399.000000 1 0 0
-16.488384 4.731828 -10.493491 20.108962 -0.279469 2.119793 0.027201 0.000650 1061170.000000 1 0 0
-11.712584 7.561628 -9.148891 16.675283 -0.573275 2.151545 -0.003378 0.002653 -95424.100000 1 0 0
-14.805184 13.590328 -2.006691 20.196962 -0.742641 1.670317 0.032400 -0.009059 212044.000000 1 0 0
-11.802384 10.665828 -5.334791 16.778443 -0.734856 1.894368 0.019566 -0.002922 1641840.000000 1 0 0
-17.623084 2.812128 -0.904191 17.868932 -0.158237 1.621419 0.008993 0.001601 299165.000000 1 0 0
-9.552684 15.544028 0.639509 18.255945 -1.019742 1.535759 0.016329 -0.001550 178012.000000 1 0 0
-7.996684 13.259128 -3.672591 15.913496 -1.028095 1.803680 0.006263 -0.002130 -916486.000000 1 0 0
-17.605584 11.657328 2.285509 21.238489 -0.584861 1.462976 0.032630 0.002282 -94313.400000 1 0 0
-7.945984 15.734728 -7.294991 19.077138 -1.103159 1.963183 0.037616 -0.011031 -139487.000000 1 0 0
-6.193784 15.299928 -5.393491 17.364921 -1.186138 1.886617 0.007921 0.000923 174077.000000 1 0 0
-17.303784 5.313328 -0.155691 18.101841 -0.297923 1.579397 0.014579 0.003484 743318.000000 1 0 0
-5.237084 12.210128 -12.182391 18.025674 -1.165616 2.312894 -0.010095 -0.002757 -392495.000000 1 0 0
-11.120984 3.677428 -11.524091 16.431812 -0.319356 2.348055 0.004113 -0.003210 77.158200 1 0 0
-11.806384 11.145628 1.131509 16.275627 -0.756618 1.501219 0.005764 -0.001825 -92770.000000 1 0 0
-12.849684 0.213728 -11.085091 16.971721 -0.016631 2.282534 0.007814 -0.009586 563438.000000 1 0 0
-14.313284 -1.938572 -12.977091 19.417339 0.134620 2.302751 0.028834 -0.012314 261784.000000 1 0 0
-18.813084 -2.321172 -3.603191 19.295154 0.122760 1.758640 0.013366 -0.001201 1040790.000000 1 0 0
-18.382984 4.788228 -5.138991 19.679188 -0.254809 1.834998 0.034266 0.004871 201233.000000 1 0 0
-8.129484 15.433928 -2.134291 17.574124 -1.085996 1.692542 0.011318 -0.003319 436297.000000 1 0 0
-16.094284 9.093128 -5.244191 19.214903 -0.514280 1.847227 0.026030 0.003073 -76340.700000 1 0 0
-18.312884 1.788028 2.147009 18.524805 -0.097329 1.454636 0.025500 -0.003124 341194.000000 1 0 0
-15.698684 -2.698172 -8.720791 18.159874 0.170210 2.071705 -0.001451 -0.003444 -569316.000000 1 0 0
-9.636884 10.543628 -7.062291 15.934666 -0.830300 2.029965 0.010265 -0.005986 641787.000000 1 0 0
-13.767584 11.847328 -7.506191 19.653205 -0.710572 1.962682 0.024154 -0.017672 212243.000000 1 0 0
-11.017184 6.532028 -3.791191 13.357352 -0.535178 1.858580 -0.001835 0.001537 -2239930.000000 1 0 0
-12.977784 5.171528 -12.741191 18.907817 -0.379205 2.310215 0.013925 -0.004929 -244882.000000 1 0 0
-17.380884 9.152128 2.770909 19.837704 -0.484671 1.430659 0.003312 -0.007451 341437.000000 1 0 0
-13.353784 8.814628 -6.494691 17.268533 -0.583432 1.956380 0.005299 0.004262 -389913.000000 1 0 0
-15.784184 6.978428 -3.839791 17.680015 -0.416278 1.789724 0.015153 0.008543 -966073.000000 1 0 0
-14.834184 -0.325372 -9.322491 17.523348 0.021930 2.131762 0.006176 -0.007054 70093.900000 1 0 0
-9.910384 5.896128 -6.097691 13.044611 -0.536694 2.057199 -0.002475 0.003752 767038.000000 1 0 0
-12.704184 12.426728 -0.907491 17.794477 -0.774358 1.621817 0.020196 -0.001529 -864441.000000 1 0 0
-10.657684 3.516928 -14.040491 17.974716 -0.318738 2.467261 0.011007 -0.003052 611746.000000 1 0 0
-10.844484 6.247828 -11.955791 17.308354 -0.522683 2.333326 -0.006230 -0.002367 -1302780.000000 1 0 0
-5.638684 11.594428 -14.816291 19.640468 -1.118147 2.425499 -0.004649 -0.008373 -348166.000000 1 0 0
-15.374884 13.494028 3.554209 20.763146 -0.720338 1.398770 -0.005641 -0.007060 345496.000000 1 0 0
-15.070684 11.104528 -2.898191 18.942956 -0.635019 1.724395 0.028085 -0.000650 613407.000000 1 0 0
-18.184984 7.794328 -4.542891 20.299829 -0.404927 1.796497 0.029735 0.007959 -271044.000000 1 0 0
-3.562684 16.224328 -10.580491 19.694373 -1.354638 2.137951 0.006301 0.000361 67631.100000 1 0 0
-15.774984 4.485028 -4.559891 17.022285 -0.277003 1.841986 0.013969 0.010757 503118.000000 1 0 0
-18.723384 -1.689772 -6.127691 19.772937 0.090005 1.885887 0.014969 -0.005518 393656.000000 1 0 0
-10.740184 8.649128 -5.703691 14.922837 -0.677968 1.962985 0.005686 0.004034 1546340.000000 1 0 0
-11.315284 13.782128 -6.616591 19.020041 -0.883374 1.926100 0.025600 -0.003186 379428.000000 1 0 0
-9.371484 10.614728 -4.429191 14.836269 -0.847523 1.873957 0.001020 0.000264 -426828.000000 1 0 0
-11.032384 6.312828 -0.186491 12.712202 -0.519734 1.585467 -0.006302 0.000599 -1352430.000000 1 0 0
-14.633584 9.314228 -1.155391 17.384808 -0.566824 1.637305 0.013894 0.003056 489782.000000 1 0 0
-18.294084 3.548028 4.627609 19.200958 -0.191566 1.327391 -0.003562 0.000150 156431.000000 1 0 0
-14.617184 13.224728 0.566009 19.719936 -0.735427 1.542090 0.003938 -0.000332 57513.900000 1 0 0
-16.672984 2.637728 -9.192391 19.220980 -0.156903 2.069455 0.004183 0.001968 130520.000000 1 0 0
-9.040984 8.526428 -8.822991 15.240884 -0.756116 2.188179 0.001830 0.000439 -2733370.000000 1 0 0
-17.563384 4.736228 -2.687291 18.388199 -0.263399 1.717464 0.006675 0.005257 1084790.000000 1 0 0
-13.557384 5.880328 -4.483191 15.442795 -0.409247 1.865347 0.002423 0.010469 -1354530.000000 1 0 0
-12.013184 9.755528 3.242009 15.811310 -0.682057 1.364288 -0.010133 0.001294 791428.000000 1 0 0
-17.501484 2.572128 -4.021091 18.140754 -0.145922 1.794313 0.012733 0.004486 754715.000000 1 0 0
-11.281084 1.469528 -12.670591 17.028395 -0.129535 2.409962 0.012012 -0.007359 271807.000000 1 0 0
-11.129184 12.154128 3.527809 16.853100 -0.829390 1.359910 -0.004228 -0.001883 595520.000000 1 0 0
-16.578384 13.085828 -3.865791 21.471517 -0.668201 1.751826 0.036770 -0.005466 -210448.000000 1 0 0
-11.087984 4.133528 -4.577491 12.687902 -0.356835 1.939896 -0.008433 0.003716 -105360.000000 1 0 0
-11.329284 15.086328 -8.868991 20.847277 -0.926679 2.010230 0.040657 -0.005881 319337.000000 1 0 0
-15.327284 7.072428 0.007909 16.880312 -0.432316 1.570328 0.005492 0.004943 -659173.000000 1 0 0
-12.802184 8.335928 -4.070491 15.809886 -0.577171 1.831194 0.007474 0.000177 878521.000000 1 0 0
-19.287784 1.997928 -5.872691 20.260771 -0.103217 1.864872 0.029391 -0.000083 1582990.000000 1 0 0
-12.392584 9.983228 -8.870691 18.218950 -0.678135 2.079326 0.010675 -0.008286 609549.000000 1 0 0
-16.605284 11.019328 -0.869891 19.947876 -0.585879 1.614418 0.015153 0.000508 196280.000000 1 0 0
-10.506084 6.456528 -14.530691 19.057952 -0.551050 2.437884 0.003150 -0.013744 -345317.000000 1 0 0
-14.106484 13.025528 -4.390891 19.696121 -0.745579 1.795617 0.041716 -0.002343 283409.000000 1 0 0
-17.912484 7.764328 -0.205991 19.523942 -0.409014 1.581347 0.021699 0.004763 307469.000000 1 0 0
-12.831784 6.728428 -2.085791 14.638202 -0.482942 1.713773 -0.001614 0.004561 430701.000000 1 0 0
-13.629884 8.464128 -10.632891 19.247690 -0.555716 2.156066 0.002306 -0.001788 -793594.000000 1 0 0
-14.892184 1.468728 -0.958491 14.995100 -0.098306 1.634760 0.002084 -0.000942 -1036370.000000 1 0 0
-13.348684 2.851528 -2.496091 13.876204 -0.210455 1.751664 0.002000 0.002097 -676521.000000 1 0 0
-11.119784 9.438028 -11.036691 18.290285 -0.703774 2.218577 0.004432 -0.004207 797648.000000 1 0 0
-15.135184 4.457328 -8.207991 17.785182 -0.286404 2.050490 0.003995 0.003079 238550.000000 1 0 0
-18.241984 10.654728 4.672709 21.636252 -0.528629 1.353115 0.031069 -0.019429 114029.000000 1 0 0
-15.329584 6.281328 -6.297391 17.723102 -0.388885 1.934054 0.012573 0.010394 564145.000000 1 0 0
-7.621184 11.522428 -13.003991 18.972416 -0.986434 2.325971 -0.005153 0.002938 -340173.000000 1 0 0
-16.781684 9.100628 -2.726491 19.284193 -0.496909 1.712656 0.020569 0.003172 636176.000000 1 0 0
-20.660084 -0.800672 -4.694891 21.201937 0.038735 1.794084 0.017264 -0.000026 970470.000000 1 0 0
-15.355184 4.497828 4.108109 16.519343 -0.284948 1.319474 0.007349 -0.004695 46465.900000 1 0 0
-6.968184 12.691728 -9.457891 17.294139 -1.068695 2.149434 0.008066 -0.001132 -843959.000000 1 0 0
-16.932284 1.613328 5.833409 17.981483 -0.094994 1.240406 0.003644 -0.002366 202255.000000 1 0 0
-10.260684 14.149528 -2.986491 17.731607 -0.943383 1.740031 0.028635 -0.013236 926980.000000 1 0 0
-9.846484 8.459028 -13.014091 18.381375 -0.709748 2.357464 -0.011865 -0.007594 -100048.000000 1 0 0
-13.690884 11.689328 2.790509 18.217234 -0.706698 1.417011 -0.002733 -0.002345 -434311.000000 1 0 0
-17.004084 6.722928 1.991909 18.393051 -0.376510 1.462287 0.018742 -0.001428 1145280.000000 1 0 0
-9.326984 13.406128 -8.380891 18.356367 -0.962945 2.044928 0.032775 -0.011380 -177563.000000 1 0 0
-5.579684 9.840628 -12.990191 17.225443 -1.054991 2.425122 -0.002925 0.002303 -359733.000000 1 0 0
-15.890384 1.982628 3.171709 16.324670 -0.124128 1.375263 0.008393 -0.003386 -313100.000000 1 0 0
-18.660884 -4.814772 4.382109 19.763945 0.252507 1.347216 0.021368 -0.010038 -301872.000000 1 0 0
-5.207884 14.655128 -9.161991 18.050953 -1.229352 2.103150 0.004229 0.006355 -263481.000000 1 0 0
-15.427484 -0.900372 -6.837491 16.898793 0.058295 1.987353 0.005330 0.000109 516274.000000 1 0 0
-8.959584 11.072028 -9.511291 17.126839 -0.890465 2.159573 0.007694 -0.010280 333852.000000 1 0 0
-16.707784 1.325028 -6.126091 17.844740 -0.079140 1.921224 0.008103 0.001812 -836685.000000 1 0 0
-11.185984 8.688428 -1.477391 14.240706 -0.660387 1.674728 -0.000704 0.000201 62289.200000 1 0 0
-10.547284 10.987328 -13.023791 20.039603 -0.805830 2.278253 -0.002409 -0.000935 -495858.000000 1 0 0
-13.903684 11.716728 -10.144791 20.820925 -0.700245 2.079723 0.022049 -0.011319 155161.000000 1 0 0
-13.123584 5.919128 -7.729091 16.340238 -0.423710 2.063500 0.004400 0.008647 -476872.000000 1 0 0
-8.744084 15.385328 -4.823591 18.342147 -1.053982 1.836904 0.029629 -0.010888 46788.800000 1 0 0
-8.519684 6.210528 -13.051791 16.778108 -0.629900 2.462123 -0.004772 -0.006370 -667983.000000 1 0 0
-16.342084 7.467028 4.410909 18.500712 -0.428594 1.330059 0.009229 -0.007040 389246.000000 1 0 0
-12.571184 5.390728 -10.219891 17.074566 -0.405099 2.212480 0.001754 0.002151 339704.000000 1 0 0
-12.311084 9.119328 -13.388491 20.346415 -0.637549 2.288992 0.012269 -0.010136 -601448.000000 1 0 0
-10.674384 5.235428 -8.451291 14.586860 -0.455992 2.188760 -0.007073 0.004883 -44341.900000 1 0 0
-17.759984 -4.522572 -2.622191 18.513416 0.249350 1.712912 0.005415 -0.002326 338040.000000 1 0 0
-8.993384 13.150128 -10.968791 19.342213 -0.970957 2.173766 0.024145 -0.006867 129833.000000 1 0 0
-14.974884 6.137828 6.109009 17.298557 -0.388990 1.209859 -0.001795 -0.007765 -1075530.000000 1 0 0
-16.431384 -3.092572 -4.474691 17.308300 0.186035 1.832295 0.009471 -0.003423 99920.700000 1 0 0
-11.170784 -1.122472 -12.717491 16.964107 0.100147 2.418360 0.009792 -0.002510 152033.000000 1 0 0
-15.315184 6.997128 -8.754291 18.977678 -0.428557 2.050250 0.011079 0.009244 237001.000000 1 0 0
-14.867784 9.133528 1.482209 17.511975 -0.550880 1.486055 0.004116 0.000094 -890010.000000 1 0 0
-19.420384 5.302328 7.844309 21.605536 -0.266533 1.199236 0.024982 -0.013427 81106.600000 1 0 0
-16.232284 0.828628 0.926909 16.279829 -0.051004 1.513829 0.009102 -0.005295 -942633.000000 1 0 0
-17.350384 3.833528 7.017809 19.104487 -0.217454 1.194651 0.003569 -0.003437 692100.000000 1 0 0
-15.312584 4.115428 -1.412791 15.918793 -0.262557 1.659663 0.004161 0.002763 -222144.000000 1 0 0
-10.670184 13.309828 0.475509 17.065475 -0.895034 1.542929 0.012418 -0.008253 -838746.000000 1 0 0
-13.370984 3.469228 0.041309 13.813778 -0.253862 1.567806 0.001911 0.000052 -516865.000000 1 0 0
-15.036484 0.246928 -4.397091 15.668160 -0.016420 1.855256 0.005906 0.001071 -747049.000000 1 0 0
-18.909684 7.285028 3.739109 20.606521 -0.367730 1.388333 0.030000 -0.007092 309413.000000 1 0 0
-14.163484 1.331128 -6.431991 15.612389 -0.093708 1.995422 0.003483 0.002394 -1486500.000000 1 0 0
-14.001884 12.292828 5.309109 19.374029 -0.720493 1.293213 -0.007422 -0.012474 -276771.000000 1 0 0
17.591516 5.269328 6.328009 19.423464 0.291033 1.238947 0.005828 -0.011803 -156552.000000 1 0 0
18.492916 7.538528 -0.102891 19.970677 0.387079 1.575948 0.009327 0.007391 530649.000000 1 0 0
16.544916 5.098028 8.607509 19.334253 0.298901 1.109405 0.014678 -0.007709 378226.000000 1 0 0
11.562416 12.201528 11.012009 20.095549 0.812286 0.990846 0.026316 -0.014899 428853.000000 1 0 0
-2.296784 16.357928 -0.491891 16.525706 -1.431300 1.600566 -0.007132 0.003704 210904.000000 1 0 0
15.027016 12.648528 3.417509 19.936796 0.699667 1.398528 0.019048 -0.002335 210803.000000 1 0 0
13.587816 11.715528 6.894609 19.220249 0.711539 1.203904 0.024311 -0.004035 742694.000000 1 0 0
-0.488184 16.033628 8.597409 18.199752 -1.540358 1.078794 -0.005370 0.002853 249386.000000 1 0 0
0.799616 12.755528 9.450409 15.895065 1.508190 0.934091 -0.007317 -0.001847 -2294700.000000 1 0 0
0.697516 15.403228 -3.896591 15.903753 1.525543 1.818327 -0.007400 0.001644 777798.000000 1 0 0
5.260616 10.256428 13.466609 17.726194 1.096875 0.707943 0.003067 -0.009751 -218370.000000 1 0 0
-1.289984 16.531528 -2.782391 16.813601 -1.492922 1.737046 -0.008843 0.006261 266231.000000 1 0 0
8.616716 10.055828 3.335009 13.656125 0.862317 1.324088 0.004990 -0.002489 367428.000000 1 0 0
12.661316 13.886328 -4.803491 19.396199 0.831509 1.821051 0.038040 -0.002862 290085.000000 1 0 0
2.462216 11.525728 7.796609 14.131243 1.360332 0.986361 -0.003080 0.001078 190496.000000 1 0 0
-0.297084 15.050628 -8.752191 17.412941 -1.551060 2.097430 -0.003044 0.007160 -1722650.000000 1 0 0
2.425516 16.000028 0.228609 16.184445 1.420347 1.556671 -0.003045 -0.004123 -1026090.000000 1 0 0
1.904516 13.293828 5.304809 14.439323 1.428501 1.194599 -0.002480 0.002971 -590957.000000 1 0 0
17.702616 9.182828 -2.009091 20.043537 0.478517 1.671201 0.005442 0.013147 650396.000000 1 0 0
-7.176484 14.958728 7.272609 18.115085 -1.123478 1.157678 0.008515 -0.009716 -360095.000000 1 0 0
8.478716 15.658428 -0.082391 17.806790 1.074518 1.575423 0.004211 -0.012829 327673.000000 1 0 0
15.683616 10.454928 2.352209 18.995110 0.587967 1.446645 0.009936 0.002417 1668110.000000 1 0 0
14.015416 7.282128 8.699009 18.031473 0.479189 1.067364 0.008367 -0.011907 -1398580.000000 1 0 0
4.116016 18.370828 -1.884691 18.920385 1.350385 1.670573 -0.000653 -0.006762 -1455750.000000 1 0 0
-0.340984 17.533228 -4.894691 18.206821 -1.551351 1.842983 -0.003513 0.002797 -41974.400000 1 0 0
1.392316 13.699128 -0.619091 13.783610 1.469509 1.615726 -0.001944 -0.003778 -695908.000000 1 0 0
10.352016 14.716828 4.298609 18.499386 0.957783 1.336288 0.018125 -0.009716 261956.000000 1 0 0
-1.757184 15.444128 -5.064691 16.348085 -1.457507 1.885783 -0.007365 0.004866 106134.000000 1 0 0
15.164116 8.751628 -6.295291 18.605700 0.523432 1.915962 0.019998 0.002191 598750.000000 1 0 0
-2.359284 18.592128 0.954409 18.765509 -1.444574 1.519915 -0.005981 0.000886 771092.000000 1 0 0
-3.587484 19.350928 3.518209 19.992655 -1.387487 1.393900 -0.006205 -0.008536 -150434.000000 1 0 0
1.853016 17.594728 -2.681391 17.894076 1.465867 1.721211 -0.002654 -0.003797 -263516.000000 1 0 0
2.991816 12.218128 3.244409 12.990758 1.330655 1.318377 -0.000924 0.000518 692079.000000 1 0 0
-2.540784 16.145928 1.908809 16.455702 -1.414713 1.454538 -0.002921 -0.002038 -1084800.000000 1 0 0
11.958316 12.845328 -2.568991 17.737065 0.821144 1.716145 0.019370 -0.000750 541575.000000 1 0 0
7.238516 11.609028 4.764209 14.486660 1.013259 1.235691 0.002659 -0.003693 -84146.300000 1 0 0
7.129716 15.677728 2.092509 17.349426 1.143985 1.449892 0.001761 -0.008628 -1945690.000000 1 0 0
5.522316 12.145628 10.285409 16.846420 1.144061 0.914054 0.002898 -0.003651 1498250.000000 1 0 0
-1.270884 14.150528 3.170409 14.556925 -1.481225 1.351243 -0.006950 0.002506 -1312320.000000 1 0 0
4.689416 16.096928 1.492409 16.832379 1.287318 1.482017 -0.000013 -0.009356 -1889860.000000 1 0 0
7.437616 12.997128 11.951909 19.159634 1.051031 0.897192 0.020055 -0.014906 332552.000000 1 0 0
0.673016 17.333628 -9.519391 19.787026 1.531989 2.072697 -0.000928 0.006916 610695.000000 1 0 0
9.630316 9.792528 15.316809 20.572827 0.793750 0.730986 0.014702 -0.005373 -383734.000000 1 0 0
13.454316 7.591928 -0.092191 15.448770 0.513736 1.576764 -0.006246 0.004671 399600.000000 1 0 0
12.441816 13.622128 -0.060491 18.448978 0.830652 1.574075 0.017729 -0.001892 368365.000000 1 0 0
9.382116 12.419228 3.602109 15.976123 0.923816 1.343373 0.008672 -0.003426 362583.000000 1 0 0
-0.668684 12.908728 0.759809 12.948347 -1.519042 1.512083 -0.004589 -0.002596 -452867.000000 1 0 0
15.987016 7.543528 -0.776691 17.694427 0.440878 1.614705 0.008265 0.008433 -151012.000000 1 0 0
-4.121884 18.524428 -2.313691 19.117989 -1.351852 1.692115 -0.003405 0.003709 -116526.000000 1 0 0
11.632516 9.364328 -3.159991 15.264062 0.677790 1.779326 0.009966 0.001351 267470.000000 1 0 0
14.692116 9.613228 7.858509 19.236127 0.579401 1.149955 0.017247 -0.010115 388503.000000 1 0 0
4.405516 13.751828 4.659709 15.173471 1.260768 1.258656 0.003832 -0.001542 -1002890.000000 1 0 0
2.226816 15.840428 5.644109 16.962719 1.431134 1.231593 0.005057 -0.002510 -46135.200000 1 0 0
6.094316 18.257228 5.539709 20.028865 1.248623 1.290556 0.007810 -0.015264 -459977.000000 1 0 0
10.644716 17.010728 -0.765691 20.081362 1.011647 1.608935 0.027457 -0.009616 -489526.000000 1 0 0
10.083816 13.626528 -4.415091 17.517381 0.933717 1.825585 0.024066 -0.004236 1706180.000000 1 0 0
16.582016 8.021228 2.580609 18.600078 0.450548 1.431605 0.004198 0.002428 507499.000000 1 0 0
3.970816 13.982628 -0.488191 14.543713 1.294099 1.604370 0.000303 -0.007047 -142263.000000 1 0 0
5.610416 13.094328 -2.363291 14.440337 1.165997 1.735195 0.004994 -0.007957 -51500.100000 1 0 0
-6.147784 16.930628 -2.928591 18.248782 -1.222485 1.731975 0.005030 0.000106 -303628.000000 1 0 0
18.126016 9.993128 3.022709 20.917739 0.503852 1.425784 0.018993 -0.004946 -201582.000000 1 0 0
8.014716 12.819328 9.452009 17.830068 1.012049 1.012059 0.021135 -0.010927 131018.000000 1 0 0
-2.515384 15.753828 6.748609 17.322066 -1.412465 1.170603 -0.001389 -0.000183 987950.000000 1 0 0
11.255716 16.090028 6.444509 20.666684 0.960375 1.253677 0.030528 -0.005748 -51024.600000 1 0 0
13.547216 11.864228 1.395909 18.061991 0.719265 1.493435 0.021157 0.001264 -180124.000000 1 0 0
17.446616 7.614628 -5.700791 19.871235 0.411531 1.861772 -0.007838 0.012535 -302107.000000 1 0 0
9.473216 9.282128 8.063909 15.521802 0.775210 1.024506 0.010699 -0.005214 -349080.000000 1 0 0
-1.927884 14.164928 -1.899191 14.421125 -1.435525 1.702875 -0.009413 0.004320 513166.000000 1 0 0
10.939416 11.609528 0.873009 15.975422 0.815108 1.516122 0.008577 0.002390 580830.000000 1 0 0
11.749416 9.747528 -0.474091 15.273763 0.692542 1.601841 0.003949 0.005342 -977912.000000 1 0 0
-0.172884 16.331628 11.167409 19.785423 -1.560211 0.971058 -0.000389 -0.000816 -476392.000000 1 0 0
2.186016 20.093128 -1.936591 20.304256 1.462428 1.666320 0.003151 -0.007501 -567565.000000 1 0 0
9.304016 14.268828 1.901709 17.140031 0.992980 1.459616 0.012957 -0.008528 -121178.000000 1 0 0
8.548516 11.649228 -5.169991 15.346349 0.937727 1.914405 0.011259 -0.005568 -897263.000000 1 0 0
10.382316 10.019428 10.273009 17.712033 0.767613 0.952066 0.005393 -0.007988 165680.000000 1 0 0
-5.027484 15.720028 5.832709 17.504724 -1.261262 1.231093 -0.004278 -0.005453 -560454.000000 1 0 0
14.366616 9.222428 -1.823291 17.169077 0.570684 1.677193 0.016045 0.010785 -319168.000000 1 0 0
12.172916 9.519928 7.038509 16.980857 0.663705 1.143407 0.010730 -0.007863 -1441170.000000 1 0 0
3.199016 12.831128 9.737409 16.422201 1.326461 0.936089 -0.005829 -0.006318 -1071890.000000 1 0 0
8.658116 12.664828 -2.655091 15.569532 0.971138 1.742165 0.008873 -0.005503 -449968.000000 1 0 0
9.412516 16.883428 2.083909 19.441920 1.062213 1.463404 0.015423 -0.006490 -390737.000000 1 0 0
9.603516 14.156428 -7.520091 18.686459 0.974724 1.984972 0.024840 -0.014299 229104.000000 1 0 0
6.311216 11.440828 7.319809 14.976768 1.066695 1.060147 0.004171 -0.003657 -846353.000000 1 0 0
5.433116 16.824428 -5.553691 18.531692 1.258438 1.875160 -0.001752 -0.003789 -77739.000000 1 0 0
-4.030784 17.242328 -4.647491 18.306946 -1.341148 1.827470 -0.003097 0.002881 -76932.600000 1 0 0
-0.187784 18.547228 -0.467391 18.554066 -1.560672 1.595990 -0.006865 -0.002301 -138005.000000 1 0 0
6.502116 15.583228 -2.848191 17.123863 1.175507 1.737902 -0.001315 -0.004221 132997.000000 1 0 0
-0.795084 20.773328 0.692709 20.800076 -1.532541 1.537487 0.004168 -0.000653 65159.500000 1 0 0
-1.206384 18.818228 4.331109 19.347857 -1.506777 1.345029 -0.000978 -0.005054 -101424.000000 1 0 0
7.273516 13.732328 -4.343191 16.135184 1.083700 1.843333 0.004743 -0.004133 498531.000000 1 0 0
-0.914484 11.994928 7.644909 14.253393 -1.494704 1.004681 -0.003280 0.006296 53876.500000 1 0 0
7.678316 10.730428 10.981909 17.166856 0.949700 0.876668 0.009800 -0.009491 -214769.000000 1 0 0
1.485316 16.043228 -7.288391 17.683664 1.478477 1.995613 -0.008953 0.003179 135525.000000 1 0 0
8.929116 7.356728 14.745009 18.742087 0.689147 0.665299 0.002769 0.002770 294769.000000 1 0 0
11.510516 11.464928 -4.795491 16.939105 0.783414 1.857823 0.019470 0.001077 -71416.900000 1 0 0
-3.299384 17.100628 4.621409 18.018735 -1.380199 1.311420 -0.004883 0.000478 28681.500000 1 0 0
3.910316 15.252828 -6.714591 17.117975 1.319835 1.973877 -0.003852 -0.006241 544910.000000 1 0 0
-4.318484 14.200928 9.480809 17.612535 -1.275583 1.002379 0.007774 -0.002583 -448508.000000 1 0 0
6.384616 17.814728 0.639009 18.935052 1.226667 1.537043 -0.004413 -0.008800 -233491.000000 1 0 0
9.852516 10.840028 -2.018791 14.786947 0.833085 1.707749 0.008075 -0.000352 -1661500.000000 1 0 0
7.244616 18.078328 -2.643991 19.654544 1.189657 1.705729 -0.005184 -0.003091 131035.000000 1 0 0
3.512116 10.253328 10.383809 15.009636 1.240788 0.806804 -0.006098 0.000575 702664.000000 1 0 0
0.121216 18.637328 2.043809 18.749449 1.564292 1.461573 0.000556 -0.002243 589773.000000 1 0 0
-0.932484 17.167428 -7.402391 18.718587 -1.516533 1.977361 0.003268 0.006455 -67711.100000 1 0 0
10.036116 8.922428 12.915609 18.631862 0.726722 0.804877 0.009129 -0.001016 197105.000000 1 0 0
3.766416 11.471228 5.564409 13.294269 1.253550 1.138941 -0.004841 0.000316 425913.000000 1 0 0
13.224716 13.792028 8.429009 20.884476 0.806394 1.155346 0.034615 -0.011406 45941.100000 1 0 0
-0.477984 17.393728 6.645109 18.625995 -1.543323 1.205993 0.001581 -0.004407 -719726.000000 1 0 0
12.201216 13.730028 5.963109 19.311706 0.844286 1.256884 0.029188 -0.001770 390357.000000 1 0 0
4.771816 14.492528 -4.426191 15.886937 1.252716 1.853138 -0.002963 -0.001128 -1340650.000000 1 0 0
3.832516 17.506628 4.699109 18.527056 1.355278 1.314360 0.005759 -0.007109 -2320250.000000 1 0 0
7.097916 11.760028 2.093209 13.894610 1.027761 1.419572 0.007629 -0.002155 1050990.000000 1 0 0
6.312816 8.599328 11.708709 15.839632 0.937545 0.738910 0.000530 -0.003736 221774.000000 1 0 0
-5.260684 14.902928 1.786709 15.904854 -1.231454 1.458221 -0.004073 0.003806 -267155.000000 1 0 0
6.735616 13.651228 6.027009 16.372214 1.112437 1.193806 0.006204 -0.006255 421196.000000 1 0 0
5.896116 15.804928 4.970609 17.585985 1.213731 1.284245 0.001262 -0.010436 706425.000000 1 0 0
1.326316 17.955528 4.223209 18.493123 1.497064 1.340397 0.008957 -0.005394 -1228230.000000 1 0 0
7.341716 17.995828 -6.912891 20.628589 1.183440 1.912521 -0.005482 0.001860 292147.000000 1 0 0
-2.313884 18.815328 -5.850391 19.839297 -1.448432 1.870136 0.003453 0.004000 -1431120.000000 1 0 0
13.615716 9.933328 -4.607291 17.472431 0.630283 1.837641 0.023152 0.001377 -1645230.000000 1 0 0
-1.514784 18.191828 9.859509 20.747219 -1.487721 1.075581 0.010861 -0.002563 -549405.000000 1 0 0
3.418616 11.772928 -1.560191 12.358113 1.288189 1.697382 0.003913 -0.006737 193569.000000 1 0 0
4.329916 14.054328 -10.820591 18.258080 1.271939 2.205137 -0.005450 -0.006500 -291966.000000 1 0 0
11.625316 13.357528 2.484209 17.881354 0.854623 1.431418 0.019942 -0.003801 -460812.000000 1 0 0
15.709216 6.217028 -6.911391 18.253718 0.376843 1.959111 -0.012233 -0.001306 -143407.000000 1 0 0
2.535116 16.082728 2.942709 16.545104 1.414453 1.391985 -0.001125 -0.003328 -194449.000000 1 0 0
13.372216 10.631928 3.657009 17.470769 0.671731 1.359915 0.006324 0.001826 -535099.000000 1 0 0
-4.937284 19.413728 -5.831691 20.863322 -1.321757 1.854089 -0.000397 -0.000813 210139.000000 1 0 0
5.516116 11.966828 0.069909 13.177154 1.138873 1.565491 0.007864 -0.007142 438648.000000 1 0 0
4.814416 15.244428 9.751209 18.725845 1.264894 1.023084 0.008369 -0.012908 -12777.300000 1 0 0
7.665516 9.496628 13.838309 18.451148 0.891691 0.722739 0.003275 -0.005701 -1735300.000000 1 0 0
-4.960584 13.587328 7.028909 16.081929 -1.220743 1.118459 0.000648 0.001272 -1544570.000000 1 0 0
-4.531484 17.232228 0.632409 17.829301 -1.313652 1.535319 -0.004347 0.002788 -2118810.000000 1 0 0
-0.591784 16.509128 3.523909 16.891401 -1.534966 1.360631 -0.001329 -0.001185 -1447090.000000 1 0 0
7.913316 16.725428 -4.782491 19.111063 1.128874 1.823732 0.002130 -0.003972 509250.000000 1 0 0
3.027916 16.317828 -4.577091 17.215968 1.387324 1.839895 -0.005905 -0.002849 -1395410.000000 1 0 0
9.686616 14.314128 8.275109 19.162521 0.975868 1.124266 0.033890 -0.010322 419301.000000 1 0 0
12.756316 10.738328 9.235209 19.061069 0.699717 1.064998 0.027038 -0.013951 672174.000000 1 0 0
3.655316 12.214828 12.197309 17.644764 1.280026 0.807550 -0.002591 -0.003274 545611.000000 1 0 0
-3.132184 19.290028 6.065909 20.462429 -1.409828 1.269832 0.000534 -0.003103 184365.000000 1 0 0
-2.501784 15.804028 10.255009 19.005037 -1.413799 1.000841 0.004787 -0.005754 913021.000000 1 0 0
2.068816 14.184928 7.673709 16.259704 1.425971 1.079299 -0.000411 -0.001274 -514515.000000 1 0 0
4.569416 17.155028 8.102509 19.514743 1.310480 1.142634 0.015296 -0.009727 64560.400000 1 0 0
-1.771684 13.552228 9.424309 16.601787 -1.440803 0.967125 0.001382 0.000500 -457649.000000 1 0 0
5.879116 17.728228 3.130809 18.938216 1.250584 1.404717 -0.002370 -0.008034 689682.000000 1 0 0
7.231816 15.322028 -6.830591 18.268023 1.129808 1.954017 0.004414 -0.004246 480819.000000 1 0 0
10.924316 7.621728 9.410009 16.308883 0.609170 0.955762 0.009040 -0.007612 570350.000000 1 0 0
9.083516 16.119128 -2.638591 18.689535 1.057629 1.712450 0.013386 -0.014351 270557.000000 1 0 0
14.622216 11.335928 -6.546291 19.625656 0.659469 1.910871 0.040089 0.001158 212068.000000 1 0 0
11.140616 6.573028 15.903509 20.499747 0.533038 0.682829 0.023698 -0.006750 -601870.000000 1 0 0
8.349416 8.377528 10.140809 15.579850 0.787079 0.862037 0.001290 -0.006358 176980.000000 1 0 0
16.250216 9.355228 4.803909 19.356326 0.522359 1.319992 0.008045 -0.002876 -116358.000000 1 0 0
-3.220984 14.342628 4.734809 15.443579 -1.349887 1.259190 -0.007356 0.005809 -966774.000000 1 0 0
4.706816 14.530128 12.761009 19.902816 1.257528 0.874780 0.004079 -0.008276 -547981.000000 1 0 0
16.101616 10.566528 -4.642991 19.810879 0.580750 1.807362 0.027138 0.000596 -332788.000000 1 0 0
14.869816 13.924128 6.435209 21.363630 0.752567 1.264822 0.035759 -0.000424 856908.000000 1 0 0
6.109916 9.442128 9.259109 14.567634 0.996469 0.882018 -0.004091 -0.002939 588617.000000 1 0 0
10.476416 12.009128 8.650909 18.133192 0.853457 1.073472 0.023327 -0.012768 -226888.000000 1 0 0
8.020716 11.621328 -0.313191 14.123924 0.966697 1.592973 0.008105 -0.001979 -239071.000000 1 0 0
7.367416 13.554728 -8.779291 17.750645 1.072933 2.088159 0.006573 -0.000442 -552746.000000 1 0 0
2.657416 15.145528 -2.225591 15.537121 1.397106 1.714534 -0.003903 -0.004071 399026.000000 1 0 0
12.196616 13.566128 -7.682591 19.794430 0.838507 1.969386 0.024702 -0.012128 -616700.000000 1 0 0
-8.158684 14.749028 9.734909 19.464491 -1.065524 1.047040 0.022769 -0.013168 435546.000000 1 0 0
11.431116 9.577328 2.352609 15.097364 0.697386 1.414330 0.009928 -0.000052 -2463180.000000 1 0 0
11.949516 8.633428 4.611809 15.446546 0.625662 1.267607 0.005229 -0.003235 766934.000000 1 0 0
13.988816 7.911328 6.106809 17.192126 0.514701 1.207658 0.005402 -0.007603 -3181350.000000 1 0 0
16.137216 7.237728 7.213909 19.100652 0.421615 1.183508 0.013105 -0.012673 -132993.000000 1 0 0
13.596516 8.385128 2.468109 16.163761 0.552617 1.417503 -0.000859 0.000781 -2090360.000000 1 0 0
-4.112884 17.475428 -7.198791 19.342414 -1.339650 1.952149 0.003453 0.000973 17366.400000 1 0 0
3.281516 19.252328 -4.195591 19.975571 1.401971 1.782408 -0.000710 -0.012087 348921.000000 1 0 0
-0.062184 14.796928 6.270009 16.070655 -1.566594 1.169999 -0.002939 0.002914 539373.000000 1 0 0
6.821016 15.884628 8.272809 19.164734 1.165196 1.124455 0.018893 -0.014994 -2429440.000000 1 0 0
12.809316 15.247128 -1.920891 20.006082 0.872070 1.666960 0.031221 -0.006027 -538065.000000 1 0 0
12.718116 15.763328 4.397709 20.726138 0.891913 1.356989 0.035413 -0.009093 -68261.500000 1 0 0
3.076716 18.084828 1.273309 18.388814 1.402283 1.501497 0.002401 -0.004699 -390804.000000 1 0 0
10.440216 14.488828 -1.206491 17.899158 0.946398 1.638252 0.016344 -0.000906 -1920510.000000 1 0 0
-6.140784 15.681928 -0.582191 16.851440 -1.197567 1.605352 -0.005200 0.001078 -727476.000000 1 0 0
-3.869484 15.924828 -2.476791 16.574304 -1.332431 1.720794 -0.006596 0.004431 -1615230.000000 1 0 0
-6.881284 16.892228 1.714909 18.320490 -1.183958 1.477053 0.002329 -0.002422 52976.400000 1 0 0
0.217216 19.330328 -6.650191 20.443429 1.559560 1.902122 0.004541 -0.000546 521791.000000 1 0 0
4.804616 14.722928 7.149809 17.057805 1.255357 1.138285 0.007800 -0.005698 -881817.000000 1 0 0
8.710316 12.339028 6.907309 16.608195 0.956111 1.141867 0.017908 -0.006725 5506.100000 1 0 0
-7.486784 17.589228 -5.561791 19.908952 -1.168379 1.853925 0.026440 -0.004115 150789.000000 1 0 0
-7.757084 17.762828 -1.060991 19.411752 -1.159055 1.625481 0.007970 0.000544 330277.000000 1 0 0
-13.821184 -9.168372 9.152309 18.943309 0.585707 1.066556 0.003984 -0.009075 -344939.000000 1 0 0
-12.647384 -13.020372 7.627509 19.689218 0.799929 1.172992 0.011038 -0.003409 -141390.000000 1 0 0
-3.925284 -14.889472 12.638909 19.921001 1.313033 0.883498 0.007293 -0.007567 58951.200000 1 0 0
-2.105384 -14.077972 15.123109 20.768495 1.422345 0.755140 0.008109 0.006073 218137.000000 1 0 0
-7.191984 -13.362272 13.022909 19.996778 1.077034 0.861565 0.017857 -0.015667 -28684.600000 1 0 0
-10.010284 -11.561172 9.014009 17.751587 0.857170 1.038183 0.009259 -0.009577 670738.000000 1 0 0
-10.716084 -10.735372 11.270609 18.897336 0.786297 0.931772 0.010593 -0.007918 429507.000000 1 0 0
-6.001284 -12.193572 10.966809 17.463376 1.113434 0.891830 0.013032 -0.007926 599843.000000 1 0 0
-12.526684 -10.429972 7.361709 17.885662 0.694317 1.146589 0.003329 -0.003338 -800677.000000 1 0 0
-7.683784 -10.925772 12.665309 18.407148 0.957878 0.811978 0.012490 -0.011199 325371.000000 1 0 0
-14.823584 -11.781772 7.322609 20.301956 0.671562 1.201794 0.002920 0.001314 -351194.000000 1 0 0
-11.190784 -9.207772 9.250309 17.192584 0.688489 1.002685 0.005879 -0.007078 -388552.000000 1 0 0
-5.321784 -11.541772 13.419909 18.483178 1.138759 0.758221 0.016959 -0.012869 -1035600.000000 1 0 0
3.912616 -12.432772 14.562809 19.543741 -1.265907 0.730053 0.000583 -0.002715 -977511.000000 1 0 0
6.435116 -12.920072 14.158909 20.219142 -1.108693 0.795017 0.009188 -0.000708 -87590.600000 1 0 0
6.661416 -8.583872 15.982809 19.326342 -0.910838 0.597053 0.009883 -0.007506 -22682.500000 1 0 0
0.722416 -1.731272 14.644009 14.763678 -1.175487 0.127410 0.006679 -0.003478 -2363860.000000 1 0 0
-0.137584 -6.307672 15.598809 16.826423 1.548988 0.384350 0.006949 -0.004213 -732267.000000 1 0 0
-1.390884 -4.530872 18.106909 18.716931 1.272949 0.256010 0.015874 -0.027153 -140225.000000 1 0 0
-5.239084 12.637228 12.779009 18.720326 -1.177788 0.819444 0.008280 -0.006008 541191.000000 1 0 0
-3.975384 8.925028 11.649909 15.204610 -1.151758 0.697876 -0.009400 0.006783 -304077.000000 1 0 0
-0.667684 -3.883172 15.045909 15.553270 1.400518 0.256124 0.008615 -0.003752 -3453.260000 1 0 0
-4.464284 9.228728 14.187209 17.503604 -1.120243 0.625739 -0.010245 0.005374 405126.000000 1 0 0
-13.341584 -2.168172 16.918609 21.654980 0.161104 0.674082 -0.009242 0.003528 -426905.000000 1 0 0
-0.314184 0.714928 17.232209 17.249895 -1.156740 0.045286 0.006914 -0.003075 -1435510.000000 1 0 0
-3.298384 -7.245472 15.463709 17.392599 1.143598 0.475428 0.010365 -0.006829 167225.000000 1 0 0
-7.403584 5.483528 12.509509 15.536085 -0.637496 0.634800 -0.003735 0.001350 -2240410.000000 1 0 0
-9.764184 10.136028 13.391209 19.426858 -0.804081 0.810254 0.003390 -0.008069 596408.000000 1 0 0
-5.571884 2.162528 11.189909 12.686074 -0.370218 0.490574 -0.004717 0.003912 -1018690.000000 1 0 0
-7.069184 -7.483472 16.892309 19.781957 0.813859 0.547315 0.011124 -0.007018 -41586.400000 1 0 0
-4.655984 2.743028 18.635809 19.403499 -0.532396 0.282235 -0.009119 0.003741 -528859.000000 1 0 0
1.080816 -8.368972 16.604909 18.626080 -1.442362 0.470179 0.004739 0.002342 758009.000000 1 0 0
-14.921084 -3.840572 14.011409 20.825665 0.251924 0.832816 0.003231 0.001037 512268.000000 1 0 0
-14.313384 1.855428 12.881709 19.345646 -0.128910 0.842135 -0.005175 -0.007996 -1161430.000000 1 0 0
-5.538884 0.890128 16.258409 17.199053 -0.159343 0.332258 0.001678 0.000499 213925.000000 1 0 0
4.488016 5.611728 15.117609 16.738455 0.896204 0.443707 0.000120 -0.000281 802581.000000 1 0 0
-0.899984 -12.012172 13.904509 18.396674 1.496013 0.713896 -0.003679 0.000010 -198362.000000 1 0 0
-6.031884 -4.162172 16.887609 18.409200 0.604002 0.409434 0.011266 -0.006788 506858.000000 1 0 0
-12.916484 -1.595772 9.927709 16.368917 0.122923 0.919148 -0.004995 -0.000895 -586539.000000 1 0 0
-14.119684 10.232328 10.301809 20.253229 -0.627102 1.037180 -0.019778 -0.002411 284793.000000 1 0 0
-3.678184 -3.514872 17.744309 18.459249 0.762698 0.279225 0.015487 -0.013059 -3475940.000000 1 0 0
-7.878884 9.334628 11.815909 16.994934 -0.869767 0.802014 -0.003813 -0.006010 -297283.000000 1 0 0
-3.857684 10.583028 16.487809 19.968226 -1.221249 0.599350 -0.023805 0.013399 134969.000000 1 0 0
-12.489984 12.807628 8.403509 19.764969 -0.797954 1.131645 0.000173 -0.014046 18351.700000 1 0 0
-12.569884 3.118428 10.423509 16.624564 -0.243178 0.893107 -0.006351 -0.002595 216801.000000 1 0 0
-10.099984 -3.514972 13.652509 17.342310 0.334908 0.664481 -0.003092 0.000003 -1448090.000000 1 0 0
-4.226984 -6.534672 17.855509 19.477899 0.996635 0.411039 0.017791 -0.003552 -1082040.000000 1 0 0
1.042116 -3.638472 17.702709 18.102773 -1.291848 0.210625 0.012755 -0.019560 -833507.000000 1 0 0
-5.935884 1.681028 13.683109 15.009598 -0.275971 0.423579 -0.002778 0.002339 -765369.000000 1 0 0
-10.495384 8.716728 10.164509 17.013279 -0.693081 0.930484 -0.001164 -0.009851 -191736.000000 1 0 0
4.527116 2.455628 17.259509 18.011539 0.497010 0.289988 0.005893 -0.001323 -1152300.000000 1 0 0
0.471016 -5.351572 13.178109 14.231084 -1.483008 0.387097 0.004554 -0.000124 -201062.000000 1 0 0
-4.079284 5.531028 20.905809 22.006492 -0.935326 0.317613 0.003229 0.005126 -27972.500000 1 0 0
-10.812684 10.891228 9.050609 17.817028 -0.789017 1.037964 0.006465 -0.010121 810797.000000 1 0 0
0.635416 4.148428 13.083009 13.739663 1.418807 0.310413 0.000089 -0.002927 -2706130.000000 1 0 0
-3.164184 7.151328 13.276909 15.408759 -1.154229 0.532291 -0.008145 0.006969 -1147720.000000 1 0 0
0.691816 8.861428 14.051609 16.626822 1.492884 0.564012 -0.009197 0.002515 260206.000000 1 0 0
-4.133684 -6.604872 13.088309 15.232056 1.011583 0.536973 0.009409 -0.003663 -181646.000000 1 0 0
-5.175684 8.263728 16.578809 19.233663 -1.011253 0.531657 -0.003388 0.012881 467854.000000 1 0 0
1.679716 -10.728472 15.766709 19.144469 -1.415491 0.603129 -0.004271 0.006466 233742.000000 1 0 0
-15.168184 -1.248472 14.203609 20.817661 0.082123 0.819911 -0.002511 -0.006219 336406.000000 1 0 0
-13.588184 -5.267072 8.286409 16.764408 0.369790 1.053783 0.004259 -0.007086 -884204.000000 1 0 0
-14.226784 -2.151572 12.107209 18.804658 0.150096 0.871289 0.004393 -0.002357 229413.000000 1 0 0
9.403516 1.162628 16.834809 19.318090 0.123013 0.512639 0.013371 0.001465 -1526330.000000 1 0 0
5.044816 -6.813672 16.705509 18.733668 -0.933470 0.469627 0.011695 -0.011776 377819.000000 1 0 0
-6.078484 -2.743672 10.982109 12.848441 0.423996 0.545742 -0.000587 -0.000154 654953.000000 1 0 0
0.590716 -6.224272 18.028809 19.082150 -1.476175 0.333814 0.013553 -0.008057 -57087.900000 1 0 0
-8.499784 11.973428 12.046409 18.992769 -0.953465 0.883742 0.009148 -0.009822 73276.800000 1 0 0
-6.643284 -5.760272 14.835209 17.245213 0.714328 0.535035 0.007546 -0.006411 -1177320.000000 1 0 0
-4.077884 -8.999872 17.248909 19.878423 1.145364 0.520199 0.020551 -0.001741 138573.000000 1 0 0
2.456916 -6.144672 16.200509 17.499998 -1.190424 0.387799 0.004574 -0.010363 1249680.000000 1 0 0
2.139016 5.213128 16.279309 17.226955 1.181431 0.333231 -0.001406 0.001093 -2626410.000000 1 0 0
0.988916 -8.933572 14.021509 16.655011 -1.460549 0.570040 -0.005928 0.002216 -369911.000000 1 0 0
-9.824684 -2.808872 11.106409 15.091935 0.278471 0.743777 -0.008455 -0.001133 -573813.000000 1 0 0
-1.324784 10.109328 12.353909 16.017885 -1.440493 0.689982 -0.009648 0.003063 -604450.000000 1 0 0
-12.270584 -3.716172 11.347509 17.121423 0.294071 0.846289 -0.002936 -0.000878 -2099700.000000 1 0 0
-1.944784 6.684928 20.064109 21.237677 -1.287690 0.333992 -0.004123 0.010068 -712403.000000 1 0 0
0.339816 -13.608572 15.618909 20.718567 -1.545831 0.716878 -0.008643 0.002568 -791673.000000 1 0 0
4.125916 -8.774172 15.270309 18.088439 -1.131244 0.565720 0.005058 -0.001475 -586964.000000 1 0 0
4.456616 -4.426272 16.169709 17.346838 -0.781982 0.370513 0.011090 -0.004768 -2700.770000 1 0 0
8.097016 1.726928 14.711509 16.881127 0.210131 0.512591 -0.006977 0.007489 251400.000000 1 0 0
-6.415084 -0.172372 11.782409 13.416713 0.026863 0.498734 -0.003766 0.001604 358699.000000 1 0 0
-3.332784 -11.198672 18.441609 21.831414 1.281538 0.564739 0.021237 0.000858 157172.000000 1 0 0
3.240416 -1.528572 13.520909 13.987559 -0.440770 0.259033 0.002724 -0.002413 1112430.000000 1 0 0
-2.607184 8.456728 15.976809 18.263956 -1.271745 0.505830 -0.010332 0.007349 -1096240.000000 1 0 0
-3.274584 4.022428 14.841509 15.721743 -0.887528 0.336210 -0.003952 0.001839 -849074.000000 1 0 0
-4.375984 -9.269772 19.871009 22.359224 1.129741 0.476259 0.026193 -0.001895 7184.240000 1 0 0
-5.780484 -3.076272 19.204709 20.290350 0.489061 0.328601 0.013495 -0.010502 -505241.000000 1 0 0
-6.606284 -8.667072 11.086909 15.546083 0.919515 0.776795 0.009504 -0.008023 -858012.000000 1 0 0
-11.777684 2.537228 12.675409 17.487635 -0.212184 0.760021 0.003016 -0.007232 -331152.000000 1 0 0
-11.527584 -7.634772 11.620209 18.061124 0.584977 0.871888 -0.005459 -0.002354 -993875.000000 1 0 0
-10.933284 -7.410972 15.519509 20.379263 0.595695 0.705119 0.006525 -0.012752 -916084.000000 1 0 0
0.005416 5.551628 17.741809 18.590115 1.569821 0.303260 -0.003374 0.006808 -234970.000000 1 0 0
-2.266484 -0.213672 13.230509 13.424939 0.093997 0.170398 0.003965 -0.003231 -82776.600000 1 0 0
-5.880484 -10.681172 18.306209 21.995109 1.067533 0.587579 0.019097 -0.000517 -1210930.000000 1 0 0
0.381816 2.423828 19.182009 19.338309 1.414554 0.127227 0.014091 -0.001672 -418834.000000 1 0 0
-0.701084 10.833928 14.771209 18.331779 -1.506175 0.633821 -0.012516 0.004362 402437.000000 1 0 0
-12.731184 -2.254072 14.324409 19.296440 0.175235 0.734249 -0.002315 -0.000923 -542651.000000 1 0 0
-13.961284 8.176928 11.769009 20.007228 -0.529828 0.941918 0.017530 -0.013247 -292175.000000 1 0 0
-18.099484 -0.429472 6.920609 19.382224 0.023724 1.205678 0.026527 -0.009946 -53704.100000 1 0 0
-2.025484 -7.727472 17.823409 19.531777 1.314448 0.421359 0.013560 -0.001240 -2611210.000000 1 0 0
5.663216 2.662928 14.529009 15.819460 0.439537 0.406712 -0.003119 0.001170 -2356460.000000 1 0 0
-13.841584 -6.675672 11.024709 18.912913 0.449380 0.948479 -0.013993 -0.008176 327003.000000 1 0 0
3.256516 7.611628 16.275209 18.259907 1.166527 0.470573 -0.001420 -0.005445 -197807.000000 1 0 0
0.933216 1.993328 14.588909 14.754000 1.132936 0.149736 0.004634 -0.006570 -3207450.000000 1 0 0
-14.359984 0.600428 9.701809 17.340552 -0.041788 0.977030 -0.004619 -0.002963 -2907780.000000 1 0 0
-9.559484 -5.218972 15.543609 18.979599 0.499726 0.611193 -0.000283 0.000506 -253362.000000 1 0 0
-2.659384 -0.008072 18.123209 18.317289 0.003035 0.145700 0.005714 -0.007364 -124232.000000 1 0 0
6.706216 3.788028 17.386009 19.015672 0.514175 0.417023 0.012143 -0.003297 -254052.000000 1 0 0
-4.237684 -0.851672 14.838209 15.454959 0.198334 0.283459 0.005140 -0.000526 -779684.000000 1 0 0
4.879016 -9.154272 17.804509 20.605971 -1.081117 0.527544 0.011404 -0.000283 -149931.000000 1 0 0
1.891816 6.809028 13.488209 15.227397 1.299792 0.482612 -0.005083 0.001083 -1631130.000000 1 0 0
-3.816784 -0.797472 20.325609 20.696236 0.205975 0.189534 0.011776 -0.010812 -1636700.000000 1 0 0
-10.469884 1.679928 16.054809 19.240518 -0.159097 0.583704 0.004678 -0.011980 -488806.000000 1 0 0
-4.048384 6.942728 18.577709 20.241595 -1.042887 0.408296 -0.002561 0.009547 -508861.000000 1 0 0
-12.580684 0.967128 14.586409 19.286583 -0.076723 0.713160 0.000834 -0.005847 -494536.000000 1 0 0
-16.108584 -4.808072 8.309009 18.752164 0.290061 1.111747 0.014506 -0.009213 106117.000000 1 0 0
-2.393984 0.817228 15.670109 15.872975 -0.328964 0.160049 0.004814 -0.002691 167901.000000 1 0 0
-13.740284 -8.821672 12.511909 20.570979 0.570752 0.916966 -0.005165 -0.003896 497629.000000 1 0 0
6.194916 -3.282872 14.552609 16.153410 -0.487304 0.448957 0.007961 -0.003553 586396.000000 1 0 0
-15.633484 0.144828 7.572409 17.371476 -0.009264 1.119747 0.001434 -0.004461 -36495.500000 1 0 0
-13.793484 5.724128 12.705309 19.607415 -0.393360 0.865861 -0.009539 -0.005362 -66111.900000 1 0 0
0.500716 9.360128 16.672209 19.126559 1.517353 0.512180 -0.010999 -0.000296 -345679.000000 1 0 0
-10.338184 -5.507872 10.810809 15.940147 0.489518 0.825469 -0.001516 -0.003494 333524.000000 1 0 0
-3.116384 -11.235072 15.097209 19.075231 1.300219 0.657609 0.011047 0.000268 -1577290.000000 1 0 0
-3.519784 2.599328 12.638009 13.374029 -0.636094 0.333304 -0.005683 0.004406 -1464790.000000 1 0 0
-12.429084 -7.818672 7.465009 16.472405 0.561515 1.100464 0.006940 -0.003489 681443.000000 1 0 0
-8.161084 -1.919272 13.272909 15.698949 0.230977 0.563361 -0.003715 0.000141 254968.000000 1 0 0
-9.749584 6.435628 9.553009 15.090781 -0.583437 0.885327 -0.000976 -0.002261 -697564.000000 1 0 0
-17.984384 -3.519572 6.371109 19.401456 0.193259 1.236205 0.018538 -0.011799 575903.000000 1 0 0
-1.486384 -0.094672 20.516409 20.570400 0.063607 0.072468 0.008691 -0.003593 -1066560.000000 1 0 0
-2.676584 2.637928 20.155209 20.502566 -0.778125 0.184338 0.004842 -0.001787 -573224.000000 1 0 0
-3.834984 11.297528 11.157909 16.335243 -1.243548 0.818856 -0.002972 -0.001783 -525312.000000 1 0 0
-4.165184 -4.757072 15.027309 16.303328 0.851640 0.398272 0.010145 -0.007247 1339510.000000 1 0 0
-0.196684 -14.411072 13.226609 19.561720 1.557149 0.828275 0.003219 -0.003976 -662275.000000 1 0 0
-12.106084 0.342028 8.461309 14.773896 -0.028245 0.960976 -0.003861 -0.000944 -413535.000000 1 0 0
-7.718084 2.011128 15.413309 17.354641 -0.254905 0.477520 -0.003262 0.000604 -1495600.000000 1 0 0
3.651716 -2.297572 18.353509 18.853784 -0.561597 0.230879 0.014963 -0.009988 -332862.000000 1 0 0
-2.195084 4.815228 12.509109 13.582438 -1.143077 0.400216 -0.008629 0.005091 -167265.000000 1 0 0
-10.251784 -6.211772 13.295109 17.900981 0.544762 0.733699 -0.009442 -0.007296 -831374.000000 1 0 0
2.271116 -3.800672 14.227409 14.900411 -1.032176 0.301698 0.004557 -0.003408 -1017700.000000 1 0 0
6.865216 1.179028 17.047709 18.415908 0.170080 0.387900 0.003500 0.003950 -945628.000000 1 0 0
-1.979384 -5.612872 13.869109 15.092199 1.231762 0.405364 0.004243 -0.003240 -1410250.000000 1 0 0
-13.143584 3.503728 14.655409 19.995273 -0.260515 0.748157 0.009631 -0.001116 -68979.100000 1 0 0
-13.077784 -6.529472 13.497709 19.895994 0.463071 0.825195 -0.016609 -0.003701 -929409.000000 1 0 0
-9.544684 6.881528 12.009709 16.813374 -0.624668 0.775180 -0.003128 -0.000524 6770.760000 1 0 0
-1.095484 -2.436472 12.952009 13.224637 1.148259 0.203403 0.006391 -0.002095 248172.000000 1 0 0
0.090016 6.661928 15.390909 16.771090 1.557285 0.408533 -0.008763 0.002016 392207.000000 1 0 0
-16.311184 -1.085272 9.860409 19.090841 0.066438 1.028038 0.007413 0.002290 -426034.000000 1 0 0
-1.337484 2.781528 13.754909 14.096925 -1.122590 0.220728 -0.000387 -0.000331 -3377820.000000 1 0 0
-11.176284 -3.373572 16.117509 19.901367 0.293154 0.626867 0.000960 -0.003382 211858.000000 1 0 0
-5.214584 -1.491272 17.199009 18.033904 0.278546 0.305475 0.014909 -0.003684 151023.000000 1 0 0
-11.933184 6.688928 11.034709 17.575763 -0.510893 0.892026 0.000629 -0.004432 -1740650.000000 1 0 0
-2.770384 4.693128 18.669109 19.448293 -1.037535 0.284024 -0.000202 0.002551 -8382.250000 1 0 0
5.306516 -2.029572 16.442709 17.396579 -0.365302 0.332684 0.015093 -0.003990 388517.000000 1 0 0
-7.978984 -4.197772 12.144409 15.125216 0.484312 0.638611 0.001293 -0.000449 -1233670.000000 1 0 0
-11.286984 -0.823572 15.979809 19.581332 0.072837 0.616212 -0.000751 -0.007776 446216.000000 1 0 0
2.068116 1.875828 17.351909 17.575112 0.736681 0.159543 0.007850 -0.005626 -329498.000000 1 0 0
-8.840784 -7.532972 11.555509 16.383984 0.705695 0.787960 0.003016 -0.008986 -214407.000000 1 0 0
-7.199384 6.982528 14.729309 17.819634 -0.770108 0.597797 -0.010717 0.001203 -388383.000000 1 0 0
-5.660184 3.440428 15.777809 17.111794 -0.546157 0.397471 -0.004901 0.001279 -163111.000000 1 0 0
-9.364284 4.254128 11.525809 15.447708 -0.426418 0.728584 -0.006418 -0.001304 -11390.500000 1 0 0
-10.229484 0.227828 13.929909 17.283999 -0.022268 0.633531 0.000637 -0.005256 -675251.000000 1 0 0
8.047916 -0.700972 15.696809 17.653615 -0.086881 0.475300 -0.003764 0.002508 25243.700000 1 0 0
-8.543884 -7.507772 14.697109 18.584123 0.720939 0.658612 0.006503 -0.004658 -2165350.000000 1 0 0
-0.088784 4.073628 15.610409 16.133419 -1.549005 0.255321 0.003539 -0.002510 284813.000000 1 0 0
-8.017784 3.084228 9.613609 12.892587 -0.367224 0.729257 -0.006426 0.001421 -599438.000000 1 0 0
-2.062784 -9.797072 13.134609 16.515316 1.363276 0.651296 -0.001912 -0.001548 564571.000000 1 0 0
-6.011684 10.251728 10.475109 15.841912 -1.040432 0.848342 0.005699 -0.004553 -2411940.000000 1 0 0
-8.646384 -2.837172 15.645109 18.099142 0.317064 0.526817 0.007817 -0.005383 -726335.000000 1 0 0
4.220116 5.672928 17.719509 19.078063 0.931208 0.379663 0.004025 0.004432 -460213.000000 1 0 0
-6.847484 -0.999772 15.298709 16.791012 0.144981 0.424791 0.002909 0.000674 -1307770.000000 1 0 0
-0.860684 -9.926872 15.494709 18.421986 1.484310 0.571485 -0.005319 0.002032 417207.000000 1 0 0
-4.478684 5.783028 16.251609 17.821807 -0.911828 0.422920 -0.009378 0.002761 -164036.000000 1 0 0
3.850316 -0.004172 17.349709 17.771813 -0.001084 0.218385 0.013185 -0.006560 -330107.000000 1 0 0
1.371716 0.058628 19.138409 19.187593 0.042714 0.071616 0.009562 -0.005945 -136420.000000 1 0 0
-6.518884 6.478828 17.825009 20.054975 -0.782316 0.476060 -0.001389 0.002998 -419456.000000 1 0 0
-12.172984 0.547628 11.049409 16.449039 -0.044957 0.834247 -0.000904 -0.000909 -439701.000000 1 0 0
-5.387884 5.125028 13.910009 15.772874 -0.760400 0.490931 -0.007216 0.004281 -1257640.000000 1 0 0
-8.702484 -9.545472 10.000409 16.335772 0.831562 0.911984 0.010501 -0.007269 -188834.000000 1 0 0
6.968416 -3.922772 16.978609 18.767529 -0.512721 0.440168 0.012956 -0.003630 -923889.000000 1 0 0
-16.638084 1.581728 9.534509 19.241480 -0.094782 1.052365 0.003094 -0.006677 172644.000000 1 0 0
-4.126984 -9.600672 11.385509 15.454278 1.164813 0.742586 0.007274 -0.006329 -554671.000000 1 0 0
-11.055884 -3.910072 9.117409 14.854238 0.339936 0.909942 -0.000839 -0.001267 -266064.000000 1 0 0
3.699516 -5.470972 18.487109 19.631382 -0.976217 0.343113 0.010653 -0.012734 -38365.500000 1 0 0
2.647016 -1.870872 16.026709 16.351216 -0.615265 0.199560 0.009045 -0.006103 -374488.000000 1 0 0
-2.979284 -4.473772 20.156909 20.861250 0.983294 0.260595 0.020427 -0.015191 -731035.000000 1 0 0
-6.310584 -3.373172 14.561709 16.224831 0.490886 0.456739 0.006831 -0.000738 340044.000000 1 0 0
-9.598784 5.135128 13.950009 17.694885 -0.491236 0.662651 -0.002357 -0.004230 498753.000000 1 0 0
-5.898784 -5.226772 11.767109 14.162615 0.725069 0.590150 0.005350 -0.000527 -279674.000000 1 0 0
6.109516 2.250028 19.338109 20.404687 0.352868 0.324756 0.022515 -0.007616 46984.700000 1 0 0
-2.797884 11.914628 13.570609 18.274242 -1.340148 0.733839 -0.008043 -0.001041 -85883.000000 1 0 0
3.361216 1.265528 15.094709 15.516107 0.360093 0.233592 0.005090 -0.003863 -267554.000000 1 0 0
-5.657484 7.383728 12.711809 15.751719 -0.917001 0.631724 -0.015223 -0.003810 -744336.000000 1 0 0
-1.843284 -1.682372 15.300509 15.502698 0.739790 0.161683 0.009076 -0.006198 -230431.000000 1 0 0
-7.293884 10.674328 14.063009 19.102624 -0.971359 0.743385 0.012714 -0.004568 327262.000000 1 0 0
-10.102284 2.087028 10.605609 14.794958 -0.203724 0.771538 -0.005157 -0.001045 636233.000000 1 0 0
-13.787784 5.054028 9.111409 17.281897 -0.351349 1.015468 -0.005694 -0.001646 309137.000000 1 0 0
0.374316 -4.596272 20.073309 20.596203 -1.489537 0.225814 0.012557 -0.016508 -508637.000000 1 0 0
-14.475784 -2.951172 7.477109 16.557926 0.201114 1.102269 0.006944 -0.005438 168822.000000 1 0 0
-2.216684 2.488428 17.549609 17.863223 -0.843089 0.187659 -0.003013 -0.001144 -139334.000000 1 0 0
-6.172284 -8.249972 14.550409 17.829008 0.928475 0.616151 0.013668 -0.008692 -889912.000000 1 0 0
-7.992484 1.968728 12.080509 14.618290 -0.241514 0.598118 -0.005091 0.002511 -488757.000000 1 0 0
-14.487484 -3.658572 10.022509 17.992305 0.247362 0.979974 -0.000983 -0.005374 657750.000000 1 0 0
-0.558784 6.864728 12.843709 14.573867 -1.489576 0.492225 -0.006353 0.002618 222486.000000 1 0 0
-1.982384 -2.280872 19.249409 19.485173 0.855298 0.155719 0.012872 -0.016944 -148719.000000 1 0 0
-12.808284 10.387028 7.420009 18.083114 -0.681389 1.147983 -0.007107 -0.014410 48068.700000 1 0 0
-19.417784 2.229128 6.584009 20.624464 -0.114298 1.245876 0.019161 -0.008915 905307.000000 1 0 0
-16.107984 8.506028 6.729409 19.419181 -0.485845 1.216923 0.004771 -0.008687 264066.000000 1 0 0
-12.264084 7.589928 13.537009 19.780429 -0.554182 0.817066 0.009579 -0.007710 155121.000000 1 0 0
-16.005584 8.391528 10.218409 20.760837 -0.482888 1.056185 -0.002874 -0.007834 -377136.000000 1 0 0
1.892716 10.863028 14.970209 18.592872 1.398293 0.634854 -0.009655 -0.006327 -1052370.000000 1 0 0
2.214416 14.445928 12.508409 19.236651 1.418690 0.862898 -0.009342 -0.005942 -1030740.000000 1 0 0
-3.078584 13.752028 11.754009 18.350822 -1.350563 0.875625 -0.012438 0.001022 521677.000000 1 0 0
9.038216 4.959928 15.710309 18.791063 0.501901 0.580749 0.004576 0.004921 261402.000000 1 0 0
-0.399084 12.447428 12.793109 17.853889 -1.538746 0.771960 -0.013625 -0.003153 -633013.000000 1 0 0
3.448416 13.407528 14.609709 20.127021 1.319053 0.758490 -0.011171 -0.001372 -134186.000000 1 0 0
-2.776084 -4.020672 -13.653591 14.501483 0.966507 2.797941 -0.000463 -0.004307 -324609.000000 1 0 0
5.813416 -11.586472 16.203709 20.750960 -1.105756 0.674746 0.012611 -0.005473 202833.000000 1 0 0
7.845616 -13.667772 7.266909 17.354240 -1.049697 1.138739 0.003255 -0.007614 -145080.000000 1 0 0
-0.023384 15.595128 1.337309 15.652378 -1.569297 1.485254 -0.005220 -0.000297 -1711630.000000 1 0 0
-13.666184 7.940828 9.114209 18.245277 -0.526374 1.047731 -0.007061 -0.008098 495609.000000 1 0 0
-15.352884 -9.732172 5.013309 18.856285 0.564973 1.301691 -0.001520 -0.003512 -1184510.000000 1 0 0
9.550716 -11.297172 11.012409 18.442219 -0.868974 0.930877 0.011011 -0.007339 -2749.230000 1 0 0
-5.637784 -10.710772 -16.742191 20.659289 1.086279 2.515623 0.015790 -0.012722 79786.700000 1 0 0
-1.958284 -12.435472 -14.597691 19.276110 1.414603 2.429957 0.000605 -0.008365 -76693.000000 1 0 0
5.516216 -15.707072 -12.230391 20.657280 -1.233059 2.204411 -0.007986 -0.000484 402147.000000 1 0 0
2.661416 -11.865872 -16.672391 20.636150 -1.350156 2.511413 -0.003610 0.001790 268096.000000 1 0 0
0.580116 -13.833872 -14.414591 19.987321 -1.528886 2.376310 0.010453 0.001273 339658.000000 1 0 0
-6.620184 -6.417772 -14.537691 17.215083 0.769875 2.576379 0.014914 -0.004687 -25535.000000 1 0 0
-5.738884 -8.190472 -17.428791 20.094312 0.959615 2.620648 -0.007207 -0.004712 -117593.000000 1 0 0
-2.438584 -16.041572 -13.341191 21.006335 1.419935 2.258938 0.009113 -0.007490 357357.000000 1 0 0
15.961516 -7.956472 -9.382391 20.152040 -0.462430 2.055086 0.000148 -0.004351 79829.000000 1 0 0
19.113816 -3.009272 -3.729591 19.705419 -0.156158 1.761212 0.026394 -0.012095 133429.000000 1 0 0
15.750016 -11.168572 -8.773591 21.207921 -0.616817 1.997304 0.010763 -0.017443 214063.000000 1 0 0
18.192516 -2.753372 -6.501891 19.514694 -0.150206 1.910470 0.112266 -0.008956 -230363.000000 1 0 0
8.750916 -9.366872 -15.881091 20.408966 -0.819382 2.462500 0.028843 -0.003186 189898.000000 1 0 0
-4.704384 9.287228 -16.164891 19.227260 -1.101928 2.569422 -0.001227 -0.008265 493952.000000 1 0 0
2.065716 -9.712972 -18.833491 21.291064 -1.361243 2.656373 0.000966 0.014374 153810.000000 1 0 0
11.180116 8.186728 -14.987991 20.412187 0.632049 2.395382 0.005724 -0.026595 395804.000000 1 0 0
18.297016 -5.417672 -8.047091 20.709603 -0.287871 1.969873 0.015482 -0.014431 258983.000000 1 0 0
12.587816 5.480328 -13.925791 19.555428 0.410619 2.363308 -0.005835 0.004775 77861.400000 1 0 0
15.683816 6.654228 -10.459091 19.991333 0.401255 2.121376 -0.020133 -0.010021 50908.500000 1 0 0
3.339716 -0.300172 -19.171191 19.462229 -0.089639 2.968437 0.023114 -0.013376 181788.000000 1 0 0
10.749716 -1.852772 -14.836691 18.415118 -0.170679 2.507619 0.021994 -0.000918 205856.000000 1 0 0
12.238016 -5.832072 -13.892491 19.410909 -0.444715 2.368430 0.017588 -0.005263 -148219.000000 1 0 0
10.178416 6.657328 -12.832691 17.680445 0.579226 2.383011 0.002012 -0.001923 439435.000000 1 0 0
10.304216 5.910528 -16.425091 20.270541 0.520784 2.515449 -0.006634 0.004052 383325.000000 1 0 0
11.738316 -9.968372 -15.217291 21.649999 -0.704039 2.350231 0.029473 -0.010970 268078.000000 1 0 0
-1.026684 2.233028 -17.765691 17.934890 -1.139846 3.004123 0.010414 -0.002998 292756.000000 1 0 0
6.641316 -1.084172 -17.105091 18.381149 -0.161819 2.766785 0.012283 0.001675 113414.000000 1 0 0
6.422716 -5.601772 -15.796191 17.948559 -0.717231 2.646830 -0.015879 -0.006764 239252.000000 1 0 0
-2.195984 -4.773672 -20.354091 21.021401 1.139641 2.888952 0.022946 -0.021135 285124.000000 1 0 0
15.729716 -0.270672 -13.176091 20.520882 -0.017206 2.268007 -0.015940 0.003089 -491.835000 1 0 0
-4.191784 -0.181472 -18.456491 18.927389 0.043265 2.918062 0.009922 -0.007786 252438.000000 1 0 0
3.584716 9.037728 -17.358491 19.895927 1.193191 2.631019 0.003413 -0.014151 -121047.000000 1 0 0
9.403616 0.531028 -16.401391 18.913371 0.056411 2.620318 0.013363 -0.034343 11189.300000 1 0 0
4.002516 4.427528 -18.650391 19.582140 0.835772 2.831871 0.012804 0.005925 520281.000000 1 0 0
-2.114784 -11.285172 -18.187591 21.508507 1.385550 2.578484 0.012351 -0.007068 179279.000000 1 0 0
5.889416 -9.322472 -16.318691 19.695009 -1.007362 2.547345 0.003989 0.001849 226961.000000 1 0 0
9.995416 -12.320772 -10.632191 19.098514 -0.889224 2.161207 -0.003232 -0.004379 64036.700000 1 0 0
6.184116 6.777428 -17.268491 19.554478 0.831141 2.653218 0.006295 -0.001595 334643.000000 1 0 0
8.412516 0.905928 -20.089991 21.799057 0.107275 2.742977 0.014366 -0.004255 79248.600000 1 0 0
-1.107484 -0.702272 -20.274891 20.317257 0.565127 3.077003 0.021383 -0.012829 247840.000000 1 0 0
-0.848884 6.526328 -19.593991 20.669737 -1.441452 2.817548 0.011206 -0.007461 3692.840000 1 0 0
8.667216 5.579728 -18.382691 21.075515 0.571986 2.630539 0.007983 -0.001597 190881.000000 1 0 0
12.098916 0.146828 -13.146991 17.867532 0.012135 2.397649 -0.004552 0.005544 9229.920000 1 0 0
-4.349784 -2.637972 -19.967591 20.605441 0.545156 2.892127 0.001512 -0.006723 446017.000000 1 0 0
5.815116 -11.425272 -14.612791 19.439292 -1.099999 2.421454 -0.007469 -0.000098 175865.000000 1 0 0
11.549416 2.965528 -15.949191 19.913816 0.251339 2.499611 0.019934 0.008338 -265742.000000 1 0 0
-2.903184 -4.390972 -17.024291 17.819529 0.986608 2.841715 -0.000775 -0.005076 357702.000000 1 0 0
-6.898684 -5.684772 -17.827691 19.943296 0.689227 2.676810 0.015684 0.005895 -65917.100000 1 0 0
3.146316 10.738328 -15.595591 19.194620 1.285775 2.519221 0.000010 0.005584 136984.000000 1 0 0
16.790216 -6.246272 -10.932591 20.986872 -0.356154 2.118731 0.016558 -0.010462 -116390.000000 1 0 0
9.335316 -3.406472 -17.758791 20.350106 -0.349888 2.631426 -0.008682 -0.008779 28352.500000 1 0 0
-7.298084 -1.696672 -18.913691 20.343757 0.228424 2.764407 -0.007868 0.006474 535768.000000 1 0 0
1.151416 -7.260072 -19.240991 20.597333 -1.413511 2.776665 0.003718 -0.011894 198349.000000 1 0 0
5.663016 10.058328 -14.392491 18.449485 1.058014 2.465626 0.001542 -0.006344 366554.000000 1 0 0
5.991216 -3.576272 -18.069691 19.370032 -0.538151 2.773092 0.012395 -0.014066 397997.000000 1 0 0
4.662816 13.703328 -14.327591 20.366711 1.242817 2.351080 -0.000188 -0.008870 -12155.700000 1 0 0
8.828816 11.222828 -15.443291 21.033190 0.904228 2.395335 -0.001288 -0.016019 103348.000000 1 0 0
17.215216 1.059428 -11.662091 20.820433 0.061463 2.165336 0.008060 0.010420 141168.000000 1 0 0
15.274116 -2.559072 -12.037291 19.614888 -0.166001 2.231511 0.009761 -0.004048 -114401.000000 1 0 0
-8.620384 0.451228 -17.376891 19.402860 -0.052297 2.680538 -0.006896 -0.003493 388959.000000 1 0 0
-3.630284 4.383428 -18.919491 19.757038 -0.879105 2.849376 0.015070 -0.004686 65533.100000 1 0 0
3.840616 1.569828 -17.084191 17.580793 0.388021 2.903346 0.007855 -0.001212 623602.000000 1 0 0
-4.954484 14.400028 -13.693891 20.479999 -1.239422 2.303184 -0.001851 -0.007913 249548.000000 1 0 0
0.932616 9.683028 -17.659991 20.161996 1.474778 2.638104 0.009774 0.007998 155528.000000 1 0 0
1.428516 -5.016572 -19.732991 20.410722 -1.293380 2.883174 0.015131 -0.004184 518630.000000 1 0 0
3.647716 -6.041872 -18.039091 19.370567 -1.027632 2.768660 0.007874 -0.014360 176210.000000 1 0 0
-6.539784 7.605028 -15.783691 18.701073 -0.860566 2.575493 -0.005524 -0.000283 -20012.600000 1 0 0
-11.736984 2.995228 -16.868091 20.766817 -0.249863 2.518816 0.036939 -0.014980 310598.000000 1 0 0
-4.147884 6.664928 -17.116291 18.830656 -1.014109 2.711576 -0.000438 0.000999 237597.000000 1 0 0
-8.046584 5.160528 -17.607291 20.034851 -0.570257 2.644207 -0.003139 -0.002684 257196.000000 1 0 0
-8.418784 4.527228 -15.119591 17.887810 -0.493392 2.577821 -0.017261 -0.012887 496263.000000 1 0 0
9.445816 13.977028 -12.646491 21.083512 0.976490 2.214083 0.006906 -0.009909 319967.000000 1 0 0
13.371016 9.760228 -12.036491 20.467614 0.630548 2.199473 -0.016035 -0.012718 132746.000000 1 0 0
8.744216 15.445328 -9.945691 20.345423 1.055646 2.081558 0.005927 -0.008436 48624.100000 1 0 0
7.926716 13.324328 -14.479591 21.213889 1.034131 2.322046 0.007251 -0.015420 35605.300000 1 0 0
3.667216 15.786328 -12.577891 20.514872 1.342541 2.230789 0.008639 -0.013513 331708.000000 1 0 0
11.000916 12.042328 -11.609191 20.020268 0.830561 2.189368 0.015027 -0.003322 252622.000000 1 0 0
15.867716 10.648528 -10.470991 21.790301 0.591053 2.072060 0.034983 -0.000074 296000.000000 1 0 0
13.271116 11.333028 -9.979191 20.103340 0.706790 2.090237 0.032621 -0.009148 240416.000000 1 0 0
10.957816 11.163028 -7.846491 17.500124 0.794675 2.035735 0.016598 -0.005264 63891.300000 1 0 0
6.115616 16.881128 -10.161791 20.630929 1.223228 2.085815 0.027030 -0.000924 197606.000000 1 0 0
11.694616 13.987928 -10.198091 20.890841 0.874457 2.080778 0.037498 -0.011465 126698.000000 1 0 0
8.008316 -19.532672 -1.813591 21.188382 -1.181703 1.656495 0.013516 0.001027 222260.000000 1 0 0
7.537216 -16.672872 -4.004391 18.730442 -1.146227 1.786250 0.015066 -0.011008 308870.000000 1 0 0
3.744816 -18.965172 5.388909 20.068427 -1.375847 1.298933 0.035962 -0.012969 23614.600000 1 0 0
10.234816 -17.908672 -2.549191 20.783897 -1.051596 1.693758 0.014034 -0.000765 611811.000000 1 0 0
-3.342084 -14.635672 7.933009 16.979548 1.346294 1.084664 0.021251 -0.037618 -9806.280000 1 0 0
-15.355384 -12.566272 -4.057391 20.252443 0.685838 1.772502 0.008893 -0.003600 90886.600000 1 0 0
-9.347184 -12.777572 -7.207691 17.395028 0.939221 1.998029 0.021300 -0.010479 133661.000000 1 0 0
-11.321084 -15.847072 6.807209 20.630917 0.950474 1.234544 0.000776 0.001922 202182.000000 1 0 0
-14.653284 -8.656372 -8.532391 19.038204 0.533587 2.035516 0.021784 0.001265 18407.700000 1 0 0
4.689116 -15.117672 6.241309 17.014281 -1.270031 1.195200 0.022222 -0.020098 23692.600000 1 0 0
2.601816 -14.024572 9.147409 16.945004 -1.387363 1.000562 0.009146 -0.011801 283846.000000 1 0 0
3.355716 -17.554972 9.937109 20.449548 -1.381920 1.063366 0.028351 -0.006464 325294.000000 1 0 0
-7.308684 -17.159272 -5.594391 19.471895 1.168136 1.862209 -0.031740 -0.005740 -76002.800000 1 0 0
2.234416 -20.065172 -4.089991 20.599315 -1.459895 1.770674 0.019275 0.000847 167653.000000 1 0 0
-17.200884 -10.747572 -2.800591 20.474961 0.558475 1.708008 -0.081041 0.001427 -44804.200000 1 0 0
-4.315284 -15.021972 3.061709 15.926562 1.291064 1.377353 -0.001530 0.004004 33371.400000 1 0 0
-10.815884 -10.525472 -14.598291 20.997119 0.771791 2.339567 0.028156 0.002148 73986.600000 1 0 0
0.514016 -20.485272 2.864609 20.690978 -1.545710 1.431903 0.013988 -0.006875 227582.000000 1 0 0
6.814816 -18.165972 0.606709 19.411655 -1.211901 1.539536 0.024095 -0.009837 195498.000000 1 0 0
-7.800184 -18.896472 -3.631791 20.763175 1.179317 1.746616 0.010217 -0.011092 23195.200000 1 0 0
-9.032984 -15.963872 -7.709691 19.896717 1.055874 1.968699 0.030751 -0.003144 28888.000000 1 0 0
-12.101784 -10.583872 -12.617091 20.436793 0.718587 2.236193 0.050775 -0.002776 161465.000000 1 0 0
-13.191484 -14.697472 -3.419791 20.043101 0.839345 1.742257 0.006302 -0.017637 177426.000000 1 0 0
-0.704884 -20.536772 -2.417391 20.690569 1.536487 1.687899 0.015281 -0.010509 383139.000000 1 0 0
-11.968884 -16.579772 -1.063791 20.476198 0.945525 1.622772 0.012356 -0.003620 158382.000000 1 0 0
0.725816 -20.114372 5.439109 20.849429 -1.534728 1.306867 0.019043 -0.014755 3862.390000 1 0 0
-18.179684 -8.894772 2.559909 20.400270 0.455027 1.444981 0.010062 -0.004735 -76184.800000 1 0 0
-15.047284 -14.833672 -0.710191 21.141499 0.778250 1.604395 0.009964 0.003196 -125963.000000 1 0 0
10.402716 -15.202872 -5.113991 19.117969 -0.970712 1.841590 0.008986 -0.007393 -142016.000000 1 0 0
-0.215384 -19.160672 -7.367591 20.529470 1.559556 1.937863 0.006576 0.009401 134182.000000 1 0 0
-9.980084 -17.611372 -3.148591 20.485999 1.055234 1.725103 0.014826 0.018644 507997.000000 1 0 0
-14.990084 -6.444572 -11.293191 19.843671 0.406033 2.176217 0.031729 -0.008029 99917.600000 1 0 0
-12.290684 -15.347872 1.988309 19.762881 0.895563 1.470018 0.012934 -0.001571 28468.300000 1 0 0
-2.779284 -16.197272 10.080909 19.279543 1.400862 1.020569 0.013287 -0.016204 412847.000000 1 0 0
-12.040584 -14.807272 -6.817491 20.265961 0.888086 1.913889 0.003125 0.003969 360149.000000 1 0 0
5.889716 -16.950672 -6.665091 19.142557 -1.236384 1.926427 0.012935 -0.011191 -122047.000000 1 0 0
-17.752284 -7.267572 -2.854591 19.393553 0.388573 1.718526 -0.004310 0.004925 -14303.400000 1 0 0
-12.312084 -13.115372 -9.394891 20.294442 0.816979 2.052093 0.044786 -0.027101 188464.000000 1 0 0
-7.251784 -14.978872 9.327209 19.077521 1.119922 1.059955 0.008203 0.001957 364728.000000 1 0 0
-15.768384 -7.854272 -5.791391 18.543779 0.462128 1.888419 0.012343 -0.000004 302908.000000 1 0 0
-0.839484 -19.652672 -0.440291 19.675521 1.528106 1.593176 0.013295 -0.006265 157657.000000 1 0 0
-14.937484 -11.167972 -1.584891 18.718010 0.641994 1.655570 0.001866 -0.005006 32531.000000 1 0 0
-7.093684 -19.015972 1.468809 20.349078 1.213747 1.498553 0.011141 -0.010080 241486.000000 1 0 0
-2.053184 -21.078572 -5.059291 21.774255 1.473696 1.805291 0.001686 0.002388 100152.000000 1 0 0
-9.157784 -19.617572 -0.996791 21.672742 1.134047 1.616805 0.013524 0.003452 275989.000000 1 0 0
-17.828184 -7.324572 5.049909 19.924736 0.389818 1.314552 0.014657 -0.003800 112992.000000 1 0 0
-2.936084 -15.819772 -10.987691 19.483715 1.387288 2.169948 -0.001078 0.006984 43748.000000 1 0 0
-3.298984 -18.479572 -7.729291 20.300735 1.394137 1.961392 -0.000553 0.011355 147189.000000 1 0 0
3.884916 -17.676972 -6.156491 19.117278 -1.354463 1.898678 -0.002425 0.022674 331920.000000 1 0 0
0.775116 -17.298572 -9.537691 19.768889 -1.526018 2.074257 0.001856 0.006131 135733.000000 1 0 0
-7.359484 -11.387272 -14.189291 19.625696 0.997033 2.378925 0.004457 -0.029816 331641.000000 1 0 0
-5.184384 -19.291272 -1.932691 20.069039 1.308257 1.667248 0.014977 -0.011110 279986.000000 1 0 0
-10.419884 -15.272372 8.719209 20.441232 0.972069 1.130121 0.002837 -0.021082 24240.300000 1 0 0
-7.287884 -14.539372 -10.428191 19.319777 1.106148 2.140957 0.015523 -0.022916 218738.000000 1 0 0
-12.640584 -7.900772 -12.372891 19.372532 0.558622 2.263581 0.018963 -0.007031 364911.000000 1 0 0
-15.708184 -13.031172 3.344809 20.682027 0.692518 1.408358 0.006166 -0.001444 90466.400000 1 0 0
-6.104584 -14.294672 -13.007491 20.268163 1.167188 2.267600 -0.002847 -0.002222 349222.000000 1 0 0
-13.857184 -12.072172 -6.847391 19.612385 0.716665 1.927445 0.011367 0.003550 212812.000000 1 0 0
-11.638084 -10.342472 -8.153091 17.575114 0.726523 2.053189 0.025873 -0.010207 208857.000000 1 0 0
-9.484184 -14.772872 3.117709 17.829964 1.000066 1.395035 -0.000787 -0.000856 459132.000000 1 0 0
5.520516 -17.666672 7.899009 20.124158 -1.267928 1.167433 0.059696 -0.040846 354397.000000 1 0 0
-4.941284 -16.823672 5.291009 18.315213 1.285120 1.277733 0.004402 0.008800 339694.000000 1 0 0
-18.465584 -7.209572 -7.099391 21.056046 0.372232 1.914702 -0.000328 0.001393 118154.000000 1 0 0
-17.168884 -3.690372 -10.837691 20.636012 0.211724 2.123727 0.016389 -0.007484 -242868.000000 1 0 0
-15.739484 -4.011472 -13.093791 20.863141 0.249554 2.249268 0.016442 -0.012411 164553.000000 1 0 0
-19.444384 -4.897672 -6.071091 20.950642 0.246748 1.864794 0.017002 -0.000441 -519284.000000 1 0 0
5.214016 -13.992272 8.840509 17.352932 -1.214100 1.036247 0.019096 -0.005340 154163.000000 1 0 0
19.883616 -3.672672 2.998709 20.441110 -0.182650 1.423565 0.029280 0.000361 24701.900000 1 0 0
17.802716 -2.494272 0.202609 17.977740 -0.139200 1.559526 0.018896 -0.011578 241371.000000 1 0 0
14.099316 -11.415472 0.207209 18.142399 -0.680596 1.559375 0.021169 0.003101 79774.300000 1 0 0
11.229116 -14.015972 5.181009 18.691800 -0.895345 1.289938 0.023586 0.000748 424236.000000 1 0 0
9.887716 -13.252572 8.729409 18.697598 -0.929797 1.085045 0.018137 -0.016548 172819.000000 1 0 0
18.829916 3.983028 -4.401391 19.743416 0.208454 1.795615 0.043319 0.005052 -76239.500000 1 0 0
18.887716 -6.142872 -4.966691 20.473122 -0.314441 1.815837 0.039495 -0.012362 -68309.200000 1 0 0
17.595016 -10.133972 -0.268691 20.306506 -0.522553 1.584028 0.024758 -0.000961 379050.000000 1 0 0
17.449116 -9.041572 8.692509 21.489099 -0.478076 1.154356 0.055603 -0.015744 -1214.640000 1 0 0
19.885716 0.303028 -2.528691 20.048137 0.015237 1.697264 0.029589 -0.001028 157424.000000 1 0 0
7.404316 -13.188572 11.599409 19.060656 -1.059228 0.916561 0.011058 -0.009146 406407.000000 1 0 0
15.611616 -6.712272 -3.412291 17.332654 -0.406059 1.768961 0.002765 -0.006884 361856.000000 1 0 0
14.313216 -6.919572 11.488209 19.614474 -0.450312 0.945052 0.023806 -0.037810 241952.000000 1 0 0
16.307816 1.089328 10.685209 19.527037 0.066699 0.991780 0.031226 -0.012784 318433.000000 1 0 0
16.650216 -9.993472 2.673909 19.602269 -0.540567 1.433962 0.022152 -0.010362 292867.000000 1 0 0
15.892116 -7.159472 -6.036391 18.446013 -0.423274 1.904184 0.011386 -0.005890 276314.000000 1 0 0
18.849916 -4.687272 5.833409 20.280989 -0.243720 1.279046 0.132742 -0.010304 -114048.000000 1 0 0
13.112716 -13.277572 8.002909 20.304773 -0.791645 1.165665 0.019852 -0.018150 230140.000000 1 0 0
14.947816 -14.393572 -1.629491 20.815075 -0.766511 1.649161 0.009255 0.000692 157316.000000 1 0 0
18.651916 -6.506472 7.979209 21.304833 -0.335638 1.186911 0.040053 -0.013608 256615.000000 1 0 0
19.383016 3.304928 2.874509 19.871755 0.168882 1.425634 0.015672 0.000726 105148.000000 1 0 0
15.429016 -10.359472 8.284409 20.347104 -0.591292 1.151460 0.032574 -0.032607 178726.000000 1 0 0
14.067316 -4.582572 10.742809 18.283799 -0.314919 0.942758 0.021648 -0.010634 -182446.000000 1 0 0
18.601916 -7.682572 1.405509 20.174951 -0.391662 1.501074 0.026413 -0.008398 -41449.700000 1 0 0
18.643516 -5.078672 -1.801191 19.406645 -0.265956 1.663743 0.009794 -0.003463 236427.000000 1 0 0
14.452416 -13.802772 -6.032991 20.875484 -0.762410 1.863977 0.012012 -0.008870 305103.000000 1 0 0
13.729916 -9.911772 10.470209 19.909272 -0.625280 1.017028 0.014958 -0.007883 337380.000000 1 0 0
14.276216 2.247528 0.531209 14.461808 0.156150 1.534056 0.000726 -0.002583 -109663.000000 1 0 0
12.528716 3.068628 13.794409 18.885733 0.240199 0.751868 -0.011495 -0.001328 179440.000000 1 0 0
17.949516 -3.964672 8.997209 20.465911 -0.217389 1.115622 0.021189 -0.014337 -159413.000000 1 0 0
6.887616 -18.359372 4.642209 20.150829 -1.211890 1.338335 0.020313 -0.019204 468276.000000 1 0 0
12.461816 -3.556572 14.708409 19.603147 -0.278007 0.722268 0.006537 0.006916 125260.000000 1 0 0
12.221816 -13.911572 -7.475891 19.969817 -0.849967 1.954502 0.027312 0.002014 280653.000000 1 0 0
10.501716 -18.105772 4.414009 21.391318 -1.045197 1.362957 0.018856 -0.006299 600641.000000 1 0 0
18.311816 -0.525072 -4.417291 18.844383 -0.028666 1.807407 0.029978 -0.018015 224225.000000 1 0 0
4.146016 -13.802672 11.430209 18.394371 -1.278993 0.900272 0.005038 -0.007939 49390.300000 1 0 0
9.186016 -2.945772 14.282709 17.235320 -0.310320 0.594036 0.001816 0.004655 227892.000000 1 0 0
9.027116 -9.450072 14.011609 19.160320 -0.808285 0.750596 0.018864 -0.012898 377244.000000 1 0 0
20.903516 5.893028 -2.664491 21.881139 0.274784 1.692870 0.006866 0.009328 335262.000000 1 0 0
14.536316 -13.559772 1.945709 19.973925 -0.750655 1.473229 0.013293 0.000934 187796.000000 1 0 0
11.026416 -0.073472 14.061609 17.869418 -0.006663 0.665012 0.003566 -0.013596 176714.000000 1 0 0
19.490916 0.258528 7.523009 20.893978 0.013263 1.202468 0.062742 -0.009263 -620006.000000 1 0 0
20.108316 1.191528 -0.098091 20.143826 0.059186 1.575666 0.047258 -0.002639 58366.400000 1 0 0
17.612816 0.325728 2.897709 17.852566 0.018492 1.407762 0.010849 -0.000972 -99818.400000 1 0 0
10.194316 -8.424972 16.291709 20.983899 -0.690655 0.681877 0.018872 -0.008544 143866.000000 1 0 0
18.735216 2.976928 5.788309 19.833682 0.157577 1.274644 0.009725 0.000746 126077.000000 1 0 0
15.129416 2.196028 6.996709 16.812962 0.144143 1.141590 0.012690 -0.011634 15430.000000 1 0 0
11.337616 -16.084472 2.189009 19.800089 -0.956803 1.460014 0.004743 0.007802 221465.000000 1 0 0
8.739116 -16.370972 6.819309 19.770783 -1.080462 1.218644 0.027401 -0.006917 260439.000000 1 0 0
6.093016 6.650528 7.272009 11.586047 0.829119 0.892262 -0.003009 -0.000813 -627467.000000 1 0 0
18.460116 2.323228 -6.613891 19.746312 0.125193 1.912341 0.002427 0.000743 56976.700000 1 0 0
14.088816 4.423728 -7.098891 16.384699 0.304240 2.018907 0.007362 -0.003443 162892.000000 1 0 0
-10.608584 -4.004472 -13.781991 17.847160 0.360939 2.453129 0.015197 -0.012398 -178163.000000 1 0 0
7.764916 -13.800972 -10.553391 19.029840 -1.058304 2.158643 -0.011343 -0.001384 45423.000000 1 0 0
1.909316 -15.850372 13.911409 21.175625 -1.450915 0.854025 0.006878 -0.003412 339112.000000 1 0 0
-9.446284 -8.190672 2.579209 12.766038 0.714326 1.367359 0.007692 -0.000547 532369.000000 1 0 0
-13.563984 3.085128 -10.008891 17.137024 -0.223645 2.194506 0.005007 0.000377 383450.000000 1 0 0
-13.362084 -4.905972 -13.359591 19.521591 0.351876 2.324508 0.037437 -0.004470 71225.300000 1 0 0
-17.990684 -1.120072 -8.341291 19.861934 0.062178 2.004202 0.038097 -0.020782 430036.000000 1 0 0
-12.269584 15.136828 4.893209 20.090041 -0.889638 1.324758 0.001566 -0.009565 278880.000000 1 0 0
-17.485984 6.308528 9.450609 20.853565 -0.346243 1.100457 0.017094 -0.009174 129562.000000 1 0 0
-13.479184 15.510528 -0.103891 20.549347 -0.855355 1.575852 0.022142 -0.013408 229126.000000 1 0 0
-15.959584 5.372928 -10.953791 20.088858 -0.324740 2.147504 0.023275 0.004833 79907.300000 1 0 0
-18.125384 2.918828 -0.104991 18.359197 -0.159665 1.576515 0.027177 -0.002164 -144659.000000 1 0 0
-10.085784 15.551128 -0.146791 18.535969 -0.995437 1.578716 0.016770 -0.004267 123531.000000 1 0 0
-18.111284 12.424128 2.528109 22.108118 -0.601260 1.456194 0.054297 -0.017005 62105.400000 1 0 0
-8.478384 16.478528 -7.551591 20.011282 -1.095607 1.957747 0.050806 -0.015754 -50893.700000 1 0 0
-15.214984 -1.881472 -13.270691 20.276758 0.123035 2.284288 0.030510 -0.013248 48757.200000 1 0 0
-18.928084 5.365628 -4.617591 20.208525 -0.276228 1.801330 0.035421 0.004405 -49203.100000 1 0 0
-16.613384 9.510828 -5.921391 20.038045 -0.519938 1.870783 0.027876 0.013814 -140816.000000 1 0 0
-18.899784 1.511328 2.840909 19.171769 -0.079796 1.422067 0.021388 -0.013269 328620.000000 1 0 0
-14.319884 12.612528 -7.615491 20.545818 -0.722089 1.950515 0.037094 0.015365 127000.000000 1 0 0
-13.234684 6.072728 -12.897391 19.451930 -0.430189 2.295668 0.032893 -0.014946 -263065.000000 1 0 0
-13.905584 9.586928 -6.533091 18.109548 -0.603597 1.939872 0.008777 0.000083 171521.000000 1 0 0
-6.280984 11.337928 -15.467591 20.180330 -1.064903 2.444121 -0.006851 -0.026278 31301.400000 1 0 0
-14.721684 14.103828 3.231709 20.641945 -0.763967 1.413589 -0.006782 -0.006302 -43606.000000 1 0 0
-18.654184 8.589628 -4.765991 21.082575 -0.431524 1.798831 0.037326 0.003632 147508.000000 1 0 0
-2.685384 16.575928 -10.484291 19.796288 -1.410187 2.128936 0.005417 -0.003049 191899.000000 1 0 0
-19.328084 -2.221072 -6.632191 20.554658 0.114412 1.899336 0.010338 -0.006337 -173027.000000 1 0 0
-10.647084 13.521228 -5.993791 18.223873 -0.903764 1.905932 0.026693 -0.022814 161945.000000 1 0 0
-19.215584 3.715028 4.467809 20.074895 -0.190978 1.346360 0.020941 0.006393 -51797.600000 1 0 0
-14.827384 12.319728 0.764509 19.292783 -0.693287 1.531159 -0.004736 -0.004585 10114.100000 1 0 0
-16.289384 1.787828 -9.373891 18.878829 -0.109317 2.090392 -0.048942 0.007166 157841.000000 1 0 0
-16.788384 13.981828 -3.630091 22.147661 -0.694440 1.735443 0.027490 0.037388 349638.000000 1 0 0
-10.875784 15.825328 -8.480791 20.991605 -0.968686 1.986691 0.046754 -0.006634 191473.000000 1 0 0
-19.217184 2.480728 -6.687791 20.498310 -0.128379 1.903141 0.034230 -0.001078 216121.000000 1 0 0
-17.022984 10.460928 -0.224691 19.981579 -0.551026 1.582041 0.014824 0.002396 -53222.600000 1 0 0
-11.433684 6.623928 -14.649391 19.728411 -0.525086 2.407670 0.009525 -0.017273 282409.000000 1 0 0
-13.706584 12.313428 -4.876191 19.059596 -0.731908 1.829512 0.039637 -0.011592 199795.000000 1 0 0
-18.765884 7.349028 -0.163691 20.154240 -0.373258 1.578918 0.024714 0.002656 -64917.400000 1 0 0
-14.397484 9.013228 -10.524191 19.982102 -0.559338 2.125488 0.008836 0.007575 688523.000000 1 0 0
-18.416784 11.506028 5.056309 22.296477 -0.558425 1.342030 0.024831 -0.023006 167956.000000 1 0 0
-8.164984 12.159528 -13.452291 19.886810 -0.979463 2.313718 -0.013214 -0.000554 527728.000000 1 0 0
-20.929084 -0.204572 -5.383991 21.611473 0.009774 1.822575 0.000966 0.004887 155160.000000 1 0 0
-10.629584 13.301228 -3.202491 17.325319 -0.896578 1.756710 0.019364 -0.003884 470024.000000 1 0 0
-18.866784 -4.750472 3.456909 19.760383 0.246663 1.394950 0.026059 -0.012903 -63337.700000 1 0 0
-11.260184 11.612628 -13.081491 20.803131 -0.800806 2.250835 0.006696 -0.003112 92543.600000 1 0 0
-14.781284 11.358428 -10.082691 21.193416 -0.655194 2.066609 0.019753 -0.011440 341594.000000 1 0 0
-12.749284 9.850328 -13.808191 21.218844 -0.657820 2.279370 0.029898 -0.012780 77056.000000 1 0 0
-18.121284 -5.154772 -3.232291 19.115447 0.277139 1.740706 -0.020031 0.001908 -252818.000000 1 0 0
-9.508684 12.610228 -11.556591 19.570072 -0.924711 2.202504 0.022247 -0.003997 2705.390000 1 0 0
-15.214384 7.828228 -8.305191 19.019328 -0.475202 2.022691 -0.006302 0.008578 112054.000000 1 0 0
-14.546884 8.697728 2.262909 17.099212 -0.538881 1.438067 0.004744 0.002528 -40604.900000 1 0 0
-19.743284 6.155628 7.579509 22.025848 -0.302232 1.219496 0.031904 -0.018116 202674.000000 1 0 0
-19.049384 6.345828 3.708309 20.418132 -0.321563 1.388164 0.024530 0.002899 258368.000000 1 0 0
-14.465684 12.952028 5.811909 20.267938 -0.730247 1.279960 0.001965 -0.016636 109086.000000 1 0 0
17.689816 5.698228 5.486109 19.377739 0.311624 1.283757 -0.009894 -0.013722 109332.000000 1 0 0
18.151216 8.027128 0.636609 19.857157 0.416379 1.538731 0.006118 0.010356 11635.400000 1 0 0
16.960816 4.245428 8.658709 19.510668 0.245269 1.110969 0.020292 -0.008623 -139880.000000 1 0 0
12.317816 12.718428 10.757709 20.717512 0.801398 1.024815 0.048279 -0.023572 165097.000000 1 0 0
15.846016 12.378928 3.816209 20.466986 0.663173 1.383242 0.034402 -0.004335 105377.000000 1 0 0
5.032216 10.399328 14.377609 18.444101 1.120113 0.676892 0.002795 -0.005057 365560.000000 1 0 0
13.173516 13.511828 -5.510491 19.659006 0.798075 1.854907 0.031429 0.006553 234460.000000 1 0 0
17.619716 9.187528 -2.955491 20.089798 0.480648 1.718446 -0.007452 0.012857 -93527.600000 1 0 0
14.398916 7.452828 9.551209 18.817519 0.477625 1.038434 0.006235 -0.010076 148100.000000 1 0 0
4.571516 19.071128 -1.432491 19.663639 1.335527 1.643711 -0.010120 -0.003550 415600.000000 1 0 0
-4.413784 19.756328 3.753409 20.588396 -1.350995 1.387464 -0.006053 0.013959 307472.000000 1 0 0
6.858916 13.750528 11.962509 19.473658 1.108100 0.909308 0.015034 0.005105 -47929.400000 1 0 0
0.433716 16.945428 -10.352791 19.862425 1.545207 2.119082 -0.001960 0.009587 -79963.100000 1 0 0
10.468716 9.537928 15.683909 21.131755 0.738908 0.734455 0.011800 0.000462 -106661.000000 1 0 0
-1.405384 12.312628 0.693009 12.411936 -1.457146 1.514933 -0.008229 0.001204 530212.000000 1 0 0
-4.608884 19.338528 -2.262791 20.008515 -1.336834 1.684130 -0.001834 0.015360 -61587.500000 1 0 0
5.688016 18.434528 6.379909 20.319660 1.271512 1.251417 0.010543 -0.010226 83037.900000 1 0 0
11.491216 17.092528 -1.189091 20.630475 0.978908 1.628466 0.036904 -0.014604 235855.000000 1 0 0
18.481116 10.390628 3.809009 21.541247 0.512184 1.393038 0.024785 -0.005808 227545.000000 1 0 0
11.591616 15.860228 7.302909 20.958169 0.939657 1.214878 0.036314 -0.007329 -79390.600000 1 0 0
17.834316 6.796728 -5.412391 19.838153 0.364111 1.847127 -0.020860 0.006791 309110.000000 1 0 0
0.037516 15.408128 11.240809 19.072692 1.568362 0.940522 -0.006839 0.004612 370509.000000 1 0 0
1.242216 20.187528 -1.991091 20.323479 1.509340 1.668924 0.000759 -0.005063 392026.000000 1 0 0
14.647216 9.896928 -1.215891 17.719156 0.594221 1.639470 0.020479 0.005420 30920.600000 1 0 0
9.460716 17.597228 1.458809 20.032366 1.077503 1.497909 0.016600 -0.010030 176658.000000 1 0 0
0.113816 17.651428 -0.373291 17.655741 1.564348 1.591941 -0.012388 -0.001012 55508.200000 1 0 0
-0.125484 21.187328 1.224409 21.223048 -1.564874 1.513072 0.010484 0.005191 235313.000000 1 0 0
6.481016 17.458728 -0.236391 18.624356 1.215344 1.583489 0.000239 -0.014725 -6717.820000 1 0 0
6.401716 18.412928 -2.926991 19.712563 1.236194 1.719831 -0.021093 -0.010959 110671.000000 1 0 0
10.409516 9.778328 12.740709 19.138949 0.754143 0.842371 0.021798 -0.004238 172213.000000 1 0 0
13.546816 14.684128 8.482809 21.704789 0.825662 1.169267 0.043921 -0.010967 96838.600000 1 0 0
0.443016 17.576628 6.789609 18.847623 1.545597 1.202275 0.000749 -0.005972 193270.000000 1 0 0
7.252516 17.880628 -7.851691 20.831824 1.185465 1.957253 -0.002604 -0.005546 94439.600000 1 0 0
-1.250484 18.588628 9.037809 20.707071 -1.503626 1.119136 0.035020 -0.017317 64982.400000 1 0 0
16.005316 6.474028 -7.776691 18.935683 0.384373 1.994007 0.016595 -0.000286 -238410.000000 1 0 0
-5.172384 19.707928 -6.703791 21.449867 -1.314133 1.888655 0.002661 -0.001646 325472.000000 1 0 0
3.948916 15.520028 10.029809 18.896091 1.321643 1.011267 0.006258 -0.012549 311221.000000 1 0 0
9.132416 14.912328 7.787809 19.142322 1.021304 1.151807 0.026177 -0.000619 28243.300000 1 0 0
-2.670684 20.113628 6.171509 21.207972 -1.438789 1.275525 0.010460 0.002481 29250.400000 1 0 0
4.756016 17.707828 8.852209 20.360463 1.308406 1.121009 0.011145 -0.012488 129645.000000 1 0 0
13.867016 11.152328 -7.092591 19.156550 0.677317 1.950068 -0.043221 -0.024152 31491.500000 1 0 0
11.684216 7.182628 15.418509 20.635926 0.551179 0.727005 0.016920 -0.003412 249225.000000 1 0 0
16.945216 8.847428 5.206009 19.812114 0.481186 1.304905 0.006191 -0.009767 250496.000000 1 0 0
4.459816 15.443328 12.847709 20.577900 1.289659 0.896504 -0.015640 0.018932 375995.000000 1 0 0
15.861716 11.260628 -4.040391 19.867575 0.617356 1.775591 0.028005 0.018424 258555.000000 1 0 0
15.478416 13.288828 6.076509 21.286105 0.709431 1.281301 0.032431 -0.012696 441675.000000 1 0 0
12.641616 14.353928 -7.972291 20.722044 0.848743 1.965706 0.038422 -0.010198 388947.000000 1 0 0
-8.571684 15.584428 9.550309 20.188030 -1.067941 1.078027 0.030217 -0.012177 171403.000000 1 0 0
-4.701684 16.733728 -7.123691 18.784846 -1.296888 1.959755 0.002758 0.004655 79252.100000 1 0 0
2.808316 19.972228 -4.596091 20.685758 1.431101 1.794853 0.003311 -0.002478 103691.000000 1 0 0
7.165816 16.185628 9.105309 19.905530 1.154007 1.095698 0.018922 -0.021043 560822.000000 1 0 0
13.503216 15.552028 -1.348191 20.640253 0.855796 1.636161 0.052111 -0.008841 244463.000000 1 0 0
12.440516 16.635528 4.143309 21.181932 0.928687 1.373921 0.037907 -0.015447 349041.000000 1 0 0
2.407416 18.444728 0.703309 18.614464 1.441009 1.533004 -0.007674 -0.005542 -85915.400000 1 0 0
-6.884384 17.836128 1.607509 19.186096 -1.202434 1.486913 -0.021629 0.021716 316319.000000 1 0 0
0.377216 20.049128 -6.050091 20.945487 1.551984 1.863821 0.001416 0.007978 207398.000000 1 0 0
-7.294984 18.040628 -6.375391 20.477467 -1.186533 1.887396 0.028138 -0.006592 69139.900000 1 0 0
-7.197884 18.518028 -0.921691 19.889103 -1.200073 1.617154 -0.000948 0.005560 66356.500000 1 0 0
-14.629284 -9.355472 8.689109 19.417555 0.568961 1.106843 0.008065 -0.003145 376883.000000 1 0 0
-13.345384 -13.486072 8.072909 20.619051 0.790642 1.168506 0.010527 -0.003100 -27971.800000 1 0 0
-3.623984 -15.709572 13.012009 20.718019 1.344076 0.891748 0.013391 0.003960 112211.000000 1 0 0
-1.922184 -14.904372 15.554309 21.628029 1.442537 0.768184 0.002201 0.010349 581993.000000 1 0 0
-7.995884 -13.582672 12.567209 20.158321 1.038740 0.897680 0.008109 -0.012856 118387.000000 1 0 0
-10.240584 -11.381172 11.779809 19.317467 0.838101 0.914987 0.020760 0.002670 -969.626000 1 0 0
-7.371884 -10.139072 13.096809 18.129310 0.942128 0.763514 0.011382 -0.012819 373526.000000 1 0 0
-15.280884 -12.579672 7.084409 21.022427 0.688746 1.227075 0.000822 -0.003990 253800.000000 1 0 0
-4.586384 -12.140372 13.477609 18.710144 1.209591 0.766508 0.015360 -0.011940 273333.000000 1 0 0
3.465916 -12.296372 13.735609 18.758473 -1.296059 0.749199 0.002134 -0.008870 480623.000000 1 0 0
6.535516 -13.640072 14.770509 21.140778 -1.123975 0.797254 0.013104 0.003158 313290.000000 1 0 0
7.180516 -9.115272 16.575009 20.233114 -0.903572 0.610778 0.019705 -0.011551 560220.000000 1 0 0
-5.459984 13.527928 13.024709 19.556567 -1.187183 0.841960 0.010673 -0.006324 416460.000000 1 0 0
-13.124284 -2.768972 17.621709 22.145850 0.207931 0.650615 -0.002655 0.008082 352780.000000 1 0 0
-10.130384 9.310428 13.096509 18.995455 -0.743246 0.810060 -0.001581 -0.010743 383009.000000 1 0 0
-7.066684 -8.372072 17.228309 20.416764 0.869750 0.566412 0.012431 -0.002206 90067.000000 1 0 0
-4.772184 1.922628 18.171209 18.885526 -0.382989 0.275914 -0.006169 -0.002098 443937.000000 1 0 0
-15.737884 -3.791272 14.494009 21.728577 0.236397 0.840557 0.015641 -0.001665 134113.000000 1 0 0
-14.537684 2.516028 12.236909 19.168114 -0.171372 0.878380 -0.003992 -0.008123 136365.000000 1 0 0
-13.175184 10.330828 10.327309 19.671421 -0.664978 1.018092 -0.078248 0.019559 -45311.300000 1 0 0
-4.327484 11.221428 15.964209 19.987584 -1.202726 0.645654 -0.010478 0.010506 327382.000000 1 0 0
-13.369684 12.562028 8.664809 20.288714 -0.754263 1.129541 0.005556 -0.024422 -53960.800000 1 0 0
-3.981084 -6.719672 18.754309 20.315687 1.035945 0.394616 0.021404 -0.001622 225914.000000 1 0 0
0.721416 -2.804872 18.026209 18.257381 -1.319052 0.159303 0.012830 -0.013156 330487.000000 1 0 0
-4.133884 6.212728 21.565209 22.819843 -0.983678 0.333140 -0.003512 0.013260 277925.000000 1 0 0
1.974816 -10.767472 16.668809 19.942105 -1.389407 0.581099 -0.001287 0.008606 333021.000000 1 0 0
-14.831484 -0.362972 14.132209 20.489607 0.024468 0.809686 -0.024586 0.001909 18673.100000 1 0 0
-13.703484 -5.639172 7.420009 16.572335 0.390392 1.106566 0.000848 -0.006553 4477.070000 1 0 0
10.081216 0.596128 16.485209 19.332573 0.059064 0.549632 0.010518 0.015673 466339.000000 1 0 0
-7.774884 12.422328 11.627509 18.707272 -1.011565 0.900076 0.018633 -0.010565 135464.000000 1 0 0
-2.073084 7.488028 20.555009 21.974454 -1.300708 0.361394 -0.001709 0.014194 489938.000000 1 0 0
1.270016 -13.768572 15.511409 20.779565 -1.478816 0.728049 -0.008422 0.004662 702114.000000 1 0 0
-3.430184 -11.710272 17.647009 21.454919 1.285847 0.604976 0.017579 -0.008343 373074.000000 1 0 0
-2.086084 9.003228 16.553309 18.958425 -1.343110 0.509195 -0.014117 0.004552 245415.000000 1 0 0
-5.210984 -9.294072 20.323309 22.947135 1.059792 0.482888 0.062808 -0.019427 215783.000000 1 0 0
-6.719884 -2.969772 19.297809 20.649015 0.416129 0.363767 0.012478 -0.007728 331128.000000 1 0 0
-10.647184 -8.260372 15.834609 20.792574 0.659826 0.705093 0.022482 -0.009890 160461.000000 1 0 0
-0.725584 6.156728 17.786209 18.835631 -1.453485 0.335380 0.002838 -0.001006 98040.100000 1 0 0
-5.993484 -11.447072 18.856709 22.858976 1.088461 0.600745 0.024315 -0.003861 515314.000000 1 0 0
0.077816 3.224128 18.770109 19.045158 1.546666 0.170158 0.008981 0.000607 -14066.100000 1 0 0
-18.157684 -1.178472 7.502109 19.681766 0.064811 1.179734 0.005469 0.002945 164257.000000 1 0 0
-1.606484 -8.569072 17.686409 19.718490 1.385473 0.457985 0.009208 0.000652 220413.000000 1 0 0
5.733216 3.574428 14.787109 16.257456 0.557491 0.428576 -0.001007 -0.001808 251328.000000 1 0 0
-13.359884 -6.658172 10.206109 18.082655 0.462343 0.971073 -0.019077 -0.008740 110431.000000 1 0 0
4.008916 8.048728 16.656309 18.928446 1.108685 0.495015 -0.002087 -0.005975 98273.000000 1 0 0
6.203016 4.421128 16.887609 18.526066 0.619224 0.423736 0.013762 -0.030349 -17512.600000 1 0 0
5.643816 -9.432672 18.294509 21.342845 -1.031608 0.541041 0.023224 0.007837 253430.000000 1 0 0
-4.446984 -0.230872 19.896409 20.388626 0.051870 0.220179 0.002493 -0.009521 610164.000000 1 0 0
-10.758784 1.696028 16.959609 20.155800 -0.156355 0.570880 0.014074 -0.011143 164758.000000 1 0 0
-16.758184 -4.138072 8.486909 19.235072 0.242086 1.113838 0.017703 -0.018117 246905.000000 1 0 0
-13.185684 -9.538872 12.227909 20.356181 0.626276 0.926423 -0.000408 -0.009701 216715.000000 1 0 0
-14.469684 5.858328 13.359009 20.546408 -0.384697 0.862966 -0.007848 -0.007619 238614.000000 1 0 0
1.326316 9.275928 17.134609 19.529382 1.428774 0.500431 -0.007292 -0.002053 163073.000000 1 0 0
-3.683284 -10.476272 15.169809 18.800052 1.232712 0.631907 0.018150 -0.000420 536835.000000 1 0 0
-18.444984 -4.214972 6.825709 20.114018 0.224658 1.224570 0.073784 -0.004135 -154374.000000 1 0 0
-1.207284 -0.651072 21.234109 21.278365 0.494581 0.064507 0.009229 0.000062 407780.000000 1 0 0
-1.755984 2.445028 20.288509 20.510613 -0.947969 0.147298 0.003745 -0.005364 19799.200000 1 0 0
-7.949984 1.927828 16.330709 18.265016 -0.237902 0.464384 -0.004643 0.006914 450434.000000 1 0 0
2.809216 -2.021872 18.695109 19.012805 -0.623844 0.183065 0.011104 -0.010090 -19696.700000 1 0 0
-12.507184 4.158928 14.394009 19.517014 -0.321021 0.741419 -0.005376 -0.001028 198799.000000 1 0 0
-13.415384 -5.681272 13.235009 19.682857 0.400590 0.833332 0.005427 -0.003319 27975.000000 1 0 0
-17.247984 -1.216872 9.947309 19.948000 0.070435 1.048742 0.009742 -0.006809 120068.000000 1 0 0
-7.091184 7.925028 14.680209 18.127313 -0.840871 0.626918 -0.006409 0.000216 -48331.900000 1 0 0
-9.321384 0.502028 13.981509 16.811390 -0.053806 0.588690 -0.000622 -0.002628 208524.000000 1 0 0
7.472616 -0.902372 14.968209 16.754150 -0.120175 0.465932 -0.001950 0.001742 159333.000000 1 0 0
3.808416 6.163228 18.421409 19.794891 1.017300 0.374709 0.004289 0.003328 137777.000000 1 0 0
1.911016 0.434528 19.824209 19.920845 0.223579 0.098538 0.012147 -0.007871 215099.000000 1 0 0
-7.254784 7.035428 17.598709 20.293932 -0.770049 0.521264 0.002702 0.001822 849629.000000 1 0 0
7.733016 -3.360172 16.942009 18.924111 -0.409909 0.461781 0.006937 0.012071 531790.000000 1 0 0
-16.223884 2.400828 9.289309 18.848598 -0.146915 1.055448 0.002471 -0.004052 133203.000000 1 0 0
4.087116 -6.094372 19.090109 20.451850 -0.980050 0.366974 0.020092 -0.018395 58562.400000 1 0 0
-3.604084 -4.043172 20.728509 21.424466 0.842753 0.255584 0.014476 -0.007354 426018.000000 1 0 0
-9.562884 5.779728 14.646909 18.422431 -0.543642 0.651692 -0.001182 -0.000576 -115167.000000 1 0 0
6.317116 3.035428 19.830709 21.032755 0.447933 0.339717 0.030681 -0.008669 105741.000000 1 0 0
-7.353984 11.551328 14.423209 19.888268 -1.003874 0.759454 0.012446 -0.005138 321465.000000 1 0 0
-14.670184 4.793528 8.875109 17.803364 -0.315817 1.048920 -0.002653 -0.011141 368508.000000 1 0 0
0.688416 -5.436272 20.386809 21.110399 -1.444833 0.262580 0.010466 -0.012231 253144.000000 1 0 0
-6.109484 -8.085372 13.616909 16.974076 0.923707 0.639795 0.014218 -0.008285 279068.000000 1 0 0
-12.821184 10.211028 6.486509 17.627327 -0.672553 1.193960 -0.018597 -0.018509 175123.000000 1 0 0
-19.402784 1.841028 7.451009 20.865640 -0.094601 1.205641 -0.006368 -0.003391 135730.000000 1 0 0
-16.676784 9.149728 6.323809 20.045528 -0.501807 1.249842 0.032036 -0.013909 90454.000000 1 0 0
-12.947484 8.067928 13.992009 20.700365 -0.557251 0.828570 0.013694 -0.011891 395152.000000 1 0 0
-16.578184 9.140828 10.103209 21.458466 -0.503900 1.080569 0.003669 -0.021672 372874.000000 1 0 0
2.174216 10.904728 14.063809 17.928498 1.373994 0.669006 -0.015611 -0.044875 361731.000000 1 0 0
1.521516 14.468928 13.157909 19.616204 1.466024 0.835553 -0.007823 -0.019650 400327.000000 1 0 0
8.862216 5.069928 16.637309 19.520325 0.519640 0.550416 0.009621 0.004578 176550.000000 1 0 0
-0.391484 13.258428 13.287809 18.775117 -1.541278 0.784509 -0.008415 0.005347 105034.000000 1 0 0
4.084716 12.784028 14.939909 20.082758 1.261531 0.731883 0.004461 0.005111 103853.000000 1 0 0
-3.541484 -4.437672 -13.275691 14.438802 0.897246 2.737464 -0.001639 -0.006914 131022.000000 1 0 0
5.330016 -12.003672 16.907109 21.409053 -1.152916 0.660448 -0.025379 0.016944 121433.000000 1 0 0
8.760816 -13.898072 7.157909 17.920490 -1.008351 1.159906 0.010264 -0.009527 309478.000000 1 0 0
-0.320084 15.271528 0.494909 15.282897 -1.549840 1.538407 -0.006466 0.000882 -195734.000000 1 0 0
-14.258084 7.648428 8.431109 18.244863 -0.492363 1.090425 0.004106 -0.008333 28474.000000 1 0 0
-15.801584 -9.577972 5.836309 19.377567 0.544922 1.264857 -0.001494 -0.004930 194782.000000 1 0 0
8.890216 -10.712772 11.365509 17.971484 -0.878105 0.886124 -0.006501 0.000227 169935.000000 1 0 0
-25.057184 6.016528 31.270213 40.520209 -0.235651 0.689257 0.002642 -0.002519 104115.000000 0 0 1
-23.869584 5.244128 31.213993 39.643048 -0.216263 0.664255 0.002434 -0.006381 329877.000000 0 0 1
-22.893184 5.720628 32.132883 39.866598 -0.244869 0.633416 -0.006579 -0.001405 -76208.900000 0 0 1
-21.579084 4.926728 32.087193 38.980989 -0.224463 0.603860 0.002742 -0.003146 -499674.000000 0 0 1
-21.568684 3.606228 32.520543 39.189268 -0.165665 0.591988 -0.003139 -0.001334 101840.000000 0 0 1
-20.383684 2.981328 32.041803 38.092782 -0.145231 0.571387 0.008868 0.001232 315335.000000 0 0 1
-20.013584 1.699628 32.800393 38.461644 -0.084720 0.549458 -0.000962 0.002368 -78595.300000 0 0 1
-20.789084 0.584028 32.457703 38.549054 -0.028086 0.569845 0.003728 0.007695 40561.100000 0 0 1
-20.799784 -0.327572 33.537360 39.465084 0.015748 0.555194 -0.002138 0.010453 67727.600000 0 0 1
-21.318184 -1.787172 33.202253 39.497450 0.083638 0.572374 -0.004922 -0.008203 202851.000000 0 0 1
-20.386084 -2.476572 32.354153 38.321235 0.120891 0.565561 0.009005 -0.009698 504673.000000 0 0 1
-20.468384 -3.876872 32.495933 38.600137 0.187190 0.570075 0.017493 -0.020617 -33845.600000 0 0 1
-21.730784 -4.658672 31.874983 38.858007 0.211185 0.608872 0.000400 -0.014416 1069490.000000 0 0 1
-22.916684 -4.410072 32.643003 40.127158 0.190115 0.620670 -0.011106 -0.002872 510920.000000 0 0 1
-22.935484 -4.990872 33.935718 41.262310 0.214265 0.605112 -0.007125 -0.000718 -986992.000000 0 0 1
-24.127684 -4.447372 -34.194915 42.085823 0.182281 2.519232 -0.016450 0.009774 -74513.300000 0 0 1
-24.253684 -5.004572 -32.906361 41.183923 0.203487 2.496443 -0.004145 0.014309 117772.000000 0 0 1
-25.459634 -4.601972 -32.286331 41.373642 0.178825 2.466037 -0.008101 0.013075 -131832.000000 0 0 1
-25.613774 -5.076072 -30.825681 40.398695 0.195642 2.438794 -0.012914 0.026228 -1001500.000000 0 0 1
-25.765014 -6.478272 -30.743901 40.632394 0.246330 2.428948 -0.008029 0.017147 492162.000000 0 0 1
-25.600624 -6.919172 -29.407961 39.599180 0.263967 2.407801 -0.018519 0.023454 -347816.000000 0 0 1
-25.931904 -8.391572 -29.161851 39.916108 0.312965 2.389965 -0.018307 0.018535 430370.000000 0 0 1
-27.314794 -8.739472 -29.225181 40.946154 0.309661 2.365629 0.005881 0.016528 354265.000000 0 0 1
-27.438704 -10.141572 -28.864081 41.095853 0.354035 2.349504 0.004468 0.010562 137199.000000 0 0 1
-28.882224 -10.415372 -28.402971 41.825729 0.346100 2.317303 0.029005 0.009334 156306.000000 0 0 1
-28.997594 -11.440872 -27.466911 41.547385 0.375795 2.293078 0.037114 0.003361 101500.000000 0 0 1
-30.342404 -11.516872 -27.004141 42.219942 0.362766 2.264782 0.036417 0.006030 127181.000000 0 0 1
-30.529264 -12.236572 -25.682331 41.729507 0.381208 2.233750 0.045573 0.001684 -14592.900000 0 0 1
-29.877534 -11.624172 -24.574991 40.394537 0.371040 2.224807 0.038073 -0.001843 301850.000000 0 0 1
-29.919784 -12.412372 -23.428591 39.976985 0.393246 2.196974 0.038385 -0.008519 -51992.300000 0 0 1
-29.292634 -11.626872 -22.213291 38.557397 0.377850 2.184757 0.039205 -0.011278 185660.000000 0 0 1
-29.326344 -12.279172 -20.938791 38.068957 0.396529 2.153188 0.035959 -0.012443 -9234.720000 0 0 1
-28.205764 -13.104872 -20.799391 37.415471 0.434943 2.160246 0.023546 -0.017530 -631904.000000 0 0 1
-27.799614 -13.400272 -19.352591 36.426757 0.449169 2.130900 0.044533 -0.020319 -94454.600000 0 0 1
-27.225534 -12.249772 -18.713291 35.234555 0.422801 2.130702 0.036562 -0.016807 507930.000000 0 0 1
-26.728704 -12.666172 -17.429891 34.331569 0.442533 2.103301 0.041807 -0.007226 -67576.500000 0 0 1
-26.505354 -11.503272 -16.416191 33.231768 0.409467 2.087470 0.034379 -0.013857 -732565.000000 0 0 1
-25.295024 -10.839472 -16.591591 32.134301 0.404850 2.113345 0.032772 -0.019721 -157757.000000 0 0 1
-25.269354 -9.560572 -16.008791 31.404238 0.361701 2.105708 0.031529 -0.023791 -408423.000000 0 0 1
-23.897484 -8.862272 -16.046791 30.118584 0.355123 2.132687 0.038323 -0.023772 131805.000000 0 0 1
-22.945384 -9.328972 -15.113491 29.016168 0.386160 2.118660 0.021295 -0.020213 405634.000000 0 0 1
-21.703984 -8.677872 -15.117191 27.836987 0.380359 2.144875 0.027628 -0.040134 270638.000000 0 0 1
-20.540784 -9.015672 -14.140791 26.517318 0.413598 2.133253 0.002094 -0.012665 260211.000000 0 0 1
-19.834084 -10.202972 -14.546391 26.628726 0.475114 2.148697 0.001790 -0.002157 143922.000000 0 0 1
-18.852084 -10.542772 -13.617391 25.533986 0.509907 2.133299 0.001971 0.002015 -332519.000000 0 0 1
-17.827584 -11.582572 -14.099191 25.510114 0.576164 2.156385 0.009886 0.007345 -81736.000000 0 0 1
-17.034484 -11.223172 -15.227191 25.455856 0.582572 2.212025 0.016845 -0.005067 -131346.000000 0 0 1
-17.658984 -11.378372 -16.475391 26.697295 0.572385 2.235872 0.015056 -0.013305 -279712.000000 0 0 1
-16.866784 -10.818472 -17.720391 26.749580 0.570311 2.294888 0.012990 -0.008120 270019.000000 0 0 1
-17.501284 -11.110772 -18.962691 28.094979 0.565654 2.311693 0.023669 -0.007748 727508.000000 0 0 1
-16.875184 -10.254172 -19.968091 28.082816 0.546024 2.361777 0.025499 -0.008918 572163.000000 0 0 1
-17.778584 -10.372372 -21.211991 29.556940 0.528139 2.371240 0.029199 -0.001847 -207065.000000 0 0 1
-19.054784 -9.811372 -21.112691 30.084773 0.475499 2.348680 0.024094 -0.008814 -152284.000000 0 0 1
-19.867884 -10.429372 -22.113091 31.503864 0.483397 2.348881 0.022653 0.004915 -662120.000000 0 0 1
-21.188384 -9.768872 -22.375191 32.326888 0.432004 2.335266 0.014593 -0.002747 -946317.000000 0 0 1
-21.025984 -8.602572 -23.205891 32.474754 0.388361 2.366823 0.009383 -0.007901 360348.000000 0 0 1
-22.163984 -8.366572 -24.009391 33.729699 0.360948 2.362879 -0.003087 -0.012044 -195161.000000 0 0 1
-21.773484 -7.562672 -25.236221 34.178143 0.334298 2.401451 -0.002599 -0.006111 -4012.960000 0 0 1
-20.757584 -8.263972 -25.926381 34.224958 0.378883 2.430315 0.009303 -0.009082 332532.000000 0 0 1
-20.163984 -7.397472 -26.915581 34.434828 0.351620 2.468084 0.004995 -0.014096 -99937.800000 0 0 1
-19.019684 -8.108372 -27.648921 34.524729 0.402984 2.499499 0.033600 -0.016511 -349232.000000 0 0 1
-19.466284 -9.135072 -28.467731 35.676287 0.438768 2.494675 0.038636 -0.013017 199900.000000 0 0 1
-18.379984 -9.957472 -28.879521 35.651112 0.496492 2.515050 0.013116 -0.007187 69125.700000 0 0 1
-18.696584 -11.231972 -29.746421 36.885892 0.540971 2.508910 0.026289 -0.003885 -400430.000000 0 0 1
-19.044484 -10.802472 -31.084231 38.021247 0.515970 2.527938 0.028933 -0.000405 453344.000000 0 0 1
-19.134784 -11.919272 -31.988751 39.134246 0.557096 2.527698 -0.004775 0.007020 -235811.000000 0 0 1
-19.469084 -11.541272 -33.421411 40.363807 0.535109 2.546336 -0.016527 0.008862 159261.000000 0 0 1
-18.390084 -10.998272 -34.164710 40.328459 0.538988 2.581416 -0.003903 0.001888 254441.000000 0 0 1
-18.816184 -10.991172 33.441790 39.915009 0.528672 0.577509 -0.002816 -0.002804 7304.690000 0 0 1
-18.387284 -12.101072 32.473983 39.231209 0.582064 0.595695 0.007050 -0.001980 -338347.000000 0 0 1
-17.020784 -11.917772 32.163053 38.291022 0.610853 0.573581 0.014239 0.000806 230339.000000 0 0 1
-16.541284 -12.588572 31.001443 37.325269 0.650529 0.590657 0.021068 0.005247 15253.700000 0 0 1
-16.510384 -14.133672 30.967323 37.832903 0.707994 0.611951 0.019248 0.008892 -1595550.000000 0 0 1
-17.737184 -14.750172 30.830453 38.505741 0.693712 0.642381 0.014578 0.007372 -777100.000000 0 0 1
-17.717284 -16.163972 31.033623 39.220682 0.739584 0.657935 0.019072 0.005154 -285874.000000 0 0 1
-18.059684 -16.673072 32.454613 40.711736 0.745497 0.648185 -0.002290 0.001608 -851110.000000 0 0 1
-17.092484 -16.348872 33.366363 40.899301 0.763166 0.616655 -0.002099 0.004041 -564172.000000 0 0 1
-17.683984 -16.132472 -34.301304 41.827735 0.739550 2.532314 -0.008358 0.000520 385042.000000 0 0 1
-16.701684 -15.528172 -33.254121 40.322537 0.749004 2.540473 0.002145 -0.003277 308278.000000 0 0 1
-16.280184 -14.213472 -33.583331 39.936291 0.717727 2.569782 0.006448 -0.003716 69053.900000 0 0 1
-15.160684 -13.741872 -32.829761 38.684346 0.736348 2.584238 0.015691 -0.001462 329735.000000 0 0 1
-15.309384 -13.400672 -31.322991 37.350837 0.719014 2.565533 0.018701 -0.004853 -260552.000000 0 0 1
-15.584284 -14.533572 -30.563321 37.258707 0.750526 2.532732 0.017798 -0.007693 -158308.000000 0 0 1
-15.792284 -14.163072 -29.206611 36.097299 0.731064 2.513429 0.017037 -0.005021 -558989.000000 0 0 1
-15.870684 -15.348072 -28.200271 35.814763 0.768659 2.477364 0.012082 0.006117 771715.000000 0 0 1
-14.626484 -15.983372 -27.835761 35.273670 0.829698 2.480199 0.032350 -0.015279 735467.000000 0 0 1
-13.841184 -16.482872 -28.925731 36.054977 0.872294 2.501880 0.032089 -0.019625 -415816.000000 0 0 1
-12.447384 -16.927672 -28.434561 35.355448 0.936752 2.505206 0.046339 -0.014668 -369073.000000 0 0 1
-11.515684 -15.894572 -28.380281 34.506358 0.943813 2.536528 0.046214 -0.011318 -120530.000000 0 0 1
-10.293984 -16.385372 -27.817781 33.886214 1.009869 2.533812 0.051884 -0.015071 845444.000000 0 0 1
-9.094984 -15.411172 -27.895471 33.141821 1.037647 2.571220 0.035712 -0.013241 -133903.000000 0 0 1
-9.217384 -14.384572 -27.003401 31.954026 1.000928 2.577493 0.037319 -0.010628 -378815.000000 0 0 1
-8.108684 -13.533472 -26.896341 31.182027 1.030996 2.611102 0.028899 -0.008996 -455872.000000 0 0 1
-8.138284 -12.184872 -27.575971 31.227183 0.981940 2.653174 0.022967 -0.018056 -197294.000000 0 0 1
-7.896084 -12.288272 -28.987801 32.459858 0.999662 2.674842 0.035967 -0.012892 194820.000000 0 0 1
-7.832284 -10.987772 -29.607221 32.537107 0.951519 2.713966 0.032115 -0.015383 -70541.200000 0 0 1
-6.658884 -10.869272 -30.589851 33.139415 1.021139 2.746772 0.024458 -0.001554 338544.000000 0 0 1
-5.308384 -10.959472 -30.093941 32.464354 1.119735 2.757087 0.030217 -0.003680 1822010.000000 0 0 1
-4.270284 -10.808372 -31.090001 33.191029 1.194530 2.783876 0.036552 -0.000414 641256.000000 0 0 1
-4.196184 -9.302972 -31.561271 33.170274 1.147063 2.828848 0.025042 -0.003061 4657.790000 0 0 1
-2.970584 -8.926572 -32.243521 33.587985 1.249544 2.857698 0.019316 -0.006400 808883.000000 0 0 1
-3.058584 -7.546572 -32.569371 33.571858 1.185734 2.896600 0.012882 -0.010188 -88697.000000 0 0 1
-1.767384 -6.767172 -32.906731 33.641808 1.315332 2.932164 0.011232 -0.015109 -84039.600000 0 0 1
-1.077084 -7.294072 -34.001271 34.791522 1.424190 2.928049 0.014791 -0.012891 177977.000000 0 0 1
0.007416 -6.453772 -34.419210 35.019041 -1.569647 2.956240 0.006890 -0.000660 313327.000000 0 0 1
0.797916 -6.882372 33.308073 34.021044 -1.455375 0.205087 0.003437 0.006318 -68790.400000 0 0 1
0.056916 -6.789072 32.089753 32.800106 -1.562413 0.208498 -0.007085 0.008533 374738.000000 0 0 1
0.690016 -7.532072 31.061133 31.968769 -1.479441 0.238859 -0.006781 0.009185 -224733.000000 0 0 1
0.284816 -7.190072 29.680103 30.539921 -1.531205 0.237853 -0.003763 0.013852 -204156.000000 0 0 1
0.757416 -5.930972 29.265173 29.869725 -1.443779 0.201535 -0.007648 0.007992 140345.000000 0 0 1
0.667816 -5.767772 27.837883 28.436964 -1.455526 0.205628 -0.005193 0.014621 -614435.000000 0 0 1
-0.302284 -4.671172 27.424563 27.821177 1.506174 0.169055 0.001765 0.016779 -557950.000000 0 0 1
-1.590684 -5.169872 27.598573 28.123639 1.272305 0.193537 0.002804 0.019017 -844667.000000 0 0 1
-2.617084 -4.239372 27.332533 27.782886 1.017733 0.180298 0.003777 0.010230 367774.000000 0 0 1
-4.068884 -4.723972 27.553753 28.250328 0.859763 0.222527 0.004899 0.007878 233564.000000 0 0 1
-4.554084 -5.665272 26.602463 27.577636 0.893706 0.266726 0.001269 0.010710 -78252.600000 0 0 1
-5.854284 -6.089572 26.991783 28.282713 0.805095 0.303300 0.005685 0.000611 411073.000000 0 0 1
-6.091784 -7.548372 27.184153 28.862882 0.891782 0.342739 0.013363 0.002549 -1774.510000 0 0 1
-5.475784 -8.199472 28.261483 29.932039 0.981995 0.335674 0.009789 0.003158 -244866.000000 0 0 1
-5.763884 -9.583172 28.184113 30.321672 1.029305 0.377731 0.012277 -0.001577 193150.000000 0 0 1
-5.163284 -10.365972 29.386233 31.585813 1.108670 0.375398 0.014383 -0.004041 -89156.100000 0 0 1
-5.243684 -11.799172 29.198883 31.926344 1.152600 0.416352 0.022212 -0.010052 50389.700000 0 0 1
-4.696384 -12.522972 30.281523 33.103648 1.212007 0.415911 0.020860 -0.004219 -162323.000000 0 0 1
-4.764784 -14.019972 30.214083 33.647490 1.243186 0.455686 0.020850 -0.017554 604935.000000 0 0 1
-6.123984 -14.481872 30.224423 34.069687 1.170729 0.479696 0.034039 -0.020217 504319.000000 0 0 1
-6.165684 -15.888772 30.133993 34.619738 1.200631 0.514725 0.033977 -0.021872 192906.000000 0 0 1
-6.123384 -16.585772 31.468043 36.094617 1.217125 0.511889 0.046696 -0.016662 -31191.900000 0 0 1
-7.362684 -16.435672 32.129553 36.832711 1.149632 0.510889 0.048737 -0.014341 -240869.000000 0 0 1
-7.365184 -16.683072 33.484715 38.128690 1.155053 0.498705 0.048585 -0.009087 -258579.000000 0 0 1
-8.754284 -16.939172 34.124475 39.090316 1.093794 0.509548 0.058948 -0.007074 581340.000000 0 0 1
-9.453484 -18.143272 33.757860 39.473280 1.090454 0.544845 0.051171 -0.008368 705289.000000 0 0 1
-10.031884 -18.179872 32.416923 38.496797 1.066562 0.569690 0.043296 -0.016787 -225624.000000 0 0 1
-10.667884 -19.518672 31.983593 38.958087 1.070608 0.607681 0.039539 -0.020075 622040.000000 0 0 1
-11.737984 -20.103272 32.760963 40.189582 1.042311 0.617790 0.045925 -0.017321 758404.000000 0 0 1
-12.026584 -21.472072 32.565273 40.818937 1.060229 0.647162 0.033115 -0.017728 -361644.000000 0 0 1
-11.341884 -22.487172 33.464434 41.882927 1.103658 0.645167 0.034953 -0.023102 -523728.000000 0 0 1
-9.939884 -22.569372 33.265010 41.409404 1.155942 0.637947 0.028328 -0.017365 -52927.900000 0 0 1
-9.291384 -23.126972 34.397519 42.477947 1.188778 0.627030 0.028826 -0.024804 101891.000000 0 0 1
-9.667384 -24.546172 -34.083901 43.100872 1.195607 2.482901 0.028377 -0.008849 -666180.000000 0 0 1
-9.406484 -25.478592 33.828490 43.382109 1.217128 0.676482 0.030838 -0.012120 -85295.900000 0 0 1
-9.840584 -26.788032 34.051832 44.429304 1.218749 0.697536 0.031418 -0.019143 -1055760.000000 0 0 1
-9.284584 -27.745792 33.005767 44.106838 1.247879 0.725279 0.016326 -0.013862 -59039.200000 0 0 1
-7.900584 -27.961412 32.842283 43.850603 1.295422 0.724307 0.016568 -0.006099 -374562.000000 0 0 1
-7.279484 -28.571432 33.924269 44.946342 1.321322 0.715489 0.003164 -0.010523 62785.200000 0 0 1
-5.710384 -28.520502 33.758028 44.560431 1.373189 0.711201 -0.001863 -0.007356 1067970.000000 0 0 1
-5.147184 -27.268122 34.048175 43.924051 1.384230 0.683828 0.002566 -0.001043 -102723.000000 0 0 1
-5.013384 -26.447472 32.887910 42.499617 1.383459 0.685914 0.031191 0.001219 -185113.000000 0 0 1
-4.855884 -24.959572 33.140231 41.771219 1.378647 0.654463 0.029719 -0.014287 620433.000000 0 0 1
-3.754284 -24.656272 34.014383 42.178249 1.419692 0.632683 0.025447 -0.015096 413181.000000 0 0 1
-3.557584 -23.285672 34.020727 41.379812 1.419189 0.605605 0.022568 -0.013552 -211078.000000 0 0 1
33.970842 -15.364772 2.743609 37.384779 -0.424759 1.497342 0.061197 -0.029878 -308634.000000 0 0 1
34.701642 -15.841072 3.830109 38.338144 -0.428241 1.470726 0.035962 -0.031842 -75760.400000 0 0 1
34.077072 -16.852372 4.595309 38.293161 -0.459268 1.450503 0.047171 -0.029296 -382655.000000 0 0 1
34.742219 -17.102572 5.923609 39.174085 -0.457445 1.419002 0.036972 -0.016618 150032.000000 0 0 1
-34.896405 -17.925572 5.758109 39.651495 0.474531 1.425063 0.039717 -0.014754 58270.700000 0 0 1
-34.012334 -17.884472 6.851809 39.033838 0.484092 1.394347 0.036043 -0.002655 -187871.000000 0 0 1
-32.743584 -18.705572 6.789109 38.316220 0.519030 1.392670 0.022700 -0.009995 -410517.000000 0 0 1
-33.103394 -20.079672 6.730809 39.297986 0.545240 1.398671 0.040170 -0.013194 364890.000000 0 0 1
-32.039444 -20.818172 7.299809 38.899993 0.576211 1.382021 0.018436 -0.004381 265888.000000 0 0 1
-32.424154 -22.321272 7.393209 40.052772 0.602908 1.385145 0.008544 -0.012320 -530375.000000 0 0 1
-32.317434 -23.032272 6.178109 40.163057 0.619191 1.416357 0.024803 -0.011553 88779.700000 0 0 1
-32.396664 -24.426272 6.422009 41.078325 0.646040 1.413817 0.032254 -0.010091 69285.900000 0 0 1
-31.727774 -25.211332 5.230509 40.860998 0.671448 1.442437 0.031385 -0.011468 260085.000000 0 0 1
-32.455704 -25.045772 4.001209 41.190692 0.657239 1.473504 0.030459 -0.015533 360643.000000 0 0 1
-31.795624 -25.656752 2.905309 40.959388 0.678951 1.499805 0.030324 -0.011398 -177938.000000 0 0 1
-32.391144 -25.247532 1.539609 41.097378 0.662089 1.533325 0.034303 -0.008593 -1016620.000000 0 0 1
-33.390664 -26.211242 1.204209 42.466643 0.665519 1.542436 0.031633 -0.004002 445381.000000 0 0 1
-34.196174 -25.746762 0.132809 42.805277 0.645363 1.567694 0.028901 -0.004829 440528.000000 0 0 1
-35.175458 -24.555272 0.458809 42.900871 0.609436 1.560101 0.036975 -0.008809 -979196.000000 0 0 1
34.316052 -24.679672 -0.082491 42.269190 -0.623488 1.572748 0.025261 -0.000761 -209893.000000 0 0 1
33.414152 -23.858772 0.633409 41.062730 -0.620081 1.555370 0.050169 -0.011454 -349935.000000 0 0 1
31.948062 -24.045372 0.274309 39.986671 -0.645188 1.563936 0.021591 -0.004423 -419104.000000 0 0 1
31.711312 -23.845272 -1.125791 39.692212 -0.644747 1.599163 0.025621 -0.016180 155452.000000 0 0 1
30.335582 -23.912072 -1.460691 38.654474 -0.667536 1.608594 0.021425 -0.007955 358246.000000 0 0 1
29.993782 -23.434872 -2.885991 38.172623 -0.663249 1.646472 0.014583 0.003135 -265427.000000 0 0 1
30.339462 -22.109472 -3.165591 37.674032 -0.629753 1.654921 0.026122 -0.018066 80212.100000 0 0 1
30.067862 -21.819672 -4.492991 37.421403 -0.627754 1.691151 0.024568 -0.032006 -71615.500000 0 0 1
29.932972 -20.317672 -4.811491 36.495768 -0.596337 1.703018 0.030683 -0.029456 151976.000000 0 0 1
28.755922 -19.858972 -4.187791 35.196867 -0.604392 1.690061 0.030846 -0.029674 -404279.000000 0 0 1
28.645352 -18.414772 -4.200191 34.311829 -0.571335 1.693516 0.026846 -0.024576 -289987.000000 0 0 1
27.828972 -17.892772 -3.038391 33.224010 -0.571407 1.662376 0.037412 -0.022042 -291470.000000 0 0 1
28.488272 -17.880272 -1.770591 33.681164 -0.560493 1.623390 0.042886 -0.018328 -103761.000000 0 0 1
29.022522 -19.028872 -1.193491 34.725051 -0.580343 1.605173 0.036570 -0.019073 -759833.000000 0 0 1
28.097932 -20.161272 -0.877791 34.593948 -0.622398 1.596173 0.021850 -0.007795 -630076.000000 0 0 1
27.234702 -19.939672 0.219509 33.754521 -0.631974 1.564293 0.028370 -0.001380 41865.100000 0 0 1
26.447912 -21.092372 0.468909 33.831939 -0.673218 1.556936 0.015693 -0.000588 5406.960000 0 0 1
25.394992 -20.779972 1.579809 32.851312 -0.685783 1.522688 0.019682 0.005931 -1107680.000000 0 0 1
24.609892 -21.845572 1.996409 32.967582 -0.725964 1.510203 0.017803 0.021355 -298921.000000 0 0 1
23.554492 -21.461272 2.838709 31.991539 -0.738932 1.481946 0.011915 0.014128 450727.000000 0 0 1
22.312892 -20.756272 2.193109 30.553195 -0.749272 1.498955 0.006834 0.013316 -596496.000000 0 0 1
22.467692 -19.381272 1.865509 29.730641 -0.711780 1.508008 0.022618 -0.000206 91751.500000 0 0 1
22.583392 -18.517072 3.016309 29.359661 -0.686783 1.467878 0.025422 0.003110 -152036.000000 0 0 1
22.452592 -17.027372 2.770609 28.314777 -0.648836 1.472789 0.024351 0.005717 -289418.000000 0 0 1
21.144392 -16.736172 2.403909 27.073300 -0.669548 1.481887 0.023283 0.007299 -643194.000000 0 0 1
21.193692 -15.439572 1.889309 26.289208 -0.629598 1.498868 0.024440 -0.008335 236534.000000 0 0 1
19.953892 -15.179572 0.994309 25.091151 -0.650335 1.531158 0.009053 -0.001986 514147.000000 0 0 1
18.741092 -15.181872 1.758909 24.182877 -0.680860 1.497998 0.014020 -0.006484 587128.000000 0 1 0
17.886092 -14.044672 1.641909 22.800460 -0.665669 1.498722 0.019116 -0.007281 -264909.000000 0 1 0
18.331392 -12.676672 2.209109 22.396833 -0.605017 1.472001 0.027966 -0.010519 273693.000000 0 1 0
19.545692 -12.215572 1.563909 23.101950 -0.558581 1.503049 0.027862 -0.005745 1179420.000000 0 1 0
19.825392 -10.879472 1.960809 22.699204 -0.501894 1.484306 0.024450 -0.007457 -485107.000000 0 1 0
20.798592 -10.119372 1.115509 23.156586 -0.452823 1.522605 0.032098 -0.010433 -572295.000000 0 1 0
20.203592 -9.744872 -0.101791 22.431184 -0.449415 1.575334 0.033066 -0.007324 178144.000000 0 1 0
21.136392 -9.193472 -0.936491 23.068247 -0.410276 1.611404 0.043914 -0.000011 -835310.000000 0 1 0
20.476592 -8.743972 -2.288391 22.382685 -0.403583 1.673215 0.059283 -0.002798 408626.000000 0 1 0
21.338792 -8.359672 -3.391591 23.167457 -0.373382 1.717719 0.052103 -0.003722 666913.000000 0 1 0
22.004892 -9.435572 -4.053491 24.283247 -0.405080 1.738507 0.029632 0.005561 -409401.000000 0 1 0
21.127192 -10.284872 -5.011491 24.026067 -0.453038 1.780925 -0.002202 0.002164 -270406.000000 0 1 0
20.690092 -9.498472 -6.116891 23.573656 -0.430382 1.833280 0.002039 -0.013699 -987182.000000 0 1 0
19.393592 -9.063772 -6.131191 22.267799 -0.437196 1.849739 -0.002955 -0.008459 -1679770.000000 0 1 0
18.924392 -9.146272 -7.564391 22.338463 -0.450203 1.916253 0.008161 -0.004773 -405331.000000 0 1 0
18.824592 -10.418472 -8.217391 23.031182 -0.505488 1.935630 0.004122 -0.008586 406418.000000 0 1 0
19.959192 -10.648572 -9.009191 24.350092 -0.490100 1.949790 0.006825 -0.010684 -458762.000000 0 1 0
19.891892 -12.022672 -9.693191 25.183129 -0.543649 1.965905 -0.000404 -0.007321 -484914.000000 0 0 1
18.785192 -12.209572 -10.522591 24.752414 -0.576345 2.009884 0.011745 -0.009830 -80057.500000 0 1 0
18.746592 -13.559272 -11.012991 25.623711 -0.626188 2.015064 0.012707 -0.002307 -373696.000000 0 0 1
17.443392 -13.876172 -11.753391 25.198458 -0.671989 2.056050 0.005466 -0.005066 -269219.000000 0 0 1
17.351592 -15.261672 -12.052891 26.062781 -0.721404 2.051560 0.011652 -0.010641 394287.000000 0 0 1
16.357892 -15.473372 -13.056791 26.028555 -0.757618 2.096282 0.016776 -0.011303 -111941.000000 0 0 1
16.318492 -16.945572 -13.564391 27.155815 -0.804248 2.093820 0.016975 -0.009706 -700584.000000 0 0 1
15.621392 -17.830072 -12.761991 26.922254 -0.851329 2.064660 0.016028 -0.009425 7685.410000 0 0 1
15.628092 -19.192472 -13.162091 28.032640 -0.887407 2.059552 0.020438 -0.007884 -800661.000000 0 0 1
14.724392 -20.063372 -12.281791 27.752280 -0.937683 2.029237 0.019686 -0.004729 156974.000000 0 0 1
13.374092 -19.758772 -12.644491 27.002936 -0.975764 2.058121 0.019014 -0.002254 -198728.000000 0 0 1
12.516092 -20.677172 -12.016191 26.992348 -1.026482 2.032161 0.015993 0.002532 -780909.000000 0 0 1
11.079492 -20.242972 -12.265591 26.133844 -1.070009 2.059337 0.005217 0.001195 920.922000 0 0 1
10.161592 -21.047572 -11.471991 26.035837 -1.121010 2.027089 0.002216 0.008855 -430988.000000 0 0 1
8.824792 -20.758772 -11.687591 25.404790 -1.168831 2.048853 -0.011173 0.007185 -517599.000000 0 0 1
7.920392 -21.367772 -10.601691 25.133845 -1.215827 2.006236 -0.012629 0.007911 -289555.000000 0 0 1
7.967892 -22.810872 -10.607991 26.388495 -1.234743 1.984489 -0.008210 0.011461 -194417.000000 0 0 1
6.972892 -23.399372 -9.824591 26.318709 -1.281180 1.953352 -0.006283 0.003865 -108592.000000 0 0 1
7.072092 -24.963172 -9.890391 27.766784 -1.294729 1.934989 0.001116 0.004343 431231.000000 0 0 1
8.277492 -25.481372 -9.342791 28.374371 -1.256705 1.906325 -0.002539 0.009331 -92706.200000 0 0 1
8.395092 -26.938812 -9.514991 29.777714 -1.268699 1.896034 0.002365 0.009013 338470.000000 0 0 1
9.901692 -27.309022 -9.490991 30.559861 -1.222959 1.886589 0.005570 0.015127 487546.000000 0 0 1
10.406092 -27.271502 -8.141591 30.303582 -1.206275 1.842806 0.016624 0.005662 376060.000000 0 0 1
11.715992 -27.852022 -8.070791 31.275186 -1.172615 1.831807 0.026131 0.013952 206784.000000 0 0 1
12.039592 -28.116692 -6.577791 31.285260 -1.166218 1.782629 0.030171 0.007928 11433.200000 0 0 1
11.408192 -29.177012 -5.912291 31.881030 -1.198073 1.757325 0.033828 0.006993 959299.000000 0 0 1
9.963892 -29.207392 -5.871591 31.413795 -1.242034 1.758813 0.032240 0.008141 715214.000000 0 0 1
9.439692 -30.248742 -4.850691 32.056566 -1.268304 1.722696 0.032066 0.003076 -163122.000000 0 0 1
9.733192 -31.572452 -5.232091 33.450404 -1.271760 1.727855 0.052872 0.000223 407511.000000 0 0 1
8.915592 -32.132882 -6.321591 33.940719 -1.300144 1.758144 0.051534 -0.001420 649297.000000 0 0 1
9.318092 -33.585682 -6.652091 35.483450 -1.300161 1.759382 0.049464 -0.003081 89551.400000 0 0 1
8.769292 -34.550725 -5.712991 36.101127 -1.322236 1.729714 0.042410 -0.001964 509261.000000 0 0 1
9.396992 33.298054 -5.930591 35.103216 1.295741 1.740558 0.038705 -0.004463 42002.600000 0 0 1
9.124792 32.365052 -4.742991 33.959599 1.295996 1.710920 0.044531 -0.005059 -47488.000000 0 0 1
7.794592 31.928902 -4.706991 33.201901 1.331356 1.713044 0.046192 -0.012987 -647800.000000 0 0 1
7.650892 30.924542 -3.710391 32.072269 1.328261 1.686744 0.032511 -0.014802 -397821.000000 0 0 1
6.213392 30.400902 -3.640291 31.242164 1.369191 1.687580 0.031247 -0.015538 -92986.000000 0 0 1
5.871092 29.618202 -4.761091 30.567558 1.375107 1.727189 0.028847 -0.019216 72914.800000 0 0 1
5.279392 30.380302 -5.806291 31.377504 1.398738 1.756915 0.036868 -0.019077 -413631.000000 0 0 1
5.335392 29.596172 -7.179391 30.918335 1.392439 1.805140 0.035166 -0.021451 355670.000000 0 0 1
4.453392 28.471662 -7.326291 29.734539 1.415639 1.819750 0.030703 -0.024124 286624.000000 0 0 1
4.974992 27.302042 -6.712891 28.551969 1.390553 1.808129 0.024265 -0.023809 -193873.000000 0 0 1
4.246792 26.010132 -7.252791 27.334323 1.408950 1.839349 0.022962 -0.027481 -1647560.000000 0 0 1
2.953592 25.798682 -6.923391 26.874319 1.456806 1.831356 0.030779 -0.033765 -1395010.000000 0 0 1
1.981392 26.571762 -7.680791 27.730471 1.496366 1.851446 0.046344 -0.034634 426724.000000 0 0 1
1.544292 25.834712 -8.998891 27.400679 1.511092 1.905425 0.046360 -0.023806 148506.000000 0 0 1
2.570892 25.826942 -10.016891 27.820470 1.471580 1.939123 0.023494 -0.015578 525176.000000 0 0 1
2.300692 24.939612 -11.110991 27.399481 1.478806 1.988342 0.017693 -0.013421 -501696.000000 0 0 1
2.123892 23.426852 -11.002591 25.968930 1.480383 2.008304 0.028448 -0.010952 -812353.000000 0 0 1
0.930692 23.070652 -10.429091 25.335491 1.530477 1.995049 0.035914 -0.011858 -944438.000000 0 0 1
1.049392 21.680652 -10.135291 23.955710 1.522432 2.007643 0.009677 -0.011375 -722766.000000 0 1 0
-0.067108 21.076952 -9.274691 23.027425 -1.567612 1.985334 0.024399 -0.008439 -42774.100000 0 1 0
-1.234808 20.991952 -10.083091 23.320710 -1.512041 2.017912 0.040916 -0.012778 17732.300000 0 1 0
-2.368908 20.613452 -9.310391 22.742241 -1.456378 1.992579 0.029698 -0.001992 1106780.000000 0 1 0
-3.605408 20.085652 -10.116491 22.776650 -1.393186 2.031034 0.015025 -0.015140 417547.000000 0 1 0
-4.701208 19.652652 -9.373791 22.275458 -1.335994 2.005137 0.019202 -0.013150 -364108.000000 0 1 0
-5.578508 18.936752 -10.195091 22.218466 -1.284314 2.047504 0.020032 -0.023676 -848916.000000 0 1 0
-6.498208 17.921252 -9.506591 21.301954 -1.222943 2.033398 0.028128 -0.018659 -234019.000000 0 1 0
-7.498908 18.499152 -8.711591 21.779441 -1.185674 1.982304 0.041292 -0.006558 -95930.800000 0 1 0
-8.707108 18.760152 -9.431191 22.731133 -1.136256 1.998631 0.051435 -0.011646 -89074.500000 0 1 0
-9.777408 19.123252 -8.385691 23.056806 -1.098163 1.943030 0.051891 -0.013780 -117176.000000 0 1 0
-10.117308 18.052552 -7.560191 22.032046 -1.059976 1.921060 0.059292 -0.013546 -710964.000000 0 1 0
-11.209608 18.243652 -6.724791 22.443462 -1.019828 1.875104 0.057738 -0.012399 -313584.000000 0 1 0
-11.612408 17.046652 -5.817891 21.430917 -0.972790 1.845718 0.044002 -0.021881 -469619.000000 0 1 0
-12.664208 17.304252 -4.956191 22.008706 -0.939009 1.797937 0.061185 -0.015972 -293026.000000 0 1 0
-13.111708 16.216152 -4.174891 21.267585 -0.890859 1.768382 0.062339 -0.022110 -146492.000000 0 1 0
-14.224408 16.565552 -3.181591 22.065217 -0.861288 1.715491 0.043150 -0.024015 -132912.000000 0 1 0
-15.505508 16.646552 -3.770491 23.059598 -0.820872 1.735045 0.066564 -0.029976 -29990.900000 0 1 0
-16.433008 17.120252 -2.828491 23.898685 -0.805877 1.689428 0.052165 -0.024381 -675638.000000 0 1 0
-17.778408 17.554752 -3.368191 25.210827 -0.779068 1.704798 0.049900 -0.025514 -554528.000000 0 0 1
-17.675308 18.640452 -4.277891 26.041953 -0.811968 1.735813 0.049820 -0.024026 -172053.000000 0 0 1
-18.955608 19.047552 -4.698091 27.279963 -0.787818 1.743877 0.033818 -0.025526 7239.730000 0 0 1
-18.959408 19.881052 -5.986991 28.116889 -0.809123 1.785371 0.023277 -0.004197 -169585.000000 0 0 1
-18.679208 21.258852 -5.805891 28.888752 -0.849900 1.773149 0.029662 -0.013237 48383.000000 0 0 1
-18.476608 21.952952 -7.037691 29.543971 -0.871172 1.811319 0.015584 0.016010 -31050.500000 0 0 1
-18.211208 23.486752 -6.889291 30.507998 -0.911248 1.798580 0.022527 0.007003 -878752.000000 0 0 1
-16.952208 23.803752 -6.443591 29.925171 -0.951952 1.787819 0.020657 0.003039 -900371.000000 0 0 1
-16.963308 24.238722 -5.065891 30.015541 -0.960176 1.740384 0.027941 -0.003075 -411876.000000 0 0 1
-15.746608 25.115052 -4.774791 30.025325 -1.010775 1.730500 0.016876 -0.003909 -701555.000000 0 0 1
-15.681608 25.681542 -3.505591 30.294283 -1.022606 1.686774 0.012677 -0.007319 144361.000000 0 0 1
-14.542708 26.472362 -3.200591 30.373016 -1.068449 1.676368 0.020299 -0.001574 -5804.500000 0 0 1
-14.085408 27.596992 -4.176291 31.263942 -1.098866 1.704779 0.014882 -0.002751 -478403.000000 0 0 1
-14.868708 28.758982 -4.179091 32.643871 -1.093633 1.699169 0.018742 -0.006599 -211090.000000 0 0 1
-14.181508 29.744232 -4.862691 33.308862 -1.125895 1.717308 0.007025 0.003219 -699582.000000 0 0 1
-14.803108 31.146842 -4.604891 34.791706 -1.127129 1.703542 0.014506 -0.004033 -93091.900000 0 0 1
-16.033508 31.478642 -5.181991 35.704780 -1.099700 1.716445 0.031963 -0.004377 -478570.000000 0 0 1
-16.753108 32.365942 -4.371491 36.706004 -1.093156 1.690174 0.038984 -0.009656 4812.950000 0 0 1
13.039616 -8.712072 18.713783 24.415926 -0.589010 0.697488 0.039344 -0.006466 127528.000000 0 1 0
13.566016 -9.947772 19.224683 25.545712 -0.632718 0.718855 0.041274 -0.004874 87714.500000 0 0 1
13.992516 -10.794972 18.188483 25.360261 -0.657108 0.771014 0.044359 -0.009095 -92598.400000 0 0 1
14.419416 -12.185672 18.757583 26.613100 -0.701635 0.788620 0.052330 -0.018650 -1186020.000000 0 0 1
15.632316 -12.192272 19.424083 27.754564 -0.662389 0.795606 0.040010 -0.013511 -611683.000000 0 0 1
15.727816 -13.349372 20.209383 28.878869 -0.703782 0.795681 0.037334 -0.011176 24365.400000 0 0 1
16.138616 -14.667772 19.474683 29.238019 -0.737690 0.841864 0.030930 -0.012383 -578000.000000 0 0 1
15.276016 -15.002072 18.406183 28.234844 -0.776351 0.860714 0.045287 -0.022452 135599.000000 0 0 1
15.710116 -16.096472 17.624183 28.574744 -0.797545 0.906158 0.045491 -0.021802 -290495.000000 0 0 1
15.143816 -16.149572 16.144483 27.400514 -0.817527 0.940723 0.042106 -0.020519 -561500.000000 0 0 1
13.798516 -16.459972 15.997983 26.781807 -0.873130 0.930610 0.066373 -0.025574 -524034.000000 0 0 1
13.377716 -16.352072 14.661183 25.715829 -0.885113 0.964141 0.080309 -0.034864 -138156.000000 0 0 1
12.522016 -17.445172 14.073283 25.674739 -0.948229 0.990661 0.041463 -0.016483 -247018.000000 0 0 1
13.333316 -18.579372 13.842583 26.731769 -0.948329 1.026481 0.031062 -0.010301 102686.000000 0 0 1
12.621516 -19.739972 13.548083 27.065102 -1.001917 1.046535 0.031829 -0.012660 -607542.000000 0 0 1
13.511616 -20.844272 12.976783 28.025780 -0.995675 1.089385 0.030201 -0.009093 -348386.000000 0 0 1
14.428916 -21.474772 13.823283 29.333302 -0.979179 1.080090 0.024645 -0.008149 -155924.000000 0 0 1
14.790716 -22.743972 13.339183 30.232224 -0.994201 1.113834 0.004275 -0.014088 -324989.000000 0 0 1
15.708516 -23.576572 14.258883 31.716368 -0.983064 1.104507 0.000611 -0.015985 -751666.000000 0 0 1
16.995816 -23.111972 14.423683 32.110180 -0.936725 1.104934 -0.012957 -0.012088 -990080.000000 0 0 1
17.543316 -23.672072 15.619683 33.348305 -0.933017 1.083340 0.007563 -0.024704 388915.000000 0 0 1
19.022516 -23.231072 15.840083 33.947711 -0.884673 1.085351 -0.000558 -0.012391 235509.000000 0 0 1
19.920416 -23.939272 15.014583 34.573826 -0.876773 1.121562 -0.001246 -0.022952 -554856.000000 0 0 1
21.169316 -23.305372 15.239483 34.978882 -0.833390 1.120006 0.003142 -0.014168 712539.000000 0 0 1
22.419616 -24.087572 14.687183 36.035589 -0.821247 1.151000 -0.004709 -0.019618 565428.000000 0 0 1
22.754116 -25.174072 15.465883 37.291785 -0.835847 1.143154 -0.002684 -0.016982 -1359800.000000 0 0 1
23.951316 -25.670692 15.074783 38.208625 -0.820034 1.165231 0.004954 -0.021611 -1454590.000000 0 0 1
24.582716 -26.719062 15.989283 39.672098 -0.827017 1.155965 0.006360 -0.024189 -401285.000000 0 0 1
24.974516 -26.305232 17.283983 40.179942 -0.811342 1.126121 0.009486 -0.014485 204040.000000 0 0 1
25.490316 -27.369042 18.108083 41.553861 -0.820925 1.119899 0.022388 -0.007208 11479.400000 0 0 1
25.717916 -26.890702 19.545783 42.030450 -0.807687 1.087118 0.011496 0.002862 -164314.000000 0 0 1
24.534816 -26.705062 20.269883 41.544984 -0.827728 1.061112 0.025162 0.006650 -217306.000000 0 0 1
24.860316 -26.177832 21.532083 42.035043 -0.811207 1.033004 0.025688 0.007160 401534.000000 0 0 1
23.633916 -25.897242 22.477583 41.646979 -0.831061 1.000695 0.025448 0.000950 394877.000000 0 0 1
23.054016 -27.128072 22.837783 42.296386 -0.866406 1.000423 0.033646 0.009238 -804911.000000 0 0 1
21.815716 -26.934232 23.424483 41.834014 -0.890010 0.976485 0.032203 0.005985 -624838.000000 0 0 1
21.090116 -28.289802 23.636183 42.470873 -0.930180 0.980597 0.044799 0.010661 -351349.000000 0 0 1
21.837516 -29.129872 24.464053 43.862472 -0.927513 0.979130 0.033454 0.018693 260418.000000 0 0 1
21.928216 -30.455322 23.958563 44.523994 -0.946765 1.002610 0.043633 0.010372 356784.000000 0 0 1
23.100316 -31.288982 24.603913 46.021490 -0.934832 1.006741 0.024619 0.010140 422375.000000 0 0 1
22.745916 -31.548092 25.953153 46.757085 -0.946120 0.982357 0.021268 0.012983 750164.000000 0 0 1
23.769016 -32.142022 26.755453 48.103326 -0.934049 0.980981 0.022678 0.015112 282232.000000 0 0 1
23.126116 -32.492542 28.166693 48.825661 -0.952237 0.955889 0.010403 0.012947 533326.000000 0 0 1
22.587816 -33.789412 28.440923 49.606652 -0.981534 0.960233 0.008926 0.011962 199284.000000 0 0 1
21.457016 -34.194785 27.708613 48.963804 -1.010406 0.969272 0.009015 0.017367 -490684.000000 0 0 1
20.949816 33.593075 28.331763 48.683450 1.013179 0.949661 0.025382 -0.004121 -255302.000000 0 0 1
20.181016 33.728235 29.498563 49.142980 1.031597 0.926970 0.003454 -0.008676 125098.000000 0 0 1
20.057516 32.468062 30.116193 48.615472 1.017419 0.902719 0.014911 -0.010445 155449.000000 0 0 1
19.675316 32.423332 31.629563 49.384408 1.025373 0.875677 0.002952 -0.010942 82954.000000 0 0 1
20.830016 32.633772 32.398373 50.482742 1.002693 0.873991 0.000227 -0.006695 198380.000000 0 0 1
20.449716 32.979092 33.719837 51.408548 1.015742 0.855397 -0.010835 -0.013614 334034.000000 0 0 1
21.709016 32.959932 -34.296746 52.286760 0.988365 2.286218 -0.011875 -0.010452 514310.000000 0 0 1
22.040416 31.600172 -34.068586 51.429752 0.961765 2.294854 -0.000384 -0.002911 -470509.000000 0 0 1
23.280216 31.414112 -33.458441 51.461463 0.933032 2.278598 -0.009372 0.005397 -529875.000000 0 0 1
23.694016 29.970182 -33.293611 50.676254 0.901822 2.287611 0.006863 -0.001641 -256014.000000 0 0 1
24.148316 29.324962 34.456473 51.286871 0.881906 0.834109 0.013872 -0.007785 162531.000000 0 0 1
23.480316 28.109232 34.253098 50.147073 0.874884 0.818862 0.030062 -0.018320 -318382.000000 0 0 1
23.803816 27.473392 32.937974 49.054246 0.856840 0.834619 0.054031 -0.021101 -793700.000000 0 0 1
25.031716 26.836752 32.949713 49.320195 0.820184 0.839174 0.052905 -0.021689 -395159.000000 0 0 1
25.153316 26.054492 31.793463 48.190768 0.802995 0.850321 0.076654 -0.036726 -302089.000000 0 0 1
26.454516 25.222652 31.758503 48.421339 0.761565 0.855451 0.067174 -0.025038 -123464.000000 0 0 1
26.604616 24.264222 32.819883 48.720661 0.739422 0.831682 0.082488 -0.032536 418056.000000 0 0 1
27.303716 24.792362 33.957056 50.132183 0.737229 0.826641 0.073465 -0.030967 -941453.000000 0 0 1
27.030016 23.940952 -33.720541 49.405119 0.724868 2.322017 0.054127 -0.030186 1426370.000000 0 0 1
25.775516 24.302382 -33.036061 48.439285 0.755990 2.321303 0.047648 -0.030425 1405270.000000 0 0 1
24.531516 24.105152 -33.620541 48.095680 0.776632 2.344843 0.050071 -0.024685 -755519.000000 0 0 1
24.105116 22.626552 -33.739851 47.237644 0.753769 2.366359 0.046450 -0.024745 -656141.000000 0 0 1
23.960216 21.955652 -32.509411 45.967428 0.741769 2.356365 0.026172 -0.025778 360726.000000 0 0 1
23.539616 20.629852 -32.733751 45.290206 0.719616 2.378578 0.018916 -0.014689 -199609.000000 0 0 1
23.441616 19.754752 -31.420021 43.897350 0.700253 2.368510 0.008944 -0.017908 415768.000000 0 0 1
22.319816 20.126052 -30.595521 42.887272 0.733760 2.365126 -0.004454 -0.008320 688582.000000 0 0 1
22.465316 19.440852 -29.392221 41.791624 0.713351 2.350831 -0.009708 -0.005231 -207329.000000 0 0 1
21.247616 19.484552 -28.465801 40.514328 0.742141 2.349856 0.001280 -0.006977 -502412.000000 0 0 1
21.433516 18.746652 -27.303331 39.450025 0.718627 2.335190 0.003317 0.002171 -99696.500000 0 0 1
22.003716 19.465452 -26.276671 39.414855 0.724266 2.300527 -0.007636 0.015048 -327649.000000 0 0 1
22.167516 18.701052 -24.915791 38.235125 0.700781 2.280550 -0.003131 0.015808 555643.000000 0 0 1
22.991916 17.477552 -24.945091 38.162162 0.649972 2.283207 -0.000969 0.000281 794999.000000 0 0 1
22.978616 16.723452 -23.733291 37.026474 0.629130 2.266573 0.001853 0.004636 85131.900000 0 0 1
23.997416 15.521452 -23.808891 37.197510 0.574120 2.265382 0.017260 -0.004269 1415810.000000 0 0 1
25.366616 15.946652 -23.624291 38.155839 0.561218 2.238460 0.035554 -0.012585 1565040.000000 0 0 1
26.408516 14.979752 -23.395291 38.329392 0.515977 2.227330 0.035283 -0.022727 474053.000000 0 0 1
26.380316 14.102852 -22.115891 37.201131 0.490941 2.207434 0.041898 -0.019916 -929708.000000 0 0 1
25.328316 13.197852 -22.086391 36.104232 0.480362 2.229054 0.034349 -0.014001 -335820.000000 0 0 1
24.974516 12.732052 -20.771891 34.889870 0.471458 2.208505 0.021723 -0.020595 -769092.000000 0 0 1
23.566616 12.155452 -20.726091 33.655776 0.476201 2.234230 0.021927 -0.014245 -1078290.000000 0 0 1
22.657916 13.184052 -20.624791 33.355395 0.526985 2.237418 0.030790 -0.013875 -477025.000000 0 0 1
21.419116 12.794552 -21.216791 32.751051 0.538463 2.275516 0.026905 -0.015621 518285.000000 0 0 1
20.261316 13.789752 -21.005791 32.278808 0.597583 2.279383 0.031890 -0.011286 -545514.000000 0 0 1
20.610216 15.001052 -21.623091 33.427094 0.629171 2.274273 0.018563 -0.003055 287843.000000 0 0 1
19.644316 16.044252 -21.599591 33.314554 0.684864 2.276215 0.016622 0.002300 505102.000000 0 0 1
18.377316 15.855952 -22.528391 33.115938 0.711878 2.318952 0.027019 0.016336 193587.000000 0 0 1
17.409316 15.031252 -21.963491 31.802795 0.712224 2.333136 0.038923 0.000554 80609.200000 0 0 1
16.302816 14.910952 -22.865691 31.795568 0.740836 2.373370 0.046226 -0.012546 938048.000000 0 0 1
15.115616 14.019852 -22.360091 30.414006 0.747807 2.396744 0.037342 -0.018524 617086.000000 0 0 1
13.887516 14.344852 -22.949491 30.419024 0.801596 2.425605 0.037423 -0.016860 -794867.000000 0 0 1
12.777516 13.683352 -22.428791 29.215573 0.819618 2.446040 0.041569 -0.022005 -386443.000000 0 0 1
11.575416 13.891952 -23.361491 29.542103 0.876109 2.482889 0.034950 -0.021651 -468933.000000 0 0 1
11.078516 15.203952 -23.315291 29.958245 0.941093 2.462686 0.021653 -0.019407 -37943.500000 0 0 1
10.494216 15.560952 -24.549491 30.902254 0.977463 2.488855 0.035280 -0.014777 -558168.000000 0 0 1
10.552916 17.107452 -24.834591 31.949740 1.018071 2.461162 0.029303 -0.010888 993093.000000 0 0 1
11.882716 17.671152 -24.683891 32.600046 0.978810 2.429771 0.024085 -0.000650 1444110.000000 0 0 1
12.906816 17.385652 -25.646191 33.564474 0.932188 2.440422 0.036440 -0.008163 -15281.700000 0 0 1
12.669816 17.769952 -27.081781 34.781005 0.951405 2.463287 0.041404 -0.011756 -601426.000000 0 0 1
13.769416 17.553952 -27.929791 35.746486 0.905637 2.467590 0.026443 -0.009965 78046.700000 0 0 1
13.261716 17.409152 -29.244461 36.526568 0.919807 2.499151 0.033996 -0.019278 -14690.000000 0 0 1
14.270216 17.924252 -30.303411 37.989664 0.898413 2.494227 0.024051 -0.014065 -111228.000000 0 0 1
15.343516 17.023952 -30.349811 38.030901 0.837269 2.494816 -0.000348 -0.007741 -720489.000000 0 0 1
16.371416 17.388752 -31.187511 39.281711 0.815523 2.488066 -0.006554 -0.002430 -540724.000000 0 0 1
17.499716 16.411952 -31.509571 39.603602 0.753333 2.490833 0.005642 -0.000558 -227834.000000 0 0 1
18.527616 16.382152 -30.540121 39.298174 0.724018 2.460902 0.008707 -0.003671 1155820.000000 0 0 1
19.771116 15.728552 -30.872961 39.892657 0.672011 2.455774 0.007150 -0.003054 1498750.000000 0 0 1
20.798216 16.480552 -31.801321 41.418576 0.670091 2.446202 0.008320 -0.005805 -141702.000000 0 0 1
20.386516 16.796652 -33.104801 42.351687 0.689151 2.468126 0.000531 0.002212 -71246.900000 0 0 1
21.338016 17.674552 -33.635891 43.578365 0.691768 2.452540 0.002880 -0.001675 -308714.000000 0 0 1
21.087516 18.260152 33.927459 43.922534 0.713666 0.688124 0.016933 0.009063 -920662.000000 0 0 1
22.136416 19.100752 33.606203 44.544770 0.711916 0.716001 0.022452 0.002689 -280649.000000 0 0 1
22.195916 19.530252 32.254633 43.754437 0.721600 0.741918 0.030969 0.007378 -16827.000000 0 0 1
23.246616 20.649152 32.037713 44.645355 0.726294 0.770440 0.052079 -0.003241 305968.000000 0 0 1
24.604716 20.278452 31.985943 45.163129 0.689306 0.783807 0.053063 -0.012827 -83537.200000 0 0 1
25.438216 21.422452 31.869423 46.061746 0.699911 0.806700 0.068688 -0.026628 3191.250000 0 0 1
26.927416 21.060952 31.757043 46.660039 0.663754 0.822209 0.062315 -0.028064 -191012.000000 0 0 1
27.486016 20.470352 32.904246 47.510060 0.640136 0.805745 0.054164 -0.026035 -664104.000000 0 0 1
28.854416 20.239552 32.848553 48.179292 0.611690 0.820578 0.047585 -0.023307 -621586.000000 0 0 1
29.466016 19.469152 34.003954 49.026145 0.583883 0.804338 0.025009 -0.018880 -275586.000000 0 0 1
29.606516 20.208652 -33.739351 49.226814 0.598935 2.325929 0.028540 -0.021151 410136.000000 0 0 1
28.431216 20.382652 -32.941361 48.051221 0.621986 2.326151 0.032355 -0.027092 251994.000000 0 0 1
28.760016 20.794652 -31.530511 47.473458 0.626023 2.297181 0.027453 -0.024527 -147455.000000 0 0 1
29.500916 19.783952 -30.920071 47.093095 0.590736 2.287063 0.023956 -0.024916 -184655.000000 0 0 1
29.998516 20.067052 -29.637001 46.700636 0.589571 2.258309 0.015325 -0.027449 -93153.600000 0 0 1
31.462616 19.598552 -29.592801 47.431354 0.557099 2.244530 0.034663 -0.023688 -735046.000000 0 0 1
32.395416 20.336052 -30.269781 48.777840 0.560571 2.240258 0.004844 -0.024329 -1021800.000000 0 0 1
33.602716 20.288552 -29.573331 49.146208 0.543192 2.216477 0.020024 -0.017224 -202691.000000 0 0 1
34.745416 21.176552 -30.136011 50.634666 0.547359 2.208268 0.012225 -0.014748 533303.000000 0 0 1
-35.196460 20.701252 -31.186841 51.380460 -0.531670 2.223050 0.001512 -0.014296 -227224.000000 0 0 1
-34.043060 21.454552 -31.347091 51.008508 -0.562343 2.232607 0.001785 -0.019039 -1013070.000000 0 0 1
-33.202860 21.085152 -32.553881 51.056525 -0.565787 2.262181 -0.001222 -0.020433 -350567.000000 0 0 1
-32.489560 19.863652 -32.372661 49.981250 -0.548749 2.275353 0.015196 -0.010812 639004.000000 0 0 1
-31.658660 19.575852 -33.533321 50.099585 -0.553797 2.304107 0.019933 -0.001558 606904.000000 0 0 1
-30.740860 18.297752 -33.330331 48.894981 -0.536902 2.320842 0.005500 0.003076 208424.000000 0 0 1
-31.511360 17.137552 -33.129161 48.828299 -0.498112 2.316492 0.012466 -0.001958 -39013.700000 0 0 1
-30.775960 15.945052 -33.102621 47.928988 -0.478023 2.333197 0.012169 0.004429 -223584.000000 0 0 1
-31.730160 14.754952 -33.250561 48.271228 -0.435269 2.330667 0.018922 0.002709 199463.000000 0 0 1
-31.086660 13.486652 -33.318621 47.522634 -0.409335 2.347750 0.027967 -0.001776 249424.000000 0 0 1
-32.115360 12.500052 -33.290571 47.915653 -0.371182 2.338903 0.040734 -0.002385 189329.000000 0 0 1
-31.720560 11.005552 -33.438261 47.386005 -0.333958 2.354146 0.044812 -0.002118 -37052.300000 0 0 1
-31.157060 10.594652 34.226951 47.481504 -0.327775 0.765771 0.027805 -0.007957 250882.000000 0 0 1
-31.332560 9.222452 33.983315 47.134368 -0.286257 0.765569 0.041597 -0.010740 -192197.000000 0 0 1
-30.348760 8.640952 32.964778 45.633210 -0.277382 0.763550 0.041680 -0.012775 419746.000000 0 0 1
-29.136960 8.107752 33.505082 45.136334 -0.271398 0.734287 0.022336 -0.007906 28514.800000 0 0 1
-28.337060 7.628252 32.470313 43.766431 -0.262963 0.734897 0.018629 -0.002252 -471257.000000 0 0 1
20.508616 -4.083672 -31.777691 38.040785 -0.196549 2.559581 0.025317 -0.020080 1250990.000000 0 0 1
21.844816 -4.251372 -32.319861 39.240840 -0.192214 2.538575 0.020531 -0.017052 1867500.000000 0 0 1
22.843816 -3.199172 -32.196161 39.606406 -0.139141 2.519916 0.033347 -0.018900 560065.000000 0 0 1
22.466216 -1.729472 -32.560241 39.596606 -0.076829 2.536235 0.030134 -0.013141 -535527.000000 0 0 1
23.457716 -0.789172 -32.176701 39.827469 -0.033630 2.511380 0.036363 -0.010490 235182.000000 0 0 1
23.080316 0.556028 -32.485821 39.853967 0.024086 2.523735 0.025001 -0.018608 -296459.000000 0 0 1
24.100016 1.559128 -31.951371 40.051614 0.064604 2.494359 0.032866 -0.009190 926069.000000 0 0 1
25.372916 1.426228 -32.634211 41.361948 0.056152 2.479962 0.036355 -0.008777 476128.000000 0 0 1
26.403016 2.096228 -31.961481 41.509634 0.079227 2.449602 0.039561 0.002356 -266171.000000 0 0 1
27.791216 1.867728 -32.574651 42.859631 0.067105 2.434157 0.046504 -0.004239 -199097.000000 0 0 1
28.127416 2.495728 -33.769611 44.020073 0.088498 2.445169 0.049802 -0.016167 140683.000000 0 0 1
27.816116 1.621728 34.055062 44.001290 0.058236 0.685732 0.047295 -0.018033 -845990.000000 0 0 1
28.518316 2.082928 32.745753 43.473179 0.072909 0.717822 0.034889 -0.019936 -78089.500000 0 0 1
27.839916 3.112428 32.021953 42.545900 0.111335 0.718726 0.040702 -0.015904 177583.000000 0 0 1
27.903316 4.438528 32.525563 43.083730 0.157747 0.715236 0.044533 -0.018438 -107820.000000 0 0 1
27.003116 5.388728 31.727823 42.010254 0.196972 0.714776 0.038634 -0.026108 154149.000000 0 0 1
27.419916 6.728928 31.983003 42.661959 0.240647 0.723211 0.038866 -0.028900 284270.000000 0 0 1
26.440216 7.586828 31.459283 41.789131 0.279435 0.718475 0.028402 -0.025717 -134223.000000 0 0 1
26.867016 9.064128 31.732463 42.555190 0.325379 0.729245 0.027361 -0.021516 -71958.200000 0 0 1
28.011116 9.390028 30.989423 42.815179 0.323452 0.761510 0.034719 -0.024900 -305579.000000 0 0 1
28.415716 10.684828 31.481883 43.734739 0.359663 0.767229 0.031909 -0.025554 191623.000000 0 0 1
29.818816 11.163428 31.041173 44.467272 0.358223 0.798101 0.025395 -0.017868 -1107500.000000 0 0 1
30.898616 10.638928 31.710153 45.535097 0.331603 0.800442 0.039697 -0.020020 -258335.000000 0 0 1
32.143716 10.988728 31.115783 46.066936 0.329407 0.829225 0.039555 -0.019318 434179.000000 0 0 1
32.705016 12.412728 31.306063 46.944259 0.362741 0.840786 0.047143 -0.013500 -860264.000000 0 0 1
33.011516 12.734028 32.650983 48.145637 0.368158 0.825525 0.051832 -0.016704 172497.000000 0 0 1
33.533216 14.061128 32.890497 49.030365 0.397049 0.835484 0.050334 -0.010604 -114944.000000 0 0 1
32.572516 15.243928 32.821363 48.688684 0.437721 0.831042 0.045881 -0.012111 -802067.000000 0 0 1
32.163416 15.614428 31.472443 47.632031 0.451958 0.848991 0.036034 -0.019830 343560.000000 0 0 1
31.162316 16.621328 31.389603 47.251091 0.489993 0.844219 0.031876 -0.020628 580564.000000 0 0 1
29.723916 16.141228 31.750023 46.390887 0.497483 0.817013 0.024529 -0.011179 -303306.000000 0 0 1
29.358716 15.073228 30.923553 45.226127 0.474323 0.817901 0.031492 -0.002580 -282558.000000 0 0 1
27.959816 14.931228 30.963743 44.310791 0.490495 0.797098 0.021138 -0.009960 147357.000000 0 0 1
27.321416 14.351228 29.647553 42.794800 0.483662 0.805454 0.020962 -0.001374 140732.000000 0 0 1
27.552616 12.973128 29.363603 42.304490 0.440056 0.803626 0.020815 -0.006967 -135293.000000 0 0 1
26.654416 12.533928 28.362883 40.890223 0.439556 0.804273 0.016441 -0.013758 67061.200000 0 0 1
26.434116 11.033328 28.253763 40.233965 0.395407 0.792262 0.017309 -0.004048 -137407.000000 0 0 1
27.445616 10.263128 27.637963 40.279655 0.357845 0.814610 0.027849 -0.009652 -241486.000000 0 0 1
27.050116 8.939128 27.550273 39.631229 0.319167 0.802146 0.029462 -0.011728 -753353.000000 0 0 1
28.105616 7.943128 27.240193 39.938040 0.275434 0.820219 0.038318 -0.024613 -564345.000000 0 0 1
28.659316 7.939628 25.906193 39.440143 0.270257 0.854165 0.034760 -0.021494 252769.000000 0 0 1
29.899416 7.285728 25.759893 40.132642 0.239017 0.873863 0.041568 -0.016932 252896.000000 0 0 1
30.540816 7.510628 24.324623 39.759757 0.241136 0.912475 0.037862 -0.007357 131738.000000 0 0 1
30.948916 8.846028 23.935353 40.112202 0.278404 0.931401 0.031490 -0.008246 315202.000000 0 0 1
29.931516 9.760028 23.522783 39.299810 0.315207 0.929110 0.029150 -0.008312 -157908.000000 0 0 1
29.611216 9.560128 22.025883 38.122955 0.312291 0.954816 0.022340 0.000038 167532.000000 0 0 1
30.619916 10.022228 21.131683 38.530148 0.316320 0.990292 0.015754 -0.002417 533892.000000 0 0 1
30.270216 9.709928 19.796283 37.449452 0.310406 1.013830 0.012810 -0.009755 -597352.000000 0 0 1
30.978616 10.670628 18.806883 37.778774 0.331723 1.049717 0.030129 -0.021435 42311.500000 0 0 1
32.201116 10.297328 18.231683 38.410169 0.309505 1.076221 0.032834 -0.018899 237077.000000 0 0 1
33.305516 10.409828 19.143283 39.800593 0.302936 1.069024 0.039861 -0.010248 -57736.200000 0 0 1
34.661916 10.044328 18.499883 40.553454 0.282054 1.097093 0.050108 -0.009655 -246167.000000 0 0 1
34.709416 8.640428 18.223683 40.143532 0.243977 1.099588 0.042742 -0.004313 -188033.000000 0 0 1
-34.823760 8.231528 17.759083 39.947933 -0.232116 1.110118 0.041438 -0.000540 -516996.000000 0 0 1
-34.813860 6.717428 17.561183 39.566701 -0.190610 1.110920 0.037419 -0.005031 -14180.800000 0 0 1
34.840316 6.283528 16.803483 39.187847 0.178434 1.127640 0.028237 -0.006945 321704.000000 0 0 1
34.979616 5.001028 16.283683 38.906839 0.142007 1.138970 0.024076 -0.001530 -249123.000000 0 0 1
33.686416 4.176828 16.244883 37.631326 0.123362 1.124436 0.020951 -0.004739 -234941.000000 0 0 1
33.323716 3.623128 17.474783 37.801655 0.108300 1.090237 0.020497 -0.005129 254320.000000 0 0 1
32.168516 2.789428 17.447883 36.701811 0.086497 1.075383 0.027587 -0.004558 321591.000000 0 0 1
32.061316 2.023928 18.768783 37.206068 0.063043 1.042046 0.023041 -0.006022 -519157.000000 0 0 1
32.818616 0.881328 18.721583 37.793332 0.026848 1.052539 0.014739 -0.005911 -341817.000000 0 0 1
32.601416 0.193128 19.948583 38.220879 0.005924 1.021686 0.010708 -0.001211 87737.800000 0 0 1
33.241716 -1.179472 20.080783 38.854095 -0.035467 1.027658 0.005989 0.000538 42497.900000 0 0 1
32.769616 -1.932672 21.194683 39.074257 -0.058909 0.997481 0.017377 0.005504 -51714.300000 0 0 1
33.091716 -3.341472 21.085883 39.380726 -0.100635 1.005772 0.017490 0.004893 39048.300000 0 0 1
32.592916 -4.151572 22.308583 39.714060 -0.126694 0.974321 0.013627 0.011444 41500.100000 0 0 1
33.236116 -3.839872 23.525483 40.900273 -0.115023 0.957958 0.012876 0.007517 538411.000000 0 0 1
32.483916 -4.359872 24.656333 41.013998 -0.133419 0.925834 0.014577 0.009110 706572.000000 0 0 1
33.112616 -3.916172 26.025093 42.297603 -0.117721 0.908049 -0.000349 0.010605 207962.000000 0 0 1
32.314116 -4.361172 27.081483 42.386656 -0.134151 0.877709 0.016165 0.009153 -152121.000000 0 0 1
32.945616 -4.013972 28.268363 43.596169 -0.121239 0.865297 0.024237 0.006065 -196892.000000 0 0 1
32.124416 -4.367372 29.512063 43.840779 -0.135123 0.832316 0.036005 0.000553 -53518.000000 0 0 1
31.905516 -5.772072 29.712323 43.978414 -0.178976 0.829002 0.025261 -0.005407 -163029.000000 0 0 1
30.956616 -5.971672 30.722313 44.020830 -0.190564 0.798330 0.030879 -0.014177 -521569.000000 0 0 1
30.744416 -7.388472 31.285983 44.481697 -0.235847 0.790704 0.031967 -0.010481 228070.000000 0 0 1
31.801816 -7.884972 32.087143 45.859710 -0.243040 0.795846 0.033642 -0.014590 436828.000000 0 0 1
32.799716 -8.693072 31.436123 46.256034 -0.259078 0.823564 0.037236 -0.006500 1006910.000000 0 0 1
34.122016 -8.825372 32.250173 47.773139 -0.253095 0.829738 0.041005 -0.003726 388913.000000 0 0 1
33.951416 -9.594672 33.431052 48.604440 -0.275418 0.812316 0.021656 -0.006455 -819666.000000 0 0 1
35.118916 -9.817472 34.132739 49.947621 -0.272591 0.818427 0.001532 0.000092 -925867.000000 0 0 1
34.924116 -10.177072 -33.325011 49.333792 -0.283553 2.312440 0.014621 -0.000241 -201579.000000 0 0 1
34.592916 -9.134272 -32.428171 48.287587 -0.258158 2.307113 0.009293 0.000553 966504.000000 0 0 1
-35.098360 -8.182272 -32.277411 48.380531 0.229033 2.301182 0.012447 0.006618 533014.000000 0 0 1
35.347316 -6.833072 -31.604741 47.905984 -0.190957 2.291248 0.007716 -0.004728 -209483.000000 0 0 1
35.114816 -6.961572 -30.190111 46.829014 -0.195714 2.271412 0.004757 -0.006023 561474.000000 0 0 1
34.397216 -5.760472 -29.769621 45.853918 -0.165929 2.277365 0.015900 -0.010486 287893.000000 0 0 1
34.569916 -5.444372 -28.239681 44.968877 -0.156206 2.249755 0.021543 -0.006140 398542.000000 0 0 1
-34.847860 -5.109972 -28.000231 44.994423 0.145599 2.242480 0.004628 -0.000972 129807.000000 0 0 1
-34.816260 -4.621872 -26.656531 44.091999 0.131979 2.220017 0.004530 -0.000586 -850615.000000 0 0 1
-33.432160 -4.478872 -26.109031 42.655025 0.133176 2.229507 0.000544 0.010064 -2311620.000000 0 0 1
-33.503360 -3.811572 -24.906491 41.920598 0.113280 2.206986 0.007546 0.008384 583126.000000 0 0 1
-32.225960 -3.679272 -24.282191 40.517581 0.113679 2.213423 0.013993 0.012300 776390.000000 0 0 1
-31.158460 -2.777472 -24.994591 40.041149 0.088905 2.244932 0.017337 0.008178 -349320.000000 0 0 1
-30.703160 -3.385372 -26.207021 40.508675 0.109818 2.274372 0.013123 0.012267 -354930.000000 0 0 1
-29.505160 -2.764672 -26.625921 39.838895 0.093429 2.302771 0.021264 0.005629 118933.000000 0 0 1
-28.785260 -3.490172 -27.770761 40.149566 0.120660 2.334613 0.010865 0.021070 180302.000000 0 0 1
-29.559260 -3.511672 -28.972271 41.538828 0.118247 2.342663 0.001715 0.028072 121980.000000 0 0 1
-28.968160 -4.415972 -29.845491 41.825930 0.151278 2.365369 0.001042 0.022736 -643983.000000 0 0 1
-29.988860 -4.739972 -30.969481 43.369434 0.156761 2.366113 -0.012616 0.024878 114128.000000 0 0 1
-31.184560 -5.420172 -30.628621 44.045062 0.172090 2.339763 -0.011005 0.020086 1184220.000000 0 0 1
-32.214960 -4.688172 -29.905581 44.205502 0.144513 2.313813 0.001688 0.012128 152043.000000 0 0 1
-32.995760 -3.580172 -30.705001 45.214322 0.108081 2.317331 0.022158 0.010559 -662656.000000 0 0 1
-32.258860 -2.487372 -31.256351 44.986449 0.076954 2.338931 0.019244 0.015335 54926.800000 0 0 1
-31.947360 -1.451372 -30.341231 44.083224 0.045399 2.329900 0.004246 0.018121 -192391.000000 0 0 1
-31.457560 -0.236172 -31.064961 44.211601 0.007508 2.349901 0.018022 0.016862 -521134.000000 0 0 1
-32.373560 0.285228 -31.965461 45.496368 -0.008810 2.349832 0.015420 0.016878 -273816.000000 0 0 1
-31.889060 1.443528 -32.635551 45.651672 -0.045236 2.367251 0.011841 0.021836 874776.000000 0 0 1
-33.086060 2.413728 -33.002001 46.793648 -0.072824 2.353596 0.035821 0.011453 886935.000000 0 0 1
-33.768760 2.030828 -34.184456 48.093975 -0.060067 2.361409 0.044356 0.006030 269999.000000 0 0 1
-35.082360 2.583728 -34.156410 49.031704 -0.073515 2.341470 0.046794 0.007717 493396.000000 0 0 1
34.764916 2.115528 33.623768 48.411079 0.060777 0.803006 0.054585 0.005419 -16024.200000 0 0 1
35.038116 2.515128 32.301813 47.722139 0.071660 0.827291 0.039016 0.000567 -47236.400000 0 0 1
-34.918860 1.668328 31.538313 47.082643 -0.047741 0.836789 0.039171 -0.000764 -286861.000000 0 0 1
-34.799960 1.991128 30.027233 46.006918 -0.057154 0.859696 0.035339 -0.000759 123496.000000 0 0 1
-34.063960 3.208828 29.777433 45.357970 -0.093923 0.854629 0.036779 -0.007411 404238.000000 0 0 1
-33.754160 3.389928 28.409793 44.248743 -0.100094 0.873630 0.016901 -0.008393 10695.900000 0 0 1
-33.129760 4.755128 28.107123 43.705865 -0.142557 0.872260 0.020122 -0.007565 -421345.000000 0 0 1
-32.625360 4.795828 26.792373 42.488179 -0.145952 0.888491 0.025385 -0.003374 237535.000000 0 0 1
-31.975760 6.087828 26.770253 42.144482 -0.188137 0.882526 0.027507 0.002776 -300544.000000 0 0 1
-31.220460 6.211228 25.411743 40.731476 -0.196383 0.897093 0.006726 0.006008 204615.000000 0 0 1
-30.058460 5.374128 25.330623 39.674082 -0.176920 0.878291 0.015296 0.007739 691339.000000 0 0 1
-29.387560 5.412628 24.064483 38.366973 -0.182140 0.892819 0.010718 0.010114 -355852.000000 0 0 1
-30.099560 4.758528 22.882783 38.108383 -0.156795 0.926713 0.019329 0.004370 -306593.000000 0 0 1
-30.256660 3.345428 23.019083 38.164585 -0.110121 0.923348 0.012408 -0.000444 39104.300000 0 0 1
-31.148760 2.842628 22.025183 38.254862 -0.091008 0.957277 0.021387 -0.000929 -352412.000000 0 0 1
-31.067860 1.328728 21.626283 37.877085 -0.042743 0.963122 0.025536 -0.006677 52306.500000 0 0 1
-30.010360 0.779328 20.833383 36.541195 -0.025963 0.964127 0.043122 -0.011726 391685.000000 0 0 1
-29.753560 1.468928 19.591883 35.654929 -0.049330 0.989047 0.033752 -0.006762 -113586.000000 0 0 1
-28.600960 0.785728 18.826983 34.250366 -0.027465 0.988807 0.037455 -0.011274 -105932.000000 0 0 1
-29.026460 -0.407472 18.283883 34.307460 0.014037 1.008723 0.050864 -0.011469 67285.900000 0 0 1
-27.968560 -1.203772 17.807583 33.178298 0.043014 1.004247 0.062572 -0.011197 -50042.000000 0 0 1
-27.460960 -0.931872 16.386583 31.992074 0.033921 1.033043 0.044985 -0.002228 -102222.000000 0 0 1
-26.916460 0.326128 16.182083 31.407993 -0.012116 1.029530 0.047296 -0.005118 37776.900000 0 0 1
-26.913060 0.626028 14.777983 30.709828 -0.023257 1.068758 0.042209 -0.010377 -73510.500000 0 0 1
-26.453960 2.046928 14.521083 30.246715 -0.077223 1.070041 0.048951 -0.016489 124329.000000 0 0 1
-25.057560 2.245028 14.405483 28.990333 -0.089356 1.050766 0.049676 -0.021178 23316.100000 0 0 1
-24.864160 3.593828 14.042683 28.780879 -0.143544 1.061094 0.048777 -0.018813 -141917.000000 0 0 1
-23.430760 3.947028 13.595783 27.375625 -0.166888 1.051075 0.039521 -0.010020 -67741.600000 0 0 1
-22.506760 4.013128 14.669683 27.163561 -0.176453 1.000300 0.034246 -0.011253 471852.000000 0 0 1
-21.255160 4.473128 14.169583 25.933912 -0.207422 0.992769 0.016971 -0.008767 200897.000000 0 0 1
-20.342860 5.149728 15.211083 25.917730 -0.247938 0.943573 0.006670 -0.008342 -487580.000000 0 0 1
-20.690560 6.439728 15.608483 26.705695 -0.301736 0.946579 0.008581 -0.007100 324156.000000 0 0 1
-19.849860 6.886428 16.652483 26.809421 -0.333933 0.900596 0.010100 -0.007087 -216787.000000 0 0 1
-20.155760 8.330728 17.060183 27.689448 -0.391934 0.906982 0.007443 -0.007941 -350262.000000 0 0 1
-19.811060 9.309928 16.078283 27.159971 -0.439308 0.937277 0.016447 -0.007854 545607.000000 0 0 1
-20.292160 10.624628 16.366083 28.151433 -0.482335 0.950399 0.025030 -0.003261 -34603.600000 0 0 1
-19.591060 11.362528 17.529583 28.639186 -0.525573 0.912103 0.034859 -0.007243 240370.000000 0 0 1
-20.232960 11.068328 18.793983 29.750535 -0.500571 0.887027 0.041109 -0.014728 310082.000000 0 0 1
-19.430660 11.530728 19.812983 30.050999 -0.535574 0.850893 0.035272 -0.012791 -401279.000000 0 0 1
-12.179584 -33.433097 -21.614391 41.632873 1.221442 2.116672 0.032373 -0.014017 -721572.000000 0 0 1
-12.664284 -33.934297 -20.455691 41.597547 1.213605 2.084897 0.050995 -0.012758 -407446.000000 0 0 1
-13.781984 -33.219297 -20.007891 41.155564 1.177530 2.078478 0.055630 -0.026509 -391318.000000 0 0 1
-14.827484 -34.022297 -19.247391 41.807093 1.159800 2.049226 0.064072 -0.023593 -1006220.000000 0 0 1
-15.476984 34.208528 -20.126191 42.600751 -1.145923 2.062851 0.050676 -0.027338 419722.000000 0 0 1
-16.404484 33.256328 -19.562091 41.925718 -1.112544 2.056227 0.058182 -0.018739 1888790.000000 0 0 1
-17.793384 33.814928 -19.027391 42.686010 -1.086410 2.032811 0.070489 -0.015445 629680.000000 0 0 1
-17.515484 34.524428 -17.814891 42.615709 -1.101297 2.002078 0.064812 -0.018181 226778.000000 0 0 1
-18.760284 -34.187997 -17.282891 42.655195 1.068922 1.987968 0.049661 -0.015360 259818.000000 0 0 1
-19.022984 34.430728 -15.808891 42.394221 -1.066036 1.952931 0.049220 -0.016739 -720321.000000 0 0 1
-19.054884 33.048728 -15.721391 41.260988 -1.047783 1.961699 0.054182 -0.021285 212266.000000 0 0 1
-19.596684 32.685528 -14.440091 40.754018 -1.030706 1.932986 0.056182 -0.014550 64274.600000 0 0 1
-19.605584 31.150928 -14.398391 39.523068 -1.009058 1.943681 0.052781 -0.014232 849584.000000 0 0 1
-18.390884 30.546128 -13.921291 38.276532 -1.028857 1.943036 0.050048 -0.015017 607043.000000 0 0 1
-18.513284 29.136328 -14.086491 37.283998 -1.004752 1.958233 0.044005 -0.009933 -572239.000000 0 0 1
-17.337784 28.431028 -13.457591 35.916972 -1.023188 1.954855 0.053236 -0.008450 -132827.000000 0 0 1
-16.152984 28.560928 -14.250091 35.773043 -1.056084 1.980511 0.057741 -0.014973 -711076.000000 0 0 1
-15.125284 27.833028 -13.685791 34.507282 -1.073012 1.978613 0.058927 -0.017036 -411457.000000 0 0 1
-13.792784 28.198628 -14.390791 34.532570 -1.115883 2.000642 0.057294 -0.020335 -57623.500000 0 0 1
-13.849384 28.012628 -15.752691 34.995143 -1.111640 2.037718 0.054796 -0.013542 127478.000000 0 0 1
-12.837484 28.752928 -16.430591 35.517547 -1.150877 2.051727 0.052491 -0.016464 182683.000000 0 0 1
-13.157684 28.864028 -17.978991 36.462321 -1.143088 2.086428 0.061241 -0.027791 -251919.000000 0 0 1
-13.035484 27.632728 -18.615291 35.777375 -1.130011 2.118009 0.037315 -0.027094 38952.700000 0 0 1
-13.408084 27.640628 -19.965091 36.638585 -1.119151 2.147090 0.037447 -0.031875 -286692.000000 0 0 1
-12.842184 26.566428 -20.917691 36.169691 -1.120518 2.187465 0.013139 -0.020005 271255.000000 0 0 1
-11.435784 26.690428 -21.105591 35.897104 -1.165999 2.199315 0.007834 -0.022859 348908.000000 0 0 1
-10.808984 25.509628 -21.541691 35.094440 -1.170009 2.231687 0.004547 -0.020139 467860.000000 0 0 1
-9.512484 25.814528 -22.351791 35.446858 -1.217742 2.253086 0.021171 -0.026327 263370.000000 0 0 1
-9.785584 26.502728 -23.570791 36.793130 -1.217094 2.266115 0.015323 -0.022067 451003.000000 0 0 1
-8.604084 26.645228 -24.354391 37.109767 -1.258453 2.286674 0.009600 -0.020199 -190077.000000 0 0 1
-8.939484 27.238028 -25.744781 38.530745 -1.253674 2.302532 0.011419 -0.009729 -164010.000000 0 0 1
-9.815484 26.495428 -26.562131 38.780127 -1.216012 2.325320 0.003613 -0.005083 -208977.000000 0 0 1
-10.214484 27.259328 -27.652571 40.150608 -1.212275 2.330520 0.012674 0.000785 -103848.000000 0 0 1
-11.530284 26.731928 -28.268141 40.578704 -1.163576 2.341479 0.001433 0.002398 35224.300000 0 0 1
-11.743784 27.193728 -29.634301 41.899965 -1.163133 2.356416 0.011656 0.007425 119488.000000 0 0 1
-13.013884 26.822928 -30.127471 42.385082 -1.119077 2.361436 -0.000056 0.013138 -70847.800000 0 0 1
-13.077684 27.045728 -31.653711 43.640058 -1.120403 2.382319 -0.005262 0.016481 -293624.000000 0 0 1
-12.305084 26.300428 -32.562561 43.628522 -1.133185 2.413371 0.002077 0.012892 -57350.100000 0 0 1
-12.668884 24.957328 -32.642151 42.998591 -1.101070 2.432794 -0.001701 0.011365 17400.600000 0 0 1
-11.929184 24.216228 -33.780561 43.241848 -1.113077 2.467383 0.010535 0.013868 759821.000000 0 0 1
-12.537184 24.469428 33.825353 43.590004 -1.097309 0.682515 0.014487 0.012633 889281.000000 0 0 1
-11.636384 23.842228 32.902010 42.265820 -1.116748 0.678597 0.008716 0.009305 275247.000000 0 0 1
-12.095884 23.683028 31.373043 41.127412 -1.098593 0.703124 0.022530 0.019004 223362.000000 0 0 1
-13.351884 23.025728 31.282643 41.073844 -1.045311 0.704988 0.021106 0.009088 87549.800000 0 0 1
-13.824684 22.985828 29.946683 40.202910 -1.029316 0.730429 0.032009 0.012815 -321273.000000 0 0 1
-15.032784 22.070928 29.823363 40.031780 -0.972859 0.730273 0.029156 0.007236 -296690.000000 0 0 1
-14.785884 20.686628 29.957343 39.293782 -0.950236 0.703792 0.017132 0.004343 33413.300000 0 0 1
-16.006084 19.979128 29.915043 39.373469 -0.895360 0.707827 0.016497 0.004914 90792.200000 0 0 1
-15.661384 18.491528 30.089093 38.633781 -0.868076 0.678000 0.008549 -0.000621 140040.000000 0 0 1
-15.115084 18.029928 28.845923 37.224069 -0.873115 0.684197 0.010820 -0.010064 142873.000000 0 0 1
-14.613084 16.711628 28.917643 36.456149 -0.852291 0.654722 -0.006330 -0.012592 -24089.000000 0 0 1
-14.178584 16.175128 27.553493 34.955142 -0.851079 0.662832 -0.003305 -0.014468 208365.000000 0 0 1
-12.894284 16.589528 27.137653 34.320944 -0.910079 0.658841 -0.023873 -0.012753 -153775.000000 0 0 1
-12.402484 15.960028 26.018373 32.946924 -0.910178 0.660467 -0.030617 -0.009113 -291358.000000 0 0 1
-11.325184 16.652828 25.216473 32.271458 -0.973568 0.673912 -0.015884 -0.002338 -198885.000000 0 0 1
-11.841184 17.777428 24.430143 32.451232 -0.983200 0.718451 -0.019498 -0.000475 -61966.800000 0 0 1
-12.221884 18.980028 25.050783 33.721768 -0.998697 0.733454 -0.011743 -0.004030 -69728.400000 0 0 1
-11.216584 19.855628 25.856373 34.476220 -1.056580 0.722769 -0.012256 -0.000072 -243062.000000 0 0 1
-10.992884 19.471128 27.208093 35.217164 -1.056833 0.687901 -0.002821 -0.008904 -234972.000000 0 0 1
-12.051184 19.593928 28.123113 36.332665 -1.019386 0.685591 0.002975 -0.005609 -217079.000000 0 0 1
-11.527384 19.235728 29.536683 37.085165 -1.030914 0.649386 -0.000526 -0.000395 -113514.000000 0 0 1
-10.595384 20.104428 30.112303 37.725336 -1.085769 0.646498 -0.010899 -0.009123 -386851.000000 0 0 1
-10.494884 19.978328 31.497223 38.747274 -1.087104 0.621701 -0.015714 -0.005968 11717.900000 0 0 1
-9.373684 20.852128 32.112603 39.419493 -1.148332 0.618692 -0.015517 -0.004421 939079.000000 0 0 1
-8.063184 20.253028 32.034033 38.747637 -1.191910 0.597517 -0.013701 -0.012267 565108.000000 0 0 1
-7.103084 21.111828 32.590383 39.475260 -1.246243 0.599549 -0.011829 -0.008116 -101540.000000 0 0 1
-5.904784 20.396728 33.251075 39.452845 -1.289003 0.568322 -0.005766 -0.004430 -263933.000000 0 0 1
-6.260184 19.689428 34.413822 40.139440 -1.262957 0.540684 -0.012952 -0.003121 525957.000000 0 0 1
-5.167084 19.198228 -33.721941 39.146392 -1.307883 2.608878 -0.018269 0.002398 521072.000000 0 0 1
-4.401984 17.980828 -34.282378 38.961123 -1.330703 2.646474 -0.027367 0.003905 -137570.000000 0 0 1
-5.172084 16.771728 -34.447104 38.660630 -1.271668 2.670367 -0.030095 0.001156 180636.000000 0 0 1
-5.057284 16.195928 33.210935 37.294107 -1.268133 0.472322 -0.015750 0.004415 -450570.000000 0 0 1
-5.627384 14.816928 33.011694 36.619404 -1.207829 0.447617 -0.010425 -0.000404 290990.000000 0 0 1
-4.768884 13.674128 33.426116 36.428413 -1.235233 0.408837 -0.009469 0.001189 461191.000000 0 0 1
-5.486684 12.435028 33.318729 35.984320 -1.155261 0.387323 0.004932 -0.004520 338839.000000 0 0 1
-4.663684 11.188228 33.768092 35.877715 -1.175859 0.344633 0.018316 -0.011439 301297.000000 0 0 1
-4.586384 11.038028 -33.767741 35.820850 -1.176993 2.801381 0.018536 -0.007481 -326821.000000 0 0 1
-3.630384 10.041328 -33.515861 35.175572 -1.223874 2.833179 0.029251 -0.013401 71773.900000 0 0 1
-3.531284 9.614228 -32.041551 33.638733 -1.218795 2.832203 0.028264 -0.008001 34776.000000 0 0 1
-4.723984 9.072028 -31.520211 33.138217 -1.090711 2.827814 0.025229 -0.006809 -156202.000000 0 0 1
-4.580584 8.642728 -30.210221 31.754306 -1.083443 2.828462 0.030387 -0.005187 385373.000000 0 0 1
-5.919984 8.115528 -29.614301 31.271630 -0.940568 2.814568 0.024769 -0.007679 240612.000000 0 0 1
-5.719484 7.296728 -28.489051 29.959652 -0.905986 2.826972 0.024147 -0.005532 671900.000000 0 0 1
-6.944584 6.652128 -28.106101 29.705740 -0.763892 2.811927 0.035026 -0.016096 109691.000000 0 0 1
-6.769384 5.679828 -26.873551 28.289092 -0.698100 2.823909 0.025434 -0.019825 -345061.000000 0 0 1
-6.925384 6.301028 -25.576801 27.236678 -0.738228 2.790674 0.006753 -0.007415 -115722.000000 0 0 1
-5.908084 7.144028 -25.089211 26.747170 -0.879810 2.787651 0.017202 -0.008052 -817684.000000 0 0 1
-6.383384 7.890928 -23.899491 25.965362 -0.890620 2.739994 0.000589 -0.007062 -18611.000000 0 0 1
-6.577184 7.118128 -22.757791 24.735483 -0.824876 2.738995 -0.003229 -0.001196 -986055.000000 0 1 0
-7.773784 7.460428 -22.179391 24.657962 -0.764832 2.689379 0.000143 0.004384 -831561.000000 0 1 0
-7.585084 7.748728 -20.652591 23.326075 -0.796070 2.658121 -0.001387 0.000907 23288.800000 0 1 0
-7.107784 9.081228 -20.414291 23.446376 -0.906700 2.627379 -0.016275 0.006081 79816.700000 0 1 0
-6.822284 9.328528 -19.050891 22.282312 -0.939348 2.596305 -0.008369 0.008109 442504.000000 0 1 0
-8.081784 9.306028 -18.123791 21.917782 -0.855690 2.544367 -0.011142 0.003504 95339.600000 0 1 0
-7.673084 9.519828 -16.771291 20.755229 -0.892401 2.511633 -0.019535 0.000626 812550.000000 0 1 0
-8.798484 9.793028 -15.916891 20.655850 -0.838842 2.450540 -0.008803 -0.009208 344220.000000 0 1 0
-9.375684 11.197828 -16.188491 21.802799 -0.873735 2.407585 -0.011126 -0.009006 -590223.000000 0 1 0
-8.476584 12.238628 -15.849591 21.745023 -0.965048 2.387486 -0.025416 -0.006065 -131189.000000 0 1 0
-8.807984 13.579328 -16.226391 22.918868 -0.995384 2.357448 -0.016675 -0.007619 -108815.000000 0 1 0
-7.666184 14.578428 -15.947991 22.926826 -1.086677 2.340057 -0.001735 -0.009761 -281611.000000 0 1 0
-7.188284 14.762228 -14.601691 21.972805 -1.117653 2.297667 0.004217 -0.004544 -75418.800000 0 1 0
-8.100284 15.319128 -13.696691 22.088224 -1.084399 2.239654 0.004359 -0.016149 -851001.000000 0 1 0
-7.447084 16.125628 -12.514291 21.727918 -1.138159 2.184568 0.015550 -0.012964 353407.000000 0 1 0
-6.982084 17.451028 -12.792491 22.736220 -1.190207 2.168382 0.023136 -0.016502 164092.000000 0 1 0
-6.098084 17.636628 -13.893691 23.265251 -1.237902 2.210785 0.023016 -0.007733 -225670.000000 0 1 0
-6.003684 19.115428 -14.329491 24.632866 -1.266477 2.191641 0.046932 -0.003846 -122423.000000 0 1 0
-5.138184 19.839328 -13.507891 24.545121 -1.317375 2.153554 0.029297 -0.010816 -393717.000000 0 1 0
-5.101284 21.135428 -13.996591 25.857957 -1.333964 2.142764 0.035603 -0.012394 -34233.500000 0 0 1
-4.360284 22.117828 -13.047391 26.046973 -1.376153 2.095455 0.032028 -0.015232 -892183.000000 0 0 1
-4.415484 23.484128 -13.337891 27.366039 -1.384946 2.079893 0.028821 -0.013717 380600.000000 0 0 1
-5.630184 24.240928 -13.218391 28.178847 -1.342583 2.059055 0.027896 -0.016151 601237.000000 0 0 1
-6.392284 24.167628 -11.883791 27.679596 -1.312220 2.014552 0.033755 -0.016528 -514243.000000 0 0 1
-6.807884 22.888828 -11.523991 26.515054 -1.281697 2.020413 0.035155 -0.015602 -369006.000000 0 0 1
-7.812984 22.785328 -10.538691 26.292164 -1.240465 1.983219 0.039210 -0.013361 61338.800000 0 0 1
-7.519484 23.334828 -9.120491 26.157985 -1.259060 1.926947 0.032001 -0.009068 -313556.000000 0 0 1
-7.542984 24.712228 -8.995691 27.358970 -1.274546 1.905831 0.016668 -0.013547 -146657.000000 0 0 1
-7.321584 25.035928 -7.644991 27.181780 -1.286287 1.855897 0.016762 -0.011646 -210846.000000 0 0 1
-7.271384 26.621328 -7.521891 28.603268 -1.304159 1.836899 0.025271 -0.016928 -107575.000000 0 0 1
-6.202784 27.337528 -8.088691 29.176050 -1.347678 1.851714 0.008401 -0.020341 -276926.000000 0 0 1
-6.151684 27.407928 -9.504691 29.654289 -1.350006 1.897071 0.013623 -0.015248 -894.996000 0 0 1
-5.338984 28.642428 -9.943191 30.785718 -1.386510 1.899674 0.008627 -0.017827 158162.000000 0 0 1
-6.093784 29.835028 -9.905991 32.021739 -1.369318 1.885308 0.002869 -0.017226 272693.000000 0 0 1
-6.808284 30.123528 -11.134491 32.829203 -1.348519 1.916825 0.007814 -0.014744 464398.000000 0 0 1
-7.873084 31.276828 -10.981191 34.070691 -1.324197 1.898961 0.010974 -0.012525 381591.000000 0 0 1
-8.964284 30.842828 -10.206191 33.701702 -1.287945 1.878466 0.012091 -0.008324 -725700.000000 0 0 1
-10.041484 31.701928 -10.102791 34.755000 -1.264047 1.865740 0.007159 -0.017144 -169223.000000 0 0 1
-11.149484 31.132128 -9.186991 34.320856 -1.226893 1.841780 0.010889 -0.011715 119963.000000 0 0 1
-11.866784 30.039028 -9.645991 33.707698 -1.194568 1.861019 0.007735 -0.008133 -91240.200000 0 0 1
-13.199084 29.978628 -9.163491 34.013284 -1.156052 1.843576 0.017375 0.000877 910112.000000 0 0 1
-14.007484 28.702728 -9.670691 33.370323 -1.116779 1.864813 0.029332 0.002330 300893.000000 0 0 1
-13.859584 27.478528 -8.957091 32.052879 -1.103652 1.854015 0.014835 0.003678 127974.000000 0 0 1
-14.759784 26.466728 -9.410291 31.731569 -1.062081 1.871884 0.034218 0.003622 -15567.700000 0 0 1
-14.769184 25.103428 -8.626791 30.376511 -1.038999 1.858755 0.026332 0.003598 -18003.300000 0 0 1
-13.750084 24.206628 -9.061691 29.276951 -1.054216 1.885481 0.028686 0.000790 335516.000000 0 0 1
-14.111884 22.871728 -8.772291 28.270378 -1.017970 1.886305 0.047093 -0.002951 67934.400000 0 0 1
-13.119984 21.825528 -9.346991 27.126627 -1.029546 1.922576 0.053349 -0.001842 -12241.300000 0 0 1
-13.100384 21.693028 -10.747191 27.526526 -1.027515 1.971895 0.058583 -0.001294 -35961.600000 0 0 1
-12.267384 20.631128 -11.114591 26.451206 -1.034353 2.004453 0.057057 -0.004341 -196541.000000 0 0 1
-12.427784 20.358828 -12.654991 27.001490 -1.022738 2.058589 0.059786 0.003713 54324.600000 0 0 1
-13.612184 19.673428 -12.996791 27.225941 -0.965523 2.068453 0.055864 0.010349 -257182.000000 0 0 1
-13.742084 19.621828 -14.431391 27.966516 -0.959838 2.112999 0.052881 0.010371 469414.000000 0 0 1
-15.201684 19.293728 -14.852791 28.704434 -0.903472 2.114652 0.042952 0.012128 736871.000000 0 0 1
-16.091584 20.397328 -14.989591 29.994631 -0.902856 2.094098 0.016225 0.008720 246214.000000 0 0 1
-17.394984 19.949728 -15.334491 30.589602 -0.853702 2.095894 0.003031 0.015127 116227.000000 0 0 1
-18.242784 20.982228 -16.077391 32.117527 -0.855124 2.095065 -0.000025 0.005889 -123273.000000 0 0 1
-18.745684 22.077428 -15.332091 32.770208 -0.866832 2.057672 0.009121 0.000659 354678.000000 0 0 1
-19.280084 23.073128 -16.205191 34.156977 -0.874717 2.065116 0.008666 -0.006504 5501.990000 0 0 1
-19.458584 24.415428 -15.444191 34.832063 -0.897900 2.030174 0.009977 0.002513 192147.000000 0 0 1
-20.665484 24.510228 -14.708991 35.272764 -0.870300 2.000946 0.022352 0.014142 177068.000000 0 0 1
-20.641584 25.695328 -13.974691 35.799677 -0.894034 1.971817 0.025069 0.003295 58031.600000 0 0 1
-25.650474 -0.821572 3.546309 25.907491 0.032019 1.433482 0.053061 -0.015700 -31693.500000 0 0 1
-25.835954 0.000028 4.724009 26.264287 -0.000001 1.389948 0.050059 -0.015197 268211.000000 0 0 1
-26.723214 -0.674372 5.590509 27.310048 0.025230 1.364634 0.033169 -0.015877 -70247.200000 0 0 1
-27.128034 0.178228 6.845009 27.978852 -0.006570 1.323638 0.025146 -0.011058 -254007.000000 0 0 1
-27.809324 1.384728 6.470909 28.585812 -0.049753 1.342449 0.053156 -0.005902 139577.000000 0 0 1
-28.282784 2.107628 7.585409 29.358072 -0.074382 1.309456 0.070861 0.001990 -665043.000000 0 0 1
-27.349684 2.942928 8.477809 28.784358 -0.107191 1.271834 0.082896 -0.005058 -376608.000000 0 0 1
-26.468724 2.049828 9.102109 28.064988 -0.077289 1.240501 0.057144 -0.012598 -285016.000000 0 0 1
-25.502994 2.552928 9.958509 27.497128 -0.099771 1.200206 0.054927 -0.015089 -385538.000000 0 0 1
-24.625284 1.517228 10.644709 26.870363 -0.061535 1.163476 0.045014 -0.011162 -405191.000000 0 0 1
-23.744884 0.735128 9.895609 25.734860 -0.030950 1.176107 0.036490 -0.010106 7441.050000 0 0 1
-24.356484 -0.312372 9.151109 26.020736 0.012824 1.211426 0.029613 -0.011111 -677290.000000 0 0 1
-23.450784 -1.202472 8.291509 24.902497 0.051232 1.231356 0.042710 -0.013631 -363806.000000 0 1 0
-22.523284 -1.941072 9.035209 24.345453 0.085968 1.190576 0.031885 -0.017978 -50999.300000 0 1 0
-21.455984 -2.463772 8.281209 23.130237 0.114328 1.204644 0.036680 -0.016956 -597534.000000 0 1 0
-20.214184 -2.698572 9.118509 22.339264 0.132714 1.150333 0.033122 -0.009961 -701278.000000 0 1 0
-19.571984 -1.508972 9.557409 21.833086 0.076946 1.117703 0.026429 -0.012503 410166.000000 0 1 0
-20.178984 -0.992572 10.694809 22.859474 0.049149 1.083940 0.022171 -0.009165 -881141.000000 0 1 0
-19.718484 0.390228 11.139909 22.651015 -0.019787 1.056633 0.011285 -0.006633 -402214.000000 0 1 0
-20.170584 1.373728 10.248309 22.666438 -0.068000 1.101638 0.016462 0.000858 341508.000000 0 1 0
-20.407184 2.590028 10.943309 23.300588 -0.126242 1.081893 0.017094 0.006570 -371846.000000 0 1 0
-21.149784 3.657528 10.137209 23.737184 -0.171241 1.129557 0.010251 -0.001202 -346392.000000 0 1 0
-21.396984 4.801928 10.881609 24.480581 -0.220763 1.110181 0.010948 -0.001391 653629.000000 0 1 0
-22.226784 5.714128 10.180909 25.106415 -0.251634 1.153259 0.021087 -0.009559 -79522.100000 0 0 1
-22.377184 7.021128 10.943009 25.880186 -0.304035 1.134227 0.023153 -0.005861 82764.800000 0 0 1
-23.195184 6.791828 12.100609 27.029063 -0.284849 1.106617 0.020239 -0.007371 580066.000000 0 0 1
-23.456984 8.033028 12.751309 27.881096 -0.329940 1.095788 0.025252 -0.006764 217290.000000 0 0 1
-24.214084 7.810428 14.130009 29.102952 -0.312021 1.063841 0.032780 -0.006526 954284.000000 0 0 1
-25.532534 7.284928 13.960009 29.997705 -0.277935 1.086745 0.033721 -0.009311 316675.000000 0 0 1
-26.165714 6.945328 15.199009 31.046611 -0.259453 1.059218 0.030320 -0.009545 -643486.000000 0 0 1
-27.578894 6.505428 14.873209 32.002005 -0.231650 1.087434 0.030516 -0.006750 -834796.000000 0 0 1
-27.672784 5.248228 14.273009 31.576030 -0.187427 1.101767 0.036416 -0.013884 -9536.710000 0 0 1
-28.159594 5.516528 12.960209 31.485899 -0.193452 1.146566 0.060253 0.001438 -260711.000000 0 0 1
-28.350694 4.194528 12.135209 31.122648 -0.146886 1.170256 0.060248 -0.002258 154509.000000 0 0 1
-29.355224 3.333028 12.681909 32.150724 -0.113057 1.165325 0.046146 -0.002818 581418.000000 0 0 1
-29.907974 2.446428 11.734409 32.220619 -0.081617 1.198034 0.040799 0.000913 -313308.000000 0 0 1
-31.063054 1.587928 12.250009 33.428993 -0.051075 1.195607 0.028692 0.004973 -686685.000000 0 0 1
-30.759364 0.492428 13.061709 33.421388 -0.016008 1.169275 0.025483 0.001646 -35965.900000 0 0 1
-31.906874 -0.043872 13.715809 34.730015 0.001375 1.164808 0.023092 0.010383 -58934.400000 0 0 1
-31.636574 -1.094172 14.799209 34.944050 0.034572 1.133478 0.020602 0.002803 -22910.900000 0 0 1
-31.336374 -2.388372 14.291609 34.524234 0.076070 1.143998 0.014376 0.002718 105447.000000 0 0 1
-31.486984 -3.300272 15.308009 35.166136 0.104433 1.120419 0.017165 0.006046 -120837.000000 0 0 1
-31.369404 -4.779072 14.907109 35.058536 0.151186 1.131607 0.024989 0.004082 197827.000000 0 0 1
-32.404884 -5.192672 14.012409 35.684562 0.158893 1.167259 0.016785 0.000315 479341.000000 0 0 1
-32.171644 -6.510572 13.552409 35.511548 0.199673 1.179233 0.032448 -0.007019 -698458.000000 0 0 1
-33.191854 -6.983272 12.513909 36.153329 0.207367 1.217349 0.036372 -0.002704 1235970.000000 0 0 1
-34.594506 -7.094772 12.826409 37.571697 0.202279 1.222406 0.038850 0.003325 1330350.000000 0 0 1
-35.297377 -5.918272 13.176609 38.138613 0.166124 1.218033 0.038984 -0.000556 -512252.000000 0 0 1
33.964062 -5.855972 12.927109 36.809782 -0.170738 1.211958 0.049720 -0.006994 -128346.000000 0 0 1
33.091532 -6.543972 13.774209 36.436272 -0.195235 1.183123 0.057422 -0.006880 -457609.000000 0 0 1
31.790432 -6.228272 13.333809 35.031606 -0.193466 1.180327 0.048681 -0.003743 -445085.000000 0 0 1
30.735942 -7.218172 13.835409 34.470548 -0.230665 1.157785 0.029604 -0.004252 -311957.000000 0 0 1
30.406962 -7.196272 15.204009 34.749555 -0.232390 1.117945 0.037412 0.000819 -259450.000000 0 0 1
29.356282 -8.091672 15.411909 34.129070 -0.268958 1.102264 0.043010 0.000301 -113064.000000 0 0 1
28.711042 -7.925772 16.791109 34.191858 -0.269345 1.057461 0.028435 0.002151 -362488.000000 0 0 1
29.554612 -8.498072 17.762009 35.513114 -0.279985 1.047020 0.028953 0.005307 114272.000000 0 0 1
28.905512 -8.646772 19.037009 35.674963 -0.290667 1.007917 0.024790 0.001953 -404864.000000 0 0 1
29.752562 -9.267572 20.160109 37.115130 -0.301963 0.996579 0.019437 0.002678 1266880.000000 0 0 1
30.992502 -8.617772 20.570009 38.182803 -0.271209 1.001874 0.022558 -0.001712 1451490.000000 0 0 1
32.080742 -8.917072 19.675609 38.675804 -0.271113 1.037085 0.023960 -0.002241 -20212.800000 0 0 1
33.402302 -8.215972 20.058509 39.819088 -0.241182 1.042872 0.019056 0.005850 -32815.000000 0 0 1
33.786152 -8.605872 21.316109 40.864919 -0.249412 1.022043 0.028023 -0.005755 337953.000000 0 0 1
34.993897 -7.967272 21.776809 41.979515 -0.223860 1.025410 0.023555 -0.003202 635214.000000 0 0 1
-35.271365 -8.565372 23.058409 43.001454 0.238231 1.004839 0.030111 -0.009800 -221390.000000 0 0 1
34.866452 -8.034872 24.188109 43.189041 -0.226493 0.976348 0.029582 -0.006775 80164.000000 0 0 1
34.987248 -9.008272 25.231209 44.066659 -0.252000 0.961160 0.028229 -0.012029 31998.000000 0 0 1
34.467592 -8.407172 26.560109 44.318561 -0.239244 0.928170 0.031439 -0.012036 -386638.000000 0 0 1
-35.276191 -7.790472 27.233009 45.240887 0.217353 0.924848 0.020732 -0.010703 -771204.000000 0 0 1
35.096260 -7.123672 28.406009 45.709906 -0.200255 0.900216 0.022008 -0.006667 397022.000000 0 0 1
-34.535931 -6.521272 29.313209 45.765945 0.186628 0.875644 0.031387 -0.009938 649595.000000 0 0 1
-34.066894 -7.467372 30.230609 46.154140 0.215785 0.856624 0.027230 -0.014913 12206.200000 0 0 1
-32.749354 -7.216272 30.680309 45.451910 0.216883 0.829824 0.019480 -0.009973 454160.000000 0 0 1
-32.337634 -7.895672 32.017909 46.186694 0.239478 0.804838 -0.004985 0.000928 14088.200000 0 0 1
-32.616314 -9.286772 32.092509 46.690440 0.277387 0.812967 -0.005414 0.000861 717879.000000 0 0 1
-31.903714 -9.930472 33.203709 47.105706 0.301758 0.788547 -0.015979 0.001708 220784.000000 0 0 1
-32.029044 -11.487872 33.254109 47.578006 0.344378 0.796884 0.002504 -0.003733 87264.800000 0 0 1
-33.351294 -11.924072 33.547909 48.784778 0.343367 0.812519 -0.004323 -0.002849 254559.000000 0 0 1
-33.454334 -13.353372 33.493509 49.186585 0.379775 0.821740 0.007661 -0.005036 -265191.000000 0 0 1
-34.946064 -13.650372 33.622709 50.379030 0.372388 0.840091 0.013258 -0.000529 -353425.000000 0 0 1
-35.178891 -15.012672 33.674309 50.959727 0.403354 0.848909 0.013052 0.001191 54676.600000 0 0 1
34.221862 -15.305772 33.805809 50.480048 -0.420566 0.837010 0.012258 0.007375 11267.100000 0 0 1
33.891462 -16.796272 34.201709 50.995126 -0.460113 0.835663 0.009943 0.009641 -124757.000000 0 0 1
34.191602 -17.195772 -33.368665 50.776255 -0.465984 2.287855 0.016284 0.005354 284267.000000 0 0 1
34.165962 -18.577172 -33.142365 51.096386 -0.498019 2.276572 0.012276 -0.001208 -126606.000000 0 0 1
34.547772 -19.043672 -31.708765 50.612803 -0.503785 2.247847 0.016288 -0.012372 79012.400000 0 0 1
33.505672 -18.940272 -30.752165 49.265197 -0.514503 2.244925 0.017802 -0.005833 157403.000000 0 0 1
33.854862 -19.701072 -29.623165 49.110242 -0.527025 2.218300 0.015319 -0.002245 -836873.000000 0 0 1
32.749492 -19.771272 -28.583765 47.754205 -0.543145 2.212499 0.010811 0.003937 737728.000000 0 0 1
31.577792 -20.553872 -28.918565 47.496337 -0.577005 2.225418 0.015637 0.001083 1020590.000000 0 0 1
30.619932 -19.928372 -29.737065 47.106404 -0.576959 2.253992 0.011401 0.003067 -430675.000000 0 0 1
29.365292 -20.790972 -30.046065 46.875910 -0.616083 2.266558 0.002995 0.009525 260831.000000 0 0 1
28.421432 -20.072772 -30.834865 46.491751 -0.614911 2.295927 -0.006233 0.008518 468853.000000 0 0 1
27.346602 -20.960172 -31.161565 46.456524 -0.653955 2.306041 -0.000014 0.013364 106569.000000 0 0 1
26.389472 -20.457072 -32.224165 46.403587 -0.659434 2.338427 0.001479 0.011160 240886.000000 0 0 1
27.017022 -20.456572 -33.494665 47.647491 -0.648076 2.350358 -0.006509 0.011687 1031760.000000 0 0 1
25.908182 -20.271772 -34.388565 47.589411 -0.663946 2.378366 0.019131 0.002755 776921.000000 0 0 1
26.405072 -20.114672 33.131509 46.899091 -0.650993 0.786337 0.019839 0.000348 -185459.000000 0 0 1
27.077312 -18.906672 32.950409 46.651608 -0.609549 0.786527 0.005850 0.003072 35014.400000 0 0 1
27.613252 -18.634572 31.690009 45.978208 -0.593641 0.810357 0.006662 0.002108 -176039.000000 0 0 1
26.569742 -18.151272 30.637209 44.430378 -0.599331 0.809921 0.005971 0.000985 120778.000000 0 0 1
26.068852 -16.856572 31.022109 43.887360 -0.573994 0.785751 0.007528 -0.002245 477682.000000 0 0 1
25.242492 -16.242172 30.053609 42.476005 -0.571754 0.784781 0.013678 -0.002936 -7341.530000 0 0 1
24.976592 -14.833772 30.580709 42.178795 -0.535927 0.759725 0.021072 -0.001438 -257635.000000 0 0 1
26.077942 -14.003672 30.303409 42.361049 -0.492802 0.773657 0.020948 -0.005682 -83941.000000 0 0 1
26.002102 -12.702472 30.942409 42.366199 -0.454419 0.751953 0.044761 -0.009974 -92288.700000 0 0 1
27.290912 -11.859872 31.075909 43.025139 -0.409950 0.763713 0.047052 -0.004562 -101734.000000 0 0 1
27.816522 -11.396472 29.887709 42.390018 -0.388842 0.788282 0.038698 -0.003983 -315047.000000 0 0 1
29.160872 -11.018872 30.045109 43.295272 -0.361280 0.803824 0.044583 0.001253 27238.300000 0 0 1
29.897312 -10.437772 28.812109 42.812778 -0.335891 0.832567 0.042272 -0.006054 -80413.300000 0 0 1
29.615292 -9.042872 28.584109 42.141314 -0.296353 0.825361 0.040661 -0.006817 262524.000000 0 0 1
30.217092 -8.482072 27.381009 41.650184 -0.273662 0.853427 0.027741 0.000728 268757.000000 0 0 1
30.227082 -6.959272 27.324509 41.336869 -0.226290 0.848619 0.030071 0.003696 241403.000000 0 0 1
28.946442 -6.388472 27.094409 40.159882 -0.217218 0.830288 0.038525 0.003599 46482.900000 0 0 1
29.035912 -4.997472 26.984409 39.952688 -0.170444 0.829277 0.030744 0.008382 322725.000000 0 0 1
27.646872 -4.328772 26.800809 38.747531 -0.155313 0.806987 0.037584 0.007185 307670.000000 0 0 1
27.030902 -4.609172 25.577209 37.498103 -0.168891 0.820175 0.037226 0.008168 -60503.400000 0 0 1
25.675092 -4.232072 25.636809 36.528985 -0.163363 0.792846 0.049767 0.005669 240028.000000 0 0 1
24.720192 -4.496572 24.429009 35.044023 -0.179931 0.799459 0.042491 0.016273 191168.000000 0 0 1
25.133392 -3.901172 23.209009 34.432029 -0.153990 0.831115 0.043313 0.022885 179892.000000 0 0 1
24.299992 -4.283072 22.120709 33.138499 -0.174466 0.839919 0.036909 0.016597 215029.000000 0 0 1
24.573692 -3.417272 20.866409 32.418376 -0.138176 0.871525 0.041921 0.010460 319930.000000 0 0 1
23.907992 -2.155972 20.945609 31.858419 -0.089935 0.853355 0.042014 0.009686 299935.000000 0 0 1
24.580792 -1.218672 20.109009 31.781642 -0.049538 0.885730 0.049170 0.002567 -437844.000000 0 0 1
23.588492 -0.388372 19.319009 30.492489 -0.016463 0.884642 0.033942 -0.004153 -75368.300000 0 0 1
22.797492 -1.247272 18.464609 29.363636 -0.054656 0.890754 0.036518 -0.003017 365261.000000 0 0 1
21.798492 -0.477772 17.811709 28.154209 -0.021914 0.885828 0.033975 -0.006804 589648.000000 0 0 1
20.639792 -1.257572 17.099509 26.832363 -0.060854 0.879843 0.022025 -0.003900 143709.000000 0 0 1
21.056392 -2.030872 15.996509 26.521395 -0.096152 0.923346 0.034853 -0.013316 -361013.000000 0 0 1
20.110892 -2.922872 15.485109 25.549555 -0.144327 0.919672 0.038792 -0.014701 -690479.000000 0 0 1
20.404192 -3.389472 14.005309 24.979357 -0.164613 0.975595 0.045258 -0.026089 -492059.000000 0 1 0
19.562792 -4.423072 13.545309 24.202103 -0.222358 0.976803 0.058998 -0.022671 314616.000000 0 1 0
19.532292 -4.630172 12.162909 23.470946 -0.232756 1.026038 0.045993 -0.025519 -482781.000000 0 1 0
18.443392 -5.665072 11.846909 22.640694 -0.298013 1.020127 0.038741 -0.026631 -311375.000000 0 1 0
18.615892 -6.909872 12.461109 23.443059 -0.355419 1.010369 0.047514 -0.030588 1454790.000000 0 1 0
17.481492 -7.752072 12.101109 22.630378 -0.417389 1.006610 0.044712 -0.023597 797337.000000 0 1 0
17.647692 -9.186172 12.622509 23.561718 -0.479937 1.005435 0.052859 -0.031247 -620961.000000 0 1 0
18.408992 -9.962872 11.719609 23.989561 -0.496059 1.060393 0.042895 -0.039787 327143.000000 0 1 0
17.937492 -11.283572 11.480509 24.101343 -0.561506 1.074305 0.049080 -0.035098 -253033.000000 0 1 0
18.763992 -11.967372 10.391709 24.562024 -0.567739 1.133954 0.057536 -0.034028 -200246.000000 0 1 0
18.432392 -11.417572 9.131209 23.526432 -0.554584 1.172200 0.062156 -0.030240 195774.000000 0 1 0
19.023392 -12.020972 8.045109 23.898054 -0.563549 1.227447 0.054112 -0.035640 -485626.000000 0 1 0
18.615092 -11.238772 6.787809 22.779509 -0.543169 1.268222 0.043582 -0.026403 -166079.000000 0 1 0
19.014692 -9.893472 6.829709 22.496316 -0.479761 1.262336 0.045827 -0.018457 407379.000000 0 1 0
19.324492 -9.561972 5.509909 22.253683 -0.459488 1.320599 0.014013 -0.019249 -282912.000000 0 1 0
20.046892 -8.171772 5.318709 22.292250 -0.387069 1.329883 0.052178 -0.015815 -221126.000000 0 1 0
20.254692 -7.948572 3.959609 22.115851 -0.373965 1.390786 0.027395 -0.015881 369905.000000 0 1 0
20.803592 -6.711572 3.797509 22.186837 -0.312074 1.398789 0.048063 -0.015175 -993366.000000 0 1 0
21.357192 -6.293672 2.402209 22.394432 -0.286575 1.463321 0.045230 -0.004892 -158780.000000 0 1 0
20.384492 -5.962572 1.435609 21.287103 -0.284567 1.503305 0.016717 -0.015432 185268.000000 0 1 0
20.978092 -5.707572 0.171309 21.741345 -0.265643 1.562917 0.025983 -0.005464 57791.000000 0 1 0
-25.644134 -15.694872 0.337709 30.067668 0.549215 1.559564 0.016192 -0.004478 -811619.000000 0 0 1
-24.697384 -15.348672 -0.692091 29.086449 0.556057 1.594593 0.013405 0.004061 932593.000000 0 0 1
-23.325884 -15.679772 -0.509291 28.110701 0.591827 1.588915 0.012000 0.002920 754648.000000 0 0 1
-22.654384 -15.021572 0.714109 27.191519 0.585512 1.544531 0.009872 -0.001904 -1232700.000000 0 0 1
-23.041684 -15.613172 1.883309 27.896903 0.595537 1.503235 0.013351 0.001832 47943.800000 0 0 1
-22.180384 -15.138372 2.914709 27.011762 0.598892 1.462681 0.020268 0.009386 336680.000000 0 0 1
-22.477884 -15.781472 4.288509 27.797508 0.612127 1.415901 0.023412 0.010599 -433821.000000 0 0 1
-22.113984 -17.155372 4.372509 28.327618 0.659791 1.415822 0.022531 0.001533 115783.000000 0 0 1
-22.565084 -17.831172 5.515009 29.283938 0.668743 1.381336 0.024964 -0.007286 -396679.000000 0 0 1
-22.557684 -19.411672 5.287209 30.226093 0.710578 1.394970 0.016123 -0.010416 116705.000000 0 0 1
-23.163384 -20.073372 6.381809 31.308308 0.714052 1.365520 0.016336 -0.009926 -4743.400000 0 0 1
-23.474784 -21.382672 6.022109 32.319498 0.738793 1.383370 0.023993 -0.015686 -43114.600000 0 0 1
-23.983384 -22.269372 7.209709 33.512797 0.748358 1.353968 0.021986 -0.015421 82089.200000 0 0 1
-23.038184 -22.514672 8.248409 33.252137 0.773906 1.320123 0.025207 -0.010940 -259981.000000 0 0 1
-23.388584 -23.525472 9.210109 34.428184 0.788316 1.299982 0.021107 -0.013495 463716.000000 0 0 1
-22.303884 -23.736572 10.327009 34.169215 0.816506 1.263764 0.037371 -0.018279 632718.000000 0 0 1
-22.619084 -22.914772 11.468409 34.179441 0.791892 1.228623 0.036705 -0.015540 353204.000000 0 0 1
-21.764584 -23.245872 12.575209 34.237459 0.818296 1.194698 0.049388 -0.016350 29687.400000 0 0 1
-22.031584 -22.351572 13.799109 34.284091 0.792608 1.156558 0.032699 -0.006791 35285.600000 0 0 1
-23.267084 -22.700272 14.394709 35.550910 0.773068 1.153922 0.028909 -0.007025 -108649.000000 0 0 1
-23.594284 -21.826272 15.470809 35.671029 0.746492 1.122192 0.025648 0.002177 -306082.000000 0 0 1
-25.030184 -22.044972 16.001409 36.993729 0.722069 1.123484 0.015673 0.002032 62009.300000 0 0 1
-26.028374 -21.715772 14.994109 37.065811 0.695315 1.154335 0.013822 0.005622 623445.000000 0 0 1
-26.395884 -22.776272 14.109709 37.610971 0.711920 1.186239 0.009974 0.011375 -770801.000000 0 0 1
-27.477144 -23.621872 14.772809 39.130834 0.710094 1.183676 0.003718 0.004239 -960432.000000 0 0 1
-27.034654 -24.427272 15.838909 39.729525 0.734775 1.160732 0.011782 0.003228 -105986.000000 0 0 1
-28.058314 -25.178022 16.485209 41.145643 0.731347 1.158565 -0.001779 0.002845 290073.000000 0 0 1
-28.322854 -26.641252 16.004409 42.048561 0.754813 1.180333 0.006598 0.003794 -23115.200000 0 0 1
-28.796344 -26.735082 14.697609 41.952518 0.748296 1.212863 -0.004133 -0.000202 586796.000000 0 0 1
-29.857494 -27.721872 14.785809 43.342731 0.748325 1.222670 -0.007895 0.000689 832966.000000 0 0 1
-30.490344 -28.190612 13.413809 43.638309 0.746228 1.258351 -0.005467 0.002262 163658.000000 0 0 1
-29.876964 -29.297202 12.822309 43.764948 0.775601 1.273453 -0.005588 -0.002394 107430.000000 0 0 1
-30.552354 -29.544072 11.611509 44.058208 0.768622 1.304097 -0.000950 -0.001085 312843.000000 0 0 1
-29.842814 -30.663832 10.756009 44.119790 0.798966 1.324523 -0.002110 -0.006289 177851.000000 0 0 1
-29.909824 -31.909472 11.382409 45.192602 0.817734 1.316190 0.006175 -0.004488 379214.000000 0 0 1
-29.100494 -32.913252 10.737809 45.226336 0.846803 1.331083 0.011073 -0.002834 120054.000000 0 0 1
-29.251354 -34.283951 11.411209 46.489211 0.864443 1.322803 0.023064 -0.004069 -529937.000000 0 0 1
-30.538284 34.344382 11.219509 47.307513 -0.843992 1.331354 0.026358 0.001224 -643691.000000 0 0 1
-30.651004 32.988522 11.650609 46.513045 -0.822112 1.317620 0.026305 -0.004200 985102.000000 0 0 1
-32.112704 32.530662 12.083309 47.280822 -0.791864 1.312365 0.034303 -0.004443 1559770.000000 0 0 1
-33.125274 32.343072 11.107009 47.610122 -0.773451 1.335336 0.023201 -0.000909 510312.000000 0 0 1
-33.757754 33.552920 10.653709 48.773824 -0.782355 1.350590 0.030376 0.003015 -991582.000000 0 0 1
-35.150189 33.345597 10.115109 49.495253 -0.759058 1.364981 0.030907 0.004070 -877208.000000 0 0 1
-35.330803 32.632042 8.880409 48.907847 -0.745710 1.388209 0.013854 0.009133 -1382980.000000 0 0 1
34.135802 32.631892 8.516109 47.985597 0.762877 1.392379 0.015954 0.008657 -1386330.000000 0 0 1
33.962002 32.127672 7.056709 47.280039 0.757650 1.420983 0.011961 0.004979 -44162.500000 0 0 1
34.229792 30.742792 6.888309 46.521465 0.731781 1.422183 0.017555 0.001607 -426.535000 0 0 1
33.906032 30.231052 5.620009 45.772481 0.728162 1.447704 0.021506 -0.002252 -84346.500000 0 0 1
34.089522 28.715622 5.361809 44.893557 0.700041 1.451077 0.017680 0.000975 -155954.000000 0 0 1
33.238902 27.879242 6.110309 43.811102 0.697928 1.430871 0.017467 0.007790 43219.200000 0 0 1
33.721842 27.500602 7.366909 44.132948 0.684129 1.403086 0.008862 -0.001689 -287644.000000 0 0 1
32.731782 26.464982 7.931209 42.833035 0.679927 1.384556 -0.004792 0.000532 -20637.100000 0 0 1
32.754242 25.271662 7.160209 41.985305 0.657153 1.399418 0.007696 -0.001570 68673.100000 0 0 1
31.798452 24.363102 7.672609 40.786900 0.653771 1.381554 -0.006008 0.004555 -359510.000000 0 0 1
31.858172 22.937052 7.021809 39.879284 0.624006 1.393797 -0.001179 0.006131 102301.000000 0 0 1
32.919792 22.086452 7.396809 40.326627 0.590939 1.386329 -0.004854 0.001862 -229688.000000 0 0 1
34.216742 22.386952 6.938509 41.474136 0.579370 1.402709 0.007614 -0.004753 -719318.000000 0 0 1
35.108972 21.194552 6.825309 41.574437 0.543120 1.405879 -0.001312 -0.005820 -751515.000000 0 0 1
34.971065 20.349752 5.747309 40.867094 0.527006 1.429694 0.011623 -0.006221 182318.000000 0 0 1
-35.120672 19.117752 5.996409 40.433983 -0.498491 1.421946 0.010946 -0.001715 -244278.000000 0 0 1
35.326616 17.958452 4.998609 39.943233 0.470309 1.445325 0.017097 -0.003170 -355693.000000 0 0 1
-34.722407 17.895552 3.784309 39.245603 -0.475883 1.474220 0.013128 -0.001000 100507.000000 0 0 1
-35.262143 16.863052 2.958809 39.198671 -0.446072 1.495242 0.018099 0.001474 -370921.000000 0 0 1
-34.287424 16.281652 1.866409 38.002673 -0.443332 1.521664 0.017483 0.011596 435988.000000 0 0 1
-33.158074 15.508652 2.179609 36.670518 -0.437491 1.511324 0.029805 -0.004589 96261.800000 0 0 1
-32.108454 16.214052 2.794809 36.078515 -0.467622 1.493254 0.028293 -0.003304 -464389.000000 0 0 1
-30.834634 15.394452 3.103309 34.603386 -0.463054 1.480993 0.005642 -0.007169 15760.000000 0 0 1
-31.010794 14.541152 4.174709 34.504241 -0.438465 1.449508 0.027709 -0.012248 669364.000000 0 0 1
-29.734104 14.247352 4.739809 33.310205 -0.446836 1.428019 0.015040 -0.014621 316352.000000 0 0 1
-29.807944 13.307852 5.987709 33.188328 -0.419900 1.389387 0.032384 -0.008025 -69634.900000 0 0 1
-30.213594 11.951252 5.668009 32.982117 -0.376672 1.398088 0.034703 -0.003309 456959.000000 0 0 1
-29.912904 11.173852 6.813609 32.650606 -0.357496 1.360569 0.035718 0.001396 -45727.800000 0 0 1
-30.212064 9.642552 6.579209 32.388788 -0.308943 1.366240 0.034509 -0.007455 -16302.100000 0 0 1
-31.570724 9.351452 6.367309 33.536590 -0.287973 1.379775 0.023021 0.013551 -311557.000000 0 0 1
-31.755084 7.945352 6.324909 33.339443 -0.245174 1.379927 0.033783 -0.004760 -1017510.000000 0 0 1
-33.174414 7.448652 6.305009 34.580013 -0.220867 1.387440 0.029437 0.003043 -864349.000000 0 0 1
-33.910334 7.633252 7.507509 35.560371 -0.221411 1.358076 0.027369 0.018831 201560.000000 0 0 1
-35.000764 6.724352 7.537009 36.429067 -0.189807 1.362396 0.001761 0.011028 -239781.000000 0 0 1
-35.158845 6.001052 8.891909 36.758986 -0.169055 1.326475 0.016773 0.010243 -202645.000000 0 0 1
35.124733 6.837952 9.946909 37.140887 0.192271 1.299671 0.035357 0.010016 52374.000000 0 0 1
-34.721257 7.688352 10.562509 37.097750 -0.217915 1.282081 0.032012 0.011942 -266796.000000 0 0 1
35.376987 8.654552 11.593409 38.220932 0.239926 1.262615 0.030008 0.005134 -163437.000000 0 0 1
34.784242 7.949052 12.691609 37.870937 0.224667 1.229055 0.021789 -0.003135 454985.000000 0 0 1
34.316482 8.884552 13.620009 37.974476 0.253338 1.203962 0.041383 -0.011157 -652300.000000 0 0 1
33.531002 8.365552 14.778809 37.586218 0.244496 1.166690 0.039643 -0.012397 -440152.000000 0 0 1
32.136722 8.158352 14.667809 36.255651 0.248612 1.154292 0.055802 -0.020874 254964.000000 0 0 1
31.672092 7.834452 15.947809 36.315736 0.242494 1.116152 0.046832 -0.016264 367741.000000 0 0 1
30.171862 7.466552 16.090509 34.999931 0.242594 1.093105 0.053651 -0.014655 183880.000000 0 0 1
29.209312 8.505352 16.041209 34.392518 0.283351 1.085562 0.036965 -0.016055 793431.000000 0 0 1
27.848202 8.086052 15.990909 33.115189 0.282591 1.066847 0.037892 -0.016210 862111.000000 0 0 1
27.174882 7.551452 17.316709 33.096330 0.271045 1.020170 0.046420 -0.007565 -410169.000000 0 0 1
27.045592 8.477252 18.386809 33.784650 0.303744 0.995319 0.046520 -0.007812 432489.000000 0 0 1
26.295332 8.020152 19.531009 33.722806 0.296040 0.953094 0.051052 -0.007298 79033.800000 0 0 1
26.898272 6.861552 20.378709 34.436750 0.249766 0.937541 0.051354 -0.011356 -35442.000000 0 0 1
26.338742 6.741252 21.652109 34.756117 0.250565 0.898259 0.046988 -0.008116 -75049.700000 0 0 1
27.008682 5.702652 22.357509 35.522491 0.208085 0.890028 0.046475 -0.009074 -472405.000000 0 0 1
26.637582 5.596052 23.868909 36.202229 0.207070 0.850880 0.047241 -0.005596 -113944.000000 0 0 1
25.292392 5.278952 24.120309 35.346312 0.205763 0.819756 0.044526 -0.008040 -471132.000000 0 0 1
24.452492 6.404052 24.141509 34.953522 0.256145 0.808375 0.036843 -0.007027 -39136.000000 0 0 1
22.937192 6.086652 24.041609 33.781076 0.259384 0.778897 0.032586 -0.012372 386423.000000 0 0 1
22.378092 5.499852 22.904109 32.490392 0.240993 0.788443 0.037491 -0.000580 -575793.000000 0 0 1
20.987292 5.495152 22.945609 31.577905 0.256084 0.757385 0.038527 -0.004954 -1108160.000000 0 0 1
20.267492 4.775252 21.823309 30.163406 0.231391 0.761933 0.030472 -0.004843 762821.000000 0 0 1
18.865492 4.883752 21.529509 29.039242 0.253311 0.735652 0.034039 -0.011202 1036250.000000 0 0 1
17.997192 4.147352 22.329409 28.977611 0.226490 0.691054 0.032259 -0.008662 -378992.000000 0 0 1
16.607292 3.896852 21.717609 27.615976 0.230477 0.665813 0.041819 -0.006335 -554913.000000 0 0 1
16.633792 3.120852 20.586809 26.650318 0.185465 0.688061 0.031877 -0.002299 -302445.000000 0 0 1
15.410692 2.869952 19.962709 25.381801 0.184122 0.665680 0.045038 -0.012414 128771.000000 0 0 1
14.350192 1.927052 20.722109 25.279386 0.133489 0.609868 0.044679 -0.005807 150196.000000 0 0 1
14.637192 0.518052 20.789209 25.430434 0.035378 0.613751 0.021335 -0.009047 -81966.800000 0 0 1
13.669992 -0.131448 21.562809 25.531171 -0.009616 0.565039 0.031837 -0.008043 -342426.000000 0 0 1
14.013492 -1.595848 21.882409 26.033911 -0.113391 0.572527 0.010199 -0.004818 -80565.400000 0 0 1
13.957892 -2.338548 20.709409 25.083285 -0.166001 0.599486 0.037106 -0.002950 8802.750000 0 0 1
13.941292 -3.725148 21.026209 25.501722 -0.261103 0.601476 0.017362 0.014028 -213519.000000 0 0 1
13.787892 -4.578648 19.742909 24.512292 -0.320620 0.634398 0.020198 0.007883 118739.000000 0 1 0
12.464692 -4.653048 19.212109 23.369308 -0.357278 0.605691 0.032995 -0.001285 323810.000000 0 1 0
12.319192 -5.314248 17.977509 22.431998 -0.407262 0.641126 0.040217 -0.003848 126532.000000 0 1 0
10.853592 -5.362348 17.482809 21.265085 -0.458886 0.605642 0.034801 -0.006592 210332.000000 0 1 0
10.033692 -6.149948 18.324409 21.777989 -0.549872 0.570893 0.032242 -0.001061 -734917.000000 0 1 0
8.799192 -6.400448 17.706509 20.782492 -0.628873 0.551019 0.034296 -0.023703 105627.000000 0 1 0
7.773192 -6.967148 18.784209 21.489769 -0.730770 0.507216 0.028960 -0.024227 -60337.600000 0 1 0
7.777192 -8.374048 18.962109 22.139805 -0.822336 0.542402 0.027043 -0.016731 142082.000000 0 1 0
8.949392 -8.892048 19.572009 23.285697 -0.782184 0.572561 0.036759 -0.017825 252806.000000 0 1 0
9.367192 -10.273548 19.041609 23.576958 -0.831512 0.630664 0.055348 -0.026404 136832.000000 0 1 0
9.660292 -10.306248 17.628909 22.590228 -0.817739 0.675527 0.065839 -0.017007 351028.000000 0 1 0
10.125692 -11.668548 17.273609 23.174603 -0.856072 0.729710 0.055812 -0.017735 327857.000000 0 1 0
9.808192 -11.900748 15.840909 22.107981 -0.881493 0.771989 0.044441 -0.018747 159136.000000 0 1 0
10.349192 -13.041548 15.229709 22.563949 -0.899997 0.829889 0.028461 -0.017658 82560.700000 0 1 0
9.872292 -13.177048 13.864009 21.524579 -0.927805 0.870948 0.018342 -0.010629 -22876.300000 0 1 0
10.526092 -14.424548 13.169409 22.187824 -0.940392 0.935343 0.021102 -0.013642 389992.000000 0 1 0
11.878392 -14.362048 12.763509 22.589196 -0.879767 0.970330 0.006355 -0.009376 -26193.000000 0 1 0
12.081392 -13.575148 11.624509 21.572526 -0.843554 1.001717 -0.010708 -0.008811 -400023.000000 0 1 0
13.552292 -13.411848 11.175809 22.100701 -0.780190 1.040630 0.009243 -0.013399 162261.000000 0 1 0
14.159992 -14.435248 10.407009 22.741759 -0.795024 1.095483 0.015819 -0.013068 -87626.200000 0 1 0
15.437592 -13.954548 10.024109 23.098299 -0.734984 1.121895 0.015160 -0.023958 44095.000000 0 1 0
16.291092 -15.003248 9.270309 24.009077 -0.744269 1.174378 0.018685 -0.022687 130650.000000 0 1 0
16.715192 -16.062548 10.180709 25.318964 -0.765490 1.156989 0.021577 -0.018401 306043.000000 0 0 1
15.654292 -16.959648 10.497709 25.355244 -0.825401 1.143925 0.027360 -0.016720 87572.000000 0 0 1
15.873092 -17.762848 11.760609 26.566628 -0.841522 1.112207 0.013749 -0.007662 226826.000000 0 0 1
16.997292 -18.624648 11.605509 27.757401 -0.831051 1.139438 0.030386 -0.010930 142744.000000 0 0 1
17.096392 -19.489148 12.754209 28.892618 -0.850707 1.113599 0.009061 -0.009597 -1040440.000000 0 0 1
18.468892 -20.127548 12.743109 30.143075 -0.828346 1.134314 -0.000388 -0.013179 -988503.000000 0 0 1
19.362992 -19.119148 13.148609 30.221734 -0.779062 1.120679 0.010518 -0.013633 -476171.000000 0 0 1
20.713992 -19.556248 13.064109 31.339867 -0.756657 1.140816 0.000728 -0.016481 267498.000000 0 0 1
21.517692 -18.758048 12.054009 30.986684 -0.716986 1.171244 0.026709 -0.005907 -585646.000000 0 0 1
21.200292 -18.875848 10.641909 30.315017 -0.727462 1.212110 0.023938 0.005249 -360373.000000 0 0 1
19.990392 -18.354048 10.154809 28.975973 -0.742749 1.212738 0.018498 0.001762 -222657.000000 0 0 1
20.026692 -16.810048 9.979009 27.986188 -0.698297 1.206203 0.043142 -0.022221 92984.600000 0 0 1
21.108792 -16.283048 9.231309 28.212335 -0.657049 1.237449 0.032080 -0.011407 85133.600000 0 0 1
20.989392 -14.879848 9.134509 27.302083 -0.616689 1.229645 0.044274 -0.028279 14138.000000 0 0 1
-33.984154 25.345228 7.815609 43.109013 -0.640805 1.388489 0.034175 -0.005162 82311.500000 0 0 1
-33.274954 24.466428 8.733309 42.214918 -0.634014 1.362414 0.035882 -0.014194 1605630.000000 0 0 1
-32.127144 25.303328 9.156009 41.907568 -0.667134 1.350539 0.043617 -0.012416 905230.000000 0 0 1
-31.070304 24.551728 9.990009 40.840561 -0.668736 1.323679 0.045955 -0.023739 -27680.700000 0 0 1
-30.222144 23.732728 9.217709 39.516914 -0.665698 1.335368 0.045826 -0.024855 -109988.000000 0 0 1
-29.579094 22.723128 9.946109 38.602959 -0.655058 1.310206 0.042078 -0.024202 -65260.400000 0 0 1
-28.743244 21.853928 9.008609 37.214557 -0.650070 1.326295 0.045222 -0.026238 29099.700000 0 0 1
-29.637074 21.122328 8.188409 37.303605 -0.619198 1.349487 0.039499 -0.031180 256105.000000 0 0 1
-28.932164 20.309728 7.287909 36.092503 -0.612052 1.367475 0.036118 -0.024710 -198787.000000 0 0 1
-29.771874 19.497228 6.266409 36.135499 -0.579803 1.396501 0.027607 -0.014530 -303880.000000 0 0 1
-30.537594 18.489728 6.884809 36.356778 -0.544435 1.380278 0.026120 -0.010659 273450.000000 0 0 1
-31.460874 17.978828 5.951909 36.721248 -0.519175 1.407995 0.005319 -0.005674 -425879.000000 0 0 1
-32.166584 16.719128 6.386709 36.810439 -0.479336 1.396411 0.020058 0.004323 -247713.000000 0 0 1
-32.928554 16.816228 7.608409 37.748683 -0.472162 1.367852 0.015248 -0.001319 511539.000000 0 0 1
-33.758864 15.683228 7.792409 38.030858 -0.434901 1.364438 0.024159 0.000892 -673106.000000 0 0 1
-34.654816 15.890528 8.953609 39.161617 -0.429931 1.340124 0.021796 -0.004419 -449808.000000 0 0 1
35.244558 17.016528 8.786009 40.111533 0.449804 1.349966 0.018141 -0.004157 283091.000000 0 0 1
34.871895 17.501928 10.037009 40.287816 0.465160 1.319012 0.020628 -0.002730 -321889.000000 0 0 1
34.081042 18.808128 9.892309 40.163676 0.504274 1.321936 0.010132 -0.005664 587664.000000 0 0 1
32.870262 18.660028 9.108409 38.879479 0.516321 1.334326 -0.002178 0.004591 980915.000000 0 0 1
32.042622 19.802328 9.073609 38.745222 0.553549 1.334415 -0.011156 0.002902 799516.000000 0 0 1
30.643152 19.653128 8.381009 37.356251 0.570274 1.344517 -0.017523 -0.000171 500559.000000 0 0 1
29.906822 20.878428 8.319509 37.410439 0.609460 1.346537 -0.024974 0.001847 -741701.000000 0 0 1
28.643022 20.801528 7.765409 36.241245 0.628116 1.354852 -0.025109 0.000683 -658950.000000 0 0 1
28.585132 20.588328 6.257209 35.779068 0.624185 1.395008 -0.043340 0.020610 -879646.000000 0 0 1
28.818682 19.250828 5.890009 35.153990 0.588924 1.402454 -0.028428 0.010704 117256.000000 0 0 1
28.447052 18.872228 4.582809 34.444127 0.585749 1.437350 -0.023131 0.014181 64770.000000 0 0 1
27.012262 19.100328 4.040309 33.328800 0.615474 1.449272 -0.001616 0.019011 -1035350.000000 0 0 1
26.038822 18.206728 4.521909 32.092879 0.610199 1.429425 -0.002563 0.012007 1069970.000000 0 0 1
24.657992 18.545628 4.292409 31.150950 0.644853 1.432563 0.019864 0.008739 1011700.000000 0 0 1
24.143092 19.860128 4.903409 31.644225 0.688371 1.415215 0.034554 0.006491 -1140890.000000 0 0 1
24.577892 20.981528 4.166009 32.583016 0.706624 1.442587 0.016484 0.003027 -56133.000000 0 0 1
24.056192 22.141928 4.705209 33.031868 0.743986 1.427866 0.013253 0.009546 -375274.000000 0 0 1
24.847392 23.421928 4.384509 34.426785 0.755875 1.443092 -0.011025 0.015904 -7767.150000 0 0 1
26.083042 23.486528 5.078509 35.464536 0.733065 1.427103 -0.020856 0.019384 -13313.300000 0 0 1
26.764892 24.669828 4.772209 36.711494 0.744688 1.440435 -0.013687 0.024005 654293.000000 0 0 1
28.212342 24.618428 5.478909 37.842062 0.717476 1.425502 -0.026401 0.022638 1687800.000000 0 0 1
29.096482 23.590128 4.932609 37.781345 0.681265 1.439866 -0.031497 0.018567 604149.000000 0 0 1
29.494802 23.624128 3.580109 37.958661 0.675325 1.476340 -0.027672 0.018270 -223577.000000 0 0 1
30.363802 24.861928 3.123909 39.367940 0.686101 1.491361 -0.020404 0.009218 -183235.000000 0 0 1
29.642592 26.064028 3.143709 39.596713 0.721247 1.491320 -0.026096 0.012696 -205821.000000 0 0 1
30.484952 27.129128 2.731809 40.899690 0.727217 1.503954 0.004053 0.013212 -627673.000000 0 0 1
30.002432 28.509828 3.192009 41.510783 0.759894 1.493824 0.009456 0.013667 665929.000000 0 0 1
28.856562 29.043228 2.513809 41.018648 0.788622 1.509473 0.026951 0.001640 636408.000000 0 0 1
27.650462 28.426628 2.955309 39.766255 0.799238 1.496411 0.012295 0.023225 -619793.000000 0 0 1
26.380772 28.915728 2.246709 39.206022 0.831209 1.513460 -0.013941 0.023498 -126510.000000 0 0 1
26.059292 30.237228 2.679009 40.006921 0.859475 1.503783 -0.016045 0.017005 203751.000000 0 0 1
24.879392 30.778228 2.089409 39.631415 0.890988 1.518051 -0.020412 0.024720 463146.000000 0 0 1
24.567892 32.128328 2.789309 40.541226 0.917966 1.501940 -0.001040 0.009275 -205278.000000 0 0 1
24.349692 32.190228 4.191409 40.579381 0.923192 1.467323 -0.004635 -0.009485 863755.000000 0 0 1
25.556692 32.286728 4.977009 41.477077 0.901227 1.450512 -0.002400 -0.006801 597682.000000 0 0 1
25.283192 32.015728 6.466609 41.304523 0.902360 1.413590 0.011544 -0.018514 115051.000000 0 0 1
24.949392 30.624828 6.688409 40.063538 0.887169 1.403066 0.006878 -0.011314 295006.000000 0 0 1
26.031532 29.729928 6.476709 40.043189 0.851626 1.408340 0.008279 -0.007544 -46514.500000 0 0 1
25.812692 28.288428 6.956009 38.921925 0.831128 1.391114 0.003187 0.000075 640081.000000 0 0 1
24.691292 27.720528 6.244109 37.644076 0.843131 1.404154 0.000856 -0.005235 848079.000000 0 0 1
24.088892 26.543628 6.805609 36.485000 0.833842 1.383166 0.011669 -0.008953 -344913.000000 0 0 1
22.742892 26.089728 6.223609 35.165983 0.853828 1.392881 0.031367 0.002079 -364543.000000 0 0 1
22.518592 25.832228 4.816309 34.606182 0.853824 1.431168 0.013918 -0.002065 136619.000000 0 0 1
22.788092 27.022128 4.017209 35.575701 0.870198 1.457635 0.014069 -0.004581 -385132.000000 0 0 1
22.958892 26.799228 2.462209 35.374734 0.862426 1.501136 0.005490 0.006650 30219.300000 0 0 1
24.190092 26.255928 2.019909 35.757717 0.826327 1.514277 -0.027968 0.030350 253458.000000 0 0 1
24.080192 26.035428 0.638109 35.469795 0.824393 1.552805 -0.017727 0.022794 -1050360.000000 0 0 1
25.317192 25.440428 0.063109 35.891218 0.787826 1.569038 -0.004761 0.019525 -1681850.000000 0 0 1
26.379862 26.355828 -0.165691 37.290136 0.784942 1.575240 -0.001559 0.024868 1326320.000000 0 0 1
27.487172 25.779128 -0.929691 37.695787 0.753343 1.595462 -0.000369 0.029531 976005.000000 0 0 1
28.240172 24.491928 -0.517391 37.384884 0.714437 1.584636 0.000047 0.019629 -1064670.000000 0 0 1
27.568192 23.236628 -0.561391 36.059135 0.700345 1.586366 0.000569 0.012215 -100011.000000 0 0 1
28.127022 22.248828 0.251009 35.863668 0.669237 1.563797 -0.003328 0.008471 -343846.000000 0 0 1
27.068652 21.305428 0.828509 34.457504 0.666818 1.546750 -0.000774 0.011704 57949.400000 0 0 1
26.379982 20.428328 -0.075591 33.365038 0.658927 1.573062 0.016292 -0.007717 680948.000000 0 0 1
25.554892 19.532028 0.665609 32.171348 0.652601 1.550105 0.035153 0.004010 324356.000000 0 0 1
24.597192 18.651928 -0.223491 30.870151 0.648789 1.578036 0.040614 -0.006395 1191550.000000 0 0 1
23.388192 18.174628 0.428209 29.622761 0.660612 1.556340 0.041646 -0.005404 1136040.000000 0 0 1
22.564592 17.472728 -0.492391 28.542941 0.658899 1.588048 0.051800 -0.013405 19588.900000 0 0 1
21.324692 16.794328 0.087109 27.144051 0.667105 1.567587 0.042674 -0.004946 -709048.000000 0 0 1
20.826792 15.767428 -0.857891 26.136240 0.648013 1.603626 0.041549 -0.006869 611750.000000 0 0 1
19.497292 15.397228 -0.522891 24.849395 0.668436 1.591840 0.054466 -0.007604 838489.000000 0 1 0
18.324892 16.359028 -0.940391 24.582591 0.728779 1.609060 0.057063 -0.017172 -323787.000000 0 1 0
18.349792 17.604028 -0.270291 25.430095 0.764659 1.581425 0.049963 -0.009351 246912.000000 0 0 1
17.197992 18.367128 -0.624691 25.169675 0.818259 1.595618 0.044738 -0.013310 421033.000000 0 0 1
17.426292 19.888728 -0.466291 26.447204 0.851293 1.588428 0.047535 -0.007779 45380.200000 0 0 1
17.272092 20.192028 0.887709 26.586297 0.863180 1.537400 0.061636 -0.009647 -75040.900000 0 0 1
17.540892 21.531728 1.295409 27.802451 0.887184 1.524186 0.068699 -0.013483 -44856.400000 0 0 1
16.640192 22.651728 0.673909 28.114959 0.937218 1.546824 0.084076 -0.023893 1060570.000000 0 0 1
15.325592 22.542528 1.258009 27.287761 0.973721 1.524678 0.077340 -0.020329 117404.000000 0 0 1
14.432192 23.489828 0.822709 27.581462 1.019855 1.540964 0.057379 -0.020528 -1041570.000000 0 0 1
13.028292 23.241228 1.322509 26.676583 1.059876 1.521200 0.044000 -0.022755 -735798.000000 0 0 1
12.733492 23.656828 2.696109 27.001043 1.077012 1.470778 0.042010 -0.013207 -606633.000000 0 0 1
11.364492 23.540428 2.915409 26.302149 1.121032 1.459725 0.021723 -0.015209 -407390.000000 0 0 1
11.056492 23.778828 4.401209 26.590399 1.135562 1.404512 0.024759 -0.006382 72709.900000 0 0 1
11.565592 22.783128 5.273009 26.089049 1.101057 1.367278 0.032010 -0.021340 338039.000000 0 0 1
10.867192 22.912828 6.505809 26.180510 1.127932 1.319667 0.013147 -0.002734 -335938.000000 0 0 1
11.268592 21.840228 7.581509 25.718787 1.094466 1.271566 0.022831 -0.011220 992421.000000 0 0 1
12.554492 22.040028 8.199409 26.657239 1.053013 1.258141 0.020225 -0.004821 1452800.000000 0 0 1
13.690792 21.619028 7.435709 26.647888 1.006268 1.288007 0.041486 -0.012660 -315873.000000 0 0 1
15.036992 21.567828 8.122909 27.518430 0.961955 1.271152 0.025256 -0.004157 -737631.000000 0 0 1
15.222292 20.620728 9.184809 27.226702 0.934888 1.226701 0.026049 -0.002529 259.251000 0 0 1
16.483692 20.704228 9.819609 28.227679 0.898407 1.215496 0.029058 -0.005334 120499.000000 0 0 1
16.599292 21.694728 10.949909 29.429547 0.917682 1.189556 0.024529 0.005329 -428479.000000 0 0 1
15.887592 21.237128 12.038709 29.126649 0.928509 1.144696 0.019423 -0.002653 -207282.000000 0 0 1
16.151592 22.097428 13.158009 30.369449 0.939615 1.122684 0.003078 0.009443 113630.000000 0 0 1
17.178992 21.464828 14.150609 30.920807 0.895853 1.095457 0.021976 0.008755 361664.000000 0 0 1
18.511092 21.624628 13.682709 31.583248 0.862818 1.122726 0.025325 0.002781 75702.600000 0 0 1
19.420792 21.265528 14.731509 32.348218 0.830708 1.097970 0.013655 -0.003694 -38047.700000 0 0 1
20.866392 21.659428 14.451309 33.367311 0.804044 1.122870 0.021170 -0.004646 -326084.000000 0 0 1
21.503092 20.970628 13.387109 32.884113 0.772862 1.151520 0.021911 -0.004718 -505754.000000 0 0 1
22.785092 21.499128 13.223509 34.003443 0.756367 1.171373 0.029842 0.001001 -435281.000000 0 0 1
23.592892 21.054528 11.992509 33.819195 0.728606 1.208303 0.028287 0.008366 -41311.200000 0 0 1
23.273892 21.698128 10.778709 33.595586 0.750374 1.244183 0.041019 0.006180 -60354.400000 0 0 1
24.164892 21.322028 9.775409 33.676839 0.722981 1.276286 0.038818 -0.001285 -463952.000000 0 0 1
24.133592 22.418928 8.621309 34.049458 0.748582 1.314810 0.030987 0.003932 212318.000000 0 0 1
24.662192 23.687728 9.083709 35.381435 0.765246 1.311152 0.023116 0.003564 -107289.000000 0 0 1
26.037782 23.861528 8.910209 36.424311 0.741813 1.323666 -0.000612 0.005360 -697626.000000 0 0 1
26.545072 25.063328 9.752909 37.787967 0.756695 1.309746 -0.006368 0.007792 1109380.000000 0 0 1
27.795072 25.688128 9.302509 38.974127 0.746024 1.329786 -0.008277 0.011928 1512780.000000 0 0 1
28.002082 26.836428 10.116909 40.083192 0.764145 1.315639 -0.005671 0.011213 634032.000000 0 0 1
29.188002 27.727328 9.587909 41.384444 0.759740 1.336993 -0.005019 0.007983 570977.000000 0 0 1
28.860122 28.487328 8.460309 41.424767 0.778898 1.365116 -0.000138 0.003141 444925.000000 0 0 1
30.059852 28.717928 7.716209 42.283022 0.762572 1.387278 0.001514 0.003336 116777.000000 0 0 1
29.994462 29.675828 6.541109 42.697876 0.780058 1.416996 0.015941 0.003769 -143774.000000 0 0 1
30.041392 31.033428 6.787209 43.722135 0.801640 1.414931 0.017849 -0.003072 98499.300000 0 0 1
29.695262 31.805828 5.680309 43.882630 0.819702 1.440989 0.029535 -0.004974 10180.000000 0 0 1
29.743702 33.338928 5.866209 45.062005 0.842329 1.440245 0.015704 -0.012950 146051.000000 0 0 1
28.581962 33.789128 6.533409 44.736106 0.868692 1.424229 0.018592 -0.018728 128306.000000 0 0 1
28.631582 -33.935097 6.795609 44.917019 -0.869962 1.418921 0.023057 -0.016805 95580.000000 0 0 1
27.255382 -33.348797 7.201309 43.667573 -0.885606 1.405127 0.045649 -0.024725 -292774.000000 0 0 1
26.309522 -33.556597 6.219809 43.092020 -0.905867 1.425953 0.034194 -0.027744 -1127990.000000 0 0 1
25.064092 -33.086697 6.661509 42.039433 -0.922495 1.411667 0.022457 -0.022762 -403742.000000 0 0 1
23.963992 -33.210197 5.608409 41.335751 -0.945730 1.434697 0.023423 -0.017330 -284934.000000 0 0 1
24.206192 -32.347397 4.523609 40.654112 -0.928372 1.459295 0.002677 -0.008649 -51574.800000 0 0 1
23.284892 -32.591497 3.481709 40.205897 -0.950440 1.484091 0.000486 -0.013364 -380578.000000 0 0 1
23.660592 -31.997797 2.139609 39.852987 -0.934085 1.517083 0.002157 0.004401 -324966.000000 0 0 1
23.648292 -30.600197 2.119209 38.731186 -0.912853 1.516053 0.009971 0.004140 255083.000000 0 0 1
24.561692 -30.037197 1.160609 38.818255 -0.885350 1.540893 0.003398 0.009857 -195473.000000 0 0 1
24.759692 -28.462997 1.394209 37.750872 -0.854868 1.533856 0.009856 0.006035 60443.700000 0 0 1
23.655292 -27.623897 1.111809 36.385280 -0.862636 1.540235 0.012793 0.005027 -152789.000000 0 0 1
23.242792 -27.600197 -0.204091 36.083790 -0.870892 1.576452 0.014993 0.005912 -858506.000000 0 0 1
22.106592 -26.625697 -0.490691 34.610257 -0.877867 1.584974 0.008294 0.007350 -559556.000000 0 0 1
22.343892 -25.206197 -0.345491 33.685623 -0.845521 1.581053 0.007278 0.001353 -237522.000000 0 0 1
22.355592 -24.769397 0.980209 33.380478 -0.836575 1.541427 0.005397 0.008569 551343.000000 0 0 1
21.000892 -24.344497 1.656309 32.193716 -0.859001 1.519325 0.011038 0.007034 642759.000000 0 0 1
21.135692 -23.844097 3.014609 32.005410 -0.845539 1.476466 0.007623 0.010151 281967.000000 0 0 1
19.814792 -23.603297 3.503009 31.016329 -0.872434 1.457614 0.005562 0.016379 493663.000000 0 0 1
19.804392 -22.997897 4.952709 30.751366 -0.859871 1.409035 -0.000901 0.019431 -134562.000000 0 0 1
19.988992 -21.561197 5.095609 29.839743 -0.823219 1.399189 0.013220 0.018947 144527.000000 0 0 1
18.834892 -20.820897 4.757509 28.476250 -0.835437 1.402940 0.008053 0.011865 -211625.000000 0 0 1
19.016392 -19.299697 4.844109 27.523932 -0.792792 1.393879 0.010640 0.005360 16700.200000 0 0 1
19.165392 -18.760597 6.153409 27.516117 -0.774725 1.345260 0.013894 -0.005076 -1046.120000 0 0 1
17.954092 -18.463497 6.825709 26.642831 -0.799385 1.311715 0.006566 0.005967 280462.000000 0 0 1
18.215016 -26.229062 -12.529491 34.303625 -0.963799 1.944701 0.036747 -0.004060 -13340.500000 0 0 1
18.468916 -24.859072 -12.672491 33.461416 -0.931826 1.959209 0.049705 -0.009835 -598200.000000 0 0 1
17.463816 -24.230172 -13.409391 32.739852 -0.946282 1.992783 0.042595 -0.004323 -188536.000000 0 0 1
17.568416 -22.707672 -13.646891 31.788760 -0.912313 2.014513 0.032093 -0.010952 -41272.500000 0 0 1
17.364616 -21.935272 -12.462191 30.626659 -0.901180 1.989861 0.030874 -0.009749 409912.000000 0 0 1
18.515516 -21.725172 -11.598291 30.811163 -0.864991 1.956738 0.035692 -0.019222 39638.500000 0 0 1
18.594416 -22.596972 -10.309891 31.026913 -0.882264 1.909525 0.039542 -0.013771 296674.000000 0 0 1
17.704416 -22.365872 -9.197091 29.971071 -0.901210 1.882694 0.035810 -0.014374 1375580.000000 0 0 1
16.298416 -22.499072 -9.542091 29.375127 -0.943879 1.901634 0.038022 0.002423 896299.000000 0 0 1
15.396716 -21.911572 -8.440891 28.078898 -0.958277 1.876132 0.026656 -0.003757 -968348.000000 0 0 1
15.464016 -20.512072 -8.397891 27.026015 -0.924805 1.886761 0.020782 -0.012696 619993.000000 0 0 1
14.491216 -19.868172 -7.544591 25.722762 -0.940631 1.868477 0.012300 -0.015013 1606660.000000 0 0 1
12.965816 -19.921372 -7.969891 25.069755 -0.993824 1.894319 0.011030 -0.001175 869761.000000 0 0 1
12.486216 -21.271372 -7.814191 25.873509 -1.039993 1.877602 0.008267 0.002132 480845.000000 0 0 1
11.149816 -21.384272 -8.352491 25.521944 -1.090174 1.904206 0.000663 0.007918 1097800.000000 0 0 1
10.382016 -22.703872 -7.991891 26.213020 -1.141905 1.880611 -0.004290 0.011729 110298.000000 0 0 1
10.401216 -22.893572 -6.590591 25.994939 -1.144348 1.827128 0.004913 0.005762 213017.000000 0 0 1
9.858016 -24.138272 -6.172291 26.794288 -1.183072 1.803242 0.000943 0.003704 335812.000000 0 0 1
10.478316 -24.614972 -4.819191 27.183020 -1.168342 1.749025 0.016951 -0.001198 219292.000000 0 0 1
9.692316 -25.697152 -4.292491 27.797664 -1.210120 1.725836 0.029963 -0.001860 353698.000000 0 0 1
10.250716 -26.275322 -3.118291 28.375931 -1.198830 1.680911 0.024548 -0.000052 409315.000000 0 0 1
9.157216 -27.223362 -2.517491 28.832340 -1.246312 1.658222 0.024126 0.000660 375005.000000 0 0 1
8.171316 -26.517432 -1.830691 27.808201 -1.271880 1.636677 0.017909 0.001373 -754037.000000 0 0 1
7.472816 -27.420432 -1.005291 28.438244 -1.304730 1.606154 0.017017 -0.001813 -242567.000000 0 0 1
6.896116 -26.726132 0.204909 27.602256 -1.318275 1.563373 0.025822 -0.002371 93969.100000 0 0 1
5.798516 -25.864502 -0.086391 26.506654 -1.350255 1.574056 0.030920 -0.010534 -84298.300000 0 0 1
5.306516 -25.277402 1.099409 25.851787 -1.363870 1.528256 0.027693 -0.008626 -18045.800000 0 0 1
3.830216 -24.846572 0.928409 25.157199 -1.417846 1.533884 0.022839 -0.009524 -98239.300000 0 0 1
2.939616 -25.897532 0.783109 26.075597 -1.457771 1.540760 0.017999 -0.010917 -1909510.000000 0 0 1
1.649516 -25.472742 0.839409 25.539893 -1.506130 1.537924 0.018466 -0.009216 -1696420.000000 0 0 1
0.629216 -26.535692 0.411709 26.546344 -1.547089 1.555287 0.018239 -0.004037 -181220.000000 0 0 1
0.400216 -27.524072 1.409309 27.563035 -1.556257 1.519644 0.017283 -0.003051 -79166.000000 0 0 1
0.753716 -28.821062 0.964409 28.847042 -1.544651 1.537358 0.010309 -0.006423 -244866.000000 0 0 1
0.211316 -29.957962 1.908409 30.019430 -1.563743 1.507181 0.022085 -0.003462 238170.000000 0 0 1
0.698316 -29.923632 3.219509 30.104429 -1.547464 1.463647 0.010755 -0.001054 -91687.400000 0 0 1
0.018216 -30.896372 3.951009 31.147979 -1.570207 1.443607 0.011478 -0.001824 -268681.000000 0 0 1
0.286016 -30.833122 5.471909 31.316210 -1.561520 1.395164 0.006885 -0.001470 26958.700000 0 0 1
1.667916 -30.831602 5.809409 31.418448 -1.516751 1.384822 0.007304 0.000938 168965.000000 0 0 1
1.878716 -31.086312 7.211809 31.967148 -1.510434 1.343237 0.008363 0.001921 790595.000000 0 0 1
3.330316 -31.537682 7.592609 32.609264 -1.465588 1.335804 0.004577 0.001343 808747.000000 0 0 1
3.412916 -32.887682 7.216609 33.842681 -1.467392 1.355906 0.004217 -0.003298 -15954.900000 0 0 1
4.672816 -33.470492 7.493609 34.615939 -1.432083 1.352590 0.006168 -0.000452 107546.000000 0 0 1
4.811716 34.142728 7.262009 35.236562 1.430789 1.363216 0.000294 0.003405 -187249.000000 0 0 1
4.794116 33.890134 5.851209 34.724075 1.430268 1.401483 0.004246 -0.000903 49061.000000 0 0 1
4.772316 32.492692 5.598709 33.315095 1.424965 1.401942 -0.000845 -0.000165 -466778.000000 0 0 1
4.940016 32.067872 4.122709 32.707016 1.417949 1.444410 0.010071 0.002433 -879989.000000 0 0 1
6.233816 32.061652 3.653409 32.865748 1.378760 1.459405 0.012193 0.000407 -997663.000000 0 0 1
6.986016 30.907662 3.958609 31.933659 1.348503 1.446513 0.005920 -0.001887 -359780.000000 0 0 1
8.437616 30.909122 3.442109 32.224452 1.304308 1.463775 0.000600 -0.007678 266326.000000 0 0 1
9.288816 31.850052 4.139009 33.434104 1.287025 1.446682 0.002153 -0.008574 -303574.000000 0 0 1
10.568116 31.860582 3.569609 33.756834 1.250518 1.464853 0.009593 -0.012728 116063.000000 0 0 1
11.615716 32.387932 4.627409 34.717660 1.226442 1.437112 0.014536 -0.021387 60605.800000 0 0 1
12.003716 31.511902 5.633409 34.188075 1.206840 1.405264 0.024085 -0.015121 -304517.000000 0 0 1
13.176816 31.967722 6.256609 35.138425 1.179825 1.391786 0.039239 -0.018219 -353728.000000 0 0 1
13.813116 30.832532 7.063009 34.515696 1.149603 1.364709 0.035774 -0.017778 -10177.600000 0 0 1
13.179416 30.555952 8.294109 34.295123 1.163584 1.326529 0.020673 -0.003317 142455.000000 0 0 1
14.016016 29.592932 8.906909 33.934103 1.128469 1.305208 0.015807 -0.004672 442255.000000 0 0 1
13.803516 29.497392 10.482509 34.212807 1.133110 1.259397 -0.001843 0.016837 -54290.800000 0 0 1
14.372816 30.597532 11.095509 35.579448 1.131650 1.253655 0.011243 0.013281 -7475.150000 0 0 1
13.869016 30.666752 12.412609 35.873000 1.146073 1.217476 0.008769 0.018274 -89795.900000 0 0 1
14.637416 31.674242 13.304409 37.343257 1.137906 1.206520 0.003629 0.018088 388957.000000 0 0 1
15.760316 31.178402 14.015909 37.642078 1.102768 1.189260 -0.007478 0.021326 101389.000000 0 0 1
16.408216 32.193612 14.742609 39.025668 1.099440 1.183413 0.003918 0.013983 81111.700000 0 0 1
17.565516 31.645842 15.632209 39.425533 1.064072 1.163096 -0.000257 0.011669 808163.000000 0 0 1
18.745416 31.220202 14.927109 39.356197 1.030064 1.181776 0.002785 0.008590 508878.000000 0 0 1
19.007316 29.892112 15.256909 38.569284 1.004423 1.164106 -0.008943 0.010127 382936.000000 0 0 1
20.443816 29.381582 14.949009 38.790461 0.962892 1.175178 0.001273 0.001065 1449090.000000 0 0 1
21.564016 30.038272 15.604509 40.134839 0.948168 1.171465 0.013403 0.004396 1834870.000000 0 0 1
22.840116 29.655592 15.045209 40.342079 0.914505 1.188620 0.018392 -0.001689 932350.000000 0 0 1
23.982316 29.546512 16.070709 41.308783 0.888974 1.171209 0.035726 -0.012939 -183780.000000 0 0 1
23.924516 28.364562 16.850309 40.753696 0.870108 1.144538 0.027445 -0.004357 -340473.000000 0 0 1
24.782916 28.480742 17.943009 41.800684 0.854712 1.127132 0.023095 -0.010091 -643727.000000 0 0 1
25.689016 27.255402 18.138909 41.614931 0.814975 1.119786 0.006128 -0.003286 -468910.000000 0 0 1
25.133316 25.997082 18.472409 40.604947 0.802290 1.098503 0.006744 0.001930 -70216.900000 0 0 1
24.723216 25.824902 19.835009 40.885090 0.807190 1.064273 0.014306 -0.001764 -229739.000000 0 0 1
24.327016 24.377172 20.067109 39.858990 0.786428 1.043206 0.028469 -0.003749 27920.900000 0 0 1
25.393016 23.432352 20.179909 40.013861 0.745263 1.042199 0.022210 -0.005597 -205868.000000 0 0 1
24.930616 22.247852 20.631109 39.270156 0.728595 1.017654 0.029364 -0.008058 -1086720.000000 0 0 1
25.961916 21.174652 20.778609 39.422551 0.684184 1.015642 0.010133 -0.007591 -960671.000000 0 0 1
25.377216 19.892152 20.786609 38.363836 0.664821 0.998186 0.001879 0.001543 -166491.000000 0 0 1
26.246016 18.780652 20.870409 38.433582 0.621094 0.996761 0.011909 -0.003217 -72310.100000 0 0 1
26.685516 18.577152 22.375309 39.470011 0.608138 0.968066 0.025103 0.002048 453586.000000 0 0 1
25.646416 17.984752 23.186309 38.971719 0.611570 0.933590 0.008690 0.009278 672080.000000 0 0 1
26.075516 17.598152 24.461009 39.849322 0.593675 0.909884 0.028576 0.008546 -86603.000000 0 0 1
24.899216 16.951252 25.226709 39.289983 0.597720 0.873608 0.030205 0.010972 20928.600000 0 0 1
24.742616 15.642052 24.750209 38.333323 0.563753 0.868912 0.020932 0.008071 525397.000000 0 0 1
23.612916 15.069852 25.403809 37.815655 0.568038 0.834187 0.018590 0.009228 170019.000000 0 0 1
23.108416 13.723752 24.832909 36.592535 0.535911 0.824896 0.018814 0.004019 -711270.000000 0 0 1
21.945916 13.305952 25.454209 36.146761 0.545044 0.789514 0.006149 0.005610 -675739.000000 0 0 1
21.372116 12.294552 24.668609 34.877839 0.522031 0.785145 0.015582 0.002393 327441.000000 0 0 1
19.984016 11.785552 25.202709 34.255462 0.532848 0.744055 0.019165 -0.004496 906581.000000 0 0 1
18.952116 12.776352 25.104009 33.950392 0.593158 0.738570 0.026753 -0.007310 -118222.000000 0 0 1
17.714816 12.158952 25.268909 33.168850 0.601521 0.704668 0.024427 -0.008493 -233250.000000 0 0 1
16.484616 13.105652 25.400809 32.995481 0.671699 0.692226 0.027244 -0.015417 115184.000000 0 0 1
16.333416 13.459652 26.738509 34.101181 0.689238 0.669562 0.037377 -0.018074 -669292.000000 0 0 1
15.240316 14.262652 26.905909 34.053170 0.752272 0.659800 0.049086 -0.024809 -988928.000000 0 0 1
14.869316 14.584052 28.361709 35.187749 0.775713 0.633415 0.048914 -0.013747 -66026.500000 0 0 1
14.531116 13.417452 29.113009 35.195861 0.745572 0.596741 0.033836 -0.011120 -105535.000000 0 0 1
14.790316 13.576852 30.486809 36.503834 0.742647 0.582359 0.024496 -0.004747 -84049.900000 0 0 1
16.243816 13.300052 30.932109 37.383797 0.686086 0.596298 0.023902 0.004438 51885.200000 0 0 1
17.111816 14.368652 30.539209 37.840662 0.698479 0.631662 0.035749 -0.002898 -857739.000000 0 0 1
18.430716 13.960052 30.548609 38.311772 0.648242 0.647874 0.020794 0.008471 -1184190.000000 0 0 1
19.392416 15.121652 30.295309 39.019686 0.662284 0.681846 0.021220 0.006918 -485642.000000 0 0 1
19.205216 15.762352 29.022209 38.204459 0.687256 0.708014 0.024854 0.004186 418123.000000 0 0 1
19.688916 14.998452 27.905709 37.300611 0.650992 0.725557 0.024188 0.002277 -381445.000000 0 0 1
19.501716 15.717852 26.510609 36.471635 0.678372 0.757024 0.025222 -0.002349 275340.000000 0 0 1
20.395716 16.839752 26.367509 37.347129 0.690188 0.786946 0.025035 0.004763 522170.000000 0 0 1
20.269116 17.292652 25.092509 36.599274 0.706322 0.815367 0.021338 0.000654 668907.000000 0 0 1
21.522716 18.124852 24.546009 37.339578 0.699905 0.853470 0.026515 0.001936 370935.000000 0 0 1
21.408716 18.353852 23.144309 36.480900 0.708721 0.883535 0.027291 -0.007888 17268.800000 0 0 1
22.498616 19.038952 22.562709 37.117991 0.702300 0.917428 0.027561 -0.004761 -105126.000000 0 0 1
22.837816 20.467652 23.064609 38.372735 0.730721 0.925960 0.039926 -0.012430 -442504.000000 0 0 1
21.933416 21.467552 22.647509 38.142367 0.774665 0.935069 0.030229 -0.008573 115814.000000 0 0 1
22.296316 22.738552 23.154409 39.373774 0.795218 0.942130 0.044023 -0.007756 -690253.000000 0 0 1
21.374416 23.861852 22.791309 39.315358 0.840330 0.952430 0.032175 -0.014520 -601174.000000 0 0 1
21.396416 24.341002 21.450309 38.863952 0.849690 0.986115 0.043440 -0.014324 380748.000000 0 0 1
20.636616 25.574872 21.380609 39.205541 0.891856 0.993994 0.044042 -0.013958 -251379.000000 0 0 1
20.978616 26.564372 20.239409 39.438583 0.902351 1.031901 0.042339 -0.013281 -418115.000000 0 0 1
20.692116 26.128762 18.963209 38.346827 0.900996 1.053516 0.032630 -0.008002 -30083.800000 0 0 1
21.116016 26.976682 17.961409 38.681258 0.906662 1.087903 0.027750 -0.016635 -548595.000000 0 0 1
21.088616 26.346482 16.538409 37.581722 0.895791 1.115125 0.008955 0.000429 61083.100000 0 0 1
19.763016 26.079052 16.101209 36.468379 0.922314 1.113514 0.006608 0.008125 135444.000000 0 0 1
19.823716 25.583032 14.808309 35.591534 0.911563 1.141685 0.010394 0.015257 315002.000000 0 0 1
18.405616 25.211252 14.249809 34.313714 0.940182 1.142545 0.002358 0.020311 363879.000000 0 0 1
17.617816 26.314112 13.869509 34.571422 0.980821 1.157987 -0.010880 0.030683 -336380.000000 0 0 1
16.742516 26.688422 14.918309 34.858853 1.010521 1.128558 -0.001328 0.029950 -14542.900000 0 0 1
15.280616 26.254012 14.553509 33.683453 1.043695 1.124013 -0.002620 0.019253 -197533.000000 0 0 1
14.916216 24.859482 14.637509 32.476823 1.030361 1.103240 -0.007867 0.027072 55175.000000 0 0 1
14.896616 24.186332 15.930109 32.567717 1.018760 1.059695 -0.011033 0.032498 195992.000000 0 0 1
13.933616 24.796672 17.046709 33.160381 1.058852 1.030875 0.013175 0.022485 384931.000000 0 0 1
14.379616 26.009142 17.522209 34.500386 1.065754 1.038069 -0.001395 0.016782 443570.000000 0 0 1
13.335916 26.573572 18.325509 34.926003 1.105671 1.018439 0.002486 0.003495 276355.000000 0 0 1
13.672416 27.907502 18.938309 36.392625 1.115246 1.023490 0.016481 -0.004466 -392780.000000 0 0 1
13.686816 29.021562 18.007909 36.794902 1.130119 1.059380 0.017941 -0.002140 89444.400000 0 0 1
14.322716 30.161712 18.525309 38.184501 1.127459 1.064259 0.016835 -0.001921 -144604.000000 0 0 1
14.203116 31.411422 17.637109 38.723036 1.146144 1.097898 0.007558 0.000425 555237.000000 0 0 1
12.854916 31.913442 17.631909 38.660068 1.187874 1.097216 0.002477 0.007813 817849.000000 0 0 1
12.768916 33.183058 16.959609 39.392752 1.203460 1.125721 0.002054 0.007645 -663385.000000 0 0 1
11.532916 34.030343 17.241609 39.854052 1.244043 1.123401 0.009079 0.001513 -529220.000000 0 0 1
11.473216 -33.796812 16.531709 39.333912 -1.243527 1.137030 0.009718 0.002866 146655.000000 0 0 1
12.249816 -32.686722 17.061609 38.853292 -1.212232 1.116167 0.010180 -0.004184 293776.000000 0 0 1
12.082916 -32.287012 18.565009 39.154918 -1.212697 1.076807 0.012654 -0.009484 -273751.000000 0 0 1
12.697116 -33.279722 19.326109 40.524747 -1.206316 1.073676 0.024391 -0.003766 27015.600000 0 0 1
12.475516 -33.083572 20.688009 40.965290 -1.210194 1.041399 0.018395 -0.001396 -108025.000000 0 0 1
13.560016 -33.821342 21.495609 42.306246 -1.189488 1.037824 0.042858 -0.004561 935007.000000 0 0 1
14.888616 -33.292702 21.330009 42.249783 -1.150270 1.041582 0.047926 -0.004701 292293.000000 0 0 1
15.745616 -33.679372 22.366909 43.387823 -1.133473 1.029192 0.051039 -0.001109 274766.000000 0 0 1
17.007616 -32.771152 22.295009 43.130904 -1.092079 1.027553 0.061233 -0.004370 420819.000000 0 0 1
16.654416 -31.423692 22.635109 42.156449 -1.083441 1.004001 0.069327 -0.001715 120183.000000 0 0 1
17.743516 -30.592162 22.320509 41.820065 -1.045211 1.007794 0.054659 -0.004267 11146.800000 0 0 1
-4.526484 13.444528 18.071383 22.974318 -1.246038 0.665528 -0.006747 0.021370 -623759.000000 0 1 0
-4.167184 14.739928 17.715983 23.419798 -1.295273 0.712923 -0.004021 0.018902 63046.500000 0 1 0
-5.305984 15.580428 17.704683 24.173518 -1.242561 0.748956 0.001597 0.015280 89856.400000 0 1 0
-4.928384 17.089628 17.627483 25.041416 -1.290030 0.789876 0.005690 0.018001 -7965.150000 0 0 1
-4.491984 17.584828 18.876083 26.186076 -1.320698 0.765777 -0.000877 0.018728 122866.000000 0 0 1
-4.102884 18.904728 18.715683 26.916522 -1.357081 0.801927 -0.005152 0.008406 -295447.000000 0 0 1
-3.672084 19.692928 19.971183 28.286812 -1.386446 0.786928 0.001822 0.004206 -47879.600000 0 0 1
-4.667484 19.783428 20.959983 29.197437 -1.339104 0.770057 0.006588 0.003629 -185036.000000 0 0 1
-4.174884 20.489628 22.031883 30.375292 -1.369792 0.759294 0.008208 0.004529 33274.500000 0 0 1
-5.276484 20.888528 23.058283 31.557191 -1.323370 0.751475 0.002251 0.003546 380822.000000 0 0 1
-5.873584 19.782628 23.750683 31.463412 -1.282180 0.715345 0.002263 -0.003167 -231643.000000 0 0 1
-6.465084 20.115528 24.959253 32.701622 -1.259826 0.702480 -0.011846 -0.007074 -280542.000000 0 0 1
-5.542284 20.359928 26.181973 33.626467 -1.305021 0.678345 -0.019582 -0.004229 -292207.000000 0 0 1
-5.100884 21.715228 26.016603 34.270013 -1.340080 0.708767 -0.011846 -0.003319 509972.000000 0 0 1
-3.989884 22.104228 26.847043 35.003997 -1.392216 0.696689 -0.016936 0.001259 695392.000000 0 0 1
-2.576584 21.779928 26.307523 34.250399 -1.453043 0.694937 -0.004665 0.011307 -196639.000000 0 0 1
-2.011484 20.572228 26.778243 33.828049 -1.473329 0.657375 0.001372 0.017047 49805.100000 0 0 1
-0.873284 20.280028 25.989563 32.977258 -1.527762 0.663071 0.006328 0.019085 -85199.200000 0 0 1
-0.109984 19.001428 26.445003 32.563853 -1.565008 0.623060 0.009685 0.028139 -480352.000000 0 0 1
-0.771584 17.783328 26.097993 31.590304 -1.527435 0.598575 0.009960 0.019668 -56671.800000 0 0 1
-0.290584 16.547928 26.682833 31.398916 -1.553238 0.555189 0.002289 0.021093 825715.000000 0 0 1
1.140516 16.090428 26.185623 30.755316 1.500033 0.552114 -0.002453 0.022122 648141.000000 0 0 1
1.277916 15.770928 24.792023 29.410876 1.489943 0.568045 -0.000212 0.027310 -238132.000000 0 0 1
0.869716 14.458228 24.476673 28.441242 1.510715 0.534340 0.003428 0.023774 -309787.000000 0 0 1
1.035616 14.179728 22.918683 26.970414 1.497891 0.555245 -0.002022 0.019330 1047300.000000 0 0 1
2.410616 14.191128 22.469783 26.685021 1.402535 0.569747 0.003177 0.009166 848177.000000 0 0 1
2.602016 13.414128 21.293783 25.300879 1.379200 0.570516 -0.000489 0.006560 -495720.000000 0 0 1
4.068916 13.499028 20.902283 25.212799 1.278035 0.593417 0.000304 0.002024 -421175.000000 0 0 1
4.350616 14.629128 20.132383 25.263651 1.281732 0.648665 -0.006602 0.001956 165693.000000 0 0 1
5.743716 14.815428 19.908083 25.471924 1.200951 0.673618 0.005116 0.000058 382340.000000 0 0 1
6.240016 16.001428 19.010883 25.620249 1.198970 0.734709 0.016921 -0.009148 -7116.330000 0 0 1
5.822716 15.722428 17.705083 24.383780 1.216113 0.758162 0.009421 -0.015181 152736.000000 0 1 0
6.255916 16.699728 16.807183 24.505077 1.212366 0.815004 0.012794 -0.014425 -219961.000000 0 1 0
6.368316 16.207028 15.323183 23.195326 1.196395 0.849158 0.015680 -0.017623 -695638.000000 0 1 0
7.500416 15.517228 14.956383 22.819597 1.120549 0.856060 0.017381 -0.014875 -623695.000000 0 1 0
7.643616 14.221728 15.534583 22.405483 1.077631 0.804685 0.017097 -0.015740 -467820.000000 0 1 0
8.775816 13.472828 14.837783 21.879027 0.993458 0.825522 0.027271 -0.021626 165520.000000 0 1 0
10.078316 13.967228 15.136183 22.929456 0.945741 0.849818 0.039777 -0.026055 619214.000000 0 1 0
11.062816 13.226528 14.392983 22.460741 0.874244 0.875248 0.043636 -0.018833 1437990.000000 0 1 0
12.533716 13.791428 14.512383 23.620050 0.833138 0.909159 0.044655 -0.008468 302681.000000 0 1 0
13.239416 13.479528 15.725083 24.581661 0.794384 0.876678 0.033122 -0.012706 467165.000000 0 1 0
14.519416 14.082728 15.763683 25.644305 0.770132 0.908784 0.037879 -0.017024 824837.000000 0 0 1
15.643816 13.498828 14.817283 25.426349 0.711928 0.948684 0.047991 -0.014946 82522.500000 0 0 1
16.965116 13.970228 15.075383 26.650508 0.688888 0.969551 0.038033 -0.020533 513027.000000 0 0 1
17.849216 13.291828 14.218983 26.409216 0.640083 1.002247 0.026701 -0.009049 -614600.000000 0 0 1
19.257816 13.876928 14.151283 27.634967 0.624409 1.033193 0.013115 -0.006069 -315499.000000 0 0 1
19.979316 13.578828 15.318783 28.604593 0.596933 1.005654 0.015848 -0.002637 -481858.000000 0 0 1
21.342916 13.877628 15.202883 29.651918 0.576531 1.032456 -0.013247 0.003276 -307382.000000 0 0 1
22.155016 13.357228 16.416583 30.639263 0.542548 1.005339 -0.007266 0.007063 -123456.000000 0 0 1
22.228016 11.961828 16.392983 30.098171 0.493694 0.994824 0.010028 0.001338 189903.000000 0 0 1
22.905316 11.606728 17.559083 31.107732 0.469014 0.971017 0.008138 0.004212 -226894.000000 0 0 1
22.985516 10.058028 17.618583 30.657990 0.412479 0.958581 0.019060 0.003711 -665174.000000 0 0 1
21.839516 9.570928 18.206383 30.000658 0.413031 0.918685 0.019650 0.001936 -515023.000000 0 0 1
21.810716 8.155928 18.078783 29.479974 0.357842 0.910620 0.024073 0.005258 778351.000000 0 0 1
20.491316 7.478228 18.625883 28.683470 0.349927 0.864054 0.031903 0.000785 668867.000000 0 0 1
20.367916 6.166328 18.198183 28.000883 0.293975 0.863324 0.039767 -0.008516 1183320.000000 0 0 1
19.099516 5.549928 18.535783 27.187653 0.282792 0.820614 0.035284 -0.008617 747770.000000 0 0 1
19.055616 4.105228 17.999283 26.531935 0.212191 0.825213 0.037720 -0.000277 -699194.000000 0 0 1
18.490316 4.021428 16.718983 25.250506 0.214153 0.847146 0.028111 -0.007369 344246.000000 0 0 1
18.374416 2.698228 16.205983 24.648194 0.145805 0.853311 0.028253 -0.012651 417784.000000 0 1 0
17.486616 1.609328 16.944383 24.402536 0.091773 0.803253 0.024144 -0.003547 316240.000000 0 1 0
18.178816 1.142928 18.077783 25.662850 0.062789 0.789171 0.027400 -0.006861 485634.000000 0 0 1
17.271316 0.273828 18.742683 25.488458 0.015853 0.744628 0.032412 -0.008009 -115064.000000 0 0 1
17.797116 -0.587172 19.953583 26.743739 -0.032981 0.728606 0.021295 -0.005652 31560.000000 0 0 1
18.404616 -1.800172 19.510383 26.881695 -0.097501 0.758619 0.017526 0.003610 516822.000000 0 0 1
17.442716 -2.862172 19.633183 26.417839 -0.162640 0.732987 0.007938 0.000334 546522.000000 0 0 1
17.861316 -4.107672 18.858383 26.297114 -0.226046 0.771124 -0.002145 0.010344 -6736.090000 0 0 1
17.362916 -3.955772 17.562583 25.011264 -0.224005 0.792332 0.000516 0.003220 196270.000000 0 0 1
17.375516 -5.150572 16.791083 24.705817 -0.288176 0.823523 0.015570 -0.003163 -279985.000000 0 1 0
16.861516 -4.889272 15.327883 23.305787 -0.282226 0.853054 0.012238 -0.013741 672227.000000 0 1 0
15.513816 -4.398672 15.166083 22.136776 -0.276281 0.816044 0.013902 -0.018279 983054.000000 0 1 0
15.081216 -4.381372 13.825983 20.923606 -0.282736 0.848934 0.015540 -0.019556 83532.400000 0 1 0
15.503216 -3.040672 13.107383 20.528002 -0.193673 0.878233 0.017888 -0.015057 -7469.040000 0 1 0
14.826716 -1.920272 13.622283 20.225863 -0.128797 0.831852 0.018075 -0.001282 278110.000000 0 1 0
15.369616 -0.712472 13.075483 20.191606 -0.046323 0.866405 0.017234 -0.002872 518072.000000 0 1 0
14.364016 0.489128 13.266083 19.558966 0.034039 0.825403 0.019570 0.005615 -263349.000000 0 1 0
14.637416 1.804128 12.770483 19.508820 0.122636 0.857142 0.016674 0.003050 -421002.000000 0 1 0
15.566716 2.453728 13.600583 20.816322 0.156340 0.858780 0.021672 0.000103 -143779.000000 0 1 0
15.887616 3.852628 13.044783 20.914718 0.237900 0.897312 0.018065 -0.001463 177270.000000 0 1 0
14.740716 4.700128 13.156683 20.309560 0.308663 0.866094 0.006865 -0.001470 984976.000000 0 1 0
14.943016 5.810028 12.299883 20.207357 0.370825 0.916396 0.013576 -0.008116 528931.000000 0 1 0
13.879616 6.907628 12.614683 19.987228 0.461791 0.887778 0.012441 -0.005048 441170.000000 0 1 0
14.339916 8.143228 12.079983 20.441901 0.516460 0.938570 0.012511 -0.009619 416755.000000 0 1 0
13.398616 9.179228 12.301783 20.374371 0.600647 0.922553 0.012537 0.000495 -266817.000000 0 1 0
13.525716 9.855928 13.713483 21.636634 0.629717 0.884329 0.026750 -0.007380 25740.800000 0 1 0
12.908516 9.203928 14.801783 21.689510 0.619406 0.819701 0.015160 -0.006233 418659.000000 0 1 0
13.419116 9.756828 16.016583 23.060774 0.628673 0.803019 0.032099 -0.011990 -336332.000000 0 1 0
12.831516 9.178928 17.298183 23.412126 0.620949 0.739426 0.028381 -0.019205 -208070.000000 0 1 0
11.572116 9.747028 17.611983 23.218535 0.699998 0.709740 0.011941 -0.013573 -127439.000000 0 1 0
10.937916 9.107428 18.742483 23.534313 0.694333 0.649494 0.019637 0.000421 167802.000000 0 1 0
11.419216 9.335528 20.233283 25.038696 0.685338 0.629910 0.038127 -0.007922 -1101140.000000 0 0 1
12.704616 8.858228 20.400183 25.613335 0.608874 0.649366 0.043934 -0.015018 -974896.000000 0 0 1
13.219316 9.304728 21.646883 27.016954 0.613321 0.641443 0.039272 -0.005680 1192400.000000 0 0 1
14.786916 9.058928 21.743483 27.811798 0.549655 0.673236 0.040542 -0.013327 1372130.000000 0 0 1
15.462116 9.942328 20.876583 27.816517 0.571447 0.721962 0.036247 -0.008174 -45692.500000 0 0 1
16.295816 9.324128 19.891383 27.352515 0.519712 0.756529 0.034293 -0.011382 435612.000000 0 0 1
17.259216 10.344928 19.234083 27.836092 0.539968 0.807957 0.034271 -0.011318 -304253.000000 0 0 1
18.267816 10.920128 19.994583 29.201809 0.538785 0.816599 0.034975 -0.008549 -192249.000000 0 0 1
19.043216 11.790328 19.197583 29.499205 0.554371 0.862181 0.025427 -0.003338 28554.500000 0 0 1
19.975916 12.606028 20.135583 31.038538 0.562946 0.864884 0.025344 -0.004604 -373718.000000 0 0 1
19.325916 13.626728 20.915883 31.569810 0.614141 0.846608 0.018737 -0.005957 101196.000000 0 0 1
20.050916 14.300228 21.928983 32.975992 0.619527 0.843305 0.019371 0.000097 20391.800000 0 0 1
21.254316 15.224028 21.523183 33.863910 0.621568 0.882038 0.007953 -0.000145 1073040.000000 0 0 1
22.422816 14.483628 21.156383 34.060985 0.573511 0.900609 -0.008172 0.006797 -190519.000000 0 0 1
23.616216 15.184528 21.302583 35.243376 0.571418 0.921731 -0.010646 0.010018 -731538.000000 0 0 1
24.790716 14.229628 21.369783 35.689347 0.521075 0.928829 -0.017102 0.009884 -694903.000000 0 0 1
25.095616 13.652928 20.106283 34.935011 0.498253 0.957539 -0.017190 0.005769 382156.000000 0 0 1
26.220116 12.774528 20.164983 35.458561 0.453358 0.965882 -0.007053 -0.001571 364165.000000 0 0 1
26.622116 12.106528 18.862583 34.800892 0.426801 0.997964 0.009154 -0.004029 -114724.000000 0 0 1
27.300516 12.973228 17.964883 35.161909 0.443612 1.034543 0.004454 -0.006042 296960.000000 0 0 1
27.804816 12.192428 16.845583 34.720840 0.413250 1.064236 0.023138 -0.016827 557276.000000 0 0 1
26.784716 11.761128 15.699683 33.199777 0.413751 1.078234 0.020395 -0.012635 520355.000000 0 0 1
26.306616 12.787928 14.878583 32.816785 0.452475 1.100239 0.013473 -0.007929 270150.000000 0 0 1
25.125216 12.424728 14.190983 31.417102 0.459248 1.102131 0.018083 -0.008303 136242.000000 0 0 1
24.735616 13.412928 13.045883 31.015357 0.496875 1.136660 -0.000999 -0.007623 -70785.200000 0 0 1
24.285216 14.741728 13.339583 31.385263 0.545569 1.131805 -0.007001 -0.001858 288120.000000 0 0 1
23.731016 15.393728 12.192283 30.802268 0.575444 1.163831 -0.016908 0.001870 -41531.500000 0 0 1
22.990616 16.643228 12.695383 31.092414 0.626596 1.150193 -0.012222 0.004081 -333600.000000 0 0 1
21.696316 16.370228 13.235383 30.230611 0.646385 1.117631 0.005848 -0.003798 403195.000000 0 0 1
20.963216 17.545928 13.488783 30.483820 0.696890 1.112423 0.017563 -0.004934 -718027.000000 0 0 1
20.429016 18.333928 12.281583 30.071829 0.731402 1.150087 0.018450 -0.000583 -137509.000000 0 0 1
19.311316 17.764628 11.546783 28.667702 0.743706 1.156244 0.028051 -0.003771 1341830.000000 0 0 1
18.097416 17.955128 12.283183 28.298050 0.781451 1.121797 0.033877 -0.006247 -28925.800000 0 0 1
16.797716 17.364828 11.684083 26.836883 0.801997 1.120343 0.039541 -0.003569 131448.000000 0 0 1
16.757216 15.957828 11.771383 25.961934 0.760968 1.100210 0.037952 -0.004153 -496892.000000 0 0 1
15.713616 15.538728 10.994183 24.682825 0.779802 1.109155 0.045226 -0.013748 -755273.000000 0 1 0
15.997916 14.185528 10.327683 23.744969 0.725424 1.120823 0.052461 -0.015920 -398171.000000 0 1 0
16.136416 13.058928 11.195483 23.585130 0.680376 1.076191 0.064364 -0.012230 473977.000000 0 1 0
16.429316 11.975328 10.338383 22.808180 0.629860 1.100360 0.043845 -0.006638 -81208.700000 0 1 0
16.570716 10.598828 11.156083 22.613756 0.569038 1.054880 0.026297 -0.007771 -309193.000000 0 1 0
17.203216 9.586528 10.294983 22.222485 0.508394 1.089116 0.017146 -0.008988 834325.000000 0 1 0
17.693816 8.412328 10.964383 22.451193 0.443806 1.060581 0.022446 -0.009732 455054.000000 0 1 0
18.895816 8.559728 11.935583 23.932800 0.425343 1.048684 0.017644 -0.009221 -217231.000000 0 1 0
18.492816 9.148928 13.193183 24.489737 0.459422 1.001876 0.012241 -0.008548 307563.000000 0 1 0
19.569416 9.414828 14.078083 25.880368 0.448413 0.995638 0.017535 -0.006954 -1152370.000000 0 0 1
19.014116 9.979728 15.432683 26.444267 0.483336 0.947650 0.024804 -0.001629 189525.000000 0 0 1
18.316816 9.073728 16.253983 26.115709 0.459942 0.899012 0.027797 -0.004723 660380.000000 0 0 1
17.052316 8.700228 15.695883 24.755528 0.471781 0.884036 0.019958 -0.007302 -578381.000000 0 1 0
16.641916 7.203528 15.926683 24.135107 0.408505 0.850115 0.019340 -0.003896 -460235.000000 0 1 0
15.645616 7.038828 16.876883 24.065734 0.422764 0.793601 0.025582 -0.006186 -359110.000000 0 1 0
15.211116 5.704028 17.000083 23.514183 0.358763 0.762703 0.025061 0.002191 -183368.000000 0 1 0
13.968016 5.558628 17.928683 23.397467 0.378741 0.697787 0.018947 0.001485 498172.000000 0 1 0
13.386116 4.252028 18.093883 22.905380 0.307565 0.660085 0.014224 0.008764 282404.000000 0 1 0
12.877516 3.657428 16.891083 21.552630 0.276729 0.670174 0.007705 0.010100 -659120.000000 0 1 0
12.783016 2.145628 17.024683 21.397407 0.166300 0.650729 0.012194 0.007576 250963.000000 0 1 0
14.047816 1.481928 16.958283 22.070809 0.105103 0.694525 0.019642 0.005249 505511.000000 0 1 0
13.979116 0.107928 16.774283 21.835840 0.007720 0.694772 0.020371 0.005080 -433998.000000 0 1 0
13.386416 -0.800572 17.837583 22.316281 -0.059734 0.644654 0.026159 0.003306 33479.000000 0 1 0
11.990316 -0.641872 17.978083 21.619231 -0.053482 0.588853 0.021773 0.019934 -335052.000000 0 1 0
11.455416 -1.529272 18.872883 22.130317 -0.132713 0.549460 0.018471 0.002123 -237303.000000 0 1 0
-24.946184 13.890328 29.029463 40.718092 -0.508058 0.777118 0.037909 -0.003914 -330345.000000 0 0 1
-24.020884 14.096428 30.072803 40.988848 -0.530687 0.747071 0.033937 0.002386 251022.000000 0 0 1
-23.224984 12.936328 30.317773 40.322646 -0.508202 0.719888 0.019880 0.004614 -2915.490000 0 0 1
-22.086384 13.205528 31.318003 40.534080 -0.538877 0.687817 0.027508 -0.001659 -561131.000000 0 0 1
-22.506584 13.458428 32.647713 41.875396 -0.538931 0.676706 0.019995 -0.001248 -45291.600000 0 0 1
-21.464884 13.449728 33.624626 42.098122 -0.559743 0.645631 0.005691 0.004451 -83698.900000 0 0 1
-21.873784 13.613028 -33.843311 42.534065 -0.556687 2.490918 0.004078 0.000157 -303814.000000 0 0 1
-22.556384 12.489928 -33.393681 42.189177 -0.505695 2.484092 -0.011772 0.000748 -330855.000000 0 0 1
-23.356984 12.741128 -32.289381 41.838848 -0.499378 2.452394 -0.012092 0.003984 -199455.000000 0 0 1
-24.318284 11.577228 -31.903201 41.751951 -0.444322 2.440461 -0.014298 -0.004375 -35731.400000 0 0 1
-23.838484 10.456128 -31.100891 40.556989 -0.413353 2.444706 -0.007601 -0.005559 128950.000000 0 0 1
-23.143084 9.444728 -31.805291 40.452216 -0.387471 2.475502 -0.015590 -0.004438 -316449.000000 0 0 1
-22.353584 8.574528 -30.837751 39.040647 -0.366277 2.481423 -0.008787 0.002780 -662433.000000 0 0 1
-23.115284 7.737428 -30.020911 38.670910 -0.323009 2.459599 -0.008728 0.002145 151313.000000 0 0 1
-22.272284 7.101028 -29.067511 37.301467 -0.308639 2.464279 -0.010422 0.011271 49534.700000 0 0 1
-22.958184 6.131328 -28.029751 36.746950 -0.260974 2.438394 -0.009128 0.009844 -241769.000000 0 0 1
-23.485084 4.982328 -28.628061 37.362262 -0.209049 2.443749 0.003943 0.003108 121462.000000 0 0 1
-23.842584 4.022728 -27.683731 36.756498 -0.167146 2.423657 0.022386 0.009552 -312106.000000 0 0 1
-24.630784 2.770728 -28.191881 37.538442 -0.112020 2.420392 0.017071 0.011510 226688.000000 0 0 1
-25.984374 2.908528 -28.550031 38.713712 -0.111470 2.400106 0.013494 0.005774 56633.200000 0 0 1
-26.231434 3.688428 -29.727871 39.817571 -0.139695 2.413736 -0.007666 0.004351 -134539.000000 0 0 1
-27.692474 3.664828 -30.267081 41.187380 -0.131576 2.396261 0.014152 -0.003163 211030.000000 0 0 1
-28.687054 4.127128 -29.381621 41.270570 -0.142887 2.363034 0.010677 -0.003055 366799.000000 0 0 1
-29.987294 4.191528 -29.952831 42.590830 -0.138877 2.350782 0.017625 -0.002984 570186.000000 0 0 1
-30.298844 5.615028 -30.577251 43.411021 -0.183243 2.352326 0.028214 -0.022560 -541738.000000 0 0 1
-29.492544 5.893928 -31.731211 43.719770 -0.197246 2.382973 0.030169 -0.024089 212697.000000 0 0 1
-29.696894 7.146428 -32.363201 44.501165 -0.236155 2.385094 0.032845 -0.023965 -591817.000000 0 0 1
-29.031974 8.321628 -31.625511 43.729600 -0.279152 2.379230 0.026763 -0.019015 17767.200000 0 0 1
-27.625624 8.150928 -31.485241 42.672393 -0.286909 2.400655 0.008816 -0.018140 716087.000000 0 0 1
-27.043044 7.718828 -30.244451 41.299314 -0.278034 2.392524 0.003185 -0.021526 -556614.000000 0 0 1
-27.174014 8.726928 -29.043771 40.720105 -0.310746 2.364926 0.001225 -0.014068 -797633.000000 0 0 1
-28.471434 8.793328 -28.551831 41.269265 -0.299554 2.334834 0.009450 -0.018434 -421693.000000 0 0 1
-28.970044 7.669328 -27.840651 40.904571 -0.258796 2.319411 0.007696 -0.005807 -269780.000000 0 0 1
-30.421204 7.951628 -27.357041 41.678361 -0.255664 2.286813 0.006176 -0.006689 212275.000000 0 0 1
-30.493984 8.778128 -26.183881 41.140421 -0.280286 2.260685 -0.011389 -0.004222 86570.900000 0 0 1
-30.468624 8.083028 -24.951391 40.202541 -0.259317 2.240358 -0.006833 -0.004068 -265780.000000 0 0 1
-29.988754 8.970628 -23.762791 39.299717 -0.290661 2.220130 -0.006057 0.005697 -167691.000000 0 0 1
-30.878774 9.934228 -23.230391 39.897853 -0.311260 2.192286 -0.004655 0.000450 588977.000000 0 0 1
-30.050194 10.900228 -22.560391 39.125444 -0.347974 2.185378 -0.007252 -0.003564 297583.000000 0 0 1
-30.822214 11.968428 -21.740691 39.571578 -0.370384 2.152444 -0.022725 0.005007 -38553.900000 0 0 1
-31.430884 11.428528 -20.570191 39.263781 -0.348746 2.122216 -0.026244 0.000446 204573.000000 0 0 1
-32.061524 12.281528 -19.651791 39.559703 -0.365819 2.090661 -0.021685 0.006317 -303288.000000 0 0 1
-31.199164 13.284128 -18.833691 38.788707 -0.402535 2.077784 -0.018363 0.005033 -9909.270000 0 0 1
-30.443874 12.735128 -17.741591 37.467012 -0.396195 2.064086 0.000121 0.000928 597151.000000 0 0 1
-31.192654 12.283928 -16.596891 37.407664 -0.375157 2.030493 -0.000888 0.005957 56993.100000 0 0 1
-31.689714 13.312928 -15.494291 37.703383 -0.397715 1.994295 -0.006573 0.007062 7067.510000 0 0 1
-32.302414 14.398028 -16.170391 38.887411 -0.419294 1.999647 -0.010162 0.005711 233204.000000 0 0 1
-33.087974 15.213928 -15.326391 39.511718 -0.430976 1.969143 -0.018417 0.006103 133318.000000 0 0 1
-33.768294 16.358828 -16.117091 40.837110 -0.451125 1.976503 -0.017382 -0.003311 375913.000000 0 0 1
-34.587769 15.974128 -17.247391 41.820557 -0.432659 1.995899 -0.014680 -0.008809 626321.000000 0 0 1
-35.377757 17.107328 -17.590191 43.054166 -0.450411 1.991672 -0.011545 -0.007621 -375644.000000 0 0 1
34.845291 17.038128 -19.067891 43.221251 0.454781 2.027698 -0.004629 -0.009764 544624.000000 0 0 1
33.798332 16.102128 -19.376891 42.155304 0.444605 2.048403 0.022726 -0.004184 918660.000000 0 0 1
32.539232 16.572328 -18.882591 41.109560 0.471062 2.048030 0.049525 -0.015377 -463638.000000 0 0 1
31.413312 15.565828 -19.090291 39.919048 0.460055 2.069429 0.060189 -0.020588 -525453.000000 0 0 1
31.140722 15.301028 -20.455691 40.277802 0.456705 2.103501 0.053825 -0.020170 229667.000000 0 0 1
30.195742 14.250928 -20.606791 39.236611 0.440958 2.123738 0.024510 -0.014403 -11890.100000 0 0 1
30.629282 12.802428 -20.237091 38.879235 0.395910 2.118246 0.021146 0.007599 -80141.600000 0 0 1
30.655082 12.601128 -18.860491 38.134507 0.390006 2.088146 0.034404 0.004201 384552.000000 0 0 1
31.419072 11.409828 -18.605791 38.255950 0.348341 2.078704 0.029459 0.008366 147639.000000 0 0 1
31.498522 10.973328 -17.085791 37.476594 0.335227 2.044186 0.030638 0.010894 286001.000000 0 0 1
30.317642 10.307428 -16.613191 36.074930 0.327722 2.049376 0.034019 0.006590 443117.000000 0 0 1
30.427122 9.660128 -15.386591 35.438327 0.307419 2.019923 0.023355 0.011820 -141815.000000 0 0 1
30.149062 10.595928 -14.164991 34.955495 0.337967 1.988026 0.026494 0.011427 -1175890.000000 0 0 1
28.791552 10.791128 -14.049691 33.805262 0.358597 1.999406 0.017409 0.010496 -804174.000000 0 0 1
28.498452 11.863228 -13.158491 33.556577 0.394458 1.973741 0.023702 0.002286 282260.000000 0 0 1
27.006072 12.297328 -13.154491 32.459095 0.427298 1.988064 0.026721 0.009498 564782.000000 0 0 1
26.041722 11.393328 -12.608491 31.095872 0.412413 1.988291 0.025273 0.000733 857412.000000 0 0 1
24.735592 11.529228 -13.174991 30.304340 0.436161 2.020564 0.022958 0.003762 443846.000000 0 0 1
24.435892 10.857428 -14.551391 30.442397 0.418123 2.069170 0.028413 -0.000360 -672603.000000 0 0 1
24.517892 9.474228 -14.572291 30.053946 0.368746 2.077012 0.028101 0.000071 261294.000000 0 0 1
25.841042 9.024428 -14.765191 31.100010 0.335987 2.065493 0.027491 -0.004270 -173502.000000 0 0 1
26.204052 7.834328 -13.825291 30.645843 0.290515 2.038829 0.022307 -0.004175 -327914.000000 0 0 1
25.504592 6.691228 -14.201591 29.948989 0.256572 2.064843 0.046534 -0.011158 398327.000000 0 0 1
25.688692 5.733628 -13.145991 29.421089 0.219597 2.034006 0.022577 -0.013077 -15663.400000 0 0 1
24.875192 4.456728 -13.457391 28.631084 0.177283 2.060118 0.024193 -0.008926 -98815.600000 0 0 1
24.773392 3.711828 -12.295991 27.905018 0.148725 2.027105 0.006276 -0.008008 83773.800000 0 0 1
24.071192 2.520428 -12.530591 27.254184 0.104327 2.048530 -0.004375 -0.010328 -445384.000000 0 0 1
23.300692 2.043028 -11.271291 25.964172 0.087457 2.019846 -0.014525 -0.009586 -329450.000000 0 0 1
24.122392 1.768628 -10.145991 26.228972 0.073188 1.967981 -0.009677 -0.003450 561968.000000 0 0 1
23.373892 1.511728 -8.942391 25.071707 0.064586 1.935500 -0.014616 0.005069 -571154.000000 0 0 1
24.211892 1.226628 -7.668491 25.426877 0.050619 1.877156 0.001682 0.004735 -403591.000000 0 0 1
24.470592 -0.157972 -7.317191 25.541655 -0.006456 1.861348 -0.003938 -0.002171 741197.000000 0 0 1
25.215692 -0.973672 -8.223591 26.540660 -0.038595 1.885830 -0.000057 0.000679 -729217.000000 0 0 1
25.190492 -2.448872 -7.706991 26.456674 -0.096910 1.866388 0.009743 -0.007329 -79239.200000 0 0 1
26.065062 -2.712872 -6.591391 27.022094 -0.103707 1.817208 0.017207 -0.005463 704163.000000 0 0 1
26.321822 -4.081972 -6.322991 27.376651 -0.153854 1.803864 0.023181 -0.007474 -981013.000000 0 0 1
27.552722 -4.510172 -5.542391 28.464228 -0.162253 1.766762 0.029575 -0.012509 -1259460.000000 0 0 1
28.669922 -4.428372 -6.374991 29.702111 -0.153249 1.787110 0.022786 -0.011968 -241034.000000 0 0 1
29.775022 -4.869872 -5.598291 30.685639 -0.162120 1.754264 0.023348 -0.007936 -461839.000000 0 0 1
31.012402 -5.297172 -6.379591 32.101843 -0.169176 1.770858 0.032882 -0.011624 -445511.000000 0 0 1
30.780892 -6.453872 -7.165691 32.256207 -0.206677 1.794815 0.035050 -0.010395 33239.000000 0 0 1
31.553192 -6.353872 -8.324591 33.245668 -0.198713 1.823886 0.036149 -0.018680 -1358490.000000 0 0 1
31.139342 -7.328672 -9.419191 33.348002 -0.231144 1.857145 0.037298 -0.016363 1190590.000000 0 0 1
29.824002 -7.243972 -10.035991 32.290360 -0.238276 1.886836 0.041591 -0.018673 1900050.000000 0 0 1
28.718912 -7.408472 -9.127791 31.031886 -0.252461 1.869354 0.037907 -0.013334 -222477.000000 0 0 1
27.804042 -6.140072 -9.050691 29.877755 -0.217345 1.878556 0.033248 -0.009772 -246502.000000 0 0 1
27.078302 -5.885772 -10.261091 29.549395 -0.214032 1.925436 0.018618 -0.010409 1073480.000000 0 0 1
25.805112 -5.242672 -10.242591 28.254205 -0.200436 1.941762 0.023819 -0.007684 943419.000000 0 0 1
24.598192 -6.136072 -9.854891 27.200024 -0.244463 1.941543 0.044254 -0.002780 -690345.000000 0 0 1
24.623092 -6.615572 -8.522891 26.883120 -0.262475 1.893398 0.033746 -0.009461 -109094.000000 0 0 1
23.462892 -7.249272 -8.091691 25.856038 -0.299663 1.889096 0.040132 -0.012955 -800958.000000 0 0 1
22.450492 -6.340872 -7.348891 24.458893 -0.275268 1.875970 0.054085 -0.009141 -588592.000000 0 1 0
21.877992 -5.539472 -8.288691 24.042352 -0.247987 1.922773 0.036740 -0.007559 -82943.800000 0 1 0
21.400692 -4.338872 -7.725591 23.162474 -0.200033 1.910852 0.027052 -0.011002 -316747.000000 0 1 0
21.111492 -3.386072 -8.901491 23.160249 -0.159036 1.965293 0.011927 -0.011115 -871228.000000 0 1 0
22.218892 -3.129272 -9.686691 24.439793 -0.139918 1.978333 -0.002527 -0.004751 71530.600000 0 1 0
21.924192 -2.305972 -10.823191 24.558688 -0.104794 2.027183 -0.012249 -0.001292 -166054.000000 0 1 0
23.168592 -2.028272 -11.698991 26.033900 -0.087321 2.036862 -0.000726 -0.007754 -352901.000000 0 0 1
24.147992 -1.188972 -11.171791 26.633590 -0.049197 2.003649 -0.011196 -0.006851 1068060.000000 0 0 1
25.298992 -1.178872 -12.064091 28.053004 -0.046564 2.015340 -0.003991 -0.004092 17678.800000 0 0 1
26.372392 -0.256272 -11.539491 28.787647 -0.009717 1.983239 0.009078 0.002818 -1548260.000000 0 0 1
27.587482 -0.516872 -12.177591 30.160074 -0.018734 1.986425 0.016975 -0.005497 281166.000000 0 0 1
28.590602 0.480828 -11.878691 30.963802 0.016816 1.964522 0.029044 -0.008133 453113.000000 0 0 1
28.528632 1.762328 -12.811891 31.323046 0.061696 1.992181 0.035114 -0.017122 -299962.000000 0 0 1
29.059572 1.448328 -14.106891 32.335132 0.049799 2.022247 0.034789 -0.018238 437536.000000 0 0 1
29.093042 2.541228 -14.944691 32.805590 0.087127 2.043790 0.031972 -0.014087 -221921.000000 0 0 1
29.364712 2.184928 -16.441091 33.724912 0.074270 2.080027 0.028218 -0.014663 -386778.000000 0 0 1
28.325232 1.553228 -17.134791 33.141098 0.054781 2.114169 0.023055 -0.010499 -368827.000000 0 0 1
28.600822 1.510528 -18.475191 34.082567 0.052765 2.143697 0.003583 -0.004386 -629232.000000 0 0 1
27.497202 0.901428 -19.315891 33.615656 0.032771 2.182924 -0.006172 0.001442 -753911.000000 0 0 1
27.348542 -0.481472 -19.160191 33.395920 -0.017603 2.181847 0.003159 0.004308 159922.000000 0 0 1
26.954912 -1.105872 -20.385791 33.813765 -0.041004 2.217908 -0.003477 0.007632 -134513.000000 0 0 1
26.589522 -2.618572 -20.249791 33.524821 -0.098165 2.219337 0.007622 -0.000673 -127428.000000 0 0 1
25.361392 -2.809872 -19.571791 32.158212 -0.110343 2.225103 0.010154 0.002183 207120.000000 0 0 1
25.062292 -4.199272 -19.300091 31.909965 -0.166011 2.220348 0.016048 0.001193 -337417.000000 0 0 1
25.981612 -4.981572 -18.352491 32.197425 -0.189436 2.177301 0.010935 0.000831 -404376.000000 0 0 1
27.309272 -5.136572 -18.784291 33.541471 -0.185917 2.165221 0.017192 0.001679 108075.000000 0 0 1
28.160582 -5.478672 -17.681691 33.699799 -0.192151 2.123138 0.012137 -0.000553 -256434.000000 0 0 1
29.636252 -5.157872 -17.897491 35.003304 -0.172313 2.107503 0.026863 -0.000337 -738979.000000 0 0 1
30.227312 -6.064172 -18.804291 36.111853 -0.197991 2.118495 0.020306 -0.000147 -1018060.000000 0 0 1
31.563172 -5.768972 -18.960391 37.269442 -0.180780 2.104515 0.034020 0.004224 -1305600.000000 0 0 1
32.310112 -6.851972 -19.703091 38.459130 -0.208973 2.108672 0.030448 0.002645 -483343.000000 0 0 1
32.585192 -7.928172 -18.878491 38.484388 -0.238669 2.083516 0.031792 0.002033 -39887.000000 0 0 1
33.153772 -8.975172 -19.595291 39.543669 -0.264377 2.089248 0.022891 0.007493 -126708.000000 0 0 1
33.862802 -10.053772 -18.731391 39.982905 -0.288608 2.058371 0.031852 0.002911 -501120.000000 0 0 1
32.940992 -10.622872 -17.826991 38.932711 -0.311953 2.046419 0.027173 -0.001334 55308.300000 0 0 1
33.481072 -11.555172 -16.880091 39.235719 -0.332326 2.015536 0.033454 -0.002280 -162709.000000 0 0 1
34.549392 -10.892972 -15.934791 39.575686 -0.305422 1.985196 0.048555 -0.000650 191812.000000 0 0 1
35.168934 -11.641072 -14.893891 39.927390 -0.319653 1.953063 0.039283 -0.011174 915530.000000 0 0 1
-34.912701 -12.894772 -15.170591 40.191027 0.353802 1.957850 0.033914 -0.013913 131148.000000 0 0 1
-33.494984 -12.806572 -15.798391 39.185602 0.365193 1.985773 0.041725 -0.015145 -61286.100000 0 0 1
-33.342734 -11.994672 -16.906591 39.261214 0.345324 2.015974 0.032070 -0.009274 1179420.000000 0 0 1
-31.946034 -11.867072 -17.285491 38.212101 0.355674 2.040202 0.042461 -0.008178 1044050.000000 0 0 1
-31.732164 -11.125372 -18.652791 38.452968 0.337211 2.077252 0.042880 -0.008497 112771.000000 0 0 1
-31.858824 -9.700872 -18.621191 38.155476 0.295576 2.080633 0.042349 -0.003021 -539375.000000 0 0 1
-33.161904 -9.270972 -18.424291 39.052750 0.272607 2.062104 0.031310 -0.003993 -1077690.000000 0 0 1
-33.349974 -7.802572 -18.027091 38.704999 0.229827 2.055285 0.046553 -0.009690 191811.000000 0 0 1
-34.721357 -7.561272 -17.753791 39.723325 0.214422 2.034134 0.042380 -0.007175 424627.000000 0 0 1
-35.065856 -6.156972 -17.714591 39.765932 0.173811 2.032497 0.045013 -0.002496 -78270.200000 0 0 1
24.179116 28.167228 -27.719931 46.329439 0.861438 2.212202 0.036677 0.007046 108642.000000 0 0 1
24.507916 27.188428 -26.729091 45.324307 0.837203 2.201520 0.027740 0.005820 -760829.000000 0 0 1
25.659116 26.519628 -27.062991 45.761188 0.801888 2.203585 0.024017 -0.000868 -932121.000000 0 0 1
26.031216 25.425528 -26.053021 44.753118 0.773628 2.192167 0.011626 0.001403 -571057.000000 0 0 1
26.457516 25.885628 -24.816191 44.563541 0.774473 2.161411 0.016526 0.004537 88947.000000 0 0 1
26.581816 24.933428 -23.755091 43.503714 0.753411 2.148435 0.011307 0.005668 -203442.000000 0 0 1
27.386616 25.521928 -22.579391 43.717553 0.750169 2.113535 0.013903 0.010340 -122901.000000 0 0 1
26.762416 26.647128 -22.052691 43.733483 0.783240 2.099312 0.008300 0.013509 4314.300000 0 0 1
27.465216 27.066728 -20.890491 43.856111 0.778091 2.067286 -0.005259 0.013933 132426.000000 0 0 1
26.809316 28.226628 -20.107291 43.815352 0.811145 2.047564 0.006739 0.013639 -116892.000000 0 0 1
25.791116 27.778328 -19.231291 42.504820 0.822477 2.040307 0.015143 0.007308 -64747.300000 0 0 1
25.071916 28.917028 -18.759891 42.623104 0.856498 2.026545 0.016897 0.003816 -236154.000000 0 0 1
24.081316 28.448328 -17.707991 41.264877 0.868342 2.014326 0.022085 0.000588 -26234.000000 0 0 1
22.988216 27.687028 -18.233991 40.342385 0.877858 2.039781 0.022147 -0.002225 280931.000000 0 0 1
21.977916 27.603528 -17.248791 39.274729 0.898377 2.025485 0.023840 -0.002382 203525.000000 0 0 1
20.896816 26.532828 -17.545591 38.059370 0.903672 2.049925 0.010457 0.000501 -33758.400000 0 0 1
20.140216 26.839028 -18.688291 38.408514 0.927034 2.078952 0.013151 -0.000959 -514727.000000 0 0 1
19.252116 25.827428 -19.038691 37.418869 0.930237 2.104586 0.008000 0.002312 -225129.000000 0 0 1
18.706716 25.976928 -20.466391 37.994936 0.946689 2.139643 0.005581 0.000929 -315083.000000 0 0 1
17.886416 27.095028 -20.513591 38.404060 0.987328 2.134300 0.007277 0.002171 -671532.000000 0 0 1
17.105816 27.047328 -21.724391 38.679659 1.006865 2.167174 0.011782 0.002306 -334173.000000 0 0 1
15.999816 28.079228 -21.591291 38.866708 1.052871 2.159786 0.004860 0.004524 -308574.000000 0 0 1
15.138916 27.777028 -20.481291 37.685983 1.071788 2.145365 0.012262 0.002664 -240895.000000 0 0 1
14.176716 28.764628 -20.256391 37.930258 1.112883 2.134172 0.007645 0.004587 -69212.300000 0 0 1
13.587016 28.775928 -18.857291 36.989978 1.129663 2.105742 0.010109 0.001077 -218212.000000 0 0 1
12.700716 27.716628 -18.634391 35.731781 1.141116 2.119413 0.012102 0.003031 -580925.000000 0 0 1
12.227716 27.893728 -17.330991 35.041980 1.157658 2.088146 0.021608 0.003693 -156386.000000 0 0 1
11.332116 26.692428 -16.892591 33.559830 1.169312 2.098276 0.038039 0.006438 -12143.500000 0 0 1
11.993716 25.437628 -16.690791 32.703282 1.130212 2.106412 0.021063 0.008803 -611925.000000 0 0 1
11.205316 24.389628 -16.224591 31.363201 1.140129 2.114504 0.032162 0.008700 -200203.000000 0 0 1
11.883616 23.046328 -16.552391 30.762562 1.094715 2.138941 0.016467 0.008164 251891.000000 0 0 1
12.142416 22.812428 -17.909491 31.441930 1.081666 2.176822 0.020793 0.004558 170537.000000 0 0 1
13.069516 21.718928 -18.130591 31.164762 1.029086 2.191694 0.019669 0.005080 307186.000000 0 0 1
12.497516 20.312928 -18.283291 30.051317 1.019239 2.224842 0.026686 0.002095 -40598.100000 0 0 1
11.937316 19.931428 -17.023791 28.802270 1.031172 2.203165 0.023584 -0.001359 -149000.000000 0 0 1
11.338716 18.651328 -17.057891 27.702169 1.024566 2.234147 0.030793 -0.007048 -147417.000000 0 0 1
12.307916 17.462428 -17.260491 27.465355 0.956841 2.250350 0.015290 -0.006348 121497.000000 0 0 1
13.165916 17.298428 -16.139591 27.075142 0.920226 2.209436 0.017442 -0.004528 -132847.000000 0 0 1
14.115616 16.303128 -16.362691 27.069914 0.857188 2.219885 0.017388 -0.003811 -514337.000000 0 0 1
14.683316 15.595428 -15.100191 26.207497 0.815513 2.184841 0.031549 0.007556 -473486.000000 0 0 1
15.433416 16.279828 -14.099291 26.495530 0.812081 2.131921 0.030321 0.008001 -173320.000000 0 0 1
16.719716 16.732628 -14.381591 27.683206 0.785784 2.117069 0.025579 0.002963 -130936.000000 0 0 1
17.791116 15.601628 -14.751591 27.884476 0.719924 2.128248 0.029406 -0.004934 -402624.000000 0 0 1
18.099916 14.699828 -13.760991 27.075021 0.682105 2.103953 0.029222 -0.008538 446126.000000 0 0 1
18.815116 15.257828 -12.637091 27.322261 0.681373 2.051632 0.031427 -0.001921 -340285.000000 0 0 1
19.441916 14.126328 -11.762091 26.756084 0.628350 2.025954 0.035070 -0.002599 -59975.800000 0 0 1
18.511016 13.233528 -11.158991 25.343777 0.620656 2.026735 0.041679 -0.006411 394092.000000 0 0 1
19.159216 12.279228 -10.337391 24.994332 0.569955 1.997189 0.044384 0.001171 66918.300000 0 1 0
19.698616 11.003628 -11.026191 25.113586 0.509421 2.025341 0.041138 -0.005609 -594729.000000 0 0 1
20.666816 11.176828 -12.039991 26.400760 0.495760 2.044345 0.032723 -0.001318 393050.000000 0 0 1
20.992916 10.039228 -12.824591 26.569884 0.446072 2.074502 0.027723 -0.000631 86354.300000 0 0 1
21.794516 8.920328 -12.026291 26.442482 0.388491 2.042955 0.020832 0.007597 -487178.000000 0 0 1
21.027516 8.157628 -11.142991 25.156899 0.370076 2.029671 0.016305 0.006361 277388.000000 0 0 1
21.802516 7.182328 -10.467391 25.228987 0.318230 1.998624 0.007524 0.007459 -744380.000000 0 0 1
22.014416 5.819928 -11.210191 25.380592 0.258456 2.028271 0.001252 0.003640 973282.000000 0 0 1
20.816716 5.034528 -11.497291 24.307814 0.237294 2.063475 -0.003368 -0.003423 1600360.000000 0 1 0
19.844916 5.583828 -12.375391 24.044752 0.274282 2.111433 -0.034978 -0.008799 -153197.000000 0 1 0
18.830116 4.517928 -12.806891 23.216404 0.235480 2.155115 -0.038479 -0.016678 -296730.000000 0 1 0
19.395416 3.727628 -13.783591 24.084533 0.189876 2.180105 -0.041092 -0.005459 287518.000000 0 1 0
18.735116 2.499128 -13.941691 23.486612 0.132610 2.206323 -0.023169 -0.001428 -253623.000000 0 1 0
19.715616 1.467228 -14.658491 24.611575 0.074283 2.208800 0.000544 0.002731 395547.000000 0 1 0
20.725716 1.010928 -13.772991 24.905272 0.048738 2.156775 0.005265 0.001206 287956.000000 0 1 0
21.822916 0.487828 -14.501991 26.206590 0.022350 2.157203 -0.012827 -0.007807 -372875.000000 0 0 1
21.771716 -0.984372 -14.958991 26.433842 -0.045183 2.172324 -0.006072 -0.008321 -805223.000000 0 0 1
20.754316 -1.229572 -15.902091 26.174988 -0.059175 2.223744 -0.016452 -0.006641 -153609.000000 0 0 1
21.280616 -2.034472 -16.955691 27.285512 -0.095312 2.241347 -0.010267 -0.005348 60659.400000 0 0 1
20.218516 -2.810072 -17.775591 27.067629 -0.138100 2.287245 -0.018299 -0.008876 -95507.800000 0 0 1
19.523616 -3.854972 -17.086591 26.229449 -0.194944 2.280261 -0.011624 -0.005591 304572.000000 0 0 1
18.576516 -4.483172 -17.935591 26.208228 -0.236807 2.324508 -0.011465 -0.004326 -283603.000000 0 0 1
17.922016 -5.667772 -17.190691 25.472380 -0.306294 2.311593 -0.008542 -0.007016 -733711.000000 0 0 1
18.741816 -6.729772 -16.867991 26.097406 -0.344739 2.273584 -0.012296 0.006580 -77776.700000 0 0 1
18.035016 -7.703772 -16.157991 25.410442 -0.403696 2.259944 -0.005385 0.009362 -559266.000000 0 0 1
18.929916 -8.818972 -15.708491 26.131833 -0.435977 2.215704 -0.003553 0.013657 -416673.000000 0 0 1
19.464416 -9.702372 -16.648391 27.389203 -0.462421 2.224140 0.002849 0.010025 731641.000000 0 0 1
20.314216 -10.692172 -16.009591 27.987442 -0.484496 2.179772 0.004731 0.002551 102752.000000 0 0 1
20.862916 -11.674272 -17.045691 29.361633 -0.510161 2.190192 0.004354 0.006254 126556.000000 0 0 1
21.842816 -11.049672 -17.899891 30.325071 -0.468334 2.202186 0.001826 0.007369 560250.000000 0 0 1
22.311516 -12.003572 -18.821591 31.561714 -0.493583 2.209733 0.009617 0.006639 -861036.000000 0 0 1
21.598116 -11.937372 -20.171991 31.873009 -0.504917 2.256072 0.012391 0.008824 162488.000000 0 0 1
20.258916 -12.372672 -20.264391 31.211412 -0.548270 2.277410 0.003644 0.002943 47181.800000 0 0 1
20.164316 -13.794972 -20.114491 31.646384 -0.599994 2.259584 0.000073 0.015243 -760753.000000 0 0 1
18.676816 -14.180972 -19.992191 30.815761 -0.649415 2.276757 0.000321 0.012982 -100467.000000 0 0 1
18.070916 -13.864072 -21.216391 31.127251 -0.654421 2.320746 -0.001248 0.018480 -772673.000000 0 0 1
16.691016 -14.134172 -21.135691 30.415165 -0.702641 2.339086 0.005897 0.013616 -100183.000000 0 0 1
15.927516 -13.586672 -22.395391 30.656760 -0.706251 2.389880 0.003608 0.016263 -299750.000000 0 0 1
16.196916 -14.221972 -23.599591 31.961622 -0.720564 2.401451 -0.001079 0.016892 108243.000000 0 0 1
15.696616 -13.504872 -24.690691 32.224145 -0.710483 2.443730 0.000931 0.010137 -290877.000000 0 0 1
15.672516 -14.206372 -26.012291 33.527422 -0.736368 2.458859 -0.007236 0.006016 -159530.000000 0 0 1
14.570616 -15.107572 -26.089581 33.484442 -0.803489 2.464113 0.000085 0.009189 254963.000000 0 0 1
14.615416 -15.932272 -27.251771 34.786588 -0.828480 2.470912 -0.000647 0.010595 -57818.000000 0 0 1
15.628216 -17.116772 -27.429691 35.911182 -0.830826 2.440008 0.000274 0.004143 -698046.000000 0 0 1
16.916316 -16.623772 -27.603931 36.393524 -0.776676 2.431781 0.007490 0.000522 -984183.000000 0 0 1
17.771116 -17.738472 -27.735301 37.412737 -0.784479 2.405851 0.008077 0.001963 -274726.000000 0 0 1
19.260916 -17.373972 -27.731491 37.972008 -0.733937 2.389578 0.005069 0.001682 -406051.000000 0 0 1
19.625216 -16.974272 -26.422501 37.032737 -0.713093 2.365263 0.010434 0.001266 -675485.000000 0 0 1
20.982416 -16.696972 -26.291651 37.553982 -0.672150 2.346338 0.015420 0.001566 -556904.000000 0 0 1
21.391916 -16.182672 -24.836291 36.555906 -0.647639 2.317749 0.014077 0.010469 77007.400000 0 0 1
21.208916 -14.835772 -24.429391 35.590917 -0.610395 2.327315 0.017228 0.008373 537666.000000 0 0 1
19.824316 -14.441272 -24.382391 34.584026 -0.629574 2.353246 0.017679 0.013532 880813.000000 0 0 1
19.729216 -13.116372 -23.608091 33.445824 -0.586723 2.354434 0.010931 0.019762 -158135.000000 0 0 1
20.233416 -12.009772 -24.350291 33.860928 -0.535672 2.373341 0.009961 0.006456 161175.000000 0 0 1
19.986616 -10.780172 -23.704591 32.826583 -0.494645 2.377652 0.005379 0.004567 15241.600000 0 0 1
20.131916 -9.590372 -24.660191 33.247471 -0.444571 2.406422 0.005315 0.004963 75089.000000 0 0 1
19.587016 -8.437972 -24.017791 32.120163 -0.406768 2.415460 0.009320 0.000117 168431.000000 0 0 1
19.428116 -7.396872 -24.991991 32.507922 -0.363785 2.447754 0.002999 0.002730 -514601.000000 0 0 1
19.088916 -6.078072 -24.387491 31.560725 -0.308259 2.453906 0.000579 -0.003318 -46814.700000 0 0 1
17.823016 -6.195372 -23.752191 30.334949 -0.334540 2.470267 -0.006002 0.000946 33053.700000 0 0 1
17.414216 -5.267072 -22.769291 29.145112 -0.293710 2.467444 -0.015931 -0.004258 -174895.000000 0 0 1
18.031916 -5.312772 -21.334991 28.435143 -0.286524 2.419318 -0.014839 -0.008746 -330862.000000 0 0 1
17.730716 -6.377972 -20.465391 27.818861 -0.345302 2.397446 -0.010015 -0.000201 321051.000000 0 0 1
18.174616 -7.614672 -20.983291 28.785385 -0.396755 2.387593 -0.008560 -0.000161 -485855.000000 0 0 1
17.941816 -8.793172 -20.005491 28.274517 -0.455691 2.356814 -0.005729 0.005860 803612.000000 0 0 1
16.574216 -9.182372 -19.762791 27.378614 -0.505921 2.377244 -0.001289 0.008735 776621.000000 0 0 1
16.469616 -10.360172 -18.904091 27.128326 -0.561505 2.341778 0.006094 0.015160 879182.000000 0 0 1
14.978216 -10.617972 -18.443091 26.023756 -0.616670 2.358453 0.017566 0.002756 1145370.000000 0 0 1
14.263216 -9.801372 -17.502691 24.614029 -0.602069 2.361838 0.026805 0.003528 466073.000000 0 1 0
14.216616 -8.413072 -17.844591 24.317101 -0.534352 2.394737 0.032245 -0.012565 -832361.000000 0 1 0
13.171116 -7.547772 -17.105391 22.870102 -0.520371 2.415745 0.051396 -0.009550 652544.000000 0 1 0
11.875916 -7.688872 -17.733891 22.685833 -0.574569 2.468210 0.038507 -0.015492 487981.000000 0 1 0
11.106616 -6.604072 -17.331991 21.618709 -0.536445 2.500951 0.040139 -0.020034 -630803.000000 0 1 0
9.632716 -6.612972 -17.736591 21.239286 -0.601616 2.559082 0.044771 -0.018129 -206367.000000 0 1 0
9.214816 -6.301472 -19.083191 22.108586 -0.599799 2.612286 0.031855 -0.019865 721659.000000 0 1 0
7.789716 -6.272172 -19.191991 21.641450 -0.677895 2.661206 0.027480 -0.028592 744318.000000 0 1 0
7.274316 -5.837972 -20.619591 22.631065 -0.676291 2.716787 0.026037 -0.025347 54761.300000 0 1 0
7.381016 -6.860672 -21.602491 23.837278 -0.748878 2.705119 0.031720 -0.012301 346576.000000 0 1 0
6.592216 -6.604472 -22.776091 24.613547 -0.786327 2.752748 0.029673 -0.013949 -115284.000000 0 1 0
6.774416 -7.592372 -23.878191 25.955825 -0.842271 2.738762 0.031425 -0.007000 -10464.800000 0 0 1
6.004916 -8.770072 -23.615691 25.897375 -0.970409 2.718675 0.028803 -0.006977 453884.000000 0 0 1
6.164916 -9.676972 -24.690891 27.226643 -1.003564 2.706581 0.034394 -0.002227 231651.000000 0 0 1
5.112616 -10.842172 -24.649591 27.409741 -1.130167 2.688964 0.024551 -0.004822 391070.000000 0 0 1
5.503516 -11.827472 -23.729791 27.079157 -1.135279 2.638949 0.025704 -0.015737 238638.000000 0 0 1
4.541616 -12.851972 -23.808891 27.434700 -1.231115 2.621632 0.030333 -0.026908 -242355.000000 0 0 1
5.051716 -14.113672 -23.041891 27.488985 -1.227074 2.564812 0.030011 -0.024861 760856.000000 0 0 1
6.206816 -14.757172 -23.564591 28.488395 -1.172661 2.544840 0.034303 -0.018098 771131.000000 0 0 1
7.518816 -14.214472 -23.676691 28.621137 -1.084254 2.544983 0.030806 -0.018169 607208.000000 0 0 1
8.356316 -14.310972 -22.384891 27.851666 -1.042292 2.504314 0.033039 -0.006197 -261457.000000 0 0 1
8.637416 -15.624672 -21.937991 28.284462 -1.065801 2.458493 0.031019 0.000365 383375.000000 0 0 1
7.881216 -15.923872 -20.736391 27.307164 -1.111212 2.433149 0.031626 -0.012706 276854.000000 0 0 1
8.563916 -15.497372 -19.402491 26.267201 -1.065956 2.401874 0.025629 -0.021411 443833.000000 0 0 1
9.670416 -16.321372 -19.038891 26.877193 -1.035910 2.357977 0.034846 -0.023669 -96704.900000 0 0 1
9.779616 -16.481272 -17.640791 26.047471 -1.035261 2.314822 0.034608 -0.021303 -373312.000000 0 0 1
8.776216 -17.333072 -16.833391 25.706427 -1.102099 2.284757 0.014956 -0.007578 -634041.000000 0 0 1
8.761416 -18.742572 -17.085591 26.832142 -1.133517 2.261083 0.016528 -0.010362 15354.300000 0 0 1
8.049116 -19.115072 -18.246991 27.624752 -1.172244 2.292321 0.026420 -0.017313 157029.000000 0 0 1
6.492116 -19.157272 -18.185091 27.200114 -1.244057 2.303076 0.021257 -0.013532 131240.000000 0 0 1
6.054716 -17.808372 -18.029391 26.054878 -1.243064 2.335021 0.016046 -0.013392 -896568.000000 0 0 1
4.665616 -17.681472 -18.071291 25.709414 -1.312806 2.350271 0.005566 -0.010776 -298257.000000 0 0 1
4.339416 -16.199772 -17.650091 24.347256 -1.309072 2.381731 -0.003759 -0.006805 -39012.200000 0 1 0
4.907216 -15.868372 -16.412391 23.350644 -1.270880 2.350216 -0.007087 -0.003425 134131.000000 0 1 0
4.913816 -14.462472 -16.275991 22.320766 -1.243270 2.387928 -0.006050 0.003587 -132924.000000 0 1 0
10.254416 30.562828 -18.278491 37.058639 1.247080 2.086597 0.030341 -0.004817 118747.000000 0 0 1
9.293716 30.043428 -19.230691 36.861907 1.270790 2.119633 0.047021 -0.006132 761219.000000 0 0 1
8.433716 29.058028 -18.621091 35.528039 1.288320 2.122482 0.042427 -0.002885 557587.000000 0 0 1
7.314316 28.574528 -19.584891 35.405802 1.320204 2.156943 0.044425 -0.007228 -137108.000000 0 0 1
6.412716 29.549828 -19.970591 36.237270 1.357096 2.154486 0.051570 -0.020398 -269042.000000 0 0 1
5.712116 29.133128 -21.158391 36.456068 1.377183 2.189992 0.056585 -0.022554 251921.000000 0 0 1
4.629716 30.086028 -21.678591 37.370639 1.418111 2.189644 0.041240 -0.025605 15584.400000 0 0 1
3.573816 30.322728 -20.765691 36.924977 1.453478 2.168052 0.041033 -0.024473 -223123.000000 0 0 1
2.564016 31.115028 -21.365091 37.831022 1.488578 2.170927 0.027707 -0.028212 411091.000000 0 0 1
1.193716 30.743428 -20.678191 37.069811 1.531987 2.162550 0.018073 -0.017960 594240.000000 0 0 1
0.623216 29.443828 -20.847891 36.082710 1.549633 2.186803 0.021372 -0.029125 253026.000000 0 0 1
0.283716 28.967728 -22.185191 36.488251 1.561002 2.224347 0.034368 -0.032771 -364038.000000 0 0 1
-0.203184 27.550328 -22.401691 35.509120 -1.563421 2.253472 0.039227 -0.032106 1887.200000 0 0 1
-1.440784 27.352328 -21.749491 34.975220 -1.518170 2.241905 0.036352 -0.029812 -197806.000000 0 0 1
-2.113084 26.283928 -22.351391 34.567248 -1.490574 2.273923 0.052492 -0.039784 -254320.000000 0 0 1
-3.148084 25.726828 -21.338291 33.572351 -1.449036 2.259570 0.036500 -0.034068 -275226.000000 0 0 1
-4.260784 26.580928 -21.245291 34.293766 -1.411854 2.238913 0.027374 -0.031337 34643.300000 0 0 1
-5.227184 26.029028 -20.350991 33.451406 -1.372611 2.224807 0.028620 -0.026833 613935.000000 0 0 1
-6.448684 26.996728 -20.132991 34.289155 -1.336321 2.198334 0.032261 -0.030305 858386.000000 0 0 1
-7.571884 26.361528 -19.513691 33.660774 -1.291094 2.189176 0.038947 -0.028179 -468539.000000 0 0 1
-8.427984 27.354628 -19.075491 34.397397 -1.271924 2.158633 0.045030 -0.024916 -607512.000000 0 0 1
-9.612484 26.821928 -18.273991 33.848994 -1.226674 2.141077 0.049138 -0.021364 -537220.000000 0 0 1
-9.350484 26.287528 -17.011191 32.677917 -1.229052 2.118316 0.062728 -0.028196 -1287290.000000 0 0 1
-10.443484 25.701128 -16.439091 32.246830 -1.184833 2.105736 0.041019 -0.022032 -861956.000000 0 0 1
-10.108584 24.957328 -15.122991 30.882949 -1.185957 2.082528 0.044671 -0.014596 26931.100000 0 0 1
-9.509484 23.676328 -15.242291 29.720804 -1.188872 2.109297 0.044812 -0.014690 -191113.000000 0 0 1
-9.315684 23.092028 -14.007591 28.569850 -1.187349 2.083222 0.044040 -0.014997 -107286.000000 0 0 1
-8.686084 21.664428 -14.088591 27.263233 -1.189482 2.113860 0.047281 -0.013498 -542446.000000 0 0 1
-9.518384 20.644428 -14.537191 26.983735 -1.138780 2.139736 0.042797 -0.007704 -352092.000000 0 0 1
-9.897884 20.621328 -15.924991 27.871358 -1.123290 2.178976 0.040715 -0.007899 1218790.000000 0 0 1
-8.647684 20.308528 -16.873591 27.783751 -1.168235 2.223478 0.019709 -0.010198 1068890.000000 0 0 1
-8.157684 19.014228 -16.826591 26.668761 -1.165517 2.253570 0.016735 -0.008998 39470.500000 0 0 1
-7.161484 18.796028 -17.841291 26.886598 -1.206767 2.296385 0.012738 -0.008506 497669.000000 0 0 1
-6.708684 17.306728 -17.942991 25.816278 -1.200995 2.339253 0.002371 -0.008228 31358.300000 0 0 1
-7.720784 16.412928 -18.359391 25.808176 -1.131101 2.362255 -0.003635 -0.008564 -372403.000000 0 0 1
-7.654984 15.983728 -19.706691 26.503434 -1.124152 2.409164 0.008182 -0.008588 163967.000000 0 0 1
-6.580684 14.864628 -19.966391 25.747220 -1.154023 2.458267 0.005275 0.000891 202472.000000 0 0 1
-6.749384 13.697228 -19.161391 24.501574 -1.112961 2.468741 -0.010541 -0.000418 441891.000000 0 1 0
-5.494584 13.061628 -18.925991 23.642963 -1.172602 2.498911 -0.006011 0.008094 559766.000000 0 1 0
-4.687184 13.522628 -17.718991 22.777045 -1.237138 2.462164 0.013154 0.012770 -518664.000000 0 1 0
-4.101084 14.776328 -17.755891 23.461254 -1.300066 2.429227 0.005524 0.000535 -525058.000000 0 1 0
-3.855984 15.165128 -16.433291 22.691469 -1.321806 2.380678 0.016888 0.004613 183465.000000 0 1 0
-2.925284 16.415228 -16.314191 23.327448 -1.394442 2.345292 0.015560 -0.000547 533543.000000 0 1 0
-3.564984 17.674028 -16.587491 24.499494 -1.371759 2.314549 0.009225 -0.006771 70603.800000 0 1 0
-2.563384 18.666428 -16.684791 25.167215 -1.434324 2.295558 0.019735 -0.017416 267322.000000 0 0 1
-3.053984 19.994628 -17.321691 26.629926 -1.419228 2.278986 0.030549 -0.021681 170473.000000 0 0 1
-3.346584 19.839228 -18.692491 27.462771 -1.403684 2.319444 0.039175 -0.023207 -100973.000000 0 0 1
-4.061284 20.909428 -19.250991 28.710605 -1.378953 2.305704 0.055287 -0.017600 -326827.000000 0 0 1
-3.198084 22.112028 -19.582091 29.709052 -1.427161 2.290456 0.049555 -0.021759 -1030280.000000 0 0 1
-2.261084 21.873528 -20.583791 30.120693 -1.467791 2.323175 0.056219 -0.022364 56783.400000 0 0 1
-1.100284 22.700228 -20.560391 30.647033 -1.522364 2.306187 0.051674 -0.027216 1008830.000000 0 0 1
-0.004584 22.260228 -19.517591 29.604968 -1.570590 2.290640 0.050337 -0.019313 -119952.000000 0 0 1
-0.359484 22.541228 -18.193791 28.969815 -1.554850 2.249810 0.041343 -0.016476 -451379.000000 0 0 1
0.650316 22.011728 -17.377791 28.052214 1.541261 2.238877 0.037863 -0.011317 -49050.000000 0 0 1
0.342816 22.238028 -15.886091 27.331580 1.555382 2.191043 0.036348 -0.014975 704241.000000 0 0 1
-0.572184 21.235628 -15.307391 26.183879 -1.543858 2.195197 0.020948 -0.010538 557061.000000 0 0 1
-0.432184 21.398328 -13.924291 25.533529 -1.550602 2.147583 0.035393 -0.011139 448634.000000 0 0 1
-1.167084 20.202428 -13.198391 24.159836 -1.513091 2.148730 0.021179 -0.007177 197600.000000 0 1 0
-0.677784 18.888028 -13.371691 23.152086 -1.534927 2.186531 0.015509 -0.001398 -171696.000000 0 1 0
-1.625384 17.916428 -12.995391 22.192802 -1.480324 2.196377 0.004909 0.002384 189945.000000 0 1 0
-1.085784 16.508028 -13.263591 21.204168 -1.505118 2.246592 -0.001080 0.014355 10589.300000 0 1 0
0.111716 16.154628 -12.580591 20.475736 1.563881 2.232440 0.006758 0.014759 363763.000000 0 1 0
0.145416 14.727128 -12.339891 19.214118 1.560923 2.268201 0.005825 0.011609 99131.100000 0 1 0
0.646916 13.907528 -13.517991 19.405512 1.524314 2.341452 0.001889 0.003428 -275651.000000 0 1 0
-0.259084 13.884928 -14.623691 20.167069 -1.552139 2.382015 0.005375 0.002728 268601.000000 0 1 0
0.098216 12.863928 -15.523091 20.160770 1.563161 2.449583 0.011813 0.004345 30576.500000 0 1 0
-0.618384 12.953028 -16.886291 21.291081 -1.523092 2.486704 0.007345 0.007718 10690.300000 0 1 0
-0.181984 14.045428 -17.653991 22.560376 -1.557840 2.469503 0.017087 0.003278 -71496.400000 0 1 0
-0.719884 14.004228 -18.942391 23.568004 -1.519437 2.504340 0.024783 -0.000258 -458122.000000 0 1 0
-1.195084 15.368228 -19.415991 24.790953 -1.493189 2.470574 0.029687 -0.009459 -657241.000000 0 1 0
-0.243484 16.353028 -19.618791 25.541687 -1.555908 2.446678 0.034315 -0.015270 -495367.000000 0 0 1
-0.884184 17.565728 -19.964591 26.606794 -1.520503 2.419398 0.045350 -0.017367 727191.000000 0 0 1
0.190916 18.652628 -20.361291 27.614111 1.560561 2.399937 0.058994 -0.016728 595498.000000 0 0 1
0.784516 18.480928 -21.587791 28.428733 1.528372 2.433133 0.064655 -0.023403 -349501.000000 0 0 1
1.606016 19.558928 -21.977791 29.464457 1.488868 2.412694 0.067284 -0.021551 -89422.300000 0 0 1
2.193016 19.317928 -23.360491 30.392502 1.457758 2.447488 0.070605 -0.027559 -283822.000000 0 0 1
3.042316 18.214928 -23.438591 29.839685 1.405301 2.474274 0.051737 -0.023784 -458279.000000 0 0 1
3.169616 17.887328 -24.799591 30.741221 1.395418 2.509379 0.046021 -0.034327 -86308.900000 0 0 1
4.210216 16.817228 -25.108091 30.511658 1.325487 2.537295 0.031549 -0.026043 -70503.800000 0 0 1
5.559316 17.073628 -24.714091 30.548340 1.256014 2.513272 0.024747 -0.017503 658396.000000 0 0 1
6.453516 16.134728 -25.302281 30.694995 1.190310 2.539784 0.028748 -0.022774 155606.000000 0 0 1
6.866616 16.306228 -26.791691 32.106669 1.172230 2.557946 0.026992 -0.024619 -1866340.000000 0 0 1
7.877816 17.246628 -26.924911 32.931094 1.142323 2.528050 0.020026 -0.013851 -211950.000000 0 0 1
8.515916 17.326428 -28.187791 34.165443 1.113973 2.541066 0.028855 -0.015639 220147.000000 0 0 1
9.139716 16.009028 -28.723901 34.130424 1.052041 2.571021 0.031118 -0.021943 -1070030.000000 0 0 1
10.329316 15.662628 -28.047611 33.744350 0.987780 2.552022 0.036459 -0.017137 -133876.000000 0 0 1
10.766916 14.406628 -28.508001 33.707321 0.928988 2.578767 0.029932 -0.011146 -329904.000000 0 0 1
10.342116 13.183628 -27.651321 32.332073 0.905599 2.596789 0.025259 -0.010922 -690820.000000 0 0 1
8.984016 12.929028 -27.856761 31.997991 0.963520 2.627173 0.020668 -0.008261 -661608.000000 0 0 1
8.421816 12.514328 -26.628441 30.604072 0.978440 2.626191 0.027427 -0.010553 1734440.000000 0 0 1
6.911716 11.962628 -26.713801 30.074964 1.046879 2.664297 0.029818 -0.016259 1488890.000000 0 0 1
5.906216 12.904128 -26.847751 30.367773 1.141558 2.655333 0.038297 -0.022019 -1691880.000000 0 0 1
4.714916 12.362028 -26.454081 29.578177 1.206424 2.677836 0.048865 -0.018103 -773165.000000 0 0 1
3.506516 13.320628 -26.633631 29.984747 1.313396 2.664294 0.055878 -0.019888 -338741.000000 0 0 1
3.165416 13.563028 -28.001001 31.273497 1.341515 2.680033 0.063621 -0.026425 -194200.000000 0 0 1
3.896116 14.488528 -28.716531 32.399634 1.308100 2.660139 0.066847 -0.027019 -634887.000000 0 0 1
3.833216 14.289828 -30.237831 33.663320 1.308718 2.686551 0.077463 -0.024477 199638.000000 0 0 1
4.765716 13.362828 -30.813851 33.923010 1.228219 2.710110 0.077118 -0.026618 249946.000000 0 0 1
4.832216 13.393128 -32.242291 35.246156 1.224534 2.725746 0.069338 -0.024876 -709338.000000 0 0 1
5.917916 12.464528 -32.839331 35.620329 1.127527 2.743822 0.066631 -0.018183 272000.000000 0 0 1
7.264316 12.805428 -32.615191 35.784074 1.054780 2.717577 0.072698 -0.013209 -25462.100000 0 0 1
7.819816 12.913228 -31.307901 34.757526 1.026294 2.692293 0.066740 -0.012467 -690457.000000 0 0 1
7.923216 11.648428 -30.359291 33.468639 0.973486 2.707131 0.076984 -0.010241 -152486.000000 0 0 1
8.836916 10.680928 -30.828161 33.801610 0.879597 2.719009 0.048137 -0.004766 -44120.900000 0 0 1
8.530416 9.411928 -30.300351 32.855192 0.834489 2.744630 0.042974 -0.010604 -396157.000000 0 0 1
9.610716 8.426728 -30.666331 33.223477 0.719852 2.746685 0.019376 -0.003799 -608858.000000 0 0 1
10.768416 8.503228 -29.902961 32.900619 0.668395 2.711405 0.024468 -0.001360 -848010.000000 0 0 1
11.549016 7.372228 -29.997701 32.978653 0.568136 2.713140 -0.003057 -0.003398 265176.000000 0 0 1
12.761516 7.363628 -28.957431 32.490185 0.523350 2.670928 0.000471 0.010157 1124960.000000 0 0 1
13.441316 6.118428 -28.798031 32.364034 0.427166 2.667738 0.009252 -0.003280 914680.000000 0 0 1
14.424916 5.761228 -29.811691 33.615575 0.379984 2.661261 -0.005266 0.001793 226300.000000 0 0 1
15.293116 4.523028 -29.427671 33.471256 0.287558 2.644961 0.006793 -0.010162 344582.000000 0 0 1
16.157916 4.892628 -28.330071 32.978917 0.294024 2.604180 -0.002709 -0.011554 445904.000000 0 0 1
16.816716 3.781428 -27.783211 32.695687 0.221182 2.586310 -0.003501 -0.009040 42775.900000 0 0 1
17.635216 4.069828 -26.476221 32.071087 0.226808 2.541969 0.005101 -0.009570 -312493.000000 0 0 1
18.638616 5.015128 -26.632861 32.891622 0.262847 2.514464 0.021366 -0.015448 -224398.000000 0 0 1
19.112816 5.324728 -25.341771 32.184745 0.271705 2.477351 0.031993 -0.008665 169374.000000 0 0 1
20.221116 6.419928 -25.282501 33.004755 0.307421 2.443432 0.029907 -0.009244 -354901.000000 0 0 1
19.722116 7.696828 -25.595621 33.216544 0.372085 2.450529 0.042503 -0.016871 409752.000000 0 0 1
20.604316 8.641428 -26.228811 34.455226 0.397117 2.436025 0.045308 -0.019716 -271694.000000 0 0 1
20.754716 8.557128 -27.788771 35.723920 0.391063 2.462075 0.037028 -0.014181 281258.000000 0 0 1
19.615616 8.733428 -28.630741 35.787770 0.418879 2.498116 0.039824 -0.010315 956385.000000 0 0 1
18.691216 7.610328 -28.751481 35.127287 0.386664 2.529581 0.033821 -0.009670 31546.800000 0 0 1
17.289416 7.976028 -29.225951 34.881186 0.432231 2.564168 0.024579 0.000494 -667047.000000 0 0 1
17.243116 8.465028 -30.526441 36.067234 0.456359 2.579940 0.015579 0.002021 386136.000000 0 0 1
15.996616 9.159428 -30.555161 35.684796 0.520018 2.598765 -0.000292 0.006965 327480.000000 0 0 1
15.302316 9.140928 -31.923971 36.563060 0.538473 2.632364 -0.009532 0.010612 54310.600000 0 0 1
14.718516 7.918928 -32.334081 36.398309 0.493603 2.664514 -0.011738 0.008506 -481953.000000 0 0 1
13.684416 8.096628 -33.227481 36.835908 0.534270 2.695270 -0.016962 0.012509 -411582.000000 0 0 1
13.207316 6.715528 -33.744471 36.854048 0.470401 2.727855 -0.015613 0.012218 108004.000000 0 0 1
12.608216 5.899728 -32.737081 35.573731 0.437662 2.739541 -0.001575 0.003775 85738.000000 0 0 1
12.034616 4.731928 -33.229321 35.656849 0.374625 2.770467 0.011009 -0.004153 -8040.660000 0 0 1
11.714116 3.597828 -32.161941 34.417370 0.297991 2.777559 0.016277 -0.009126 -120929.000000 0 0 1
12.803716 2.764028 -31.872861 34.459458 0.212614 2.751669 0.012344 -0.014709 -32175.600000 0 0 1
12.465916 1.808328 -30.832481 33.306321 0.144057 2.753743 0.017762 -0.015119 -153441.000000 0 0 1
11.654016 0.596628 -31.270981 33.377332 0.051150 2.784431 0.025003 -0.013120 225127.000000 0 0 1
12.340016 -0.494872 -31.963681 34.266570 -0.040082 2.772888 0.024176 -0.014819 837126.000000 0 0 1
13.286216 -1.264072 -31.181521 33.917675 -0.094856 2.737170 0.020273 -0.015273 798280.000000 0 0 1
13.895716 -2.519272 -31.842931 34.834034 -0.179350 2.724160 0.028867 -0.017790 492246.000000 0 0 1
12.919516 -3.543772 -32.011601 34.701798 -0.267712 2.745244 0.030199 -0.016293 286970.000000 0 0 1
13.533716 -4.532972 -32.744301 35.719722 -0.323195 2.730540 0.038204 -0.015441 -118009.000000 0 0 1
12.842616 -5.930472 -32.835311 35.752775 -0.432607 2.734811 0.037295 -0.009826 -65572.200000 0 0 1
12.832716 -6.642372 -31.631571 34.775796 -0.477638 2.713083 0.026124 -0.010395 291702.000000 0 0 1
12.269816 -7.939472 -31.698641 34.905407 -0.574315 2.709592 0.027249 -0.008395 -7222.600000 0 0 1
12.576716 -8.758172 -30.372171 34.019820 -0.608292 2.674272 0.009076 -0.007192 1155040.000000 0 0 1
14.003416 -8.978672 -30.217831 34.493906 -0.570148 2.638372 0.020682 -0.007226 1352170.000000 0 0 1
14.436216 -9.449472 -28.962961 33.712757 -0.579579 2.604324 0.023753 -0.002074 -81436.300000 0 0 1
14.283216 -10.963972 -28.616701 33.810272 -0.654678 2.579967 0.010562 -0.000747 -599039.000000 0 0 1
12.922016 -11.270972 -28.596481 33.343246 -0.717259 2.601458 0.004269 -0.003802 -450787.000000 0 0 1
12.620416 -12.539872 -28.177181 33.323818 -0.782197 2.578404 0.005612 -0.019351 -105026.000000 0 0 1
-9.730084 -2.880572 -17.483491 20.214962 0.287827 2.615705 -0.000119 -0.015014 -317426.000000 0 1 0
-10.463584 -2.661872 -18.654891 21.554051 0.249110 2.616931 0.000976 -0.013723 -71083.100000 0 1 0
-11.472884 -3.601872 -18.960491 22.452189 0.304202 2.576395 0.006668 -0.015363 280023.000000 0 1 0
-12.306084 -3.181772 -20.232691 23.894040 0.253012 2.580675 0.013623 -0.024072 66107.600000 0 1 0
-13.122884 -2.038272 -20.001591 24.008921 0.154091 2.555467 0.015071 -0.021577 -128998.000000 0 1 0
-13.758284 -1.774172 -21.231391 25.361586 0.128245 2.562844 0.010108 -0.014347 169437.000000 0 0 1
-14.608784 -0.440572 -21.237691 25.780811 0.030149 2.538841 0.022020 -0.015764 444226.000000 0 0 1
-13.944584 0.800228 -21.466391 25.610500 -0.057323 2.564747 0.023749 -0.014982 -56843.000000 0 0 1
-14.817884 1.874328 -21.157991 25.898714 -0.125823 2.526901 0.026216 -0.012770 57249.800000 0 0 1
-14.361384 3.266828 -21.727991 26.249326 -0.223667 2.545890 0.039160 -0.013356 307118.000000 0 0 1
-13.169384 3.738228 -21.112991 25.162778 -0.276582 2.566343 0.037563 -0.011419 397269.000000 0 0 1
-12.723684 4.941128 -21.645891 25.590066 -0.370415 2.578992 0.030748 -0.009235 -449942.000000 0 0 1
-11.616484 5.525728 -20.763191 24.425120 -0.444003 2.586925 0.016851 -0.004471 -280469.000000 0 1 0
-12.049984 6.227728 -19.604091 23.839192 -0.477016 2.536320 0.037617 -0.013824 676770.000000 0 1 0
-10.956984 6.400228 -18.697991 22.597196 -0.528664 2.545343 0.019583 -0.011069 379403.000000 0 1 0
-11.373284 7.175828 -17.422491 22.008800 -0.562857 2.484244 0.039745 -0.013988 32938.800000 0 1 0
-11.723084 8.575728 -17.605391 22.823751 -0.631572 2.451776 0.026293 -0.010070 773534.000000 0 1 0
-12.866484 8.788028 -16.770691 22.891744 -0.599237 2.392943 0.041311 -0.007888 436350.000000 0 1 0
-13.546484 10.168828 -16.822791 23.872968 -0.643925 2.352768 0.041907 -0.001668 -65587.000000 0 1 0
-12.803884 11.074128 -16.059091 23.333884 -0.713083 2.329844 0.010915 0.008313 827423.000000 0 1 0
-13.475684 12.374928 -16.169091 24.416642 -0.742842 2.294569 0.017008 -0.005165 262454.000000 0 1 0
-12.749984 13.484428 -15.388091 24.107784 -0.813386 2.263089 0.012992 0.004609 -295521.000000 0 1 0
-12.790984 13.358028 -14.003491 23.197930 -0.807080 2.218871 0.034884 0.003423 -89564.200000 0 1 0
-12.149584 14.366028 -13.280591 23.029747 -0.868794 2.185445 0.029022 -0.000668 -1248540.000000 0 1 0
-12.592284 14.535728 -11.814491 22.570671 -0.856916 2.121685 0.030425 -0.007149 419363.000000 0 1 0
-13.914484 15.012528 -11.629691 23.542272 -0.823339 2.087471 0.025992 0.001298 230048.000000 0 1 0
-14.982384 14.206528 -12.045491 23.903789 -0.758824 2.098922 0.023250 0.009616 -227654.000000 0 1 0
-16.381284 14.550028 -11.417691 24.706547 -0.726263 2.051194 0.007166 0.019869 355517.000000 0 1 0
-17.396684 13.702728 -11.834691 25.109147 -0.667173 2.061594 0.007148 0.011431 -194294.000000 0 0 1
-18.654484 14.312228 -11.502091 26.174945 -0.654436 2.025762 0.031407 0.011010 455177.000000 0 0 1
-19.851184 13.643228 -12.205091 27.003174 -0.602135 2.039788 0.034862 -0.002776 -230113.000000 0 0 1
-20.211184 12.343528 -11.824691 26.470322 -0.548270 2.033887 0.042160 -0.008610 1193830.000000 0 0 1
-21.289684 11.826528 -12.677991 27.456308 -0.507060 2.050765 0.066482 -0.005242 1085540.000000 0 0 1
-21.993184 10.542828 -12.168391 27.256579 -0.447006 2.033578 0.061753 -0.011968 221697.000000 0 0 1
-21.097084 9.436228 -12.081591 26.078616 -0.420587 2.052484 0.059304 -0.021178 469597.000000 0 0 1
-21.745484 8.333028 -11.576491 26.006164 -0.365947 2.032132 0.061341 -0.014303 -199713.000000 0 0 1
-20.762884 7.149528 -11.537591 24.805828 -0.331625 2.054562 0.065374 -0.013708 -100616.000000 0 1 0
-20.373984 6.732528 -12.865591 25.018985 -0.319151 2.110910 0.060525 -0.017003 540352.000000 0 0 1
-19.377784 5.752028 -12.616391 23.827666 -0.288552 2.128790 0.066790 -0.020732 -91789.200000 0 1 0
-19.305584 4.599128 -13.684991 24.106774 -0.233869 2.174484 0.070292 -0.023432 21230.900000 0 1 0
-20.406184 3.724128 -13.521491 24.761102 -0.180513 2.148472 0.067097 -0.020297 731646.000000 0 1 0
-20.092084 2.613828 -14.342791 24.824174 -0.129366 2.186797 0.057811 -0.022050 -64356.400000 0 1 0
-20.921784 1.349828 -14.030391 25.226870 -0.064429 2.160565 0.054394 -0.021457 -802836.000000 0 0 1
-22.166184 1.296528 -14.624991 26.587799 -0.058425 2.153237 0.039228 -0.011578 -505072.000000 0 0 1
-22.575984 -0.064972 -14.592891 26.881811 0.002878 2.144628 0.033740 -0.022081 -945364.000000 0 0 1
-23.951984 -0.355072 -15.171291 28.354747 0.014823 2.135367 0.036111 -0.011738 -610145.000000 0 0 1
-24.961184 -0.032272 -14.220591 28.727808 0.001293 2.088644 0.056244 -0.014380 -295381.000000 0 0 1
-26.200624 -0.150172 -14.850591 30.117027 0.005732 2.086441 0.047156 -0.003871 -147406.000000 0 0 1
-27.449284 0.253028 -14.019691 30.823351 -0.009218 2.042989 0.040508 -0.003541 163033.000000 0 0 1
-27.777924 -0.608972 -12.906791 30.636076 0.021919 2.005668 0.044068 -0.013517 -62622.600000 0 0 1
-29.073994 -0.301272 -12.459491 31.632686 0.010362 1.975646 0.054159 -0.015933 25799.400000 0 0 1
-29.480384 -1.211172 -11.244191 31.575177 0.041061 1.934896 0.052590 -0.028178 -275193.000000 0 0 1
-29.750754 -2.603272 -11.487691 31.997679 0.087280 1.938010 0.064434 -0.028148 282713.000000 0 0 1
-28.717184 -3.373172 -12.066291 31.331300 0.116926 1.966134 0.053465 -0.024982 -327506.000000 0 0 1
-28.733374 -4.807072 -11.485891 31.315179 0.165764 1.946346 0.058720 -0.021180 -313999.000000 0 0 1
-29.853094 -5.539372 -11.934691 32.624051 0.183468 1.945315 0.065778 -0.020230 62901.600000 0 0 1
-29.954974 -6.886872 -11.436491 32.795164 0.225981 1.927007 0.071483 -0.012659 -541996.000000 0 0 1
-29.053264 -7.988672 -11.975191 32.424007 0.268335 1.949085 0.072950 -0.019453 -856941.000000 0 0 1
-27.710414 -7.780872 -11.661891 31.054931 0.273743 1.955759 0.046895 -0.019761 -530031.000000 0 0 1
-26.931974 -8.753172 -12.353091 30.895762 0.314241 1.982129 0.058370 -0.021128 -80360.500000 0 0 1
-25.447804 -8.854372 -11.963891 29.480932 0.334841 1.988670 0.047824 -0.023292 -511936.000000 0 0 1
-24.719784 -7.670972 -12.337391 28.672683 0.300895 2.015603 0.027061 -0.022595 877661.000000 0 0 1
-23.402884 -7.659072 -11.780291 27.297099 0.316284 2.017016 0.015985 -0.025552 151793.000000 0 0 1
-23.341884 -7.421772 -10.251291 26.552123 0.307851 1.967177 0.012342 -0.019661 -755364.000000 0 0 1
-23.689884 -6.124972 -9.760791 26.343860 0.253008 1.950360 0.018084 -0.015448 979348.000000 0 0 1
-25.103144 -6.012572 -9.562991 27.527616 0.235086 1.925589 0.027419 -0.021150 98578.400000 0 0 1
-25.600824 -4.622472 -9.138191 27.573102 0.178635 1.908601 0.038271 -0.015977 -442151.000000 0 0 1
-25.578734 -4.436772 -7.695291 27.077188 0.171747 1.858966 0.034093 -0.012364 549530.000000 0 0 1
-25.658704 -3.085072 -7.370291 26.873927 0.119661 1.848611 0.039808 -0.010932 -196159.000000 0 0 1
-25.561444 -2.891972 -5.841791 26.379489 0.112659 1.794100 0.036428 -0.005864 -734392.000000 0 0 1
-24.336084 -3.169472 -5.260591 25.099091 0.129509 1.781955 0.022559 0.002673 -618418.000000 0 0 1
-24.340984 -2.887472 -3.874091 24.815914 0.118074 1.727551 0.012554 0.004926 809112.000000 0 1 0
-23.023984 -3.307172 -3.105191 23.466645 0.142664 1.703509 0.003979 0.006808 771734.000000 0 1 0
-22.764884 -4.691772 -3.203491 23.463057 0.203251 1.707758 0.006416 -0.000585 544873.000000 0 1 0
-21.427484 -4.933972 -2.790491 22.164566 0.226319 1.697030 0.002871 -0.001533 181105.000000 0 1 0
-21.114284 -6.433772 -2.742291 22.242450 0.295774 1.694402 0.000705 -0.000307 -187090.000000 0 1 0
-21.884684 -7.014872 -1.707891 23.044842 0.310191 1.644976 0.013325 -0.003842 624187.000000 0 1 0
-22.075784 -8.410072 -1.998891 23.707913 0.363989 1.655210 -0.004032 -0.000038 -22338.600000 0 1 0
-22.693884 -9.125072 -0.812791 24.473250 0.382310 1.604014 0.002231 -0.008271 -268049.000000 0 1 0
-21.745484 -9.358672 0.169109 23.674447 0.406413 1.563653 -0.000618 -0.007674 27369.800000 0 1 0
-22.222184 -10.443372 0.975609 24.573183 0.439322 1.531084 -0.002879 0.000130 186683.000000 0 1 0
-21.157484 -11.117572 1.867209 23.973444 0.483813 1.492831 0.007183 -0.002467 -85631.500000 0 1 0
-20.125084 -11.742272 1.151209 23.328636 0.528172 1.521429 -0.000085 0.001751 52879.400000 0 1 0
-19.179784 -12.298972 2.020009 22.873768 0.570197 1.482370 -0.005999 -0.000036 -564624.000000 0 1 0
-18.479684 -13.449272 1.295209 22.892340 0.629133 1.514188 0.000793 0.000527 -752877.000000 0 1 0
-19.295384 -14.593872 1.176509 24.221419 0.647546 1.522204 0.005846 -0.000299 478290.000000 0 1 0
-18.706484 -15.745572 0.535509 24.456949 0.699666 1.548899 -0.000572 -0.003061 363400.000000 0 1 0
-17.438684 -16.390572 1.163009 23.960617 0.754426 1.522239 -0.008457 -0.010617 320394.000000 0 1 0
-16.194884 -15.713972 1.110109 22.592821 0.770328 1.521641 0.002708 -0.006941 1699080.000000 0 1 0
-15.059384 -16.436972 1.708809 22.357977 0.829108 1.494292 0.009034 -0.009987 1349420.000000 0 1 0
-15.004684 -16.375672 3.233309 22.444542 0.829060 1.426236 0.008085 -0.007932 -485143.000000 0 1 0
-14.827584 -15.083072 3.856909 21.499583 0.793940 1.390425 0.009920 -0.014313 148099.000000 0 1 0
-14.037884 -15.068472 5.048309 21.203926 0.820791 1.330404 0.001714 -0.009881 -277167.000000 0 1 0
-14.615784 -15.531572 6.381209 22.261418 0.815766 1.280069 0.007823 -0.004369 -1166710.000000 0 1 0
-15.652184 -14.765772 6.923909 22.604411 0.756265 1.259484 0.005464 -0.001992 16385.000000 0 1 0
-16.019584 -15.212272 8.247809 23.581066 0.759555 1.213477 0.009326 -0.000820 89612.900000 0 1 0
-16.898184 -16.456472 8.418409 25.044634 0.772156 1.227985 0.003165 -0.001879 -755008.000000 0 0 1
-16.105584 -17.612872 8.416409 25.306897 0.830071 1.231765 0.000002 0.004431 -416927.000000 0 0 1
-16.669484 -18.772672 8.958809 26.656053 0.844670 1.228035 -0.000643 0.002353 -543382.000000 0 0 1
-16.326484 -19.123972 10.446409 27.228806 0.864148 1.177048 0.001378 0.004117 -420972.000000 0 0 1
-15.024784 -19.606872 10.584409 26.873840 0.916943 1.165974 0.008331 -0.001345 -496339.000000 0 0 1
-14.680784 -19.811272 11.951109 27.401477 0.933060 1.119482 0.007659 -0.004963 291567.000000 0 0 1
-13.284984 -20.429872 12.232109 27.267104 0.994230 1.105595 0.007529 -0.000190 266922.000000 0 0 1
-12.185284 -19.616972 11.908609 25.983104 1.014963 1.094691 0.004782 -0.001922 273632.000000 0 0 1
-10.978684 -20.260672 12.369709 26.154083 1.074215 1.078155 0.004929 0.002931 1006120.000000 0 0 1
-9.774184 -19.325272 12.611809 25.061096 1.102542 1.043449 0.002534 -0.002781 197706.000000 0 0 1
-9.144784 -18.834872 11.447909 23.862819 1.118796 1.070440 -0.003387 0.001507 -578964.000000 0 1 0
-8.146384 -17.958272 11.889009 23.026325 1.144929 1.028245 0.000116 0.000949 -516188.000000 0 1 0
-7.389584 -17.350572 10.746109 21.705464 1.168165 1.052861 0.003027 -0.005576 -566107.000000 0 1 0
-6.521484 -18.203572 10.068009 21.800564 1.226788 1.090747 0.004768 -0.001939 -740604.000000 0 1 0
-6.010384 -17.483872 9.002709 20.563542 1.239685 1.117647 0.012367 -0.003926 -24128.400000 0 1 0
-4.834684 -18.247772 8.308109 20.624743 1.311801 1.156198 0.007764 -0.009244 667312.000000 0 1 0
-3.675884 -18.335072 9.137309 20.812915 1.372936 1.116287 0.015849 -0.005420 -673458.000000 0 1 0
-2.611984 -18.678472 8.320509 20.614040 1.431858 1.155312 0.016867 -0.020921 346355.000000 0 1 0
-1.280384 -19.015572 9.099109 21.119308 1.503564 1.125369 0.015383 -0.019944 731030.000000 0 1 0
-0.235684 -19.467872 8.282109 21.157668 1.558691 1.168593 0.022235 -0.016144 -1083170.000000 0 1 0
0.907816 -19.791072 8.987609 21.755178 -1.524958 1.144913 0.023921 -0.010115 -879623.000000 0 1 0
1.902016 -20.377372 7.994709 21.972035 -1.477726 1.198389 0.037320 -0.020636 -722724.000000 0 1 0
1.702316 -21.709372 7.555109 23.049390 -1.492543 1.236844 0.014585 -0.014117 -41960.500000 0 1 0
2.112216 -22.649672 8.533509 24.295882 -1.477809 1.211909 0.015556 -0.017515 -120257.000000 0 1 0
1.606616 -24.041072 8.123009 25.427105 -1.504068 1.245634 -0.002981 -0.007348 110081.000000 0 0 1
1.795016 -25.049792 9.084709 26.706668 -1.499261 1.223703 0.001285 -0.001326 -390743.000000 0 0 1
1.219016 -26.248912 8.677809 27.673015 -1.524389 1.251831 0.000646 -0.004938 -770581.000000 0 0 1
1.469616 -27.476152 9.554609 29.127123 -1.517360 1.236577 0.011677 -0.003913 -94212.100000 0 0 1
0.824416 -27.533392 10.826109 29.596824 -1.540863 1.196319 0.006832 -0.006240 -76306.500000 0 0 1
-0.543884 -27.857232 10.637309 29.824043 1.551275 1.206096 0.002243 -0.003387 -198068.000000 0 0 1
-1.266084 -28.063662 11.986809 30.542687 1.525712 1.167491 0.011685 -0.005717 -18164.600000 0 0 1
-0.786384 -29.148142 12.735609 31.818679 1.543824 1.159000 0.007934 -0.004479 -223740.000000 0 0 1
-1.137984 -28.992822 14.079409 32.250713 1.531566 1.119024 0.010011 -0.005758 -242792.000000 0 0 1
-0.504884 -30.009412 14.993009 33.550113 1.553974 1.107517 0.011330 -0.007898 -163430.000000 0 0 1
-0.818284 -29.796032 16.369909 34.006574 1.543340 1.068574 0.014954 -0.012125 -26678.000000 0 0 1
-0.351784 -30.843662 17.203309 35.318679 1.559391 1.062044 0.013165 -0.010222 4856.880000 0 0 1
-0.848984 -30.744772 18.671509 35.980370 1.543189 1.025191 0.012492 -0.012796 -646549.000000 0 0 1
-2.158384 -31.156642 18.857809 36.483036 1.501632 1.027579 0.019010 -0.016609 -730713.000000 0 0 1
-2.547384 -30.943432 20.206809 37.044572 1.488658 0.993843 0.013791 -0.015748 701858.000000 0 0 1
-4.120684 -30.851242 20.412909 37.221849 1.438016 0.990332 0.015916 -0.009961 1110370.000000 0 0 1
-4.596184 -29.636892 19.863109 35.972398 1.416939 0.985824 0.024059 -0.019513 -46097.400000 0 0 1
-5.853284 -29.239612 20.381009 36.119266 1.373224 0.971248 0.018215 -0.015607 127628.000000 0 0 1
-5.903984 -28.202792 21.533409 35.971408 1.364436 0.929012 0.013609 -0.013864 -172400.000000 0 0 1
-5.393884 -28.680542 22.790109 37.027781 1.384900 0.907793 0.013137 -0.010182 118103.000000 0 0 1
-5.230984 -27.648602 23.744009 36.818288 1.383811 0.869908 0.007929 -0.006062 -360053.000000 0 0 1
-4.151884 -28.001632 24.781409 37.622437 1.423596 0.851724 0.014131 -0.003475 109800.000000 0 0 1
-4.499284 -29.163152 25.571909 39.046838 1.417723 0.856741 0.013641 -0.001964 87957.800000 0 0 1
-3.500484 -30.124722 25.355109 39.530164 1.455115 0.874459 0.009898 -0.000732 16561.700000 0 0 1
-3.707684 -31.409292 26.152109 41.039291 1.453296 0.879877 0.016095 0.006470 17155.300000 0 0 1
-3.496184 -31.176282 27.502609 41.720228 1.459120 0.851022 0.022206 -0.004761 45317.800000 0 0 1
-3.763884 -32.336622 28.284009 43.125504 1.454921 0.855484 0.028193 -0.004188 -402673.000000 0 0 1
-3.334084 -32.363402 29.762009 44.094026 1.468138 0.829876 0.037785 -0.013752 34270.700000 0 0 1
-1.956884 -32.689002 29.867309 44.322189 1.511004 0.831365 0.032211 -0.014422 314465.000000 0 0 1
-1.653784 -32.373992 31.220209 45.005687 1.519757 0.804190 0.032468 -0.015034 -257905.000000 0 0 1
-27.781574 3.399528 -9.856091 29.673476 -0.121761 1.909380 0.050175 -0.011162 306916.000000 0 0 1
-28.709034 2.989628 -10.882691 30.847682 -0.103761 1.931345 0.044250 -0.019259 472058.000000 0 0 1
-29.475654 4.023028 -11.397191 31.857415 -0.135648 1.936660 0.022852 -0.019074 -55790.000000 0 0 1
-30.276414 3.746528 -12.694991 33.043313 -0.123118 1.965129 0.030299 -0.018902 153047.000000 0 0 1
-31.313464 2.809628 -12.533391 33.845427 -0.089486 1.950142 0.042374 -0.021257 535321.000000 0 0 1
-32.241824 2.744028 -13.625391 35.110058 -0.084903 1.969340 0.040481 -0.013379 210633.000000 0 0 1
-33.371694 1.737328 -13.335391 35.979451 -0.052013 1.950493 0.036735 -0.021309 -253917.000000 0 0 1
-33.031854 0.390228 -13.270791 35.600134 -0.011813 1.952793 0.055837 -0.020631 169252.000000 0 0 1
-34.124533 -0.392272 -12.834791 36.460520 0.011495 1.930523 0.051018 -0.022798 272711.000000 0 0 1
-33.593934 -1.836972 -12.497391 35.890272 0.054627 1.926458 0.056034 -0.022089 187150.000000 0 0 1
-33.209474 -2.638172 -13.590691 35.979661 0.079274 1.958143 0.046491 -0.019224 135567.000000 0 0 1
-32.712784 -3.859172 -13.139091 35.463434 0.117429 1.950340 0.059271 -0.019408 -175241.000000 0 0 1
-33.222784 -5.116872 -13.888391 36.370636 0.152816 1.962601 0.058592 -0.014553 152285.000000 0 0 1
-32.509054 -6.323772 -13.672791 35.829791 0.192124 1.962327 0.060362 -0.018569 184233.000000 0 0 1
-33.192734 -7.418672 -14.260891 36.880446 0.219889 1.967824 0.061419 -0.016200 -133232.000000 0 0 1
-32.930954 -8.732172 -13.429591 36.620383 0.259201 1.946282 0.059720 -0.020063 1475770.000000 0 0 1
-31.572714 -9.283672 -13.418491 35.539819 0.285981 1.957959 0.064718 -0.019586 1619090.000000 0 0 1
-31.082914 -9.797272 -14.621691 35.720134 0.305341 1.992527 0.059190 -0.017221 -598197.000000 0 0 1
-29.901324 -10.749772 -14.515791 34.933579 0.345120 1.999317 0.061008 -0.019442 -426741.000000 0 0 1
-30.260204 -11.924872 -13.771891 35.320639 0.375391 1.971331 0.056220 -0.014429 783511.000000 0 0 1
-29.147484 -12.806272 -13.595491 34.618114 0.413972 1.974392 0.057208 -0.009913 361714.000000 0 0 1
-29.415614 -14.151272 -14.346391 35.656077 0.448398 1.984884 0.060412 -0.011985 29291.100000 0 0 1
-29.532104 -13.995872 -15.723891 36.266656 0.442567 2.019240 0.054766 -0.015933 274712.000000 0 0 1
-29.767994 -15.149272 -16.563091 37.282300 0.470751 2.031146 0.059986 -0.019365 -134178.000000 0 0 1
-28.804414 -16.367572 -16.348391 36.944033 0.516733 2.029201 0.038506 -0.006858 912593.000000 0 0 1
-27.429284 -16.031472 -16.606191 35.848840 0.528919 2.052431 0.030159 -0.008919 667543.000000 0 0 1
-26.773374 -17.307372 -16.948491 36.105540 0.573868 2.059425 0.022010 -0.007404 162437.000000 0 0 1
-25.322334 -17.013472 -17.356991 35.099060 0.591601 2.088072 0.018855 -0.014717 -156886.000000 0 0 1
-25.227334 -16.320172 -18.603091 35.338950 0.574210 2.125179 0.032112 -0.018761 -1174310.000000 0 0 1
-23.950284 -16.116172 -19.052891 34.588434 0.592306 2.154174 0.026786 -0.005526 -1472540.000000 0 0 1
-23.842384 -15.657672 -20.483991 35.117173 0.581082 2.193587 0.031660 -0.008505 786.057000 0 0 1
-24.364984 -16.571972 -21.436191 36.438894 0.597283 2.199724 0.025453 -0.017703 -160024.000000 0 0 1
-25.740264 -16.497072 -21.680491 37.480105 0.569955 2.187628 0.041808 -0.023449 -676075.000000 0 0 1
-26.252294 -17.772472 -22.370991 38.800837 0.595114 2.185308 0.039949 -0.028604 -363988.000000 0 0 1
-25.677414 -17.972572 -23.640791 39.258502 0.610684 2.217029 0.034533 -0.017882 75752.700000 0 0 1
-26.054884 -19.233372 -24.224791 40.442800 0.635898 2.213034 0.030347 -0.022016 -452092.000000 0 0 1
-25.529164 -19.593272 -25.660511 41.159402 0.654598 2.243934 0.023130 -0.025403 305043.000000 0 0 1
-24.156784 -19.927172 -25.722271 40.525025 0.689746 2.258450 0.022909 -0.024822 27675.800000 0 0 1
-23.728184 -21.169872 -25.121511 40.525061 0.728479 2.239412 0.022832 -0.014182 -757042.000000 0 0 1
-22.271584 -21.596872 -25.226491 39.985300 0.770019 2.253501 0.021536 -0.000724 -353624.000000 0 0 1
-21.808084 -21.609472 -26.564711 40.598592 0.780824 2.284087 0.022892 -0.010114 -576681.000000 0 0 1
-20.433584 -21.900172 -26.543831 40.021543 0.820028 2.295934 0.017656 -0.007424 -450761.000000 0 0 1
-19.936584 -21.762172 -27.972021 40.663171 0.829151 2.329382 0.021536 -0.006520 -610805.000000 0 0 1
-20.299084 -22.826872 -28.761851 41.956680 0.843945 2.326104 0.057100 -0.008425 -419675.000000 0 0 1
-20.655084 -22.369772 -30.069861 42.792940 0.825231 2.349957 0.054731 -0.009877 359859.000000 0 0 1
-19.664584 -22.534672 -31.306761 43.296889 0.853306 2.379035 0.053522 -0.018087 433465.000000 0 0 1
-19.499084 -23.877172 -31.708581 44.224063 0.885990 2.370283 0.065399 -0.025509 90530.700000 0 0 1
-18.806284 -23.918072 -32.934161 44.837590 0.904478 2.395757 0.063742 -0.021656 41755.500000 0 0 1
-18.391284 -25.321642 -33.468761 45.821205 0.942632 2.389734 0.062980 -0.014848 116937.000000 0 0 1
-17.667784 -25.341282 34.248170 46.122319 0.961956 0.733925 0.057537 -0.024444 18628.500000 0 0 1
-18.464784 -25.167172 33.091497 45.490460 0.937819 0.756215 0.042585 -0.020926 -661205.000000 0 0 1
-17.627184 -24.713872 31.916393 44.047125 0.951233 0.760348 0.036191 -0.016385 -769629.000000 0 0 1
-17.385484 -23.316072 31.781173 43.080590 0.930089 0.741118 0.030732 -0.017434 -464756.000000 0 0 1
-16.558784 -23.256672 30.640533 41.879690 0.952061 0.750083 0.027765 -0.017469 -28214.800000 0 0 1
-15.572884 -22.097972 30.452363 40.720775 0.956910 0.726004 0.021581 -0.009793 -74764.200000 0 0 1
-16.282584 -20.908772 30.104313 40.106969 0.909151 0.721826 0.023225 -0.007861 -49961.100000 0 0 1
-15.540284 -19.744872 29.874563 39.036520 0.903999 0.699292 0.024946 -0.001662 -249820.000000 0 0 1
-15.064184 -19.019272 31.182763 39.509835 0.900923 0.661225 0.020263 -0.004732 202331.000000 0 0 1
-14.497984 -17.747972 30.937063 38.500441 0.885846 0.637559 0.020728 0.000248 -23762.600000 0 0 1
-13.972484 -17.183472 32.134883 39.027589 0.888097 0.603439 0.020948 -0.000836 46865.400000 0 0 1
-13.407084 -15.748172 31.897683 38.016010 0.865524 0.575245 0.026946 -0.007192 95530.700000 0 0 1
-12.129184 -15.735072 31.282173 37.057846 0.914092 0.565829 0.031313 -0.006118 58870.400000 0 0 1
-11.862284 -14.413872 30.779713 35.998114 0.882201 0.545174 0.024608 -0.005491 434776.000000 0 0 1
-10.373784 -14.148272 30.403773 35.102399 0.938122 0.523359 0.043708 -0.009727 461148.000000 0 0 1
-10.030484 -12.839372 30.077173 34.206672 0.907607 0.496452 0.051568 -0.009440 -223516.000000 0 0 1
-8.774584 -12.447572 30.589203 34.170670 0.956774 0.461942 0.033130 -0.013354 -3203.660000 0 0 1
-8.567084 -10.910072 30.612443 33.608723 0.905117 0.425462 0.029602 -0.007028 -535797.000000 0 0 1
-9.299384 -10.190772 31.578263 34.460370 0.831102 0.411893 0.035826 -0.004406 -24334.400000 0 0 1
-8.964984 -8.815572 31.672183 34.076567 0.776995 0.377899 0.034843 -0.004848 5716.320000 0 0 1
-9.903784 -7.967772 32.576633 34.968662 0.677490 0.372020 0.025560 -0.008911 693147.000000 0 0 1
-11.289084 -7.982972 32.195283 35.038657 0.615502 0.405639 0.030283 -0.015015 1091580.000000 0 0 1
-12.184584 -7.402772 33.178441 36.111966 0.545954 0.405853 0.025693 -0.013750 500270.000000 0 0 1
-12.008284 -5.904572 33.660138 36.222476 0.456992 0.378389 0.026306 -0.010609 -681785.000000 0 0 1
-12.172384 -4.940472 32.602143 35.149323 0.385561 0.383040 0.010883 -0.007587 221965.000000 0 0 1
-12.334484 -3.649972 33.151879 35.559934 0.287706 0.370126 0.008822 -0.007388 -405893.000000 0 0 1
-11.766084 -2.517572 32.267893 34.438290 0.210790 0.356921 -0.000554 -0.008632 260401.000000 0 0 1
-10.354284 -2.509772 32.156943 33.875937 0.237803 0.319934 0.012147 -0.014282 198289.000000 0 0 1
-9.888484 -1.475872 31.306233 32.863970 0.148158 0.309124 0.000295 -0.010884 -171997.000000 0 0 1
-8.375884 -1.224072 31.398463 32.519491 0.145115 0.263334 0.015590 -0.011151 -147889.000000 0 0 1
-7.994884 -0.801772 32.680283 33.653557 0.099951 0.241085 0.012003 -0.017478 235640.000000 0 0 1
-6.621084 -0.450472 32.825003 33.489140 0.067931 0.199486 0.028308 -0.023584 391787.000000 0 0 1
-6.335884 0.353328 34.120337 34.705413 -0.055708 0.183880 0.038123 -0.028017 -508360.000000 0 0 1
-7.021984 1.582728 34.145685 34.896147 -0.221691 0.207765 0.038944 -0.023816 -357022.000000 0 0 1
-6.520784 2.655528 33.389233 34.123501 -0.386733 0.207825 0.040904 -0.018752 -552678.000000 0 0 1
-7.359584 3.950128 33.444144 34.471405 -0.492600 0.244743 0.035820 -0.015639 64034.900000 0 0 1
-8.563584 3.894228 32.720813 34.046315 -0.426791 0.279956 0.012709 -0.001138 -439411.000000 0 0 1
-9.355084 5.003828 33.014392 34.677168 -0.491159 0.310929 -0.001387 0.008779 383413.000000 0 0 1
-10.602784 5.176628 32.072793 34.174267 -0.454190 0.352516 -0.011064 0.017260 555191.000000 0 0 1
-11.302184 6.321928 32.445843 34.934780 -0.509997 0.379757 -0.002648 0.017021 -50665.000000 0 0 1
-12.634284 6.346528 31.951613 34.940079 -0.465507 0.416603 -0.014174 0.021092 371482.000000 0 0 1
-13.324184 7.688028 32.225693 35.709032 -0.523335 0.445368 -0.012566 0.013081 -182311.000000 0 0 1
-13.692584 7.857828 33.538093 37.067992 -0.520988 0.439951 -0.004893 0.008331 117280.000000 0 0 1
-14.542884 9.005428 33.688622 37.782489 -0.554441 0.469827 -0.002635 0.010457 876078.000000 0 0 1
-15.320284 9.056728 -33.827411 38.223411 -0.533894 2.657273 0.005703 0.011531 332282.000000 0 0 1
-14.567084 9.406628 -32.708271 37.020475 -0.573378 2.654118 0.006434 0.007258 -458492.000000 0 0 1
-15.383784 9.790028 -31.605311 36.488370 -0.566745 2.618293 0.007217 0.006654 -833372.000000 0 0 1
-14.597784 10.374628 -30.403891 35.286326 -0.617870 2.609276 0.019280 -0.001170 351189.000000 0 0 1
-13.737984 11.476428 -30.613281 35.462848 -0.695945 2.612468 0.017976 -0.002369 765121.000000 0 0 1
-12.518984 11.091328 -31.306991 35.494650 -0.725004 2.650928 0.021437 -0.010506 -5834.070000 0 0 1
-11.710684 12.353828 -31.729141 36.006882 -0.812118 2.649184 0.019959 -0.005111 -52513.500000 0 0 1
-12.345884 13.254128 -32.662771 37.349021 -0.820862 2.635258 0.012981 -0.007892 160737.000000 0 0 1
-11.652384 14.499828 -32.925401 37.816730 -0.893851 2.627333 0.013378 -0.013407 -90374.100000 0 0 1
-11.659984 15.689428 -31.958991 37.463188 -0.931678 2.592651 0.018889 -0.017576 -1208910.000000 0 0 1
-12.918184 16.076528 -31.599141 37.733804 -0.893899 2.563347 0.018070 -0.012734 -1110590.000000 0 0 1
-12.883084 16.971928 -30.517161 37.219851 -0.921508 2.532061 0.006512 -0.007597 301767.000000 0 0 1
-14.291384 17.620428 -30.380201 37.916748 -0.889342 2.500152 -0.000319 -0.015574 232517.000000 0 0 1
-14.623284 18.300828 -31.604221 39.339389 -0.896635 2.503735 0.006948 -0.011651 897657.000000 0 0 1
-15.947184 18.846328 -31.794231 40.253818 -0.868530 2.481351 -0.000699 -0.012514 963334.000000 0 0 1
-16.313484 20.143828 -31.019121 40.423872 -0.890078 2.445489 -0.026752 -0.005782 -443587.000000 0 0 1
-15.521584 21.297528 -31.292211 40.910961 -0.941004 2.441660 -0.021215 0.001910 450397.000000 0 0 1
-16.122084 22.589528 -30.937831 41.561494 -0.950937 2.410413 -0.032840 0.001829 220701.000000 0 0 1
-17.469984 23.065828 -31.522231 42.788828 -0.922578 2.398963 -0.029786 0.000168 252758.000000 0 0 1
-18.596784 22.428128 -30.935561 42.495532 -0.878519 2.386156 -0.015130 -0.009053 -172771.000000 0 0 1
-19.570484 22.190128 -31.904551 43.512136 -0.848046 2.393861 0.010012 -0.012311 -1420370.000000 0 0 1
-20.852384 21.637528 -31.281951 43.377010 -0.803874 2.376278 0.029103 -0.019497 -1034980.000000 0 0 1
-21.597584 22.450028 -30.365291 43.502992 -0.804749 2.343404 0.066344 -0.018664 639107.000000 0 0 1
-22.324284 23.501128 -31.027851 44.870973 -0.811074 2.334347 0.068292 -0.015367 -707937.000000 0 0 1
-23.678084 23.092428 -31.613961 45.753190 -0.772877 2.333623 0.065513 -0.022985 -1049930.000000 0 0 1
-23.618984 22.137428 -32.669341 45.991390 -0.753030 2.360772 0.062268 -0.017456 -620231.000000 0 0 1
-24.855584 21.704228 -33.119181 46.752045 -0.717817 2.358026 0.069346 -0.015934 -951198.000000 0 0 1
-24.819184 20.841028 -34.418733 47.275676 -0.698492 2.386259 0.056260 -0.006136 -222588.000000 0 0 1
-24.208084 19.592928 -34.294682 46.325364 -0.680419 2.404313 0.055875 -0.013891 203363.000000 0 0 1
-24.083984 18.974728 33.361303 45.310651 -0.667292 0.743241 0.033472 -0.020587 -247132.000000 0 0 1
-23.636784 17.498528 33.395412 44.498872 -0.637270 0.722012 0.028518 -0.001295 896728.000000 0 0 1
-24.696484 16.604428 33.874898 45.090266 -0.591920 0.720814 0.029503 -0.003177 1255260.000000 0 0 1
-24.931984 15.491828 32.982781 44.152739 -0.555980 0.727235 0.032285 -0.004996 213712.000000 0 0 1
-25.849074 14.343128 33.590612 44.746275 -0.506582 0.721689 0.014003 -0.000298 729875.000000 0 0 1
-27.151944 14.783528 33.993660 45.949425 -0.498591 0.738014 0.018762 -0.003365 728500.000000 0 0 1
-28.158694 13.755928 33.908808 46.172988 -0.454417 0.746034 0.026248 0.000519 339274.000000 0 0 1
-28.060114 12.422228 -34.250221 45.986513 -0.416767 2.411014 0.021499 0.002360 -946891.000000 0 0 1
-26.934474 11.626228 34.426923 45.231052 -0.407489 0.705736 0.014274 -0.008639 -501429.000000 0 0 1
-27.180524 10.258628 -34.319951 44.965313 -0.360896 2.439131 0.026800 -0.005500 -1543670.000000 0 0 1
-26.019034 9.285528 -34.262544 44.012874 -0.342786 2.463015 0.016221 -0.013220 -855515.000000 0 0 1
-25.364904 9.162428 33.432660 42.954292 -0.346639 0.678793 -0.002506 -0.009369 150388.000000 0 0 1
-24.284684 10.069628 33.290250 42.419147 -0.393071 0.668434 -0.013780 -0.009305 -324041.000000 0 0 1
-23.005884 9.522028 32.620713 41.037186 -0.392427 0.651943 -0.004496 -0.003447 -75059.400000 0 0 1
-23.157384 9.442728 31.194703 39.981734 -0.387181 0.675773 0.002012 -0.001552 887120.000000 0 0 1
-21.878284 9.201228 30.557323 38.692013 -0.398108 0.660382 0.000975 0.007172 1090250.000000 0 0 1
-21.829584 9.255828 29.033703 37.485424 -0.401027 0.684820 0.015052 0.012936 64725.700000 0 0 1
-22.145084 10.551328 28.526023 37.622723 -0.444642 0.710229 0.020998 0.003692 98308.500000 0 0 1
-22.266884 10.483728 27.120083 36.622692 -0.440034 0.736942 0.015167 0.001287 -483767.000000 0 0 1
-22.579184 11.850228 26.451943 36.741703 -0.483314 0.767076 0.020607 0.000878 841443.000000 0 0 1
-23.913884 12.367528 26.488523 37.768657 -0.477289 0.793526 0.031789 -0.001900 84960.000000 0 0 1
-24.826784 11.795328 25.622173 37.576518 -0.443534 0.820485 0.032883 0.001956 -1095350.000000 0 0 1
-26.258854 12.231228 25.832163 38.812768 -0.435911 0.842555 0.027041 0.004369 -687490.000000 0 0 1
-26.532514 13.490828 25.200543 39.000565 -0.470396 0.868256 0.036722 -0.003540 -849101.000000 0 0 1
-27.772924 13.970528 25.588233 40.264980 -0.466066 0.882146 0.030248 -0.006440 -496368.000000 0 0 1
-28.059264 15.337828 24.895483 40.525996 -0.500246 0.909286 0.037428 -0.014723 -168116.000000 0 0 1
-27.348524 16.435828 25.412983 40.790905 -0.541137 0.898216 0.033199 -0.013272 -221569.000000 0 0 1
-27.428854 17.612628 24.589513 40.831248 -0.570816 0.924514 0.033005 -0.010556 -103699.000000 0 0 1
-22.405284 -9.893872 31.557613 39.947070 0.415835 0.660011 0.009176 -0.027244 684236.000000 0 0 1
-21.470384 -9.017472 30.870003 38.668453 0.397624 0.646287 0.004401 -0.021495 624654.000000 0 0 1
-21.805684 -9.118872 29.483043 37.787452 0.396087 0.675757 -0.002164 -0.017192 139238.000000 0 0 1
-20.695784 -8.645072 28.480823 36.252035 0.395690 0.667076 -0.003590 -0.015835 -231443.000000 0 0 1
-20.347684 -7.273272 28.610253 35.853526 0.343296 0.646867 -0.000173 -0.019060 702224.000000 0 0 1
-19.217784 -7.028972 29.496933 35.899843 0.350640 0.606505 0.002731 -0.011396 2200090.000000 0 0 1
-17.757384 -7.338672 28.881213 34.688691 0.391897 0.587042 0.009275 -0.003509 768280.000000 0 0 1
-17.394084 -8.727672 28.916083 34.854932 0.465055 0.592383 0.008398 -0.002164 95937.500000 0 0 1
-16.965584 -9.225072 30.211033 35.855816 0.498034 0.568759 0.013180 -0.005217 -608707.000000 0 0 1
-15.515884 -8.840172 30.519653 35.360154 0.517880 0.529403 0.023833 -0.007975 -561862.000000 0 0 1
-14.583484 -9.568872 29.737033 34.475099 0.580683 0.530478 0.026702 -0.009893 856446.000000 0 0 1
-13.219684 -9.247872 30.123293 34.171567 0.610426 0.491701 0.035658 -0.016542 1175770.000000 0 0 1
-12.180484 -10.110072 29.390133 33.381996 0.692781 0.494052 0.031419 -0.004805 -469224.000000 0 0 1
-11.877284 -9.602672 28.139713 32.017568 0.679897 0.497280 0.038627 -0.006058 -636149.000000 0 0 1
-10.677284 -10.197572 27.759703 31.441946 0.762422 0.488820 0.037119 0.000208 -647006.000000 0 0 1
-10.247184 -9.893672 26.294553 29.904733 0.767848 0.496454 0.031237 -0.002746 -135066.000000 0 0 1
-11.060884 -10.486672 25.309783 29.544857 0.758756 0.542044 0.026324 -0.010232 -250623.000000 0 0 1
-10.745484 -10.047372 24.045243 28.188452 0.751836 0.549056 0.019956 -0.014047 -98916.300000 0 0 1
-11.680784 -10.531672 22.896183 27.777545 0.733711 0.601886 0.021910 -0.012622 -598900.000000 0 0 1
-11.620184 -11.944772 22.803183 28.243431 0.799171 0.631098 0.022712 -0.011934 610795.000000 0 0 1
-12.773984 -12.548772 22.198083 28.520190 0.776505 0.678797 0.020330 -0.008968 1664950.000000 0 0 1
-14.144384 -12.394472 22.987483 29.700352 0.719556 0.685693 0.013799 -0.006553 32026.800000 0 0 1
-15.192984 -13.140872 22.449283 30.124402 0.713098 0.729933 0.016092 -0.000153 558217.000000 0 0 1
-16.369084 -13.005472 23.285083 31.293519 0.671387 0.731630 0.018637 0.003698 896685.000000 0 0 1
-17.612184 -13.807872 22.835883 31.973800 0.664906 0.775307 0.031358 -0.002801 -417566.000000 0 0 1
-17.458584 -15.217972 22.963783 32.614784 0.716936 0.789654 0.036741 -0.004401 296714.000000 0 0 1
-18.664984 -15.947772 22.772783 33.486008 0.707056 0.822940 0.040213 -0.005753 159958.000000 0 0 1
-19.636284 -15.909272 23.992083 34.846932 0.680928 0.811379 0.033072 -0.001551 -157913.000000 0 0 1
-19.042484 -16.557272 25.146983 35.624854 0.715701 0.787127 0.041591 0.001836 425504.000000 0 0 1
-19.926284 -16.562672 26.257723 36.889659 0.693476 0.778752 0.030494 0.004821 53684.400000 0 0 1
-19.469684 -17.533472 27.456783 37.952156 0.733120 0.761998 0.033745 0.005242 -34669.200000 0 0 1
-19.582784 -18.961072 27.180373 38.493900 0.769270 0.786827 0.041438 0.003149 244964.000000 0 0 1
-19.273584 -19.725572 28.346663 39.548736 0.796987 0.771662 0.030652 -0.000802 -447110.000000 0 0 1
-19.159784 -21.232272 28.146443 40.126412 0.836663 0.793374 0.036155 0.002017 -944465.000000 0 0 1
-20.363884 -21.870172 27.895493 40.879711 0.821048 0.819783 0.036973 0.002493 -585793.000000 0 0 1
-20.165484 -23.253472 27.575743 41.325444 0.856399 0.840242 0.047686 0.004590 579471.000000 0 0 1
-21.453084 -24.083672 27.226383 42.208222 0.843102 0.869709 0.044499 0.005551 238217.000000 0 0 1
-22.280784 -24.285372 28.322623 43.455536 0.828420 0.860892 0.033894 0.007999 461750.000000 0 0 1
-23.552584 -24.786972 27.872493 44.113423 0.810928 0.886875 0.024222 0.004408 805494.000000 0 0 1
-24.286184 -25.825202 28.760223 45.649866 0.816100 0.889220 0.017739 0.003884 -57930.100000 0 0 1
-24.924284 -25.201642 29.885473 46.362530 0.790931 0.870291 0.015406 0.012309 22705.200000 0 0 1
-25.635494 -26.179792 30.582943 47.727104 0.795902 0.875272 0.012721 0.013909 -374532.000000 0 0 1
-26.704534 -25.637922 31.544073 48.636033 0.765023 0.865087 0.008376 0.009936 48235.800000 0 0 1
-27.678534 -24.924372 30.776103 48.316603 0.733088 0.880238 -0.004887 0.010126 -478162.000000 0 0 1
-28.703904 -24.536972 31.628223 49.257706 0.707292 0.873566 0.000082 0.002342 -848131.000000 0 0 1
-29.886344 -24.008272 30.798083 49.174308 0.676762 0.893993 -0.000088 0.001115 -266292.000000 0 0 1
-30.660664 -25.100512 30.261373 49.858427 0.686013 0.918584 -0.000196 -0.003093 289043.000000 0 0 1
-31.870104 -24.677572 29.646803 50.036177 0.658883 0.936628 -0.004118 -0.002034 563027.000000 0 0 1
-33.086804 -25.331572 30.377423 51.567557 0.653417 0.940876 -0.003212 -0.007557 -81336.700000 0 0 1
-33.120324 -26.762112 30.208833 52.208621 0.679616 0.953763 0.003582 -0.008906 559889.000000 0 0 1
-34.165876 -27.483432 30.875413 53.627766 0.677425 0.957293 0.016389 -0.011806 188326.000000 0 0 1
-33.663164 -28.957582 31.076613 54.198764 0.710395 0.960168 0.015762 -0.010279 -114288.000000 0 0 1
-32.755534 -29.027242 32.117873 54.286864 0.725126 0.937714 0.015011 -0.005515 -389996.000000 0 0 1
-32.208734 -30.327652 32.313223 54.784244 0.755327 0.939952 0.020056 -0.015147 -4315.990000 0 0 1
-31.274984 -30.451932 33.520332 55.036874 0.772065 0.915931 0.018070 -0.015805 120220.000000 0 0 1
-31.969644 -30.295402 -34.176514 55.748575 0.758516 2.230708 0.009642 -0.007943 120144.000000 0 0 1
-31.017154 -30.356762 -33.150451 54.612721 0.774638 2.223089 0.003566 -0.007940 -54622.600000 0 0 1
-31.538074 -29.923332 -31.758851 53.839396 0.759132 2.201708 -0.006448 -0.007419 -45308.700000 0 0 1
-31.835424 -28.544652 -31.555511 53.141713 0.730951 2.206569 0.000221 -0.009841 -407294.000000 0 0 1
-30.686814 -27.766772 -31.348471 51.917250 0.735485 2.219076 0.001784 0.000370 -552502.000000 0 0 1
-30.919164 -26.286722 -31.118761 51.140627 0.704596 2.224958 -0.000891 0.005677 -431795.000000 0 0 1
-31.501014 -25.958552 -29.885491 50.589553 0.689237 2.202777 -0.006161 -0.003333 -110521.000000 0 0 1
-31.486764 -24.542672 -29.727651 49.774414 0.662090 2.210861 0.007778 -0.002656 294245.000000 0 0 1
-30.331214 -23.944072 -28.864001 48.233098 0.668256 2.212333 0.013988 -0.007375 238039.000000 0 0 1
-30.083894 -22.552172 -28.963051 47.460504 0.643272 2.227180 0.017462 0.000331 183335.000000 0 0 1
-28.998754 -22.119372 -28.151411 46.072729 0.651624 2.228146 0.030392 -0.004501 242989.000000 0 0 1
-28.673514 -20.627872 -28.334191 45.282512 0.623631 2.246851 0.036051 -0.009251 80107.800000 0 0 1
-28.092744 -20.186572 -29.581061 45.516361 0.623080 2.278249 0.047185 -0.005439 497437.000000 0 0 1
-27.910094 -18.808272 -29.800021 44.952928 0.592985 2.295503 0.043366 -0.008331 -431706.000000 0 0 1
-27.391174 -18.388672 -31.213151 45.416742 0.591228 2.328508 0.057293 -0.007915 249565.000000 0 0 1
-28.260284 -18.430272 -32.376171 46.760400 0.577893 2.335585 0.045759 -0.009171 -383941.000000 0 0 1
-29.289554 -17.530972 -32.183841 46.914951 0.539345 2.326779 0.038033 -0.008146 -1481030.000000 0 0 1
-29.726374 -16.870672 -33.486521 47.850016 0.516204 2.345945 0.041376 -0.011340 20759.800000 0 0 1
-30.615184 -17.607972 -34.321478 49.247274 0.521938 2.341892 0.039119 -0.011544 431794.000000 0 0 1
-31.972394 -17.338972 -34.027261 49.806912 0.496921 2.322910 0.030263 -0.006001 -216885.000000 0 0 1
-32.953454 -17.704772 33.799695 50.416351 0.493014 0.836033 0.025001 -0.005431 -327265.000000 0 0 1
-33.317934 -19.015272 33.822740 51.143358 0.518613 0.848203 0.019427 -0.000014 -408390.000000 0 0 1
-34.135482 -19.491972 32.827163 51.213189 0.518836 0.875008 0.020426 -0.000763 -300708.000000 0 0 1
-34.722980 -20.891672 33.138776 52.348121 0.541644 0.885314 0.017419 -0.004453 176687.000000 0 0 1
-33.714694 -21.890772 33.051714 52.041352 0.575879 0.882652 0.014614 -0.005079 271015.000000 0 0 1
-34.102018 -23.141272 33.588387 53.166210 0.596212 0.886972 0.012550 -0.001732 -11413.500000 0 0 1
-32.796054 -23.943472 33.896953 52.894938 0.630625 0.875210 0.006470 0.001671 782945.000000 0 0 1
-32.130454 -23.461972 -33.863161 52.245037 0.630715 2.275962 0.000780 0.002214 -155195.000000 0 0 1
-31.245914 -22.384772 -34.058036 51.354990 0.621652 2.295867 0.007796 0.005876 -667061.000000 0 0 1
-29.895874 -22.807772 -33.425161 50.311024 0.651711 2.297448 0.005680 0.005971 -749092.000000 0 0 1
-29.128114 -23.752372 -34.143311 50.777829 0.684088 2.308251 0.000389 0.008250 942760.000000 0 0 1
-27.777874 -23.883872 -33.659191 49.749279 0.710165 2.313900 0.008856 0.005206 829757.000000 0 0 1
-27.426234 -24.254772 -32.212961 48.766455 0.724109 2.292355 0.020222 0.003876 -1352230.000000 0 0 1
-27.553984 -25.614732 -31.842891 49.287993 0.748941 2.273205 0.007030 0.004956 74692.000000 0 0 1
-27.193194 -25.872272 -30.487261 48.356151 0.760511 2.252959 0.017753 0.002682 -96930.200000 0 0 1
-26.665824 -27.284712 -30.205691 48.661129 0.796869 2.240477 0.017085 0.006255 434288.000000 0 0 1
-27.712834 -28.253662 -30.274751 49.828016 0.795061 2.223813 0.013432 0.010158 663841.000000 0 0 1
-27.250324 -29.401822 -29.569181 49.813490 0.823357 2.206319 0.016702 0.006218 186975.000000 0 0 1
-27.929764 -30.673752 -30.097311 51.252307 0.832187 2.198439 0.014206 0.014845 16528.600000 0 0 1
-27.516874 -31.010822 -31.412111 52.015096 0.845025 2.219186 0.014407 -0.004186 396350.000000 0 0 1
-27.964994 -32.313192 -31.809361 53.273058 0.857409 2.210678 0.027659 -0.001774 -118433.000000 0 0 1
-27.525214 -32.623492 -33.277491 54.123203 0.869957 2.232988 0.019890 -0.009914 284045.000000 0 0 1
-26.124574 -32.844502 -33.374351 53.619978 0.898866 2.242632 0.025853 -0.014451 49501.400000 0 0 1
-25.730764 -33.204702 34.276846 54.217402 0.911540 0.886393 0.042929 -0.018215 -430617.000000 0 0 1
-24.291084 -33.702112 34.200184 53.810238 0.946274 0.882049 0.049723 -0.018964 -416380.000000 0 0 1
-23.820284 -34.087171 32.939194 53.050275 0.960873 0.900899 0.046269 -0.014024 -435509.000000 0 0 1
-22.833784 34.074797 33.000161 52.644887 -0.980415 0.893300 0.039599 -0.001345 -1065670.000000 0 0 1
-22.841384 33.289535 31.682013 51.319313 -0.969431 0.905426 0.039361 -0.008354 362193.000000 0 0 1
-24.082584 32.582232 31.489413 51.314285 -0.934287 0.910111 0.030465 -0.027294 603423.000000 0 0 1
-24.140884 31.810362 30.293093 50.123377 -0.921624 0.921821 0.018845 -0.017272 610386.000000 0 0 1
-25.519374 31.148042 29.914703 50.163019 -0.884402 0.931850 0.021501 -0.015071 437087.000000 0 0 1
-25.888804 30.060572 30.733463 50.183801 -0.859824 0.911681 0.028388 -0.016441 -519067.000000 0 0 1
-27.128664 29.651322 30.245323 50.298557 -0.829798 0.925649 0.025947 -0.017631 -625791.000000 0 0 1
-27.748134 28.548612 31.142093 50.545150 -0.799616 0.906984 0.035363 -0.020896 -295860.000000 0 0 1
-27.019494 27.367092 31.024933 49.412116 -0.791789 0.891969 0.026590 -0.015999 -160781.000000 0 0 1
-27.496564 26.307912 31.828403 49.610629 -0.763310 0.874261 0.018869 -0.012683 379046.000000 0 0 1
-28.470484 25.343322 31.053803 49.164938 -0.727353 0.887149 0.015111 -0.003537 367552.000000 0 0 1
-27.869024 24.901662 29.833623 47.820710 -0.729226 0.897119 0.014849 0.001623 -611792.000000 0 0 1
-28.717944 24.179632 29.040523 47.462900 -0.699813 0.912390 0.023000 0.006264 -587115.000000 0 0 1
-28.132694 23.927852 27.643093 46.131672 -0.704805 0.928268 0.026660 -0.004668 512785.000000 0 0 1
-26.886654 23.240352 27.603233 44.999384 -0.712785 0.910421 0.022206 -0.002615 372125.000000 0 0 1
-26.299524 22.997152 26.323003 43.742822 -0.718508 0.925084 0.011547 0.000267 1072010.000000 0 0 1
-24.877484 22.345152 26.605623 42.732356 -0.731824 0.898722 0.006486 0.002545 725387.000000 0 0 1
-24.982984 21.065352 27.299433 42.581188 -0.700526 0.874846 0.024584 -0.005080 1073400.000000 0 0 1
-23.679184 20.521352 27.580703 41.743560 -0.714076 0.849022 0.020469 0.004989 832348.000000 0 0 1
-23.894984 19.129452 28.231523 41.640426 -0.675084 0.825780 0.038306 -0.003974 -832230.000000 0 0 1
-22.702184 18.519052 28.510813 40.880447 -0.684264 0.799006 0.024558 -0.000257 -671269.000000 0 0 1
-22.990384 17.347352 29.259783 41.056343 -0.646406 0.777494 0.026402 -0.003490 701879.000000 0 0 1
-21.767584 16.383752 29.526813 40.175711 -0.645206 0.745215 0.030823 -0.006718 421704.000000 0 0 1
-20.729084 16.901352 30.334353 40.441607 -0.684028 0.722617 0.037565 -0.002143 -207048.000000 0 0 1
-19.699884 15.938352 30.384883 39.564601 -0.680240 0.695113 0.028278 -0.007836 -26085.500000 0 0 1
-18.478784 16.442252 31.189823 39.807263 -0.727146 0.670484 0.024557 -0.006744 -173385.000000 0 0 1
-18.760284 16.367152 32.608693 41.026318 -0.717376 0.652079 0.013483 -0.001026 723426.000000 0 0 1
-17.642384 16.745952 33.420283 41.335166 -0.759336 0.629165 0.010969 -0.006121 -186788.000000 0 0 1
-17.925284 16.521352 -34.021461 41.853682 -0.744664 2.519853 -0.000590 -0.013159 673935.000000 0 0 1
-18.922784 17.368752 -33.400851 42.135047 -0.742604 2.486037 0.006422 -0.015637 19922.800000 0 0 1
-20.236584 16.982552 -33.653621 42.784257 -0.698191 2.476061 0.023621 -0.013388 -1035920.000000 0 0 1
-21.202884 17.788052 -32.749171 42.877562 -0.698041 2.439951 0.037344 -0.022384 -127122.000000 0 0 1
-21.247584 17.270552 -31.424991 41.680473 -0.682512 2.424851 0.035823 -0.027939 197460.000000 0 0 1
-22.038684 18.178652 -30.683741 41.924443 -0.689712 2.391876 0.030581 -0.026315 -492982.000000 0 0 1
-22.001484 17.903552 -29.174411 40.690893 -0.683065 2.370252 0.038406 -0.033670 382075.000000 0 0 1
-22.731784 16.751052 -28.705611 40.265914 -0.635064 2.364423 0.033939 -0.034269 180662.000000 0 0 1
-24.129084 16.719952 -28.917431 41.206642 -0.605970 2.348670 0.043405 -0.027560 -376560.000000 0 0 1
-24.753484 15.575352 -28.161811 40.600667 -0.561627 2.337312 0.042366 -0.024290 -135048.000000 0 0 1
-24.281484 14.266952 -28.432491 40.019282 -0.531226 2.360962 0.014440 -0.012258 289495.000000 0 0 1
-25.118084 13.376852 -27.678671 39.698453 -0.489354 2.342313 0.007058 -0.008594 443200.000000 0 0 1
-24.667284 11.902552 -27.819311 39.039207 -0.449569 2.363993 0.011219 -0.005177 826892.000000 0 0 1
-23.485184 11.688052 -27.021671 37.660790 -0.461788 2.371005 0.013252 -0.009307 308129.000000 0 0 1
-22.652684 10.720752 -27.594001 37.276098 -0.442033 2.404253 0.000783 0.002668 130793.000000 0 0 1
-21.754684 10.009752 -26.521131 35.732783 -0.431237 2.407154 0.016815 -0.000493 258902.000000 0 0 1
-22.517984 9.236852 -25.620481 35.338196 -0.389267 2.381843 0.015548 0.005720 238862.000000 0 0 1
-21.689384 8.690452 -24.602091 33.929577 -0.381090 2.381965 0.031548 0.018979 18423.400000 0 0 1
-22.376884 7.626352 -23.752291 33.512050 -0.328468 2.358548 0.028080 0.019748 -141470.000000 0 0 1
-22.653384 6.414952 -24.531291 34.001642 -0.275954 2.376725 0.035507 -0.002564 446739.000000 0 0 1
-23.145084 5.393852 -23.635391 33.517462 -0.228959 2.353454 0.044719 0.004360 -298169.000000 0 0 1
33.758132 24.976728 -10.702691 43.335851 0.636988 1.820349 0.011993 0.006999 -161743.000000 0 0 1
34.785298 24.484528 -9.888091 43.672456 0.613322 1.799192 0.022678 -0.000669 -41406.400000 0 0 1
-35.244739 23.454928 -10.562991 43.633726 -0.587186 1.815309 0.031915 -0.005552 57803.300000 0 0 1
-34.164009 22.839528 -9.667091 42.217013 -0.589289 1.801832 0.034882 -0.013996 91736.700000 0 0 1
-34.723231 22.066228 -8.588991 42.028466 -0.566106 1.776607 0.006041 -0.014374 581287.000000 0 0 1
-33.645674 21.459128 -7.856491 40.672472 -0.567749 1.765183 0.013559 -0.006565 484944.000000 0 0 1
-34.109821 20.509628 -6.666391 40.355489 -0.541362 1.736749 -0.002966 0.006187 -22380.500000 0 0 1
-34.593089 19.256728 -7.125491 40.227801 -0.507945 1.748864 -0.002469 -0.004004 258235.000000 0 0 1
-34.720126 18.400428 -6.022991 39.753482 -0.487331 1.722891 0.002961 -0.018538 -234937.000000 0 0 1
35.236577 17.119628 -6.301391 39.678780 0.452262 1.730282 0.013418 -0.009398 570356.000000 0 0 1
33.911642 17.471228 -6.727791 38.736371 0.475732 1.745363 0.016000 -0.007775 519744.000000 0 0 1
33.256472 16.359228 -7.279691 37.770507 0.457156 1.764745 0.026260 -0.000484 -15991.200000 0 0 1
32.466822 16.771428 -8.531391 37.525457 0.476817 1.800151 0.011194 -0.005295 409642.000000 0 0 1
31.620702 15.720328 -9.091391 36.464378 0.461367 1.822777 0.025157 -0.005955 450153.000000 0 0 1
31.109942 16.229528 -10.317391 36.574234 0.480843 1.856773 0.026319 -0.005705 -590394.000000 0 0 1
30.486962 15.091528 -11.145091 35.796957 0.459652 1.887401 0.015563 0.004579 487363.000000 0 0 1
29.234602 14.530228 -10.726191 34.363362 0.461262 1.888241 0.006476 0.007862 834891.000000 0 0 1
29.141572 14.058928 -9.412491 33.696879 0.449497 1.853891 0.020132 0.004396 -1132360.000000 0 0 1
28.029462 13.031028 -9.192991 32.248558 0.435179 1.859872 0.018647 0.010071 -138209.000000 0 0 1
28.425072 11.787328 -9.744491 32.278180 0.393098 1.877472 0.016235 0.010073 746140.000000 0 0 1
27.378742 10.813028 -9.664491 30.982567 0.376139 1.888023 0.014003 0.008931 -223629.000000 0 0 1
27.790192 9.477028 -10.314991 31.120859 0.328653 1.908636 0.030038 0.005276 407850.000000 0 0 1
28.950132 8.914428 -9.679491 31.800467 0.298710 1.880086 0.038083 0.004373 833214.000000 0 0 1
28.949152 7.567328 -9.745591 31.468943 0.255680 1.885662 0.040548 0.005109 -597384.000000 0 0 1
29.958102 6.903528 -8.801091 31.978208 0.226486 1.849616 0.066188 -0.002559 432460.000000 0 0 1
31.310152 7.134028 -9.205491 33.406003 0.224026 1.849973 0.071626 -0.005413 761546.000000 0 0 1
32.226862 6.583028 -8.253491 33.912048 0.201499 1.816645 0.070425 -0.005019 -567220.000000 0 0 1
33.693132 6.812928 -8.519691 35.415085 0.199515 1.813746 0.054218 -0.008714 -651578.000000 0 0 1
34.143402 6.172928 -9.740191 36.038150 0.178862 1.844474 0.052408 -0.008712 263657.000000 0 0 1
-35.271189 6.429628 -10.008691 37.223256 -0.180311 1.843029 0.042234 -0.010895 -710991.000000 0 0 1
-34.733382 5.629428 -11.234091 36.936474 -0.160678 1.879838 0.046145 -0.017843 662919.000000 0 0 1
-33.318924 5.739228 -11.472291 35.702982 -0.170577 1.897926 0.032970 -0.014581 1209700.000000 0 0 1
-32.948724 6.937828 -12.152891 35.797271 -0.207533 1.917173 0.017052 -0.012534 -567580.000000 0 0 1
-32.191914 7.883928 -11.157491 34.970920 -0.240177 1.895524 0.015918 -0.008548 -807975.000000 0 0 1
-32.939954 8.661628 -10.215591 35.558721 -0.257131 1.862191 0.019911 -0.003406 206641.000000 0 0 1
-33.558564 9.835028 -10.734391 36.580489 -0.285087 1.868626 0.025089 -0.000630 285255.000000 0 0 1
-34.456462 10.585428 -9.704791 37.329372 -0.298060 1.833795 0.021380 0.005655 458880.000000 0 0 1
-33.721404 11.299128 -8.728691 36.619577 -0.323315 1.811475 0.021081 0.002143 -108785.000000 0 0 1
-34.549533 12.259928 -8.129191 37.550763 -0.340990 1.789009 0.025798 -0.004023 -115580.000000 0 0 1
-33.737554 13.279628 -7.316891 36.987943 -0.374990 1.769928 0.020780 -0.001910 442927.000000 0 0 1
-32.874494 14.181328 -8.027691 36.691773 -0.407260 1.791368 0.015037 -0.006429 32883.200000 0 0 1
-32.153434 14.993128 -7.165491 36.193666 -0.436326 1.770089 0.011046 -0.014146 -350007.000000 0 0 1
-31.195264 15.959428 -7.844491 35.907992 -0.472883 1.791033 0.002032 -0.009555 -247288.000000 0 0 1
-31.880114 16.988828 -8.499091 37.110598 -0.489618 1.801868 0.003876 -0.008469 -344467.000000 0 0 1
-30.998154 17.904128 -9.033891 36.919568 -0.523776 1.817997 0.005712 -0.009323 -129180.000000 0 0 1
-31.750024 18.951228 -9.885191 38.274405 -0.538129 1.832029 -0.003860 -0.019273 224945.000000 0 0 1
-31.391544 18.666228 -11.218991 38.206320 -0.536459 1.868831 -0.004642 -0.016748 -50193.000000 0 0 1
-32.336264 19.229628 -12.091891 39.517419 -0.536496 1.881773 -0.004688 -0.020720 -578711.000000 0 0 1
-31.878524 19.404328 -13.555191 39.705307 -0.546789 1.919197 -0.001397 -0.009520 -495683.000000 0 0 1
-30.918824 20.382028 -13.799891 39.520093 -0.582823 1.927499 -0.006906 -0.019055 -191744.000000 0 0 1
-30.986524 20.833828 -15.136291 40.290450 -0.591928 1.955926 -0.013803 -0.012957 -740847.000000 0 0 1
-30.098394 22.020828 -15.304291 40.311928 -0.631639 1.960211 0.000182 -0.026636 -570937.000000 0 0 1
-28.701894 21.859628 -15.147691 39.129204 -0.650890 1.968302 -0.002192 -0.022673 241877.000000 0 0 1
-28.040834 23.095528 -15.043291 39.319110 -0.688990 1.963400 0.015892 -0.019516 -123934.000000 0 0 1
-27.607884 23.810528 -16.374291 39.965659 -0.711680 1.992931 -0.015384 -0.012749 -592901.000000 0 0 1
-28.685404 24.285828 -17.158591 41.316717 -0.702532 1.999062 -0.002309 -0.007259 179873.000000 0 0 1
-28.265184 24.904528 -18.426691 41.936846 -0.722276 2.025717 -0.015541 -0.005006 -830202.000000 0 0 1
-27.519504 26.246128 -18.321491 42.212076 -0.761719 2.019762 -0.012091 -0.003346 143504.000000 0 0 1
-28.297384 27.292828 -17.815791 43.162980 -0.767329 1.996274 -0.014751 0.000093 105527.000000 0 0 1
-27.447194 28.422728 -17.756391 43.318464 -0.802857 1.993145 -0.007291 0.003270 380346.000000 0 0 1
-28.095004 29.733728 -17.184591 44.370418 -0.813728 1.968496 -0.006609 0.002687 -171442.000000 0 0 1
-28.413754 29.830928 -15.818491 44.129926 -0.809725 1.937406 -0.010104 0.001554 -365933.000000 0 0 1
-27.345384 29.765828 -14.919991 43.085736 -0.827754 1.924406 -0.000197 0.005793 -618226.000000 0 0 1
-27.454224 30.555328 -13.579391 43.263869 -0.838806 1.890067 0.002660 -0.001712 -218462.000000 0 0 1
-27.067374 31.915328 -13.609691 44.005165 -0.867407 1.885227 0.017640 0.001282 -22908.500000 0 0 1
-27.606534 32.642928 -12.531191 44.550109 -0.868797 1.855927 0.012898 -0.004462 153899.000000 0 0 1
-26.954394 34.044928 -12.437991 45.169681 -0.901118 1.849762 0.002265 -0.003827 65459.100000 0 0 1
-27.400264 -34.295597 -13.557491 45.943095 0.896700 1.870349 -0.005404 -0.010958 250052.000000 0 0 1
-26.588714 -33.125897 -13.727391 44.639960 0.894438 1.883375 0.011962 -0.013200 251285.000000 0 0 1
-26.702504 -32.492697 -15.135791 44.697777 0.882903 1.916252 0.006624 -0.013991 168445.000000 0 0 1
-26.180114 -33.238297 -16.265091 45.329195 0.903632 1.937801 0.007269 -0.013399 78282.200000 0 0 1
-26.504954 -32.525197 -17.452391 45.442128 0.887033 1.964983 0.006933 0.002381 -102272.000000 0 0 1
-25.752284 -32.989597 -18.723091 45.848094 0.907986 1.991466 0.003273 0.003980 -313380.000000 0 0 1
-26.070404 -34.240297 -19.281591 47.157647 0.920042 1.992017 0.008138 0.006375 -264418.000000 0 0 1
-25.477244 33.765828 -18.694291 46.246055 -0.924404 1.986939 -0.001148 -0.005304 -508464.000000 0 0 1
-25.874924 32.488728 -19.441991 45.858698 -0.898237 2.008603 0.005680 -0.012832 1057490.000000 0 0 1
-27.232354 31.986928 -19.449691 46.293143 -0.865514 2.004398 0.006312 -0.006335 605597.000000 0 0 1
-27.950024 32.511428 -20.510091 47.527472 -0.860699 2.016998 0.010363 -0.005813 -978633.000000 0 0 1
-29.428834 32.150828 -20.523591 48.176237 -0.829572 2.010875 0.010124 -0.005297 -513601.000000 0 0 1
-29.744184 30.786828 -20.760191 47.576578 -0.802621 2.022338 0.000184 -0.007244 -823573.000000 0 0 1
-31.106624 30.639828 -20.910191 48.411333 -0.777838 2.017425 0.008123 -0.003051 -1097620.000000 0 0 1
-31.475844 29.150428 -21.254491 47.877235 -0.747060 2.030784 -0.001074 -0.002424 -696931.000000 0 0 1
-32.853904 28.950328 -21.353391 48.718249 -0.722322 2.024507 0.010851 -0.000753 -329880.000000 0 0 1
-33.090314 27.637728 -21.881291 48.348772 -0.695851 2.040444 -0.002575 0.006410 59887.800000 0 0 1
-34.595401 27.328028 -22.053991 49.295450 -0.668572 2.034634 -0.002072 0.014433 344268.000000 0 0 1
-35.120456 27.871428 -23.304891 50.530989 -0.670823 2.050143 0.001816 0.015022 -145303.000000 0 0 1
34.686422 27.011628 -23.848491 50.015262 0.661641 2.067835 0.005390 0.016028 -1641.410000 0 0 1
33.921592 27.580428 -25.049591 50.386867 0.682656 2.091102 0.011980 0.008282 219586.000000 0 0 1
34.700882 27.612828 -26.251431 51.534038 0.672137 2.105284 0.007251 0.007238 -32311.100000 0 0 1
33.867122 28.017928 -27.322091 51.754062 0.691161 2.126948 0.018322 0.010317 16843.900000 0 0 1
34.618962 28.127728 -28.643031 53.010045 0.682313 2.141628 0.009151 0.010292 -161146.000000 0 0 1
35.108168 26.977428 -29.240001 53.059803 0.655179 2.154450 0.012538 0.005953 58682.400000 0 0 1
-35.122856 27.265428 -30.538541 53.940903 -0.660114 2.172622 -0.010695 0.012619 -985307.000000 0 0 1
-34.765634 25.976228 -31.261781 53.485631 -0.641695 2.195047 -0.016276 0.010620 164472.000000 0 0 1
-33.751884 25.216928 -30.668131 52.111586 -0.641660 2.200010 -0.004024 0.007091 -104517.000000 0 0 1
-32.450754 25.761728 -30.618441 51.518996 -0.670993 2.207208 -0.016347 0.010923 -427749.000000 0 0 1
-31.599684 25.216628 -29.427231 50.003803 -0.673522 2.199998 -0.021906 0.007805 -384681.000000 0 0 1
-31.123454 23.899428 -29.603391 49.154988 -0.654854 2.217108 -0.008142 0.005095 155137.000000 0 0 1
-31.564984 22.895428 -28.687011 48.409642 -0.627533 2.205065 -0.009910 0.000222 -259312.000000 0 0 1
-31.393364 21.397328 -29.161731 47.893585 -0.598261 2.225452 -0.006999 -0.010612 -1145880.000000 0 0 1
-30.076694 20.977328 -29.162511 46.851978 -0.609020 2.242652 0.043760 -0.013991 -883851.000000 0 0 1
-29.953104 19.684628 -29.661781 46.524126 -0.581407 2.262119 0.030983 -0.016187 763312.000000 0 0 1
-28.463084 19.221628 -29.875661 45.521130 -0.593968 2.286705 0.048275 -0.020724 549120.000000 0 0 1
-27.717974 19.850928 -30.902121 46.013982 -0.621500 2.307137 0.052566 -0.016164 67723.300000 0 0 1
-26.424754 19.381728 -31.186271 45.238286 -0.632837 2.331426 0.053096 -0.027019 -64698.600000 0 0 1
-26.292244 17.924628 -31.768421 44.964508 -0.598369 2.355368 0.046194 -0.019543 -459658.000000 0 0 1
-26.786164 16.898428 -30.934551 44.271909 -0.562805 2.344431 0.026552 -0.013463 57256.900000 0 0 1
-26.653104 15.785728 -31.731951 44.345167 -0.534713 2.368232 0.011265 -0.001728 24150.900000 0 0 1
-27.176594 14.481328 -31.076771 43.749764 -0.489589 2.360763 0.011318 0.001321 278143.000000 0 0 1
-28.578164 14.460428 -30.831341 44.456575 -0.468433 2.337154 0.011284 -0.001811 249737.000000 0 0 1
-29.171704 13.197028 -30.734051 44.381660 -0.424841 2.335737 0.008595 -0.000022 -238525.000000 0 0 1
-28.840754 12.207028 -29.617211 43.104290 -0.400393 2.328295 -0.004118 -0.013852 -407627.000000 0 0 1
-29.159014 12.796128 -28.365151 42.644704 -0.413534 2.298492 -0.009858 -0.011316 355103.000000 0 0 1
-29.468114 11.885028 -27.311311 41.899061 -0.383364 2.280799 -0.002569 -0.006688 75835.600000 0 0 1
-29.479744 12.516128 -25.915711 41.198700 -0.401504 2.251117 -0.006279 -0.012248 861204.000000 0 0 1
-28.123204 12.788928 -25.492891 40.054448 -0.426794 2.260691 0.006299 -0.019600 1059620.000000 0 0 1
-28.040204 13.529228 -24.288891 39.487255 -0.449545 2.233318 0.004430 -0.015451 -275348.000000 0 0 1
-26.589074 13.848728 -23.903191 38.342257 -0.480182 2.243901 0.010528 -0.012262 -690506.000000 0 0 1
-25.977294 14.771728 -24.780491 38.821341 -0.517041 2.263112 0.017417 -0.018600 599321.000000 0 0 1
-24.581684 14.981728 -24.544191 37.830261 -0.547352 2.276800 0.031902 -0.024673 811092.000000 0 0 1
-24.094684 15.620928 -23.196691 36.914139 -0.575189 2.250286 0.037689 -0.021027 -1121220.000000 0 0 1
-24.307884 17.037928 -23.100191 37.613602 -0.611344 2.232098 0.047767 -0.017749 69457.600000 0 0 1
-24.452984 17.496628 -21.780191 37.127579 -0.621067 2.197689 0.043950 -0.014854 -424462.000000 0 0 1
-25.909524 17.652328 -21.333591 37.921369 -0.598070 2.168293 0.033415 -0.010372 -448332.000000 0 0 1
-26.683204 16.486728 -21.453191 38.000592 -0.553455 2.170683 0.035493 -0.009707 -747147.000000 0 0 1
-27.751574 16.580628 -20.584991 38.325043 -0.538554 2.137811 0.016272 0.000681 -587543.000000 0 0 1
-28.824894 15.437928 -20.736191 38.719423 -0.491702 2.135955 -0.013924 -0.005482 987270.000000 0 0 1
-29.672504 15.190328 -21.902891 39.886592 -0.473148 2.152118 -0.011413 0.000422 955961.000000 0 0 1
-30.519934 16.283928 -22.195291 41.100652 -0.490126 2.141261 -0.025179 0.002829 -522963.000000 0 0 1
-30.966044 16.314428 -23.663791 42.249632 -0.484895 2.165296 -0.018524 0.002965 21070.800000 0 0 1
-32.030644 15.456528 -24.083791 42.952246 -0.449594 2.166040 -0.011537 -0.000994 470218.000000 0 0 1
-32.183664 15.506928 -25.467371 43.872999 -0.449003 2.190114 -0.003428 -0.012459 -220214.000000 0 0 1
-33.463584 14.779028 -25.916171 44.831675 -0.415884 2.187167 -0.014591 -0.007695 -47278.100000 0 0 1
-33.333084 13.367128 -25.960671 44.314005 -0.381383 2.196706 -0.001474 -0.009167 107426.000000 0 0 1
-33.364424 12.633528 -24.692091 43.387673 -0.361969 2.176212 -0.008542 -0.006805 -380259.000000 0 0 1
-33.372864 11.128828 -24.901491 43.100848 -0.321873 2.186765 -0.000603 -0.004980 351757.000000 0 0 1
-34.620807 10.639828 -25.406551 44.241373 -0.298163 2.182510 0.008312 -0.005843 404705.000000 0 0 1
-34.497773 9.439528 -26.187251 44.328018 -0.267089 2.202798 0.006015 -0.001351 -345737.000000 0 0 1
34.962906 8.922628 -26.805241 44.950406 0.249869 2.209717 0.011427 0.006511 -79717.800000 0 0 1
34.122322 8.493128 -25.741961 43.578832 0.243945 2.202721 -0.000771 0.013278 -288226.000000 0 0 1
33.131352 7.676628 -26.323681 43.006433 0.227685 2.229493 -0.001491 0.018359 75488.200000 0 0 1
32.254482 6.828128 -25.329681 41.576047 0.208615 2.225895 -0.006514 0.016174 211038.000000 0 0 1
33.033652 5.894228 -24.635991 41.628069 0.176573 2.204101 -0.007046 0.007996 -385799.000000 0 0 1
32.243822 4.970728 -24.018191 40.512291 0.152957 2.205404 -0.002314 0.014038 -400684.000000 0 0 1
33.052092 4.006128 -23.113291 40.530409 0.120618 2.177631 -0.014374 0.016755 248577.000000 0 0 1
33.858182 3.074028 -23.810291 41.506097 0.090543 2.181761 -0.018647 0.013039 347569.000000 0 0 1
34.806163 2.410528 -22.985791 41.780692 0.069145 2.153344 -0.009611 0.013222 383975.000000 0 0 1
-35.232819 1.212628 -23.602591 42.425279 -0.034404 2.160763 0.007182 0.010154 293276.000000 0 0 1
34.683842 0.083928 -23.606691 41.955355 0.002420 2.168399 -0.005855 0.011578 302971.000000 0 0 1
35.373792 -1.003872 -24.178591 42.859272 -0.028371 2.170187 0.005022 -0.000802 185762.000000 0 0 1
-22.246084 29.816028 27.537053 46.283615 -0.929788 0.933576 0.013178 -0.009221 -459466.000000 0 0 1
-23.472484 30.060928 26.874483 46.656776 -0.907854 0.956965 0.001324 -0.017185 369960.000000 0 0 1
-23.640884 29.261828 25.695653 45.556696 -0.891252 0.971530 -0.006941 -0.004616 -335947.000000 0 0 1
-24.224584 27.858528 25.971073 45.137841 -0.855057 0.957737 -0.014451 -0.004379 -433495.000000 0 0 1
-25.533934 27.846628 26.503953 46.150579 -0.828696 0.959056 -0.007050 0.003891 141693.000000 0 0 1
-25.566714 27.808628 27.931733 46.980404 -0.827376 0.934103 -0.003004 -0.000842 -1227270.000000 0 0 1
-25.140324 26.506428 28.624483 46.411072 -0.811843 0.906177 0.005399 0.003121 -751665.000000 0 0 1
-23.800484 26.378428 28.967183 45.840835 -0.836728 0.886784 0.015306 0.004134 -915275.000000 0 0 1
-23.581984 26.888828 30.245633 46.839271 -0.850825 0.868814 0.013590 -0.001984 297275.000000 0 0 1
-22.217384 26.527228 30.908583 46.396621 -0.873586 0.841719 0.031810 0.003161 888477.000000 0 0 1
-21.063984 27.168328 30.348713 45.856884 -0.911290 0.847561 0.029173 0.003822 820293.000000 0 0 1
-19.815384 26.813728 30.923353 45.473940 -0.934372 0.823001 0.041353 0.012240 895553.000000 0 0 1
-19.060684 25.556928 30.354973 44.021479 -0.929980 0.809930 0.029936 0.013896 191466.000000 0 0 1
-18.751284 25.509028 28.938273 42.892246 -0.936910 0.830274 0.028438 0.005924 -4013.700000 0 0 1
-19.795684 24.878228 28.253023 42.532677 -0.898681 0.844285 0.027583 -0.006206 -238736.000000 0 0 1
-19.592984 23.322228 28.081143 41.428999 -0.872078 0.826011 0.043428 0.011609 70337.400000 0 0 1
-19.929484 22.509828 29.207803 41.916255 -0.846124 0.799851 0.019676 0.010187 116144.000000 0 0 1
-19.565284 21.159228 28.918363 40.826278 -0.824518 0.783671 0.016888 0.010178 95425.700000 0 0 1
-20.027784 20.201328 29.991053 41.336050 -0.789712 0.758974 0.015425 0.003084 88813.900000 0 0 1
-19.250084 20.401728 31.174623 41.936301 -0.814434 0.732686 0.012193 0.004800 603155.000000 0 0 1
-19.965884 20.113028 32.406973 43.050927 -0.789069 0.718553 0.007297 -0.000043 250293.000000 0 0 1
-19.171484 20.673528 33.608176 43.868554 -0.823077 0.698028 0.010430 -0.005301 -128544.000000 0 0 1
-19.155684 22.123428 33.759257 44.677441 -0.857169 0.714193 0.003363 -0.004712 267250.000000 0 0 1
-18.180884 22.772428 32.943874 43.982120 -0.897048 0.724201 0.019242 0.002479 1111800.000000 0 0 1
-16.667284 22.825328 33.386217 43.742810 -0.940082 0.702485 0.011076 0.014053 978907.000000 0 0 1
-16.066584 21.565228 33.431679 42.905376 -0.930488 0.677415 0.015906 0.001763 -1286630.000000 0 0 1
-14.733884 21.690828 33.785402 42.767192 -0.974120 0.660013 0.015870 0.003579 -1489970.000000 0 0 1
-14.107584 20.281128 33.767039 41.839706 -0.963028 0.631645 0.013886 0.003131 286888.000000 0 0 1
-12.752584 20.213628 34.211224 41.732805 -1.007972 0.609790 0.002661 -0.004436 618390.000000 0 0 1
-12.639084 20.306628 -33.338141 41.030930 -1.014060 2.519246 0.009147 -0.001464 -1197720.000000 0 0 1
-11.203184 20.253028 -32.879991 40.209331 -1.065530 2.528236 0.004251 -0.002600 -468949.000000 0 0 1
-10.385184 21.386428 -33.093741 40.748338 -1.118737 2.518623 0.004108 -0.002601 -675492.000000 0 0 1
-9.066484 21.120828 -32.753751 40.013731 -1.165317 2.529701 -0.003518 -0.000186 -414981.000000 0 0 1
-8.087684 22.333428 -32.760771 40.465550 -1.223353 2.514261 -0.001764 -0.007850 220145.000000 0 0 1
-8.205084 23.402628 -31.761661 40.296520 -1.233582 2.478673 0.005564 -0.003141 -144527.000000 0 0 1
-7.807184 23.035428 -30.466251 38.984298 -1.244026 2.467864 0.008079 -0.005676 -175816.000000 0 0 1
-7.508484 24.347828 -29.645791 39.090497 -1.271666 2.431634 0.004334 -0.004173 644025.000000 0 0 1
-6.361984 25.057728 -30.150491 39.716705 -1.322157 2.432785 0.003929 -0.006027 415899.000000 0 0 1
-5.983984 25.992628 -29.227421 39.568509 -1.344520 2.401867 0.012950 0.003686 131577.000000 0 0 1
-4.717984 26.806628 -29.666511 40.261105 -1.396580 2.399200 0.009715 -0.000383 -87582.300000 0 0 1
-3.563984 26.063928 -29.299431 39.376223 -1.434899 2.409967 0.016110 0.002975 799117.000000 0 0 1
-2.328484 26.668128 -29.750621 40.021373 -1.483704 2.408888 0.023689 0.001417 951250.000000 0 0 1
-1.843584 28.055128 -29.283341 40.595604 -1.505178 2.376535 0.026284 -0.010796 -850708.000000 0 0 1
-1.194984 28.068928 -28.032291 39.687555 -1.528249 2.355089 0.037245 -0.021302 238887.000000 0 0 1
-0.776884 29.361228 -27.766761 40.418786 -1.544343 2.328117 0.036113 -0.016905 -744807.000000 0 0 1
-0.279084 29.534228 -26.315591 39.558297 -1.561347 2.298606 0.043398 -0.031201 1116940.000000 0 0 1
0.939516 28.903828 -25.830001 38.775029 1.538303 2.299832 0.063624 -0.037268 1975060.000000 0 0 1
2.157616 29.342628 -26.475991 39.580591 1.497397 2.303542 0.063451 -0.036948 284666.000000 0 0 1
3.407916 29.179528 -25.605971 38.970816 1.454532 2.287702 0.062318 -0.040668 -204646.000000 0 0 1
3.808416 27.850528 -25.344681 37.848498 1.434894 2.304514 0.074220 -0.035125 504381.000000 0 0 1
4.985716 27.840428 -24.527991 37.437536 1.393593 2.285205 0.052423 -0.026096 327756.000000 0 0 1
5.606316 26.460028 -24.164691 36.269769 1.362005 2.299964 0.056073 -0.024467 -133286.000000 0 0 1
6.671716 26.694828 -23.257291 36.028145 1.325888 2.272515 0.046317 -0.023122 -350223.000000 0 0 1
7.424616 25.493728 -23.146991 35.225534 1.287402 2.287772 0.036039 -0.007037 -143093.000000 0 0 1
8.894716 25.745928 -22.810391 35.528618 1.238153 2.267938 0.031455 0.006171 -804891.000000 0 0 1
8.944916 26.315628 -21.461091 35.115555 1.243139 2.228317 0.040702 0.001681 1062800.000000 0 0 1
10.282016 26.537528 -20.934291 35.329942 1.201154 2.205001 0.044426 0.001625 1383910.000000 0 0 1
11.037516 25.257328 -20.443691 34.317690 1.158804 2.208957 0.023079 0.007432 -162402.000000 0 0 1
11.371216 24.417828 -21.528491 34.482036 1.134969 2.245082 0.024891 0.003877 -215752.000000 0 0 1
11.797116 23.188128 -21.051191 33.466608 1.100168 2.251089 0.026113 0.006553 -468621.000000 0 0 1
12.008916 22.219428 -22.229091 33.645944 1.075300 2.292516 0.026362 0.004302 -336947.000000 0 0 1
10.752516 21.857128 -22.726191 33.314117 1.113613 2.321535 0.018070 0.001774 -195332.000000 0 0 1
10.866816 20.883128 -23.780891 33.462270 1.090991 2.361257 0.021225 0.002309 -269323.000000 0 0 1
9.919616 20.951328 -24.980791 34.079273 1.128605 2.393548 0.039810 0.004071 269243.000000 0 0 1
8.528116 20.904628 -24.647691 33.425154 1.183452 2.400009 0.029245 0.001502 41467.700000 0 0 1
7.879016 20.907728 -25.889221 34.197423 1.210407 2.429585 0.030184 0.000014 -609948.000000 0 0 1
6.407216 20.481528 -25.642821 33.437997 1.267612 2.444757 0.024058 -0.008276 301606.000000 0 0 1
5.493116 21.517028 -25.244181 33.621801 1.320844 2.420111 0.044068 -0.005360 393668.000000 0 0 1
5.751616 22.175628 -24.030691 33.201109 1.317022 2.380078 0.039898 -0.005204 -700091.000000 0 0 1
4.411316 22.659028 -23.421391 32.885450 1.378519 2.363440 0.053982 -0.014704 514173.000000 0 0 1
3.888316 23.799728 -24.187191 34.155033 1.408851 2.357684 0.052615 -0.018591 535718.000000 0 0 1
2.527216 24.049528 -23.842491 33.959255 1.466097 2.349126 0.071460 -0.016859 464165.000000 0 0 1
1.919116 25.191228 -24.740391 35.360542 1.494761 2.345719 0.060250 -0.013560 666437.000000 0 0 1
0.493416 25.247928 -24.883591 35.452707 1.551256 2.348832 0.068418 -0.036421 700139.000000 0 0 1
0.173716 25.606528 -26.180091 36.621327 1.564012 2.367258 0.059432 -0.025682 88266.100000 0 0 1
-1.338384 25.369728 -26.394351 36.634357 -1.518090 2.375292 0.063116 -0.024485 47818.100000 0 0 1
-1.619184 24.024228 -26.677521 35.937103 -1.503500 2.407351 0.077363 -0.033889 -352727.000000 0 0 1
-2.939284 23.829828 -27.105261 36.210430 -1.448071 2.416667 0.069819 -0.021608 -287428.000000 0 0 1
-3.207884 22.367028 -27.433621 35.541216 -1.428347 2.452592 0.049994 -0.019021 -654465.000000 0 0 1
-2.596984 21.970828 -28.600431 36.158626 -1.453141 2.483191 0.060845 -0.019567 -221643.000000 0 0 1
-3.152384 20.752728 -29.103521 35.883536 -1.420047 2.516750 0.039534 -0.024926 466481.000000 0 0 1
-4.463484 21.012328 -29.925101 36.836833 -1.361485 2.518999 0.017097 -0.017892 88535.600000 0 0 1
-4.313084 21.397928 -31.282321 38.145217 -1.371896 2.532356 0.014409 -0.009929 56165.200000 0 0 1
-3.689284 22.661728 -31.519511 38.995439 -1.409414 2.512033 0.025311 -0.014308 -11827.100000 0 0 1
-3.488484 22.785928 -33.085921 40.324263 -1.418878 2.533076 0.013208 -0.006316 231175.000000 0 0 1
-2.471184 21.878528 -33.498111 40.086159 -1.458323 2.560117 0.011554 -0.001216 321101.000000 0 0 1
-2.074784 22.152828 34.095172 40.712814 -1.477411 0.578186 0.009616 0.010633 -358346.000000 0 0 1
-0.987184 21.217428 33.611523 39.760385 -1.524303 0.563573 0.019720 0.018994 -268326.000000 0 0 1
-1.392384 19.858728 33.637560 39.086996 -1.500796 0.534385 0.005903 0.035768 276981.000000 0 0 1
-0.349484 19.099828 33.051207 38.174702 -1.552501 0.524073 0.013612 0.031060 225021.000000 0 0 1
-0.829384 17.734328 32.528733 37.058234 -1.524063 0.499602 0.001623 0.034543 237762.000000 0 0 1
-1.484284 17.778428 31.248693 35.982724 -1.487502 0.518757 -0.004122 0.028561 258632.000000 0 0 1
-1.765184 16.501728 30.751483 34.943906 -1.464232 0.494883 -0.012940 0.020502 376453.000000 0 0 1
-2.809884 16.565828 29.579623 34.018762 -1.402776 0.516589 0.001335 0.020237 1261640.000000 0 0 1
-4.191584 16.880128 29.840053 34.538918 -1.327404 0.527726 -0.007484 0.011051 852515.000000 0 0 1
-4.452984 18.164028 29.415993 34.857734 -1.330384 0.566309 -0.006972 0.009799 -1492120.000000 0 0 1
-5.908584 18.449828 29.523293 35.311929 -1.260865 0.580714 -0.022313 0.000525 -1472100.000000 0 0 1
-6.668284 17.782028 28.584473 34.318197 -1.212024 0.586424 -0.028596 0.000793 -1593320.000000 0 0 1
-8.001384 18.138828 28.621183 34.816825 -1.155352 0.605794 -0.015743 0.006581 -1265450.000000 0 0 1
-8.812184 17.140128 27.737943 33.776205 -1.095912 0.607238 -0.015720 -0.001808 -351305.000000 0 0 1
-9.045184 15.823628 28.250613 33.619930 -1.051502 0.572972 -0.019577 -0.013462 -270000.000000 0 0 1
-9.823984 15.783528 29.411573 34.794698 -1.014054 0.563691 -0.016578 -0.010108 -1026970.000000 0 0 1
-10.401784 14.399228 29.725573 34.628667 -0.945204 0.538636 -0.015888 -0.011509 -460871.000000 0 0 1
-9.598884 13.244928 29.991323 34.162057 -0.943671 0.499310 -0.002764 -0.009221 -560641.000000 0 0 1
-8.723784 13.418928 31.069383 34.949658 -0.994344 0.475694 -0.009528 -0.003975 -545320.000000 0 0 1
-9.220884 13.165928 32.488923 36.247710 -0.959829 0.459436 0.009280 -0.007945 -560482.000000 0 0 1
-9.392484 11.775228 32.794243 36.087908 -0.897491 0.430560 0.005359 -0.004339 222661.000000 0 0 1
-9.752384 11.469328 34.124917 37.298317 -0.866127 0.415491 -0.001552 0.000851 -320966.000000 0 0 1
-10.194284 10.047728 34.332447 37.196736 -0.778158 0.395001 0.003796 0.005217 -346040.000000 0 0 1
-9.195984 9.037128 34.220209 36.568545 -0.776686 0.360324 0.009738 0.002222 -11500.600000 0 0 1
-8.980684 8.244528 -33.568031 35.713270 -0.742687 2.793226 0.026159 -0.002463 -63468.900000 0 0 1
-8.245284 8.895928 -32.382861 34.579935 -0.823338 2.783206 0.022298 -0.001563 -85116.700000 0 0 1
-9.069584 9.894928 -31.771111 34.490150 -0.828891 2.741859 0.016999 -0.000347 507799.000000 0 0 1
-8.336484 10.695128 -30.855761 33.704016 -0.908702 2.727526 0.012396 -0.003859 273091.000000 0 0 1
-7.386984 11.789228 -31.454301 34.393698 -1.011056 2.725158 0.000015 0.004847 451709.000000 0 0 1
-8.053484 12.992128 -31.905681 35.378333 -1.015892 2.694811 0.005940 0.002263 73772.200000 0 0 1
-7.139984 13.955228 -32.388151 35.982219 -1.097884 2.690831 -0.009491 0.006153 -268728.000000 0 0 1
-7.681384 15.288428 -32.835951 37.026198 -1.105206 2.661236 -0.008892 0.005448 -521248.000000 0 0 1
-8.321184 15.268128 -34.085346 38.264457 -1.071797 2.669863 0.000199 -0.003385 -72273.200000 0 0 1
-8.611584 16.634028 -34.309176 39.089254 -1.093082 2.641866 0.003279 -0.006081 -1131210.000000 0 0 1
-8.834384 16.882128 33.129716 38.218198 -1.088684 0.521933 0.009748 -0.017545 265033.000000 0 0 1
-10.049784 16.490428 32.519563 37.821348 -1.023471 0.535879 -0.009424 -0.013445 1422720.000000 0 0 1
-11.309084 16.981828 33.075681 38.862302 -0.983289 0.552721 -0.007446 -0.009670 1223890.000000 0 0 1
-12.550284 16.477328 32.252153 38.330319 -0.919868 0.570878 -0.000005 -0.015804 310508.000000 0 0 1
-12.597184 15.065828 32.186443 37.704580 -0.874402 0.547847 -0.006775 -0.014341 336292.000000 0 0 1
-13.609184 14.503728 33.012048 38.540412 -0.817207 0.542236 -0.004136 -0.008766 -137397.000000 0 0 1
-13.591384 12.912728 33.079250 38.022375 -0.759798 0.515606 -0.009658 -0.000832 -74896.200000 0 0 1
-13.816484 12.430128 31.807113 36.838780 -0.732627 0.528799 -0.021055 -0.002305 194096.000000 0 0 1
-12.630184 11.866028 31.266673 35.748133 -0.754213 0.506108 -0.016080 0.004609 -88573.200000 0 0 1
-12.775284 11.346828 29.853073 34.397156 -0.726250 0.519850 -0.011265 0.008691 -288673.000000 0 0 1
-13.482184 10.141628 29.668283 34.129590 -0.644923 0.517046 -0.017599 0.008664 -33455.800000 0 0 1
-13.348784 9.710828 28.323383 32.782682 -0.628925 0.527687 -0.034051 0.017146 62661.200000 0 0 1
-14.210084 8.453528 28.012103 32.527935 -0.536658 0.533228 -0.018211 0.020079 274630.000000 0 0 1
-13.863284 7.324628 28.781363 32.775107 -0.486067 0.498821 -0.032479 0.019260 163508.000000 0 0 1
-14.728284 6.264328 28.429683 32.625313 -0.402147 0.512748 -0.018152 0.026029 206460.000000 0 0 1
-13.910284 4.966628 28.421613 32.030477 -0.342939 0.479273 -0.014233 0.023570 32073.700000 0 0 1
-13.015184 4.793928 27.377503 30.690462 -0.352913 0.468930 -0.015785 0.008885 -163364.000000 0 0 1
-13.682584 4.552628 26.127093 29.842328 -0.321209 0.504317 -0.005457 0.009767 -26012.100000 0 0 1
-12.731784 4.331528 24.941743 28.336390 -0.327930 0.494509 -0.008289 0.013100 -97942.600000 0 0 1
-11.933784 3.162928 24.978673 27.863119 -0.259083 0.459041 -0.011645 0.007108 341422.000000 0 0 1
-11.369184 2.847128 23.660783 26.404491 -0.245379 0.459917 -0.005021 0.006785 -44574.000000 0 0 1
-10.467384 1.606528 23.737783 25.992872 -0.152291 0.419624 -0.005193 -0.002473 -292024.000000 0 0 1
-9.176384 1.990528 24.159923 25.920457 -0.213609 0.370685 -0.003134 -0.004415 -375539.000000 0 0 1
-8.477284 0.901328 24.700813 26.130574 -0.105925 0.332332 -0.003914 0.006090 -60350.500000 0 0 1
-6.951484 1.086628 24.561183 25.549082 -0.155061 0.278993 0.001912 0.000586 -607554.000000 0 0 1
-6.487684 1.270328 23.229383 24.151770 -0.193360 0.277261 0.005340 0.002361 608329.000000 0 1 0
-5.071884 1.455728 23.111283 23.706002 -0.279506 0.224468 -0.004019 0.005678 850688.000000 0 1 0
-4.520584 2.810928 23.643683 24.235526 -0.556299 0.221452 0.011278 0.004892 -865167.000000 0 1 0
-4.383984 2.886628 25.036543 25.580860 -0.582291 0.206660 0.008564 0.003932 -30643.900000 0 0 1
-4.122584 4.222428 25.572463 26.244532 -0.797362 0.226795 0.011181 -0.000375 -48808.400000 0 0 1
3.529816 -23.434072 12.549509 26.816143 -1.421293 1.083789 0.033286 0.002191 -128843.000000 0 0 1
3.518716 -24.753872 13.116509 28.234347 -1.429594 1.087660 0.022745 -0.003106 -881213.000000 0 0 1
2.274316 -25.356952 13.129809 28.645059 -1.481344 1.094645 0.001193 -0.002450 -709233.000000 0 0 1
2.410216 -26.698872 13.885509 30.190169 -1.480766 1.092875 0.005738 -0.003507 123190.000000 0 0 1
2.187016 -26.697542 15.283509 30.840354 -1.489061 1.052307 0.018145 -0.012297 124628.000000 0 0 1
2.481416 -27.970832 15.874409 32.257119 -1.482314 1.056272 0.011365 -0.014722 -406772.000000 0 0 1
2.270216 -28.069562 17.373509 33.089168 -1.490094 1.018021 0.013215 -0.016323 -499505.000000 0 0 1
3.211616 -27.277142 17.999809 32.838241 -1.453596 0.990663 0.021437 -0.012623 -100998.000000 0 0 1
3.330716 -27.616582 19.381209 33.902810 -1.450770 0.962257 0.010825 -0.011333 -121905.000000 0 0 1
3.895216 -26.482282 20.219609 33.545738 -1.424756 0.923856 0.016088 -0.009343 -486666.000000 0 0 1
2.957416 -25.494502 20.497009 32.845751 -1.455310 0.896896 0.022401 -0.008795 -333869.000000 0 0 1
3.390816 -24.555672 21.473309 32.796062 -1.433577 0.856941 0.031653 0.001183 -459373.000000 0 0 1
2.440316 -23.434872 21.833709 32.122566 -1.467038 0.823443 0.032778 0.009645 -650972.000000 0 0 1
2.103616 -22.391172 20.966809 30.747307 -1.477123 0.820429 0.032057 -0.001030 527612.000000 0 0 1
3.159416 -21.502272 20.535509 29.900447 -1.424906 0.813725 0.028436 0.005736 235832.000000 0 0 1
2.604016 -20.338772 19.791209 28.498044 -1.443457 0.803105 0.019828 -0.004742 -182923.000000 0 0 1
2.084916 -19.448972 20.716309 28.491663 -1.464005 0.756707 0.014307 -0.003670 6879.180000 0 0 1
1.267416 -18.490972 20.027809 27.288011 -1.502361 0.746689 0.013026 -0.010684 87380.700000 0 0 1
1.017216 -17.261772 20.868309 27.101473 -1.511936 0.691945 0.004238 -0.006032 -464143.000000 0 0 1
2.150316 -16.464672 20.838009 26.644547 -1.440930 0.672809 -0.007271 0.006660 -448773.000000 0 0 1
1.813316 -15.252072 21.476109 26.403354 -1.452462 0.620848 0.005576 0.014330 304054.000000 0 0 1
2.745216 -14.048972 21.205209 25.584580 -1.377825 0.593787 -0.011995 0.016553 -351711.000000 0 0 1
3.068916 -13.599272 19.898809 24.296523 -1.348846 0.611133 -0.011090 0.017914 356428.000000 0 1 0
1.938916 -13.317772 19.058509 23.331293 -1.426223 0.614842 -0.006347 0.030689 759259.000000 0 1 0
1.112916 -12.067872 19.485409 22.946749 -1.478835 0.556408 -0.012271 0.026177 -66480.500000 0 1 0
1.865016 -10.889072 19.241509 22.187516 -1.401168 0.521200 -0.006480 0.022341 -58681.700000 0 1 0
1.511716 -9.835272 20.112109 22.439135 -1.418286 0.459451 -0.000250 0.004421 554256.000000 0 1 0
0.076416 -9.225272 20.062709 22.082205 -1.562513 0.431005 0.007985 -0.001048 531054.000000 0 1 0
-0.163184 -8.252672 21.049509 22.610065 1.551025 0.373709 0.011390 -0.010313 -863044.000000 0 1 0
-1.501584 -7.867872 21.045309 22.518064 1.382214 0.363673 0.011997 -0.008433 -463465.000000 0 1 0
-1.790684 -7.113972 22.381109 23.552690 1.324205 0.316736 0.013883 -0.003700 -242979.000000 0 1 0
-1.739584 -7.960372 23.478809 24.852528 1.355648 0.334041 0.016445 0.005178 92174.300000 0 1 0
-1.984584 -7.299372 24.724609 25.855864 1.305329 0.296901 0.012087 0.013086 -154176.000000 0 0 1
-2.080984 -8.265772 25.932609 27.297503 1.324163 0.317563 0.018567 0.011706 707791.000000 0 0 1
-0.898084 -9.066472 26.077409 27.623156 1.472063 0.336120 0.014271 0.011014 700873.000000 0 0 1
-1.189184 -10.026272 27.061109 28.883281 1.452741 0.357105 0.023955 0.005346 359951.000000 0 0 1
-0.001984 -11.018772 27.314009 29.452817 1.570616 0.383443 0.018623 0.007704 781666.000000 0 0 1
0.930316 -10.510372 28.296609 30.199859 -1.482512 0.356918 0.002736 0.009213 402721.000000 0 0 1
1.982116 -11.468072 28.480709 30.766804 -1.399649 0.387925 0.008858 -0.000338 -10219.800000 0 0 1
2.975016 -10.919672 29.482409 31.580095 -1.304807 0.366532 0.002900 0.001153 -570849.000000 0 0 1
2.400916 -10.814372 30.774409 32.707481 -1.352328 0.345524 0.002784 -0.004796 -110731.000000 0 0 1
3.229616 -10.193272 31.748009 33.500288 -1.263964 0.324866 0.001299 0.003465 -291696.000000 0 0 1
2.768316 -10.233972 33.240809 34.890531 -1.306616 0.308740 -0.003620 0.001856 -259145.000000 0 0 1
2.953716 -11.531872 33.762809 35.799941 -1.320052 0.338973 -0.005088 -0.004554 -17538.500000 0 0 1
2.589416 -11.674972 -33.839665 35.890569 -1.352537 2.801899 -0.002379 -0.006749 -371697.000000 0 0 1
3.342316 -10.848772 -32.731665 34.644319 -1.271941 2.807755 -0.002147 -0.000395 -28166.000000 0 0 1
2.945016 -9.474272 -32.695565 34.167747 -1.269421 2.846975 -0.001125 -0.007774 136754.000000 0 0 1
3.546516 -8.679072 -31.681965 33.040142 -1.182874 2.853872 0.004973 -0.002470 -66129.500000 0 0 1
2.806616 -7.347572 -31.371265 32.342235 -1.205921 2.895938 -0.006046 -0.004021 -132308.000000 0 0 1
3.017516 -6.402972 -32.382765 33.147352 -1.130397 2.926393 0.012376 -0.005227 100465.000000 0 0 1
2.898016 -5.066272 -31.929065 32.458139 -1.051203 2.960791 0.014127 -0.001689 -60950.600000 0 0 1
3.136716 -3.975172 -32.988065 33.374442 -0.902752 2.989281 0.016842 -0.001116 -1086490.000000 0 0 1
2.013716 -3.689272 -33.698565 33.959668 -1.071160 3.017508 0.014891 -0.001394 -868278.000000 0 0 1
2.398216 -2.721872 34.207609 34.399426 -0.848527 0.105654 0.023272 -0.001063 277994.000000 0 0 1
1.912316 -3.054472 32.762609 32.960208 -1.011427 0.109554 0.018952 -0.005225 722403.000000 0 0 1
0.512816 -2.795872 32.612109 32.735753 -1.389394 0.086942 0.016300 -0.010650 132710.000000 0 0 1
0.142716 -3.525472 31.462109 31.659337 -1.530337 0.111680 0.010769 0.001261 -94135.200000 0 0 1
-1.372084 -3.705172 31.280809 31.529350 1.216139 0.125644 0.013826 -0.008893 -129116.000000 0 0 1
-2.074384 -2.515472 30.931509 31.102876 0.881205 0.105022 0.025575 -0.010014 1375080.000000 0 0 1
-3.507884 -2.791672 31.018909 31.341209 0.672192 0.143536 0.008370 -0.007157 1544870.000000 0 0 1
-4.449784 -1.823072 30.311909 30.690976 0.388840 0.157331 0.017380 -0.010821 -434067.000000 0 0 1
-4.209184 -1.773672 28.915709 29.274244 0.398802 0.156669 0.016765 -0.006368 -493555.000000 0 0 1
-5.219584 -1.152872 28.189509 28.691838 0.217384 0.187398 0.003497 -0.009411 -295967.000000 0 0 1
-5.452084 0.352828 28.430809 28.951004 -0.064624 0.189853 0.006227 -0.011126 28105.400000 0 0 1
-6.224584 0.614928 29.593309 30.247108 -0.098471 0.208296 0.009935 -0.006426 -206789.000000 0 0 1
-6.753584 1.902628 29.571709 30.392711 -0.274604 0.232962 0.009538 -0.002342 800002.000000 0 0 1
-8.259184 2.284628 29.852409 31.058010 -0.269869 0.279541 -0.006063 0.004352 825251.000000 0 0 1
-9.135484 1.791428 28.888609 30.351573 -0.193638 0.311746 -0.019229 0.010187 -1142480.000000 0 0 1
-10.410684 2.290528 29.036509 30.931339 -0.216567 0.351838 -0.029560 0.019805 -396927.000000 0 0 1
-11.506484 1.471528 28.261809 30.549868 -0.127196 0.389487 -0.023861 0.014955 364913.000000 0 0 1
-11.763584 0.139828 28.807109 31.116732 -0.011886 0.387715 -0.017450 0.010717 212088.000000 0 0 1
-12.022984 -0.803672 27.723909 30.229343 0.066745 0.410004 -0.013286 0.013275 -627372.000000 0 0 1
-11.662184 -2.326472 28.047909 30.464803 0.196904 0.401013 -0.008963 0.014614 1062620.000000 0 0 1
-10.291284 -2.717372 28.260109 30.198152 0.258154 0.360211 -0.003146 0.006470 1637110.000000 0 0 1
-9.240684 -2.354672 27.350609 28.965333 0.249506 0.335478 0.013582 0.001169 117199.000000 0 0 1
-9.216884 -2.960772 25.913209 27.662457 0.310822 0.357529 0.008731 0.001728 -1007070.000000 0 0 1
-10.205784 -2.377372 25.126109 27.223726 0.228862 0.395124 -0.004554 0.006016 -37996.000000 0 0 1
-10.207084 -2.862772 23.812809 26.065876 0.273444 0.418837 0.006000 0.000668 -379499.000000 0 0 1
-9.177384 -2.276072 22.827709 24.708484 0.243104 0.392694 0.004973 -0.002874 288492.000000 0 1 0
-7.865984 -2.629372 23.229609 24.665807 0.322594 0.342929 -0.002638 -0.001824 97701.500000 0 1 0
-6.867784 -2.191872 22.303709 23.439842 0.308934 0.312624 -0.001558 -0.001306 829506.000000 0 1 0
-5.406784 -2.515072 22.746109 23.514769 0.435397 0.256391 -0.000407 0.000637 257572.000000 0 1 0
-4.976184 -3.835872 22.697509 23.551077 0.656710 0.270053 0.010842 -0.003852 -249201.000000 0 1 0
-5.480984 -4.736872 23.672709 24.756339 0.712702 0.296968 0.009969 0.001362 -186608.000000 0 1 0
-5.332884 -6.196872 23.156309 24.557189 0.860194 0.339401 0.014289 0.001655 -64094.500000 0 1 0
-6.276584 -6.660072 22.205909 24.017795 0.815033 0.390915 0.023159 -0.005562 -62107.900000 0 1 0
-5.983684 -6.216972 20.906809 22.617469 0.804517 0.391427 0.026619 -0.008690 -400578.000000 0 1 0
-7.140884 -6.214072 19.890409 22.028057 0.716111 0.444193 0.022168 -0.012940 112280.000000 0 1 0
-8.096684 -5.186972 20.148809 22.325669 0.569759 0.445268 0.020201 -0.009469 -21111.200000 0 1 0
-9.097884 -5.148872 19.156609 21.823337 0.515000 0.499538 0.019539 -0.006023 111835.000000 0 1 0
-9.826784 -3.790272 19.221109 21.917639 0.368126 0.501276 0.012132 -0.007297 -237838.000000 0 1 0
-9.037984 -2.734572 18.734309 20.979451 0.293808 0.466865 0.013540 -0.013129 -85813.300000 0 1 0
-9.603784 -1.457772 18.860109 21.214653 0.150642 0.475611 0.005218 -0.010206 26621.400000 0 1 0
-8.618084 -0.373172 18.317009 20.246566 0.043274 0.440128 0.012816 -0.007336 871046.000000 0 1 0
-7.436684 -0.148572 19.110609 20.507114 0.019976 0.371176 0.008118 -0.000162 753693.000000 0 1 0
-7.618684 0.698628 20.270609 21.666334 -0.091444 0.360896 0.012221 0.002656 -262520.000000 0 1 0
-7.473384 2.223028 20.076609 21.537492 -0.289124 0.370434 0.002158 -0.004059 -1129120.000000 0 1 0
-8.496484 2.770628 19.359109 21.322329 -0.315218 0.432486 0.007162 -0.009403 -780458.000000 0 1 0
-8.277484 4.053728 18.874009 21.004230 -0.455397 0.454271 0.002578 -0.013110 -91121.200000 0 1 0
-9.199784 4.362728 17.669709 20.393333 -0.442812 0.522758 0.006400 -0.013212 183227.000000 0 1 0
-10.572184 4.460228 18.049309 21.387900 -0.399228 0.566280 0.006986 -0.007983 264914.000000 0 1 0
-11.343284 4.993828 16.998509 21.037056 -0.414712 0.630001 0.003778 -0.000160 -245675.000000 0 1 0
-11.463784 6.521228 16.891809 21.430772 -0.517204 0.662912 0.008569 -0.000565 -517595.000000 0 1 0
-10.247584 7.197128 16.649209 20.832854 -0.612284 0.644866 0.006168 -0.000590 151967.000000 0 1 0
-10.485684 8.555028 16.545209 21.374799 -0.684347 0.685580 0.006577 -0.008412 215423.000000 0 1 0
-9.224384 9.444828 16.702009 21.289696 -0.797205 0.668889 0.002372 0.002073 40148.700000 0 1 0
-8.730584 9.494628 18.063909 22.196303 -0.827296 0.620092 0.012272 0.014891 -172301.000000 0 1 0
-7.490584 10.144928 18.161909 22.110707 -0.934788 0.606921 0.004005 0.007751 -210026.000000 0 1 0
-7.513484 11.735028 17.895609 22.680744 -1.001298 0.661581 -0.015695 0.010536 -688157.000000 0 1 0
-7.668384 12.152428 16.597909 21.953956 -1.007882 0.713566 -0.011970 0.003448 -109101.000000 0 1 0
-8.300184 13.416628 16.632909 22.924934 -1.016777 0.758981 -0.002748 0.003363 -127376.000000 0 1 0
-8.486684 14.072628 15.260209 22.426249 -1.028128 0.822403 0.016937 0.000027 -290119.000000 0 1 0
-7.294684 14.522228 14.701809 21.914623 -1.105301 0.835418 0.017451 -0.001214 -679740.000000 0 1 0
-7.493484 15.365328 13.558709 21.819354 -1.117047 0.900259 0.018321 -0.004976 75595.700000 0 1 0
-6.624284 16.666928 13.574109 22.492756 -1.192489 0.922928 -0.001582 0.011133 -869124.000000 0 1 0
-5.284084 16.387628 13.579709 21.929076 -1.258878 0.903002 -0.001005 0.004170 -1371330.000000 0 1 0
-4.508484 17.589928 13.602009 22.688028 -1.319887 0.927891 0.000443 0.000569 -145476.000000 0 1 0
-2.987584 17.473628 13.647909 22.372276 -1.401457 0.914689 0.001906 0.001250 -492736.000000 0 1 0
-2.309084 16.793628 14.696909 22.435618 -1.434155 0.856521 -0.002363 -0.003993 -12780.500000 0 1 0
-2.470884 15.442528 14.785309 21.521670 -1.412136 0.813449 -0.005823 0.002125 -468629.000000 0 1 0
-1.483784 14.855328 15.810409 21.745147 -1.471244 0.756741 -0.017438 0.006602 -535505.000000 0 1 0
-0.258084 14.486028 15.240909 21.028479 -1.552982 0.760089 -0.018832 -0.006757 7829.590000 0 1 0
0.671616 13.948428 16.224709 21.406795 1.522684 0.710673 -0.018490 0.003390 964556.000000 0 1 0
1.637816 14.968128 16.925409 22.653846 1.461810 0.727060 -0.019847 0.000583 395937.000000 0 1 0
0.912216 15.966428 17.637309 23.808268 1.513725 0.736527 -0.027613 0.000072 550630.000000 0 1 0
1.889716 16.848328 18.218609 24.886842 1.459103 0.749458 -0.017741 0.001507 718252.000000 0 1 0
1.178616 18.111128 18.863309 26.176832 1.505811 0.766113 -0.010000 0.000918 490614.000000 0 0 1
0.743116 19.133928 17.960509 26.253367 1.531978 0.817397 -0.008657 0.002780 -320822.000000 0 0 1
-0.436284 18.815528 17.285309 25.553793 -1.547613 0.827894 -0.003440 0.004707 -992156.000000 0 0 1
-1.035584 20.022828 16.552109 25.999200 -1.519122 0.880664 -0.005236 0.002555 2802.310000 0 0 1
-1.722584 20.888628 17.494609 27.301344 -1.488517 0.875261 0.002459 -0.003400 19812.500000 0 0 1
-2.486184 21.797928 16.753609 27.604604 -1.457231 0.918625 0.013668 -0.010978 -536146.000000 0 0 1
-3.237284 22.839328 17.619909 29.027161 -1.429993 0.918498 0.014905 -0.000820 296350.000000 0 0 1
-4.341784 22.371828 18.410309 29.296574 -1.379106 0.891287 0.022364 -0.006232 346277.000000 0 0 1
-4.824284 23.387328 19.242609 30.667879 -1.367372 0.892520 0.024925 0.002039 498415.000000 0 0 1
-6.037084 22.919628 20.147609 31.107585 -1.313244 0.866267 0.025958 -0.004715 258828.000000 0 0 1
-7.164884 22.635028 19.382209 30.648818 -1.264235 0.886153 0.020900 -0.003208 -110072.000000 0 0 1
-8.260384 22.219528 20.208209 31.149849 -1.214867 0.864866 -0.004947 -0.001449 47621.800000 0 0 1
-9.678484 22.576428 19.821809 31.563781 -1.165797 0.891826 0.009195 -0.000934 -560080.000000 0 0 1
-9.918084 23.995528 19.985109 32.765200 -1.178851 0.914800 0.019468 -0.002859 -254740.000000 0 0 1
-10.991484 24.384728 19.184809 32.916327 -1.147317 0.948582 0.007505 -0.000472 -526454.000000 0 0 1
-11.483184 25.817228 19.367809 34.256456 -1.152285 0.969906 0.010897 -0.005829 92730.100000 0 0 1
-12.272884 25.934828 20.552509 35.293691 -1.128801 0.949207 0.011106 0.008055 483226.000000 0 0 1
-12.977384 27.177828 20.661409 36.523152 -1.125311 0.969506 0.023761 -0.001848 64080.500000 0 0 1
-13.811684 27.425528 21.964109 37.753732 -1.104267 0.949889 0.033169 -0.005549 282717.000000 0 0 1
-15.046084 26.731428 21.934909 37.710663 -1.058133 0.950024 0.016746 -0.006040 588763.000000 0 0 1
-15.855084 26.933528 23.133209 38.883724 -1.038746 0.933614 0.009181 -0.003732 1839160.000000 0 0 1
-17.347384 26.402428 23.045709 39.104023 -0.989490 0.940550 0.020844 0.002556 1015750.000000 0 0 1
-17.425384 25.004928 22.904109 38.124646 -0.962169 0.926334 0.035030 0.005698 133960.000000 0 0 1
-18.761284 24.553828 23.100909 38.581449 -0.918340 0.928848 0.043582 0.014637 -36627.000000 0 0 1
27.389616 24.194928 24.418813 43.952975 0.723546 0.981752 0.042468 -0.009180 -157053.000000 0 0 1
26.866316 23.495328 25.535773 43.885135 0.718562 0.949761 0.042230 -0.019465 295890.000000 0 0 1
26.260716 22.238428 25.238773 42.675151 0.702652 0.937982 0.042382 -0.014871 122963.000000 0 0 1
25.514616 21.583428 26.462563 42.627541 0.702123 0.901052 0.048699 -0.020766 447800.000000 0 0 1
24.392716 22.396128 26.817443 42.611810 0.742752 0.890089 0.065262 -0.015673 328578.000000 0 0 1
23.938016 21.964628 28.109083 42.960377 0.742434 0.857536 0.060646 -0.015482 465301.000000 0 0 1
22.565616 22.524228 28.605013 42.834503 0.784480 0.839543 0.068877 -0.009016 127529.000000 0 0 1
22.597316 23.855128 28.931993 43.780886 0.812469 0.848864 0.079715 -0.029960 582683.000000 0 0 1
21.495516 24.086328 29.836463 43.959332 0.842176 0.824766 0.093949 -0.025202 389299.000000 0 0 1
21.272716 25.538528 30.349093 45.009024 0.876275 0.830795 0.078124 -0.017996 -693106.000000 0 0 1
20.497116 26.239228 29.420523 44.431925 0.907647 0.847114 0.069177 -0.037638 -22440.000000 0 0 1
19.882716 27.377428 30.007623 45.225030 0.942673 0.845285 0.045686 -0.034869 886713.000000 0 0 1
18.526916 27.103528 30.779383 45.002425 0.971189 0.817634 0.051605 -0.028579 -632087.000000 0 0 1
17.466316 26.819628 29.889763 43.792266 0.993542 0.819570 0.065697 -0.022661 -455175.000000 0 0 1
16.235716 26.965528 30.535783 43.853987 1.028840 0.800559 0.057889 -0.020777 -415621.000000 0 0 1
15.679816 25.922428 31.439813 43.661089 1.026800 0.766868 0.021789 -0.008683 -775071.000000 0 0 1
16.535216 25.741728 32.566033 44.683290 0.999817 0.754201 0.032770 -0.014314 135775.000000 0 0 1
15.887716 24.967028 33.536111 44.726309 1.004078 0.723026 0.009904 -0.002322 -60445.300000 0 0 1
16.752516 24.517928 -34.206270 45.297290 0.971383 2.426680 0.025695 -0.009747 -557244.000000 0 0 1
17.154616 25.596628 -33.382001 45.429354 0.980358 2.396185 0.027843 -0.010721 89614.300000 0 0 1
16.656016 25.576728 -32.040301 44.251246 0.993566 2.380459 0.000445 -0.001284 -125407.000000 0 0 1
16.969416 26.752228 -31.134491 44.418457 1.005525 2.347505 0.009122 -0.012459 -319015.000000 0 0 1
16.493716 28.003528 -31.602201 45.331439 1.038514 2.342192 0.010828 -0.003838 4575.850000 0 0 1
16.958116 29.075128 -30.822061 45.639240 1.042783 2.312224 0.023961 -0.007993 -300063.000000 0 0 1
16.258716 29.194128 -29.456351 44.545702 1.062658 2.293295 0.030794 -0.009918 -357161.000000 0 0 1
16.496616 28.225328 -28.492211 43.366041 1.041881 2.287651 0.019603 -0.005193 -75919.700000 0 0 1
16.028116 28.639328 -27.249841 42.657537 1.060571 2.263740 0.009795 0.002039 -47631.000000 0 0 1
16.763316 27.907428 -26.095051 41.722715 1.029880 2.246492 0.004913 0.010492 1313440.000000 0 0 1
18.182516 28.107928 -25.902961 42.327566 0.996616 2.229338 0.014142 0.008504 586702.000000 0 0 1
18.706216 27.334628 -24.901991 41.439275 0.970657 2.215457 0.018996 0.005862 -28911.400000 0 0 1
20.231716 27.556928 -24.833391 42.254040 0.937498 2.199030 0.013264 0.005293 24601.400000 0 0 1
20.897316 26.966828 -23.761491 41.575426 0.911532 2.179162 0.011660 0.005644 -570161.000000 0 0 1
22.289416 27.027828 -23.920491 42.420649 0.881184 2.169882 0.014362 0.008388 -60928.400000 0 0 1
23.073616 26.701028 -22.637191 41.925876 0.858146 2.141155 0.023549 0.008639 51374.100000 0 0 1
22.735416 25.459028 -22.016991 40.617842 0.841851 2.143674 0.013192 0.009582 205463.000000 0 0 1
23.258216 25.457928 -20.671591 40.204047 0.830521 2.110832 0.009322 0.008528 53214.000000 0 0 1
22.665916 24.385928 -19.706791 38.688174 0.821938 2.105255 0.005943 0.005247 -606038.000000 0 0 1
23.328416 23.156828 -19.675291 38.308886 0.781707 2.110167 0.006731 0.016816 -18581.600000 0 0 1
22.742316 22.353828 -18.681391 36.958097 0.776784 2.100729 0.008024 0.009274 -660203.000000 0 0 1
23.031616 20.827828 -18.910291 36.357294 0.735194 2.117792 0.015447 0.011679 272755.000000 0 0 1
22.417416 20.217128 -20.040991 36.234157 0.733836 2.156873 0.005833 0.011991 167740.000000 0 0 1
21.001516 20.199928 -20.045991 35.368666 0.765945 2.173380 0.002037 0.009830 -192665.000000 0 0 1
20.391116 20.050328 -21.483491 35.768053 0.776972 2.215090 0.004324 0.013941 49641.200000 0 0 1
20.614416 21.069928 -22.473891 37.067125 0.796325 2.222199 -0.012223 0.018123 -1451.790000 0 0 1
20.384316 22.414228 -22.070391 37.483598 0.832792 2.200371 -0.013224 0.020161 -376926.000000 0 0 1
19.939416 23.386728 -23.187691 38.499199 0.864797 2.217163 0.000387 0.015252 -119822.000000 0 0 1
18.575116 23.243428 -23.484591 37.905381 0.896570 2.238976 0.022604 0.016441 -510984.000000 0 0 1
18.174616 23.839428 -24.704691 38.845292 0.919421 2.260069 0.014451 0.008945 48895.900000 0 0 1
16.694916 23.917328 -25.124001 38.496418 0.961396 2.281850 0.019750 0.011096 -67673.300000 0 0 1
15.973516 24.839528 -24.357591 38.281165 0.999309 2.260465 0.025418 -0.002888 891480.000000 0 0 1
14.555116 24.825628 -24.636791 37.883171 1.040516 2.278823 0.030781 0.004371 1136460.000000 0 0 1
13.735316 25.842928 -23.857091 37.758133 1.082273 2.254721 0.023509 0.007110 -89713.100000 0 0 1
13.939416 27.105928 -24.414991 39.052918 1.095808 2.246155 0.007465 0.013211 -5837.460000 0 0 1
12.905516 27.997228 -24.065191 39.109213 1.138868 2.233605 0.021857 0.011737 69404.100000 0 0 1
12.959616 29.300428 -24.855591 40.549564 1.154363 2.230608 0.017496 0.006651 76829.100000 0 0 1
12.678716 29.275528 -26.249131 41.313717 1.162100 2.259272 0.020047 -0.003297 -173338.000000 0 0 1
12.046416 30.412628 -26.768441 42.268114 1.193657 2.256608 0.042920 -0.008878 -143881.000000 0 0 1
12.825516 31.753228 -26.728611 43.441685 1.186922 2.233532 0.052764 -0.010503 406000.000000 0 0 1
14.043116 31.737128 -27.481591 44.268411 1.154212 2.240552 0.026515 0.008312 228231.000000 0 0 1
14.699316 32.984328 -27.416871 45.340055 1.151570 2.220178 0.022076 -0.004371 -1531710.000000 0 0 1
16.066016 32.927028 -27.984611 46.102543 1.116853 2.223086 0.010729 0.016558 -1009370.000000 0 0 1
16.848216 31.949028 -27.217831 45.226243 1.085511 2.216568 -0.017892 0.012923 406737.000000 0 0 1
18.161816 31.826028 -27.749311 45.964898 1.052230 2.218939 0.017725 0.011633 -81247.700000 0 0 1
19.088916 30.993428 -26.836291 45.223509 1.018766 2.206091 0.009686 0.019983 -907968.000000 0 0 1
19.500116 31.499328 -25.615601 45.040217 1.016477 2.175754 0.014404 0.022330 -282799.000000 0 0 1
20.281316 32.656728 -25.536441 46.150877 1.015046 2.157147 0.019779 0.012990 693462.000000 0 0 1
21.807916 32.342028 -25.839561 46.789688 0.977534 2.155856 0.008130 0.016001 556804.000000 0 0 1
21.997616 31.871528 -27.132321 47.284799 0.966680 2.181942 0.008690 0.016763 -329925.000000 0 0 1
23.152716 32.465828 -27.683711 48.543445 0.951305 2.177652 0.010796 0.027951 -158820.000000 0 0 1
23.437816 31.754728 -29.081101 49.024528 0.934962 2.205818 0.008886 0.013026 109025.000000 0 0 1
22.549616 32.126828 -30.121131 49.476265 0.958801 2.225343 0.020259 0.006562 459375.000000 0 0 1
21.389616 31.285228 -30.182041 48.448289 0.971096 2.243336 0.013683 0.004310 -143832.000000 0 0 1
20.258316 31.759628 -31.073091 48.832472 1.003000 2.260515 -0.004437 -0.002947 -673775.000000 0 0 1
19.564516 32.835228 -30.480031 48.887163 1.033442 2.243979 0.000152 -0.002064 -321208.000000 0 0 1
19.128316 33.758728 -31.426711 49.931777 1.055284 2.251568 -0.006897 0.000768 676398.000000 0 0 1
17.550816 33.841328 -31.403591 49.390810 1.092363 2.259865 -0.011638 -0.001615 770455.000000 0 0 1
16.842316 32.697228 -31.836481 48.644977 1.095142 2.284272 0.001518 -0.002810 90545.600000 0 0 1
16.931616 32.221428 -33.189091 49.258662 1.086976 2.310097 0.010700 -0.008270 -868288.000000 0 0 1
16.521316 33.191328 -34.300964 50.509150 1.108942 2.317338 0.007911 -0.016054 36640.000000 0 0 1
17.393516 34.333028 34.416290 51.631117 1.101873 0.841184 -0.001330 -0.005393 382604.000000 0 0 1
17.403916 -34.198097 33.090685 50.669513 -1.100042 0.859166 0.011836 -0.009711 196249.000000 0 0 1
16.016616 -33.716597 32.535083 49.516386 -1.127318 0.853888 0.004756 -0.012811 567737.000000 0 0 1
15.162816 34.343028 32.099183 49.393442 1.155024 0.863386 0.023369 -0.019117 1409390.000000 0 0 1
13.788616 -34.428797 31.750963 48.822040 -1.189862 0.862763 0.028484 -0.020128 1539730.000000 0 0 1
13.508416 -33.578197 30.551173 47.363982 -1.188311 0.869734 0.005791 -0.013787 -700587.000000 0 0 1
13.786416 -32.182897 30.609063 46.505041 -1.166069 0.852387 0.004688 -0.013465 245126.000000 0 0 1
13.148316 -31.506297 29.536033 45.143130 -1.175446 0.857572 0.003670 -0.016576 4687.610000 0 0 1
13.524116 -29.997197 29.575113 44.242749 -1.147239 0.838642 0.013658 -0.019543 -133169.000000 0 0 1
12.937116 -29.261497 30.645433 44.302897 -1.154514 0.806921 0.008815 -0.005313 434181.000000 0 0 1
13.384616 -27.930797 30.520573 43.483131 -1.123922 0.792742 0.031055 -0.014124 -156824.000000 0 0 1
12.642116 -27.052297 31.612713 43.485785 -1.133632 0.756902 0.018245 -0.009771 1997580.000000 0 0 1
11.172916 -27.115397 31.535393 43.064600 -1.179945 0.749131 -0.001863 -0.006851 2023990.000000 0 0 1
10.574816 -26.170597 30.619573 41.644749 -1.186784 0.744751 -0.015161 -0.007431 -91445.900000 0 0 1
10.738716 -24.676297 30.944213 41.009559 -1.160332 0.715811 -0.020766 -0.002402 -172636.000000 0 0 1
9.982416 -24.189397 32.049773 41.375880 -1.179409 0.684713 0.007030 -0.002252 341383.000000 0 0 1
10.515216 -22.933197 32.457443 41.109450 -1.140884 0.660742 0.001286 0.003573 -12605.900000 0 0 1
9.867216 -22.376897 33.720038 41.654873 -1.155489 0.627479 -0.000213 0.006291 -404343.000000 0 0 1
10.093816 -23.125597 -33.989611 42.331690 -1.159244 2.503000 0.006226 0.007759 1774620.000000 0 0 1
11.474916 -23.397897 -33.574061 42.501210 -1.114838 2.481533 0.008139 0.005558 1786350.000000 0 0 1
12.303316 -22.256597 -32.940431 41.614897 -1.065810 2.484144 0.010558 -0.003597 -140307.000000 0 0 1
12.617416 -21.176297 -33.834871 41.862074 -1.033451 2.511964 0.008773 0.001981 381925.000000 0 0 1
13.487716 -20.227997 -33.219731 41.166016 -0.982712 2.509800 0.003757 -0.002864 93523.300000 0 0 1
13.652016 -19.000197 -34.161588 41.405303 -0.947749 2.541093 0.004521 0.000512 -433387.000000 0 0 1
14.393716 -19.334197 33.631189 41.376891 -0.930844 0.621852 0.011589 0.004154 243371.000000 0 0 1
14.142616 -18.432997 32.549993 39.991136 -0.916350 0.619911 0.001970 0.003645 -58616.400000 0 0 1
14.731816 -16.986797 32.560903 39.570065 -0.856372 0.604358 0.015794 0.000885 -595471.000000 0 0 1
14.365416 -16.085797 33.605969 39.930930 -0.841834 0.570553 0.006355 0.007290 492574.000000 0 0 1
15.070016 -14.823097 33.632031 39.723332 -0.777138 0.561125 0.023861 -0.003185 -471014.000000 0 0 1
16.536216 -14.794597 34.071374 40.659378 -0.729867 0.577242 0.025172 -0.000432 -460311.000000 0 0 1
17.372616 -15.212897 32.997868 40.275294 -0.719216 0.610593 0.033021 -0.009385 -383611.000000 0 0 1
18.621716 -15.504297 33.582682 41.411931 -0.694301 0.625036 0.045433 -0.001439 -711310.000000 0 0 1
19.541916 -16.231797 32.641593 41.362196 -0.693132 0.661348 0.060302 -0.011558 -655043.000000 0 0 1
19.951116 -15.427497 31.572803 40.409115 -0.658225 0.674004 0.039735 -0.003116 -188190.000000 0 0 1
20.744716 -16.097497 30.689573 40.389634 -0.659922 0.707733 0.038594 -0.002119 -690916.000000 0 0 1
20.988616 -15.352197 29.350463 39.213029 -0.631525 0.725018 0.037401 0.008765 2201.590000 0 0 1
21.990916 -14.344797 29.390893 39.410635 -0.577994 0.729121 0.021062 0.004249 331582.000000 0 0 1
22.188716 -13.863897 28.095033 38.391114 -0.558468 0.749821 0.019134 0.004780 -62016.400000 0 0 1
22.802216 -12.434597 28.183663 38.325959 -0.499246 0.744588 0.021440 0.004967 106117.000000 0 0 1
21.906516 -11.408097 28.573033 37.768483 -0.480119 0.712804 0.026429 0.001811 696681.000000 0 0 1
22.585216 -10.105397 28.783473 37.956545 -0.420718 0.710054 0.032461 -0.003349 1204920.000000 0 0 1
21.513916 -8.950997 28.951313 37.163792 -0.394271 0.677696 0.038677 -0.000549 380490.000000 0 0 1
20.657816 -8.997197 30.033613 37.546142 -0.410760 0.643648 0.039585 -0.013268 54459.800000 0 0 1
19.782516 -7.820197 29.896193 36.691767 -0.376455 0.618424 0.039187 -0.008313 678191.000000 0 0 1
18.530516 -7.840097 30.811343 36.799266 -0.400253 0.578504 0.033909 -0.003292 -116020.000000 0 0 1
18.655316 -7.475797 32.187353 37.946463 -0.381138 0.558161 0.038590 -0.010233 15130.000000 0 0 1
19.083016 -8.564597 33.003164 39.073298 -0.421862 0.564890 0.039384 -0.015181 -256424.000000 0 0 1
19.276916 -8.193297 -34.464507 40.330284 -0.401897 2.595493 0.042918 -0.023447 -7470.410000 0 0 1
18.035416 -7.894397 -33.864651 39.171575 -0.412592 2.614993 0.034335 -0.026011 60999.300000 0 0 1
18.202116 -7.305697 -32.607211 38.051550 -0.381683 2.600065 0.032332 -0.024533 285942.000000 0 0 1
16.885516 -7.040297 -31.815221 36.700064 -0.395027 2.619742 0.026230 -0.022241 275188.000000 0 0 1
17.098716 -6.192897 -30.686281 35.670238 -0.347488 2.606609 0.017315 -0.016255 -15083.600000 0 0 1
15.926716 -5.929897 -29.961291 34.445652 -0.356422 2.625620 0.009718 -0.010477 -397550.000000 0 0 1
16.061616 -4.639697 -29.120181 33.578077 -0.281213 2.620424 -0.000793 -0.004824 -135233.000000 0 0 1
16.888016 -4.758797 -27.975201 33.022161 -0.274664 2.581422 -0.001994 0.001477 140522.000000 0 0 1
16.634416 -5.871297 -27.113351 32.346711 -0.339310 2.564790 -0.006684 -0.000694 -125039.000000 0 0 1
15.299616 -5.867997 -26.307631 30.993597 -0.366236 2.584524 -0.013626 -0.002604 381972.000000 0 0 1
15.214616 -4.696797 -25.601371 30.149206 -0.299422 2.585181 -0.022225 0.001050 524567.000000 0 0 1
13.966516 -4.664797 -24.881391 28.912065 -0.322349 2.607220 -0.006374 0.007387 653407.000000 0 0 1
13.770616 -3.438197 -23.972191 27.858876 -0.244674 2.607020 -0.004357 0.009637 37114.100000 0 0 1
13.694916 -2.210197 -24.684291 28.315189 -0.160008 2.629597 -0.009349 -0.000148 104072.000000 0 0 1
13.262716 -1.162197 -23.841791 27.307166 -0.087406 2.632314 -0.004960 0.002883 19854.800000 0 0 1
13.790816 0.197803 -24.328991 27.966507 0.014342 2.625863 -0.010657 -0.004832 -291606.000000 0 0 1
13.189916 0.677803 -25.493931 28.711911 0.051343 2.663604 0.002228 -0.006937 -80976.000000 0 0 1
13.777816 1.899803 -25.870471 29.372074 0.137025 2.648313 -0.003199 0.006545 -330238.000000 0 0 1
13.010116 2.678803 -26.927631 30.025596 0.203064 2.683330 -0.004824 0.003646 -890837.000000 0 0 1
11.830116 3.296803 -26.543711 29.247037 0.271783 2.708255 -0.000767 -0.005841 -476879.000000 0 0 1
11.230616 3.857803 -27.699461 30.137510 0.330879 2.736593 0.013215 -0.011158 65991.700000 0 0 1
9.918616 4.655803 -27.502631 29.604901 0.438870 2.762468 0.025847 -0.010758 -20167.600000 0 0 1
10.038616 5.925803 -26.895961 29.313507 0.533257 2.732615 0.019026 -0.019126 693174.000000 0 0 1
8.895916 6.797803 -27.090851 29.313165 0.652495 2.749698 0.024445 -0.021573 653698.000000 0 0 1
7.558016 5.002528 -31.290721 32.576957 0.584684 2.859651 0.026964 -0.014956 -176500.000000 0 0 1
7.509516 3.998628 -30.322401 31.493330 0.489289 2.868049 0.031151 -0.013488 439545.000000 0 0 1
7.271816 2.749828 -30.989791 31.950086 0.361528 2.895796 0.018509 -0.009956 -482705.000000 0 0 1
7.405716 1.590828 -29.997891 30.939438 0.211595 2.894257 0.023936 -0.009293 -597029.000000 0 0 1
8.684716 1.388828 -29.493931 30.777347 0.158574 2.851789 0.021638 -0.013338 -294086.000000 0 0 1
8.492216 0.716128 -28.288781 29.544639 0.084129 2.848978 0.025902 -0.014084 498802.000000 0 0 1
9.793316 0.288128 -27.520061 29.212083 0.029412 2.799569 0.020073 -0.012551 626477.000000 0 0 1
10.589516 -0.621872 -28.289201 30.212638 -0.058658 2.782843 0.009279 -0.004221 -469338.000000 0 0 1
11.564016 -1.154472 -27.490011 29.845602 -0.099503 2.741626 0.007791 -0.004794 -555136.000000 0 0 1
12.208716 -2.503272 -27.921421 30.576541 -0.202237 2.721779 0.000690 -0.002670 94390.800000 0 0 1
11.263116 -3.534672 -27.914891 30.308296 -0.304094 2.741517 0.011006 -0.003992 152252.000000 0 0 1
11.895016 -4.776072 -28.243811 31.016369 -0.381815 2.715554 0.006754 -0.004765 -261290.000000 0 0 1
11.185316 -5.971572 -27.659181 30.426982 -0.490380 2.711758 -0.001825 -0.002286 -359160.000000 0 0 1
11.413016 -6.064172 -26.299311 29.303325 -0.488403 2.684831 0.008656 0.004772 4149.540000 0 0 1
11.270016 -7.355872 -25.735751 29.042228 -0.578267 2.659765 0.016853 0.007214 167527.000000 0 0 1
10.731416 -7.330372 -24.299591 27.556628 -0.599277 2.650474 0.024043 0.002166 446574.000000 0 0 1
11.803816 -6.856472 -23.477991 27.158007 -0.526234 2.614943 0.009254 0.008815 619651.000000 0 0 1
11.401816 -6.719972 -22.151891 25.804374 -0.532572 2.603046 0.028187 -0.002081 -239173.000000 0 0 1
12.599316 -6.566172 -21.221491 25.538384 -0.480427 2.551636 0.022733 -0.006974 -306958.000000 0 0 1
13.030216 -5.283272 -21.053291 25.316804 -0.385207 2.552767 0.006579 -0.011573 -219690.000000 0 0 1
14.123016 -5.324472 -20.159291 25.183459 -0.360529 2.498921 -0.007981 -0.008205 -10813.000000 0 0 1
14.766616 -4.057072 -19.630091 24.896852 -0.268130 2.479092 -0.003468 -0.008164 -273012.000000 0 1 0
15.467016 -3.301372 -20.615291 25.983030 -0.210290 2.487193 -0.008391 -0.003254 250650.000000 0 0 1
15.845316 -2.079372 -20.040891 25.632697 -0.130484 2.468422 -0.005590 0.001797 -162601.000000 0 0 1
16.860716 -1.214972 -20.820891 26.819198 -0.071935 2.459639 -0.011609 0.000179 252137.000000 0 0 1
18.101416 -1.871072 -20.989591 27.779941 -0.103000 2.427315 -0.007470 -0.005323 378667.000000 0 0 1
19.082016 -1.032272 -21.627591 28.860728 -0.054044 2.417918 -0.006456 -0.000415 207892.000000 0 0 1
20.338716 -1.846472 -21.977091 30.001089 -0.090538 2.392847 -0.005734 -0.005804 -1887910.000000 0 0 1
21.220416 -2.060772 -20.928191 29.875442 -0.096809 2.346915 -0.011863 -0.004674 -161604.000000 0 0 1
22.415716 -2.717372 -21.285091 31.030687 -0.120638 2.326687 -0.014009 -0.005310 71256.100000 0 0 1
23.411616 -1.942772 -22.176991 32.306301 -0.082794 2.327406 0.006171 -0.007407 -1941800.000000 0 0 1
22.953916 -1.777172 -23.524791 32.915899 -0.077269 2.366983 0.008558 -0.006678 243853.000000 0 0 1
23.825616 -1.008872 -24.365791 34.093541 -0.042319 2.366955 0.012322 0.002110 533578.000000 0 0 1
25.092016 -1.824872 -24.814291 35.336786 -0.072599 2.349311 0.027729 -0.005546 -1023490.000000 0 0 1
26.035116 -1.943872 -23.759891 35.300684 -0.074525 2.309151 0.025307 -0.000972 -62922.300000 0 0 1
27.260916 -2.530872 -24.152491 36.508981 -0.092574 2.293679 0.020759 0.001381 38835.800000 0 0 1
28.153216 -1.645372 -25.024791 37.703461 -0.058377 2.296586 0.023028 -0.004043 -1596910.000000 0 0 1
27.691916 -1.410772 -26.352021 38.252601 -0.050901 2.330760 0.033302 -0.004913 -189580.000000 0 0 1
28.442016 -0.446972 -27.028641 39.238954 -0.015714 2.330659 0.029017 -0.004309 -595780.000000 0 0 1
27.975916 -0.193772 -28.547961 39.970933 -0.006926 2.366303 0.041368 -0.005819 1234710.000000 0 0 1
26.613716 0.267528 -28.716181 39.153295 0.010052 2.394150 0.045242 -0.004064 1059180.000000 0 0 1
26.324116 1.533728 -28.146871 38.568870 0.058197 2.388800 0.037450 -0.000561 -1550210.000000 0 0 1
24.851516 1.783528 -28.362951 37.752295 0.071645 2.420812 0.036284 -0.007097 -978621.000000 0 0 1
24.025216 1.077628 -27.466151 36.507009 0.044824 2.422423 0.036800 -0.007826 340479.000000 0 0 1
22.713016 1.626228 -27.468551 35.679784 0.071477 2.449423 0.027871 -0.009221 238438.000000 0 0 1
21.764016 1.313528 -26.312411 34.172221 0.060280 2.449628 0.022288 -0.008208 -184290.000000 0 0 1
21.954216 2.117228 -25.144531 33.447237 0.096141 2.421534 0.018271 -0.008534 309958.000000 0 0 1
21.089016 1.711228 -24.088491 32.061352 0.080966 2.420864 0.006635 -0.005790 -133580.000000 0 0 1
21.135316 2.509228 -22.755191 31.157608 0.118169 2.389594 0.007168 -0.002372 -450994.000000 0 0 1
20.760716 3.878128 -22.683191 30.993134 0.184673 2.391870 0.010338 -0.002355 478783.000000 0 0 1
21.015416 4.344828 -21.363691 30.280894 0.203872 2.353949 -0.000393 -0.000078 -352225.000000 0 0 1
20.434316 5.732728 -21.077591 29.911374 0.273513 2.352752 0.004456 0.000929 -17695.400000 0 0 1
21.169616 6.830128 -21.674091 31.057519 0.312094 2.343215 0.011502 0.003135 564464.000000 0 0 1
20.932216 8.133228 -21.105291 30.817858 0.370598 2.325180 0.012440 0.002326 -460503.000000 0 0 1
21.445416 8.402828 -19.682291 30.296963 0.373438 2.277915 0.004072 -0.003335 858205.000000 0 0 1
22.893816 8.542828 -19.651291 31.357295 0.357148 2.248094 -0.009554 -0.002832 1398860.000000 0 0 1
23.415316 8.718528 -18.383891 31.020271 0.356439 2.205130 0.004514 -0.008766 -237032.000000 0 0 1
23.188616 10.129228 -17.709391 30.885849 0.411839 2.181424 0.005817 -0.012400 784114.000000 0 0 1
21.802316 10.381528 -17.364591 29.743001 0.444399 2.194224 0.008098 -0.017958 1180780.000000 0 0 1
21.589416 11.781928 -17.137691 29.976944 0.499557 2.179367 0.014468 -0.013947 -290279.000000 0 0 1
20.114116 12.144128 -16.855191 28.916344 0.543181 2.193083 0.017027 -0.021149 257186.000000 0 0 1
19.242816 12.072328 -17.961491 28.959320 0.560300 2.239834 0.025136 -0.030481 213135.000000 0 0 1
18.621616 10.847428 -18.264391 28.249234 0.527466 2.273843 0.028493 -0.026729 -216922.000000 0 0 1
17.798916 10.923328 -19.570091 28.620080 0.550438 2.323739 0.036833 -0.026614 248597.000000 0 0 1
18.626916 10.881128 -20.740291 29.925250 0.528692 2.336535 0.049139 -0.022806 789065.000000 0 0 1
17.885216 10.414528 -21.870891 30.111114 0.527302 2.383778 0.038781 -0.022063 118472.000000 0 0 1
18.756116 10.502828 -23.156391 31.596198 0.510464 2.393350 0.055416 -0.025620 48137.300000 0 0 1
19.058516 11.848328 -23.521391 32.509471 0.556209 2.379690 0.051117 -0.021746 113814.000000 0 0 1
19.871216 11.997728 -24.652291 33.860687 0.543190 2.386270 0.049374 -0.023455 -141068.000000 0 0 1
20.112016 13.494628 -24.891291 34.730023 0.590978 2.369867 0.035625 -0.014102 -174454.000000 0 0 1
20.812516 13.802828 -26.065761 36.098515 0.585598 2.377590 0.029612 -0.015874 40573.000000 0 0 1
20.887716 15.207028 -26.316271 36.879486 0.629296 2.365384 0.025655 -0.009697 222909.000000 0 0 1
19.637416 15.814628 -27.023741 36.959615 0.677983 2.390831 0.039176 -0.006419 994545.000000 0 0 1
18.413416 15.726828 -26.296541 35.747658 0.706867 2.397372 0.042544 -0.004189 -147036.000000 0 0 1
17.306216 16.052728 -27.077751 35.922135 0.747840 2.424607 0.037912 -0.011264 680376.000000 0 0 1
15.932916 15.558128 -26.480261 34.599384 0.773497 2.442364 0.032268 -0.015821 529535.000000 0 0 1
15.715016 14.178928 -26.425931 33.857548 0.734059 2.466267 0.035044 -0.012832 1443850.000000 0 0 1
14.353716 13.837328 -26.007271 32.770092 0.767083 2.487546 0.035450 -0.017042 1402460.000000 0 0 1
14.082716 12.308428 -26.044921 32.064906 0.718269 2.518806 0.032847 -0.019806 83955.900000 0 0 1
12.728916 11.928528 -25.876811 31.207762 0.752949 2.548433 0.029158 -0.020295 49314.600000 0 0 1
12.569716 10.543628 -25.897811 30.657176 0.697963 2.576904 0.040335 -0.025909 166553.000000 0 0 1
11.112116 10.025528 -25.730411 29.766498 0.734038 2.614769 0.015885 -0.024571 69932.000000 0 0 1
10.674816 10.366728 -24.437491 28.611391 0.770757 2.594648 0.024225 -0.024701 -17581.500000 0 0 1
9.482916 9.645128 -24.170091 27.697427 0.793878 2.631394 0.024228 -0.020450 318861.000000 0 0 1
8.512616 10.267728 -23.125591 26.696139 0.878582 2.618448 0.025177 -0.020577 -98997.300000 0 0 1
7.949316 11.506928 -23.464591 27.316443 0.966252 2.604093 0.024619 -0.021421 467720.000000 0 0 1
7.054516 11.997828 -22.440691 26.406414 1.039260 2.586439 0.027145 -0.013806 619211.000000 0 0 1
7.772416 13.023228 -21.533391 26.338220 1.032724 2.527978 0.024884 -0.019195 -313276.000000 0 0 1
8.709116 12.408328 -20.752691 25.699990 0.958812 2.510694 0.023354 -0.019143 -1198240.000000 0 0 1
9.440716 13.202728 -19.883091 25.666641 0.950036 2.456984 0.015910 -0.015568 297088.000000 0 0 1
10.468616 12.278028 -19.050291 24.965085 0.864777 2.438858 0.024343 -0.025036 1256150.000000 0 1 0
11.545816 11.660328 -19.805091 25.719851 0.790333 2.449687 0.037717 -0.030195 996579.000000 0 0 1
11.138616 10.639528 -20.748691 25.841372 0.762485 2.502983 0.039913 -0.030940 -748952.000000 0 0 1
12.304316 10.200128 -21.674891 26.930275 0.692168 2.506223 0.035131 -0.031185 -413643.000000 0 0 1
13.093716 9.291828 -21.040691 26.466850 0.617167 2.489776 0.041385 -0.029498 245117.000000 0 0 1
14.272116 8.982428 -21.808391 27.567793 0.561735 2.483372 0.051697 -0.027481 875409.000000 0 0 1
15.176216 7.789628 -21.372991 27.345943 0.474214 2.467988 0.061861 -0.016912 428733.000000 0 0 1
15.757516 7.858828 -20.059591 26.691715 0.462635 2.421173 0.042317 -0.021726 203089.000000 0 0 1
16.225616 6.615228 -19.627091 26.310731 0.387129 2.412791 0.024338 -0.012534 172487.000000 0 0 1
16.978216 6.720228 -18.237291 25.807364 0.376893 2.355577 0.014257 -0.012146 169447.000000 0 0 1
18.277516 7.321228 -18.262191 26.854712 0.380988 2.318609 0.010211 -0.016108 874584.000000 0 0 1
18.890416 7.437528 -16.969091 26.459680 0.375081 2.267012 0.001956 -0.014965 166333.000000 0 0 1
19.387616 6.157128 -16.328691 26.084785 0.307507 2.247191 -0.012594 -0.011083 -269256.000000 0 0 1
20.422316 5.453228 -17.007691 27.130614 0.260935 2.248341 -0.019064 -0.008688 1117520.000000 0 0 1
21.244916 4.570828 -16.207091 27.109200 0.211919 2.211606 -0.011493 -0.015520 1131350.000000 0 0 1
22.457016 3.872828 -16.957991 28.405806 0.170775 2.210541 -0.009290 0.004815 1006210.000000 0 0 1
23.229316 3.014528 -16.072891 28.408209 0.129051 2.172179 -0.018205 0.005574 134080.000000 0 0 1
24.374516 2.591228 -16.748491 29.687429 0.105911 2.170213 -0.002704 -0.001681 -240302.000000 0 0 1
25.266116 1.625928 -15.932991 29.914553 0.064263 2.132486 0.009502 -0.014599 -127923.000000 0 0 1
24.770316 0.297528 -15.907991 29.440130 0.012011 2.141650 0.003451 -0.010752 110349.000000 0 0 1
25.831816 -0.609472 -15.781891 30.277421 -0.023589 2.119103 0.002078 -0.007536 -291549.000000 0 0 1
25.285216 -2.028972 -16.018791 30.001009 -0.080072 2.134052 -0.007374 -0.007919 4629.480000 0 0 1
24.527416 -2.610072 -14.962091 28.849104 -0.106016 2.116047 -0.006506 -0.012530 517886.000000 0 0 1
24.568716 -4.002872 -15.185091 29.158734 -0.161507 2.118553 -0.002247 -0.001976 -1245980.000000 0 0 1
24.166416 -4.759672 -13.948691 28.306114 -0.194465 2.086078 0.000573 -0.004679 119384.000000 0 0 1
22.784916 -4.721572 -13.600391 26.952111 -0.204332 2.099730 0.002178 0.000404 601019.000000 0 0 1
22.005216 -5.544272 -14.434391 26.894611 -0.246816 2.137320 0.002824 0.005295 -605886.000000 0 0 1
20.501216 -5.586172 -14.046191 25.471566 -0.266022 2.154893 0.008993 0.000772 77880.900000 0 0 1
20.334116 -6.442972 -12.943191 24.950238 -0.306848 2.116196 0.014162 0.001297 443870.000000 0 1 0
20.335416 -5.834472 -11.678091 24.165016 -0.279407 2.075176 0.025118 -0.002296 -561658.000000 0 1 0
20.059416 -6.870572 -10.611991 23.710742 -0.329988 2.034832 0.028368 -0.006416 -845072.000000 0 1 0
18.828116 -7.510272 -10.569491 22.860802 -0.379546 2.051430 0.034132 -0.009352 -291967.000000 0 1 0
18.760116 -8.578072 -11.516191 23.625155 -0.428867 2.079969 0.026277 -0.010686 -313313.000000 0 1 0
17.386216 -9.319372 -11.415791 22.791478 -0.492047 2.095411 0.044886 -0.018097 441776.000000 0 1 0
16.350316 -8.360372 -11.654691 21.749953 -0.472669 2.136309 0.032196 -0.013841 -581852.000000 0 1 0
15.213416 -8.986172 -12.135791 21.435409 -0.533534 2.172632 0.030261 -0.010643 -592210.000000 0 1 0
14.089116 -7.963372 -12.446991 20.416809 -0.514449 2.226408 0.020784 -0.008818 -374823.000000 0 1 0
14.134416 -7.106872 -13.601391 20.863537 -0.465890 2.280912 0.019580 -0.009755 794690.000000 0 1 0
15.162416 -6.084772 -13.528691 21.211996 -0.381632 2.262415 0.011093 -0.008375 469849.000000 0 1 0
14.911316 -5.014872 -14.603891 21.465552 -0.324430 2.319024 -0.002661 -0.008692 249433.000000 0 1 0
13.863416 -4.075972 -14.295891 20.326838 -0.285952 2.350827 0.008256 -0.013171 526473.000000 0 1 0
13.626416 -3.121072 -15.320891 20.740058 -0.225162 2.401951 0.003779 -0.016076 -155775.000000 0 1 0
14.741616 -2.073972 -15.612991 21.572716 -0.139771 2.380000 0.004896 -0.012687 -737570.000000 0 1 0
15.775216 -2.543072 -16.479691 22.954408 -0.159832 2.371622 -0.003234 -0.006255 40658.400000 0 1 0
16.857116 -1.647772 -16.514391 23.655921 -0.097440 2.343548 -0.001970 0.004742 -627848.000000 0 1 0
17.840216 -1.859572 -15.359391 23.614449 -0.103860 2.278938 -0.003580 0.000015 -2236650.000000 0 1 0
17.421916 -1.705272 -14.026491 22.431530 -0.097570 2.246315 -0.004314 0.004850 193217.000000 0 1 0
18.475416 -2.207472 -13.186891 22.805877 -0.118918 2.187346 0.000715 0.007146 344149.000000 0 1 0
18.137816 -2.430872 -11.683891 21.711813 -0.133228 2.139019 0.010481 0.005774 -505727.000000 0 1 0
17.896016 -1.279072 -10.902191 20.994313 -0.071351 2.116819 0.010591 0.002430 838543.000000 0 1 0
17.425916 -1.650272 -9.622391 19.974392 -0.094421 2.073431 0.016496 -0.002021 -958026.000000 0 1 0
17.441116 -0.483372 -8.618291 19.460244 -0.027707 2.029590 0.012425 -0.005023 467140.000000 0 1 0
18.693816 -0.122772 -7.996591 20.332715 -0.006567 1.975000 0.013186 -0.005579 2223500.000000 0 1 0
19.721816 0.576628 -8.780591 21.595863 0.029230 1.989511 0.006686 -0.001936 530171.000000 0 1 0
19.381416 1.935628 -9.420191 21.636218 0.099540 2.021268 -0.002055 -0.000162 -709115.000000 0 1 0
19.314716 3.071628 -8.549791 21.344603 0.157710 1.982924 0.001734 0.003271 637857.000000 0 1 0
18.619516 4.115728 -9.218891 21.180499 0.217546 2.021116 -0.011647 -0.000983 -484805.000000 0 1 0
18.754616 5.536628 -8.714691 21.408776 0.287060 1.990031 0.025614 0.002400 -846103.000000 0 1 0
17.868516 6.468828 -9.244391 21.132637 0.347346 2.023553 0.012091 -0.010789 388035.000000 0 1 0
18.309616 7.797228 -8.972891 21.830061 0.402594 1.994384 0.033412 -0.005156 -148646.000000 0 1 0
-25.250184 -29.457622 5.720009 39.217876 0.862155 1.424422 0.017490 -0.001595 -196647.000000 0 0 1
-25.666514 -28.419592 6.601509 38.859016 0.836256 1.400085 0.014092 -0.006299 -279896.000000 0 0 1
-24.760884 -27.360442 6.527709 37.474073 0.835232 1.395710 0.023455 -0.011380 -491122.000000 0 0 1
-25.189254 -26.230242 7.494809 37.130800 0.805640 1.367551 0.015669 -0.009664 476862.000000 0 0 1
-26.420814 -25.517952 7.240309 37.438581 0.768017 1.376178 -0.001514 -0.008623 1512060.000000 0 0 1
-27.651804 -26.199622 7.549009 38.833362 0.758438 1.375156 0.017906 -0.005053 542513.000000 0 0 1
-27.915154 -26.319862 9.113209 39.434015 0.755992 1.337588 -0.003026 0.001880 -771266.000000 0 0 1
-27.012474 -27.073912 9.895009 39.504198 0.786534 1.317620 -0.004772 -0.000078 -234575.000000 0 0 1
-27.284404 -27.171142 11.271109 40.121660 0.783318 1.286040 -0.001103 0.001484 -515777.000000 0 0 1
-26.172174 -27.962172 11.990309 40.132696 0.818452 1.267396 -0.004437 0.002464 769969.000000 0 0 1
-24.988084 -27.270192 12.408209 39.013221 0.829040 1.247123 0.003610 -0.001591 498708.000000 0 0 1
-25.233514 -26.384962 13.444609 38.905706 0.807701 1.217951 0.010988 0.003727 22501.300000 0 0 1
-23.911184 -25.754282 14.030609 37.840267 0.822491 1.190942 0.028676 -0.005246 216205.000000 0 0 1
-23.229084 -26.731522 14.706609 38.346434 0.855388 1.177192 0.043612 -0.011836 -398725.000000 0 0 1
-22.101284 -26.245552 15.427009 37.620319 0.870909 1.148264 0.043975 -0.012336 135824.000000 0 0 1
-21.371284 -27.407582 16.072009 38.291211 0.908520 1.137647 0.038261 -0.011031 -416412.000000 0 0 1
-22.049584 -28.031882 17.142209 39.570518 0.904286 1.122749 0.041991 -0.006234 279642.000000 0 0 1
-21.255284 -29.066932 17.671109 40.111616 0.939402 1.114587 0.048329 -0.003985 -157512.000000 0 0 1
-22.149084 -29.965272 18.501809 41.603082 0.934270 1.109932 0.055015 -0.003552 -128920.000000 0 0 1
-23.089484 -30.696552 17.732209 42.306428 0.925898 1.138301 0.028227 -0.002921 181144.000000 0 0 1
-23.635384 -31.712802 18.516809 43.671563 0.930313 1.132937 0.031139 0.001148 -106206.000000 0 0 1
-24.771784 -32.507572 17.815209 44.584361 0.919640 1.159733 0.023468 -0.006091 -62384.700000 0 0 1
-24.311684 -33.433822 16.844109 44.638576 0.942075 1.183869 0.023013 -0.008736 -37316.400000 0 0 1
-25.243104 -34.376040 16.378309 45.685615 0.937404 1.204135 0.017265 -0.008750 -709134.000000 0 0 1
-24.728084 34.058778 15.081009 44.709231 -0.942806 1.226735 0.008459 -0.014917 -59674.600000 0 0 1
-23.574484 33.288642 15.236109 43.543415 -0.954599 1.213325 0.002826 -0.014420 253022.000000 0 0 1
-22.358484 34.001996 15.008309 43.373804 -0.989122 1.217468 0.010660 -0.013668 -470454.000000 0 0 1
-21.099884 33.171359 15.154909 42.133306 -1.004264 1.202861 0.026113 -0.019636 -488317.000000 0 0 1
-20.947684 32.140812 14.161209 40.894708 -0.993194 1.217189 0.024943 -0.015690 626200.000000 0 0 1
-19.763384 31.346652 14.374609 39.747117 -1.008267 1.200758 0.025764 -0.017662 536540.000000 0 0 1
-19.603284 30.429222 13.196009 38.527405 -0.998491 1.221209 0.017484 -0.019886 -47378.600000 0 0 1
-19.205284 31.108902 12.023109 38.485866 -1.017712 1.253074 0.009309 -0.012938 -119217.000000 0 0 1
-19.438384 30.303962 10.970609 37.636886 -1.000457 1.275017 0.015747 -0.011251 97970.500000 0 0 1
-19.065984 31.026222 9.657009 37.674873 -1.019775 1.311578 0.003881 0.000404 501685.000000 0 0 1
-17.655884 31.081302 9.441509 36.971877 -1.054197 1.312566 0.008188 -0.011101 159363.000000 0 0 1
-17.354684 31.774532 8.265109 37.136478 -1.070889 1.346356 0.010117 -0.010146 108881.000000 0 0 1
-16.655184 30.875122 7.203009 35.812730 -1.076099 1.368285 0.011516 -0.004056 6178.090000 0 0 1
-17.501384 29.875362 6.647009 35.256467 -1.040874 1.381128 0.004975 -0.001101 39438.700000 0 0 1
-17.594984 28.617082 7.291409 34.375653 -1.019535 1.357063 -0.005339 -0.002397 -395379.000000 0 0 1
-18.704584 27.748992 6.725009 34.133470 -0.977690 1.372478 -0.006718 0.005292 -286341.000000 0 0 1
-18.254184 27.042122 5.570709 33.098707 -0.977028 1.401685 0.004309 -0.000313 644866.000000 0 0 1
-19.353484 26.428452 4.922609 33.124802 -0.938722 1.421636 0.005067 0.000569 -774561.000000 0 0 1
-18.891884 25.551512 3.764709 31.999314 -0.934137 1.452874 0.019348 -0.009665 -875113.000000 0 0 1
-18.500684 26.139562 2.533109 32.124269 -0.954878 1.491861 0.026839 -0.008958 212973.000000 0 0 1
-17.235684 26.735872 2.449209 31.904142 -0.998181 1.493953 0.021073 -0.012406 327.817000 0 0 1
-15.938484 25.866532 2.607309 30.494439 -1.018563 1.485191 0.015369 -0.016885 -15922.700000 0 0 1
-15.678984 24.761262 1.709709 29.357686 -1.006318 1.512526 0.025294 -0.023866 69240.300000 0 0 1
-15.430384 24.990232 0.357509 29.372373 -1.017640 1.558624 0.033845 -0.019121 -130362.000000 0 0 1
-15.210484 23.759252 -0.558091 28.216526 -1.001347 1.590576 0.036489 -0.022074 -582812.000000 0 0 1
-16.344784 22.975552 -0.625491 28.203177 -0.952461 1.592976 0.046644 -0.032118 -549462.000000 0 0 1
-16.267584 21.979952 -1.629091 27.393549 -0.933655 1.630301 0.048325 -0.026344 -76270.600000 0 0 1
-15.421384 20.690652 -1.441791 25.845714 -0.930290 1.626610 0.050733 -0.027291 304654.000000 0 0 1
-15.907084 19.823852 -0.434691 25.420649 -0.894581 1.587897 0.060492 -0.035091 901693.000000 0 0 1
-14.786084 19.027052 -0.034591 24.096850 -0.910170 1.572232 0.063286 -0.029584 753146.000000 0 1 0
-15.317284 17.936352 0.911909 23.604311 -0.863996 1.532154 0.046900 -0.027945 259739.000000 0 1 0
-16.120284 16.961752 0.291209 23.401910 -0.810828 1.558352 0.046950 -0.021286 416945.000000 0 1 0
-16.875184 16.227952 1.258509 23.445727 -0.765849 1.517093 0.047547 -0.031570 404330.000000 0 1 0
-17.784684 15.103452 0.643909 23.341463 -0.704052 1.543206 0.077559 -0.028470 277268.000000 0 1 0
-18.707984 15.466852 -0.356191 24.276306 -0.690841 1.585469 0.073441 -0.025721 137611.000000 0 1 0
-19.415384 14.311552 -0.730191 24.131118 -0.635210 1.601060 0.059738 -0.016518 -524458.000000 0 1 0
-20.519984 14.586752 -1.792091 25.239942 -0.617975 1.641858 0.065423 -0.007513 -168806.000000 0 0 1
-21.332084 13.454752 -2.171291 25.314080 -0.562708 1.656676 0.044256 -0.010730 512154.000000 0 0 1
-22.279284 13.052552 -1.238291 25.850899 -0.529958 1.618716 0.041063 -0.011001 -780309.000000 0 0 1
-23.567084 13.876852 -1.001291 27.367445 -0.532161 1.607391 0.027585 -0.010177 -677898.000000 0 0 1
-23.306484 15.102852 -0.350991 27.774296 -0.574976 1.583434 0.027177 -0.019268 -82761.000000 0 0 1
-24.379084 15.974452 -0.136291 29.146894 -0.580059 1.575472 0.020365 -0.009590 -689286.000000 0 0 1
-23.943484 17.029852 0.873209 29.395047 -0.618238 1.541086 0.015717 -0.015690 17316.000000 0 0 1
-23.741284 16.485452 2.128009 28.981841 -0.606944 1.497305 0.034761 -0.015925 341755.000000 0 0 1
-23.024184 17.383752 2.959509 29.001148 -0.646707 1.468570 0.026659 -0.021426 232761.000000 0 0 1
-23.962984 18.483352 3.573209 30.473377 -0.657013 1.453269 0.027483 -0.021530 -312909.000000 0 0 1
-24.844784 17.937652 4.567909 30.982067 -0.625332 1.422820 0.029100 -0.017208 988437.000000 0 0 1
-26.103144 18.628352 4.653409 32.404380 -0.619824 1.426694 0.018835 -0.018768 819081.000000 0 0 1
-27.057184 18.336252 3.464409 32.868092 -0.595592 1.465197 0.013443 -0.014715 -1249040.000000 0 0 1
-28.102834 19.256752 3.291809 34.226127 -0.600741 1.474469 0.008781 -0.009807 79168.400000 0 0 1
-28.799764 18.954252 2.084009 34.540312 -0.582076 1.510424 0.007244 -0.009128 288891.000000 0 0 1
-30.074104 19.804552 1.757709 36.052206 -0.582345 1.522022 0.012398 -0.018761 534813.000000 0 0 1
-31.084644 19.470052 2.691909 36.777499 -0.559574 1.497536 0.038218 -0.010737 484100.000000 0 0 1
-32.320104 20.171152 2.544509 38.182968 -0.557956 1.504107 0.024528 -0.008538 544655.000000 0 0 1
-32.772824 20.799552 3.878409 39.009248 -0.565515 1.471209 0.018739 -0.010173 -581194.000000 0 0 1
-31.935134 21.857352 4.225309 38.928779 -0.600199 1.462043 0.031253 -0.018075 13566.700000 0 0 1
-32.198854 22.326252 5.515309 39.568250 -0.606274 1.430954 0.028875 -0.018424 -347683.000000 0 0 1
-31.150434 23.326552 6.032909 39.381132 -0.642755 1.416998 0.040238 -0.028051 -203093.000000 0 0 1
-31.154134 24.506062 5.312509 39.991873 -0.666521 1.437563 0.039807 -0.022533 447281.000000 0 0 1
-30.120454 25.381372 5.730409 39.803183 -0.700219 1.426326 0.034018 -0.022069 -40936.100000 0 0 1
-30.494114 26.850662 5.396709 40.987480 -0.721948 1.438746 0.024227 -0.013243 260056.000000 0 0 1
-31.623234 27.178962 6.212009 42.158202 -0.709962 1.422908 0.032104 -0.008775 462923.000000 0 0 1
-31.915924 28.562262 6.116209 43.264732 -0.730002 1.428954 0.022647 -0.005394 -177993.000000 0 0 1
-32.967524 28.967272 7.173209 44.468139 -0.720900 1.408777 0.024516 0.000967 -773769.000000 0 0 1
-32.524314 29.132652 8.477909 44.479404 -0.730445 1.379020 0.041060 -0.006553 -328627.000000 0 0 1
-33.459354 29.610882 9.397709 45.657964 -0.724455 1.363486 0.037891 -0.003918 -491717.000000 0 0 1
-34.691514 28.737402 9.708009 46.082370 -0.691802 1.358540 0.032190 0.003219 -627526.000000 0 0 1
-34.402775 27.418312 10.198009 45.158766 -0.672897 1.343006 0.050919 -0.011074 436864.000000 0 0 1
-35.376143 26.913202 11.133309 45.822948 -0.650360 1.325376 0.032629 -0.003694 483036.000000 0 0 1
-34.753092 25.745592 11.953409 44.872006 -0.637596 1.301152 0.047853 -0.011152 -504180.000000 0 0 1
-33.762574 26.205752 12.791309 44.612447 -0.660045 1.279994 0.054363 -0.017241 -597883.000000 0 0 1
-33.246734 25.146242 13.587709 43.844095 -0.647554 1.255698 0.052130 -0.019956 -710061.000000 0 0 1
-32.086424 25.604802 14.425309 43.511309 -0.673517 1.232871 0.057775 -0.019468 -857993.000000 0 0 1
-32.463064 26.473752 15.371609 44.620583 -0.684123 1.219095 0.051776 -0.015321 25531.900000 0 0 1
-31.337834 26.934562 16.104309 44.349512 -0.709978 1.199179 0.062602 -0.009718 85896.700000 0 0 1
-31.615484 28.111552 17.079809 45.623657 -0.726800 1.187087 0.051963 -0.010096 -405401.000000 0 0 1
-31.821534 29.346622 16.417609 46.296567 -0.744959 1.208291 0.066781 -0.010136 131439.000000 0 0 1
-32.020584 30.377732 17.351309 47.425651 -0.759076 1.196236 0.053067 -0.007628 -83160.800000 0 0 1
-31.813114 31.774952 16.684409 47.959267 -0.784798 1.215480 0.048222 -0.008021 314954.000000 0 0 1
-30.447424 32.022382 16.393709 47.129951 -0.810604 1.215529 0.034495 -0.003221 82817.000000 0 0 1
-30.173894 33.057722 15.497409 47.365035 -0.830974 1.237467 0.026278 -0.000436 -1081040.000000 0 0 1
-28.698394 33.195386 15.193709 46.436842 -0.857927 1.237467 0.034313 -0.002401 -683161.000000 0 0 1
-28.092044 32.395242 14.169509 45.159602 -0.856421 1.251640 0.027226 -0.004773 371884.000000 0 0 1
-27.807804 31.039952 14.484009 44.119600 -0.840267 1.236304 0.032271 -0.006467 -32003.000000 0 0 1
-28.929914 30.015562 14.121009 44.014507 -0.803814 1.244195 0.043515 -0.005955 314610.000000 0 0 1
-28.972394 29.655222 12.785509 43.385494 -0.797045 1.271659 0.051181 -0.012579 -209888.000000 0 0 1
-30.039184 28.798032 12.493209 43.448354 -0.764307 1.279137 0.048249 -0.011125 -93132.900000 0 0 1
-30.105904 28.606552 10.943809 42.947261 -0.759867 1.313135 0.052308 -0.009211 4856.300000 0 0 1
-29.054504 27.819992 10.421409 41.553844 -0.763696 1.317297 0.048267 -0.005114 -56801.800000 0 0 1
-29.001384 27.883322 9.013909 41.228758 -0.765746 1.350384 0.040156 -0.008690 -432100.000000 0 0 1
-27.750894 27.228002 8.450609 39.785538 -0.775888 1.356762 0.034484 -0.005132 -282101.000000 0 0 1
-27.526964 27.522512 7.077809 39.564097 -0.785317 1.390933 0.025161 -0.007030 -399128.000000 0 0 1
-26.439734 26.791402 6.569909 38.209979 -0.792005 1.397995 0.022181 -0.009822 -426679.000000 0 0 1
-26.130124 26.984582 5.097809 37.906974 -0.801484 1.435906 0.024862 -0.011058 -467427.000000 0 0 1
-25.519244 28.207782 4.812509 38.341505 -0.835397 1.444947 0.017120 -0.004735 119608.000000 0 0 1
-25.391244 28.516752 3.437409 38.337139 -0.843312 1.481013 0.010324 -0.003852 -268304.000000 0 0 1
-24.431184 29.678542 3.079109 38.563967 -0.882072 1.490867 0.009616 0.003141 199715.000000 0 0 1
-23.120384 29.301212 3.451609 37.483687 -0.902762 1.478583 0.014193 0.002143 -264765.000000 0 0 1
-22.130284 30.258772 3.211909 37.625246 -0.939327 1.485327 0.008980 0.003151 732339.000000 0 0 1
-20.679884 29.768082 3.569909 36.421705 -0.963636 1.472623 0.005178 -0.003594 752217.000000 0 0 1
-19.719684 30.726932 3.201409 36.650502 -1.000227 1.483335 0.005496 0.001769 -1329240.000000 0 0 1
-18.439684 30.385072 3.579609 35.722376 -1.025343 1.470422 0.010435 -0.003639 -663754.000000 0 0 1
-17.358384 31.357652 3.076109 35.973300 -1.065223 1.485181 0.014124 -0.007516 -227028.000000 0 0 1
-17.459884 32.606262 3.697209 37.171027 -1.079172 1.471167 0.005136 -0.004195 191405.000000 0 0 1
-16.481584 33.442781 3.090609 37.411417 -1.112902 1.488091 0.018487 0.003009 261161.000000 0 0 1
-16.055284 -34.501078 3.987409 38.262200 1.135246 1.466394 0.018981 -0.001098 -24048.000000 0 0 1
-16.947784 -33.420112 3.891909 37.673309 1.101474 1.467305 0.019004 -0.002073 -177159.000000 0 0 1
-16.469584 -32.349952 4.673309 36.600634 1.099890 1.442763 0.019203 -0.006270 -113810.000000 0 0 1
-17.479684 -31.233252 5.007209 36.140387 1.060575 1.431800 0.015709 0.003594 -243262.000000 0 0 1
-17.864684 -30.450252 3.920709 35.520934 1.040225 1.460194 0.016247 0.005006 -326138.000000 0 0 1
-18.753184 -29.497192 4.408809 35.230723 1.004496 1.445326 0.023080 0.003338 -433509.000000 0 0 1
-19.323384 -28.590032 3.319909 34.667058 0.976443 1.474884 0.010791 -0.001240 122571.000000 0 0 1
-18.434884 -27.557962 2.947209 33.286218 0.981215 1.482139 0.013036 -0.001642 110533.000000 0 0 1
-19.049484 -26.776742 1.955009 32.919581 0.952448 1.511374 0.012819 0.001863 227161.000000 0 0 1
-18.182584 -25.541862 1.645309 31.395862 0.952146 1.518367 0.011321 0.002856 21903.200000 0 0 1
-16.945284 -25.848882 1.056009 30.926082 0.990528 1.536643 -0.007529 0.008294 -815963.000000 0 0 1
-16.159684 -24.693772 1.067909 29.530632 0.991332 1.534626 -0.001281 0.008082 -208890.000000 0 0 1
-14.793584 -24.957472 0.397909 29.015235 1.035724 1.557082 0.017474 -0.005788 -212521.000000 0 0 1
-14.783284 -24.989052 -0.995091 29.051479 1.036583 1.605056 0.006196 -0.002053 54450.700000 0 0 1
-15.011884 -23.688772 -1.571791 28.088879 1.005956 1.626783 0.017358 -0.004196 -356274.000000 0 0 1
-15.049884 -23.613872 -3.151691 28.178842 1.003378 1.682877 0.001617 0.005506 -237746.000000 0 0 1
-13.838584 -24.021072 -3.730991 27.972104 1.048134 1.704578 0.007746 0.004465 -222849.000000 0 0 1
-13.856984 -23.730872 -5.122891 27.953789 1.042283 1.755101 0.012936 0.006885 205991.000000 0 0 1
-12.644684 -24.393872 -5.801991 28.082239 1.092573 1.778902 0.006029 -0.000794 88078.700000 0 0 1
-12.786984 -25.828392 -5.806491 29.399458 1.111097 1.769607 -0.013991 0.006412 -490457.000000 0 0 1
-11.761084 -26.484962 -6.506591 29.700371 1.152888 1.791662 -0.001168 0.005727 12387.000000 0 0 1
22.605616 13.269828 28.803663 38.945516 0.530817 0.738337 0.010190 0.004024 -536260.000000 0 0 1
23.336516 12.057228 28.855993 39.020995 0.476893 0.738470 0.013350 -0.000478 246755.000000 0 0 1
22.815216 10.963428 29.664093 38.996016 0.447952 0.706412 0.010724 -0.003019 -492741.000000 0 0 1
22.767316 11.242028 31.188013 40.217235 0.458659 0.683308 0.014465 -0.007272 136779.000000 0 0 1
21.945916 12.353228 31.516803 40.342711 0.512689 0.674168 0.014148 -0.000578 151606.000000 0 0 1
22.319516 12.796528 32.805913 41.691004 0.520581 0.665056 0.010203 -0.004838 -892268.000000 0 0 1
21.391716 13.806028 33.466573 42.050249 0.573129 0.650352 0.006572 0.006969 -79651.200000 0 0 1
20.103316 13.203628 33.633086 41.348078 0.581133 0.620800 0.004995 0.010216 68918.600000 0 0 1
19.406516 14.025928 -34.422991 41.931871 0.625827 2.533828 0.001442 0.016348 480895.000000 0 0 1
18.070216 13.500328 -33.786311 40.623963 0.641645 2.552931 0.006026 0.014403 678826.000000 0 0 1
16.973516 13.287928 34.318009 40.526473 0.664203 0.560847 0.003418 0.013820 -180944.000000 0 0 1
15.865416 12.806828 -33.897941 39.557511 0.679126 2.600076 0.005225 0.013164 795439.000000 0 0 1
14.591216 12.453028 34.202095 39.214344 0.706500 0.511148 0.007709 0.008976 607008.000000 0 0 1
14.829416 11.367628 33.349393 38.227170 0.654015 0.510705 0.000394 0.014879 229828.000000 0 0 1
13.622216 10.944928 32.720493 37.094297 0.676848 0.490517 0.001398 0.011854 414648.000000 0 0 1
13.896716 9.806728 31.728913 36.000202 0.614532 0.492076 -0.004072 0.018018 118689.000000 0 0 1
14.175216 8.541628 32.298613 36.291825 0.542311 0.473518 -0.013110 0.014151 -53971.000000 0 0 1
15.000416 7.815928 31.402993 35.668602 0.480343 0.494070 -0.012857 0.007855 17700.200000 0 0 1
15.186916 6.439228 31.997173 35.998960 0.401022 0.475998 -0.000869 0.001967 380669.000000 0 0 1
14.031316 5.610028 32.113893 35.491581 0.380353 0.439813 0.003276 0.005377 -6170.610000 0 0 1
14.448516 4.385028 32.643553 35.966507 0.294659 0.433241 0.005755 -0.001412 699850.000000 0 0 1
13.373016 3.233428 32.633473 35.415197 0.237234 0.398990 0.009783 -0.001830 523703.000000 0 0 1
13.942716 2.073028 33.169093 36.040054 0.147600 0.401848 0.014169 -0.004139 195769.000000 0 0 1
12.863916 1.190728 33.396721 35.808367 0.092300 0.369103 0.018411 -0.008159 318669.000000 0 0 1
13.404716 -0.235272 33.823931 36.384063 -0.017550 0.377373 0.006086 -0.012663 262839.000000 0 0 1
13.882616 -1.095872 32.790133 35.624721 -0.078775 0.401612 0.012486 -0.006579 257614.000000 0 0 1
14.457916 -2.317672 33.289896 36.367844 -0.158952 0.414380 0.038204 -0.014139 -105442.000000 0 0 1
14.365716 -3.435972 32.270493 35.490343 -0.234768 0.429257 0.036677 -0.018210 -625770.000000 0 0 1
14.806016 -4.781972 32.616363 36.137411 -0.312399 0.445106 0.043377 -0.018566 365577.000000 0 0 1
16.095916 -5.037272 33.153578 37.196940 -0.303298 0.470595 0.040892 -0.018387 375541.000000 0 0 1
17.303516 -4.709172 32.240513 36.892257 -0.265716 0.507607 0.039575 -0.017745 -662359.000000 0 0 1
17.452416 -3.307172 32.138683 36.720827 -0.187276 0.504913 0.041598 -0.017079 -706470.000000 0 0 1
18.478116 -2.928072 31.303363 36.467998 -0.157155 0.538695 0.050997 -0.018151 -600002.000000 0 0 1
18.586116 -1.387672 31.370903 36.489764 -0.074524 0.536079 0.054036 -0.020225 -231467.000000 0 0 1
19.014516 -0.824872 32.608203 37.756154 -0.043354 0.528325 0.045454 -0.020612 172276.000000 0 0 1
18.668116 0.559028 32.669713 37.631386 0.029937 0.519332 0.039491 -0.014106 -241684.000000 0 0 1
19.709616 1.505028 32.076513 37.678067 0.076212 0.552279 0.044246 -0.013190 -463444.000000 0 0 1
19.834316 1.520728 30.648563 36.538296 0.076522 0.575709 0.051446 -0.015652 17552.600000 0 0 1
20.775416 2.516928 30.239643 36.774840 0.120562 0.605370 0.041653 -0.014660 100641.000000 0 0 1
20.311516 3.984228 30.119953 36.546454 0.193697 0.602087 0.028822 -0.005541 -401398.000000 0 0 1
19.963416 4.441328 31.421373 37.490879 0.218908 0.576992 0.026220 -0.006288 285250.000000 0 0 1
19.452316 5.754128 31.313863 37.310328 0.287605 0.574836 0.013934 -0.004395 -494332.000000 0 0 1
19.332316 6.308828 32.761803 38.560024 0.315440 0.555511 0.020394 -0.005540 -394069.000000 0 0 1
18.206016 5.769428 33.414108 38.486984 0.306885 0.519248 0.013141 -0.004577 160852.000000 0 0 1
18.109516 6.032928 -34.113838 39.090980 0.321573 2.631456 0.012541 -0.000764 47880.400000 0 0 1
16.894216 5.365928 -33.415241 37.825733 0.307542 2.653864 0.013751 -0.003421 87281.800000 0 0 1
17.072516 3.988228 -33.345731 37.673791 0.229490 2.657543 0.015544 -0.009557 571487.000000 0 0 1
15.846016 3.350228 -32.970611 36.733928 0.208356 2.684982 0.008542 -0.012182 397686.000000 0 0 1
15.849516 1.883928 -33.302741 36.930054 0.118308 2.694664 0.011080 -0.020985 -480859.000000 0 0 1
16.877116 1.137628 -32.714761 36.829157 0.067305 2.664392 0.013778 -0.014639 -220275.000000 0 0 1
16.738216 -0.237472 -32.935171 36.945226 -0.014186 2.671352 0.017174 -0.013802 -252108.000000 0 0 1
17.855216 -1.115872 -32.287851 36.912860 -0.062414 2.635622 0.013091 -0.011170 22787.700000 0 0 1
17.901216 -1.214472 -30.884421 35.718006 -0.067739 2.615297 0.016027 -0.009741 329989.000000 0 0 1
18.029616 0.002428 -30.180391 35.155697 0.000135 2.603091 0.012781 -0.008526 -537416.000000 0 0 1
17.750816 -0.135772 -28.667401 33.718389 -0.007649 2.587163 0.006835 0.000820 -1626.430000 0 0 1
16.423216 -0.602872 -28.508211 32.905981 -0.036692 2.618650 0.009657 -0.004904 146043.000000 0 0 1
15.871816 -0.799772 -27.225161 31.524016 -0.050347 2.613228 -0.004221 0.000803 -184549.000000 0 0 1
16.662116 -1.631672 -26.208271 31.099227 -0.097616 2.573132 -0.002131 0.001017 -1346840.000000 0 0 1
17.836116 -1.068372 -25.700001 31.301094 -0.059828 2.534058 0.017811 -0.003874 -159651.000000 0 0 1
18.696916 -2.092672 -25.145671 31.404756 -0.111462 2.499253 0.012674 -0.005630 959302.000000 0 0 1
19.575416 -2.825372 -26.255461 32.871399 -0.143343 2.495982 0.017574 -0.005533 -149004.000000 0 0 1
20.631516 -2.021872 -26.753181 33.844942 -0.097687 2.482361 0.035102 -0.003100 -95759.400000 0 0 1
20.967116 -2.300172 -28.122421 35.153681 -0.109267 2.498067 0.040463 -0.009790 524213.000000 0 0 1
22.419216 -1.992772 -28.594041 36.389718 -0.088654 2.474740 0.034396 -0.011262 127227.000000 0 0 1
23.380816 -2.839472 -28.087171 36.655345 -0.120853 2.443781 0.029011 -0.012894 -373951.000000 0 0 1
24.683516 -2.468972 -28.501361 37.784909 -0.099694 2.425392 0.025142 -0.011709 -75867.700000 0 0 1
25.770716 -3.517772 -28.368781 38.487560 -0.135664 2.399550 0.030374 -0.011165 -492247.000000 0 0 1
25.645816 -4.637772 -29.248691 39.175282 -0.178906 2.413749 0.025605 -0.017355 511720.000000 0 0 1
26.637016 -5.668472 -29.104351 39.858819 -0.209677 2.389390 0.023038 -0.016035 272511.000000 0 0 1
26.330516 -6.627872 -27.981451 38.989567 -0.246595 2.371240 0.020824 -0.015361 -117743.000000 0 0 1
26.480616 -6.044872 -26.678651 38.072482 -0.224430 2.347221 0.020348 -0.000782 263492.000000 0 0 1
26.359216 -7.062172 -25.689561 37.478475 -0.261773 2.326016 0.008506 -0.000853 -218294.000000 0 0 1
26.517816 -6.538672 -24.226491 36.508515 -0.241754 2.296397 0.005355 0.002160 -306170.000000 0 0 1
27.834716 -6.258372 -23.836791 37.177026 -0.221163 2.266818 0.006953 0.003527 -31866.700000 0 0 1
27.853316 -5.689072 -22.532991 36.275452 -0.201480 2.241023 0.012127 0.000973 -610602.000000 0 0 1
29.262516 -5.331672 -22.094491 37.052505 -0.180224 2.209683 0.007246 0.010484 -730737.000000 0 0 1
29.816216 -4.258672 -22.788791 37.768664 -0.141871 2.218527 0.016797 0.003041 -260706.000000 0 0 1
31.120216 -3.975472 -22.350391 38.520283 -0.127057 2.189800 0.010293 0.009236 -174903.000000 0 0 1
31.620916 -2.589072 -22.898691 39.127173 -0.081696 2.195969 0.013679 0.005226 -180980.000000 0 0 1
30.968916 -1.459272 -22.393191 38.244715 -0.047086 2.196322 0.006877 0.005374 429616.000000 0 0 1
31.662416 -0.236772 -22.712191 38.966758 -0.007478 2.193041 0.005497 0.005719 -585418.000000 0 0 1
30.738716 0.881328 -22.429691 38.062270 0.028664 2.200975 0.007172 0.012862 -223217.000000 0 0 1
29.738916 0.989728 -23.453991 37.887628 0.033268 2.238317 0.008409 0.011455 488763.000000 0 0 1
28.723316 1.890728 -23.070691 36.889843 0.065731 2.246433 -0.002403 0.010672 77699.100000 0 0 1
27.582816 2.022828 -24.120091 36.697171 0.073205 2.287992 -0.007011 0.011908 750280.000000 0 0 1
26.492516 2.839428 -23.627691 35.611565 0.106771 2.296262 -0.007288 0.008949 411517.000000 0 0 1
25.588316 3.085628 -24.651491 35.664815 0.120008 2.333943 0.017219 0.000716 -483575.000000 0 0 1
24.368016 3.927128 -24.274191 34.618765 0.159785 2.347856 0.011312 0.001618 -140864.000000 0 0 1
24.776516 5.328228 -24.146691 35.004692 0.211825 2.332027 -0.002022 0.009160 95247.900000 0 0 1
23.641616 6.120528 -24.010491 34.247490 0.253326 2.347718 0.007379 0.004714 -545467.000000 0 0 1
23.917316 7.590928 -23.440891 34.338543 0.307326 2.322167 0.006954 0.001397 -21128.700000 0 0 1
24.680816 8.481728 -24.240791 35.618792 0.331013 2.319326 0.002644 0.007939 181988.000000 0 0 1
24.951716 9.724128 -23.593891 35.690594 0.371611 2.293037 0.003676 0.002337 422211.000000 0 0 1
26.021716 10.642428 -24.324291 37.176096 0.388226 2.284052 0.021905 -0.000781 132600.000000 0 0 1
25.756516 11.047628 -25.645841 37.988911 0.405191 2.311880 0.026724 -0.006658 364259.000000 0 0 1
24.674116 11.980628 -25.733181 37.610425 0.452025 2.324307 0.032829 -0.007519 463420.000000 0 0 1
24.044516 12.134728 -27.140761 38.236256 0.467383 2.360035 0.025187 -0.015702 -55656.100000 0 0 1
23.575416 10.951328 -27.804341 38.063279 0.434866 2.389816 0.022170 -0.013189 594543.000000 0 0 1
24.571416 10.065728 -28.347171 38.841157 0.388799 2.388859 0.018575 -0.016312 353966.000000 0 0 1
25.306016 10.516228 -29.637571 40.365469 0.393850 2.395329 0.009510 -0.009490 -383619.000000 0 0 1
26.233316 11.571628 -29.419651 41.080473 0.415432 2.369062 0.004572 -0.002855 462092.000000 0 0 1
27.043416 12.052428 -30.467311 42.483696 0.419247 2.370505 0.001951 0.004269 282186.000000 0 0 1
28.034516 11.053728 -31.134211 43.329644 0.375574 2.372501 -0.000411 -0.001471 -801061.000000 0 0 1
27.457716 10.138328 -32.002621 43.369109 0.353706 2.400769 0.005966 -0.004401 -184583.000000 0 0 1
28.255616 8.985328 -32.268751 43.822234 0.307889 2.398465 0.006467 -0.000329 -266706.000000 0 0 1
27.599316 7.990928 -33.234771 43.933213 0.281827 2.428717 0.017037 -0.006281 -367162.000000 0 0 1
26.520016 7.367328 -32.590661 42.658410 0.270970 2.440273 0.021697 -0.005547 -514923.000000 0 0 1
25.985116 6.395028 -33.385101 42.786535 0.241308 2.465896 0.034651 -0.012639 -119076.000000 0 0 1
24.687016 5.674928 -32.911651 41.531077 0.225950 2.485626 0.033671 -0.009267 -242435.000000 0 0 1
23.549616 6.470628 -32.945091 41.010151 0.268148 2.503679 0.030804 -0.015054 -429969.000000 0 0 1
23.156416 7.016528 -31.702581 39.881135 0.294212 2.489683 0.028669 -0.007310 -544468.000000 0 0 1
21.689616 7.422328 -31.589931 39.031450 0.329715 2.513833 0.034760 -0.009276 -255558.000000 0 0 1
21.245616 8.540628 -32.368031 39.648555 0.382225 2.525900 0.028070 -0.005630 523889.000000 0 0 1
19.854816 8.831428 -32.201901 38.848041 0.418521 2.547970 0.019809 -0.002664 434040.000000 0 0 1
19.301716 9.828928 -33.258391 39.689855 0.471001 2.564325 0.018675 -0.002783 -82798.500000 0 0 1
19.179316 9.387328 34.356021 40.451258 0.455173 0.556102 0.016017 -0.003055 -11072.200000 0 0 1
18.965016 10.385728 33.366516 39.760025 0.501018 0.574990 0.006202 0.001275 546107.000000 0 0 1
17.996616 9.955028 32.159013 38.173065 0.505267 0.568976 0.005625 0.004638 605538.000000 0 0 1
18.465416 9.005428 31.147793 37.312924 0.453752 0.583077 0.002478 0.002206 489781.000000 0 0 1
19.467816 9.485128 30.213683 37.172976 0.453372 0.621877 0.010600 -0.000526 -386492.000000 0 0 1
19.107516 10.573528 29.148063 36.421233 0.505427 0.642994 0.019670 -0.002481 -348169.000000 0 0 1
18.233416 10.154528 28.114953 35.014604 0.508139 0.638569 0.010858 -0.004684 1408960.000000 0 0 1
16.848416 10.273028 28.559383 34.713723 0.547545 0.604632 0.003421 -0.007992 953525.000000 0 0 1
15.859216 9.407728 27.734543 33.305029 0.535406 0.586752 0.010445 -0.005761 -293127.000000 0 0 1
15.783716 9.871328 26.388083 32.293958 0.558896 0.614397 0.012161 -0.010056 410113.000000 0 0 1
14.521916 9.689628 25.757333 31.116155 0.588401 0.595657 0.026544 -0.009920 266083.000000 0 0 1
14.185416 8.306828 25.255183 30.133929 0.529756 0.577009 0.020428 -0.002982 -243652.000000 0 0 1
14.213116 7.349928 26.242243 30.735800 0.477252 0.547554 0.004868 0.003884 6841.840000 0 0 1
14.101716 6.090928 25.663293 29.909236 0.407724 0.539357 0.019474 0.006352 -351614.000000 0 0 1
13.990816 5.022028 26.712303 30.569770 0.344627 0.507804 0.025260 0.011489 -509666.000000 0 0 1
15.136116 4.435228 27.260213 31.494324 0.285044 0.524530 0.008356 0.006416 -461067.000000 0 0 1
15.108716 4.237328 28.680373 32.692385 0.273431 0.500631 -0.010846 0.008451 326399.000000 0 0 1
16.306816 3.399028 29.234933 33.647391 0.205500 0.517898 0.015989 -0.004952 310508.000000 0 0 1
16.303116 1.963028 29.120913 33.431611 0.119831 0.513442 0.024592 -0.000214 140689.000000 0 0 1
15.578516 1.332528 30.197203 34.004953 0.085329 0.477767 0.018537 0.002598 298533.000000 0 0 1
15.315216 -0.191672 30.126753 33.796654 -0.012515 0.470344 0.022977 -0.002824 -369229.000000 0 0 1
14.475816 -0.670372 29.080983 32.491571 -0.046277 0.462294 0.016363 0.003613 53491.900000 0 0 1
14.968716 -0.744172 27.782203 31.566866 -0.049674 0.494710 0.028354 0.006821 -2109620.000000 0 0 1
15.939416 -1.865372 27.453853 31.800293 -0.116499 0.528983 0.034517 -0.000578 831.050000 0 0 1
17.256916 -1.656772 27.939993 32.881442 -0.095713 0.555344 0.040839 -0.005375 144025.000000 0 0 1
17.962016 -0.601072 27.313433 32.695855 -0.033451 0.581974 0.040879 -0.004392 -1020470.000000 0 0 1
19.473916 -0.559972 27.696973 33.862506 -0.028747 0.613002 0.048875 -0.002763 447835.000000 0 0 1
20.230816 -1.192472 26.692573 33.514196 -0.058875 0.649385 0.043780 -0.006370 692377.000000 0 0 1
21.637716 -0.932172 26.891643 34.528541 -0.043054 0.678008 0.042558 -0.007653 1169050.000000 0 0 1
22.654116 -1.459872 25.854153 34.406067 -0.064353 0.720552 0.044452 0.006357 -140444.000000 0 0 1
22.638516 -0.895572 24.537603 33.397581 -0.039539 0.745554 0.048775 0.003994 -234529.000000 0 0 1
21.720216 -1.531972 23.701983 32.185380 -0.070415 0.743032 0.041993 0.015341 -370517.000000 0 0 1
21.526116 -0.773972 22.367383 31.052738 -0.035940 0.766557 0.034912 0.003190 172254.000000 0 0 1
20.738216 0.448728 22.576383 30.658898 0.021634 0.743103 0.021449 0.000370 622406.000000 0 0 1
20.618916 1.122428 21.352283 29.703864 0.054383 0.768666 0.029801 -0.014651 -90033.800000 0 0 1
-30.133544 -27.787597 -10.622691 42.344097 0.744918 1.824371 0.004467 0.011329 92686.300000 0 0 1
-29.822874 -26.630897 -9.839091 41.175432 0.728917 1.812086 0.014499 0.013265 -354132.000000 0 0 1
-30.569494 -26.661297 -8.671691 41.479114 0.717216 1.781412 0.020273 0.008708 -855208.000000 0 0 1
-30.673404 -25.399497 -7.862791 40.593295 0.691620 1.765725 0.022384 0.003014 -291181.000000 0 0 1
-29.535174 -24.787297 -7.291691 39.241628 0.698218 1.757698 0.018335 -0.000302 -481319.000000 0 0 1
-28.971854 -25.482897 -6.177991 39.075746 0.721415 1.729565 0.028198 0.000905 -234719.000000 0 0 1
-27.691914 -24.827697 -5.678391 37.623141 0.730916 1.722303 0.034025 0.002749 -560356.000000 0 0 1
-27.748314 -23.754397 -4.723191 36.831357 0.708005 1.699389 0.028507 -0.003759 -464698.000000 0 0 1
-28.230884 -22.529497 -5.201291 36.491293 0.673547 1.713819 0.025380 -0.005977 -130120.000000 0 0 1
-28.311564 -21.434197 -4.103891 35.746488 0.648019 1.685855 0.020093 -0.011328 95344.000000 0 0 1
-27.186744 -20.568397 -4.131791 34.340205 0.647686 1.691408 0.019587 -0.019745 56519.100000 0 0 1
-27.233134 -19.571997 -3.141991 33.683509 0.623155 1.664212 0.028295 -0.014656 325733.000000 0 0 1
-26.174664 -18.395897 -3.220891 32.154256 0.612611 1.671135 0.029469 -0.014240 456390.000000 0 0 1
-26.275254 -17.563497 -4.323591 31.899198 0.589231 1.706754 0.026938 -0.019711 823743.000000 0 0 1
-25.268424 -16.499697 -4.334391 30.488034 0.578465 1.713447 0.034147 -0.021134 855984.000000 0 0 1
-25.591344 -15.476397 -5.459991 30.401435 0.543906 1.751373 0.019286 -0.023201 358595.000000 0 0 1
-26.798484 -14.740397 -5.259491 31.033857 0.502878 1.741094 0.021977 -0.015271 268852.000000 0 0 1
-27.095974 -13.726497 -6.178391 30.996468 0.468904 1.771466 0.037031 -0.024806 -1529320.000000 0 0 1
-28.515334 -13.310797 -5.945291 32.025741 0.436732 1.757521 0.037554 -0.020422 -1290660.000000 0 0 1
-29.375864 -14.191297 -6.658291 33.296653 0.450031 1.772122 0.045880 -0.018467 508808.000000 0 0 1
-30.681744 -13.591197 -6.724591 34.224409 0.416995 1.768568 0.044637 -0.016768 153291.000000 0 0 1
-31.644734 -14.441697 -7.529091 35.589872 0.428138 1.783958 0.029981 -0.016248 -670930.000000 0 0 1
-32.150444 -15.540297 -6.812591 36.353312 0.450249 1.759310 0.029607 -0.019373 -98183.900000 0 0 1
-32.404704 -16.594297 -7.688691 37.209562 0.473277 1.778928 0.038952 -0.007760 -578406.000000 0 0 1
-33.334624 -17.694097 -7.007991 38.384765 0.487985 1.754398 0.023477 -0.015631 1669160.000000 0 0 1
-34.682386 -17.178697 -6.773791 39.291981 0.459892 1.744058 0.024959 -0.018508 1297020.000000 0 0 1
-34.821531 -16.434097 -5.582391 38.907347 0.440959 1.714772 0.027772 -0.009153 -205309.000000 0 0 1
34.487872 -16.269097 -5.081791 38.469747 -0.440780 1.703282 0.052144 -0.008435 105330.000000 0 0 1
33.776742 -15.354097 -5.890191 37.567419 -0.426653 1.728236 0.044451 -0.023761 475957.000000 0 0 1
32.360722 -15.297797 -5.816791 36.263949 -0.441592 1.731894 0.056903 -0.025481 577934.000000 0 0 1
31.734192 -14.731697 -4.488991 35.273685 -0.434617 1.698404 0.063748 -0.015983 -510116.000000 0 0 1
31.678912 -15.654997 -3.403791 35.499552 -0.458979 1.666827 0.064479 -0.013090 414811.000000 0 0 1
31.098122 -14.986797 -2.298491 34.597404 -0.449079 1.637281 0.070120 -0.022381 -1041160.000000 0 0 1
30.954652 -15.832897 -1.047291 34.784593 -0.472795 1.600909 0.069470 -0.018848 55730.700000 0 0 1
32.134492 -16.176697 -0.319091 35.977950 -0.466369 1.579666 0.074338 -0.022494 286733.000000 0 0 1
33.230002 -16.731697 -0.988691 37.217741 -0.466453 1.597364 0.060096 -0.031401 -1292770.000000 0 0 1
33.072262 -18.162797 -1.545991 37.763101 -0.502217 1.611747 0.048443 -0.034479 -859026.000000 0 0 1
33.257372 -19.263897 -0.678291 38.439701 -0.525013 1.588443 0.045430 -0.036881 135689.000000 0 0 1
32.929952 -20.555597 -1.179891 38.836921 -0.558040 1.601182 0.046860 -0.030255 403596.000000 0 0 1
33.912562 -21.058297 -2.312991 39.985793 -0.555688 1.628674 0.041156 -0.032021 339418.000000 0 0 1
33.883022 -20.313997 -3.531191 39.663421 -0.540076 1.659943 0.025591 -0.035175 -485840.000000 0 0 1
34.698192 -20.773297 -4.535391 40.694768 -0.539452 1.682477 0.033297 -0.029682 -776289.000000 0 0 1
34.478822 -20.056797 -5.894091 40.321267 -0.526865 1.717500 0.038688 -0.027409 146708.000000 0 0 1
33.313912 -20.322197 -6.669191 39.588970 -0.547756 1.740064 0.033631 -0.028890 424208.000000 0 0 1
33.145152 -19.281997 -7.619491 39.095436 -0.526888 1.766946 0.042871 -0.028853 52029.100000 0 0 1
32.006042 -19.482697 -8.646591 38.454203 -0.546806 1.797590 0.054378 -0.034627 -167839.000000 0 0 1
32.231372 -20.571497 -9.509891 39.401597 -0.568067 1.814561 0.059666 -0.041141 618128.000000 0 0 1
31.238432 -20.832197 -10.528491 38.995759 -0.588148 1.844180 0.052738 -0.044074 202821.000000 0 0 1
31.403322 -22.248097 -11.153991 40.069414 -0.616383 1.852890 0.043202 -0.041272 -37719.300000 0 0 1
31.118142 -23.182397 -10.166691 40.113887 -0.640281 1.827037 0.036557 -0.040046 9358.860000 0 0 1
30.941232 -24.469497 -10.675391 40.866613 -0.669129 1.835088 0.028213 -0.030004 -434229.000000 0 0 1
30.230052 -25.418297 -9.710191 40.672271 -0.699146 1.811867 0.024265 -0.030412 -587295.000000 0 0 1
28.899362 -25.059697 -9.584591 39.433817 -0.714359 1.816311 0.033663 -0.035649 -526556.000000 0 0 1
28.038402 -25.935997 -8.831391 39.202314 -0.746466 1.798024 0.020245 -0.023479 1183660.000000 0 0 1
26.576582 -25.387497 -8.720991 37.774269 -0.762519 1.803769 0.022172 -0.026478 184230.000000 0 0 1
25.979862 -25.227197 -9.972491 37.560821 -0.770701 1.839521 0.014830 -0.027771 -608449.000000 0 0 1
24.777092 -24.564797 -9.654391 36.201392 -0.781096 1.840749 0.023749 -0.036364 -237176.000000 0 0 1
23.949592 -24.234097 -10.935791 35.783599 -0.791303 1.881374 0.046306 -0.035600 -295271.000000 0 0 1
23.240692 -25.287197 -11.528391 36.228109 -0.827545 1.894644 0.037609 -0.030180 273724.000000 0 0 1
22.490592 -24.880797 -12.674191 35.854092 -0.835812 1.932100 0.037961 -0.010082 206346.000000 0 0 1
21.806492 -26.106697 -13.334191 36.536056 -0.874908 1.944386 0.042008 -0.016713 -19327.900000 0 0 1
22.734092 -27.004097 -13.923391 37.946291 -0.871038 1.946496 0.023792 -0.008994 111276.000000 0 0 1
22.151292 -28.241197 -14.065291 38.549674 -0.905664 1.944280 0.029043 0.004556 -359191.000000 0 0 1
23.057792 -29.332497 -14.672991 40.091817 -0.904599 1.945487 0.021116 -0.003236 -231038.000000 0 0 1
23.158192 -29.351697 -16.112291 40.711545 -0.902805 1.977699 0.026730 0.002587 364161.000000 0 0 1
23.608592 -30.609697 -16.574591 42.059912 -0.913816 1.975853 0.019993 0.001768 -312925.000000 0 0 1
23.609892 -30.634197 -18.101891 42.703155 -0.914176 2.008544 0.018211 0.006317 305666.000000 0 0 1
22.285492 -30.494897 -18.610591 42.106246 -0.939701 2.028614 0.027876 0.000309 431351.000000 0 0 1
22.224092 -30.455297 -20.024391 42.689713 -0.940396 2.059032 0.026249 0.003335 -960031.000000 0 0 1
20.878192 -29.976797 -20.504491 41.892021 -0.962438 2.082267 0.020611 0.004492 -891756.000000 0 0 1
20.707792 -30.152497 -21.885891 42.626024 -0.969006 2.109985 0.013050 0.004428 -130198.000000 0 0 1
19.382992 -30.011597 -22.340291 42.136503 -0.997344 2.129619 0.012480 -0.005096 -427525.000000 0 0 1
19.305292 -30.247997 -23.850691 43.087017 -1.002737 2.157414 0.011038 -0.000027 -361031.000000 0 0 1
19.777092 -29.131897 -24.637391 42.974432 -0.974385 2.181328 0.011880 -0.005089 405332.000000 0 0 1
19.850992 -29.537797 -25.983181 44.064374 -0.979073 2.201439 0.011246 -0.005550 -589791.000000 0 0 1
20.204792 -28.343297 -26.952721 44.023008 -0.951492 2.229689 0.009966 -0.014455 -62752.300000 0 0 1
19.255492 -27.323497 -27.093751 43.028116 -0.956908 2.251932 0.018527 -0.022046 285200.000000 0 0 1
18.032092 -27.653497 -27.774871 43.142968 -0.992965 2.270233 0.032524 -0.025177 704890.000000 0 0 1
17.193992 -26.360397 -28.118151 42.203487 -0.992830 2.299968 0.023328 -0.028417 -192095.000000 0 0 1
16.767592 -25.632797 -27.024701 40.847606 -0.991512 2.293744 0.008780 -0.014611 -198707.000000 0 0 1
16.396892 -24.289997 -27.321591 40.066586 -0.977014 2.321160 -0.011106 0.005210 -72506.300000 0 0 1
15.233292 -23.897097 -26.389041 38.723454 -1.003292 2.320572 -0.003996 -0.000250 -675786.000000 0 0 1
13.994392 -24.496197 -26.672411 38.824273 -1.051756 2.328154 0.020631 -0.009469 14292.900000 0 0 1
12.929292 -24.046997 -25.809241 37.570488 -1.077471 2.328087 0.015024 -0.005618 584963.000000 0 0 1
13.037492 -24.555097 -24.306791 36.928973 -1.082698 2.289227 0.020872 -0.005123 -504547.000000 0 0 1
13.917592 -23.806797 -23.490691 36.225343 -1.041773 2.276356 -0.009516 -0.006556 -50950.600000 0 0 1
13.997092 -24.467997 -22.264691 35.920995 -1.051177 2.239315 0.007286 -0.009618 285783.000000 0 0 1
15.143792 -23.920997 -21.361091 35.466107 -1.006411 2.217170 -0.000586 -0.014135 90517.600000 0 0 1
14.968892 -22.618397 -20.845791 34.208283 -0.986169 2.226073 -0.007822 -0.020586 110309.000000 0 0 1
16.179992 -21.918197 -20.607891 34.159694 -0.934891 2.218405 -0.000752 -0.006657 -413912.000000 0 0 1
16.029592 -20.474397 -20.176091 32.912359 -0.906564 2.230680 0.002277 0.007924 75286.800000 0 0 1
15.396292 -20.343597 -18.878091 31.737833 -0.922949 2.207830 0.008659 -0.008701 875591.000000 0 0 1
14.006392 -20.069797 -19.117391 31.055602 -0.961492 2.233926 0.008161 -0.010574 69064.400000 0 0 1
13.223892 -20.000497 -17.774791 29.846849 -0.986603 2.208726 0.018443 -0.012762 19294.200000 0 0 1
13.674592 -19.018897 -16.882291 28.874290 -0.947432 2.195285 0.020210 -0.008510 -139721.000000 0 0 1
12.745492 -18.970897 -15.841791 27.808359 -0.979218 2.176909 0.025516 -0.008759 -128562.000000 0 0 1
12.884492 -17.718297 -14.910691 26.500507 -0.942057 2.168392 0.020668 -0.004983 -654018.000000 0 0 1
12.143992 -16.649097 -15.425691 25.741424 -0.940605 2.213367 0.030684 -0.012794 152733.000000 0 0 1
12.378392 -15.472497 -14.652191 24.643649 -0.896040 2.207518 0.026514 -0.011146 -447281.000000 0 1 0
11.087692 -14.783197 -14.219191 23.316630 -0.927282 2.226643 0.026498 -0.011263 -729388.000000 0 1 0
10.347792 -14.290897 -15.272291 23.335582 -0.944090 2.284269 0.024446 -0.005567 -1089080.000000 0 1 0
9.165192 -13.707297 -14.813391 22.165904 -0.981432 2.302712 0.029096 -0.012536 -470214.000000 0 1 0
8.290592 -13.302697 -15.992691 22.393343 -1.013473 2.366236 0.030425 -0.003172 -673552.000000 0 1 0
8.630292 -12.070597 -16.647491 22.300677 -0.950084 2.413585 0.028854 -0.005760 850770.000000 0 1 0
9.841792 -12.095097 -17.450191 23.402167 -0.887757 2.412330 0.041625 -0.003497 911833.000000 0 1 0
9.957792 -10.822397 -18.318791 23.491701 -0.826981 2.465140 0.041354 -0.007265 -395954.000000 0 1 0
9.101592 -10.857597 -19.404191 24.026007 -0.873152 2.510923 0.041259 -0.009909 -261677.000000 0 1 0
9.089692 -9.731397 -20.245991 24.232679 -0.819480 2.559807 0.036650 -0.008847 -147115.000000 0 1 0
8.687492 -10.136497 -21.699291 25.477055 -0.862223 2.590053 0.037083 0.001144 -168240.000000 0 0 1
9.700492 -10.853797 -22.348391 26.671240 -0.841450 2.564259 0.031991 -0.001237 -199948.000000 0 0 1
9.637192 -10.677697 -23.747091 27.763519 -0.836572 2.596992 0.019325 0.005786 232505.000000 0 0 1
10.801992 -11.482797 -24.396991 29.047389 -0.815939 2.567901 0.034195 0.002764 196160.000000 0 0 1
10.624492 -12.870997 -24.339591 29.511999 -0.880723 2.540531 0.027229 0.000588 277974.000000 0 0 1
11.749892 -13.619197 -24.817191 30.650211 -0.858950 2.514421 0.013759 -0.002521 280140.000000 0 0 1
11.639692 -15.056097 -24.403791 30.946946 -0.912682 2.479274 0.007285 -0.006479 260686.000000 0 0 1
10.637092 -15.727197 -25.170021 31.528121 -0.976120 2.495323 0.015224 -0.009736 124788.000000 0 0 1
10.337292 -16.998297 -24.580391 31.622734 -1.024415 2.461161 0.017235 -0.011021 429023.000000 0 0 1
9.202592 -17.827697 -25.265291 32.262198 -1.094276 2.470469 0.023363 -0.019179 748435.000000 0 0 1
9.649292 -18.487397 -26.463171 33.692612 -1.089752 2.474186 0.022011 -0.026003 119957.000000 0 0 1
8.531492 -19.173097 -26.958571 34.163702 -1.152132 2.480138 0.028448 -0.025704 -135189.000000 0 0 1
8.830592 -20.041497 -28.202551 35.707490 -1.155774 2.481315 0.022271 -0.013233 -478706.000000 0 0 1
9.661192 -21.118697 -27.855581 36.266670 -1.141747 2.446628 0.020449 -0.012740 -130398.000000 0 0 1
9.529492 -22.131197 -28.784991 37.539004 -1.164200 2.444641 0.028526 -0.007588 -97318.600000 0 0 1
10.508092 -23.305997 -28.627491 38.381281 -1.147215 2.412638 0.019039 0.002204 -60608.000000 0 0 1
10.188192 -24.179297 -29.676331 39.612148 -1.172013 2.417608 0.025001 -0.000858 -18581.600000 0 0 1
10.528292 -25.554897 -29.486471 40.414721 -1.179999 2.388529 0.041323 -0.003724 -71931.100000 0 0 1
9.850392 -26.399197 -28.385711 39.996205 -1.213664 2.359883 0.044553 -0.004197 204235.000000 0 0 1
10.505692 -26.270897 -27.132651 39.200897 -1.190377 2.335251 0.041092 -0.003816 27675.700000 0 0 1
9.624892 -26.520897 -26.039691 38.393515 -1.222661 2.316150 0.038879 -0.002875 573055.000000 0 0 1
8.714792 -25.396897 -25.544181 37.060156 -1.240242 2.331267 0.031111 0.000732 185390.000000 0 0 1
9.555692 -24.351897 -25.112511 36.262437 -1.196859 2.335775 0.022091 0.001584 -186465.000000 0 0 1
8.807892 -23.263497 -24.647891 35.018392 -1.208861 2.351607 0.016069 -0.009074 -482653.000000 0 0 1
9.589792 -21.957097 -24.461491 34.240951 -1.159014 2.366552 0.026673 -0.012452 -219208.000000 0 0 1
10.248892 -21.867397 -23.244691 33.519226 -1.132514 2.337095 0.027149 -0.017005 -571418.000000 0 0 1
11.216792 -20.896497 -23.200391 33.177374 -1.078161 2.345191 0.012162 -0.013193 -829034.000000 0 0 1
11.882892 -20.674197 -21.869791 32.356039 -1.049135 2.312996 0.007314 -0.006130 -371717.000000 0 0 1
11.052492 -20.148697 -20.839791 31.022966 -1.069070 2.307370 0.009568 -0.004896 196773.000000 0 0 1
10.571492 -18.797497 -20.920791 30.046328 -1.058492 2.341004 0.017196 -0.000761 -357727.000000 0 0 1
11.618792 -17.656797 -20.903991 29.727691 -0.988793 2.350660 0.014637 -0.003512 -158720.000000 0 0 1
12.371892 -17.608497 -22.109891 30.854014 -0.958321 2.369707 0.004505 0.002319 -454712.000000 0 0 1
13.647892 -17.112597 -21.843991 30.923549 -0.897560 2.355177 0.008522 0.004199 -331306.000000 0 0 1
14.698692 -17.322397 -22.961091 32.300599 -0.867152 2.361512 -0.006882 0.016236 996521.000000 0 0 1
16.039992 -17.462497 -22.462091 32.661379 -0.827832 2.329149 -0.004458 0.016480 401422.000000 0 0 1
17.040992 -17.248597 -23.373391 33.678256 -0.791453 2.337854 -0.005367 0.017462 -646500.000000 0 0 1
18.432292 -17.485697 -22.760291 34.110553 -0.759050 2.301308 -0.005325 0.018935 -297241.000000 0 0 1
18.833892 -18.815097 -22.573391 34.903887 -0.784899 2.274086 -0.001168 0.016256 -884799.000000 0 0 1
19.987692 -19.004497 -21.870391 35.199329 -0.760188 2.241235 -0.002476 0.012467 -815829.000000 0 0 1
20.395692 -20.510097 -21.742591 36.185475 -0.788195 2.215379 -0.000425 0.010451 -153580.000000 0 0 1
19.621092 -21.165097 -20.765191 35.554771 -0.823236 2.194486 -0.008576 0.010311 181344.000000 0 0 1
19.949392 -22.530497 -20.607691 36.472983 -0.846084 2.171245 -0.002955 0.005630 -562478.000000 0 0 1
-15.763484 12.670628 28.388063 34.855622 -0.677051 0.619021 0.001668 -0.012688 -222216.000000 0 0 1
-16.804684 13.618328 28.275433 35.599949 -0.681044 0.653016 0.016974 -0.014071 -172914.000000 0 0 1
-17.089584 13.671828 26.890553 34.670947 -0.674747 0.683142 0.010311 -0.009693 579508.000000 0 0 1
-18.340384 14.522628 26.449813 35.311032 -0.669745 0.724166 0.021778 -0.012454 631069.000000 0 0 1
-18.289784 15.907428 26.752543 36.100707 -0.715845 0.736159 0.024083 -0.012174 713984.000000 0 0 1
-19.508184 16.578228 26.343243 36.733817 -0.704383 0.771108 0.042005 -0.012026 548797.000000 0 0 1
-19.528484 18.124328 26.676333 37.702516 -0.748123 0.784774 0.045383 -0.007716 745119.000000 0 0 1
-18.540484 18.946828 26.005573 37.135181 -0.796237 0.794986 0.017948 -0.006975 539686.000000 0 0 1
-17.234084 18.832628 26.526613 36.814980 -0.829691 0.766218 0.021347 -0.005167 62373.300000 0 0 1
-16.160084 19.777028 25.909553 36.381095 -0.885707 0.778211 0.025177 -0.002018 409533.000000 0 0 1
-16.454084 21.061828 26.293443 37.492434 -0.907607 0.793577 0.030902 -0.000185 476535.000000 0 0 1
-15.380684 21.755428 25.677413 37.002616 -0.955400 0.803856 0.033868 -0.004525 479608.000000 0 0 1
-15.593584 23.336228 25.680973 38.042762 -0.981724 0.829757 0.038040 -0.000168 13300.400000 0 0 1
-15.329484 23.870728 26.951033 39.130077 -0.999933 0.811026 0.039690 0.005720 46662.300000 0 0 1
-15.493184 25.280528 26.889663 40.027463 -1.020981 0.834187 0.040566 0.003840 -164143.000000 0 0 1
-14.925784 26.142828 28.067753 41.158538 -1.052024 0.820381 0.027619 0.011074 -1184410.000000 0 0 1
-13.579284 26.268328 27.842123 40.615340 -1.093685 0.815496 0.024925 0.015733 -1504490.000000 0 0 1
-12.956784 26.969728 28.887843 41.590287 -1.122935 0.802958 0.028089 0.017607 1214320.000000 0 0 1
-11.377184 26.919028 28.850343 41.066004 -1.170922 0.791842 0.040230 0.012601 1277410.000000 0 0 1
-10.757184 27.648728 27.827103 40.675752 -1.199751 0.817400 0.032201 0.017324 -816381.000000 0 0 1
-9.372584 27.540628 27.903623 40.310590 -1.242772 0.806242 0.014442 0.011649 -652281.000000 0 0 1
-8.629784 28.470128 26.876673 40.092105 -1.276482 0.836085 0.024843 0.005969 643676.000000 0 0 1
-7.240084 28.127928 26.792253 39.514857 -1.318867 0.825717 0.004509 -0.003076 453485.000000 0 0 1
-6.642184 28.651128 25.672413 39.039448 -1.342991 0.853165 0.026104 -0.004071 258475.000000 0 0 1
-5.104584 28.343928 25.621983 38.547646 -1.392612 0.843726 0.005190 -0.016428 243856.000000 0 0 1
-4.457884 29.123428 26.648293 39.726292 -1.418907 0.835513 0.014250 -0.018946 243686.000000 0 0 1
-3.048884 29.003828 26.562283 39.447086 -1.466061 0.832046 0.008672 -0.015395 172779.000000 0 0 1
-2.327384 29.998428 25.645313 39.534851 -1.493368 0.864953 0.005306 -0.005982 -700883.000000 0 0 1
-2.411984 29.690628 24.254783 38.414132 -1.489737 0.887436 0.004841 -0.001994 -48249.500000 0 0 1
-2.108184 30.839028 23.467683 38.810079 -1.502542 0.921432 0.003484 -0.002403 -210194.000000 0 0 1
-2.582184 30.686428 21.983583 37.836523 -1.486847 0.950821 0.003300 0.004255 420984.000000 0 0 1
-3.942684 30.433128 21.713483 37.592491 -1.441962 0.955009 0.012113 0.003851 -173173.000000 0 0 1
-4.472984 29.133628 21.979283 36.767713 -1.418453 0.930058 0.015801 -0.000396 -782280.000000 0 0 1
-5.958884 28.960728 21.738683 36.698806 -1.367871 0.936819 0.030261 0.001465 -835086.000000 0 0 1
-6.339284 29.229428 20.401083 36.204284 -1.357224 0.972181 0.036597 -0.002669 139433.000000 0 0 1
-7.202384 28.298228 19.722883 35.237141 -1.321571 0.976750 0.022076 -0.005236 -218772.000000 0 0 1
-6.701884 26.767428 19.504283 33.790938 -1.325465 0.955495 0.017807 -0.001304 855588.000000 0 0 1
-5.774784 26.572128 18.389283 32.826694 -1.356799 0.976178 0.017015 0.000800 871423.000000 0 0 1
-4.448084 26.996528 18.636283 33.104516 -1.407498 0.972842 0.023829 0.000866 -937.088000 0 0 1
-3.515784 27.207428 17.408583 32.490978 -1.442287 1.005344 0.024740 0.003539 223396.000000 0 0 1
-3.040184 26.007228 16.819383 31.120897 -1.454427 0.999821 0.024607 0.007046 -29508.200000 0 0 1
-2.348584 26.302428 15.619883 30.680846 -1.481741 1.036647 0.028456 -0.002133 223890.000000 0 0 1
-1.732784 25.094128 14.846183 29.208337 -1.501854 1.037603 0.028084 -0.003640 -3426.230000 0 0 1
-0.714984 24.419528 15.525983 28.946169 -1.541525 1.004661 0.020066 -0.008712 -524905.000000 0 0 1
-0.200484 23.437528 14.675983 27.653976 -1.562243 1.011369 0.016341 -0.020318 -509970.000000 0 0 1
1.158916 22.930328 15.200783 27.535556 1.520299 0.985985 0.008235 -0.018888 -154070.000000 0 0 1
2.115316 23.972028 15.205883 28.466674 1.482783 1.007277 0.014420 -0.020181 576206.000000 0 0 1
3.428916 23.425628 15.413583 28.250594 1.425454 0.993689 0.015104 -0.015319 272956.000000 0 0 1
4.552116 24.456628 15.623683 29.375974 1.386772 1.010010 0.022064 -0.015656 203740.000000 0 0 1
5.784116 23.771128 15.453583 28.936754 1.332110 1.007416 0.019330 -0.011763 129686.000000 0 0 1
6.909816 24.592228 15.755383 30.012586 1.296883 1.018129 0.024742 -0.009159 354196.000000 0 0 1
8.253916 23.796628 15.691683 29.675504 1.236928 1.013639 0.034591 -0.005828 -22534.100000 0 0 1
8.612316 23.463428 14.358183 28.824674 1.219011 1.049366 0.025209 -0.007202 -271679.000000 0 0 1
9.372816 24.450728 13.725783 29.564927 1.204738 1.087999 0.024858 -0.003621 -700563.000000 0 0 1
10.012016 23.842628 12.471683 28.709828 1.173236 1.121419 0.021460 0.003454 -172587.000000 0 0 1
11.003216 22.862028 12.689583 28.368443 1.122230 1.107037 0.017922 0.000577 -34192.900000 0 0 1
11.234616 22.076628 11.514183 27.316122 1.100061 1.135680 0.027880 -0.002309 -49385.600000 0 0 1
12.430516 21.120128 11.610983 27.118120 1.038829 1.128337 0.014317 -0.000822 -197609.000000 0 0 1
12.199116 19.941828 12.318683 26.424323 1.021793 1.085820 0.021205 0.001753 480053.000000 0 0 1
13.400816 19.177928 12.580583 26.563995 0.960901 1.077428 0.025364 -0.000649 608172.000000 0 0 1
13.831116 19.192328 14.102583 27.541388 0.946340 1.033226 0.030105 -0.007055 -568641.000000 0 0 1
14.964516 18.405228 14.285783 27.690662 0.888144 1.028731 0.032155 -0.009006 -331356.000000 0 0 1
15.301916 18.163128 15.633383 28.433264 0.870689 0.988639 0.028539 -0.014358 -266453.000000 0 0 1
16.579216 17.335628 15.720783 28.679913 0.807698 0.990650 0.021855 -0.013062 -330633.000000 0 0 1
17.058416 17.071828 17.034283 29.539865 0.785791 0.956169 0.023556 -0.021039 -127921.000000 0 0 1
18.215016 16.283028 17.043083 29.789100 0.729454 0.961702 0.028593 -0.015939 -47677.100000 0 0 1
18.771516 15.978428 18.479583 30.808683 0.705194 0.927523 0.028049 -0.018012 -83926.200000 0 0 1
19.289216 17.060328 19.204283 32.123716 0.724157 0.930014 0.029842 -0.009700 58725.400000 0 0 1
18.318816 17.826628 19.899783 32.393966 0.771782 0.909291 0.028059 -0.011125 -129886.000000 0 0 1
18.830416 19.010128 20.697683 33.828444 0.790147 0.912408 0.021400 -0.005688 36719.300000 0 0 1
17.736216 19.780228 21.203883 33.991696 0.839827 0.897206 0.033202 -0.012344 658412.000000 0 0 1
18.210816 20.753728 22.130483 35.385157 0.850568 0.895130 0.028834 -0.002740 474570.000000 0 0 1
17.060116 21.748528 22.529283 35.659706 0.905624 0.886942 0.034421 -0.012972 429844.000000 0 0 1
16.350216 21.137828 23.603583 35.654824 0.912421 0.847309 0.044226 -0.013492 -301980.000000 0 0 1
15.469016 22.097728 24.097193 36.170081 0.960052 0.841669 0.045876 -0.016229 -171016.000000 0 0 1
14.799616 21.789428 25.458723 36.632695 0.974159 0.802414 0.052828 -0.014737 -146984.000000 0 0 1
13.924616 20.707628 25.394723 35.603268 0.978808 0.776644 0.049669 -0.014907 -364218.000000 0 0 1
13.145216 20.548828 26.557783 36.060600 1.001691 0.742950 0.044053 -0.008442 -94809.200000 0 0 1
12.151516 19.346828 26.393703 34.908260 1.009979 0.713482 0.042676 -0.007489 -64337.700000 0 0 1
12.667816 18.008128 26.350703 34.338401 0.957759 0.696047 0.047958 -0.017851 -132335.000000 0 0 1
13.451316 17.658628 25.222163 33.599442 0.919823 0.721718 0.055653 -0.018048 -379530.000000 0 0 1
12.747016 17.424128 23.884383 32.195503 0.939193 0.734964 0.060789 -0.019068 -765047.000000 0 0 1
12.523416 18.534028 23.022883 32.099833 0.976567 0.770981 0.053565 -0.012465 -445793.000000 0 0 1
13.570916 19.092328 22.275883 32.324939 0.952856 0.810517 0.052413 -0.012777 -368991.000000 0 0 1
14.185216 18.144928 21.228683 31.322767 0.907269 0.826112 0.050396 -0.013026 -162158.000000 0 0 1
13.294316 17.746928 20.167383 29.973582 0.927868 0.832757 0.052453 -0.012536 49494.600000 0 0 1
13.783916 16.763228 19.342783 29.071384 0.882622 0.842827 0.036685 -0.016196 -170245.000000 0 0 1
12.727816 16.194028 18.367283 27.597118 0.904677 0.842565 0.047929 -0.015588 34468.700000 0 0 1
12.304716 17.040428 17.308983 27.228351 0.945398 0.881885 0.047185 -0.010961 -230959.000000 0 0 1
11.273616 16.401728 16.623483 25.931665 0.968615 0.874931 0.050841 -0.017130 -350109.000000 0 0 1
10.728816 17.061828 15.318483 25.315398 1.009455 0.920898 0.041550 -0.013885 293055.000000 0 0 1
10.046616 18.323628 15.414283 25.967093 1.069269 0.935261 0.036692 -0.011762 314421.000000 0 0 1
9.817116 18.798228 14.101183 25.467479 1.089518 0.984003 0.025820 -0.012811 -494555.000000 0 0 1
8.728616 19.887628 14.128983 25.910126 1.157214 0.994041 0.021144 -0.011086 -134397.000000 0 0 1
7.449216 19.405528 14.503983 25.346220 1.204271 0.961568 0.015929 -0.020201 -418215.000000 0 0 1
6.721216 20.582728 14.663883 26.150581 1.255166 0.975508 0.020595 -0.018063 -967988.000000 0 0 1
5.375116 20.498628 15.341883 26.162167 1.314352 0.944171 0.012319 -0.015079 -732109.000000 0 0 1
4.365216 19.869828 14.610083 25.046351 1.354541 0.947984 0.016262 -0.018029 -83732.300000 0 0 1
3.313516 19.299128 15.389883 24.905506 1.400762 0.904688 0.002976 -0.016221 609170.000000 0 1 0
2.130116 18.777128 14.555983 23.853607 1.457837 0.914456 -0.009761 -0.018106 -125379.000000 0 1 0
1.346016 19.707228 13.851283 24.125601 1.502602 0.959253 -0.004288 -0.022341 91384.100000 0 1 0
0.275816 19.055728 13.186583 23.175047 1.556323 0.965508 -0.004558 -0.024884 122522.000000 0 1 0
-0.587384 20.044228 12.321583 23.535877 -1.541500 1.019815 0.007232 -0.026017 347708.000000 0 1 0
-1.652284 20.682628 13.021983 24.496391 -1.491078 1.010322 0.009014 -0.020856 271852.000000 0 1 0
-2.691584 20.947328 12.067583 24.324098 -1.443004 1.051676 0.017598 -0.022155 316825.000000 0 1 0
-3.850584 21.669228 12.776583 25.448448 -1.394934 1.044820 0.021194 -0.015946 -144205.000000 0 0 1
-4.511884 20.943328 13.783983 25.475052 -1.358606 0.999078 0.018182 -0.018240 10242.400000 0 0 1
-5.520184 21.739228 14.402783 26.655330 -1.322125 0.999962 0.018033 -0.010633 53793.900000 0 0 1
-6.160284 20.902828 15.536683 26.763143 -1.284199 0.951423 0.011798 -0.008736 -293249.000000 0 0 1
-7.189584 20.024928 15.097183 26.088557 -1.226098 0.953675 0.014752 -0.002802 376986.000000 0 0 1
-8.001484 19.392628 16.087983 26.437113 -1.179472 0.916580 0.008366 0.011560 -108516.000000 0 0 1
-9.028784 20.248128 16.830883 27.834946 -1.151351 0.921448 0.008570 0.019961 -363998.000000 0 0 1
-10.223384 20.451128 16.097583 27.962446 -1.107234 0.957354 0.005153 0.007798 -923958.000000 0 0 1
-11.276284 19.772928 16.659383 28.207416 -1.052510 0.938991 0.001231 0.010556 -620470.000000 0 0 1
-12.446284 19.634528 15.626183 28.010753 -1.005824 0.978987 0.001241 0.002328 -15231.000000 0 0 1
-13.066784 20.839428 15.344083 28.990748 -1.010744 1.013050 -0.010948 0.009925 -260440.000000 0 0 1
-13.807384 20.822528 14.163383 28.719731 -0.985268 1.055079 -0.003097 -0.006946 -1251630.000000 0 0 1
-14.822084 21.879228 13.963083 29.889170 -0.975365 1.084718 -0.004682 -0.007404 -1045560.000000 0 0 1
-15.989684 21.550828 14.680883 30.588176 -0.932466 1.070195 -0.006461 -0.008346 -130952.000000 0 0 1
-16.845184 22.696328 14.777483 31.894475 -0.932307 1.089054 0.004642 -0.022361 -462199.000000 0 0 1
-18.006284 22.451828 15.715083 32.791381 -0.894839 1.071003 0.046612 -0.027840 -704149.000000 0 0 1
-18.928784 21.513328 15.147783 32.412613 -0.849219 1.084514 0.038843 -0.022659 1192150.000000 0 0 1
-20.079584 21.205228 15.991283 33.295233 -0.812657 1.069814 0.045594 -0.020112 1635590.000000 0 0 1
-21.201584 22.298428 16.124583 34.738008 -0.810608 1.088091 0.036906 -0.017378 -324287.000000 0 0 1
-21.881984 22.557928 14.926683 34.792056 -0.800607 1.127383 0.039420 -0.018393 189024.000000 0 0 1
-22.861884 23.573128 15.056183 36.125431 -0.800714 1.140902 0.049753 -0.031404 -58295.000000 0 0 1
-22.500384 24.946928 14.424883 36.560822 -0.836916 1.165224 0.036518 -0.022440 199198.000000 0 0 1
-21.305184 25.468628 15.004683 36.437651 -0.874176 1.146378 0.020914 -0.025067 508604.000000 0 0 1
-20.780284 26.531928 14.193383 36.567957 -0.906372 1.172187 0.014234 -0.012467 -7234.550000 0 0 1
-19.325284 26.926128 14.518383 36.183786 -0.948280 1.157926 0.015210 -0.017701 559857.000000 0 0 1
-18.301184 26.131928 13.873683 34.789223 -0.959843 1.160597 0.018434 -0.010865 -76281.500000 0 0 1
-17.068284 26.775828 13.958683 34.685964 -1.003293 1.156626 -0.004275 -0.012685 -732785.000000 0 0 1
-16.090484 26.142428 12.971283 33.325432 -1.019063 1.171000 0.003331 -0.013587 -344519.000000 0 0 1
-14.785684 26.658428 13.014083 33.145959 -1.064402 1.167307 0.005371 -0.008475 -265860.000000 0 0 1
-13.882684 26.009328 12.163383 31.892976 -1.080509 1.179506 0.005707 -0.000705 -193618.000000 0 0 1
-12.472984 26.618328 12.324183 31.874695 -1.132594 1.173806 0.002320 0.003300 -1010860.000000 0 0 1
-11.502884 25.852428 11.645983 30.598910 -1.152155 1.180350 -0.001463 0.003250 1196740.000000 0 0 1
-10.098984 26.171128 11.734083 30.407336 -1.202519 1.174617 0.010937 0.003574 1221630.000000 0 0 1
-9.737584 27.582228 11.346783 31.374342 -1.231417 1.200751 0.005446 0.002745 -615441.000000 0 0 1
-8.370384 27.915628 11.576183 31.358470 -1.279481 1.192695 0.021343 0.000923 719065.000000 0 0 1
-7.973284 29.175828 11.050383 32.201136 -1.304026 1.220509 0.024849 -0.007673 205508.000000 0 0 1
-6.732184 29.874828 11.693183 32.780454 -1.349152 1.206050 0.023883 -0.002982 1181110.000000 0 0 1
-5.496484 29.222028 11.346383 31.825754 -1.384875 1.206260 0.040590 -0.004394 312980.000000 0 0 1
-4.409584 29.798928 12.020383 32.433164 -1.423885 1.191120 0.038175 -0.007175 -79608.900000 0 0 1
-3.059884 29.627928 11.293283 31.854595 -1.467884 1.208389 0.046629 -0.011074 -61865.000000 0 0 1
-2.998984 30.380528 10.098783 32.155183 -1.472401 1.251326 0.051286 -0.017781 -684186.000000 0 0 1
-1.949484 29.952528 9.318983 31.429251 -1.505802 1.269764 0.044081 -0.017693 -492056.000000 0 0 1
-1.825184 30.666828 7.957183 31.734876 -1.511350 1.317352 0.040091 -0.025581 228150.000000 0 0 1
-2.829984 30.360228 6.995083 31.283916 -1.477851 1.345290 0.043442 -0.018735 227341.000000 0 0 1
-2.626984 31.153728 5.831983 31.803582 -1.486672 1.386378 0.035922 -0.017223 179035.000000 0 0 1
10.753416 -34.166797 -26.882051 44.784491 -1.265878 2.214614 0.071637 -0.013265 168039.000000 0 0 1
11.286916 -33.921297 -25.566291 43.950928 -1.249581 2.191614 0.065522 -0.012942 -98319.100000 0 0 1
12.454716 -33.170497 -25.533581 43.673396 -1.211609 2.195243 0.064359 -0.011860 -183144.000000 0 0 1
13.209316 -33.116597 -24.152091 43.064121 -1.191262 2.166197 0.064839 -0.006868 -234730.000000 0 0 1
12.560316 -32.287597 -23.201791 41.696205 -1.199797 2.160902 0.061562 -0.008192 304982.000000 0 0 1
13.164716 -32.240297 -21.911791 41.144539 -1.183129 2.132414 0.037757 -0.003025 456261.000000 0 0 1
14.678416 -31.925097 -21.710591 41.303964 -1.139842 2.124251 0.021301 -0.001561 423465.000000 0 0 1
15.526316 -33.021097 -21.985391 42.600666 -1.131277 2.113065 0.022830 0.008424 301963.000000 0 0 1
16.904316 -32.693797 -21.817691 42.786118 -1.093602 2.105893 0.008564 0.005522 388315.000000 0 0 1
17.754716 -33.991597 -21.850091 44.137117 -1.089447 2.088689 0.004604 0.015527 -778538.000000 0 0 1
19.114616 -33.829497 -21.632791 44.472250 -1.056488 2.078799 0.016138 0.019071 -456266.000000 0 0 1
19.826616 34.062328 -21.786491 45.033188 1.043666 2.075773 0.015828 0.020458 660396.000000 0 0 1
21.374516 34.199428 -21.656691 45.776446 1.012200 2.063599 0.031078 0.023310 399909.000000 0 0 1
22.008416 -34.392697 -22.789891 46.761171 -1.001543 2.079869 0.020561 0.027103 -135132.000000 0 0 1
23.406516 -34.434897 -22.637391 47.392811 -0.973803 2.068779 0.011929 0.025526 141845.000000 0 0 1
24.237816 -33.657697 -23.717291 47.778888 -0.946690 2.090240 0.017850 0.015285 228442.000000 0 0 1
24.285616 -32.240797 -23.503691 46.708496 -0.925214 2.098094 0.017867 0.012583 250399.000000 0 0 1
23.067716 -31.576097 -23.832591 45.794779 -0.939864 2.118141 0.020497 0.009769 233223.000000 0 0 1
23.147316 -30.049297 -23.743391 44.749381 -0.914422 2.130088 0.013156 -0.006330 -431768.000000 0 0 1
23.882916 -29.381597 -24.768291 45.245333 -0.888267 2.150077 0.018465 -0.008227 34130.600000 0 0 1
23.919016 -27.990497 -24.495091 44.222129 -0.863672 2.157850 0.021748 -0.003851 73702.300000 0 0 1
24.311116 -27.169297 -25.724311 44.619964 -0.840861 2.185260 0.015589 -0.006686 -384820.000000 0 0 1
23.300216 -27.030197 -26.651661 44.540348 -0.859373 2.212263 0.008398 -0.010052 -538019.000000 0 0 1
23.920416 -26.529297 -27.859391 45.300503 -0.837065 2.233171 0.002495 -0.005267 710460.000000 0 0 1
22.832916 -26.128597 -28.932071 45.178649 -0.852608 2.265806 -0.000764 -0.008238 691697.000000 0 0 1
22.203316 -24.911897 -28.702661 44.016276 -0.842823 2.281137 0.011966 -0.007784 -298051.000000 0 0 1
21.036716 -24.946797 -27.902991 42.935568 -0.870226 2.278224 -0.000845 -0.007861 -289726.000000 0 0 1
20.396016 -23.594697 -27.682591 41.701715 -0.857983 2.296716 0.003487 -0.005779 -210790.000000 0 0 1
19.890216 -22.952897 -28.849301 41.889597 -0.856763 2.330489 0.010348 -0.007448 253597.000000 0 0 1
19.253816 -21.730297 -28.491871 40.678028 -0.845750 2.346788 -0.000302 0.005312 -518534.000000 0 0 1
18.312116 -21.146097 -29.533891 40.678517 -0.857097 2.383330 0.003210 0.000818 -757687.000000 0 0 1
17.239416 -22.011597 -29.617871 40.729917 -0.906385 2.384997 -0.000618 -0.003623 -87580.000000 0 0 1
16.161816 -21.568897 -30.463281 40.674723 -0.927736 2.417270 0.000503 -0.005891 551120.000000 0 0 1
14.979316 -22.564397 -30.513851 40.799841 -0.984748 2.415676 0.002150 -0.007556 -369299.000000 0 0 1
15.201416 -23.776897 -31.187041 42.060140 -1.001955 2.406080 0.005168 -0.000544 -128349.000000 0 0 1
14.425316 -24.813297 -30.634271 41.979138 -1.044200 2.388752 0.015405 -0.013458 -101778.000000 0 0 1
14.906816 -26.202897 -30.998971 43.240504 -1.053559 2.370137 0.032966 -0.006343 -279327.000000 0 0 1
13.988416 -27.136297 -30.552671 43.191667 -1.094836 2.356573 0.043350 -0.005614 -124631.000000 0 0 1
14.400716 -28.427497 -30.966141 44.434278 -1.101901 2.341859 0.058259 -0.016801 219896.000000 0 0 1
13.570116 -29.507897 -30.215721 44.360498 -1.139756 2.320115 0.074275 -0.027653 73553.500000 0 0 1
13.825616 -29.717897 -28.798221 43.630707 -1.135351 2.291675 0.088897 -0.025410 -56760.900000 0 0 1
13.437416 -28.686497 -27.987241 42.270142 -1.132728 2.294419 0.072517 -0.013919 -821479.000000 0 0 1
14.434016 -28.461697 -26.874551 41.721104 -1.101454 2.270705 0.045857 -0.007687 -632887.000000 0 0 1
14.512516 -29.464897 -25.844441 41.793880 -1.113138 2.237474 0.054342 -0.013861 226843.000000 0 0 1
15.384116 -29.054697 -24.764791 41.159948 -1.083837 2.216389 0.061169 -0.019838 -838335.000000 0 0 1
14.989616 -27.876397 -23.813691 39.609014 -1.077432 2.215822 0.048002 -0.022456 429960.000000 0 0 1
13.907716 -28.145197 -22.923391 38.872336 -1.111846 2.201496 0.044751 -0.019962 111950.000000 0 0 1
12.659816 -28.393497 -23.535791 38.992243 -1.151382 2.218807 0.054294 -0.011900 -1154240.000000 0 0 1
11.542816 -28.352097 -22.480891 37.979843 -1.184164 2.204231 0.041587 -0.003814 -268659.000000 0 0 1
11.345916 -27.010997 -22.041791 36.662846 -1.173128 2.215801 0.026742 -0.007895 -47367.600000 0 0 1
10.030616 -26.874497 -21.539391 35.871956 -1.213570 2.214863 0.027539 -0.011191 -142679.000000 0 0 1
9.758916 -25.380497 -21.318391 34.552566 -1.203719 2.235701 0.031391 -0.010871 -68411.700000 0 0 1
10.380516 -24.799397 -20.175291 33.612610 -1.174377 2.214585 0.019872 -0.010996 37312.500000 0 0 1
10.232116 -23.378297 -20.182291 32.535609 -1.158238 2.239939 0.009586 -0.010531 -144437.000000 0 0 1
10.535016 -22.716897 -18.851691 31.343743 -1.136565 2.216111 0.011208 -0.013104 -139549.000000 0 0 1
9.603216 -23.126997 -17.889191 30.775037 -1.177223 2.191108 0.018565 -0.010057 104227.000000 0 0 1
9.590716 -22.332397 -16.733491 29.508092 -1.165160 2.173754 0.015189 -0.009027 -88807.200000 0 0 1
8.688116 -22.840997 -15.603691 28.994304 -1.207323 2.139054 0.021960 -0.001215 -181914.000000 0 0 1
9.310716 -23.894497 -14.880091 29.648837 -1.199236 2.096565 0.015463 -0.004054 -78942.200000 0 0 1
8.653216 -24.425197 -13.764991 29.341836 -1.230319 2.059096 0.005854 0.000433 -520502.000000 0 0 1
8.773616 -25.922497 -13.706091 30.607337 -1.244443 2.035104 0.014192 -0.009654 -66673.900000 0 0 1
9.987416 -26.375197 -13.154091 31.119601 -1.208815 2.007213 0.027777 -0.010285 -235876.000000 0 0 1
10.018516 -27.797297 -13.238691 32.377821 -1.224875 1.992024 0.024712 -0.014956 210312.000000 0 0 1
11.345216 -28.478897 -12.769291 33.208678 -1.191694 1.965481 0.048094 -0.011575 1485560.000000 0 0 1
12.612216 -28.160497 -13.386091 33.634343 -1.149716 1.980120 0.044717 -0.006471 1056880.000000 0 0 1
12.829416 -28.322197 -14.798391 34.434476 -1.145466 2.015018 0.044131 -0.015486 -361210.000000 0 0 1
14.229516 -27.903197 -15.300791 34.859457 -1.099212 2.025202 0.018902 -0.010225 596735.000000 0 0 1
15.325216 -28.775097 -14.974891 35.876396 -1.081421 2.001381 0.034810 -0.004678 212576.000000 0 0 1
16.475816 -28.221797 -15.573291 36.200134 -1.042376 2.015510 0.044460 -0.007895 11553.700000 0 0 1
17.756416 -29.054297 -15.358391 37.354018 -1.022222 1.994520 0.029588 -0.002156 198351.000000 0 0 1
17.849616 -30.172797 -16.270091 38.648704 -1.036591 2.005315 0.015624 0.005277 -263947.000000 0 0 1
19.189116 -30.478797 -16.570191 39.645308 -1.008904 2.001996 0.020653 0.007899 105587.000000 0 0 1
19.319216 -31.527997 -17.661591 40.977780 -1.021044 2.016402 0.027843 0.001133 -149302.000000 0 0 1
19.211116 -32.843997 -17.075691 41.705807 -1.041539 1.992628 0.017058 0.012290 -38208.700000 0 0 1
19.517316 -33.783597 -18.073891 42.999100 -1.046923 2.004607 0.023161 0.008161 66061.200000 0 0 1
19.545716 33.845028 -17.629791 42.875756 1.047081 1.994548 0.006910 0.012879 39812.000000 0 0 1
20.509416 33.472428 -16.665391 42.647096 1.021072 1.972269 0.018839 0.004477 76312.900000 0 0 1
20.226816 32.231228 -16.119791 41.325825 1.010363 1.971499 0.019589 -0.001914 -402181.000000 0 0 1
21.237416 31.903828 -15.017691 41.163249 0.983484 1.944249 0.008739 -0.008458 -579993.000000 0 0 1
22.572216 31.659928 -15.401991 41.821971 0.951426 1.947949 0.015178 -0.003822 219790.000000 0 0 1
23.370816 31.291628 -14.265191 41.579522 0.929301 1.920993 0.026442 -0.003212 87039.500000 0 0 1
23.059416 29.923028 -13.542491 40.131326 0.914226 1.915008 0.024547 -0.002664 -868421.000000 0 0 1
23.321816 28.697628 -14.302191 39.648627 0.888375 1.939840 0.027174 -0.002153 149501.000000 0 0 1
22.991316 27.532328 -13.495691 38.324448 0.875036 1.930656 0.008465 0.001332 508254.000000 0 0 1
21.517016 27.253628 -13.057791 37.097818 0.902484 1.930485 0.007256 -0.001103 425333.000000 0 0 1
20.623416 26.897528 -14.103891 36.711334 0.916667 1.965120 0.010126 -0.009984 432224.000000 0 0 1
19.269516 27.316328 -13.989091 36.237973 0.956441 1.967125 0.011505 -0.011797 342945.000000 0 0 1
18.968616 28.777428 -14.374991 37.344198 0.988016 1.965931 0.013429 -0.011354 -464429.000000 0 0 1
18.805116 29.108428 -15.740291 38.061657 0.997212 1.997143 0.015324 -0.012146 594122.000000 0 0 1
17.744216 28.402028 -16.434491 37.304489 1.012376 2.027008 0.010050 -0.000138 85301.600000 0 0 1
17.551916 29.042328 -17.833891 38.335026 1.027180 2.054670 0.010844 -0.005827 243187.000000 0 0 1
16.733816 30.213528 -17.878491 38.891108 1.065001 2.048461 0.011327 -0.003236 359751.000000 0 0 1
17.240916 31.042928 -18.918791 40.234726 1.063825 2.060326 0.000601 0.003171 232336.000000 0 0 1
16.164816 32.062928 -19.410291 40.817790 1.103827 2.066369 -0.006877 0.003473 338410.000000 0 0 1
15.984616 33.173928 -18.550591 41.232776 1.121780 2.037449 0.001393 0.004186 617897.000000 0 0 1
15.079616 34.174428 -19.108391 41.957323 1.155239 2.043645 0.003846 0.007450 529970.000000 0 0 1
15.097016 -33.744997 -18.154991 41.185536 -1.150119 2.027297 0.004559 0.005439 -299024.000000 0 0 1
14.274516 -32.679797 -18.504191 40.176311 -1.158974 2.049439 -0.004568 0.007694 -306740.000000 0 0 1
14.263116 -31.677497 -17.484691 38.892347 -1.147726 2.037076 0.011940 -0.002992 -130984.000000 0 0 1
13.181916 -30.623997 -17.742091 37.767365 -1.164324 2.059830 0.033046 -0.012375 438148.000000 0 0 1
11.854316 -31.144997 -17.721591 37.743747 -1.207110 2.059548 0.024518 -0.008161 710839.000000 0 0 1
10.859516 -30.144197 -18.002791 36.751900 -1.225017 2.082710 0.014918 -0.009113 849981.000000 0 0 1
9.428016 -30.690897 -18.243291 36.927446 -1.272754 2.087516 0.036627 -0.016257 -417238.000000 0 0 1
8.783816 -31.166097 -17.051691 36.595644 -1.296083 2.055503 0.034422 -0.022131 280034.000000 0 0 1
8.036816 -32.349397 -17.412691 37.606857 -1.327288 2.052195 0.059281 -0.015371 201558.000000 0 0 1
6.585516 -32.127097 -17.875491 37.350402 -1.368614 2.069843 0.045376 -0.006818 -454136.000000 0 0 1
6.539716 -31.571797 -19.167991 37.509440 -1.366547 2.107165 0.038110 -0.002045 -41902.700000 0 0 1
6.178416 -32.494797 -20.219991 38.767676 -1.382904 2.119484 0.036176 -0.004274 -957203.000000 0 0 1
6.360316 -31.897297 -21.647691 39.070624 -1.373978 2.158036 0.022404 0.016512 528655.000000 0 0 1
7.693316 -31.459097 -21.973691 39.137003 -1.330954 2.166940 0.037472 0.008856 677002.000000 0 0 1
8.756616 -32.366897 -21.960191 40.081720 -1.306579 2.150631 0.035858 -0.000426 -649198.000000 0 0 1
8.794216 -33.521997 -22.978291 41.582020 -1.314236 2.156279 0.038581 -0.003435 -674904.000000 0 0 1
7.785116 -34.466497 -22.763091 42.032199 -1.348649 2.143092 0.042111 -0.008466 -357816.000000 0 0 1
7.548616 33.792628 -23.884591 42.064201 1.351024 2.174643 0.039354 -0.018680 -196922.000000 0 0 1
6.324316 32.801828 -23.803691 41.019173 1.380330 2.189901 0.044230 -0.026203 907998.000000 0 0 1
5.044016 33.421328 -23.803991 41.340745 1.421005 2.184378 0.041704 -0.021708 303779.000000 0 0 1
4.737916 34.037928 -22.556491 41.107465 1.432490 2.151629 0.019293 -0.019605 -566785.000000 0 0 1
3.334916 -34.410497 -22.691391 41.353394 -1.474182 2.151627 0.003942 -0.008041 352606.000000 0 0 1
2.173016 33.920228 -22.596691 40.815613 1.506821 2.157512 0.005031 -0.020673 457143.000000 0 0 1
1.058716 -34.443597 -23.076291 41.472852 -1.540068 2.160866 0.004817 -0.008833 382100.000000 0 0 1
-0.371484 34.180628 -22.765091 41.069486 -1.559928 2.158326 0.001374 -0.015694 196024.000000 0 0 1
-0.629484 34.346228 -21.355691 40.449044 -1.552471 2.126999 -0.008737 -0.009089 -227290.000000 0 0 1
-1.578284 33.444928 -20.838991 39.437517 -1.523641 2.127517 -0.003156 -0.004185 -129710.000000 0 0 1
-1.754384 33.499828 -19.358691 38.730805 -1.518474 2.094195 -0.003736 -0.002253 -762222.000000 0 0 1
-0.802384 32.930028 -18.584291 37.820714 -1.546435 2.084468 0.001235 -0.007861 -743219.000000 0 0 1
-1.385184 32.598028 -17.326891 36.942811 -1.528329 2.058976 -0.013398 -0.006048 314485.000000 0 0 1
-0.372684 31.817528 -16.445391 35.818219 -1.559084 2.047817 -0.031193 -0.004691 587236.000000 0 0 1
0.531916 32.611128 -15.703391 36.198965 1.554487 2.019511 -0.006736 0.000662 220084.000000 0 0 1
1.601216 31.845628 -15.142691 35.298852 1.520558 2.014166 0.001946 0.012778 169282.000000 0 0 1
2.483816 32.601428 -14.189691 35.642247 1.494756 1.980257 0.018482 0.004132 -462899.000000 0 0 1
3.459116 33.415728 -14.811991 36.714730 1.467646 1.986064 0.020606 -0.000839 -131048.000000 0 0 1
4.356316 33.877728 -13.836991 36.852954 1.442909 1.955695 0.024347 -0.009248 -807699.000000 0 0 1
5.787716 34.069828 -14.292191 37.396758 1.402525 1.962948 0.043923 -0.022676 -770290.000000 0 0 1
6.416316 32.864928 -14.564891 36.515868 1.377989 1.981075 0.036735 -0.012912 -298531.000000 0 0 1
7.600516 33.084828 -15.326291 37.246058 1.344986 1.994882 0.042096 -0.003676 139206.000000 0 0 1
8.439216 31.836028 -15.501791 36.401354 1.311672 2.010706 0.035133 -0.006222 -245700.000000 0 0 1
9.121516 31.521928 -14.310491 35.799778 1.289120 1.982026 0.029583 -0.010360 -459230.000000 0 0 1
9.904416 30.349528 -14.352791 35.002770 1.255348 1.993302 0.025163 -0.004761 -10761.700000 0 0 1
9.205816 29.022828 -14.077191 33.544580 1.263642 2.003863 0.020112 0.001818 -6321.690000 0 0 1
8.708316 28.295028 -15.234191 33.294503 1.272228 2.046044 0.031607 -0.002035 36097.600000 0 0 1
8.044816 27.122228 -14.890691 31.969782 1.282449 2.055305 0.017006 0.001576 -262121.000000 0 0 1
7.248516 26.478128 -16.033591 31.791638 1.303588 2.099406 0.016892 0.011993 239366.000000 0 0 1
8.071116 25.811628 -17.016191 31.952055 1.267736 2.132411 0.024260 0.009105 -36054.900000 0 0 1
7.349116 24.925828 -17.805591 31.501515 1.284081 2.171508 0.015157 0.012340 82644.100000 0 0 1
8.320316 23.944928 -18.487191 31.374567 1.236371 2.200916 0.019231 0.016001 62567.900000 0 0 1
7.664816 23.181228 -19.478191 31.233294 1.251465 2.244181 0.025901 0.004365 -158528.000000 0 0 1
8.560516 22.215328 -19.967291 31.072430 1.202989 2.268689 0.016645 0.005191 -418459.000000 0 0 1
7.960816 21.247628 -21.032291 30.938545 1.212316 2.318298 0.017423 -0.004230 -226633.000000 0 0 1
7.217916 20.208428 -20.491091 29.670923 1.227745 2.333131 0.014347 -0.005069 -306307.000000 0 0 1
6.428116 19.535828 -21.421991 29.696312 1.252913 2.376573 0.010617 -0.005997 -149640.000000 0 0 1
24.390316 -12.674672 -9.409191 29.052843 -0.479252 1.900608 0.026655 -0.009458 -121912.000000 0 0 1
25.004516 -12.362472 -8.223491 29.080618 -0.459165 1.857490 0.033198 -0.016688 259753.000000 0 0 1
23.962316 -12.263272 -7.278391 27.884680 -0.473022 1.834872 0.023703 -0.008943 -169678.000000 0 0 1
24.477516 -11.810272 -5.855491 27.801404 -0.449546 1.783004 0.012516 -0.005466 -234551.000000 0 0 1
24.671216 -10.412872 -5.533991 27.344503 -0.399383 1.774584 0.023626 -0.009795 545658.000000 0 0 1
25.773316 -9.787772 -6.191791 28.256018 -0.362941 1.791721 0.021934 -0.017103 -444408.000000 0 0 1
25.966016 -8.293572 -5.779491 27.864311 -0.309160 1.779729 0.039376 -0.016646 -323595.000000 0 0 1
26.584716 -8.053072 -4.547191 28.147398 -0.294135 1.733057 0.047209 -0.019206 46777.800000 0 0 1
27.981816 -8.195972 -4.538191 29.508493 -0.284934 1.725202 0.040711 -0.014001 -643153.000000 0 0 1
28.677216 -7.976772 -3.202091 29.937685 -0.271299 1.677960 0.050876 -0.008791 -362144.000000 0 0 1
29.009916 -6.616172 -3.090991 29.914932 -0.224231 1.674307 0.058167 -0.012173 -74731.000000 0 0 1
29.849516 -6.504572 -1.996591 30.615183 -0.214558 1.636058 0.047610 -0.006765 -478234.000000 0 0 1
29.957916 -5.075772 -1.413991 30.417751 -0.167836 1.617299 0.051737 -0.015392 -79998.300000 0 0 1
28.694116 -4.644872 -0.960291 29.083488 -0.160483 1.603821 0.071646 -0.012689 71972.400000 0 0 1
28.798316 -3.375372 -0.351791 28.997584 -0.116675 1.582928 0.065624 -0.018248 86352.500000 0 0 1
29.533816 -3.251872 1.029609 29.730137 -0.109665 1.536158 0.056794 -0.021606 -450233.000000 0 0 1
28.731716 -3.603072 2.120509 29.034293 -0.124753 1.497697 0.064695 -0.028396 53245.900000 0 0 1
29.281216 -3.329172 3.384109 29.663533 -0.113210 1.456464 0.055724 -0.027254 -428191.000000 0 0 1
28.744216 -4.081872 4.594309 29.393865 -0.141064 1.413851 0.064561 -0.031944 -350156.000000 0 0 1
29.179816 -5.410172 4.605309 30.032324 -0.183326 1.416844 0.064180 -0.034019 173920.000000 0 0 1
29.248016 -5.911572 5.921209 30.421273 -0.199432 1.374905 0.058437 -0.028541 -255980.000000 0 0 1
29.944616 -7.283672 6.016409 31.399508 -0.238604 1.377996 0.049993 -0.029890 105661.000000 0 0 1
31.363416 -7.131172 5.995109 32.717867 -0.223571 1.386519 0.052838 -0.029633 509152.000000 0 0 1
31.957116 -8.424272 5.955109 33.581080 -0.257748 1.392518 0.048874 -0.029088 403973.000000 0 0 1
33.512316 -8.486172 5.868309 35.064619 -0.248012 1.402648 0.036081 -0.027110 348044.000000 0 0 1
33.980616 -8.050372 4.596609 35.222430 -0.232622 1.439921 0.034340 -0.023568 179385.000000 0 0 1
35.343216 -7.666872 4.720209 36.471965 -0.213617 1.441012 0.032883 -0.018018 320453.000000 0 0 1
-34.748960 -7.270172 3.401609 35.663940 0.206245 1.475272 0.027365 -0.013968 -350252.000000 0 0 1
-34.453460 -8.457372 2.729909 35.581182 0.240713 1.493997 0.032608 -0.015779 631288.000000 0 0 1
-33.469160 -8.206872 1.701609 34.502651 0.240463 1.521458 0.047804 -0.022169 86891.400000 0 0 1
-33.302360 -9.493372 0.851809 34.639528 0.277700 1.546203 0.053947 -0.017465 -408291.000000 0 0 1
-32.623360 -10.506972 1.507809 34.306757 0.311579 1.526831 0.042005 -0.014433 118348.000000 0 0 1
-32.784160 -11.787172 0.867009 34.849538 0.345147 1.545915 0.041384 -0.008569 -555615.000000 0 0 1
-32.482560 -13.020672 1.791409 35.040887 0.381240 1.519651 0.028892 -0.016160 559902.000000 0 0 1
-31.150060 -13.232272 2.215009 33.916450 0.401694 1.505442 0.021738 -0.011908 417963.000000 0 0 1
-30.219160 -13.820272 1.322709 33.255784 0.428937 1.531012 0.019463 -0.002941 -430551.000000 0 0 1
-28.892160 -14.212672 1.968509 32.258828 0.457164 1.509736 0.016853 -0.006034 -527130.000000 0 0 1
-28.252160 -13.037172 2.431209 31.209986 0.432341 1.492819 0.014157 -0.006910 466877.000000 0 0 1
-27.055760 -13.398872 3.122709 30.352846 0.459826 1.467734 0.022515 -0.005695 3453.640000 0 0 1
-26.279860 -12.210172 3.715109 29.215089 0.434946 1.443287 0.024104 0.000058 -723808.000000 0 0 1
-25.134960 -12.761272 4.307409 28.516137 0.469797 1.419164 0.023751 0.001242 31047.000000 0 0 1
-24.199660 -11.780672 4.713209 27.324387 0.453041 1.397438 0.023835 0.006321 709361.000000 0 0 1
-22.831060 -12.338272 5.245009 26.476412 0.495455 1.371376 0.015554 0.013570 749361.000000 0 0 1
-22.901060 -12.906672 6.564009 27.094778 0.513213 1.326101 0.014312 0.011449 481591.000000 0 0 1
-21.614060 -13.353072 7.007709 26.354888 0.553402 1.301661 0.007255 0.016455 518459.000000 0 0 1
-21.120760 -12.768772 8.380009 26.064394 0.543766 1.243471 0.005403 0.012011 -221911.000000 0 0 1
-20.850260 -11.379372 8.459809 25.214913 0.499587 1.228652 0.004663 0.013333 677869.000000 0 0 1
-21.942460 -10.559372 8.905409 25.928328 0.448519 1.220195 0.016529 0.014317 -173014.000000 0 0 1
-22.161660 -10.553572 10.456409 26.680584 0.444434 1.168089 0.029587 0.016173 -407506.000000 0 0 1
-22.786760 -11.701672 10.997409 27.876667 0.474412 1.165270 0.018893 0.004417 1022140.000000 0 0 1
-24.218660 -11.707772 10.842809 29.003137 0.450295 1.187640 0.021612 0.002717 788738.000000 0 0 1
-25.082560 -11.176572 12.008609 29.970941 0.419182 1.158543 0.021312 -0.002259 -315155.000000 0 0 1
-25.022760 -12.058772 13.112509 30.716289 0.449073 1.129744 0.021238 -0.001354 599729.000000 0 0 1
-26.156860 -11.923072 13.984409 31.967244 0.427691 1.118024 0.011050 -0.002304 358006.000000 0 0 1
-26.165560 -12.864672 15.177009 32.870624 0.456957 1.090864 0.012258 -0.009548 -275693.000000 0 0 1
-26.466160 -14.246872 14.872909 33.535570 0.493820 1.111300 0.006541 -0.004820 303453.000000 0 0 1
-26.333160 -15.041172 16.026209 34.300314 0.518964 1.084639 0.002840 -0.000489 -341309.000000 0 0 1
-26.272460 -16.595772 15.805709 34.863767 0.563388 1.100269 0.003966 -0.009352 -1106530.000000 0 0 1
-27.484460 -17.217472 15.974609 36.152801 0.559637 1.113121 -0.005510 -0.000569 -999280.000000 0 0 1
-27.228560 -18.569072 15.884809 36.585955 0.598523 1.121671 -0.005206 0.006074 164943.000000 0 0 1
-28.273760 -19.429872 16.626709 38.123128 0.602087 1.119501 -0.011176 0.007949 -35199.600000 0 0 1
-28.200860 -19.157272 18.036609 38.569533 0.596708 1.084179 0.000877 0.006744 -187257.000000 0 0 1
-28.554560 -20.266072 18.813709 39.749619 0.617227 1.077757 0.006688 0.002922 140322.000000 0 0 1
-27.516160 -21.448772 18.771809 39.617796 0.662114 1.077170 0.004971 0.004400 35593.100000 0 0 1
-26.251660 -21.139472 19.289709 38.834519 0.677941 1.050986 0.016739 0.008790 -279556.000000 0 0 1
-25.582460 -22.286072 19.750009 39.258046 0.716643 1.043635 0.025839 0.004560 490387.000000 0 0 1
-24.197160 -21.955972 20.421109 38.530364 0.736876 1.012195 0.035935 0.004722 202795.000000 0 0 1
-23.231760 -21.614472 19.492809 37.240700 0.749351 1.019928 0.041007 -0.001760 -1259020.000000 0 0 1
-22.004760 -21.456072 20.114209 36.730831 0.772774 0.991290 0.049543 0.001067 -1136690.000000 0 0 1
-20.871960 -21.361872 19.112809 35.457972 0.796998 1.001515 0.050954 -0.007702 -810793.000000 0 0 1
-20.627860 -22.508672 18.344609 35.618445 0.828972 1.029752 0.046359 -0.005496 -137307.000000 0 0 1
-19.494960 -22.254672 17.568409 34.408907 0.851404 1.034940 0.044212 -0.007414 -241861.000000 0 0 1
-19.244660 -23.274072 16.388909 34.360380 0.879884 1.073591 0.035766 -0.001102 -308588.000000 0 0 1
-19.132760 -24.689072 16.614409 35.378686 0.911518 1.081940 0.043052 -0.007337 751045.000000 0 0 1
-17.963060 -25.085662 17.353009 35.398996 0.949367 1.058463 0.046563 -0.010827 -279299.000000 0 0 1
-16.666960 -25.259702 16.621509 34.527014 0.987546 1.068538 0.046586 -0.009232 -992379.000000 0 0 1
-16.068260 -23.986172 16.467909 33.237290 0.980561 1.052426 0.040230 -0.011076 -346935.000000 0 0 1
-14.897960 -24.124472 15.685609 32.403360 1.017575 1.065492 0.032694 -0.007853 -418479.000000 0 0 1
-14.131060 -22.814672 15.496809 30.989470 1.016245 1.047120 0.032154 -0.004769 -594880.000000 0 0 1
-14.724160 -21.718572 14.839609 30.144838 0.975021 1.056093 0.025899 -0.003285 -419831.000000 0 0 1
-15.827560 -21.098972 15.437909 30.561534 0.927194 1.041250 0.033126 -0.005711 -294464.000000 0 0 1
-15.431260 -19.910572 16.341309 30.026539 0.911468 0.995327 0.037534 -0.006314 -340739.000000 0 0 1
-14.843960 -18.835372 15.682309 28.653957 0.903360 0.991662 0.026573 -0.002178 -88269.600000 0 0 1
-14.771160 -17.732372 16.556609 28.403266 0.876252 0.948488 0.019092 -0.003507 -123069.000000 0 0 1
-13.976060 -16.495672 15.959909 26.872963 0.867897 0.934896 0.019159 -0.001992 443774.000000 0 0 1
-14.627160 -15.752872 14.892009 26.151075 0.822436 0.964947 0.010271 -0.001223 263734.000000 0 0 1
-14.950360 -16.458372 13.688209 26.110503 0.833374 1.018972 0.009535 -0.003190 250262.000000 0 0 1
-15.959960 -15.771072 12.713009 25.788906 0.779445 1.055303 0.005100 -0.000665 1426170.000000 0 0 1
-17.356560 -15.808172 13.109009 26.888559 0.738744 1.061537 0.003597 -0.002402 935191.000000 0 0 1
-18.020860 -14.758272 12.440109 26.406710 0.686192 1.080263 0.004208 0.000575 1061580.000000 0 0 1
-19.602760 -14.929172 12.601809 27.675874 0.650875 1.098047 0.001786 0.000549 1484230.000000 0 0 1
-20.162360 -16.034472 11.899809 28.376584 0.671849 1.138064 0.012072 -0.002145 -40211.200000 0 0 1
-20.288560 -15.904572 10.538009 27.850148 0.664858 1.182748 0.007995 0.008000 -678361.000000 0 0 1
-20.966160 -17.065172 9.812309 28.759023 0.683183 1.222613 0.005402 0.012107 -155603.000000 0 0 1
-20.352360 -18.331472 9.857409 29.110650 0.733204 1.225348 0.009010 0.014183 -425412.000000 0 0 1
-21.118060 -19.275672 9.170809 30.027117 0.739819 1.260419 0.007356 -0.000855 -119227.000000 0 0 1
-20.518660 -20.676672 9.154409 30.534299 0.789234 1.266306 0.014870 -0.000919 400865.000000 0 0 1
-19.299560 -20.885472 8.442509 29.663984 0.824843 1.282202 0.024478 -0.000199 12099.500000 0 0 1
-19.036560 -22.276672 8.522409 30.516753 0.863666 1.287763 0.025588 -0.011634 -739600.000000 0 0 1
-17.772460 -22.686072 7.819309 29.860673 0.906254 1.305848 0.022225 -0.008102 -1148990.000000 0 0 1
-16.627660 -22.199672 8.439809 28.991980 0.927932 1.275411 0.002101 -0.007090 -374781.000000 0 0 1
-15.436660 -22.457672 7.691109 28.315909 0.968599 1.295723 0.004664 0.004189 159806.000000 0 0 1
-14.187060 -21.923472 8.398709 27.430815 0.996450 1.259621 -0.034767 0.009634 -515630.000000 0 0 1
-13.038160 -22.154472 7.625509 26.813479 1.038867 1.282425 -0.010300 0.010795 -363954.000000 0 0 1
-11.895360 -22.154272 8.468109 26.533380 1.078041 1.245965 0.004323 0.006572 1277080.000000 0 0 1
-10.561960 -22.660672 7.773509 26.181836 1.134641 1.269347 0.011594 0.008123 997767.000000 0 0 1
-10.595260 -24.034972 7.617809 27.349048 1.155597 1.288523 0.010945 0.012670 205101.000000 0 0 1
-9.328160 -24.513272 7.171809 27.190990 1.207182 1.303881 0.016634 0.012962 408402.000000 0 0 1
-9.325460 -26.037222 7.084409 28.549781 1.226872 1.320034 0.009592 0.003024 -378440.000000 0 0 1
-10.102160 -26.622532 6.066609 29.113856 1.208122 1.360883 0.006735 0.002480 -171450.000000 0 0 1
-9.976660 -28.022122 6.031809 30.350549 1.228761 1.370726 0.016492 0.006676 -636274.000000 0 0 1
-8.717760 -28.612362 5.396909 30.393967 1.275047 1.392285 0.008977 0.001457 -965865.000000 0 0 1
-7.706360 -28.337712 6.333009 30.041986 1.305271 1.358398 0.013868 -0.000902 -1254010.000000 0 0 1
-6.476460 -28.938432 6.037809 30.262725 1.350623 1.369935 0.020395 0.003278 -69100.400000 0 0 1
-6.422260 -30.449712 6.472109 31.785509 1.362929 1.365744 0.025828 -0.004614 -529851.000000 0 0 1
-6.448360 -30.513302 7.899209 32.172045 1.362531 1.322730 0.029187 -0.004742 42529.800000 0 0 1
-6.423660 -31.850822 8.315709 33.539370 1.371786 1.320244 0.057325 -0.004318 125181.000000 0 0 1
-6.826460 -31.916282 9.836709 34.088275 1.360085 1.278068 0.055405 -0.008289 -49701.400000 0 0 1
-5.838260 -31.330732 10.662509 33.606386 1.386566 1.247940 0.038794 -0.000049 132727.000000 0 0 1
-5.849260 -31.713992 12.025309 34.418007 1.388408 1.213876 0.034087 0.003961 83788.500000 0 0 1
-4.910260 -30.850952 12.904409 33.799640 1.412959 1.179063 0.037044 -0.002825 356414.000000 0 0 1
-5.475260 -29.559042 12.819409 32.681076 1.387641 1.167711 0.029689 0.004515 132304.000000 0 0 1
-4.953260 -28.708712 13.829709 32.248811 1.399943 1.127584 0.025724 -0.002775 140034.000000 0 0 1
-5.903560 -28.450142 15.065909 32.729868 1.366194 1.092451 0.028185 0.001976 69207.000000 0 0 1
-6.310860 -29.511442 15.940309 34.129835 1.360125 1.084846 0.013279 -0.009579 598039.000000 0 0 1
-5.202260 -30.165862 16.585909 34.815731 1.400021 1.074251 0.008014 -0.011764 704546.000000 0 0 1
-5.648260 -31.485412 17.230009 36.333280 1.393291 1.076717 0.010412 -0.008284 183503.000000 0 0 1
-6.325060 -32.297982 16.266609 36.711968 1.377409 1.111757 0.010182 -0.003397 212757.000000 0 0 1
-6.435660 -33.698222 16.607009 38.115360 1.382089 1.119976 0.011150 -0.004086 131639.000000 0 0 1
-5.500260 34.494729 15.774609 38.327242 -1.412675 1.146613 0.017809 -0.006996 230339.000000 0 0 1
-6.079660 34.117292 14.517909 37.572883 -1.394449 1.174078 0.022676 -0.007194 258910.000000 0 0 1
-5.386260 33.093432 13.843709 36.274445 -1.409452 1.179228 0.031316 -0.008577 -734737.000000 0 0 1
-4.177260 33.431458 13.007009 36.115013 -1.446491 1.202362 0.040356 -0.009302 -598469.000000 0 0 1
-4.468260 34.101739 11.826109 36.369642 -1.440511 1.239611 0.031809 -0.008203 431817.000000 0 0 1
-3.290260 34.234511 11.019609 36.114531 -1.474981 1.260722 0.040338 -0.012592 -152895.000000 0 0 1
-3.545260 -34.424961 9.549209 35.900337 1.468173 1.301563 0.032465 -0.012070 -390637.000000 0 0 1
-3.768260 33.763763 8.477309 35.015086 -1.459650 1.326262 0.036611 -0.026995 1002970.000000 0 0 1
-4.826260 32.781482 8.641209 34.243085 -1.424621 1.315689 0.043068 -0.023634 750019.000000 0 0 1
-6.285060 33.046822 9.049309 34.835103 -1.382854 1.308007 0.053655 -0.016224 -66386.100000 0 0 1
-7.133360 33.581192 8.062809 35.264574 -1.361486 1.340118 0.059662 -0.021336 -1115570.000000 0 0 1
-8.402160 33.791157 8.582109 35.862114 -1.327089 1.329143 0.047377 -0.014030 -721306.000000 0 0 1
-9.361660 34.258203 7.464209 36.290213 -1.304041 1.363637 0.059822 -0.016083 -243507.000000 0 0 1
-9.203660 -33.525242 7.005909 35.464517 1.302868 1.371941 0.068101 -0.022382 -86111.700000 0 0 1
-9.627460 -33.493092 5.717109 35.315160 1.290896 1.408192 0.048199 -0.015006 -628731.000000 0 0 1
-9.809060 -32.018722 5.338509 33.910410 1.273521 1.412709 0.031944 -0.013503 942300.000000 0 0 1
-10.961060 -31.290692 5.817409 33.661469 1.233856 1.397103 0.047045 -0.013680 1266650.000000 0 0 1
-12.258660 -31.551042 5.283009 34.258622 1.200213 1.415969 0.057116 -0.011692 250994.000000 0 0 1
-13.340660 -30.621012 5.814709 33.903251 1.159923 1.398435 0.039646 -0.013492 -344972.000000 0 0 1
-13.838860 -31.012812 7.119009 34.698543 1.151082 1.364162 0.053486 -0.014503 125280.000000 0 0 1
-14.666060 -30.003892 7.673909 34.266832 1.116145 1.344935 0.043131 -0.013739 59144.900000 0 0 1
32.121162 -12.674872 -12.867791 36.851072 -0.375839 1.927496 0.028338 -0.009807 -34611.500000 0 0 1
31.147832 -12.799972 -11.824691 35.691036 -0.389904 1.908485 0.031192 -0.015067 508565.000000 0 0 1
30.841862 -14.122772 -11.298591 35.753759 -0.429412 1.892319 0.027342 -0.011619 442.358000 0 0 1
31.874662 -14.718572 -10.304191 36.589709 -0.432594 1.856273 0.034051 -0.011387 -256099.000000 0 0 1
33.118352 -15.033472 -10.850591 37.954787 -0.426119 1.860723 0.042180 -0.017309 -691737.000000 0 0 1
33.979072 -15.705972 -9.956991 38.734953 -0.432973 1.830769 0.036589 -0.016983 212736.000000 0 0 1
35.378680 -15.817772 -10.617391 40.181861 -0.420439 1.838205 0.017064 -0.024623 -266220.000000 0 0 1
-34.789479 -14.594872 -10.765491 39.232817 0.397220 1.848762 0.026371 -0.019269 -759166.000000 0 0 1
-33.460064 -14.775972 -11.153691 38.240163 0.415847 1.866774 0.039403 -0.020495 -371402.000000 0 0 1
-32.757004 -13.471972 -11.565491 37.259575 0.390184 1.886413 0.043613 -0.019958 -176544.000000 0 0 1
-32.502034 -12.646972 -10.416391 36.398205 0.371086 1.861033 0.060577 -0.014118 145746.000000 0 0 1
-31.791424 -11.491172 -10.750591 35.472763 0.346843 1.878705 0.060692 -0.009299 -162963.000000 0 0 1
-32.128794 -10.353372 -9.796491 35.148584 0.311739 1.853254 0.068286 -0.015599 -22107.000000 0 0 1
-31.542174 -10.441772 -8.519291 34.300403 0.319687 1.821796 0.067236 -0.007290 82633.700000 0 0 1
-32.199004 -9.553972 -7.628491 34.441953 0.288442 1.794137 0.072931 -0.012466 -71778.100000 0 0 1
-31.534604 -9.326072 -6.239591 33.471471 0.287545 1.758308 0.059370 -0.004447 -1126850.000000 0 0 1
-30.358354 -8.582272 -6.235991 32.158555 0.275510 1.765947 0.057577 -0.015705 27009.800000 0 0 1
-29.761104 -8.401272 -4.918391 31.312861 0.275131 1.728522 0.058414 -0.011640 -126609.000000 0 0 1
-28.898414 -9.616072 -4.479591 30.783988 0.321229 1.716832 0.061207 -0.011060 -939106.000000 0 0 1
-29.609314 -10.760672 -4.070291 31.765875 0.348582 1.699284 0.079806 -0.009607 313886.000000 0 0 1
-30.121654 -10.657072 -2.739691 32.068569 0.340057 1.656333 0.042918 -0.010723 98291.200000 0 0 1
-30.794574 -12.014472 -2.223691 33.130019 0.371985 1.637967 0.048027 -0.005544 -404191.000000 0 0 1
-32.053054 -12.319572 -2.745391 34.448618 0.366942 1.650576 0.055208 -0.013522 -101383.000000 0 0 1
-32.532864 -13.621372 -2.310991 35.345010 0.396519 1.636227 0.052437 -0.023326 125830.000000 0 0 1
-34.063884 -13.800472 -2.430391 36.833518 0.384925 1.636827 0.033268 -0.012010 239689.000000 0 0 1
-34.745666 -13.001072 -1.453391 37.126830 0.358050 1.609953 0.044450 -0.010382 442046.000000 0 0 1
34.636932 -13.247972 -1.377891 37.109627 -0.365313 1.607935 0.071107 -0.008777 202531.000000 0 0 1
33.992092 -12.234272 -0.396391 36.128892 -0.345481 1.581768 0.065336 -0.017573 -194476.000000 0 0 1
34.535782 -12.345972 0.924009 36.687833 -0.343326 1.545608 0.060395 -0.013713 296378.000000 0 0 1
34.299112 -11.238372 1.802009 36.138308 -0.316634 1.520911 0.047793 -0.015763 -269376.000000 0 0 1
34.724987 -11.427972 3.271209 36.703189 -0.317935 1.481552 0.045505 -0.021488 475434.000000 0 0 1
33.796562 -12.224272 4.047709 36.166620 -0.347061 1.458643 0.049603 -0.027446 284527.000000 0 0 1
34.239222 -12.341972 5.373409 36.790245 -0.345965 1.424217 0.039324 -0.024246 -686765.000000 0 0 1
33.224252 -12.627672 6.498109 36.132180 -0.363212 1.389970 0.046208 -0.017903 -121598.000000 0 0 1
32.394682 -11.574672 6.902809 35.086140 -0.343165 1.372766 0.051217 -0.024806 -90859.100000 0 0 1
32.218082 -11.581172 8.257609 35.218127 -0.345079 1.334123 0.041673 -0.013261 -314813.000000 0 0 1
31.546262 -10.283972 8.732009 34.309980 -0.315133 1.313462 0.041958 -0.027910 -795588.000000 0 0 1
30.172972 -10.139872 8.579609 32.967180 -0.324201 1.307518 0.035226 -0.027308 -682240.000000 0 0 1
29.673182 -9.056172 9.327509 32.396210 -0.296218 1.278742 0.042552 -0.019642 -444999.000000 0 0 1
28.155482 -8.919972 9.165009 30.924011 -0.306808 1.269905 0.027281 -0.023527 -285801.000000 0 0 1
27.650052 -8.374672 7.945209 29.963092 -0.294098 1.302420 0.039737 -0.031368 48703.900000 0 0 1
26.995032 -9.355172 7.183409 29.459334 -0.333599 1.324471 0.036111 -0.038164 -447447.000000 0 0 1
26.019492 -8.705072 6.149809 28.117831 -0.322854 1.350298 0.049184 -0.039148 -380482.000000 0 0 1
24.877192 -8.258572 6.836209 27.088973 -0.320526 1.315677 0.058107 -0.035152 -476250.000000 0 0 1
23.806592 -7.808172 6.088609 25.783571 -0.316928 1.332402 0.050248 -0.033007 -777214.000000 0 0 1
23.906392 -6.526472 5.231909 25.327521 -0.266507 1.362728 0.046652 -0.029625 -1651020.000000 0 0 1
24.606692 -6.678172 4.043709 25.815477 -0.265013 1.413510 0.036945 -0.029513 273357.000000 0 0 1
25.030592 -5.413672 3.531909 25.851746 -0.213001 1.433746 0.059398 -0.031150 232262.000000 0 0 1
25.947242 -5.451372 2.261909 26.610018 -0.207083 1.485691 0.071910 -0.030165 10282.600000 0 0 1
25.237792 -5.934372 1.138409 25.951087 -0.230943 1.526915 0.061331 -0.019568 -97463.300000 0 0 1
25.932582 -5.966572 -0.104291 26.610330 -0.226145 1.574716 0.059130 -0.017321 -447152.000000 0 0 1
25.156292 -6.055772 -1.454891 25.915789 -0.236231 1.626965 0.060256 -0.015214 -196526.000000 0 0 1
24.365492 -4.951072 -1.782191 24.927225 -0.200471 1.642353 0.076393 -0.015227 -323383.000000 0 1 0
23.621492 -5.137172 -2.942591 24.352090 -0.214144 1.691928 0.065409 -0.016828 -170766.000000 0 1 0
22.453792 -4.104972 -3.019791 23.024828 -0.180822 1.702329 0.042770 -0.014189 -234224.000000 0 1 0
22.705392 -2.711472 -2.985291 23.060765 -0.118857 1.700614 0.022631 -0.013699 699329.000000 0 1 0
23.548192 -2.155672 -4.011291 23.984469 -0.091289 1.738831 0.030147 -0.015474 511889.000000 0 1 0
22.613192 -1.424272 -5.056191 23.215298 -0.062901 1.790352 0.034059 -0.005210 577903.000000 0 1 0
21.882992 -0.350572 -4.463191 22.336256 -0.016019 1.771969 0.002598 -0.000624 498670.000000 0 1 0
21.231092 0.393228 -5.449891 21.922938 0.018519 1.822024 0.024064 0.002008 -348982.000000 0 1 0
20.787292 1.843528 -5.054391 21.472237 0.088454 1.808418 0.012356 0.010434 -1831450.000000 0 1 0
21.859092 2.688428 -4.826091 22.546368 0.122374 1.786517 0.012005 0.009725 34947.800000 0 1 0
22.407792 2.539728 -3.513191 22.823275 0.112860 1.725341 0.020707 0.008189 47899.000000 0 1 0
23.618192 3.463628 -3.259691 24.092349 0.145613 1.706512 0.012654 0.004855 131046.000000 0 1 0
23.159792 4.819428 -3.322891 23.888166 0.205167 1.710351 -0.001872 0.009471 885465.000000 0 1 0
24.240392 5.659228 -2.952591 25.066736 0.229355 1.688860 0.003883 0.006351 50493.800000 0 0 1
23.971692 7.171228 -3.150691 25.218949 0.290680 1.696057 0.008082 0.001154 -457451.000000 0 0 1
23.076192 7.555328 -2.167291 24.378080 0.316408 1.659817 0.025011 -0.004037 182615.000000 0 1 0
22.498892 8.844928 -2.325591 24.286648 0.374568 1.666699 0.020135 0.001470 594613.000000 0 1 0
21.372892 9.126128 -1.223591 23.271955 0.403560 1.623399 0.015962 0.001964 187875.000000 0 1 0
21.853892 9.328428 0.105109 23.761802 0.403440 1.566373 0.014186 -0.006251 729504.000000 0 1 0
20.893692 9.793728 1.075009 23.100197 0.438329 1.524243 0.016668 -0.007758 144436.000000 0 1 0
21.579092 10.360228 2.370509 24.054331 0.447605 1.472088 0.044575 -0.006360 -324687.000000 0 1 0
22.367792 11.537028 2.259709 25.269100 0.476198 1.481251 0.049559 -0.014418 131587.000000 0 0 1
21.784892 12.703428 1.809009 25.283020 0.527923 1.499185 0.044480 -0.013642 -655608.000000 0 0 1
20.789492 13.380528 2.816909 24.883257 0.571877 1.457348 0.031577 -0.003964 30160.600000 0 1 0
19.507892 12.765128 2.837509 23.485268 0.579432 1.449680 0.069026 -0.009700 1153420.000000 0 1 0
18.528292 13.579928 3.553109 23.245142 0.632486 1.417341 0.052757 -0.004803 492497.000000 0 1 0
18.625792 13.558328 5.043509 23.583583 0.629228 1.355275 0.043061 -0.001153 -729607.000000 0 1 0
17.952492 12.422128 5.593309 22.536334 0.605299 1.319984 0.020441 0.000520 625884.000000 0 1 0
18.239892 12.297528 6.966709 23.075049 0.593207 1.264095 0.021067 -0.006538 -411484.000000 0 1 0
18.167792 10.770728 7.335409 22.358119 0.535144 1.236519 -0.006499 -0.016475 -817879.000000 0 1 0
19.107292 9.963128 6.757009 22.583394 0.480645 1.266940 -0.025156 -0.021896 -434647.000000 0 1 0
19.206992 8.730628 7.429109 22.367925 0.426635 1.232233 -0.013691 -0.016312 -60893.100000 0 1 0
20.101192 7.701728 6.691809 22.542290 0.365895 1.269398 -0.001313 -0.016758 130875.000000 0 1 0
19.777592 7.620428 5.285809 21.844080 0.367775 1.326391 -0.003594 -0.017478 693658.000000 0 1 0
20.729292 6.801728 4.650009 22.306717 0.317053 1.360798 0.010907 -0.020236 -170525.000000 0 1 0
20.599692 6.925028 3.146309 21.959112 0.324303 1.427021 0.017054 -0.006418 -290970.000000 0 1 0
21.200792 5.867228 2.469109 22.135818 0.269988 1.459020 0.004051 -0.008969 134985.000000 0 1 0
21.258192 5.903828 1.077309 22.089059 0.270893 1.522006 0.022660 0.003667 -67144.700000 0 1 0
22.366392 4.991628 0.493009 22.921931 0.219577 1.549286 0.027602 0.002340 107542.000000 0 1 0
22.168892 3.600728 0.730809 22.471295 0.161016 1.538269 0.026715 0.004031 533323.000000 0 1 0
23.323692 2.859828 0.363509 23.501178 0.122006 1.555328 0.034063 0.001992 152341.000000 0 1 0
23.191892 1.353828 0.457109 23.235870 0.058309 1.551122 0.049677 -0.002878 -308792.000000 0 1 0
22.348092 0.746428 -0.529791 22.366829 0.033388 1.594485 0.045012 -0.005995 717653.000000 0 1 0
22.539492 -0.624972 -0.869691 22.564921 -0.027721 1.609348 0.048972 -0.008669 -867299.000000 0 1 0
22.403292 -1.716572 0.254609 22.470401 -0.076472 1.559465 0.064938 -0.009292 495806.000000 0 1 0
23.405892 -1.727572 1.269509 23.503871 -0.073676 1.516757 0.080340 -0.010855 842750.000000 0 1 0
24.765192 -1.999872 1.005309 24.866139 -0.080579 1.530356 0.085260 -0.015883 -335024.000000 0 1 0
25.653992 -1.698972 2.185609 25.802920 -0.066130 1.485991 0.086002 -0.023523 -541451.000000 0 0 1
25.452392 -0.354172 2.519109 25.579203 -0.013914 1.472154 0.069976 -0.024357 198218.000000 0 0 1
26.259132 -0.028872 3.604709 26.505410 -0.001100 1.434375 0.073635 -0.024073 -478428.000000 0 0 1
26.095462 1.397328 4.192509 26.467013 0.053496 1.411721 0.072462 -0.017788 -348738.000000 0 0 1
26.465382 2.529428 3.439309 26.807523 0.095286 1.442145 0.074234 -0.008033 593724.000000 0 0 1
27.792152 2.590928 2.905909 28.063516 0.092956 1.467063 0.084620 -0.016507 215473.000000 0 0 1
27.938972 3.632428 1.765809 28.229396 0.129288 1.508203 0.087299 -0.017338 -498488.000000 0 0 1
27.129092 3.361428 0.654209 27.344375 0.123277 1.546869 0.069779 0.000123 93902.800000 0 0 1
27.395552 4.117828 -0.504991 27.707901 0.149193 1.589023 0.066481 -0.005771 -643517.000000 0 0 1
28.633192 3.734528 -1.326191 28.906144 0.129694 1.616692 0.063328 -0.009963 -84463.800000 0 0 1
29.804882 4.090828 -0.599591 30.090287 0.136401 1.590724 0.085941 -0.024511 -861462.000000 0 0 1
30.973482 3.677928 -1.230591 31.215350 0.118191 1.610229 0.071118 -0.025039 -456612.000000 0 0 1
32.134272 4.109128 -0.290691 32.397236 0.127183 1.579769 0.034852 -0.027631 -253932.000000 0 0 1
32.316532 3.252928 0.836109 32.490597 0.100320 1.545060 0.027228 -0.025844 197983.000000 0 0 1
31.708712 3.708128 2.036109 31.989660 0.116415 1.507104 0.041103 -0.014469 -178776.000000 0 0 1
31.815552 2.733028 3.175509 32.090227 0.085692 1.471678 0.039514 -0.010869 117531.000000 0 0 1
30.890592 1.637328 3.030309 31.082025 0.052955 1.473147 0.057215 -0.020345 440792.000000 0 0 1
30.948002 0.606628 4.006509 31.212160 0.019599 1.442077 0.052499 -0.021114 -819770.000000 0 0 1
32.136812 -0.332672 3.934309 32.378452 -0.010351 1.448985 0.043234 -0.020518 454446.000000 0 0 1
33.354082 0.284028 4.462809 33.652520 0.008515 1.437790 0.028501 -0.015959 859936.000000 0 0 1
34.431482 -0.566072 4.139609 34.684056 -0.016439 1.451159 0.013919 -0.020106 -819881.000000 0 0 1
-35.019606 0.118728 4.585309 35.318720 -0.003390 1.440602 0.010580 -0.028186 76466.000000 0 0 1
-34.505141 1.164428 3.762909 34.729240 -0.033734 1.462233 0.007044 -0.026548 348370.000000 0 0 1
-34.013214 0.664328 2.513109 34.112399 -0.019529 1.497058 0.008318 -0.024013 -828144.000000 0 0 1
-34.247043 1.620528 1.286509 34.309491 -0.047283 1.533290 0.017062 -0.031288 163223.000000 0 0 1
-33.601804 2.909328 1.342309 33.754218 -0.086367 1.531019 0.012529 -0.030635 -677127.000000 0 0 1
-32.336024 2.928928 0.803709 32.478347 -0.090331 1.546048 0.037207 -0.009761 -1356770.000000 0 0 1
-31.453624 4.004928 1.430009 31.739799 -0.126647 1.525727 0.041083 -0.006528 -288683.000000 0 0 1
-30.934164 3.583528 2.688909 31.256910 -0.115330 1.484664 0.037343 -0.013571 -120003.000000 0 0 1
-30.127484 4.571428 3.228709 30.642908 -0.150587 1.465235 0.044863 -0.014957 -794194.000000 0 0 1
-29.807664 4.385228 4.763409 30.502740 -0.146070 1.413991 0.043046 -0.018508 -158948.000000 0 0 1
-30.860964 4.575328 5.686809 31.712340 -0.147184 1.390496 0.037746 -0.014722 -277026.000000 0 0 1
-31.897154 3.650128 5.562609 32.583654 -0.113939 1.399238 0.034993 -0.008534 -721075.000000 0 0 1
-32.086384 2.735528 6.763909 32.905465 -0.085049 1.363765 0.020998 -0.009927 -410183.000000 0 0 1
-32.660734 3.516728 7.848609 33.774126 -0.107261 1.336267 0.022555 0.000876 673927.000000 0 0 1
-33.061744 2.805728 9.048409 34.392219 -0.084660 1.304568 0.022549 0.002826 -226988.000000 0 0 1
-33.999664 1.605328 9.008409 35.209454 -0.047181 1.312067 0.014898 0.003207 -978600.000000 0 0 1
-33.532124 0.513528 8.325709 34.554081 -0.015313 1.327455 0.012041 -0.000796 -284970.000000 0 0 1
-34.336478 -0.634272 8.344709 35.341621 0.018470 1.332430 0.019368 0.002943 -240717.000000 0 0 1
-34.168955 -1.396772 9.720609 35.552197 0.040856 1.293852 0.027966 0.005734 -576364.000000 0 0 1
-32.910064 -1.976572 9.763209 34.384581 0.059988 1.282894 0.019711 -0.010580 -547862.000000 0 0 1
-32.850384 -2.793972 10.913009 34.728199 0.084847 1.251140 0.015837 0.003148 -797747.000000 0 0 1
-31.586734 -3.597772 11.036009 33.652032 0.113413 1.236669 0.024740 0.002054 -1002860.000000 0 0 1
-31.454224 -4.550472 10.044509 33.331174 0.143673 1.264683 0.020476 -0.003784 891767.000000 0 0 1
-30.211954 -5.276772 10.143809 32.303303 0.172914 1.251374 0.006433 -0.009828 646314.000000 0 0 1
-30.205364 -6.363872 9.050009 32.167772 0.207650 1.285608 0.016903 -0.011879 365711.000000 0 0 1
-31.100714 -7.477872 9.205009 33.285210 0.235961 1.290595 0.015951 -0.016279 241901.000000 0 0 1
-31.181494 -8.175372 7.968409 33.205690 0.256415 1.328460 0.031870 -0.017975 376079.000000 0 0 1
-32.416254 -9.125372 8.025509 34.619283 0.274405 1.336846 0.033758 -0.021487 135351.000000 0 0 1
-33.654194 -8.496372 8.221209 35.670456 0.247294 1.338229 0.037087 -0.022287 -570728.000000 0 0 1
-34.617886 -9.513472 8.146409 36.813967 0.268193 1.347664 0.046114 -0.028004 -459513.000000 0 0 1
6.923916 -24.194872 10.757209 27.368778 -1.292073 1.166854 0.064851 -0.007827 202293.000000 0 0 1
6.501416 -24.970272 9.676709 27.557605 -1.316085 1.212003 0.052637 -0.008786 -709893.000000 0 0 1
5.356116 -25.719892 9.955709 28.094786 -1.365483 1.208565 0.050289 -0.003154 -6834.340000 0 0 1
5.041716 -26.653432 8.765009 28.507012 -1.383847 1.258265 0.035160 -0.003114 -295513.000000 0 0 1
4.615816 -25.961592 7.625409 27.449169 -1.394841 1.289292 0.039725 0.000522 -271250.000000 0 0 1
4.538716 -26.868722 6.524009 28.019473 -1.403454 1.335801 0.025408 -0.003715 -579808.000000 0 0 1
3.901416 -26.372992 5.215409 27.165350 -1.423929 1.377609 0.021085 -0.003258 1188520.000000 0 0 1
2.475116 -26.163012 5.180609 26.785595 -1.476473 1.376159 0.005560 -0.003850 926899.000000 0 0 1
1.706416 -27.355022 5.085209 27.875948 -1.508497 1.387346 0.004781 -0.006777 48281.800000 0 0 1
0.171316 -27.151262 4.967009 27.602383 -1.564487 1.389862 0.003617 -0.003938 -19538.100000 0 0 1
-0.459984 -26.728832 6.195109 27.441236 1.553589 1.343074 0.010604 -0.004532 519738.000000 0 0 1
-1.873384 -26.967622 6.228209 27.740815 1.501440 1.344352 -0.005028 0.001501 821237.000000 0 0 1
-2.250784 -28.439092 6.354509 29.227175 1.491817 1.351628 -0.006449 0.009531 -1028630.000000 0 0 1
-1.792584 -29.039802 7.585309 30.067597 1.509146 1.315766 -0.008160 0.005879 -48170.300000 0 0 1
-2.426984 -30.230582 7.955509 31.353923 1.490686 1.314259 0.001473 0.009184 -171423.000000 0 0 1
-2.099384 -30.809262 9.372109 32.271574 1.502760 1.276137 0.009616 0.007335 -62188.100000 0 0 1
-0.830484 -31.410632 9.370709 32.789140 1.544363 1.280969 0.015896 0.005408 -355915.000000 0 0 1
-0.524184 -31.728792 10.716009 33.493639 1.554277 1.245128 0.017048 0.009968 -652725.000000 0 0 1
0.926816 -31.946622 11.098109 33.832140 -1.541793 1.236574 0.007377 -0.002016 -797132.000000 0 0 1
1.439816 -33.265252 10.777709 34.997273 -1.527540 1.257750 0.020188 -0.003108 1176560.000000 0 0 1
2.864516 -33.304332 11.037909 35.202549 -1.484997 1.251863 0.017994 0.000051 1064380.000000 0 0 1
3.254916 -33.721632 12.457409 36.096122 -1.474571 1.218432 0.021397 -0.000220 -577693.000000 0 0 1
2.976316 -32.816952 13.492109 35.606851 -1.480349 1.182169 0.016030 -0.000427 406721.000000 0 0 1
3.797016 -33.116612 14.625609 36.401041 -1.456639 1.157325 0.012652 -0.000463 -172945.000000 0 0 1
3.370816 -32.235252 15.850109 36.079078 -1.466606 1.115959 0.009025 -0.002168 -59815.800000 0 0 1
3.761516 -30.906632 15.841809 34.933248 -1.449686 1.100121 -0.002314 -0.004932 480147.000000 0 0 1
5.167816 -30.655512 15.854209 34.897316 -1.403789 1.099199 0.004037 0.003910 309789.000000 0 0 1
5.631316 -29.509682 14.865209 33.518763 -1.382234 1.111308 0.010939 -0.008453 -228348.000000 0 0 1
5.680916 -29.723402 13.488109 33.131292 -1.381948 1.151508 0.009858 -0.005572 -286046.000000 0 0 1
4.471516 -29.934462 12.794709 32.859870 -1.422516 1.170847 -0.001729 -0.002656 -695118.000000 0 0 1
4.674216 -29.930322 11.209509 32.300551 -1.415878 1.216386 0.005914 -0.009685 170088.000000 0 0 1
5.236616 -31.071842 10.586409 33.240842 -1.403833 1.246675 0.010599 -0.009091 209996.000000 0 0 1
6.585316 -31.336352 10.961309 33.844995 -1.363661 1.240981 0.012477 -0.003704 -226553.000000 0 0 1
6.899916 -32.728322 10.462309 35.045853 -1.363015 1.267642 0.004953 0.000455 -536143.000000 0 0 1
6.505216 -33.843992 11.155609 36.224043 -1.380900 1.257747 -0.006289 0.003604 -19916.800000 0 0 1
6.585716 34.050812 10.496809 36.235513 1.379747 1.276901 -0.002599 0.006287 -95966.500000 0 0 1
6.497916 32.861832 11.427909 35.393785 1.375580 1.242027 -0.002909 0.008181 240244.000000 0 0 1
5.212216 32.897872 12.012609 35.408191 1.413666 1.224665 0.006022 0.004589 62040.400000 0 0 1
4.824116 31.635502 12.517409 34.362227 1.419472 1.197939 0.021825 0.003422 613638.000000 0 0 1
3.693816 31.700042 13.600809 34.691771 1.454795 1.167941 0.022163 -0.001875 495809.000000 0 0 1
4.249216 32.012202 14.827909 35.534544 1.438830 1.140344 0.015047 0.002732 -47708.500000 0 0 1
3.269516 31.995622 15.842109 35.852224 1.468963 1.113111 0.019018 0.001942 29620.200000 0 0 1
3.779516 32.180672 17.312609 36.736995 1.453885 1.080080 0.011316 0.005588 -56837.300000 0 0 1
3.781016 33.566079 17.661009 38.116781 1.458625 1.089036 0.011622 0.002884 114577.000000 0 0 1
4.388716 33.681959 18.922509 38.881828 1.441228 1.062526 0.009434 0.003979 -170640.000000 0 0 1
4.610916 -33.975782 19.325309 39.358378 -1.435909 1.057549 0.004290 -0.007065 -222839.000000 0 0 1
3.410516 -33.269822 19.537309 38.732662 -1.468642 1.042093 -0.005046 -0.010453 -7849.290000 0 0 1
3.701116 -32.094072 20.352009 38.182876 -1.455983 1.008637 -0.001406 -0.007341 984261.000000 0 0 1
2.354616 -31.396672 20.787609 37.728238 -1.495941 0.987255 -0.008759 -0.002072 862576.000000 0 0 1
1.580616 -32.229592 21.679009 38.874470 -1.521793 0.979224 -0.000774 -0.006771 -43810.400000 0 0 1
0.441116 -31.465862 22.006609 38.400337 -1.556778 0.960532 0.002109 -0.012766 -582480.000000 0 0 1
-0.678984 -32.205782 22.740009 39.430717 1.549717 0.956103 -0.003548 0.003991 -495591.000000 0 0 1
-1.474484 -33.124532 21.983109 39.782733 1.526312 0.985341 -0.000286 -0.003970 -92929.800000 0 0 1
-2.004684 -34.176582 22.724109 41.090664 1.512207 0.984807 0.003605 -0.003340 484672.000000 0 0 1
-3.317484 -33.839652 23.538309 41.354320 1.473073 0.965281 0.005099 0.006375 648841.000000 0 0 1
-4.340484 -33.491352 22.624209 40.649297 1.441915 0.980544 0.009202 -0.008844 326571.000000 0 0 1
-5.651484 -33.448802 23.231309 41.115148 1.403418 0.970326 0.020030 -0.012915 1298680.000000 0 0 1
-6.750184 -32.920432 22.262109 40.310313 1.368554 0.985714 0.007571 -0.013521 88890.000000 0 0 1
-7.085684 -33.868512 21.252309 40.607188 1.364559 1.020003 0.004836 -0.012889 121945.000000 0 0 1
-8.098684 -33.283232 20.434009 39.886225 1.332109 1.032927 0.022526 -0.021087 172230.000000 0 0 1
-9.382184 -34.127098 20.384209 40.843607 1.302506 1.048260 0.020923 -0.016176 -44839.000000 0 0 1
-9.998884 -34.299732 21.640109 41.770129 1.287142 1.026196 0.042945 -0.020726 -516216.000000 0 0 1
-11.268184 34.228515 21.523509 41.974095 -1.252766 1.032376 0.036749 -0.022388 -5906.540000 0 0 1
-11.889884 33.875909 22.918209 42.593320 -1.233246 1.002650 0.034485 -0.010455 -179015.000000 0 0 1
-12.196884 -34.163814 23.798309 43.385363 1.227889 0.990187 0.021473 -0.007311 552688.000000 0 0 1
-11.054184 -33.413102 24.270009 42.751184 1.251297 0.967082 0.015856 0.001922 633722.000000 0 0 1
-11.348684 -32.088572 24.999509 42.230848 1.230858 0.937292 0.004688 0.006546 -157619.000000 0 0 1
-12.036884 -32.215772 26.228409 43.251266 1.213224 0.919247 0.010901 0.004990 -11779.800000 0 0 1
-12.259584 -30.909882 26.742709 42.671896 1.193204 0.893478 0.022382 -0.000982 -208841.000000 0 0 1
-12.982584 -30.932762 28.091709 43.755313 1.173421 0.873669 0.005115 -0.003607 -286123.000000 0 0 1
-12.294284 -30.427842 29.258509 43.966616 1.186806 0.842672 -0.000185 0.001202 424035.000000 0 0 1
-13.221384 -30.135502 30.291809 44.727477 1.157353 0.826774 0.005563 -0.002891 -168737.000000 0 0 1
-12.557884 -29.608592 31.586009 45.078212 1.169663 0.794427 0.006210 -0.006367 -247808.000000 0 0 1
-13.478684 -29.183912 32.589109 45.775820 1.138129 0.778556 0.019970 -0.013129 210012.000000 0 0 1
-12.958284 -28.830852 33.881909 46.337015 1.148392 0.750708 0.011993 -0.009481 -313342.000000 0 0 1
-12.410184 -30.009432 -34.141265 47.119048 1.178670 2.381213 0.009432 -0.007422 674534.000000 0 0 1
-10.997984 -30.222212 -34.257565 46.988494 1.221789 2.387748 -0.003363 -0.004091 341879.000000 0 0 1
-10.621284 -31.428102 -33.697265 47.286816 1.244892 2.364014 -0.001491 0.002469 -1230470.000000 0 0 1
-9.200084 -31.796002 -33.980765 47.437535 1.289141 2.369320 -0.002182 -0.005050 -1089480.000000 0 0 1
-8.299184 -31.032972 -33.174365 46.178570 1.309480 2.372286 0.010049 -0.010885 250801.000000 0 0 1
-7.064184 -31.745272 -33.074065 46.384898 1.351837 2.364614 0.014172 -0.010762 452089.000000 0 0 1
-5.967084 -30.995602 -32.292365 45.156730 1.380609 2.367588 0.012388 -0.001021 37648.000000 0 0 1
-6.374884 -30.942662 -30.934665 44.215845 1.367617 2.345674 0.021435 -0.012063 280623.000000 0 0 1
-5.573784 -30.052332 -30.157465 42.938123 1.387411 2.349486 0.018876 -0.007496 72727.400000 0 0 1
-6.117984 -29.952842 -28.721365 41.946624 1.369314 2.325005 0.019940 -0.008228 -162217.000000 0 0 1
-5.963784 -31.152292 -27.979565 42.295249 1.381645 2.293653 0.020307 -0.006351 25558.900000 0 0 1
-6.733584 -31.250672 -26.784265 41.705426 1.358571 2.268194 0.030972 -0.007326 99540.100000 0 0 1
-6.487484 -32.614512 -26.080065 42.260663 1.374445 2.235879 0.033444 -0.014233 88115.600000 0 0 1
-5.381084 -32.496292 -25.228365 41.490185 1.406695 2.224406 0.017329 -0.011918 -293422.000000 0 0 1
-5.107084 -33.740622 -24.550965 42.038813 1.420574 2.194453 0.021317 -0.016277 -64377.100000 0 0 1
-4.302484 -33.568772 -23.232865 41.050455 1.443322 2.172392 0.016437 -0.019043 -10061.200000 0 0 1
-4.853284 -32.901642 -22.095565 39.928516 1.424344 2.157211 0.022856 -0.010245 -278901.000000 0 0 1
-4.820084 -31.474402 -22.225065 38.830719 1.418834 2.180175 0.003174 -0.002204 88666.400000 0 0 1
-5.645584 -30.754432 -21.102065 37.722737 1.389248 2.164457 0.017782 -0.008129 -471741.000000 0 0 1
-7.015484 -30.786602 -21.329865 38.105053 1.346748 2.164898 0.025641 -0.003720 -428811.000000 0 0 1
-7.795484 -29.818162 -20.573465 37.056171 1.315085 2.159396 0.031283 -0.009933 666992.000000 0 0 1
-8.084384 -28.558942 -21.527465 36.666091 1.294936 2.198295 0.040628 -0.028504 -907931.000000 0 0 1
-6.929084 -27.845812 -21.800365 36.036889 1.326912 2.220494 0.035322 -0.016491 -694347.000000 0 0 1
-6.894684 -27.295522 -23.087165 36.408782 1.323378 2.257653 0.057429 -0.029952 32724.000000 0 0 1
-5.815084 -27.902672 -24.056165 37.297096 1.365331 2.271803 0.055165 -0.024726 732596.000000 0 0 1
-4.454084 -27.550692 -23.967165 36.787287 1.410514 2.280365 0.062547 -0.019736 -24839.100000 0 0 1
-3.718684 -27.829992 -22.799665 36.168520 1.437962 2.252830 0.033654 -0.016514 -240519.000000 0 0 1
-2.296384 -27.222702 -23.056365 35.748355 1.486640 2.271771 0.030681 -0.020422 90915.800000 0 0 1
-2.234284 -25.848662 -23.184065 34.794342 1.484574 2.300055 0.041129 -0.021886 50156.500000 0 0 1
-2.614784 -25.013502 -22.110265 33.486956 1.466640 2.291968 0.048884 -0.015251 -584251.000000 0 0 1
-2.443184 -23.516472 -22.430665 32.590311 1.467275 2.329887 0.046632 -0.015087 38277.000000 0 0 1
-3.093884 -23.033172 -23.621865 33.137466 1.437273 2.364342 0.030728 -0.019257 -448599.000000 0 0 1
-4.479084 -22.945972 -23.512565 33.157511 1.378019 2.359042 0.034131 -0.019304 -1261560.000000 0 0 1
-5.104484 -23.268172 -24.855165 34.427356 1.354841 2.377427 0.031073 -0.017720 -327419.000000 0 0 1
-5.021684 -22.114372 -25.767065 34.324982 1.347505 2.419887 0.033481 -0.017861 -74990.500000 0 0 1
-5.488884 -22.471372 -26.989365 35.545974 1.331226 2.433003 0.038059 -0.010922 -181712.000000 0 0 1
-5.382184 -21.376372 -28.060765 35.683662 1.324141 2.475716 0.038488 -0.001647 12375.300000 0 0 1
-5.440084 -21.835172 -29.416265 37.036278 1.326624 2.488577 0.030865 0.004617 -329956.000000 0 0 1
-4.214284 -22.174772 -29.993165 37.537590 1.382987 2.496455 0.037157 0.008356 -638926.000000 0 0 1
-4.500284 -22.398472 -31.435065 38.860101 1.372517 2.513125 0.052107 -0.010578 327370.000000 0 0 1
-4.887184 -21.204572 -32.115965 38.793732 1.344274 2.546087 0.087098 -0.018300 -406723.000000 0 0 1
-6.166284 -21.246672 -32.691565 39.473821 1.288333 2.546655 0.067703 -0.016979 -91079.800000 0 0 1
-6.364784 -20.298772 -33.885065 40.009352 1.266950 2.580978 0.055811 -0.012145 483691.000000 0 0 1
-5.448284 -20.646372 34.011109 40.158586 1.312792 0.560631 0.049890 -0.009867 -3897.690000 0 0 1
-5.534384 -19.774472 32.912309 38.792773 1.297903 0.557816 0.046117 -0.003785 -101905.000000 0 0 1
-4.426884 -19.951972 31.875109 37.864245 1.352456 0.570139 0.027894 0.001429 -913013.000000 0 0 1
-4.403584 -21.287072 31.395309 38.186338 1.366807 0.605600 0.026185 -0.004253 339749.000000 0 0 1
-3.269884 -21.556072 30.569309 37.547823 1.420252 0.619544 0.017087 -0.007233 1060910.000000 0 0 1
-1.879484 -21.695772 31.286409 38.119265 1.484383 0.608073 0.009148 -0.013609 -108520.000000 0 0 1
-1.161284 -20.487972 31.234709 37.372619 1.514176 0.581273 0.004516 -0.017744 27027.500000 0 0 1
-0.094784 -20.334472 32.164509 38.053323 1.566135 0.563767 0.002219 -0.009784 5253.840000 0 0 1
-0.472684 -20.125472 33.621009 39.187119 1.547314 0.539510 -0.003403 -0.013123 -463601.000000 0 0 1
-1.272684 -18.988672 33.693509 38.696795 1.503873 0.514161 -0.002915 -0.008205 -361547.000000 0 0 1
-1.688184 -18.607672 -33.949765 38.751542 1.480319 2.638484 0.001609 -0.012156 -305786.000000 0 0 1
-2.750884 -17.553572 -33.816065 38.199758 1.415347 2.657812 0.001059 -0.017682 -369243.000000 0 0 1
-2.353984 -16.295572 -34.357565 38.098939 1.427333 2.694710 0.016768 -0.015008 10125.300000 0 0 1
-3.285184 -15.287672 -33.970565 37.396586 1.359124 2.710206 0.029684 -0.018288 181016.000000 0 0 1
-2.999984 -13.799872 -34.356065 37.145331 1.356735 2.751594 0.024658 -0.020332 506009.000000 0 0 1
-1.949384 -13.210772 -33.530865 36.092153 1.424293 2.762592 0.028086 -0.016380 591820.000000 0 0 1
-1.800184 -11.747072 -33.628765 35.666906 1.418734 2.801897 0.017876 -0.010693 -103394.000000 0 0 1
-1.276584 -11.092772 34.042509 35.826969 1.456218 0.316944 0.011201 -0.006297 -429771.000000 0 0 1
-2.193984 -11.041372 32.986209 34.854203 1.374646 0.328877 0.013342 -0.006986 -119404.000000 0 0 1
-1.523284 -10.617372 31.786609 33.547541 1.428298 0.325442 0.011427 -0.005971 338044.000000 0 0 1
-0.651084 -11.724172 31.109509 33.251792 1.515320 0.360916 0.002498 -0.013540 -98647.500000 0 0 1
-1.354984 -12.896372 30.789809 33.409052 1.466113 0.398612 0.010845 -0.012823 -381867.000000 0 0 1
-0.483984 -13.883472 30.352309 33.380349 1.535950 0.429229 0.017272 -0.019533 -427681.000000 0 0 1
-0.939784 -15.323772 30.699009 34.323903 1.509545 0.463727 0.011116 -0.020803 -309744.000000 0 0 1
-1.791184 -15.913372 29.774609 33.807856 1.458710 0.493456 0.016631 -0.022643 -106719.000000 0 0 1
-2.183884 -17.199872 30.275809 34.888817 1.444501 0.520079 0.015540 -0.016896 -192170.000000 0 0 1
-2.533484 -18.186872 29.126709 34.431759 1.432384 0.562498 0.014804 -0.010725 666868.000000 0 0 1
-3.819684 -17.758772 28.591909 33.874197 1.358937 0.565984 0.009653 -0.008599 1095730.000000 0 0 1
-4.446284 -18.753072 27.734509 33.773513 1.337999 0.607301 0.011962 -0.001033 743067.000000 0 0 1
-3.556584 -19.443272 26.565909 33.112500 1.389875 0.639671 0.008985 -0.006126 56818.300000 0 0 1
-4.305784 -20.282372 25.726309 33.041752 1.361610 0.678365 0.010571 -0.000370 -459451.000000 0 0 1
-4.659684 -21.527072 26.314609 34.315975 1.357628 0.696905 0.006575 -0.001060 -230655.000000 0 0 1
-28.462174 -34.220797 -0.960791 44.520573 0.877010 1.592379 0.018734 -0.002795 -133999.000000 0 0 1
-27.717274 -33.170797 -0.356791 43.228189 0.874726 1.579050 0.032371 -0.003273 -17365.200000 0 0 1
-28.303514 -32.556397 0.764609 43.146176 0.855165 1.553074 0.017618 -0.001963 -186475.000000 0 0 1
-27.551984 -31.278297 1.178509 41.699311 0.848654 1.542530 0.029371 -0.003429 -120370.000000 0 0 1
-26.208584 -31.472397 1.512509 40.984013 0.876403 1.533883 0.029769 -0.003026 -705198.000000 0 0 1
-25.612934 -30.257497 1.933609 39.689764 0.868338 1.522059 0.034167 -0.005730 319370.000000 0 0 1
-24.079284 -30.363097 2.103009 38.809177 0.900311 1.516581 0.025857 0.006294 1551.660000 0 0 1
-23.788884 -30.926397 3.320209 39.158356 0.915114 1.485905 0.015474 0.007645 -214258.000000 0 0 1
-22.384084 -31.048197 3.413409 38.427713 0.946150 1.481852 0.011387 0.010795 221253.000000 0 0 1
-21.847784 -31.502397 4.839309 38.641242 0.964427 1.445230 0.021083 0.002898 -2766.110000 0 0 1
-22.284084 -30.569997 5.803809 38.272566 0.940902 1.418565 0.020426 -0.004101 -1957.220000 0 0 1
-21.917784 -31.055397 7.124209 38.672746 0.956212 1.385520 0.013041 -0.004478 34108.100000 0 0 1
-22.690084 -30.346097 8.290309 38.787301 0.928762 1.355397 0.010614 -0.005922 -97848.300000 0 0 1
-22.372584 -28.999297 8.563009 37.614051 0.913685 1.341128 0.031411 -0.018094 -88566.600000 0 0 1
-22.932484 -28.585997 9.782509 37.930931 0.894698 1.309945 0.018451 -0.003349 202420.000000 0 0 1
-22.055784 -27.443397 10.409309 36.714457 0.893814 1.283333 0.029212 -0.015131 744362.000000 0 0 1
-20.868684 -27.868097 11.059509 36.530063 0.928039 1.263219 0.032946 -0.023254 41671.800000 0 0 1
-20.245984 -26.824097 11.822609 35.625919 0.924250 1.232528 0.043057 -0.024278 459042.000000 0 0 1
-18.972084 -27.329897 12.554009 35.559336 0.963982 1.209974 0.038643 -0.021588 293551.000000 0 0 1
-19.172084 -28.222097 13.604309 36.730543 0.974079 1.191377 0.034804 -0.012603 727882.000000 0 0 1
-17.838184 -28.379397 14.132509 36.377449 1.009640 1.171797 0.035287 -0.014618 1224180.000000 0 0 1
-17.756784 -29.525297 15.131209 37.629776 1.029341 1.156979 0.056438 -0.020635 149098.000000 0 0 1
-17.710584 -30.800797 14.552909 38.394544 1.048959 1.182042 0.062177 -0.016103 -179072.000000 0 0 1
-17.817684 -31.731197 15.616609 39.600722 1.059152 1.165434 0.057826 -0.010942 192869.000000 0 0 1
-17.556584 -33.215097 15.134209 40.503340 1.084553 1.187852 0.053743 -0.017056 158170.000000 0 0 1
-17.438284 -34.146997 16.176009 41.614594 1.098639 1.171565 0.054260 -0.012942 90075.000000 0 0 1
-16.974384 33.722228 15.660209 40.872491 -1.104465 1.177594 0.040890 -0.018152 -50211.300000 0 0 1
-16.953384 32.668428 16.800209 40.458502 -1.092101 1.142584 0.042680 -0.021890 -554305.000000 0 0 1
-18.173684 32.114328 17.188609 40.707016 -1.055823 1.134868 0.040221 -0.023130 -449421.000000 0 0 1
-18.030084 30.920328 17.910409 40.024160 -1.042885 1.106840 0.023712 -0.019321 77661.500000 0 0 1
-18.727984 31.006428 19.294609 41.041660 -1.027438 1.081367 0.027560 -0.012130 398936.000000 0 0 1
-17.983384 31.792728 20.236809 41.757731 -1.056021 1.064863 0.031399 -0.009070 427486.000000 0 0 1
-18.794784 31.935028 21.396009 42.788773 -1.038852 1.047154 0.024733 0.000347 164444.000000 0 0 1
-18.362684 33.081428 22.329609 43.933819 -1.064065 1.037638 0.019118 0.005583 265358.000000 0 0 1
-17.147584 32.870028 23.032309 43.645912 -1.089957 1.014896 0.007613 -0.003383 102306.000000 0 0 1
-17.049484 33.682928 24.173209 44.828212 -1.102220 1.001261 0.003379 -0.006712 -270564.000000 0 0 1
-17.827984 33.112128 25.395409 45.378154 -1.076893 0.976846 0.000830 -0.003425 20600.900000 0 0 1
-19.195184 33.403128 25.174209 46.021352 -1.049223 0.992006 0.007910 -0.013340 -466298.000000 0 0 1
-19.972384 32.769728 26.144409 46.435776 -1.023438 0.972757 0.009956 -0.011296 381248.000000 0 0 1
-21.505384 33.070628 26.038709 47.266926 -0.994220 0.987370 0.020402 -0.017049 433193.000000 0 0 1
-21.956984 32.505128 24.825809 46.422120 -0.976708 1.006544 0.021801 -0.015565 246496.000000 0 0 1
-23.236184 32.899928 24.358809 47.070979 -0.955876 1.026880 0.010978 -0.013620 105363.000000 0 0 1
-23.486084 32.351028 22.983609 46.113246 -0.942848 1.049025 0.002773 -0.008547 -219451.000000 0 0 1
-22.773884 32.979728 21.950809 45.696283 -0.966446 1.069728 0.003880 -0.001741 63997.700000 0 0 1
-23.044884 32.351828 20.735509 44.807017 -0.951849 1.089675 -0.009582 0.003248 -2100.910000 0 0 1
-22.608284 33.144828 19.488009 44.603773 -0.972181 1.118631 0.001748 0.005350 106924.000000 0 0 1
-21.205884 33.244428 19.329209 43.914688 -1.002990 1.115027 0.019714 0.012428 -307431.000000 0 0 1
-20.937884 34.325528 18.482509 44.252005 -1.023071 1.139923 0.034566 0.002839 -130524.000000 0 0 1
-19.633084 -34.019197 18.706509 43.505140 1.047372 1.126321 0.046218 -0.000152 -276387.000000 0 0 1
-19.594584 -33.174097 19.835309 43.334835 1.037273 1.095365 0.038229 -0.006362 42611.000000 0 0 1
-18.401584 -32.428697 19.860909 42.245643 1.054656 1.081359 0.048900 -0.009097 -322912.000000 0 0 1
-18.439184 -31.376497 20.994609 42.015017 1.039489 1.047552 0.040825 -0.005229 -91589.900000 0 0 1
-19.098484 -30.170397 20.608409 41.227557 1.006450 1.047348 0.057772 -0.005274 363734.000000 0 0 1
-19.259284 -29.253897 21.668009 41.185108 0.988574 1.016773 0.055870 -0.003528 -83216.600000 0 0 1
-20.035484 -27.958297 21.318609 40.466901 0.949003 1.015946 0.048562 -0.009875 -79378.000000 0 0 1
-19.214284 -26.953697 20.727109 39.055134 0.951490 1.011353 0.049039 -0.001485 544514.000000 0 0 1
-19.883784 -25.702497 20.592909 38.471432 0.912353 1.005960 0.054581 0.004018 1007180.000000 0 0 1
-21.206884 -25.545697 19.721009 38.616483 0.877937 1.034810 0.057807 0.000684 807215.000000 0 0 1
-22.401584 -26.106397 20.219809 39.902576 0.861625 1.039410 0.050844 0.000203 451329.000000 0 0 1
-23.377384 -25.982097 19.166009 39.861101 0.838120 1.069207 0.038195 0.000755 -324328.000000 0 0 1
-24.837484 -26.165097 19.602109 41.057954 0.811423 1.073074 0.036451 -0.008346 -127665.000000 0 0 1
-25.324194 -27.504897 19.892109 42.350090 0.826653 1.081838 0.030632 -0.002419 185291.000000 0 0 1
-25.621894 -28.170397 18.692709 42.420161 0.832739 1.114467 0.032801 -0.008315 -545655.000000 0 0 1
-26.615604 -29.348397 18.800409 43.854010 0.834191 1.127738 0.036207 -0.010605 714482.000000 0 0 1
-27.958084 -28.952097 19.091309 44.546116 0.802863 1.127882 0.007418 -0.013901 701111.000000 0 0 1
-28.953864 -29.584397 18.303309 45.261174 0.796169 1.154481 0.007911 -0.007571 -63744.400000 0 0 1
-30.397914 -29.172797 18.541309 46.031135 0.764835 1.156223 0.007913 -0.008434 -350684.000000 0 0 1
-30.604634 -27.838697 18.139209 45.173749 0.738107 1.157595 0.009723 -0.001619 1626640.000000 0 0 1
-31.991254 -27.470597 18.441309 46.023428 0.709518 1.158522 -0.007382 0.004203 1507030.000000 0 0 1
-32.624324 -26.235897 17.735909 45.466815 0.677286 1.170073 -0.009251 0.005365 -251374.000000 0 0 1
-32.806764 -26.384497 16.318409 45.152142 0.677321 1.201017 0.006322 -0.002201 468568.000000 0 0 1
-33.270894 -25.161297 15.667609 44.559143 0.647493 1.211502 0.005509 -0.002865 -537594.000000 0 0 1
-32.179904 -24.225297 15.179409 43.044462 0.645296 1.210400 -0.009103 0.003067 -8137.040000 0 0 1
-31.513874 -23.404197 16.178409 42.457292 0.638789 1.179863 -0.017153 -0.000312 461392.000000 0 0 1
-31.105224 -22.154597 15.683309 41.283499 0.618898 1.181116 -0.012756 -0.001150 -217626.000000 0 0 1
-32.108444 -21.030897 15.973409 41.574038 0.579879 1.176438 -0.012780 -0.004418 -139688.000000 0 0 1
-32.211874 -20.768297 17.366809 42.077702 0.572669 1.145345 -0.004331 -0.011217 131700.000000 0 0 1
-32.979034 -19.621897 17.662309 42.244440 0.536721 1.139446 0.005635 -0.010419 -252738.000000 0 0 1
-33.253264 -19.468897 19.157109 43.032689 0.529670 1.109426 0.002427 -0.005050 13877.200000 0 0 1
-34.364682 -20.243497 19.596609 44.438245 0.532350 1.114100 0.010938 -0.008731 452605.000000 0 0 1
-34.674035 -19.887797 20.916509 45.114449 0.520755 1.088706 0.014247 0.004190 -699407.000000 0 0 1
34.692032 -20.110797 21.485309 45.492854 -0.525356 1.078922 0.018809 0.001255 -352457.000000 0 0 1
34.236642 -21.363697 21.910909 45.919964 -0.557881 1.073383 0.024451 -0.006160 -92757.000000 0 0 1
35.072645 -21.970197 22.852509 47.275968 -0.559620 1.066279 0.015496 0.003024 -544017.000000 0 0 1
34.526532 -23.298297 23.385309 47.767821 -0.593608 1.059209 0.017551 0.003999 -64504.900000 0 0 1
33.551752 -23.196197 24.411109 47.536153 -0.604901 1.031506 0.040346 -0.007758 157436.000000 0 0 1
33.168622 -24.527297 24.629209 48.045226 -0.636730 1.032556 0.042041 -0.020602 53617.400000 0 0 1
32.047832 -24.625497 25.739309 47.916497 -0.655172 1.003718 0.047240 -0.026054 362259.000000 0 0 1
30.739012 -24.302297 25.339809 46.664702 -0.668984 0.996768 0.050556 -0.023485 -501520.000000 0 0 1
29.947092 -24.323497 26.514709 46.813359 -0.682145 0.968675 0.045697 -0.020650 749810.000000 0 0 1
28.492782 -24.863997 26.223209 46.018623 -0.717493 0.964486 0.041056 -0.017005 858397.000000 0 0 1
27.599032 -23.846597 25.776909 44.663361 -0.712587 0.955577 0.040300 -0.010256 -481766.000000 0 0 1
26.297862 -24.354197 25.757809 44.138069 -0.747044 0.947674 0.032594 0.000930 -268680.000000 0 0 1
25.206692 -23.416197 25.213209 42.654443 -0.748591 0.938370 0.013888 0.002843 -208355.000000 0 0 1
25.223292 -22.983697 23.864809 41.641252 -0.738974 0.960507 0.034635 -0.003438 -500910.000000 0 0 1
26.317532 -22.218497 23.449409 41.667120 -0.701145 0.973052 0.019423 0.006295 -385026.000000 0 0 1
26.232592 -21.625197 22.016409 40.503337 -0.689421 0.996112 0.018704 0.001396 -45579.200000 0 0 1
25.367292 -20.522197 21.960809 39.331123 -0.680206 0.978392 0.000300 -0.003826 -159921.000000 0 0 1
25.365092 -19.871797 20.703309 38.300172 -0.664556 0.999701 -0.013997 0.002517 -195706.000000 0 0 1
24.554292 -18.588497 20.665609 37.087907 -0.647989 0.979779 -0.001340 0.004999 -371521.000000 0 0 1
25.050692 -17.509697 21.468609 37.350071 -0.610035 0.958444 0.003188 -0.015027 101699.000000 0 0 1
24.921492 -17.692197 22.834009 38.150840 -0.617351 0.929145 0.002297 -0.009325 -386460.000000 0 0 1
25.112992 -16.404897 23.564109 38.145121 -0.578652 0.904919 0.005475 -0.000413 -484513.000000 0 0 1
24.192492 -15.370497 23.343209 36.965311 -0.566001 0.887324 -0.003263 0.000786 -367612.000000 0 0 1
24.273492 -14.388097 24.389209 37.296826 -0.535071 0.858040 0.000662 0.000216 -117138.000000 0 0 1
23.059892 -13.442097 24.356009 36.133970 -0.527767 0.831122 0.010043 -0.005236 309623.000000 0 0 1
21.871692 -14.086097 24.765609 35.918302 -0.572169 0.810000 0.010833 0.003645 452357.000000 0 0 1
20.683192 -13.342197 24.459909 34.700084 -0.572905 0.788521 0.018447 -0.003888 1142580.000000 0 0 1
19.344992 -14.134297 24.516109 34.278954 -0.630998 0.773894 0.021703 0.004636 387718.000000 0 0 1
19.054292 -15.056697 23.450209 33.759183 -0.668737 0.802888 0.024944 -0.000210 -701650.000000 0 0 1
17.753292 -15.527597 23.514409 33.304851 -0.718622 0.786912 0.034763 0.002167 -608070.000000 0 0 1
17.400392 -16.792197 22.694209 33.162911 -0.767613 0.817119 0.032286 -0.004012 -335586.000000 0 0 1
17.946592 -17.982097 23.232309 34.426387 -0.786386 0.830048 0.025364 0.001042 54340.100000 0 0 1
17.835192 -19.053197 22.279109 34.314386 -0.818405 0.864179 0.032717 -0.004909 -155226.000000 0 0 1
18.040592 -20.484197 22.868309 35.609336 -0.848743 0.873432 0.015289 -0.004887 -67342.400000 0 0 1
16.971292 -20.913897 23.725509 35.893114 -0.889092 0.848640 0.021087 -0.005116 432264.000000 0 0 1
17.046192 -22.182897 24.320109 37.069142 -0.915599 0.855191 0.026666 -0.004714 -681838.000000 0 0 1
16.760592 -23.326497 23.310009 36.991883 -0.947748 0.889065 0.017104 0.000136 -313513.000000 0 0 1
17.608092 -23.549497 22.207209 36.848118 -0.928765 0.923955 0.020145 0.003109 -46334.000000 0 0 1
18.803692 -24.262697 22.509309 38.064764 -0.911484 0.938074 0.012478 -0.000958 72690.300000 0 0 1
19.674692 -24.384197 21.246009 37.855983 -0.891885 0.974922 0.016855 0.002733 -163544.000000 0 0 1
19.070392 -25.230897 20.238709 37.548413 -0.923571 1.001543 0.037617 -0.017734 -214133.000000 0 0 1
19.860092 -25.450797 19.140109 37.530122 -0.908163 1.035619 0.030728 -0.010026 -616724.000000 0 0 1
19.107292 -26.091697 17.975709 36.999883 -0.938711 1.063482 0.032038 -0.011850 -124816.000000 0 0 1
18.725092 -27.419597 18.210809 37.869472 -0.971633 1.069134 0.046540 -0.022595 -462291.000000 0 0 1
18.043692 -27.995097 17.175909 37.474153 -0.998276 1.094670 0.046505 -0.023034 -703360.000000 0 0 1
17.238192 -29.206897 17.667509 38.240541 -1.037607 1.090536 0.052528 -0.023925 155776.000000 0 0 1
16.252392 -28.773097 18.610409 37.925963 -1.056626 1.057899 0.044493 -0.020044 -183490.000000 0 0 1
15.499492 -29.883297 19.019809 38.665214 -1.092327 1.056514 0.055092 -0.017657 -83203.500000 0 0 1
14.207092 -29.537397 19.813109 38.299590 -1.122475 1.027081 0.038160 -0.007308 10676.400000 0 0 1
13.261992 -29.005497 18.895609 37.070788 -1.141952 1.035941 0.041203 -0.013626 -1162810.000000 0 0 1
12.117792 -28.710997 19.612109 36.821149 -1.171418 1.009089 0.011140 -0.001635 -1221210.000000 0 0 1
11.091092 -28.081697 18.691709 35.510196 -1.194644 1.016464 0.004845 -0.003198 -720305.000000 0 0 1
10.538592 -29.025897 17.780409 35.632956 -1.222521 1.048366 0.007419 -0.011511 118601.000000 0 0 1
10.021392 -28.402397 16.632909 34.406076 -1.231597 1.066228 0.013583 -0.013128 -54339.300000 0 0 1
10.194792 -29.361197 15.379609 34.677745 -1.236600 1.111295 0.013028 -0.010301 202127.000000 0 0 1
9.208292 -30.396297 15.427509 35.309142 -1.276643 1.118617 0.003135 -0.003631 384579.000000 0 0 1
9.494192 -31.380497 14.483309 35.841896 -1.277001 1.154814 0.000022 0.001185 -217995.000000 0 0 1
8.399792 -32.437997 14.257009 36.414866 -1.317413 1.168518 -0.004475 0.003386 -177561.000000 0 0 1
8.382392 -33.507097 15.208809 37.739871 -1.325660 1.156014 -0.010364 0.005735 31414.900000 0 0 1
7.362192 -34.417397 14.843309 38.197944 -1.360063 1.171696 -0.012221 0.005906 -117401.000000 0 0 1
7.232092 33.658128 15.954309 37.943546 1.359145 1.136828 0.003986 0.006451 251507.000000 0 0 1
8.338992 32.762228 16.008409 37.405501 1.321558 1.128552 0.000900 0.008790 57992.100000 0 0 1
8.222092 31.719428 16.955309 36.894544 1.317165 1.093295 0.013149 0.004996 111552.000000 0 0 1
9.487692 30.825028 17.061509 36.486898 1.272206 1.084215 0.007398 0.000309 83649.100000 0 0 1
9.750392 29.945028 15.990309 35.319468 1.256013 1.100968 0.014240 0.005359 230757.000000 0 0 1
10.833192 29.054628 16.323609 35.042683 1.213907 1.086234 0.014402 0.003524 -79465.900000 0 0 1
11.643092 28.442728 15.224609 34.297800 1.182254 1.110856 0.015602 0.006752 -417905.000000 0 0 1
10.973592 27.831628 14.136809 33.088799 1.195226 1.129360 0.019559 0.005713 776496.000000 0 0 1
11.983292 27.340828 13.198709 32.639333 1.157721 1.154495 0.023987 0.005698 802504.000000 0 0 1
-9.158784 -9.374472 19.477783 23.476543 0.797036 0.592280 0.009163 -0.004485 -219019.000000 0 1 0
-9.510784 -9.485172 18.095383 22.535891 0.784050 0.638554 0.007566 -0.006943 184897.000000 0 1 0
-9.373784 -10.845072 17.723683 22.795007 0.858038 0.680076 0.007463 -0.005053 -85184.800000 0 1 0
-9.744684 -11.130372 16.245883 21.972091 0.851681 0.738637 0.012368 -0.005709 -1070530.000000 0 1 0
-11.093984 -10.891272 16.078983 22.365822 0.776178 0.768565 0.010065 -0.004824 -619139.000000 0 1 0
-11.698184 -11.190172 14.792983 21.929428 0.763207 0.830411 0.020600 -0.006348 305315.000000 0 1 0
-11.672784 -12.711572 14.371183 22.458158 0.827973 0.876416 0.016618 -0.011300 -285959.000000 0 1 0
-10.487984 -13.253372 13.793883 21.815611 0.901355 0.886285 0.025529 -0.013689 104124.000000 0 1 0
-10.355784 -14.663872 13.884083 22.694475 0.955914 0.912484 0.026396 -0.011932 71372.300000 0 1 0
-9.822484 -15.357972 15.165283 23.713589 1.001789 0.876924 0.023996 -0.013851 905456.000000 0 1 0
-10.814284 -15.366872 16.231683 24.830567 0.957565 0.858336 0.014850 0.000675 473749.000000 0 1 0
-10.188484 -15.521872 17.498783 25.513548 0.989938 0.815008 0.024992 -0.000712 514947.000000 0 0 1
-11.096184 -15.046472 18.728283 26.462619 0.935369 0.784522 0.017697 -0.004996 114168.000000 0 0 1
-11.385484 -13.639872 18.783183 25.855045 0.875240 0.757610 0.015403 -0.004232 457887.000000 0 0 1
-12.525084 -13.235372 18.023783 25.630247 0.812964 0.790875 0.012009 -0.006085 1535850.000000 0 0 1
-13.960884 -13.528772 18.666583 26.951350 0.769680 0.805705 0.007050 -0.007362 905921.000000 0 0 1
-14.337384 -14.856872 18.794683 27.920017 0.803190 0.832320 0.015733 -0.011551 -245460.000000 0 0 1
-15.412984 -14.899872 19.703183 29.116691 0.768473 0.827529 0.025746 -0.009141 -233797.000000 0 0 1
-15.726984 -16.297672 20.289483 30.407487 0.803217 0.840282 0.041055 -0.009650 -68035.200000 0 0 1
-16.790284 -16.865072 19.544983 30.795303 0.787620 0.883210 0.035763 -0.007729 59378.500000 0 0 1
-17.103984 -18.156472 19.974683 31.956090 0.815238 0.895580 0.034063 -0.009711 -125503.000000 0 0 1
-18.316484 -18.880172 19.347783 32.654115 0.800551 0.936629 0.040165 -0.009400 -110546.000000 0 0 1
-18.219284 -18.970872 17.919183 31.826615 0.805605 0.972755 0.043116 -0.011759 -361597.000000 0 0 1
-18.962784 -17.970672 17.350383 31.361888 0.758542 0.984558 0.040819 -0.023393 -872868.000000 0 0 1
-18.722684 -17.828372 15.826683 30.312929 0.760936 1.021473 0.037680 -0.016946 137042.000000 0 0 1
-19.322384 -18.890672 15.058583 30.934979 0.774101 1.062395 0.034042 -0.013252 223147.000000 0 0 1
-18.829084 -18.727072 13.756083 29.907649 0.782682 1.092855 0.020015 -0.009505 130095.000000 0 0 1
-19.003384 -20.023072 12.941883 30.488430 0.811520 1.132403 0.025933 -0.007791 -176052.000000 0 0 1
-18.316184 -21.146772 13.400483 31.020018 0.857003 1.124093 0.029221 -0.007330 -216056.000000 0 0 1
-18.190484 -22.129172 12.416583 31.221235 0.882776 1.161791 0.025315 -0.012544 -248200.000000 0 0 1
-17.512784 -23.440872 12.956583 32.000705 0.929151 1.153944 0.022989 -0.012646 56857.100000 0 0 1
-17.531384 -24.553372 12.082483 32.499291 0.950729 1.189874 0.039340 -0.025811 573405.000000 0 0 1
-16.544084 -24.480972 11.023583 31.536393 0.976502 1.213704 0.025926 -0.022492 333816.000000 0 0 1
-16.620784 -25.659962 10.064683 32.186674 0.996017 1.252765 0.024270 -0.022303 -166184.000000 0 0 1
-17.839484 -25.714482 9.365483 32.667936 0.964276 1.280029 0.030492 -0.022075 -529718.000000 0 0 1
-18.012884 -26.848302 8.533283 33.438185 0.979859 1.312746 0.030460 -0.018860 14574.100000 0 0 1
-19.310284 -26.732322 7.727683 33.870654 0.945223 1.340616 0.021286 -0.019463 -24560.100000 0 0 1
-19.245084 -25.517812 6.988583 32.716545 0.924624 1.355528 0.028163 -0.023714 -283870.000000 0 0 1
-20.254184 -25.438172 6.036283 33.072183 0.898369 1.387249 0.031114 -0.016771 -132583.000000 0 0 1
-19.905184 -24.157672 5.234883 31.736627 0.881610 1.405091 0.026762 -0.017085 248176.000000 0 0 1
-20.842484 -23.921472 4.198483 32.004269 0.854073 1.439232 0.022742 -0.008787 127570.000000 0 0 1
-20.565784 -22.759072 3.436483 30.866426 0.835979 1.459231 0.017062 -0.005551 -126023.000000 0 0 1
-21.434184 -22.617472 2.173683 31.236184 0.812253 1.501151 -0.004166 -0.004532 -270476.000000 0 0 1
-21.225684 -23.554572 1.133583 31.727473 0.837358 1.535060 -0.001462 -0.005291 -27657.900000 0 0 1
-21.654084 -23.143172 -0.167817 31.694383 0.818627 1.576091 -0.004834 0.004018 -213518.000000 0 0 1
-21.088984 -24.097772 -1.274017 32.047948 0.851886 1.610560 0.013861 0.001202 202735.000000 0 0 1
-19.677484 -23.993872 -1.409317 31.062767 0.883916 1.616182 -0.002165 -0.002019 237894.000000 0 0 1
-19.136084 -24.560772 -2.591317 31.243178 0.908910 1.653832 -0.004456 0.004246 239012.000000 0 0 1
-18.714084 -26.036352 -2.503417 32.161711 0.947585 1.648714 0.024592 -0.001767 -95573.300000 0 0 1
-19.697184 -26.923462 -3.017317 33.495613 0.939176 1.661000 0.023602 0.000709 -21889.400000 0 0 1
-19.163284 -28.124592 -3.597817 34.222338 0.972683 1.676122 0.027985 0.008252 277567.000000 0 0 1
-20.247284 -28.922102 -4.374217 35.574911 0.960028 1.694066 0.029136 0.007103 512230.000000 0 0 1
-20.775984 -28.380682 -5.580217 35.612406 0.938885 1.728138 0.023461 0.006729 -410069.000000 0 0 1
-21.689284 -29.141642 -6.281117 36.866147 0.930972 1.742008 0.030338 -0.002663 -569848.000000 0 0 1
-22.216284 -28.363492 -7.480917 36.796944 0.906340 1.775526 0.026253 0.008967 -120539.000000 0 0 1
-21.189184 -28.197952 -8.458117 36.271832 0.926372 1.806150 0.026737 0.010027 373510.000000 0 0 1
-21.651984 -28.142042 -9.787717 36.831812 0.915006 1.839769 0.021900 0.008617 -173728.000000 0 0 1
-22.360884 -26.876982 -10.327017 36.455844 0.876862 1.858003 0.017314 0.010924 -672668.000000 0 0 1
-21.630084 -25.739802 -10.628217 35.261267 0.871939 1.876971 0.009209 0.014529 -123472.000000 0 0 1
-21.211484 -24.933772 -9.495017 34.084827 0.865888 1.853101 0.007010 0.018409 238307.000000 0 0 1
-20.792984 -23.489472 -9.928417 32.904057 0.846216 1.877312 -0.010544 0.014639 -658998.000000 0 0 1
-21.877184 -22.698772 -10.205917 33.136176 0.803827 1.883886 0.004902 0.013516 -790214.000000 0 0 1
-21.548384 -21.339272 -10.436717 32.072145 0.780522 1.902246 0.014043 0.014687 579390.000000 0 0 1
-22.776484 -20.421572 -10.791817 32.438745 0.730938 1.909943 0.019449 0.019531 300700.000000 0 0 1
-23.387184 -20.673372 -12.053517 33.460962 0.723883 1.939307 0.010585 0.014098 187510.000000 0 0 1
-24.754784 -20.396772 -12.225317 34.326171 0.689177 1.934942 0.013758 0.013077 -9125.390000 0 0 1
-25.068684 -18.893972 -12.344617 33.731449 0.645857 1.945469 0.017823 0.004804 -1111230.000000 0 0 1
-24.333184 -18.321572 -13.391417 33.273321 0.645384 1.985007 0.018639 0.012899 130775.000000 0 0 1
-24.115584 -16.904572 -13.230117 32.285631 0.611384 1.993013 0.017996 0.006987 435262.000000 0 0 1
-23.217784 -16.360772 -12.021517 30.842458 0.613850 1.971180 0.004861 0.014932 73707.300000 0 0 1
-23.677084 -16.672972 -10.721817 30.879600 0.613527 1.925395 0.025049 0.005479 368749.000000 0 0 1
-22.559084 -16.687872 -9.858317 29.741953 0.636903 1.908649 0.014218 0.005407 -45282.100000 0 0 1
-22.988084 -16.959472 -8.428617 29.784514 0.635615 1.857703 0.000748 -0.004664 85365.400000 0 0 1
-23.452384 -18.326572 -8.155117 30.860711 0.663319 1.838228 0.010968 -0.000331 940777.000000 0 0 1
-24.862984 -18.450372 -7.945617 31.964309 0.638414 1.822008 0.021887 -0.011592 506568.000000 0 0 1
-25.295294 -19.795472 -7.472617 32.978063 0.664025 1.799375 0.021594 0.001398 -211914.000000 0 0 1
-25.041184 -20.851572 -8.432817 33.659492 0.694359 1.824027 0.013507 -0.007267 3755.510000 0 0 1
-25.559034 -22.104872 -8.000517 34.726040 0.713055 1.803274 0.022771 0.002035 117513.000000 0 0 1
-25.036184 -23.385672 -8.676217 35.340868 0.751325 1.818833 0.020863 0.011615 -14755.100000 0 0 1
-25.807774 -24.517072 -8.384817 36.570934 0.759756 1.802130 0.022481 0.011104 -398362.000000 0 0 1
-25.470204 -25.645452 -9.163217 37.287868 0.788827 1.819082 0.027789 0.016944 -144083.000000 0 0 1
-26.103124 -26.932122 -8.637117 38.487817 0.801028 1.797136 0.027704 0.009761 91181.200000 0 0 1
-25.465424 -27.309202 -7.452017 38.076409 0.820321 1.767780 0.033259 0.001326 32636.300000 0 0 1
-25.972744 -28.545792 -7.026517 39.227766 0.832559 1.750889 0.037298 0.000371 -216872.000000 0 0 1
-25.533164 -28.925382 -5.645617 38.993502 0.847608 1.716091 0.046304 -0.007887 -496590.000000 0 0 1
-26.099514 -28.204702 -4.584117 38.700181 0.824145 1.689527 0.025520 -0.008100 37820.800000 0 0 1
-25.441214 -28.350112 -3.309317 38.235269 0.839423 1.657456 0.020463 -0.008638 43479.100000 0 0 1
-25.716854 -29.658482 -2.491817 39.334353 0.856459 1.634188 0.029933 -0.003655 -410056.000000 0 0 1
-25.103654 -30.722622 -3.153217 39.799695 0.885711 1.650107 0.046422 -0.010885 -205013.000000 0 0 1
-25.272324 -32.004962 -2.628217 40.864600 0.902406 1.635156 0.041881 -0.008193 -471686.000000 0 0 1
-24.396784 -32.497682 -1.465817 40.662649 0.926832 1.606852 0.042540 -0.007012 -1056080.000000 0 0 1
-23.097984 -32.653382 -1.955117 40.044759 0.955142 1.619639 0.047435 -0.011857 -743463.000000 0 0 1
-22.178984 -32.934222 -0.901517 39.716282 0.978124 1.593497 0.031008 0.003332 363924.000000 0 0 1
-21.186184 -31.754572 -0.645017 38.178833 0.982435 1.587692 0.032218 -0.004256 -286114.000000 0 0 1
-21.715884 -30.520872 -0.173717 37.458423 0.952388 1.575434 0.036056 -0.000083 -303278.000000 0 0 1
-22.014184 -29.734692 -1.298617 37.019760 0.933498 1.605883 0.047489 -0.003268 -339356.000000 0 0 1
-22.411584 -28.260982 -1.038817 36.083810 0.900325 1.599589 0.024778 -0.001714 555472.000000 0 0 1
-23.760984 -28.252912 -0.537717 36.920192 0.871545 1.585361 0.023917 -0.005591 576414.000000 0 0 1
-24.300784 -26.961262 -0.234817 36.297285 0.837251 1.577266 0.029597 -0.013570 119465.000000 0 0 1
-23.679884 -26.237612 0.981983 35.356944 0.836593 1.543019 0.032844 -0.010969 -240248.000000 0 0 1
-24.012584 -26.715822 2.278983 35.993515 0.838636 1.507437 0.026618 -0.016528 60072.900000 0 0 1
-23.476284 -25.911162 3.316683 35.121569 0.834660 1.476221 0.031598 -0.018229 416887.000000 0 0 1
-24.500184 -24.794972 3.731083 35.056678 0.791378 1.464164 0.027727 -0.019230 386872.000000 0 0 1
-24.654084 -23.685672 2.846983 34.306563 0.765367 1.487714 0.019330 -0.015417 247963.000000 0 0 1
-25.629784 -22.762772 3.363083 34.443286 0.726222 1.472999 0.009651 -0.015846 253591.000000 0 0 1
-25.808444 -21.522772 2.429983 33.692883 0.695098 1.498612 0.006236 -0.016492 120596.000000 0 0 1
-24.815884 -20.526872 2.616583 32.311408 0.691088 1.489727 -0.002444 -0.011283 64472.300000 0 0 1
-24.792084 -19.745672 1.454283 31.727810 0.672573 1.524944 -0.010209 -0.007520 3207.860000 0 0 1
-23.546884 -18.831372 1.465883 30.186506 0.674582 1.522216 -0.000336 -0.002643 107439.000000 0 0 1
-22.325984 -19.554072 1.324683 29.708014 0.719308 1.526191 -0.002334 -0.001141 -381837.000000 0 0 1
-21.306384 -18.678372 1.715283 28.386366 0.719767 1.510333 -0.002263 -0.001447 -1198990.000000 0 0 1
-19.976884 -19.363572 1.492883 27.861309 0.769810 1.517188 -0.004687 -0.000127 -906949.000000 0 0 1
-19.520384 -19.634072 0.172683 27.687037 0.788302 1.564559 -0.015340 0.000080 -7489.470000 0 0 1
-18.556584 -20.653672 0.168583 27.765976 0.838830 1.564725 -0.008286 0.006877 -242220.000000 0 0 1
-18.370984 -21.184272 -1.265817 28.069000 0.856402 1.615908 0.002798 0.004294 -114998.000000 0 0 1
-17.805784 -20.195072 -2.148017 27.009274 0.848190 1.650409 -0.000716 0.000831 49769.800000 0 0 1
-17.683884 -20.659472 -3.490217 27.417425 0.862847 1.698442 0.008264 0.000614 55225.600000 0 0 1
-17.056384 -19.545972 -4.387917 26.310057 0.853311 1.738356 0.014459 -0.004006 -13716.900000 0 0 1
-15.666684 -19.419272 -4.213817 25.304335 0.891947 1.738101 0.043925 -0.010502 -482815.000000 0 0 1
-15.208384 -18.527372 -5.122217 24.511132 0.883464 1.781323 0.055728 -0.009551 -16333.000000 0 1 0
-13.671084 -18.334172 -5.182917 23.450012 0.930078 1.793656 0.066741 -0.018069 303850.000000 0 1 0
-12.930284 -19.516672 -5.447017 24.036696 0.985666 1.799395 0.053896 -0.016181 -398994.000000 0 1 0
-11.630484 -19.195472 -5.867017 23.198194 1.026052 1.826481 0.052349 -0.020006 -302214.000000 0 1 0
-10.742284 -20.427572 -5.916317 23.826145 1.086666 1.821734 0.044829 -0.021744 -46472.800000 0 1 0
-11.163084 -21.234372 -6.936917 24.972662 1.086794 1.852279 0.033424 -0.018268 48339.400000 0 1 0
-10.000884 -21.884472 -7.452917 25.189160 1.142149 1.871171 0.038026 -0.005331 489655.000000 0 0 1
-10.265084 -23.240072 -8.279817 26.721308 1.154868 1.885840 0.021925 0.007907 -152480.000000 0 0 1
-10.787784 -22.990072 -9.572017 27.139330 1.132061 1.931250 0.026892 -0.000934 -16386.000000 0 0 1
-10.735884 -24.110272 -10.431117 28.379088 1.151872 1.947184 0.028582 0.004355 138221.000000 0 0 1
-11.386584 -23.665772 -11.778517 28.782921 1.122349 1.992394 0.042502 -0.000364 189946.000000 0 0 1
-10.579484 -22.727872 -12.540317 28.031076 1.135140 2.034621 0.040104 0.006487 544556.000000 0 0 1
-11.215584 -22.238472 -13.731317 28.440957 1.103689 2.074646 0.038647 0.003815 -88216.100000 0 0 1
-10.514184 -20.886472 -14.225517 27.370753 1.104435 2.117336 0.031111 0.009911 23972.700000 0 0 1
-10.561984 -19.786872 -13.312317 26.082439 1.080486 2.106439 0.042816 -0.000694 -406105.000000 0 0 1
-10.101084 -18.608872 -13.916617 25.337606 1.073490 2.152260 0.044144 0.009359 -244958.000000 0 0 1
-9.853684 -17.556172 -12.809817 23.862223 1.059345 2.137465 0.042795 0.000323 500779.000000 0 1 0
-10.997684 -17.099172 -12.041717 23.629086 0.999237 2.105533 0.046921 -0.013907 604922.000000 0 1 0
-10.775784 -15.946772 -11.271717 22.304006 0.976542 2.100604 0.056786 -0.022542 -69355.800000 0 1 0
-10.614884 -14.627772 -12.061417 21.728444 0.943051 2.159277 0.058849 -0.012321 463024.000000 0 1 0
-11.803684 -14.187272 -12.723917 22.416595 0.876851 2.174398 0.055111 0.004078 476185.000000 0 1 0
-11.548084 -13.837672 -14.034617 22.843159 0.875347 2.232409 0.050517 -0.000589 -515215.000000 0 1 0
-12.746084 -13.222472 -14.737817 23.547817 0.803741 2.247040 0.044506 0.006289 -552644.000000 0 1 0
-12.944484 -11.880772 -14.377417 22.702919 0.742576 2.256587 0.043796 0.005648 -17014.800000 0 1 0
-13.930184 -11.177872 -15.097317 23.386403 0.676215 2.272552 0.017411 0.004072 -705466.000000 0 1 0
-14.011184 -9.692072 -14.678717 22.488092 0.605160 2.281983 0.010784 -0.003914 -191458.000000 0 1 0
-12.834784 -8.939572 -14.797817 21.531907 0.608381 2.328494 0.019763 -0.000931 -161629.000000 0 1 0
-13.139284 -7.763972 -15.562917 21.797349 0.533700 2.365966 0.030965 -0.017133 193267.000000 0 1 0
-11.967184 -6.758272 -15.660517 20.836015 0.514085 2.421293 0.017351 -0.010185 103302.000000 0 1 0
-10.800184 -7.298872 -16.231917 20.818085 0.594306 2.464987 0.024153 -0.001882 -490432.000000 0 1 0
-9.668484 -6.722172 -15.660417 19.593771 0.607542 2.496851 0.009381 -0.001507 -320079.000000 0 1 0
11.374216 22.194928 16.041883 29.653492 1.097223 0.999197 0.028691 0.006753 -735161.000000 0 0 1
11.912116 21.944328 17.255683 30.351452 1.073472 0.966080 0.034449 -0.003540 -376193.000000 0 0 1
12.327016 20.573028 17.260483 29.548757 1.030978 0.946982 0.036264 -0.003226 -795497.000000 0 0 1
13.286816 20.334728 18.386583 30.464850 0.992031 0.922870 0.031083 -0.003278 -465673.000000 0 0 1
14.453916 21.083728 18.102983 31.323430 0.969835 0.954597 0.015990 0.001714 -456360.000000 0 0 1
15.568516 20.856428 18.902983 32.166629 0.929564 0.942635 0.027997 -0.002691 347054.000000 0 0 1
16.918816 21.375028 18.323183 32.846266 0.901246 0.979007 0.022522 -0.002350 -142213.000000 0 0 1
17.146816 22.788028 18.284083 33.876470 0.925730 1.000682 0.025361 -0.004984 377906.000000 0 0 1
18.413916 23.177328 17.765883 34.523722 0.899431 1.030256 0.023051 -0.003380 853485.000000 0 0 1
19.696416 22.971428 18.621983 35.530459 0.862004 1.019123 0.016802 -0.011300 79473.100000 0 0 1
20.133216 21.586328 18.625183 34.902913 0.820215 1.007911 0.023910 -0.001655 151288.000000 0 0 1
21.433116 21.513028 19.183383 35.919229 0.787259 1.007389 0.031396 -0.010540 -55513.700000 0 0 1
21.964616 20.050528 19.037783 35.311545 0.739873 1.001383 0.017878 -0.005374 -185084.000000 0 0 1
22.266416 19.708728 17.660183 34.584813 0.724540 1.034874 0.016988 -0.008847 -140390.000000 0 0 1
21.796416 18.467628 17.155583 33.323431 0.702912 1.029998 0.005455 -0.003699 17301.200000 0 0 1
22.571716 17.185928 17.622983 33.397724 0.650752 1.014941 -0.004865 -0.000321 842994.000000 0 0 1
23.903716 17.086228 17.106783 33.999542 0.620586 1.043559 -0.008096 -0.002762 94267.700000 0 0 1
24.607216 16.142328 17.826583 34.407512 0.580581 1.026167 -0.017524 -0.008006 1257820.000000 0 0 1
26.041416 15.886328 17.126783 34.983674 0.547770 1.059205 0.013761 -0.004451 801730.000000 0 0 1
26.781316 17.124328 16.996583 36.046710 0.568897 1.079788 0.009170 -0.008523 942448.000000 0 0 1
28.165616 17.022228 17.343083 37.200009 0.543621 1.085792 0.009003 -0.013164 1039150.000000 0 0 1
29.093516 16.047228 16.556683 37.122364 0.504051 1.108502 0.005078 -0.016975 -742994.000000 0 0 1
29.206116 16.305028 15.181883 36.733373 0.509174 1.144722 0.034475 -0.020664 -172560.000000 0 0 1
29.208616 15.053628 14.484183 35.910256 0.475878 1.155628 0.057827 -0.022888 136603.000000 0 0 1
28.553616 14.956128 13.096183 34.792309 0.482499 1.184878 0.030680 -0.003559 -184917.000000 0 0 1
29.270716 15.807628 12.222583 35.440760 0.495171 1.218692 0.023577 -0.001618 249006.000000 0 0 1
28.569916 16.268828 11.057883 34.687053 0.517645 1.246344 0.009572 0.004679 518165.000000 0 0 1
27.360816 17.235028 11.340683 34.267645 0.562127 1.233492 0.003847 0.003026 143207.000000 0 0 1
27.629516 18.589128 11.720083 35.303062 0.592236 1.232389 -0.003738 -0.000347 93167.200000 0 0 1
28.142716 18.852328 13.030383 36.293437 0.590226 1.203569 0.014608 0.002252 -242503.000000 0 0 1
27.161516 18.714928 14.215883 35.917792 0.603321 1.163869 0.000861 0.005167 135197.000000 0 0 1
26.006116 19.542728 14.095383 35.453012 0.644439 1.161919 0.002513 0.007937 931026.000000 0 0 1
25.106416 19.486128 15.230883 35.242320 0.660023 1.123892 0.001607 0.004120 356685.000000 0 0 1
25.642416 20.190728 16.508083 36.574797 0.667008 1.102517 0.014997 -0.006997 -324483.000000 0 0 1
25.493516 21.618228 16.478183 37.266575 0.703326 1.112779 0.011628 -0.005241 -339225.000000 0 0 1
24.236816 22.124628 16.837683 36.884007 0.739870 1.096735 0.015212 -0.005570 -534743.000000 0 0 1
24.028616 23.610728 16.611383 37.560337 0.776626 1.112681 0.020749 -0.002292 -69755.700000 0 0 1
23.951716 23.980028 15.253983 37.167330 0.785989 1.147889 0.027079 -0.008454 129733.000000 0 0 1
24.301016 25.346728 15.175683 38.253070 0.806458 1.162858 0.032480 -0.007477 -510603.000000 0 0 1
24.082916 25.916728 13.741383 37.953777 0.822058 1.200324 0.020788 0.002414 -997253.000000 0 0 1
22.765116 26.003028 13.323583 37.039517 0.851695 1.202836 0.030192 0.003078 -895142.000000 0 0 1
22.609016 26.178728 11.956183 36.598411 0.858436 1.238001 0.025274 -0.002284 -142282.000000 0 0 1
22.144816 24.920528 11.181083 35.163080 0.844306 1.247200 0.039149 -0.005049 -357727.000000 0 0 1
20.762216 24.674128 11.306283 34.171834 0.871283 1.233576 0.036747 -0.002829 -108631.000000 0 0 1
20.341316 23.395328 10.811083 32.832758 0.855112 1.235258 0.038543 0.005655 77509.600000 0 0 1
20.194516 23.275328 9.292083 32.185434 0.856152 1.277923 0.044894 0.005473 -168300.000000 0 0 1
19.061916 23.915528 8.734583 31.805692 0.897856 1.292598 0.052520 0.003249 200266.000000 0 0 1
19.296216 24.206428 7.360283 31.819316 0.897794 1.337367 0.051965 -0.008540 -94089.400000 0 0 1
17.994516 24.371628 6.559983 30.996971 0.934800 1.357551 0.038087 -0.005032 -788241.000000 0 0 1
17.186516 23.217628 6.462083 29.600559 0.933574 1.350714 0.063267 -0.002158 224304.000000 0 0 1
16.617416 23.143728 5.164683 28.955908 0.948085 1.391473 0.077405 -0.014409 497730.000000 0 0 1
15.272816 23.930428 4.913883 28.810944 1.002749 1.399402 0.063465 -0.015782 212893.000000 0 0 1
15.459416 25.302328 4.788783 30.035542 1.022337 1.410676 0.084413 -0.021494 569281.000000 0 0 1
14.331616 25.995228 5.336383 30.159974 1.066942 1.392924 0.066724 -0.019885 222919.000000 0 0 1
14.298116 27.451828 4.964883 31.347871 1.090613 1.411746 0.055230 -0.022624 -390244.000000 0 0 1
13.919916 27.639928 3.609083 31.156944 1.104260 1.454700 0.055508 -0.021219 358428.000000 0 0 1
13.764916 28.969728 3.241083 32.236976 1.127227 1.470087 0.046192 -0.019835 -30602.700000 0 0 1
13.214416 29.065328 1.752383 31.976318 1.144086 1.515966 0.061922 -0.018708 -463277.000000 0 0 1
14.132116 28.685128 0.799283 31.987374 1.113035 1.545806 0.079428 -0.018146 -532031.000000 0 0 1
14.305316 27.271428 0.657183 30.802674 1.087700 1.549459 0.069456 -0.015176 404455.000000 0 0 1
15.313616 27.030428 -0.541717 31.071600 1.055349 1.588232 0.077849 -0.018756 647068.000000 0 0 1
14.811416 27.345928 -1.842017 31.153986 1.074401 1.629957 0.069991 -0.018508 333292.000000 0 0 1
15.811616 27.025928 -2.833317 31.439396 1.041439 1.661039 0.063601 -0.015625 619731.000000 0 0 1
15.372816 27.498528 -4.273217 31.792340 1.061038 1.705615 0.066743 -0.018771 -629708.000000 0 0 1
14.341016 26.697928 -4.739717 30.674240 1.077866 1.725936 0.068931 -0.025789 -974057.000000 0 0 1
14.026316 27.176828 -6.055517 31.176703 1.094342 1.766271 0.052403 -0.013811 -51988.300000 0 0 1
12.690016 26.631328 -6.555217 30.219778 1.126119 1.789453 0.038933 -0.022853 -358203.000000 0 0 1
12.743916 25.349428 -7.102517 29.248019 1.104967 1.816086 0.052567 -0.022733 395849.000000 0 0 1
11.466816 24.997028 -7.656917 28.547638 1.140709 1.842336 0.043210 -0.007223 603317.000000 0 0 1
11.435116 23.630428 -8.342117 27.545415 1.120099 1.878478 0.036970 -0.009568 -6786.810000 0 0 1
12.120616 23.530328 -9.570217 28.145598 1.095137 1.917740 0.032199 -0.003370 -164562.000000 0 0 1
11.626116 22.478828 -10.390117 27.357244 1.093481 1.960370 0.028713 0.007989 95930.800000 0 0 1
12.059116 22.290528 -11.879717 27.989598 1.074891 2.009132 0.020852 0.012583 81002.800000 0 0 1
11.618616 20.986128 -12.280717 26.948577 1.065168 2.043965 0.021014 0.015626 -38165.800000 0 0 1
11.926816 20.633928 -13.628417 27.454356 1.046696 2.090246 0.024348 0.015366 39330.400000 0 0 1
13.278816 20.028528 -14.058517 27.840811 0.985340 2.100133 0.016413 0.009464 -136971.000000 0 0 1
14.380116 20.837928 -13.792217 28.831098 0.966750 2.069605 0.016757 0.008665 -442699.000000 0 0 1
15.599616 20.285128 -14.273117 29.301131 0.915235 2.079583 0.030211 0.011199 735088.000000 0 0 1
16.835916 21.157228 -13.918617 30.410594 0.898651 2.046191 0.021651 0.015880 -22527.600000 0 0 1
16.967616 22.452428 -14.486417 31.652295 0.923648 2.046173 0.019581 0.009467 -11797.300000 0 0 1
15.905516 23.394128 -14.265517 31.682418 0.973692 2.037860 0.021170 0.009113 298096.000000 0 0 1
16.246216 24.774528 -14.867117 33.147367 0.990381 2.035900 0.011938 0.004306 102661.000000 0 0 1
16.422316 24.857728 -16.282217 33.951578 0.986969 2.070963 0.012833 -0.001188 -64028.800000 0 0 1
15.169316 24.930628 -16.943917 33.745232 1.024179 2.096837 0.022735 0.000162 100264.000000 0 0 1
15.171616 25.106428 -18.483417 34.671997 1.027227 2.133049 0.022750 0.004112 14192.000000 0 0 1
15.693716 23.957628 -19.080317 34.413938 0.990871 2.158481 0.020911 0.003264 -184724.000000 0 0 1
15.600816 23.918728 -20.485117 35.144431 0.992846 2.193069 0.023176 0.009569 -285165.000000 0 0 1
16.003516 22.659928 -21.274117 34.959590 0.955890 2.225009 0.025427 0.017384 121542.000000 0 0 1
15.087216 21.574728 -21.226617 33.818075 0.960540 2.249354 0.040148 0.013145 187632.000000 0 0 1
15.633516 20.494528 -21.951117 33.856817 0.919144 2.276213 0.031100 0.017280 397694.000000 0 0 1
14.607016 19.318528 -22.100517 32.787243 0.923394 2.310486 0.038911 0.010290 -53626.200000 0 0 1
14.311216 18.616428 -20.902117 31.436933 0.915408 2.298143 0.035373 0.001697 -118952.000000 0 0 1
13.603916 17.423528 -20.992217 30.484734 0.907886 2.330372 0.037073 -0.008616 422825.000000 0 0 1
12.093716 17.483128 -21.402717 30.166107 0.965638 2.359578 0.032088 -0.009395 -177458.000000 0 0 1
11.261216 17.812728 -20.342017 29.290031 1.007036 2.338525 0.013982 -0.006843 -581487.000000 0 0 1
9.920916 17.800728 -20.783817 29.107689 1.062341 2.366037 0.017867 -0.003957 -10182.500000 0 0 1
8.943316 17.578628 -19.606217 27.809977 1.100165 2.353229 0.007348 -0.009757 -328262.000000 0 0 1
8.731916 16.224128 -19.242017 26.640644 1.077053 2.377890 0.002345 -0.015844 329643.000000 0 0 1
7.384616 15.818128 -18.999117 25.801399 1.134023 2.398471 0.008159 -0.001177 450030.000000 0 0 1
7.105816 15.530428 -17.507817 24.458341 1.141689 2.368597 0.004257 -0.010633 -1356.550000 0 1 0
7.176216 16.759928 -16.820517 24.805706 1.166238 2.315958 0.002758 -0.012994 -268723.000000 0 1 0
6.623516 16.703628 -15.525517 23.747080 1.193284 2.283374 0.002214 -0.021231 -61744.800000 0 1 0
6.128716 18.101828 -15.083617 24.346516 1.244341 2.238952 0.003290 -0.009641 -475380.000000 0 1 0
7.070016 19.110328 -14.892717 25.238518 1.216453 2.201953 0.004017 -0.008688 -670494.000000 0 0 1
7.309916 19.924228 -16.034517 26.599163 1.219158 2.217828 0.013321 -0.001678 -588486.000000 0 0 1
8.366316 21.014228 -15.931217 27.665804 1.191906 2.184434 0.015420 0.008165 -344896.000000 0 0 1
8.174516 22.142628 -15.079317 28.009007 1.217142 2.139303 0.005054 0.006178 -221693.000000 0 0 1
8.152216 21.954328 -13.688517 27.126124 1.215250 2.099744 -0.007656 0.005182 -115933.000000 0 0 1
8.048216 23.196528 -12.803117 27.690657 1.236834 2.051454 0.009022 0.006498 -276290.000000 0 0 1
6.884916 23.957828 -13.031217 28.128139 1.290961 2.052490 0.013274 0.001253 -252365.000000 0 0 1
6.598216 24.997028 -12.116817 28.551797 1.312723 2.009074 0.003840 0.005464 175341.000000 0 0 1
5.999716 24.583728 -10.717617 27.481331 1.331423 1.971424 -0.008357 -0.004011 -505065.000000 0 0 1
6.934216 24.277728 -9.735717 27.060591 1.292583 1.938823 -0.010048 -0.006403 -268941.000000 0 0 1
6.307816 23.538128 -8.693817 25.873045 1.308965 1.913483 -0.015999 -0.008723 39353.400000 0 0 1
7.153716 23.470128 -7.410317 25.630750 1.274941 1.864102 -0.017766 -0.012157 -15160.900000 0 0 1
7.363216 24.760628 -6.878017 26.732242 1.281749 1.831016 -0.013079 -0.017452 274856.000000 0 0 1
8.147916 24.699428 -5.678017 26.621235 1.252154 1.785737 0.000798 -0.015413 152212.000000 0 0 1
8.435916 26.082828 -5.031317 27.871002 1.257987 1.752313 0.003081 -0.014502 952116.000000 0 0 1
9.414216 26.820228 -5.850217 29.020288 1.233220 1.773778 0.011244 -0.011693 760887.000000 0 0 1
9.446716 28.156228 -5.339317 30.174856 1.247087 1.748679 0.020028 -0.019000 9545.290000 0 0 1
9.516216 29.093228 -6.566717 31.306486 1.254672 1.782122 0.018211 -0.012510 172217.000000 0 0 1
10.712416 29.098828 -7.331217 31.862900 1.218054 1.802963 0.019696 -0.014661 -84985.300000 0 0 1
10.839016 30.182128 -8.217317 33.105429 1.226020 1.821635 0.020478 -0.003975 -266285.000000 0 0 1
12.239216 30.315128 -8.823117 33.862262 1.187076 1.834397 0.030493 -0.007239 202169.000000 0 0 1
13.257516 30.587828 -7.854617 34.250138 1.161812 1.802187 0.032806 -0.007327 -10768.700000 0 0 1
14.365716 31.164928 -8.541817 35.363670 1.138867 1.814751 0.032608 -0.010544 -56863.100000 0 0 1
15.541616 31.439928 -7.623217 35.890449 1.111697 1.784829 0.033923 -0.006045 -366996.000000 0 0 1
16.327616 30.340228 -7.180917 35.194972 1.077096 1.776272 0.039543 -0.009178 -138051.000000 0 0 1
17.310816 30.742628 -6.251917 35.830992 1.057960 1.746178 0.031853 -0.004605 -776874.000000 0 0 1
18.488016 29.855628 -6.123817 35.646408 1.016345 1.743446 0.035581 -0.004930 -1066350.000000 0 0 1
18.096016 28.663628 -5.427617 34.329701 1.007663 1.729565 0.057110 -0.015011 -477547.000000 0 0 1
19.206416 27.946328 -5.017417 34.279121 0.968671 1.717694 0.049052 -0.009723 -598616.000000 0 0 1
19.492216 26.635128 -5.853217 33.520690 0.939030 1.746311 0.049401 0.004803 -196415.000000 0 0 1
19.784016 26.905728 -7.198717 34.163533 0.936764 1.783101 0.031556 0.007606 279082.000000 0 0 1
19.574816 25.775228 -8.038617 33.348990 0.921279 1.814239 0.026568 0.003771 -857575.000000 0 0 1
20.019116 25.989128 -9.498817 34.152998 0.914437 1.852638 0.021046 0.000396 1495930.000000 0 0 1
21.435716 26.193528 -9.781117 35.231535 0.884961 1.852116 0.008114 0.001242 1103010.000000 0 0 1
22.194816 25.046128 -9.622317 34.821076 0.845682 1.850776 0.009554 0.000512 -601425.000000 0 0 1
23.719616 25.317328 -9.644917 36.008495 0.817968 1.841958 -0.008162 0.003964 123762.000000 0 0 1
24.261316 25.510628 -10.920517 36.860023 0.810494 1.871581 -0.009770 0.006743 -458843.000000 0 0 1
25.657616 25.553728 -10.778517 37.782042 0.783370 1.860096 -0.015191 0.011431 -398305.000000 0 0 1
26.450916 25.807128 -12.052917 38.870704 0.773079 1.886071 -0.008511 0.006649 -314672.000000 0 0 1
26.314616 26.989728 -12.770017 39.799218 0.798063 1.897435 -0.014244 0.006551 -173153.000000 0 0 1
27.242016 27.061528 -13.837017 40.815643 0.782074 1.916663 -0.009413 0.004950 142394.000000 0 0 1
26.981316 28.254328 -14.795417 41.775625 0.808441 1.932816 -0.000980 0.004437 14014.600000 0 0 1
27.352616 29.525628 -14.331417 42.723738 0.823584 1.912873 -0.010144 0.004425 -38890.700000 0 0 1
27.124516 30.479928 -15.378517 43.603488 0.843582 1.931241 -0.003335 0.008497 -19579.200000 0 0 1
27.402816 31.999728 -15.081717 44.747682 0.862630 1.914567 -0.009960 0.003501 1173370.000000 0 0 1
28.781716 32.259228 -14.716017 45.668437 0.842307 1.898887 -0.008417 -0.001197 1032360.000000 0 0 1
29.024516 33.609728 -14.793917 46.807011 0.858474 1.892372 -0.009886 -0.005552 -191877.000000 0 0 1
14.612716 -32.644097 -28.718781 45.868692 -1.149909 2.247349 0.057089 -0.016088 -133407.000000 0 0 1
15.807816 -33.062197 -28.096231 46.177853 -1.124803 2.224884 0.038313 -0.006913 236456.000000 0 0 1
16.118816 -32.106397 -27.064691 44.979267 -1.105515 2.216443 0.040835 -0.005027 -1019660.000000 0 0 1
17.343716 -32.471197 -26.270371 45.225164 -1.080222 2.190605 0.010254 0.002194 -1112690.000000 0 0 1
18.614316 -32.135497 -26.717291 45.749279 -1.045778 2.194436 0.007738 -0.005386 -358007.000000 0 0 1
19.172516 -33.082997 -27.631281 47.175817 -1.045566 2.196550 0.009245 -0.005482 712447.000000 0 0 1
20.732016 -32.869897 -27.801771 47.782686 -1.008087 2.191783 0.035330 0.003318 1013300.000000 0 0 1
21.059616 -31.751497 -28.607471 47.645066 -0.985153 2.214834 0.033722 -0.011800 -388332.000000 0 0 1
22.344816 -31.303497 -28.294171 47.746830 -0.950860 2.205064 0.020715 0.000715 -535297.000000 0 0 1
22.861716 -30.046797 -29.053621 47.640119 -0.920374 2.226675 0.006623 0.005390 -54217.000000 0 0 1
23.155516 -30.287897 -30.402421 48.763119 -0.918071 2.243971 0.000203 0.002352 -60540.000000 0 0 1
23.707416 -29.212297 -31.136801 48.835440 -0.889049 2.262157 -0.000291 -0.009714 183240.000000 0 0 1
23.909416 -29.582997 -32.586691 50.086987 -0.891066 2.279173 0.010190 0.002685 -650230.000000 0 0 1
25.060016 -30.296597 -32.835451 51.225531 -0.879715 2.266594 0.023324 -0.018695 -982610.000000 0 0 1
25.060816 -30.861597 -34.115321 52.386427 -0.888758 2.279993 0.024408 -0.020706 -530229.000000 0 0 1
26.372416 -31.532297 34.441572 53.628462 -0.874273 0.873398 0.018033 -0.028239 37352.100000 0 0 1
27.463116 -30.617497 34.331699 53.575362 -0.839655 0.875242 0.029255 -0.035351 -177644.000000 0 0 1
28.673116 -31.240197 33.999140 54.351072 -0.828219 0.894964 0.030052 -0.024310 -577464.000000 0 0 1
29.843016 -30.293197 34.128409 54.525514 -0.792884 0.894490 0.036469 -0.033820 -542679.000000 0 0 1
29.849916 -29.355997 33.079133 53.357484 -0.777056 0.902114 0.039662 -0.030878 26382.300000 0 0 1
31.091816 -28.689797 33.023042 53.668676 -0.745240 0.908013 0.040733 -0.030652 72232.300000 0 0 1
31.159816 -27.731897 31.870123 52.494733 -0.727257 0.918377 0.041157 -0.030426 12839.800000 0 0 1
32.480516 -27.200797 31.775703 52.958121 -0.697163 0.927276 0.026487 -0.025754 572789.000000 0 0 1
32.691816 -26.273597 30.728603 51.993305 -0.676978 0.938485 0.049352 -0.026374 -261681.000000 0 0 1
33.305116 -27.024697 29.459523 52.032956 -0.681670 0.968944 0.033362 -0.022016 -587956.000000 0 0 1
32.572016 -28.028697 28.797653 51.728608 -0.710567 0.980380 0.039375 -0.024461 131228.000000 0 0 1
31.450916 -27.513697 28.097253 50.354933 -0.718725 0.978842 0.041900 -0.024563 -379992.000000 0 0 1
30.797916 -28.655897 27.300593 50.149720 -0.749385 0.995144 0.025496 -0.015604 -386598.000000 0 0 1
29.626316 -28.200497 26.678643 48.833765 -0.760746 0.992837 0.027457 -0.004787 -118289.000000 0 0 1
28.986816 -29.243997 25.960803 48.676587 -0.789815 1.008261 0.008537 0.004926 543240.000000 0 0 1
27.562816 -28.901897 25.419513 47.341104 -0.809109 1.003986 0.018069 0.008805 1103950.000000 0 0 1
26.532616 -28.716997 26.402643 47.177804 -0.824914 0.976844 0.028081 0.007679 396587.000000 0 0 1
25.281316 -28.441197 25.818103 45.985009 -0.844149 0.974664 0.023234 0.021337 -292442.000000 0 0 1
24.138716 -28.222097 26.777113 45.784038 -0.863226 0.946093 0.025325 0.018289 -465106.000000 0 0 1
24.137116 -26.949597 27.416343 45.393138 -0.840396 0.922317 0.023508 0.006548 15234.900000 0 0 1
22.878516 -26.697897 27.994013 44.942952 -0.862287 0.898379 0.029899 -0.001719 -170815.000000 0 0 1
22.690216 -25.411897 28.875563 44.658801 -0.841919 0.867701 0.016989 0.011845 -130364.000000 0 0 1
21.346616 -25.273697 29.308493 44.197574 -0.869435 0.845811 0.017273 0.013460 400877.000000 0 0 1
21.324016 -24.194897 30.237423 44.208692 -0.848385 0.817605 0.018470 0.021439 -113759.000000 0 0 1
20.986916 -22.794597 29.646203 42.882883 -0.826663 0.807469 0.028571 0.018478 -356228.000000 0 0 1
21.965216 -22.285897 28.743903 42.489338 -0.792645 0.827801 0.027572 0.013531 404975.000000 0 0 1
21.808316 -20.885597 28.523013 41.537610 -0.763789 0.813885 0.037344 0.015573 103596.000000 0 0 1
22.587916 -20.055797 29.626633 42.310593 -0.726089 0.795094 0.039063 0.007388 53990.300000 0 0 1
22.013916 -19.862997 30.941653 42.854837 -0.734080 0.764092 0.040685 0.011959 216063.000000 0 0 1
22.900416 -19.161097 31.787393 43.612097 -0.696730 0.754132 0.035089 -0.004932 -83911.500000 0 0 1
22.324616 -18.929097 33.218499 44.273783 -0.703275 0.722285 0.047423 -0.002957 54532.600000 0 0 1
22.522816 -20.033897 34.048534 45.474574 -0.726980 0.724640 0.031356 -0.000557 358715.000000 0 0 1
21.875916 -19.675497 -33.663701 44.709346 -0.732491 2.423323 0.028938 -0.003555 -2938.920000 0 0 1
21.793816 -20.761597 -32.551531 44.335274 -0.761147 2.395303 0.010954 0.004997 -64884.100000 0 0 1
23.028316 -21.184697 -32.009261 44.762568 -0.743724 2.367549 0.009052 0.001787 -118669.000000 0 0 1
22.812116 -22.170697 -31.011971 44.426060 -0.771140 2.343478 0.003158 0.001615 692006.000000 0 0 1
24.081516 -22.675697 -30.211371 44.797696 -0.755341 2.310942 0.001702 0.007346 1384250.000000 0 0 1
25.042216 -23.405897 -31.014111 46.225790 -0.751636 2.306254 0.003898 0.011325 352302.000000 0 0 1
25.991716 -24.173397 -30.305051 46.672460 -0.749167 2.277478 0.005530 -0.002921 254946.000000 0 0 1
26.923516 -24.963497 -31.271601 48.228258 -0.747641 2.276288 0.001164 -0.008063 838658.000000 0 0 1
27.936316 -24.163897 -31.970511 48.851256 -0.713117 2.284246 0.004981 -0.004346 931295.000000 0 0 1
27.611716 -23.935797 -33.313281 49.447992 -0.714207 2.310005 0.007855 0.004121 -84056.500000 0 0 1
27.679916 -25.194197 -34.274846 50.751260 -0.738421 2.312235 0.021570 0.004242 387321.000000 0 0 1
26.649516 -26.170397 -34.023281 50.523955 -0.776328 2.309607 0.024166 -0.007658 51956.800000 0 0 1
26.912816 -27.407597 34.318453 51.509535 -0.794506 0.841622 0.038109 -0.018667 -81034.200000 0 0 1
26.898416 -27.534897 32.736783 50.531102 -0.797090 0.866032 0.035606 -0.023680 21250.100000 0 0 1
27.836716 -26.800797 31.969273 50.151768 -0.766441 0.879611 0.024839 -0.032347 30823.800000 0 0 1
27.616216 -26.963197 30.577653 49.240859 -0.773434 0.900802 0.026685 -0.019263 -319955.000000 0 0 1
28.562616 -26.094897 29.711713 48.780657 -0.740280 0.915886 0.036919 -0.023062 -370677.000000 0 0 1
28.564216 -24.680897 29.774863 48.079138 -0.712594 0.902960 0.031895 -0.029392 -47003.500000 0 0 1
28.964216 -24.106497 30.985013 48.786474 -0.694120 0.882639 0.027185 -0.021215 -1564690.000000 0 0 1
29.483816 -22.677697 30.967473 48.399976 -0.655650 0.876527 0.014645 -0.009458 -766185.000000 0 0 1
30.772816 -22.367897 30.591413 48.817246 -0.628534 0.893547 0.023292 -0.018567 -780347.000000 0 0 1
31.747116 -22.929297 31.469373 50.238963 -0.625502 0.893878 0.018770 -0.013133 -54444.200000 0 0 1
33.190816 -22.406797 31.091103 50.698634 -0.593812 0.910624 0.013654 -0.014175 678499.000000 0 0 1
33.607516 -22.767297 29.776633 50.343448 -0.595429 0.937916 0.019645 -0.020447 114851.000000 0 0 1
34.932316 -22.347397 29.558593 50.925271 -0.569125 0.951539 0.004321 -0.018813 73258.500000 0 0 1
-35.218160 -22.617397 28.145733 50.438554 0.570878 0.978798 0.015815 -0.017375 -50906.100000 0 0 1
-34.873860 -23.930097 27.868313 50.650553 0.601397 0.988184 0.010785 -0.012286 119961.000000 0 0 1
-34.425560 -24.095097 26.540983 49.700268 0.610671 1.007447 0.002259 -0.003228 -412497.000000 0 0 1
-34.327760 -25.590697 26.160433 50.176161 0.640603 1.022339 0.002222 -0.011715 -201036.000000 0 0 1
35.224416 -26.268797 26.367983 51.245289 -0.640779 1.030320 0.013521 -0.012141 75381.200000 0 0 1
35.201416 -27.610897 26.010363 51.749785 -0.665137 1.044172 0.017764 -0.003066 -21112.800000 0 0 1
-34.815160 -28.557797 26.954173 52.480192 0.686978 1.031413 0.015229 -0.008320 -579759.000000 0 0 1
-34.719460 -29.917097 26.462643 52.922066 0.711236 1.047162 0.025338 -0.007658 846294.000000 0 0 1
-33.631460 -30.779597 26.865253 52.916921 0.741151 1.038298 0.029112 -0.011457 903657.000000 0 0 1
-32.166560 -30.299197 26.708753 51.634159 0.755513 1.027139 0.037305 -0.013587 -412931.000000 0 0 1
-31.783360 -30.239897 25.370523 50.678366 0.760518 1.046483 0.030629 -0.010280 49258.400000 0 0 1
-30.503860 -29.654697 25.247793 49.470573 0.771284 1.035193 0.024881 -0.010260 143726.000000 0 0 1
-29.883660 -29.554897 23.794183 48.297911 0.779867 1.055659 0.023314 -0.011262 9859.490000 0 0 1
-29.661360 -30.833097 23.235383 48.686335 0.804765 1.073278 0.030109 -0.012136 411160.000000 0 0 1
-29.259060 -30.712697 21.906383 47.741512 0.809632 1.094091 0.025068 -0.012998 -701587.000000 0 0 1
-29.280560 -32.106597 21.215283 48.355692 0.831402 1.116607 0.023969 -0.010669 323923.000000 0 0 1
-28.367460 -33.107597 21.685983 48.694020 0.862353 1.109229 0.027852 -0.016250 996107.000000 0 0 1
-26.976460 -32.816297 21.505883 47.614512 0.882757 1.102164 0.034018 -0.011065 359314.000000 0 0 1
-26.076360 -34.068197 21.500883 47.988609 0.917501 1.106223 0.028701 -0.000308 -386216.000000 0 0 1
-26.201660 34.219128 20.325983 47.651037 -0.917321 1.130111 0.015699 -0.003917 448018.000000 0 0 1
-27.383460 33.440428 20.098383 47.666142 -0.884653 1.135533 0.018099 -0.004498 416939.000000 0 0 1
-27.621960 32.300428 21.119583 47.458688 -0.863316 1.109611 0.014634 -0.000065 -242674.000000 0 0 1
-26.728460 31.220128 21.017683 46.161130 -0.862755 1.098075 0.003601 0.000503 -7301.530000 0 0 1
-27.027260 30.131328 21.924083 46.032979 -0.839651 1.074390 0.006500 -0.002023 543438.000000 0 0 1
-25.962160 28.996528 21.673783 44.548684 -0.840554 1.062695 0.003362 0.001462 1210110.000000 0 0 1
-24.599860 29.417028 21.810683 44.115990 -0.874342 1.053659 0.006341 0.003133 840204.000000 0 0 1
-23.723860 28.333528 21.478983 42.742918 -0.873718 1.044290 0.001457 -0.005770 -535625.000000 0 0 1
-22.236260 28.578428 21.559483 42.142486 -0.909566 1.033767 -0.007376 0.003932 -768655.000000 0 0 1
-21.732260 28.648328 22.893983 42.628069 -0.921822 1.003844 -0.001766 0.009023 -222843.000000 0 0 1
-20.425860 29.135628 22.914183 42.322102 -0.959358 0.998667 0.024924 0.006408 -515206.000000 0 0 1
-19.840060 29.147828 24.369683 42.861466 -0.973161 0.966032 0.026244 0.003136 -427830.000000 0 0 1
-19.519860 27.898728 24.853263 42.155055 -0.960293 0.940273 0.029072 -0.007733 245303.000000 0 0 1
-19.283460 27.957528 26.301053 42.956031 -0.966989 0.911857 0.033393 -0.005219 4098.070000 0 0 1
-17.877960 28.305828 26.855323 42.919107 -1.007465 0.894743 0.041928 -0.002341 -300482.000000 0 0 1
-17.460160 29.652128 26.593853 43.489526 -1.038628 0.912841 0.030199 -0.000058 240607.000000 0 0 1
-16.113960 29.964728 26.897983 43.371028 -1.077396 0.901820 0.017685 0.008412 93388.300000 0 0 1
-15.840760 30.400928 28.339163 44.477570 -1.090442 0.879993 0.012762 0.018060 -325173.000000 0 0 1
-16.126560 29.318228 29.220943 44.423957 -1.067913 0.852936 0.017217 0.020245 170476.000000 0 0 1
-15.896760 29.623928 30.579313 45.446435 -1.078285 0.832722 0.012357 0.012590 -287736.000000 0 0 1
-16.046060 28.372628 31.437943 45.286050 -1.056095 0.803477 0.002875 0.018718 -237022.000000 0 0 1
-14.911660 27.537728 31.510373 44.425079 -1.074503 0.782302 0.009891 0.020594 -86719.800000 0 0 1
-14.899160 26.419228 32.414153 44.391867 -1.057305 0.752208 0.015927 0.019238 -123831.000000 0 0 1
-15.145960 26.677428 33.960150 45.764365 -1.054432 0.734650 0.011770 0.022193 134184.000000 0 0 1
-16.528060 26.757028 34.245350 46.495799 -1.017457 0.742877 0.007143 0.017884 -162114.000000 0 0 1
-16.698060 27.220828 -33.340911 46.167251 -1.020561 2.377740 0.002634 0.013010 -1343610.000000 0 0 1
-17.926760 26.615028 -32.797041 45.884358 -0.978038 2.367100 -0.009168 0.011243 -822086.000000 0 0 1
-19.068260 26.888428 -33.614481 47.079926 -0.953948 2.365973 -0.005018 0.011442 -490653.000000 0 0 1
-20.251860 26.505128 -33.007671 46.927241 -0.918349 2.350937 0.018448 0.002975 -645116.000000 0 0 1
-21.441660 26.598528 -34.022431 48.215685 -0.892334 2.354108 0.045552 -0.006312 -156697.000000 0 0 1
-21.496760 25.687328 33.821053 47.600558 -0.873979 0.780562 0.041774 -0.004474 124473.000000 0 0 1
-21.791360 24.332328 34.259485 47.335376 -0.840433 0.761560 0.033793 -0.007491 -272027.000000 0 0 1
-22.044960 23.272728 33.201186 46.151044 -0.812484 0.767854 0.020091 0.001244 994571.000000 0 0 1
-23.414860 23.217928 32.704533 46.442592 -0.781175 0.789511 0.025735 -0.014464 1142280.000000 0 0 1
-23.389660 22.844528 31.371213 45.311165 -0.773608 0.806055 0.024648 -0.005827 498893.000000 0 0 1
-24.758960 22.548328 30.678613 45.415972 -0.738703 0.829150 0.014017 -0.001263 519463.000000 0 0 1
-25.156660 21.271328 31.113853 45.314443 -0.701908 0.813965 0.022448 -0.006175 -398406.000000 0 0 1
-26.339960 20.834128 30.502603 45.368085 -0.669211 0.833436 0.028044 -0.006542 -267953.000000 0 0 1
-26.772960 19.392928 30.970713 45.299692 -0.626880 0.817996 0.051110 -0.011585 -355651.000000 0 0 1
-27.568460 19.365028 32.154703 46.571979 -0.612358 0.808713 0.045932 -0.011824 169779.000000 0 0 1
-27.769460 18.109828 32.826823 46.655215 -0.577885 0.790339 0.046408 -0.007235 158846.000000 0 0 1
-28.568960 17.022328 31.998133 46.150034 -0.537350 0.804669 0.033778 -0.007721 1661150.000000 0 0 1
-29.988260 17.308728 31.819693 47.025319 -0.523474 0.827593 0.020618 -0.006820 989707.000000 0 0 1
-30.757260 16.174828 31.719783 47.050810 -0.484142 0.830969 0.027576 -0.004112 -107152.000000 0 0 1
-32.271260 16.510028 31.663203 48.130798 -0.472886 0.852826 0.027842 -0.005679 222106.000000 0 0 1
-32.748160 17.007828 32.923636 49.453756 -0.479009 0.842303 0.030384 -0.003330 -570735.000000 0 0 1
-34.127760 16.981328 33.023290 50.434187 -0.461711 0.856905 0.039422 -0.012350 -897813.000000 0 0 1
-34.598660 17.372928 34.459849 51.830176 -0.465348 0.843489 0.039465 -0.002857 409257.000000 0 0 1
34.759616 17.532528 -34.447684 51.983299 0.467156 2.295172 0.030661 -0.010424 229049.000000 0 0 1
34.408716 17.949228 -33.166751 51.050640 0.480815 2.277964 0.015150 -0.014301 -232410.000000 0 0 1
32.906216 18.174528 -32.978841 50.007364 0.504617 2.290923 0.023627 -0.019007 123418.000000 0 0 1
32.171516 16.923328 -33.055151 49.132967 0.484258 2.308742 0.027214 -0.013020 817924.000000 0 0 1
30.893616 17.050528 -32.414791 47.915078 0.504309 2.313803 0.019128 -0.014250 493586.000000 0 0 1
30.000816 15.805828 -32.548711 47.003103 0.484894 2.335717 0.006379 -0.006515 -196712.000000 0 0 1
29.649716 15.578528 -33.935551 47.680371 0.483776 2.362754 0.014993 -0.014216 6064.890000 0 0 1
28.876316 14.422928 -34.133589 46.978339 0.463226 2.384130 0.012786 -0.013928 -118200.000000 0 0 1
29.748916 13.162928 -34.387479 47.336660 0.416572 2.383931 0.011897 -0.008995 90309.500000 0 0 1
30.333416 12.626528 -33.198891 46.708797 0.394443 2.361379 0.017191 -0.002984 363930.000000 0 0 1
31.192016 11.561628 -33.625951 47.300293 0.354960 2.361579 0.030970 -0.003104 -12442.500000 0 0 1
17.838616 -21.433072 9.327909 29.404127 -0.876672 1.247988 0.003317 -0.001977 -53370.600000 0 0 1
17.387316 -22.491972 10.138509 30.182726 -0.912709 1.228231 -0.014937 -0.007097 -339149.000000 0 0 1
18.401216 -23.388372 10.479009 31.550441 -0.904176 1.232230 0.000194 -0.010105 -364102.000000 0 0 1
17.947216 -24.547772 11.404209 32.476941 -0.939492 1.212000 0.007461 -0.009540 32661.100000 0 0 1
17.181016 -25.559662 10.790909 32.633225 -0.978978 1.233780 0.004892 -0.012647 -546319.000000 0 0 1
15.962916 -25.820782 11.421809 32.434321 -1.017088 1.210927 0.015515 -0.012423 -22434.400000 0 0 1
15.150516 -26.877502 10.566409 32.612686 -1.057505 1.240845 0.048828 -0.003715 133341.000000 0 0 1
14.706116 -26.287522 9.388609 31.550747 -1.060740 1.268648 0.040596 -0.010651 -189816.000000 0 0 1
13.920516 -27.177412 8.643409 31.734855 -1.097429 1.294948 0.048362 0.001378 -117771.000000 0 0 1
13.622516 -26.545032 7.290709 30.714266 -1.096656 1.331137 0.047849 -0.005451 -606594.000000 0 0 1
12.812116 -25.444392 7.333909 29.416894 -1.104326 1.318829 0.053993 -0.014422 -540233.000000 0 0 1
12.660016 -24.960972 6.012609 28.626519 -1.101411 1.359184 0.056497 0.002360 -19414.900000 0 0 1
11.823516 -23.666672 6.085709 27.146690 -1.107481 1.344696 0.066829 0.004286 -171153.000000 0 0 1
11.599116 -22.936272 4.918409 26.168738 -1.102591 1.381722 0.065658 0.003562 -16121.600000 0 0 1
10.749716 -21.846172 5.245909 24.906449 -1.113518 1.358583 0.060047 0.003017 733999.000000 0 1 0
9.917816 -21.270872 4.021509 23.811460 -1.134501 1.401093 0.042531 0.002378 1081010.000000 0 1 0
10.788116 -20.532572 3.150309 23.407145 -1.087024 1.435799 0.034931 0.004112 440809.000000 0 1 0
9.949716 -20.013372 2.169609 22.455269 -1.109429 1.474026 0.024759 0.013214 142847.000000 0 1 0
10.792916 -19.452172 1.023909 22.269316 -1.064242 1.524802 0.019402 0.013026 247055.000000 0 1 0
11.612316 -18.319572 1.270009 21.727069 -1.005841 1.512310 0.011868 0.012541 -56698.600000 0 1 0
12.228316 -17.954072 0.058909 21.722889 -0.972876 1.568084 0.009828 -0.000122 -619345.000000 0 1 0
13.410816 -17.004972 0.161709 21.657452 -0.903020 1.563330 0.008639 0.008287 -1243480.000000 0 1 0
14.443516 -17.537972 0.863209 22.736331 -0.881856 1.532821 0.012649 -0.003235 -657730.000000 0 1 0
15.676816 -16.852572 0.625709 23.025274 -0.821527 1.543618 0.018266 -0.008098 718093.000000 0 1 0
16.908316 -17.593572 1.204209 24.431026 -0.805257 1.521486 0.018529 0.000528 -52365.300000 0 1 0
17.317616 -18.780272 0.560009 25.552144 -0.825895 1.548878 0.025291 -0.007358 -772576.000000 0 0 1
18.474016 -19.234372 1.142209 26.693726 -0.805560 1.527994 0.025890 -0.001297 -670651.000000 0 0 1
18.828416 -20.572072 0.436909 27.891043 -0.829624 1.555131 0.015790 0.002892 -348938.000000 0 0 1
18.000916 -21.604672 0.841509 28.133663 -0.876139 1.540881 0.024712 0.001697 -304953.000000 0 0 1
18.059816 -22.729272 -0.032691 29.030636 -0.899380 1.571922 0.027120 -0.002206 655504.000000 0 0 1
16.970116 -23.881872 0.227809 29.298132 -0.953001 1.563021 0.023471 0.007746 786450.000000 0 0 1
17.132616 -24.586372 1.440409 30.001517 -0.962198 1.522767 0.021128 0.014149 26495.500000 0 0 1
16.091416 -25.531262 1.602109 30.221611 -1.008421 1.517759 0.023105 0.013214 -182720.000000 0 0 1
16.071816 -26.189852 2.995409 30.873680 -1.020389 1.473622 0.026736 0.007374 730720.000000 0 0 1
17.037216 -27.252222 3.096809 32.288397 -1.012076 1.474738 0.017677 0.010611 645763.000000 0 0 1
18.350216 -26.848822 3.466109 32.704795 -0.971254 1.464615 0.022350 0.007835 103551.000000 0 0 1
19.356616 -28.015142 3.592909 34.240849 -0.966181 1.465672 0.029875 0.008703 -109438.000000 0 0 1
19.741716 -28.472442 2.352909 34.726812 -0.964539 1.502990 0.024505 0.005866 -371069.000000 0 0 1
20.678716 -29.525022 2.366109 36.123880 -0.959816 1.505250 0.028656 -0.000857 -94034.400000 0 0 1
20.146816 -30.894802 2.923009 36.999013 -0.992939 1.491712 0.028300 -0.000946 -177777.000000 0 0 1
19.855016 -30.979032 4.304109 37.046558 -1.000832 1.454352 0.043061 0.002046 -359768.000000 0 0 1
18.962616 -32.003222 4.579409 37.480102 -1.035893 1.448308 0.030869 -0.006029 -433953.000000 0 0 1
18.787216 -32.305832 6.079609 37.862751 -1.044059 1.409529 0.037606 -0.009059 373482.000000 0 0 1
19.915016 -32.882072 6.747909 39.030409 -1.026233 1.397035 0.037417 -0.016467 823057.000000 0 0 1
19.348216 -33.470972 7.897609 39.459241 -1.046666 1.369289 0.036639 -0.015652 779829.000000 0 0 1
20.397716 -34.374070 8.641309 40.893957 -1.035241 1.357881 0.029307 -0.011097 -47048.900000 0 0 1
21.486616 -33.664682 9.117609 40.964818 -1.002723 1.346345 0.030972 -0.011609 -520259.000000 0 0 1
22.447216 -34.543908 9.664509 42.315031 -0.994550 1.340368 0.027592 -0.011464 143850.000000 0 0 1
23.585516 -33.807942 10.415409 42.517458 -0.961661 1.323310 0.026513 -0.016104 -25226.100000 0 0 1
24.430316 -33.039772 9.568709 42.190367 -0.934100 1.342007 0.024326 -0.016862 14395.600000 0 0 1
25.293816 -32.237532 10.322909 42.256338 -0.905512 1.324006 0.020582 -0.015888 -77433.100000 0 0 1
26.031116 -31.118132 9.592209 41.688939 -0.874177 1.338626 0.030433 -0.017914 -180227.000000 0 0 1
25.133116 -30.165302 9.100509 40.304320 -0.876149 1.343037 0.021652 -0.019788 30759.900000 0 0 1
25.832816 -29.307522 8.219109 39.922663 -0.848331 1.363438 0.042600 -0.020450 -167234.000000 0 0 1
25.385116 -27.858382 8.219009 38.575195 -0.831817 1.356086 0.029979 -0.009595 -266729.000000 0 0 1
25.817716 -27.193772 9.397409 38.657043 -0.811350 1.325239 0.018170 -0.016843 -176975.000000 0 0 1
25.434216 -25.838052 9.414809 37.458549 -0.793274 1.316733 0.023463 -0.008157 -507395.000000 0 0 1
26.178916 -24.931172 10.354609 37.604746 -0.760990 1.291839 0.039253 -0.015648 -599216.000000 0 0 1
27.493716 -24.725472 9.956709 38.293465 -0.732436 1.307763 0.054119 -0.015639 -770473.000000 0 0 1
28.244716 -23.861972 10.816709 38.524783 -0.701485 1.286197 0.037087 -0.017306 553558.000000 0 0 1
29.650616 -23.473772 10.310509 39.198005 -0.669647 1.304628 0.053275 -0.015893 297773.000000 0 0 1
29.550416 -22.592272 9.182309 38.313870 -0.652738 1.328781 0.058755 -0.013200 -100370.000000 0 0 1
30.784016 -22.388972 8.502709 39.002792 -0.628809 1.351029 0.056348 -0.016546 148975.000000 0 0 1
30.760916 -21.612272 7.188809 38.275361 -0.612461 1.381856 0.055322 -0.004937 -214977.000000 0 0 1
30.701716 -20.220472 7.378209 37.495344 -0.582404 1.372727 0.051745 -0.004739 -92976.000000 0 0 1
30.853716 -19.497372 6.179209 37.017319 -0.563567 1.403084 0.041077 0.000932 -43690.000000 0 0 1
30.362416 -18.058172 6.347309 35.892370 -0.536553 1.393019 0.046648 0.002593 -359245.000000 0 0 1
31.035816 -17.304472 7.322309 36.280612 -0.508632 1.367576 0.048844 0.000770 -101294.000000 0 0 1
30.722916 -15.922172 7.486509 35.404250 -0.478141 1.357730 0.051194 0.003356 -52557.800000 0 0 1
31.341916 -15.529272 8.836709 36.077159 -0.460025 1.323339 0.049375 -0.011457 -986954.000000 0 0 1
32.656816 -15.155672 8.802409 37.062709 -0.434508 1.331004 0.051701 -0.010775 -1374790.000000 0 0 1
33.238416 -14.856472 10.049509 37.769031 -0.420329 1.301474 0.052746 -0.018390 -74336.300000 0 0 1
34.768516 -14.824072 10.031209 39.105345 -0.403026 1.311379 0.040676 -0.018880 -409572.000000 0 0 1
35.367716 -13.768772 9.330309 39.083361 -0.371251 1.329740 0.043281 -0.010868 -540092.000000 0 0 1
-34.057760 -14.096172 9.153609 37.979227 0.392423 1.327384 0.037427 -0.007139 -353092.000000 0 0 1
-33.302560 -13.047372 8.366309 36.732677 0.373403 1.341018 0.032058 -0.005567 -238730.000000 0 0 1
-33.955860 -12.803272 7.131909 36.983623 0.360572 1.376741 0.037877 -0.010371 437750.000000 0 0 1
-33.072160 -12.225472 6.131909 35.788689 0.354081 1.398610 0.028884 -0.006029 -80211.000000 0 0 1
-32.283960 -13.312672 5.422909 35.339628 0.391117 1.416736 0.015704 -0.010469 -400198.000000 0 0 1
-31.318560 -13.998972 6.179909 34.857061 0.420345 1.392561 0.010464 -0.009046 -202345.000000 0 0 1
-30.820260 -15.057872 5.410609 34.726109 0.454462 1.414351 -0.000538 0.000130 89677.400000 0 0 1
-29.808760 -15.959772 6.163309 34.369505 0.491569 1.390496 0.000484 -0.003914 -36719.800000 0 0 1
-30.427860 -16.694172 7.222009 35.450070 0.501804 1.365637 -0.003660 -0.009790 -9812.550000 0 0 1
-30.020860 -16.232672 8.542709 35.181381 0.495685 1.325526 -0.005070 -0.004079 39362.500000 0 0 1
-30.778760 -16.944872 9.658709 36.438324 0.503256 1.302520 -0.020113 0.003276 -61910.000000 0 0 1
-32.103660 -16.460272 9.820609 37.390238 0.473774 1.305027 -0.000677 -0.005247 416333.000000 0 0 1
-32.877460 -17.095372 10.872809 38.618611 0.479498 1.285394 0.012590 -0.004040 531796.000000 0 0 1
-33.636660 -18.424072 10.430309 39.744971 0.501105 1.305256 0.024042 -0.013812 225376.000000 0 0 1
-32.872360 -19.664372 10.273509 39.658853 0.539098 1.308761 0.021577 -0.010210 136700.000000 0 0 1
-32.197360 -20.238872 11.411709 39.705278 0.561175 1.279274 -0.003669 -0.013041 -567114.000000 0 0 1
-33.056460 -20.802472 12.595809 41.038114 0.561686 1.258831 0.040589 -0.012392 203036.000000 0 0 1
-33.572360 -22.109072 12.366509 42.057639 0.582362 1.272348 0.016155 -0.007221 -73566.300000 0 0 1
-34.748060 -22.192672 11.587009 42.827575 0.568372 1.296832 0.030837 -0.017059 -464080.000000 0 0 1
-35.227960 -23.605872 11.524509 43.943836 0.590368 1.305438 0.022488 -0.010170 -181069.000000 0 0 1
35.356216 -24.095172 12.861009 44.677118 -0.598200 1.278799 0.041360 -0.013509 111838.000000 0 0 1
35.057016 -25.459532 12.789309 45.174645 -0.628115 1.283763 0.022122 0.007057 -516903.000000 0 0 1
34.261416 -25.992682 13.975109 45.219109 -0.649019 1.256599 0.034510 -0.010349 -236552.000000 0 0 1
32.995116 -25.377602 13.957709 43.903508 -0.655634 1.247264 0.029278 -0.009417 427590.000000 0 0 1
32.151716 -25.344322 15.147109 43.652061 -0.667549 1.216430 0.027174 0.004534 325248.000000 0 0 1
31.679116 -23.951472 15.574609 42.659206 -0.647371 1.197063 0.023436 -0.002810 -526441.000000 0 0 1
32.641116 -23.137372 16.226909 43.175144 -0.616635 1.185494 0.032481 -0.006059 545445.000000 0 0 1
33.559316 -22.541272 15.260709 43.211409 -0.591468 1.209846 0.033630 -0.007337 154468.000000 0 0 1
34.772316 -21.893972 15.916909 44.065950 -0.561928 1.201235 0.030389 -0.012012 -507359.000000 0 0 1
34.582616 -20.552972 16.358509 43.427904 -0.536229 1.184584 0.028474 -0.009770 -15759.500000 0 0 1
33.690416 -20.332272 17.424109 43.035392 -0.542991 1.153950 0.024039 -0.010647 -89408.400000 0 0 1
33.657916 -18.925572 18.020609 42.611911 -0.512231 1.134152 0.021571 -0.004964 -300261.000000 0 0 1
33.193216 -17.942972 17.133309 41.440199 -0.495568 1.144560 0.028602 -0.007610 5318.250000 0 0 1
33.036116 -16.618472 17.597409 40.953967 -0.466076 1.126650 0.022692 -0.001779 75814.900000 0 0 1
34.294216 -15.860072 18.101309 41.896211 -0.433176 1.124030 0.015089 -0.009264 -89065.400000 0 0 1
34.767516 -16.305372 19.321509 42.987975 -0.438528 1.104632 0.010542 0.004564 357744.000000 0 0 1
-34.702860 -15.788872 19.565609 42.853122 0.426982 1.096656 0.006134 -0.011111 335493.000000 0 0 1
-34.369860 -15.607272 21.061409 43.225654 0.426256 1.061866 0.004255 -0.010493 -177705.000000 0 0 1
-33.838660 -16.767272 21.669409 43.540322 0.460046 1.049867 0.001718 -0.003796 265792.000000 0 0 1
-33.442960 -16.564072 23.046609 43.862812 0.459875 1.017582 0.001370 -0.002218 154368.000000 0 0 1
-32.508560 -17.747472 23.477009 43.851445 0.499715 1.005844 -0.001970 0.004482 -510398.000000 0 0 1
-33.079060 -19.030672 23.383109 44.756681 0.522066 1.021075 -0.001747 0.003727 -212935.000000 0 0 1
-32.264360 -20.062372 23.798109 44.831214 0.556304 1.011207 -0.015526 0.009945 -661344.000000 0 0 1
-31.191160 -20.584072 22.816309 43.785574 0.583326 1.022667 -0.020844 0.015390 473940.000000 0 0 1
-30.041060 -19.745172 22.637709 42.482973 0.581471 1.008813 -0.013094 0.016889 422270.000000 0 0 1
-28.905460 -20.549272 22.403309 41.948856 0.618013 1.007398 -0.007353 0.008130 -249505.000000 0 0 1
-27.593160 -19.766072 22.569109 40.760824 0.621608 0.984000 0.008348 0.015271 -311427.000000 0 0 1
-27.406760 -19.313072 23.894609 41.171320 0.613862 0.951613 0.005972 0.013309 227620.000000 0 0 1
-26.227560 -18.534272 23.918209 40.043537 0.615190 0.930660 0.035316 0.008796 -122134.000000 0 0 1
-25.895860 -17.950072 25.297409 40.407420 0.606123 0.894308 0.029834 -0.002265 -1152200.000000 0 0 1
-24.773260 -17.102272 25.282609 39.311734 0.604221 0.872216 0.030324 0.000940 -113949.000000 0 0 1
-24.401660 -16.685572 26.555309 39.737058 0.599763 0.838908 0.020336 -0.000156 -79273.000000 0 0 1
-23.355860 -17.633972 27.166109 39.930573 0.646702 0.822579 0.022661 0.002843 -1074210.000000 0 0 1
-23.784360 -18.897472 27.533309 40.998699 0.671399 0.834477 0.022745 0.007095 -732255.000000 0 0 1
-22.865160 -19.535272 28.340309 41.323305 0.707025 0.815068 0.023274 0.004070 -818491.000000 0 0 1
-23.492960 -20.751372 29.070709 42.750962 0.723513 0.823032 0.028255 0.005378 341774.000000 0 0 1
-24.483660 -20.366772 30.032709 43.774635 0.693863 0.814715 0.020047 -0.000720 431194.000000 0 0 1
-24.915960 -21.507372 30.760609 45.050940 0.712106 0.819213 0.020962 -0.000094 -125199.000000 0 0 1
-26.148560 -21.336172 31.674209 46.284284 0.684397 0.817098 0.021173 -0.003899 -427883.000000 0 0 1
-25.845860 -20.473572 32.673509 46.419111 0.669931 0.789950 0.030659 -0.010700 1191980.000000 0 0 1
-26.874460 -20.425072 33.718509 47.711194 0.649882 0.785943 0.038284 -0.005125 774979.000000 0 0 1
-28.181960 -19.639072 33.511609 47.988999 0.608620 0.797751 0.024876 -0.007987 16232.400000 0 0 1
-28.998860 -20.290272 32.526109 48.068460 0.610519 0.827576 0.029258 -0.008310 -9123.580000 0 0 1
-29.830060 -19.443772 31.775809 47.724153 0.577652 0.842201 0.028128 -0.019401 -302776.000000 0 0 1
-30.728660 -20.300772 30.851509 48.043600 0.583823 0.873488 0.016088 -0.000574 -40656.200000 0 0 1
-31.395760 -19.561572 29.842909 47.528393 0.557206 0.891949 0.015493 -0.009883 381272.000000 0 0 1
-32.150060 -20.310372 28.900909 47.764005 0.563429 0.920934 0.011137 -0.006710 123389.000000 0 0 1
-32.847060 -19.332172 27.900009 47.234233 0.531959 0.938903 0.009675 0.000775 258820.000000 0 0 1
-33.846660 -19.961072 27.089009 47.726882 0.532849 0.967228 -0.001753 -0.000542 309189.000000 0 0 1
-34.532060 -18.942972 26.380609 47.405020 0.501738 0.980636 0.016395 -0.002565 -421697.000000 0 0 1
34.958316 -19.387972 25.680009 47.512527 -0.506370 0.999778 0.015527 -0.002988 400061.000000 0 0 1
33.840616 -19.668872 26.546909 47.294716 -0.526497 0.974831 0.021685 -0.001555 860388.000000 0 0 1
32.775016 -20.280972 25.831409 46.398073 -0.554124 0.980347 0.037455 -0.003990 570121.000000 0 0 1
31.579116 -20.792272 26.696309 46.284469 -0.582271 0.956006 0.036525 -0.011497 612824.000000 0 0 1
30.839116 -19.728972 27.299009 45.667486 -0.569128 0.930070 0.028100 -0.013211 646230.000000 0 0 1
29.910516 -20.122372 28.314509 45.839505 -0.592204 0.904997 0.026473 -0.005538 264033.000000 0 0 1
-29.261534 -5.807372 34.325296 45.477345 0.195919 0.715481 -0.015222 0.008587 -55808.900000 0 0 1
-29.906814 -5.754372 33.090752 44.972527 0.190087 0.743950 -0.005398 0.009715 209028.000000 0 0 1
-29.408634 -4.677572 32.356553 43.973787 0.157733 0.743928 0.002290 0.009192 -377562.000000 0 0 1
-29.858354 -4.566972 30.926893 43.230212 0.151778 0.773600 0.005371 0.002826 -263224.000000 0 0 1
-29.435924 -5.690872 30.148533 42.518157 0.190975 0.782612 0.015031 -0.009422 23730.300000 0 0 1
-28.201524 -5.355872 29.542893 41.192158 0.187679 0.771025 0.014743 -0.015379 -146898.000000 0 0 1
-27.837764 -6.444172 28.514573 40.367677 0.227483 0.786438 0.010833 -0.021878 -380344.000000 0 0 1
-28.720164 -6.430072 27.407093 40.216196 0.220255 0.820994 0.036766 -0.020625 203579.000000 0 0 1
-28.182114 -7.135572 26.319803 39.215813 0.247984 0.835034 0.056433 -0.018587 202805.000000 0 0 1
-28.930454 -6.745572 25.032903 38.847396 0.229072 0.870570 0.041934 -0.015570 367807.000000 0 0 1
-28.358704 -5.611972 24.386183 37.820580 0.195368 0.870053 0.042587 -0.012614 151095.000000 0 0 1
-29.234254 -5.219172 23.351383 37.777883 0.176668 0.904444 0.049991 -0.009337 197959.000000 0 0 1
-28.996274 -3.734072 22.891583 37.131547 0.128073 0.906507 0.053319 -0.010945 349599.000000 0 0 1
-27.747474 -3.639772 22.232183 35.741296 0.130430 0.899463 0.051482 -0.006582 -68862.700000 0 0 1
-27.555774 -2.355172 21.614983 35.100926 0.085262 0.907401 0.057473 -0.008794 971822.000000 0 0 1
-26.159124 -2.329272 20.888783 33.556915 0.088808 0.898878 0.050355 -0.007673 718709.000000 0 0 1
-26.155474 -3.246072 19.867083 33.005254 0.123475 0.924872 0.051556 -0.003322 -210880.000000 0 0 1
-24.912284 -3.235172 19.206883 31.622659 0.129140 0.918041 0.053334 -0.013152 -283026.000000 0 0 1
-24.829884 -4.282772 18.093883 31.020217 0.170804 0.948019 0.046398 -0.002966 281125.000000 0 0 1
-25.720994 -4.086972 16.951583 31.074572 0.157579 0.993795 0.039758 -0.002197 583612.000000 0 0 1
-25.210504 -4.552472 15.751083 30.073097 0.178653 1.019538 0.041816 -0.001936 121996.000000 0 0 1
-26.335344 -4.660272 14.670783 30.504104 0.175146 1.069065 0.036622 -0.005307 643512.000000 0 0 1
-26.927794 -3.379872 14.308083 30.679812 0.124863 1.085616 0.037387 -0.006865 490104.000000 0 0 1
-28.059884 -3.601872 13.470483 31.333440 0.127666 1.126406 0.030536 -0.004528 -19067.800000 0 0 1
-28.379764 -2.371072 12.664583 31.167686 0.083354 1.152355 0.029329 -0.003509 -310091.000000 0 0 1
-27.511284 -1.999872 11.600383 29.923889 0.072565 1.172701 0.029889 -0.007639 52163.400000 0 0 1
-27.919974 -0.840072 10.880883 29.977063 0.030080 1.199339 0.026746 -0.008729 199238.000000 0 0 1
-29.190324 -0.780072 9.981683 30.859642 0.026717 1.241419 0.008784 -0.006055 363690.000000 0 0 1
-29.053084 -1.579172 8.822083 30.404023 0.054301 1.276401 0.004304 -0.011257 -123551.000000 0 0 1
-30.285274 -1.520972 8.152183 31.400148 0.050179 1.308165 0.006327 -0.011562 -437903.000000 0 0 1
-30.372304 -2.313772 6.841383 31.219143 0.076033 1.349863 0.003683 -0.014871 -542377.000000 0 0 1
-30.001134 -1.681672 5.597683 30.565178 0.055995 1.386618 0.007890 -0.012754 881798.000000 0 0 1
-30.884914 -0.611872 5.185483 31.323179 0.019809 1.404483 -0.001089 -0.010447 322241.000000 0 0 1
-30.431144 -0.008672 3.823183 30.670366 0.000285 1.445817 0.008929 -0.013672 -15691.000000 0 0 1
-30.578294 -0.924972 2.728083 30.713679 0.030240 1.481856 0.004898 -0.019999 390999.000000 0 0 1
-30.099054 -0.275672 1.586883 30.142118 0.009159 1.518125 0.006586 -0.016706 -273613.000000 0 0 1
-30.539154 -0.958772 0.248783 30.555213 0.031385 1.562654 0.008201 -0.011703 -568578.000000 0 0 1
-31.808914 -0.454972 -0.035017 31.812187 0.014302 1.571897 0.014430 -0.014882 -310974.000000 0 0 1
-32.382784 -1.109572 -1.153317 32.422307 0.034251 1.606376 0.025517 -0.014494 -682133.000000 0 0 1
-33.891294 -0.995272 -1.309617 33.931187 0.029358 1.609402 0.030665 -0.024364 -1021000.000000 0 0 1
-34.585798 -1.710772 -0.348317 34.629835 0.049424 1.580855 0.021746 -0.019240 -578497.000000 0 0 1
34.835017 -1.402872 -0.436917 34.865992 -0.040250 1.583328 0.041747 -0.024590 -345978.000000 0 0 1
33.854632 -2.484272 0.125783 33.945891 -0.073249 1.567091 0.045443 -0.021015 -125613.000000 0 0 1
34.101032 -2.836872 1.425883 34.248524 -0.082999 1.529151 0.032916 -0.025262 117499.000000 0 0 1
33.162362 -3.819872 1.814683 33.430925 -0.114682 1.516488 0.042752 -0.018266 -276706.000000 0 0 1
33.393952 -4.537672 3.156083 33.848299 -0.135056 1.477419 0.038393 -0.023200 -153008.000000 0 0 1
32.964112 -3.655372 4.197783 33.430762 -0.110438 1.444898 0.046017 -0.027738 405165.000000 0 0 1
33.199402 -4.189572 5.488983 33.909906 -0.125531 1.408211 0.042302 -0.030562 -329785.000000 0 0 1
32.763512 -3.114572 6.511883 33.549261 -0.094777 1.375457 0.042497 -0.025427 -340745.000000 0 0 1
31.380362 -2.866572 6.462783 32.166938 -0.091096 1.368506 0.073651 -0.026813 -106670.000000 0 0 1
30.993752 -1.854672 7.299083 31.895597 -0.059769 1.339907 0.053693 -0.017054 -595247.000000 0 0 1
29.523072 -1.886472 7.722383 30.574593 -0.063811 1.315456 0.067092 -0.018677 -798069.000000 0 0 1
28.647192 -1.400772 6.708783 29.455586 -0.048858 1.341020 0.082002 -0.023284 456045.000000 0 0 1
27.351682 -1.123572 7.220383 28.310967 -0.041056 1.312909 0.061892 -0.017876 280037.000000 0 0 1
26.354672 -2.304172 7.169983 27.409608 -0.087208 1.306131 0.086560 -0.027230 -835723.000000 0 0 1
26.652632 -3.351372 8.094083 28.055457 -0.125086 1.278133 0.065327 -0.027473 420687.000000 0 0 1
25.941912 -4.559772 7.839883 27.481596 -0.173991 1.281500 0.070627 -0.039311 -369916.000000 0 0 1
26.160282 -5.664372 8.874183 28.199230 -0.213234 1.250660 0.050616 -0.023327 -419609.000000 0 0 1
25.596892 -5.419872 10.136683 28.059370 -0.208658 1.201179 0.046934 -0.022074 651541.000000 0 0 1
26.029072 -6.432972 11.067783 29.006750 -0.242290 1.179314 0.036351 -0.016656 -230852.000000 0 0 1
25.157592 -6.428872 12.339883 28.749044 -0.250190 1.127159 0.018272 -0.016652 162585.000000 0 0 1
24.006292 -7.208872 12.103883 27.834760 -0.291724 1.120927 0.021460 -0.024693 -85967.700000 0 0 1
22.950692 -6.980272 13.005083 27.287188 -0.295253 1.074013 0.030702 -0.023686 1164330.000000 0 0 1
21.765492 -8.037772 12.944583 26.568866 -0.353755 1.061906 0.033421 -0.028086 963274.000000 0 0 1
22.142292 -9.239172 13.576983 27.567696 -0.395300 1.055841 0.018188 -0.026428 326603.000000 0 0 1
21.000292 -10.076772 13.675183 27.010447 -0.447390 1.039916 0.039063 -0.041100 -236371.000000 0 0 1
21.206192 -11.322972 14.511583 28.080212 -0.490435 1.027699 0.023288 -0.033781 -257406.000000 0 0 1
21.245092 -10.914172 15.884983 28.684591 -0.474569 0.983898 0.004778 -0.030630 133812.000000 0 0 1
21.713292 -11.963872 16.685583 29.883272 -0.503605 0.978390 0.010227 -0.021442 -463535.000000 0 0 1
21.630392 -11.733972 18.198083 30.606048 -0.497048 0.934039 0.023820 -0.020688 260750.000000 0 0 1
20.281892 -11.769772 18.654483 29.964519 -0.525815 0.898796 0.017210 -0.022165 156406.000000 0 0 1
20.171592 -12.188772 20.015983 30.920848 -0.543542 0.866721 0.040334 -0.016110 227227.000000 0 0 1
20.405092 -11.134472 21.132883 31.415649 -0.499514 0.832963 0.016889 -0.008860 168508.000000 0 0 1
19.398992 -10.133472 21.259283 30.511723 -0.481384 0.799929 0.017984 -0.010394 124690.000000 0 0 1
19.547992 -9.046972 20.380583 29.653665 -0.433454 0.813049 0.008786 0.004740 -910691.000000 0 0 1
20.429792 -7.863972 20.917283 30.277899 -0.367445 0.808142 0.014073 0.020869 441299.000000 0 0 1
21.786192 -8.121372 21.206083 31.468918 -0.356820 0.831357 0.023318 0.008940 201431.000000 0 0 1
22.562892 -8.233972 20.019383 31.267525 -0.349917 0.875958 0.017417 0.005235 -581890.000000 0 0 1
23.939992 -8.925272 20.159483 32.545176 -0.356857 0.902779 0.019487 0.005406 79765.700000 0 0 1
23.882192 -10.279572 20.560683 33.147706 -0.406460 0.901703 0.010656 -0.003171 -949649.000000 0 0 1
25.083492 -10.952372 20.524883 34.211209 -0.411686 0.927363 0.002114 -0.007072 -865424.000000 0 0 1
24.951292 -12.497272 20.774483 34.789768 -0.464341 0.930861 -0.008326 -0.012871 -131347.000000 0 0 1
24.264792 -13.070472 19.677883 33.864974 -0.494095 0.950755 0.006729 -0.023726 49797.600000 0 0 1
24.383592 -14.461372 19.789383 34.573263 -0.535314 0.961379 0.001847 -0.023715 -437949.000000 0 0 1
23.486092 -15.318572 18.927683 33.830642 -0.577948 0.977034 0.020400 -0.024964 -555819.000000 0 0 1
23.840792 -15.303472 17.564483 33.333027 -0.570662 1.015801 0.015628 -0.023298 -76015.000000 0 0 1
22.866192 -15.909272 16.764483 32.511776 -0.607871 1.029038 -0.000053 -0.015679 -715128.000000 0 0 1
22.657892 -17.409072 16.860183 33.177125 -0.655139 1.037718 0.005054 -0.020609 -447996.000000 0 0 1
23.783792 -18.195472 16.527483 34.203825 -0.653055 1.066484 0.019651 -0.012471 -115919.000000 0 0 1
23.415292 -19.552772 16.578983 34.719584 -0.695746 1.072977 0.024635 -0.011616 -112159.000000 0 0 1
24.547692 -20.536472 16.223983 35.882496 -0.696660 1.101631 0.018842 -0.002171 11577.600000 0 0 1
24.830992 -20.456272 14.848883 35.433410 -0.689098 1.138382 0.029980 -0.013996 2598.830000 0 0 1
25.915372 -21.305272 14.538383 36.563448 -0.688078 1.161874 0.032077 -0.009365 -73155.500000 0 0 1
26.164072 -21.358872 13.004483 36.192218 -0.684627 1.203260 0.031225 -0.025771 -313905.000000 0 0 1
25.064092 -21.838872 12.272983 35.436862 -0.716743 1.217136 0.015512 -0.017013 72077.000000 0 0 1
25.273592 -21.353472 10.940883 34.848646 -0.701522 1.251441 0.035701 -0.012905 333110.000000 0 0 1
23.956192 -21.226072 10.128883 33.571410 -0.725047 1.264309 0.013155 -0.006470 290526.000000 0 0 1
23.460992 -22.512372 9.823283 33.966483 -0.764767 1.277400 0.009149 -0.006599 -1112260.000000 0 0 1
22.121792 -22.535872 9.508283 32.979489 -0.794670 1.278336 -0.006110 0.001841 -878168.000000 0 0 1
21.877792 -23.651872 8.440583 33.306040 -0.824344 1.314577 -0.009373 0.003515 -278334.000000 0 0 1
22.074292 -24.942072 8.871983 34.468731 -0.846318 1.310474 -0.011374 0.008938 27752.100000 0 0 1
21.808692 -25.966482 7.887483 34.815078 -0.872208 1.342258 -0.002599 0.007713 297164.000000 0 0 1
20.352492 -26.536572 7.821283 34.345103 -0.916529 1.341054 0.003892 0.016769 444909.000000 0 0 1
19.500292 -25.556452 7.269283 32.958096 -0.919009 1.348406 -0.002670 0.018531 -31751.100000 0 0 1
18.169092 -26.076032 7.184883 32.583706 -0.962239 1.348464 0.013039 -0.009851 1010740.000000 0 0 1
17.087792 -24.931672 7.249083 31.082634 -0.969947 1.335409 0.015002 -0.006360 141722.000000 0 0 1
16.844392 -24.297872 6.005183 30.169229 -0.964618 1.370408 0.024136 -0.005420 34785.700000 0 0 1
16.124892 -23.093072 6.197483 28.839399 -0.961241 1.354211 0.030403 -0.004155 -262908.000000 0 0 1
15.520692 -22.501772 4.927183 27.775867 -0.966980 1.392462 0.033137 -0.001542 -187520.000000 0 0 1
14.998692 -21.194172 5.126883 26.465801 -0.954935 1.375847 0.046459 -0.000332 -18152.600000 0 0 1
14.682492 -20.553572 3.921583 25.561763 -0.950503 1.416772 0.035330 0.001356 -1516.530000 0 0 1
14.147892 -19.118372 4.055083 24.127136 -0.933716 1.401923 0.037494 0.006207 -504546.000000 0 1 0
15.078692 -18.189472 4.439583 24.040253 -0.878633 1.385057 0.024641 0.005657 -886920.000000 0 1 0
14.544192 -16.904972 4.599583 22.769887 -0.860324 1.367394 0.026459 0.009505 -965782.000000 0 1 0
15.499192 -15.772072 4.575183 22.581309 -0.794124 1.366775 0.017504 0.005012 -1461970.000000 0 1 0
16.157192 -15.735072 5.810283 23.289627 -0.772163 1.318654 0.032690 -0.008851 589612.000000 0 1 0
17.181392 -14.694472 5.760383 23.330447 -0.707537 1.321312 0.034598 -0.015025 633381.000000 0 1 0
18.586592 -15.032072 5.246083 24.473373 -0.680059 1.354761 0.047625 -0.024412 -299120.000000 0 1 0
19.494892 -13.959872 5.562983 24.614541 -0.621436 1.342823 0.047351 -0.023210 76406.300000 0 1 0
20.813792 -14.369172 5.259983 25.833205 -0.604232 1.365749 0.050694 -0.023174 -354406.000000 0 0 1
21.697092 -13.123572 5.271783 25.899491 -0.543981 1.365816 0.045486 -0.025806 -515977.000000 0 0 1
21.910692 -12.686772 6.581283 26.160006 -0.524852 1.316486 0.058837 -0.032491 470422.000000 0 0 1
22.813892 -11.573172 6.673183 26.437537 -0.469460 1.315623 0.056877 -0.033708 250470.000000 0 0 1
22.898792 -10.999372 8.108783 26.666331 -0.447802 1.261820 0.056318 -0.038627 -56712.400000 0 0 1
23.423992 -11.865172 9.113283 27.794202 -0.468865 1.236733 0.042551 -0.030681 351036.000000 0 0 1
23.394892 -11.219972 10.405683 27.955089 -0.447187 1.189387 0.048542 -0.032214 -217182.000000 0 0 1
23.696792 -12.256572 11.538383 29.067091 -0.477332 1.162597 0.027300 -0.026584 -487611.000000 0 0 1
22.704692 -13.203672 11.814683 28.799770 -0.526735 1.148084 0.034643 -0.028404 151147.000000 0 0 1
23.220992 -14.231372 12.633083 30.022345 -0.549827 1.136481 0.034053 -0.025767 542222.000000 0 0 1
22.064992 -15.220772 13.017783 29.799303 -0.603858 1.118704 0.032540 -0.030342 299038.000000 0 0 1
21.186292 -14.756172 13.983983 29.362482 -0.608371 1.074407 0.019589 -0.038263 -540605.000000 0 0 1
20.071792 -15.611372 14.116083 29.083596 -0.661042 1.064019 0.010912 -0.033245 -161962.000000 0 0 1
18.834392 -14.877272 14.659883 28.124362 -0.668552 1.022479 0.015408 -0.033581 -957802.000000 0 0 1
18.941492 -14.332872 15.955183 28.614318 -0.647770 0.979311 0.008271 -0.024747 -23985.800000 0 0 1
18.253192 -13.112972 16.170883 27.688021 -0.622964 0.947101 0.018664 -0.036770 -1145240.000000 0 0 1
16.764492 -12.947572 16.024483 26.560721 -0.657634 0.923145 0.033740 -0.034612 -1603610.000000 0 0 1
16.342892 -13.038972 14.679983 25.546170 -0.673421 0.958626 0.037685 -0.045843 331040.000000 0 0 1
14.940592 -12.815372 14.535283 24.468950 -0.708979 0.934737 0.057807 -0.038936 735839.000000 0 1 0
14.532492 -11.328172 14.100383 23.202190 -0.662119 0.917613 0.044609 -0.042071 -93511.700000 0 1 0
14.848592 -10.528072 15.136383 23.673426 -0.616760 0.877101 0.024110 -0.027962 -86822.100000 0 1 0
14.586992 -9.229172 14.831083 22.757833 -0.564116 0.860984 0.025520 -0.029763 -468836.000000 0 1 0
15.310892 -8.216672 15.759783 23.458642 -0.492540 0.834145 0.033590 -0.020303 785864.000000 0 1 0
16.739792 -8.256972 15.763683 24.431372 -0.458236 0.869481 0.027416 -0.024930 527098.000000 0 1 0
17.339392 -8.946972 16.806483 25.751907 -0.476359 0.859745 0.025323 -0.019779 -271618.000000 0 0 1
18.885292 -8.993672 16.737383 26.789557 -0.444448 0.895956 0.020044 -0.016587 -231486.000000 0 0 1
19.274192 -7.699172 17.072283 26.874422 -0.380036 0.882449 0.007506 -0.011363 -782126.000000 0 0 1
20.587592 -7.551772 16.659983 27.539667 -0.351573 0.921100 0.010924 -0.002345 -1008500.000000 0 0 1
21.160092 -6.116172 16.761783 27.678772 -0.281374 0.920299 0.014153 0.005929 -267818.000000 0 0 1
21.434192 -5.746772 18.118483 28.648375 -0.261952 0.886092 0.015812 0.008135 413313.000000 0 0 1
22.011692 -4.461072 18.269683 28.951633 -0.199960 0.887901 0.020336 0.007546 -128200.000000 0 0 1
-5.424284 -33.445797 -6.454491 34.492095 1.410015 1.759036 -0.007510 -0.005631 -240701.000000 0 0 1
-6.040284 -32.168997 -6.437391 33.358198 1.385190 1.764992 -0.004448 -0.016537 -80996.900000 0 0 1
-5.920084 -31.426797 -5.214391 32.401864 1.384601 1.732428 -0.008364 -0.010759 -670189.000000 0 0 1
-6.773784 -30.144497 -5.161291 31.324332 1.349757 1.736321 -0.000384 -0.008487 52978.800000 0 0 1
-8.166184 -30.249697 -5.087391 31.742909 1.307123 1.731759 -0.001603 -0.004685 -331390.000000 0 0 1
-8.887384 -30.798597 -6.178891 32.645334 1.289863 1.761218 -0.002170 -0.013391 -71941.400000 0 0 1
-10.375684 -30.361697 -5.967191 32.635790 1.241503 1.754673 -0.005159 -0.000237 -3855.190000 0 0 1
-11.226184 -30.879797 -6.941991 33.582440 1.222106 1.779012 0.000716 -0.005873 -952735.000000 0 0 1
-12.519384 -30.593697 -6.473091 33.683975 1.182372 1.764170 0.007820 -0.002878 -196381.000000 0 0 1
-13.638984 -31.159597 -7.375791 34.804377 1.158206 1.784337 0.018933 -0.009079 56768.900000 0 0 1
-13.647584 -30.544097 -8.667191 34.558915 1.150594 1.824297 0.023516 -0.012945 -631.579000 0 0 1
-14.778184 -30.933797 -9.422191 35.553793 1.125118 1.839013 0.039289 -0.009904 -1046.840000 0 0 1
-15.077084 -30.037897 -10.629091 35.250125 1.105602 1.877097 0.028392 -0.006343 -680037.000000 0 0 1
-15.358784 -28.660697 -10.381991 34.133759 1.078856 1.879849 0.029122 -0.008351 589621.000000 0 0 1
-14.212384 -27.916397 -9.958791 32.870877 1.099891 1.878601 0.013304 -0.007664 106498.000000 0 0 1
-14.614484 -26.531797 -9.443291 31.728459 1.067317 1.873004 0.012452 0.007220 -88163.100000 0 0 1
-14.925284 -25.663797 -10.490091 31.487086 1.044039 1.910444 0.016149 0.004448 81130.800000 0 0 1
-15.067384 -24.351897 -9.950891 30.316022 1.016714 1.905235 0.024162 0.007246 -199390.000000 0 0 1
-15.526384 -23.320597 -11.000591 30.098702 0.983408 1.944949 0.021168 -0.001112 223261.000000 0 0 1
-16.857184 -23.550497 -11.449991 31.143103 0.949552 1.947285 0.024304 0.003623 278179.000000 0 0 1
-17.224084 -22.994197 -12.711991 31.416506 0.927896 1.987368 0.036226 -0.001999 991213.000000 0 0 1
-18.688984 -23.465697 -13.115391 32.740350 0.898231 1.982955 0.019401 0.001098 1119920.000000 0 0 1
-18.868284 -24.775997 -13.612091 33.987515 0.919941 1.982862 0.037795 -0.002253 -9387.040000 0 0 1
-18.718784 -25.787897 -12.606491 34.268529 0.942915 1.947518 0.039117 -0.005809 -819464.000000 0 0 1
-18.885684 -27.260797 -13.071491 35.646655 0.964934 1.946252 0.035948 -0.013852 64721.300000 0 0 1
-17.914484 -27.646297 -14.016191 35.800839 0.995836 1.973062 0.044018 -0.015398 380786.000000 0 0 1
-16.543884 -27.712297 -13.656491 35.045274 1.032595 1.971082 0.042008 -0.022284 -100471.000000 0 0 1
-15.923184 -29.099897 -14.120391 36.051868 1.070113 1.973241 0.037976 -0.023628 -216821.000000 0 0 1
-15.842984 -29.168197 -15.507891 36.637120 1.073220 2.007863 0.053238 -0.025580 -150563.000000 0 0 1
-15.148084 -30.309197 -15.980291 37.463069 1.107321 2.011484 0.049405 -0.016915 -50110.400000 0 0 1
-15.782284 -31.698797 -15.767191 38.762076 1.108844 1.989710 0.054554 -0.021608 -159757.000000 0 0 1
-15.891584 -31.993697 -14.359791 38.501204 1.109784 1.953004 0.050881 -0.025745 136249.000000 0 0 1
-16.450584 -33.296497 -14.238391 39.774492 1.111909 1.936898 0.037937 -0.021797 -1146350.000000 0 0 1
-17.128784 -33.668897 -12.894091 39.915504 1.100180 1.899731 0.049282 -0.022802 1953360.000000 0 0 1
-18.502984 -33.181597 -12.636991 40.038386 1.062116 1.891908 0.049381 -0.021160 1940190.000000 0 0 1
-18.797184 -31.749597 -12.581091 38.982751 1.036247 1.899414 0.050068 -0.021428 -489199.000000 0 0 1
-18.375784 -30.871797 -11.389391 37.688931 1.033892 1.877790 0.052984 -0.024340 -681066.000000 0 0 1
-18.852284 -31.212997 -10.104191 37.838531 1.027449 1.841111 0.046182 -0.020588 180067.000000 0 0 1
-18.426584 -30.262097 -9.129391 36.587966 1.023859 1.822980 0.042039 -0.007978 -363603.000000 0 0 1
-18.588784 -30.717097 -7.654291 36.710640 1.026591 1.780841 0.037811 -0.000551 -265470.000000 0 0 1
-17.627784 -31.603997 -7.171991 36.891582 1.062007 1.766449 0.035504 -0.009827 -256312.000000 0 0 1
-17.846284 -31.822297 -5.788091 36.941175 1.059691 1.728129 0.036271 -0.016926 711191.000000 0 0 1
-16.689784 -32.708097 -5.165791 37.081719 1.098971 1.710559 0.037548 -0.011881 990213.000000 0 0 1
-15.495084 -32.025097 -4.814391 35.901014 1.120159 1.705303 0.038316 -0.014620 277837.000000 0 0 1
-15.342284 -31.755897 -3.436291 35.434880 1.120734 1.667924 0.026945 -0.005646 -458880.000000 0 0 1
-13.992884 -31.127497 -3.123091 34.270622 1.148330 1.662053 0.031884 -0.004480 -30721.100000 0 0 1
-12.848584 -31.955997 -3.121191 34.583431 1.188506 1.661170 -0.004911 0.002118 98590.700000 0 0 1
-11.682584 -31.314297 -2.619191 33.525037 1.213714 1.649002 -0.002373 0.008078 637305.000000 0 0 1
-10.445784 -32.246097 -2.600291 33.995392 1.257524 1.647361 0.013664 -0.002158 -333874.000000 0 0 1
-10.590984 -33.303597 -1.647891 34.985912 1.262897 1.617915 0.011193 0.002809 406323.000000 0 0 1
-9.362484 -33.975897 -1.349091 35.268083 1.301907 1.609058 0.001602 0.001487 823839.000000 0 0 1
-8.303884 -33.183897 -0.557291 34.211636 1.325593 1.587087 -0.002120 0.000312 -500137.000000 0 0 1
-8.729384 -33.106597 0.762909 34.246619 1.312989 1.548518 0.014649 0.001425 246312.000000 0 0 1
-7.739184 -32.633997 1.683509 33.581348 1.337947 1.520643 0.009324 -0.002994 512482.000000 0 0 1
-6.799284 -33.707997 2.271409 34.461843 1.371756 1.504838 0.016034 -0.004035 -76904.100000 0 0 1
-7.502484 34.508228 3.147909 35.454399 -1.356716 1.481892 0.042027 -0.011593 681876.000000 0 0 1
-6.670784 33.391028 3.606809 34.241337 -1.373614 1.465266 0.034968 -0.010661 174579.000000 0 0 1
-5.753084 33.735528 4.799709 34.557503 -1.401886 1.431455 0.038406 -0.014376 21916.500000 0 0 1
-4.676184 -34.551897 4.408009 35.144428 1.436276 1.445040 0.033637 -0.014014 -456408.000000 0 0 1
-4.010384 -34.023197 5.498709 34.697217 1.453466 1.411648 0.014218 -0.016307 390115.000000 0 0 1
-2.886284 -33.007197 5.110609 33.524976 1.483574 1.417758 0.027550 -0.010517 396910.000000 0 0 1
-3.445284 -31.744397 4.677209 32.271551 1.462687 1.425351 0.017207 -0.001797 387894.000000 0 0 1
-3.731984 -31.730797 3.270009 32.116415 1.453720 1.468802 0.007871 -0.004884 -174309.000000 0 0 1
-4.360484 -30.446897 2.716609 30.877294 1.428548 1.482702 0.009195 -0.002727 -141704.000000 0 0 1
-3.486784 -29.368197 2.876809 29.714048 1.452623 1.473828 0.008325 0.003152 -64748.800000 0 0 1
-3.851284 -28.268097 2.028209 28.601247 1.435389 1.499823 0.004405 0.002579 311020.000000 0 0 1
-3.002784 -27.017697 2.349209 27.285370 1.460109 1.484592 0.006627 -0.001814 113990.000000 0 0 1
-3.421984 -25.888497 1.595009 26.162345 1.439377 1.509793 0.016600 -0.007866 -292067.000000 0 0 1
-3.129384 -24.594097 2.105909 24.881670 1.444235 1.486058 0.013859 -0.009096 -411465.000000 0 1 0
-4.061184 -24.051997 3.196009 24.600940 1.403524 1.440514 0.005795 -0.007737 -349487.000000 0 1 0
-4.081384 -24.785197 4.437909 25.508013 1.407591 1.395925 0.007726 -0.006811 -25336.600000 0 0 1
-4.992284 -24.104197 5.286409 25.177000 1.366571 1.359252 -0.001513 -0.001135 341091.000000 0 0 1
-5.601284 -25.040597 6.394309 26.444150 1.350731 1.326571 -0.000860 0.004508 -113506.000000 0 0 1
-4.628584 -25.274797 7.351409 26.726061 1.389673 1.292139 -0.009224 -0.001162 -442293.000000 0 0 1
-5.155484 -26.245497 8.249509 27.990347 1.376833 1.271627 -0.007920 -0.002790 242930.000000 0 0 1
-4.286584 -26.773597 9.428609 28.707124 1.412039 1.236143 -0.003329 0.004636 -83270.000000 0 0 1
-4.050984 -26.034597 10.549609 28.381419 1.416434 1.189948 -0.000958 0.003629 -881160.000000 0 0 1
-5.142184 -25.785897 11.353509 28.640124 1.373960 1.163183 0.006361 0.003536 -357201.000000 0 0 1
-4.693284 -24.940197 12.584709 28.326935 1.384790 1.110441 -0.007916 0.003429 575775.000000 0 0 1
-3.882284 -25.635597 13.538109 29.249553 1.420497 1.089590 -0.008982 0.004553 -416832.000000 0 0 1
-3.352684 -24.778697 14.457409 28.883230 1.436308 1.046566 -0.008210 0.003263 -419407.000000 0 0 1
-2.180584 -25.534997 15.072609 29.731709 1.485607 1.039149 0.016555 -0.002871 -282223.000000 0 0 1
-2.543484 -26.013797 16.345009 30.827686 1.473332 1.011953 0.010088 0.001155 -481557.000000 0 0 1
-1.435184 -26.432297 17.055709 31.490050 1.516553 0.998431 0.013398 -0.001212 -427674.000000 0 0 1
-1.830584 -26.937297 18.456609 32.704975 1.502943 0.971167 0.010482 -0.018612 177000.000000 0 0 1
-2.337184 -25.884597 19.256609 32.346434 1.480748 0.933127 0.016578 -0.010234 -54952.600000 0 0 1
-2.503184 -26.198697 20.620109 33.433913 1.475539 0.906199 0.019684 -0.013112 44357.500000 0 0 1
-3.124484 -25.015197 21.384409 33.057759 1.446536 0.867310 0.032282 -0.010184 -69333.100000 0 0 1
-2.859184 -25.215297 22.807209 34.119714 1.457888 0.838678 0.028468 -0.010295 174471.000000 0 0 1
-3.121684 -24.118297 23.693609 33.953266 1.442080 0.798433 0.023795 -0.003598 144903.000000 0 0 1
-2.038784 -23.012297 23.641609 33.055228 1.482432 0.773864 0.016552 -0.005521 95906.200000 0 0 1
-2.183284 -22.195697 22.482509 31.668263 1.472747 0.781386 0.019044 -0.007099 219983.000000 0 0 1
-0.967384 -21.497897 22.265509 30.965275 1.525828 0.768365 0.019181 -0.008048 39034.400000 0 0 1
-1.352984 -20.243797 21.434709 29.514210 1.504061 0.757945 0.007262 0.008513 -266204.000000 0 0 1
-2.132184 -19.222697 22.073509 29.347880 1.460328 0.719504 0.010708 -0.003837 671132.000000 0 0 1
-3.479784 -19.560797 22.397609 29.939715 1.394742 0.725617 0.009992 -0.008288 394012.000000 0 0 1
-4.511684 -19.564197 21.186009 29.188355 1.344149 0.758545 0.012834 -0.009937 -259485.000000 0 0 1
-4.418084 -20.587497 20.150309 29.144458 1.359402 0.807379 0.017339 -0.005904 -247252.000000 0 0 1
-5.144984 -21.767997 20.429309 30.293121 1.338700 0.830661 0.015471 -0.001576 26043.100000 0 0 1
-5.176084 -22.583697 19.085209 30.017668 1.345492 0.881753 0.001112 -0.001343 -166121.000000 0 0 1
-5.711284 -23.874697 19.205409 31.168376 1.335990 0.906910 -0.003346 -0.001760 -440194.000000 0 0 1
-5.495984 -24.635197 18.085109 31.051086 1.351296 0.949080 0.008209 -0.003885 130514.000000 0 0 1
-6.119384 -26.063397 18.102109 32.317702 1.340185 0.976254 0.009269 -0.012355 678074.000000 0 0 1
-7.536884 -26.038897 18.019209 32.550279 1.289049 0.984138 0.010846 -0.012578 -340649.000000 0 0 1
-8.076884 -27.310097 17.910009 33.642917 1.283246 1.009415 0.016438 -0.020605 23846.200000 0 0 1
-9.614884 -27.253697 18.015909 34.055586 1.231636 1.013357 0.016196 -0.015217 -380467.000000 0 0 1
-10.345684 -26.625697 16.958609 33.219803 1.200191 1.035034 0.018264 -0.013521 -207371.000000 0 0 1
-11.716284 -26.501197 17.217809 33.705158 1.154528 1.034639 0.018228 -0.013383 -109378.000000 0 0 1
-12.114984 -25.460997 18.324509 33.627709 1.126675 0.994499 0.019933 -0.011000 -961898.000000 0 0 1
-12.095784 -24.180997 17.770809 32.354756 1.106974 0.989331 0.021803 -0.011212 -125376.000000 0 0 1
-12.396684 -23.209197 18.731709 32.298940 1.080220 0.952131 0.019347 -0.001744 -961887.000000 0 0 1
-11.233184 -22.557697 19.431209 31.821471 1.108769 0.913938 0.009757 -0.003154 -783424.000000 0 0 1
-10.584584 -23.493297 20.241009 32.766856 1.147496 0.904946 0.011807 -0.004940 -1010690.000000 0 0 1
-9.217384 -23.270097 20.193509 32.159530 1.193653 0.891923 0.007713 -0.006830 -891018.000000 0 0 1
-8.323284 -24.219097 20.972109 33.100922 1.239775 0.884624 -0.003364 -0.004648 -393049.000000 0 0 1
-8.548484 -24.229797 22.388109 34.079129 1.231621 0.854037 -0.000919 0.006570 -239937.000000 0 0 1
-7.562984 -24.851497 23.167609 34.807093 1.275374 0.842499 -0.007503 0.009519 -264689.000000 0 0 1
-7.572184 -24.363797 24.644709 35.472443 1.269464 0.802715 -0.006944 0.001887 -588538.000000 0 0 1
-6.609584 -24.994497 25.404009 36.246036 1.312272 0.794170 0.006358 0.000856 -512539.000000 0 0 1
-6.604684 -24.564797 26.764409 36.924039 1.308140 0.759979 0.012312 -0.000133 -208693.000000 0 0 1
-5.419784 -25.183097 27.523809 37.697778 1.358815 0.752302 0.010925 -0.003131 -204740.000000 0 0 1
-4.204884 -24.555997 27.211509 36.893688 1.401205 0.741338 0.013356 -0.002544 -446744.000000 0 0 1
-3.244884 -24.709597 28.239209 37.663595 1.440223 0.723075 0.022972 -0.000832 195935.000000 0 0 1
-1.870984 -24.135197 27.825309 36.881650 1.493430 0.715983 0.018976 -0.000498 -699155.000000 0 0 1
-1.916284 -22.734797 27.585809 35.798324 1.486706 0.691031 0.013143 -0.002167 413471.000000 0 0 1
-0.691484 -22.171997 27.114909 35.032754 1.539619 0.685682 0.010167 -0.001196 488275.000000 0 0 1
0.432416 -21.908697 28.131409 35.658858 -1.551062 0.661773 0.010654 -0.005867 -163295.000000 0 0 1
0.956916 -23.086697 28.766809 36.897704 -1.529371 0.676711 0.015992 0.003410 156801.000000 0 0 1
1.928916 -22.744897 29.729309 37.481767 -1.486192 0.654804 0.016063 -0.001142 -108353.000000 0 0 1
2.452916 -23.953497 30.437209 38.809928 -1.468749 0.669288 0.027412 -0.011215 -576987.000000 0 0 1
3.099116 -24.946097 29.650709 38.872571 -1.447197 0.703215 0.017738 -0.001467 341332.000000 0 0 1
3.897416 -25.863397 30.363509 40.075526 -1.421229 0.711080 -0.005269 -0.001720 776432.000000 0 0 1
5.333016 -25.327097 30.820309 40.246669 -1.363262 0.698535 -0.010797 -0.011144 555415.000000 0 0 1
6.254416 -24.885597 29.896909 39.398424 -1.324569 0.709274 -0.009533 -0.004117 -205401.000000 0 0 1
6.641916 -25.869797 28.919809 39.366442 -1.319480 0.745674 -0.009458 0.002074 -684321.000000 0 0 1
7.821816 -25.463697 28.005209 38.650645 -1.272770 0.760382 -0.011772 0.001434 -29376.000000 0 0 1
7.579016 -24.322597 27.225509 37.286171 -1.268728 0.752215 -0.000798 0.010720 473046.000000 0 0 1
8.746816 -23.972997 26.493109 36.784456 -1.220944 0.766669 -0.008767 0.018661 257737.000000 0 0 1
8.424916 -22.753897 25.679209 35.329036 -1.216185 0.757060 0.006845 0.020999 33381.700000 0 0 1
7.581016 -22.938697 24.557109 34.448617 -1.251607 0.777226 0.006679 0.022847 175527.000000 0 0 1
7.475616 -21.751997 23.752309 33.063672 -1.239767 0.769324 0.012773 0.032533 -258164.000000 0 0 1
6.972816 -22.030997 22.333009 32.136401 -1.264271 0.802454 0.020684 0.031133 -11882.200000 0 0 1
7.890916 -22.787197 21.609909 32.380720 -1.237433 0.840125 0.027740 0.027448 -179708.000000 0 0 1
7.382716 -22.872097 20.302709 31.461680 -1.258571 0.869360 0.038173 0.014916 -212699.000000 0 0 1
8.101816 -23.858497 19.409009 31.805297 -1.243436 0.914427 0.042185 -0.005660 56094.400000 0 0 1
9.378516 -23.465897 18.956609 31.590472 -1.190578 0.927203 0.034767 -0.008583 -544556.000000 0 0 1
10.039916 -24.476897 18.270909 32.151897 -1.181546 0.966396 0.042462 -0.016471 646960.000000 0 0 1
11.421016 -24.000797 17.696509 31.931869 -1.126647 0.983400 0.028400 -0.017787 337550.000000 0 0 1
11.310116 -23.029797 16.696309 30.611387 -1.114288 0.993897 0.033053 -0.013684 -819668.000000 0 0 1
12.542316 -22.654597 16.182709 30.535561 -1.065169 1.012240 0.035289 -0.016441 -847696.000000 0 0 1
-12.021384 22.652628 11.408809 28.068063 -1.082904 1.152210 0.011683 -0.009147 177223.000000 0 0 1
-13.062784 21.798528 10.910009 27.655749 -1.030928 1.165280 0.001356 -0.015549 665560.000000 0 0 1
-12.531984 20.553428 10.445709 26.241320 -1.023255 1.161392 0.019079 -0.022467 154519.000000 0 0 1
-13.559084 19.864528 9.513209 25.864056 -0.971859 1.194137 0.022897 -0.022403 -444451.000000 0 0 1
-13.804884 20.617328 8.318509 26.169574 -0.980782 1.247315 0.025374 -0.023305 374764.000000 0 0 1
-14.686384 19.902828 7.423309 25.824755 -0.935081 1.279234 0.024246 -0.019723 643179.000000 0 0 1
-16.186584 19.962928 7.806809 26.860198 -0.889485 1.275894 0.008079 -0.011054 -392982.000000 0 0 1
-16.674484 18.976828 8.731909 26.728349 -0.849888 1.237996 0.000817 -0.020634 -77808.400000 0 0 1
-18.069784 19.054928 8.836909 27.707370 -0.811928 1.246188 0.023821 -0.013615 -394365.000000 0 0 1
-18.632784 17.913328 9.664109 27.594618 -0.765714 1.212993 0.015042 -0.009013 -338207.000000 0 0 1
-18.309684 16.667328 9.186409 26.408984 -0.738477 1.215518 0.019139 -0.011301 217459.000000 0 0 1
-18.964784 15.613328 9.870409 26.473836 -0.688776 1.188732 0.028718 -0.016290 -386389.000000 0 0 1
-18.100584 14.857628 10.930309 25.842831 -0.687318 1.134094 0.024004 -0.012246 307825.000000 0 0 1
-17.149984 13.971428 10.378109 24.434154 -0.683617 1.132124 0.012136 -0.010768 650413.000000 0 1 0
-16.371584 13.061528 11.198909 23.749691 -0.673408 1.079761 0.007096 -0.012136 250277.000000 0 1 0
-17.175384 12.056828 12.024809 24.185883 -0.612056 1.050447 0.013896 -0.008895 -281473.000000 0 1 0
-17.905684 11.223028 11.129709 23.883892 -0.559882 1.086041 0.003141 -0.008868 128363.000000 0 1 0
-18.775284 10.331828 11.788409 24.458629 -0.503065 1.067891 0.015652 -0.011672 -460465.000000 0 1 0
-19.742884 9.595628 10.866309 24.493555 -0.452409 1.111141 0.018757 -0.012706 -397325.000000 0 1 0
-19.143984 8.793928 9.797309 23.233867 -0.430608 1.135497 0.008056 -0.013433 450166.000000 0 1 0
-18.880184 9.462028 8.557409 22.786412 -0.464577 1.185808 0.021006 -0.011318 -151326.000000 0 1 0
-20.113984 9.784628 7.626309 23.632010 -0.452756 1.242204 0.043007 -0.024631 441416.000000 0 1 0
-20.397684 8.636428 6.941409 23.212853 -0.400517 1.267117 0.023020 -0.034685 362529.000000 0 1 0
-21.434884 8.792328 5.988609 23.929537 -0.389258 1.317847 0.047610 -0.028225 -221803.000000 0 1 0
-21.875584 7.488428 5.396709 23.743256 -0.329816 1.341498 0.070047 -0.020364 -706882.000000 0 1 0
-22.445784 6.587228 6.303309 24.226772 -0.285458 1.307588 0.048485 -0.012590 170992.000000 0 1 0
-22.142484 5.263928 5.932309 23.520009 -0.233397 1.315819 0.042447 -0.003354 -832145.000000 0 1 0
-23.269884 4.334228 6.338209 24.503998 -0.184149 1.309161 0.075998 0.002138 -853565.000000 0 1 0
-24.392384 4.486828 5.537409 25.412259 -0.181910 1.351131 0.073690 0.000173 -453169.000000 0 0 1
-25.027184 3.273628 5.286209 25.787993 -0.130064 1.364346 0.058461 -0.003009 -988633.000000 0 0 1
-26.063254 3.364828 4.219509 26.616152 -0.128392 1.411593 0.054089 -0.001645 -915551.000000 0 0 1
-25.503124 3.719628 2.978709 25.944512 -0.144829 1.455732 0.045054 0.000060 234761.000000 0 0 1
-26.316794 3.188428 1.992209 26.583992 -0.120568 1.495786 0.030959 0.003401 -400184.000000 0 0 1
-25.774434 3.352728 0.575509 25.997951 -0.129353 1.548658 0.043350 -0.000033 -239797.000000 0 0 1
-25.724924 4.737728 0.196909 26.158298 -0.182128 1.563269 0.054943 -0.004685 475002.000000 0 0 1
-25.438174 4.877828 -1.205391 25.929652 -0.189453 1.617300 0.071356 -0.001663 22474.600000 0 0 1
-26.712774 5.051728 -2.078691 27.265605 -0.186906 1.647109 0.063688 -0.010846 229281.000000 0 0 1
-27.621824 3.986228 -2.109591 27.987596 -0.143325 1.646244 0.032253 -0.005047 1373470.000000 0 0 1
-28.980464 4.476128 -2.253691 29.410579 -0.153242 1.647500 0.006561 0.005870 581236.000000 0 0 1
-30.063534 3.453028 -2.420391 30.357829 -0.114357 1.650610 0.003529 0.005959 -844897.000000 0 0 1
-30.133064 2.819428 -3.700691 30.490094 -0.093294 1.692470 0.006860 -0.002179 416236.000000 0 0 1
-31.113454 1.799728 -3.800391 31.396322 -0.057780 1.692140 0.020923 -0.009042 11670.900000 0 0 1
-31.140164 1.177328 -5.227591 31.597842 -0.037789 1.737002 0.026381 -0.015964 -61659.400000 0 0 1
-29.918764 0.532228 -5.567691 30.437065 -0.017787 1.754757 0.031447 -0.009218 527522.000000 0 0 1
-29.931954 -0.276572 -6.736891 30.681983 0.009240 1.792172 0.042010 -0.010322 -208687.000000 0 0 1
-30.145974 0.452728 -8.083591 31.214246 -0.015017 1.832753 0.045373 -0.008875 -733587.000000 0 0 1
-31.491004 0.717728 -8.329791 32.581957 -0.022788 1.829323 0.039536 -0.013322 -220407.000000 0 0 1
-31.622464 1.674528 -9.348191 33.017767 -0.052904 1.857848 0.074521 -0.020898 1032050.000000 0 0 1
-33.142104 2.056328 -9.601091 34.566002 -0.061966 1.852259 0.095696 -0.024153 1384110.000000 0 0 1
-33.739884 2.736928 -8.502091 34.902093 -0.080941 1.816871 0.060178 -0.018094 514110.000000 0 0 1
-35.155625 2.773728 -8.407691 36.253287 -0.078735 1.804843 0.070294 -0.022561 159340.000000 0 0 1
35.239235 3.356228 -7.078791 36.099546 0.094955 1.768166 0.080407 -0.013740 -537615.000000 0 0 1
33.872772 3.264228 -6.789691 34.700429 0.096071 1.767733 0.089786 -0.014536 -94357.700000 0 0 1
33.562632 3.912128 -5.553091 34.243128 0.116038 1.733682 0.085978 -0.021544 154845.000000 0 0 1
32.110762 3.744928 -5.042991 32.719372 0.116101 1.725542 0.075640 -0.018656 136489.000000 0 0 1
31.935462 2.495828 -4.472991 32.343632 0.077994 1.709537 0.083891 -0.026603 -929200.000000 0 0 1
30.639292 2.029028 -4.464991 31.029330 0.066127 1.715193 0.078649 -0.023319 -889970.000000 0 0 1
30.550082 0.724028 -3.659191 30.776962 0.023695 1.689972 0.078862 -0.019205 -279944.000000 0 0 1
31.313792 -0.288672 -4.246791 31.601774 -0.009218 1.705589 0.067839 -0.026590 137791.000000 0 0 1
31.268832 -1.471472 -3.486191 31.496962 -0.047024 1.681707 0.066054 -0.021205 28364.200000 0 0 1
32.356132 -2.491672 -3.906891 32.686259 -0.076856 1.690610 0.057011 -0.021523 56349.400000 0 0 1
32.362852 -3.690072 -3.180291 32.727436 -0.113532 1.668125 0.041999 -0.013338 711351.000000 0 0 1
33.680032 -4.269972 -3.214491 34.101469 -0.126108 1.665199 0.055758 -0.014393 646623.000000 0 0 1
33.667192 -5.709172 -2.695691 34.254069 -0.167979 1.649575 0.048261 -0.013407 -258563.000000 0 0 1
33.564042 -5.841672 -1.237791 34.091087 -0.172319 1.607113 0.055660 -0.015719 -58451.700000 0 0 1
33.540132 -7.230872 -0.924891 34.323190 -0.212339 1.597746 0.061135 -0.009213 -271885.000000 0 0 1
33.054172 -7.527872 0.457609 33.903636 -0.223924 1.557299 0.051642 -0.003045 -1195020.000000 0 0 1
31.708382 -7.335572 0.689209 32.553143 -0.227345 1.549623 0.055507 -0.013447 -969407.000000 0 0 1
31.269212 -7.482272 1.998209 32.213986 -0.234869 1.508727 0.053659 -0.018618 -580616.000000 0 0 1
31.086732 -8.980472 2.449609 32.450491 -0.281228 1.495237 0.061562 -0.021497 -93113.800000 0 0 1
30.037282 -9.776072 1.885209 31.644335 -0.314652 1.511186 0.060488 -0.029185 739295.000000 0 0 1
28.767952 -9.416172 2.428309 30.367022 -0.316324 1.490746 0.054620 -0.032023 -84302.400000 0 0 1
27.683602 -10.555072 2.188809 29.708286 -0.364261 1.497053 0.050659 -0.028031 1651590.000000 0 0 1
26.325632 -10.345872 2.681509 28.412435 -0.374454 1.476278 0.059411 -0.030847 1878640.000000 0 0 1
25.576092 -9.326372 2.075609 27.302488 -0.349668 1.494700 0.057248 -0.026082 -562182.000000 0 0 1
24.843592 -9.575172 0.734109 26.635069 -0.367873 1.543231 0.053053 -0.020396 -912149.000000 0 0 1
25.741972 -9.588772 -0.319191 27.471723 -0.356573 1.582415 0.049893 -0.022758 112582.000000 0 0 1
25.206892 -9.825172 -1.617691 27.102368 -0.371666 1.630520 0.044692 -0.010459 -322313.000000 0 0 1
24.655892 -11.263072 -1.813291 27.167220 -0.428503 1.637592 0.038793 -0.002879 -467789.000000 0 0 1
23.351892 -11.481572 -1.351391 26.056930 -0.456967 1.622683 0.031993 -0.003725 -305033.000000 0 0 1
22.974192 -12.770972 -1.735791 26.342441 -0.507349 1.636737 0.021686 -0.003087 -342088.000000 0 0 1
21.482592 -13.030472 -1.438891 25.166751 -0.545229 1.628002 0.022992 -0.003088 107553.000000 0 0 1
20.618192 -12.485472 -2.443491 24.227412 -0.544495 1.671825 0.021398 0.002371 -147105.000000 0 1 0
19.283192 -12.642672 -2.076291 23.151450 -0.580324 1.660600 0.018608 0.001005 -486737.000000 0 1 0
18.238092 -12.079872 -3.057291 22.088421 -0.585003 1.709654 0.013515 0.002879 -174343.000000 0 1 0
18.170392 -12.720972 -4.304591 22.594596 -0.610789 1.762482 0.004082 -0.002976 221003.000000 0 1 0
17.408692 -11.996472 -5.219591 21.776640 -0.603379 1.812840 0.013277 -0.013024 -717709.000000 0 1 0
17.448292 -12.666472 -6.639291 22.560200 -0.627926 1.869511 0.005644 -0.018604 -272959.000000 0 1 0
16.698992 -13.884472 -6.734891 22.737495 -0.693629 1.871510 0.006025 -0.016385 522478.000000 0 1 0
16.793592 -14.400072 -8.066791 23.546973 -0.708817 1.920461 0.006275 -0.020200 -603448.000000 0 1 0
15.854792 -15.580272 -8.293691 23.725611 -0.776665 1.927905 0.011619 -0.019049 -222541.000000 0 1 0
14.498792 -15.139172 -8.377991 22.574327 -0.807002 1.951021 0.016095 -0.013229 421278.000000 0 1 0
13.699892 -16.099172 -9.018291 22.982601 -0.865740 1.974032 0.017019 -0.013702 -196921.000000 0 1 0
13.592092 -15.904872 -10.592091 23.449996 -0.863645 2.039453 0.017349 -0.018491 -368774.000000 0 1 0
12.737992 -14.830972 -11.011091 22.437877 -0.861171 2.083731 0.002600 -0.014685 439178.000000 0 1 0
13.183292 -13.523072 -10.646491 21.679955 -0.798120 2.084120 0.005995 -0.012021 -235418.000000 0 1 0
13.347892 -12.488972 -11.814391 21.765121 -0.752166 2.144579 0.025488 -0.010747 -157125.000000 0 1 0
14.350492 -12.802772 -12.768291 23.084126 -0.728460 2.156901 0.020752 -0.005596 88001.100000 0 1 0
14.358992 -11.910572 -13.861091 23.241606 -0.692463 2.209794 0.032102 -0.013422 -279021.000000 0 1 0
15.641592 -11.957272 -14.712391 24.578247 -0.652687 2.212541 0.025379 -0.010428 -122378.000000 0 1 0
15.884192 -13.210272 -15.187891 25.641585 -0.693751 2.204725 0.012876 -0.003379 26262.700000 0 0 1
16.829392 -13.175372 -16.247091 26.847474 -0.664214 2.220767 0.008472 0.000820 181272.000000 0 0 1
17.958292 -14.236172 -16.111191 28.013199 -0.670296 2.183558 0.005333 0.000112 -62930.700000 0 0 1
18.754492 -14.039872 -14.964591 27.799064 -0.642613 2.139230 0.006541 -0.008304 -441061.000000 0 0 1
19.909292 -14.805372 -15.036391 29.011584 -0.639419 2.115646 0.002299 0.001622 -436431.000000 0 0 1
20.923592 -14.684572 -13.863891 29.079904 -0.611946 2.067752 0.005019 -0.001061 -87419.100000 0 0 1
21.447992 -13.403472 -13.987191 28.901746 -0.558548 2.075967 -0.001838 0.000461 -543172.000000 0 0 1
22.355992 -13.174372 -12.956791 29.004015 -0.532514 2.033897 0.006071 0.004273 -194182.000000 0 0 1
23.157692 -11.838972 -12.995391 29.074390 -0.472593 2.034172 0.019740 -0.001944 -491205.000000 0 0 1
22.320492 -10.712072 -12.898391 27.916328 -0.447456 2.051088 0.010115 0.003678 240024.000000 0 0 1
22.921392 -9.447472 -13.235591 28.103840 -0.390952 2.061167 0.017354 0.001829 110053.000000 0 0 1
23.972192 -8.912572 -12.220391 28.344980 -0.355952 2.016542 0.023799 -0.007864 -217635.000000 0 0 1
25.108892 -9.712372 -12.174491 29.546656 -0.369084 1.995491 0.018629 -0.002713 -531821.000000 0 0 1
26.064892 -9.273072 -11.225491 29.855990 -0.341805 1.956259 0.023287 -0.009619 -920213.000000 0 0 1
27.378402 -9.989672 -11.415591 31.299939 -0.349864 1.944124 0.024256 -0.009689 -998089.000000 0 0 1
27.986282 -9.507272 -12.597891 32.129847 -0.327480 1.973702 0.017518 -0.007908 -291942.000000 0 0 1
29.186642 -10.180172 -12.839891 33.471761 -0.335601 1.964492 0.010514 -0.007413 -430446.000000 0 0 1
29.926572 -9.953872 -14.187691 34.582797 -0.321099 1.993528 0.009494 -0.000402 -27090.400000 0 0 1
29.313792 -10.541272 -15.334891 34.721401 -0.345202 2.028239 0.002452 0.002353 523498.000000 0 0 1
29.951792 -10.053672 -16.548491 35.665652 -0.323845 2.053290 0.003999 0.000066 -244102.000000 0 0 1
29.790152 -10.807172 -17.863591 36.377961 -0.348012 2.084097 -0.003144 0.011549 -53711.700000 0 0 1
28.555082 -10.689872 -18.563691 35.697013 -0.358209 2.117688 0.004963 0.011626 443427.000000 0 0 1
28.443882 -9.407472 -19.184091 35.575052 -0.319413 2.140351 0.009995 0.010343 -3821.910000 0 0 1
27.021422 -9.073072 -19.727791 34.665020 -0.323945 2.176205 -0.021511 0.007802 274136.000000 0 0 1
26.596612 -9.649472 -20.951491 35.205924 -0.348039 2.208202 -0.015476 0.008320 281866.000000 0 0 1
25.224592 -9.320372 -21.057791 34.155233 -0.353936 2.235127 -0.002480 0.009548 32477.900000 0 0 1
24.629792 -9.787572 -22.391791 34.696045 -0.378252 2.272304 0.006976 0.002363 -105610.000000 0 0 1
24.736692 -11.170572 -22.651791 35.352359 -0.424166 2.266262 0.005361 0.004430 348187.000000 0 0 1
23.808292 -11.582272 -23.657591 35.505850 -0.452774 2.300034 0.012123 -0.001393 -524030.000000 0 0 1
23.976292 -13.120072 -23.978891 36.359127 -0.500699 2.290951 0.010648 0.004663 1144080.000000 0 0 1
25.193592 -13.547072 -24.642891 37.755958 -0.493366 2.281924 0.010915 0.006173 1318420.000000 0 0 1
26.411072 -13.272772 -23.930991 38.031612 -0.465682 2.251371 0.001955 0.008438 -38047.200000 0 0 1
27.637652 -13.968972 -24.573291 39.532501 -0.467984 2.241576 0.005457 0.012900 -104910.000000 0 0 1
28.040782 -13.264972 -25.661941 40.258914 -0.441864 2.261945 0.016136 -0.005624 223679.000000 0 0 1
29.452252 -13.402372 -25.826741 41.401441 -0.427049 2.244408 0.007307 -0.003529 504227.000000 0 0 1
29.929712 -12.860272 -27.200131 42.438442 -0.405830 2.266507 0.015654 -0.002149 77810.800000 0 0 1
29.780532 -13.761572 -28.281341 43.313915 -0.432870 2.282255 0.014659 0.005056 102232.000000 0 0 1
30.601502 -13.305172 -29.328331 44.425562 -0.410132 2.291839 0.015364 0.007398 79389.100000 0 0 1
30.476652 -14.166572 -30.624111 45.468168 -0.435121 2.309769 0.014581 0.006360 319117.000000 0 0 1
31.107592 -15.454472 -30.365641 46.136701 -0.461090 2.289177 0.023805 0.005741 129966.000000 0 0 1
31.293302 -16.344972 -31.451741 47.282564 -0.481340 2.298540 0.005855 0.006589 417885.000000 0 0 1
29.984822 -16.928272 -32.088631 47.067358 -0.513954 2.320962 0.006338 0.013746 766571.000000 0 0 1
29.255892 -16.083772 -32.976371 46.925856 -0.502660 2.350029 0.002780 0.009204 -84413.900000 0 0 1
28.237372 -16.843272 -33.610751 47.018375 -0.537834 2.367196 0.003063 0.000970 271250.000000 0 0 1
27.438272 -15.973372 34.299591 46.738307 -0.527196 0.746803 0.019836 -0.001472 252483.000000 0 0 1
26.783192 -14.826772 -34.027111 45.771354 -0.505591 2.408958 0.024812 -0.004327 479199.000000 0 0 1
27.643372 -13.710172 -33.741961 45.723569 -0.460415 2.400832 0.036334 0.005639 -191330.000000 0 0 1
26.967322 -12.336272 -33.576141 44.797068 -0.429034 2.418128 0.039633 -0.005419 6186.480000 0 0 1
26.286312 -11.741572 34.292205 44.774882 -0.420090 0.698387 0.054789 -0.013765 -39176.900000 0 0 1
25.777772 -10.463472 -34.379369 44.225771 -0.385591 2.461255 0.044225 -0.012000 143122.000000 0 0 1
20.246516 -30.033997 9.587909 37.468525 -0.977652 1.312026 0.009257 0.001622 37364.700000 0 0 1
20.548616 -29.708797 8.279009 37.059415 -0.965684 1.345497 0.008848 -0.004298 -103581.000000 0 0 1
21.768816 -30.268997 7.873409 38.106221 -0.947314 1.362680 0.026651 -0.007191 -71083.500000 0 0 1
22.226016 -29.918597 6.410609 37.818172 -0.931866 1.400463 0.028070 -0.008287 162173.000000 0 0 1
22.686116 -28.559497 6.223209 37.000446 -0.899513 1.401800 0.032710 -0.002029 73201.100000 0 0 1
23.363716 -28.432897 5.012409 37.140505 -0.882955 1.435425 0.035216 -0.002899 -151563.000000 0 0 1
23.632416 -26.943797 4.629909 36.137174 -0.850778 1.442323 0.022992 -0.005847 153923.000000 0 0 1
24.603516 -26.257597 5.388009 36.384406 -0.817908 1.422164 0.019750 -0.002451 29189.500000 0 0 1
24.415316 -24.846197 5.148609 35.212914 -0.794145 1.424057 0.018800 0.005007 203914.000000 0 0 1
25.155716 -23.975997 6.183009 35.297140 -0.761391 1.394718 0.023030 0.009511 997443.000000 0 0 1
26.543216 -23.686497 5.911309 36.062945 -0.728586 1.406137 0.020403 0.015659 790335.000000 0 0 1
27.090016 -22.684297 6.749609 35.972260 -0.697114 1.382044 0.037720 0.001856 21876.500000 0 0 1
26.610016 -21.219597 6.543009 34.657974 -0.673171 1.380869 0.031243 0.003723 -58110.400000 0 0 1
27.163416 -20.670297 5.382909 34.555579 -0.650479 1.414384 0.033014 0.014892 47777.200000 0 0 1
26.750016 -19.301097 5.288409 33.407528 -0.625034 1.411828 0.041819 0.010873 59988.500000 0 0 1
26.986716 -18.647297 3.936909 33.037914 -0.604647 1.451349 0.046479 0.008934 -703971.000000 0 0 1
28.289316 -18.243497 3.693409 33.863724 -0.572775 1.461512 0.043349 0.002464 -697197.000000 0 0 1
28.430316 -17.568197 2.456909 33.510607 -0.553506 1.497413 0.039318 0.002938 -99143.700000 0 0 1
29.479716 -16.469197 2.410509 33.854079 -0.509469 1.499533 0.054549 -0.012926 150897.000000 0 0 1
29.000916 -15.281897 3.050309 32.922544 -0.484971 1.478012 0.054121 -0.019495 508950.000000 0 0 1
30.134316 -14.577697 3.549109 33.662775 -0.450569 1.465169 0.054330 -0.020340 600928.000000 0 0 1
29.751216 -13.340597 4.472609 32.910646 -0.421527 1.434473 0.050337 -0.020165 157513.000000 0 0 1
29.372616 -13.613297 5.779809 32.885842 -0.433998 1.394125 0.044153 -0.013572 -133403.000000 0 0 1
29.102116 -12.418997 6.534909 32.308972 -0.403342 1.367128 0.033967 -0.021583 -409495.000000 0 0 1
28.544916 -12.691097 7.915409 32.226229 -0.418355 1.322637 0.033519 -0.008649 -515348.000000 0 0 1
27.178216 -13.034597 7.875009 31.154003 -0.447193 1.315247 0.027531 -0.003131 -352147.000000 0 0 1
26.516316 -13.136397 9.125209 30.966908 -0.459967 1.271680 0.020735 -0.003346 195184.000000 0 0 1
27.015916 -14.254597 10.108209 32.174977 -0.485512 1.251221 0.028316 0.001737 768759.000000 0 0 1
28.209716 -13.961097 10.886409 33.304867 -0.459562 1.237805 0.021089 0.012361 824515.000000 0 0 1
28.495916 -15.219397 11.487209 34.287071 -0.490547 1.229159 0.017663 0.002765 110006.000000 0 0 1
29.331416 -15.079697 12.786909 35.372790 -0.474875 1.200931 0.018979 0.006434 507084.000000 0 0 1
30.722716 -14.882297 12.617909 36.394775 -0.451096 1.216750 0.036224 0.007629 147352.000000 0 0 1
31.486616 -14.919997 13.790409 37.472505 -0.442511 1.193924 0.044246 0.006669 2701.220000 0 0 1
33.015516 -14.967897 13.652609 38.735719 -0.425644 1.210603 0.046203 -0.003497 219814.000000 0 0 1
33.672416 -13.683797 13.498109 38.772114 -0.385994 1.215210 0.055903 -0.008524 59573.700000 0 0 1
34.791416 -13.580497 14.318809 39.998760 -0.372152 1.204691 0.052248 -0.016213 -496954.000000 0 0 1
-35.194160 -12.257997 14.147509 39.862757 0.335156 1.207983 0.059137 -0.019611 53305.100000 0 0 1
-34.411360 -12.191997 12.941209 38.733208 0.340502 1.230134 0.054762 -0.017328 170593.000000 0 0 1
-33.692260 -10.973897 12.987709 37.739573 0.314874 1.219473 0.053894 -0.016420 155983.000000 0 0 1
-32.451960 -10.947597 12.023609 36.298027 0.325359 1.233172 0.044264 -0.010150 952614.000000 0 0 1
-31.342760 -11.764097 12.394609 35.698584 0.359066 1.216211 0.023723 -0.009362 381346.000000 0 0 1
-31.529060 -13.121297 12.071409 36.221112 0.394364 1.231027 0.013150 -0.009108 173694.000000 0 0 1
-30.304560 -14.028897 12.486709 35.652408 0.433555 1.212975 -0.002591 -0.000700 891361.000000 0 0 1
-29.130060 -13.815597 11.727809 34.307035 0.442855 1.221913 0.005564 -0.002029 389121.000000 0 0 1
-28.201060 -14.893697 11.959509 34.061002 0.485894 1.212029 0.006368 -0.003383 21564.300000 0 0 1
-26.843260 -14.860897 11.275609 32.688625 0.505616 1.218622 0.012212 -0.001146 -400975.000000 0 0 1
-26.917060 -14.876597 9.882909 32.303454 0.504901 1.259871 0.004529 0.008064 74373.300000 0 0 1
-25.622660 -14.910697 9.328909 31.078580 0.527030 1.265924 0.006984 0.007053 -49536.800000 0 0 1
-25.640460 -14.880297 7.801309 30.654802 0.525841 1.313477 0.018717 0.011468 -105626.000000 0 0 1
-25.950460 -16.074697 7.155109 31.353115 0.554590 1.340557 0.019615 0.012709 207756.000000 0 0 1
-25.825260 -15.830297 5.756109 30.833021 0.549907 1.383008 0.021381 0.010960 -475443.000000 0 0 1
-26.090160 -16.979497 4.805409 31.497488 0.576938 1.417633 0.013243 0.009243 -1089280.000000 0 0 1
-27.426460 -17.285397 4.616109 32.746055 0.562362 1.429358 0.001929 0.005184 -809931.000000 0 0 1
-27.532460 -18.377797 3.700409 33.308750 0.588576 1.459472 0.010461 -0.000493 650168.000000 0 0 1
-28.956060 -19.045697 3.761609 34.861751 0.581800 1.462685 0.013380 -0.003687 838172.000000 0 0 1
-29.962460 -18.277097 3.107909 35.234364 0.547740 1.482475 0.005694 0.004682 -226843.000000 0 0 1
-31.234360 -18.718497 3.515709 36.583160 0.539899 1.474546 0.013721 -0.005018 -551371.000000 0 0 1
-32.302860 -17.729197 3.061709 36.975306 0.501954 1.487897 0.025425 -0.009828 -486856.000000 0 0 1
-32.675960 -17.868897 1.703009 37.281578 0.500423 1.525101 0.032405 -0.014290 -134620.000000 0 0 1
-33.312360 -16.707397 1.242309 37.287984 0.464877 1.537474 0.030376 -0.017712 223345.000000 0 0 1
-34.163260 -16.974997 -0.028791 38.148128 0.461147 1.571551 0.045254 -0.016233 -283197.000000 0 0 1
-33.241360 -17.274097 -1.064191 37.476859 0.479249 1.599196 0.040081 -0.013768 662119.000000 0 0 1
-33.792460 -17.899097 -2.213691 38.304157 0.487107 1.628621 0.039608 -0.008550 -428503.000000 0 0 1
-32.697160 -18.718897 -2.887591 37.786764 0.519948 1.647289 0.024140 -0.009388 -273074.000000 0 0 1
-33.107960 -19.408697 -3.954791 38.580758 0.530229 1.673484 0.024174 -0.016422 382016.000000 0 0 1
-31.969560 -20.037097 -4.565191 38.004987 0.559861 1.691208 0.013993 -0.009846 330438.000000 0 0 1
-32.355360 -21.033897 -5.654691 39.003457 0.576438 1.716288 0.023451 -0.017589 -450440.000000 0 0 1
-32.905060 -22.206997 -5.182891 40.034436 0.593668 1.700622 0.038693 -0.021860 -203064.000000 0 0 1
-33.098060 -23.050197 -6.311091 40.824295 0.608320 1.726010 0.039329 -0.018633 296450.000000 0 0 1
-33.637360 -24.506197 -5.922391 42.036893 0.629625 1.712152 0.030025 -0.012571 -113365.000000 0 0 1
-32.687160 -25.213397 -5.208491 41.608824 0.657029 1.696303 0.033786 -0.008557 -445715.000000 0 0 1
-33.324160 -26.388497 -4.708691 42.767092 0.669766 1.681121 0.026445 0.002234 110999.000000 0 0 1
-32.352160 -27.371997 -4.020491 42.568214 0.702205 1.665386 0.024160 0.001536 -511638.000000 0 0 1
-31.466060 -27.948397 -4.995691 42.381396 0.726262 1.688946 0.020767 0.002920 713695.000000 0 0 1
-30.758860 -29.163297 -4.560591 42.631026 0.758777 1.677980 0.028751 -0.002712 401303.000000 0 0 1
-29.743260 -28.939797 -3.420791 41.639827 0.771707 1.653041 0.031463 -0.004362 -920938.000000 0 0 1
-30.367460 -28.794897 -2.165091 41.904849 0.758824 1.622486 0.023068 -0.004273 488944.000000 0 0 1
-29.437060 -28.464097 -1.081891 40.962371 0.768596 1.597211 0.027611 -0.012060 629925.000000 0 0 1
-30.139460 -28.374797 0.292609 41.395673 0.755249 1.563728 0.023673 -0.008001 207450.000000 0 0 1
-30.518360 -29.634297 0.854309 42.547523 0.770702 1.550716 0.025173 -0.001099 -149585.000000 0 0 1
-31.445360 -29.550297 1.893209 43.192765 0.754339 1.526951 0.029074 0.002613 -330312.000000 0 0 1
-31.924460 -30.852997 2.559709 44.470560 0.768332 1.513205 0.016894 0.007353 -882933.000000 0 0 1
-32.882360 -30.554297 3.551509 45.026968 0.748716 1.491839 0.012813 0.010944 -46429.500000 0 0 1
-33.338060 -31.783897 4.146309 46.247532 0.761537 1.481021 0.017861 0.009072 580994.000000 0 0 1
-34.458160 -32.478997 3.254509 47.464111 0.755839 1.502175 0.009260 0.011726 190964.000000 0 0 1
-35.055660 -33.639397 3.861009 48.738237 0.764784 1.491494 0.015428 0.007685 -7455.570000 0 0 1
34.708416 -34.178597 3.057909 48.807801 -0.777707 1.508103 0.012322 0.003653 -331727.000000 0 0 1
33.500016 34.295228 3.852109 48.096283 0.797127 1.490619 0.018439 -0.002268 743132.000000 0 0 1
32.620416 -33.890497 4.529209 47.256439 -0.804492 1.474806 0.022102 -0.001577 605259.000000 0 0 1
32.043416 -32.818597 3.840509 46.028147 -0.797349 1.487261 0.018206 0.001541 -565095.000000 0 0 1
30.986116 -33.117297 2.748109 45.436184 -0.818632 1.510277 0.021919 -0.004138 -636743.000000 0 0 1
31.567916 -33.778797 1.651409 46.263026 -0.819218 1.535093 0.025156 -0.000889 -171383.000000 0 0 1
30.719016 -33.585297 0.543709 45.518411 -0.829942 1.558851 0.021812 -0.000628 -734346.000000 0 0 1
31.291916 -34.104097 -0.824391 46.292041 -0.828374 1.588606 0.021139 -0.009254 722995.000000 0 0 1
32.286716 -33.227397 -1.438791 46.352584 -0.799756 1.601841 0.016317 -0.009836 498315.000000 0 0 1
33.534316 -33.216697 -0.768691 47.206887 -0.780640 1.587080 0.010022 -0.002631 -1143900.000000 0 0 1
34.700216 -33.095497 -1.724991 47.983252 -0.761733 1.606754 0.002337 0.002976 -651650.000000 0 0 1
34.842516 -34.236097 -2.587091 48.916299 -0.776620 1.623709 0.004480 0.004308 157386.000000 0 0 1
-34.943760 -34.010397 -3.567891 48.892774 0.771863 1.643835 0.002463 0.007032 -316484.000000 0 0 1
-34.422260 33.807628 -4.321291 48.440905 -0.776390 1.660123 -0.002721 0.000529 13864.200000 0 0 1
-33.330060 33.192028 -3.658291 47.180364 -0.783323 1.648413 -0.003320 0.003037 404515.000000 0 0 1
-32.695560 32.172428 -4.433691 46.083863 -0.777334 1.667155 -0.002389 -0.004909 130789.000000 0 0 1
-31.477360 31.521528 -3.748691 44.704403 -0.786099 1.654750 -0.005218 -0.002188 1552700.000000 0 0 1
-30.242760 32.367928 -3.795191 44.460216 -0.819328 1.656262 -0.000874 -0.004576 2213240.000000 0 0 1
-29.041060 31.621828 -3.573191 43.082373 -0.827915 1.653830 0.020640 -0.005695 725860.000000 0 0 1
-28.682460 31.194728 -2.119791 42.429802 -0.827331 1.620777 0.010434 -0.004024 -270439.000000 0 0 1
-29.567560 30.275928 -1.492491 42.345011 -0.797235 1.606050 -0.002646 -0.002915 -132547.000000 0 0 1
-29.223360 30.158628 -0.132691 41.994824 -0.801147 1.573956 -0.001684 -0.000077 -231301.000000 0 0 1
-30.418260 29.644028 0.707509 42.479872 -0.772508 1.554140 -0.004665 0.001243 190070.000000 0 0 1
-30.879060 28.326328 0.362009 41.904991 -0.742308 1.562157 -0.006079 -0.001811 350105.000000 0 0 1
-31.852260 28.410128 -0.692891 42.687023 -0.728341 1.587029 -0.006955 0.000793 -90823.600000 0 0 1
-32.263260 26.957028 -1.173391 42.059198 -0.696035 1.598699 -0.007283 -0.002971 47459.000000 0 0 1
-32.662460 26.114028 -0.100991 41.818524 -0.674443 1.573211 -0.004924 -0.005583 140586.000000 0 0 1
-33.236760 24.946728 -0.671891 41.562879 -0.643870 1.586963 0.013520 -0.000366 -142957.000000 0 0 1
-33.407760 23.806228 0.358209 41.023691 -0.619130 1.562064 0.010690 -0.005945 826020.000000 0 0 1
-32.140060 23.271228 0.782909 39.688115 -0.626690 1.551069 0.014131 -0.012306 836581.000000 0 0 1
-31.582760 23.868428 1.938109 39.634945 -0.647166 1.521878 0.011674 -0.014378 -1147830.000000 0 0 1
-30.128560 23.515428 2.270309 38.286548 -0.662739 1.511464 0.020003 -0.025312 -457661.000000 0 0 1
-29.205060 24.218228 1.495409 37.969650 -0.692322 1.531402 0.027687 -0.021459 -267798.000000 0 0 1
-28.951660 25.551028 2.079009 38.670091 -0.723085 1.517008 0.008159 -0.017311 -652415.000000 0 0 1
-28.338860 26.534428 1.091909 38.837599 -0.752526 1.542678 0.006536 -0.005917 510072.000000 0 0 1
-26.941560 26.323628 0.872509 37.676814 -0.773798 1.547637 0.014673 -0.008801 234056.000000 0 0 1
-26.508360 27.205028 -0.183891 37.984741 -0.798368 1.575638 0.017349 -0.008004 -293633.000000 0 0 1
-25.265060 26.613528 -0.807191 36.704968 -0.811385 1.592789 0.022582 -0.009783 -815367.000000 0 0 1
-25.615060 25.648828 -1.843991 36.295922 -0.786057 1.621623 0.030660 -0.014594 426750.000000 0 0 1
-24.432060 25.193128 -2.506591 35.183835 -0.800733 1.642099 0.029824 -0.011009 1285750.000000 0 0 1
-23.490360 24.222828 -1.666391 33.783417 -0.800748 1.620142 0.026175 -0.008698 224708.000000 0 0 1
-24.114560 22.990828 -1.399491 33.347395 -0.761547 1.612776 0.014555 -0.005308 -780413.000000 0 0 1
-23.320260 22.235928 -0.593591 32.227680 -0.761601 1.589216 0.019151 -0.018459 -1345970.000000 0 0 1
-23.837060 20.834428 -0.185591 31.659331 -0.718283 1.576658 0.018069 -0.017974 -505753.000000 0 0 1
-24.889260 20.902028 0.755309 32.510622 -0.698543 1.547562 -0.005146 -0.020119 1040090.000000 0 0 1
-26.210460 21.340928 0.383909 33.801935 -0.683348 1.559438 0.001532 -0.019798 718525.000000 0 0 1
-26.867960 20.651828 -0.849691 33.898485 -0.655325 1.595865 -0.006864 -0.018261 -956509.000000 0 0 1
-27.047060 19.282628 -0.670691 33.223682 -0.619350 1.590985 -0.010643 -0.012102 243045.000000 0 0 1
-28.070660 18.827528 -1.522691 33.834248 -0.590803 1.615816 -0.011582 -0.010120 -96543.700000 0 0 1
-28.275260 17.298828 -1.418391 33.177577 -0.549051 1.613561 -0.033738 -0.004389 -217211.000000 0 0 1
-29.073360 16.845428 -0.352491 33.602871 -0.525143 1.581286 -0.022047 -0.005552 208333.000000 0 0 1
-29.156160 15.435328 -0.274191 32.991002 -0.486892 1.579108 -0.016628 -0.006297 -267962.000000 0 0 1
-27.963460 14.698628 0.362309 31.593291 -0.483946 1.559328 -0.006650 -0.006596 -562989.000000 0 0 1
-27.885660 14.819328 1.766709 31.628212 -0.488476 1.514909 0.003344 -0.009070 559398.000000 0 0 1
-26.721260 14.196628 2.341309 30.348834 -0.488362 1.493573 0.012708 -0.016015 620517.000000 0 0 1
-26.409060 12.654428 2.145009 29.362801 -0.446845 1.497679 0.026089 -0.013566 -233072.000000 0 0 1
-26.235460 12.271128 0.775709 28.973810 -0.437500 1.544020 0.012626 -0.010701 197863.000000 0 0 1
-25.784760 10.963828 0.673509 28.027005 -0.402045 1.546763 0.037075 -0.010849 -127710.000000 0 0 1
-25.716560 10.359628 -0.758291 27.735147 -0.382951 1.598140 0.030701 -0.006530 695365.000000 0 0 1
-27.006960 9.903828 -1.203591 28.790803 -0.351486 1.612613 0.029404 -0.012161 1002160.000000 0 0 1
-26.850460 9.108128 -2.418091 28.456148 -0.327036 1.655875 0.032200 -0.014724 857024.000000 0 0 1
-28.213660 8.656528 -3.082091 29.672300 -0.297702 1.674855 0.032664 -0.014767 692777.000000 0 0 1
-27.984060 7.788128 -4.132891 29.340132 -0.271437 1.712128 0.037475 -0.004968 9477.540000 0 0 1
-29.204760 7.511928 -4.753191 30.527691 -0.251758 1.727133 0.026866 -0.005655 -334973.000000 0 0 1
-10.928184 18.247828 -19.497391 28.854058 -1.031204 2.312743 0.024136 -0.006455 49736.900000 0 0 1
-11.320084 17.485828 -20.574791 29.278328 -0.996261 2.350025 0.011111 -0.004905 -237321.000000 0 0 1
-10.309284 17.408528 -21.550291 29.559317 -1.036134 2.387733 0.009166 -0.004173 -501592.000000 0 0 1
-10.482984 16.326128 -22.648791 29.822863 -0.999996 2.433254 0.000864 -0.000927 -297039.000000 0 0 1
-10.144584 15.028228 -22.260691 28.710600 -0.977022 2.458061 0.003182 -0.001014 -87044.700000 0 0 1
-10.293784 14.074028 -23.285691 29.090611 -0.939304 2.498848 -0.004247 0.001715 -9307.700000 0 0 1
-9.549184 12.704328 -23.013991 27.968386 -0.926241 2.537217 -0.009078 0.003490 -372264.000000 0 0 1
-8.171084 12.884028 -22.871791 27.493338 -1.005607 2.553325 -0.005680 -0.003120 -662822.000000 0 0 1
-7.722484 11.661828 -22.274191 26.301608 -0.985891 2.580879 -0.010898 0.000356 813853.000000 0 0 1
-6.154384 11.670028 -22.176591 25.804402 -1.085496 2.604913 -0.006370 0.001866 1270320.000000 0 0 1
-5.447884 11.346128 -23.415191 26.583552 -1.123152 2.648377 -0.008976 0.000403 -684147.000000 0 0 1
-4.089384 11.203228 -23.198191 26.084314 -1.220805 2.666727 0.005543 -0.001174 -838888.000000 0 0 1
-3.295584 10.799928 -24.446191 26.927970 -1.274623 2.708891 0.019294 -0.005426 -481048.000000 0 0 1
-3.516384 9.470828 -24.882391 26.855072 -1.215286 2.755914 0.018335 -0.010711 -54709.500000 0 0 1
-3.226784 9.286128 -26.256971 28.036990 -1.236364 2.783342 0.015055 -0.011379 -396292.000000 0 0 1
-2.826184 7.865128 -26.672531 27.951234 -1.225833 2.837946 0.030989 -0.004057 229131.000000 0 0 1
-1.535284 7.478528 -26.175741 27.266369 -1.368317 2.857802 0.037086 -0.011199 594623.000000 0 0 1
-1.445684 6.328628 -25.370091 26.187460 -1.346214 2.891089 0.053740 -0.014783 -1461970.000000 0 0 1
-0.085684 5.962428 -24.887891 25.592284 -1.556427 2.906430 0.024171 -0.014294 -1324680.000000 0 0 1
0.183616 6.582828 -23.685891 24.584320 1.542910 2.870412 0.027046 -0.016370 92345.000000 0 1 0
1.210516 5.840628 -23.030791 23.790662 1.366432 2.888171 0.025443 -0.013590 140448.000000 0 1 0
1.542116 6.396428 -21.631191 22.609751 1.334221 2.846309 0.026882 -0.010259 283254.000000 0 1 0
2.370916 7.566328 -21.571391 22.982503 1.267136 2.789348 0.015166 -0.011050 191646.000000 0 1 0
2.272116 8.219828 -20.345491 22.060532 1.301111 2.744676 0.016286 -0.008387 -516200.000000 0 1 0
3.028916 9.511228 -20.338391 22.655859 1.262494 2.685340 0.011944 -0.007973 -494705.000000 0 1 0
2.646316 10.488828 -19.355591 22.173349 1.323656 2.631955 0.012827 -0.008611 39060.200000 0 1 0
3.341716 11.715228 -19.486891 22.981570 1.292930 2.582875 0.016964 -0.008865 1138280.000000 0 1 0
4.722116 11.798028 -18.710491 22.618009 1.190078 2.544971 0.008183 -0.008619 599908.000000 0 1 0
5.721916 10.984028 -19.215091 22.860641 1.090545 2.569060 0.017472 -0.009285 92632.200000 0 1 0
6.709916 10.696428 -18.167691 22.124682 1.010542 2.534220 0.018203 -0.013171 1048510.000000 0 1 0
7.810716 9.658528 -18.565591 22.337762 0.890781 2.551934 0.021655 -0.018392 -251749.000000 0 1 0
7.393016 8.330128 -18.774991 21.829979 0.844929 2.606175 0.016039 -0.013808 80987.900000 0 1 0
6.773616 8.084528 -20.057191 22.661253 0.873399 2.657478 0.020906 -0.006393 233572.000000 0 1 0
6.504616 6.613728 -20.398691 22.408883 0.793715 2.714792 0.017805 -0.000589 -118299.000000 0 1 0
7.676416 5.870128 -20.558991 22.716907 0.652841 2.702196 0.026175 0.003612 9092.600000 0 1 0
7.271816 4.553228 -20.965391 22.653009 0.559424 2.753154 0.031001 0.003488 162221.000000 0 1 0
7.440516 4.260828 -22.508791 24.086544 0.520068 2.777638 0.039728 -0.003284 -781038.000000 0 1 0
6.490816 4.911028 -23.267591 24.650146 0.647719 2.805083 0.047504 -0.001538 -469579.000000 0 1 0
6.702016 4.805328 -24.639191 25.982647 0.622043 2.818614 0.047252 -0.002726 224078.000000 0 0 1
5.639616 5.660728 -25.457371 26.681957 0.787266 2.837451 0.044470 -0.009274 508153.000000 0 0 1
5.570216 7.074728 -25.319871 26.873313 0.903823 2.799915 0.039764 -0.009883 74450.400000 0 0 1
4.731516 7.370228 -24.235591 25.769582 1.000082 2.794815 0.044375 -0.016880 -838628.000000 0 0 1
4.440516 8.873028 -23.975591 25.947597 1.106788 2.749210 0.056990 -0.020026 187355.000000 0 0 1
3.558516 9.456228 -24.923091 26.893191 1.210874 2.756446 0.067791 -0.018315 -214826.000000 0 0 1
2.213416 9.325228 -24.539791 26.345027 1.337751 2.769249 0.035678 -0.009659 -780405.000000 0 0 1
1.203616 9.787128 -25.568461 27.404065 1.448431 2.773505 0.027712 -0.001680 -308527.000000 0 0 1
1.192016 11.162628 -25.874351 28.204737 1.464413 2.732233 0.036527 -0.014827 -713907.000000 0 0 1
0.013616 11.470428 -26.517531 28.892046 1.569609 2.733336 0.040564 -0.017842 -789769.000000 0 0 1
-0.166184 12.982128 -26.745471 29.730178 -1.557996 2.689665 0.038163 -0.021741 -121026.000000 0 0 1
-0.597984 13.754628 -25.615591 29.081023 -1.527349 2.648420 0.033888 -0.021914 -8310.700000 0 0 1
-0.634784 15.150028 -25.829301 29.951278 -1.528921 2.610743 0.030109 -0.028951 -293516.000000 0 0 1
-0.878184 15.943828 -24.524991 29.265202 -1.515772 2.564451 0.040628 -0.022170 140407.000000 0 0 1
-2.158284 15.547228 -24.051291 28.720012 -1.432857 2.563379 0.033198 -0.020164 102993.000000 0 0 1
-2.553284 16.212828 -22.839491 28.125031 -1.414594 2.518487 0.033757 -0.024108 -538884.000000 0 0 1
-3.761084 15.622528 -22.104791 27.328207 -1.334545 2.513013 0.019160 -0.017181 752859.000000 0 0 1
-5.049184 15.727928 -22.749091 28.113753 -1.260157 2.513552 0.018000 -0.016013 651245.000000 0 0 1
-5.245184 15.032728 -23.988191 28.791113 -1.235086 2.555631 0.018713 -0.013842 -1065850.000000 0 0 1
-6.652884 15.130428 -24.571091 29.612991 -1.156539 2.549439 -0.006882 -0.005044 -171024.000000 0 0 1
-7.181384 16.447428 -24.840691 30.645556 -1.159119 2.515939 -0.001918 -0.001448 441217.000000 0 0 1
-8.486484 16.325128 -25.401071 31.364703 -1.091402 2.514713 0.004081 0.003032 285787.000000 0 0 1
-9.132184 17.694528 -25.874781 32.649615 -1.094350 2.485692 0.005130 -0.002099 212217.000000 0 0 1
-9.485284 18.571128 -24.780791 32.387420 -1.098582 2.442049 0.003554 -0.003593 762012.000000 0 0 1
-10.502184 19.515528 -25.211031 33.567064 -1.077100 2.420469 -0.000842 -0.002751 858520.000000 0 0 1
-11.109484 20.486228 -24.195591 33.593642 -1.073891 2.374949 0.002088 -0.002962 39232.600000 0 0 1
-10.285084 21.604728 -23.928291 33.839479 -1.126486 2.356201 0.002336 -0.000767 192062.000000 0 0 1
-10.820684 22.862428 -24.388491 35.136538 -1.128740 2.337974 -0.002377 -0.010334 -109723.000000 0 0 1
-10.529184 23.304828 -25.844251 36.357998 -1.146444 2.361470 -0.007754 -0.006988 -334562.000000 0 0 1
-11.063884 22.444028 -26.834391 36.690986 -1.112801 2.391113 -0.012831 -0.006493 86272.700000 0 0 1
-10.905084 23.049828 -28.088001 37.936147 -1.128892 2.404465 0.006328 -0.002436 -422513.000000 0 0 1
-11.541184 22.195128 -29.177311 38.433554 -1.091287 2.432822 0.004863 0.001656 -557443.000000 0 0 1
-10.813584 21.162228 -29.764101 38.087730 -1.098399 2.467801 0.009372 -0.001647 -369449.000000 0 0 1
-10.651084 19.986028 -28.968941 36.770728 -1.081156 2.478068 0.000501 0.001367 -164181.000000 0 0 1
-9.641284 19.020628 -29.593311 36.476056 -1.101655 2.517182 0.000911 -0.003786 -513508.000000 0 0 1
-8.290684 19.453928 -29.480711 36.280891 -1.167935 2.519342 0.003226 -0.006462 157065.000000 0 0 1
-7.376584 18.733128 -30.292291 36.372613 -1.195670 2.555002 0.002042 -0.000117 64375.200000 0 0 1
-6.913784 17.468528 -29.665251 35.113772 -1.193929 2.577048 0.009095 -0.008903 3081.780000 0 0 1
-8.000584 16.488828 -29.548711 34.770923 -1.119049 2.586423 0.003587 -0.009058 1185370.000000 0 0 1
-7.579284 15.294828 -28.856821 33.527502 -1.110719 2.607422 -0.014863 0.002214 792372.000000 0 0 1
-8.829384 14.345828 -28.725181 33.300102 -1.019082 2.611214 0.000333 0.004957 910313.000000 0 0 1
-9.777784 14.691428 -27.754821 32.890321 -0.983572 2.575233 0.011293 -0.001503 -297540.000000 0 0 1
-11.052484 14.123628 -27.951661 33.210384 -0.906785 2.571136 0.041995 -0.005834 231107.000000 0 0 1
-12.058884 14.661028 -26.919031 32.939287 -0.882478 2.527387 0.024205 -0.001488 -85040.900000 0 0 1
-12.471884 15.996628 -27.091421 33.843538 -0.908583 2.498909 0.013541 -0.001835 -324629.000000 0 0 1
-13.444384 16.344128 -26.131781 33.626655 -0.882437 2.460865 0.009662 -0.003745 -218925.000000 0 0 1
-14.329384 17.485028 -26.634911 34.935311 -0.884264 2.437820 -0.003167 -0.008925 -330948.000000 0 0 1
-13.769784 18.792328 -26.670931 35.413233 -0.938437 2.423610 -0.004316 -0.005746 94121.300000 0 0 1
-14.773884 19.754028 -26.902611 36.499859 -0.928646 2.399507 -0.015087 -0.005930 -367112.000000 0 0 1
-14.214084 21.151028 -26.957241 37.095808 -0.979091 2.384291 -0.017550 0.000960 -224441.000000 0 0 1
-15.261284 22.113128 -27.013851 38.100464 -0.966715 2.358899 -0.032482 -0.002276 216371.000000 0 0 1
-14.906284 23.482928 -26.997151 38.761983 -1.005201 2.341284 -0.025760 0.002242 72143.200000 0 0 1
-14.295184 24.164728 -25.690621 38.056463 -1.036597 2.311850 -0.042479 0.008915 185535.000000 0 0 1
-13.803184 25.465428 -25.918171 38.868593 -1.074088 2.300723 -0.025033 -0.000465 12700.400000 0 0 1
-13.276484 26.063528 -24.761891 38.323932 -1.099665 2.273287 -0.004442 -0.008143 -241816.000000 0 0 1
-12.856184 27.543628 -25.043191 39.383935 -1.134095 2.259936 0.020462 -0.009375 759744.000000 0 0 1
-13.956484 28.452928 -25.327241 40.568728 -1.114768 2.245037 0.022280 -0.014897 900096.000000 0 0 1
-14.656484 29.008928 -24.190191 40.515377 -1.102965 2.210630 0.023515 -0.020761 -587870.000000 0 0 1
-15.957684 29.623028 -24.633091 41.700847 -1.076676 2.202734 0.018015 -0.020651 -308067.000000 0 0 1
-16.929384 28.612528 -24.890091 41.530680 -1.036519 2.213445 0.010672 -0.017034 844160.000000 0 0 1
-18.234384 29.072428 -25.317771 42.646082 -1.010613 2.206410 0.006552 -0.010468 1261740.000000 0 0 1
-19.339784 27.993928 -25.167081 42.321026 -0.966233 2.207653 0.006711 -0.002445 74869.000000 0 0 1
-19.918284 28.060528 -23.876291 41.883273 -0.953502 2.177384 0.017644 -0.006056 285796.000000 0 0 1
-20.851684 26.974228 -23.660791 41.499816 -0.912723 2.177475 0.028507 -0.013290 241034.000000 0 0 1
-21.576884 27.076928 -22.340291 41.204497 -0.897965 2.143827 0.026076 -0.004891 -431609.000000 0 0 1
-22.421284 28.195028 -22.257591 42.344704 -0.898976 2.124250 0.027402 0.000643 -189937.000000 0 0 1
-23.102484 28.248928 -21.011191 42.109344 -0.885285 2.093203 0.017085 -0.002136 -642291.000000 0 0 1
-24.345384 29.108228 -21.125091 43.431050 -0.874266 2.078767 0.016244 -0.000883 -1032270.000000 0 0 1
-25.496294 28.422428 -21.479191 43.809258 -0.839614 2.083217 -0.011453 -0.002916 -1427710.000000 0 0 1
-26.580314 29.288228 -21.547691 45.040164 -0.833830 2.069640 -0.006591 -0.000061 -347664.000000 0 0 1
-27.842594 28.455628 -21.891791 45.433284 -0.796287 2.073555 -0.010986 0.004951 -436246.000000 0 0 1
-27.763004 27.842928 -23.158991 45.632794 -0.786835 2.103086 -0.011251 0.014223 44392.300000 0 0 1
-29.013084 27.494528 -23.755091 46.497446 -0.758531 2.107016 -0.013457 0.010653 326612.000000 0 0 1
-29.008404 26.911628 -25.183741 46.903561 -0.747920 2.137585 -0.013074 0.028155 -123728.000000 0 0 1
-28.512384 25.571528 -25.184731 45.838082 -0.731076 2.152476 0.000786 0.031075 -156750.000000 0 0 1
-28.481334 25.200928 -26.571221 46.392919 -0.724366 2.180645 0.025394 0.023064 -15665.900000 0 0 1
-28.506744 23.644628 -26.884651 45.765569 -0.692436 2.198692 0.027849 0.021147 -32630.700000 0 0 1
-27.278834 23.006228 -26.587211 44.500574 -0.700634 2.211123 0.031776 0.012005 267280.000000 0 0 1
-27.321944 21.769128 -27.166581 44.253889 -0.672764 2.231763 0.049913 -0.010580 75710.700000 0 0 1
-26.253204 20.795328 -26.614471 42.778575 -0.669909 2.242276 0.061421 -0.018089 -60994.200000 0 0 1
-26.511674 20.191128 -25.372921 41.884790 -0.650880 2.221541 0.054232 -0.007868 187517.000000 0 0 1
-26.054064 18.836128 -25.319041 40.922705 -0.625972 2.237888 0.044547 -0.011895 -352186.000000 0 0 1
-27.203664 17.837228 -25.333921 41.231221 -0.580366 2.232466 0.034301 -0.014778 -559835.000000 0 0 1
-27.718754 17.636428 -26.620841 42.285247 -0.566658 2.251775 0.033838 -0.016201 91834.600000 0 0 1
-28.416744 16.406628 -26.649141 42.271332 -0.523604 2.252904 0.017788 -0.020777 -190483.000000 0 0 1
-29.147714 16.069328 -27.975131 43.478966 -0.503846 2.269751 0.011709 -0.018299 26056.900000 0 0 1
-30.388914 16.733628 -28.090921 44.638551 -0.503341 2.251445 0.004321 -0.021031 -60923.800000 0 0 1
-31.087904 16.242228 -29.223501 45.653924 -0.481455 2.265437 0.011054 -0.010876 -139141.000000 0 0 1
-32.387654 16.975328 -29.538341 47.006760 -0.482764 2.250272 0.022352 -0.014783 -300409.000000 0 0 1
-33.528314 16.577628 -28.806771 47.210122 -0.459187 2.227087 0.006741 -0.013584 -311280.000000 0 0 1
-34.646738 17.287128 -29.253091 48.528183 -0.462810 2.217810 0.005758 -0.013086 -159187.000000 0 0 1
34.809639 16.897428 -28.555961 48.090300 0.451919 2.206568 0.024305 -0.011107 -116952.000000 0 0 1
34.475442 17.767228 -27.516221 47.553895 0.475859 2.187847 0.015794 -0.018267 -66093.800000 0 0 1
33.384622 17.376828 -26.723981 46.159054 0.479916 2.188242 0.019773 -0.018205 -152133.000000 0 0 1
33.007022 18.484028 -25.709201 45.739324 0.510491 2.167696 0.020297 -0.015726 -140421.000000 0 0 1
32.507422 19.631628 -26.355791 46.225112 0.543291 2.177499 0.028805 -0.019579 108437.000000 0 0 1
31.931622 20.575028 -25.504331 45.754029 0.572391 2.162074 0.033084 -0.015378 -399267.000000 0 0 1
31.249572 21.686528 -26.372911 46.285761 0.606673 2.177040 0.039478 -0.015907 1196910.000000 0 0 1
29.903312 21.449628 -26.830921 45.543308 0.622242 2.200778 0.034053 -0.014963 962887.000000 0 0 1
28.878662 21.844328 -25.931851 44.537767 0.647596 2.192282 0.020498 -0.001935 786375.000000 0 0 1
27.411562 21.592928 -26.423471 43.770402 0.667215 2.218910 0.014424 -0.003862 780238.000000 0 0 1
27.101422 20.212528 -26.419631 42.907229 0.640814 2.234119 0.010899 -0.012931 -725076.000000 0 0 1
25.929752 19.939228 -27.097631 42.475951 0.655532 2.262633 -0.009870 -0.008038 -1068870.000000 0 0 1
25.636392 18.416828 -27.113161 41.611629 0.622959 2.280457 -0.002327 -0.007362 -224225.000000 0 0 1
26.488322 17.532328 -27.823031 42.227181 0.584688 2.290137 0.002813 -0.017075 -206823.000000 0 0 1
27.648472 17.147228 -27.135171 42.364879 0.555131 2.265960 0.004516 -0.015122 -156775.000000 0 0 1
28.591462 16.303828 -28.050861 43.245084 0.518245 2.276604 -0.004922 -0.009925 115846.000000 0 0 1
28.057092 15.035528 -28.554111 42.762189 0.491946 2.301968 -0.002553 -0.007962 725993.000000 0 0 1
27.329972 14.153228 -27.638421 41.365729 0.477837 2.302513 0.006960 -0.012131 247400.000000 0 0 1
28.193042 13.420128 -26.569301 40.998478 0.444271 2.275825 -0.000381 -0.009164 -34866.200000 0 0 1
28.694962 14.147028 -25.458961 40.886403 0.458043 2.242954 0.004798 -0.014192 206914.000000 0 0 1
29.480932 13.313928 -24.595991 40.636791 0.424193 2.220894 0.008100 -0.010547 138779.000000 0 0 1
-14.382984 -31.526597 -24.427391 42.396863 1.142784 2.184819 0.033565 0.001799 256473.000000 0 0 1
-13.604884 -30.424897 -24.915591 41.611944 1.150304 2.212749 0.016407 -0.005819 -77917.100000 0 0 1
-13.919184 -30.176397 -26.293301 42.375657 1.138618 2.240153 0.012956 -0.001737 -95733.400000 0 0 1
-13.227384 -28.943197 -26.919161 41.681093 1.142127 2.272914 0.019140 -0.004484 -347578.000000 0 0 1
-13.653484 -27.687397 -26.421741 40.633951 1.112660 2.278694 0.026967 0.003750 -80230.000000 0 0 1
-12.781184 -26.717097 -26.960621 40.050431 1.124586 2.309279 0.012234 -0.000225 -263919.000000 0 0 1
-13.198784 -25.262297 -26.725471 39.072271 1.089335 2.324030 0.006459 0.000460 -299931.000000 0 0 1
-12.997984 -24.860697 -25.384351 37.833413 1.089050 2.306286 0.001703 -0.009971 106886.000000 0 0 1
-13.477584 -23.545097 -25.152381 36.995393 1.050906 2.318394 0.007854 -0.008606 -176294.000000 0 0 1
-13.238284 -22.986497 -23.692191 35.566151 1.048274 2.299823 0.012229 -0.001678 1149990.000000 0 0 1
-11.829084 -22.720697 -23.492691 34.757212 1.090781 2.312993 0.011413 -0.015609 1065460.000000 0 0 1
-11.457884 -22.013497 -22.304591 33.367228 1.090889 2.302930 -0.001899 -0.002062 215860.000000 0 0 1
-9.957584 -21.738897 -22.080991 32.546940 1.141265 2.316427 0.007287 -0.000082 -221651.000000 0 0 1
-9.432684 -20.652197 -22.714491 32.115991 1.142352 2.356417 0.016323 -0.012943 392975.000000 0 0 1
-8.005684 -20.724597 -22.748191 31.797485 1.202165 2.368005 0.028152 -0.009769 371198.000000 0 0 1
-7.356084 -19.435697 -23.283291 31.208491 1.208975 2.412916 0.027362 -0.000201 -141572.000000 0 0 1
-7.589084 -18.220997 -22.529291 29.952761 1.176145 2.422131 0.034198 0.000253 -44608.000000 0 0 1
-7.933184 -17.082997 -23.312891 29.970904 1.136040 2.462035 0.029571 -0.002930 -40220.400000 0 0 1
-6.914184 -16.534097 -24.385491 30.262757 1.174719 2.507808 0.043865 -0.008132 261826.000000 0 0 1
-6.737984 -17.411997 -25.508881 31.611407 1.201570 2.509769 0.038408 -0.009368 -376681.000000 0 0 1
-5.925484 -16.709397 -26.375531 31.780244 1.230012 2.549787 0.022683 -0.008908 -628071.000000 0 0 1
-5.655284 -17.496797 -27.718631 33.263233 1.258177 2.555867 0.020148 0.002276 -462289.000000 0 0 1
-6.574684 -17.325697 -28.736991 34.193872 1.208107 2.568842 0.044249 -0.001467 -522957.000000 0 0 1
-6.260784 -18.085197 -29.916081 35.513992 1.237526 2.572471 0.046000 -0.008493 151899.000000 0 0 1
-7.155384 -17.773497 -31.172701 36.590081 1.188062 2.590483 0.058742 -0.011942 332224.000000 0 0 1
-6.805284 -16.662097 -31.990821 36.706266 1.183045 2.629122 0.044516 -0.008294 -193214.000000 0 0 1
-6.873984 -15.392297 -31.398971 35.638039 1.150785 2.648878 0.033410 -0.002368 4126.090000 0 0 1
-7.303284 -14.208297 -32.255201 35.994606 1.095999 2.681727 0.032177 -0.004650 -196548.000000 0 0 1
-6.404884 -13.954597 -33.314751 36.682774 1.140500 2.709724 0.031335 -0.013187 -140315.000000 0 0 1
-6.916984 -13.160297 -34.366773 37.444802 1.086883 2.733295 0.042684 -0.010056 -270513.000000 0 0 1
-7.127584 -11.658997 -34.000321 36.643642 1.022082 2.759440 0.035266 -0.009524 221753.000000 0 0 1
-5.986084 -10.814797 -33.998101 36.175460 1.065263 2.792874 0.032518 -0.010216 -129382.000000 0 0 1
-5.804684 -10.186797 33.687419 35.669418 1.052860 0.334927 0.022413 -0.012443 -462456.000000 0 0 1
-4.567084 -9.320797 33.613299 35.179388 1.115190 0.299505 0.027313 -0.010541 -1051910.000000 0 0 1
-4.352284 -8.522297 32.434043 33.816254 1.098630 0.286900 0.031553 -0.010222 -51550.100000 0 0 1
-3.416184 -7.488397 32.664463 33.685509 1.142801 0.246842 0.014180 -0.017698 -479349.000000 0 0 1
-3.542384 -6.481197 31.461313 32.316692 1.070596 0.230592 0.015182 -0.013588 -349141.000000 0 0 1
-4.680784 -5.670297 31.573443 32.418271 0.880704 0.228798 0.027069 -0.013166 -29812.700000 0 0 1
-5.719684 -6.287597 30.789183 31.940921 0.832660 0.269359 0.022031 -0.010252 51333.400000 0 0 1
-6.928584 -5.369997 30.526673 31.760351 0.659341 0.279633 0.017363 -0.012889 643000.000000 0 0 1
-8.082984 -6.027497 29.997553 31.646778 0.640745 0.324261 0.021228 -0.008698 -33666.500000 0 0 1
-9.238884 -5.230497 30.097483 31.915099 0.515150 0.339118 0.012088 -0.011607 353891.000000 0 0 1
-10.377684 -5.882997 29.241003 31.580726 0.515717 0.387351 0.015089 -0.003414 268166.000000 0 0 1
-10.018084 -5.978697 27.823563 30.170474 0.538056 0.397035 0.015510 -0.003371 -137043.000000 0 0 1
-11.115484 -6.371297 27.084323 29.961775 0.520474 0.441849 0.023832 -0.004634 -597493.000000 0 0 1
-10.978984 -6.056997 25.610683 28.515476 0.504140 0.455292 0.018346 -0.005953 -198439.000000 0 0 1
-10.194384 -6.973997 24.906733 27.801213 0.599976 0.460374 0.017600 -0.003355 253309.000000 0 0 1
-9.561484 -6.574497 23.684183 26.373974 0.602357 0.455563 0.017001 -0.011153 63220.100000 0 0 1
-10.465484 -6.655197 22.423583 25.624892 0.566412 0.505215 0.019495 -0.015526 -171424.000000 0 0 1
-11.401884 -5.631797 22.515483 25.858598 0.458784 0.514141 0.012714 -0.012775 -25686.700000 0 0 1
-12.375384 -5.665397 21.455983 25.408779 0.429318 0.565293 0.014297 -0.009472 1601800.000000 0 0 1
-13.519984 -4.534697 21.440283 25.749547 0.323616 0.586926 0.007492 -0.001600 1303590.000000 0 0 1
-13.036884 -3.299197 20.926383 24.874858 0.247863 0.571175 0.009082 -0.003804 266451.000000 0 1 0
-14.108084 -2.368197 20.879083 25.309731 0.166310 0.600695 0.002095 -0.001131 383358.000000 0 0 1
-13.662984 -0.981197 20.335983 24.519219 0.071691 0.592782 -0.001966 -0.006767 -34733.200000 0 1 0
-12.706384 -0.231197 21.059383 24.596814 0.018193 0.542959 -0.005063 0.004145 -17261.400000 0 1 0
-12.716184 1.197803 20.738583 24.356209 -0.093918 0.552014 0.000074 -0.008758 -379488.000000 0 1 0
-12.274884 1.599803 19.279583 22.911448 -0.129601 0.570775 0.014029 -0.020290 72617.600000 0 1 0
-13.099584 1.157803 18.197683 22.452066 -0.088156 0.625770 0.013059 -0.011411 710982.000000 0 1 0
-14.397984 1.771803 18.170183 23.250737 -0.122444 0.673748 0.003858 -0.010195 672997.000000 0 1 0
-15.432384 0.989803 17.311783 23.212842 -0.064050 0.729084 0.015537 -0.007396 34584.800000 0 1 0
-15.749584 -0.240197 17.885283 23.832550 0.015250 0.722044 -0.002964 -0.002856 106015.000000 0 1 0
-16.803184 -0.951197 17.246183 24.097357 0.056548 0.773188 -0.002571 0.000882 281334.000000 0 1 0
-16.664484 -2.455197 17.397683 24.215953 0.146279 0.769241 -0.003223 0.005322 -166463.000000 0 1 0
-16.973184 -2.887197 18.715283 25.430035 0.168491 0.743725 -0.007456 0.010640 -75039.700000 0 0 1
-16.742784 -4.285997 18.923983 25.628260 0.250609 0.740097 -0.007858 0.010450 -585678.000000 0 0 1
-17.516284 -4.771297 20.094383 27.080800 0.265940 0.734724 -0.012397 0.009871 -587268.000000 0 0 1
-17.012684 -4.325997 21.384583 27.666696 0.249003 0.687341 -0.011662 0.008638 495848.000000 0 0 1
-17.934884 -4.292897 22.497983 29.090347 0.234940 0.686636 -0.007270 0.003449 200012.000000 0 0 1
-18.522784 -5.655697 23.060783 30.114451 0.296346 0.698556 -0.010156 0.002683 -377732.000000 0 0 1
-17.624084 -6.505597 23.666983 30.216837 0.353615 0.670939 0.011051 -0.004146 -651333.000000 0 0 1
-16.610784 -7.052997 22.847383 29.114701 0.401535 0.668525 -0.010557 0.000296 325062.000000 0 0 1
-15.313984 -7.322297 23.702183 29.153518 0.446011 0.621488 -0.003866 -0.007330 450991.000000 0 0 1
-15.444484 -8.508397 24.388813 30.095500 0.503535 0.625995 -0.004247 -0.007377 657619.000000 0 0 1
-14.332784 -8.787997 25.264633 30.347311 0.550025 0.587162 0.019307 -0.004802 677834.000000 0 0 1
-14.680184 -9.852797 26.348963 31.730951 0.591109 0.590995 0.015070 0.001410 39356.600000 0 0 1
-14.740884 -11.170797 25.852073 31.786948 0.648481 0.621008 0.018054 0.000357 207446.000000 0 0 1
-13.878084 -12.066597 26.589403 32.329558 0.715690 0.605094 0.038459 0.009788 245467.000000 0 0 1
-14.146584 -13.557497 26.319313 32.812159 0.764138 0.639958 0.026898 0.007269 -111948.000000 0 0 1
-15.356684 -14.023797 26.894233 33.996976 0.740063 0.658228 0.022812 0.003049 -28407.900000 0 0 1
-15.447984 -15.382297 27.240943 34.890174 0.783268 0.674911 0.036802 -0.000753 -325434.000000 0 0 1
-14.503484 -16.094097 28.232953 35.587507 0.837336 0.654522 0.034687 0.000402 994124.000000 0 0 1
-13.144284 -16.140497 27.725903 34.670067 0.887356 0.643989 0.035432 0.001276 700024.000000 0 0 1
-12.437584 -17.127997 28.365913 35.393316 0.942731 0.641083 0.037848 -0.000670 97198.700000 0 0 1
-11.135284 -17.540597 27.616323 34.559056 1.005160 0.644991 0.035821 -0.004406 1007210.000000 0 0 1
-10.095784 -18.195497 28.372603 35.185303 1.064237 0.632797 0.036129 -0.011506 519705.000000 0 0 1
-9.146784 -18.831597 27.572733 34.620056 1.118642 0.649414 0.021634 -0.007159 -632108.000000 0 0 1
-8.080484 -19.461097 28.453133 35.406345 1.177245 0.637449 0.024670 -0.008828 -472702.000000 0 0 1
-8.548784 -20.616297 29.163373 36.723504 1.177715 0.653215 0.028862 -0.006106 330975.000000 0 0 1
-7.535884 -21.129197 30.000123 37.459844 1.228203 0.642065 0.032251 -0.006096 -91969.400000 0 0 1
-7.965184 -22.381797 30.750423 38.858429 1.228895 0.657790 0.033355 -0.009776 -44426.700000 0 0 1
-8.119984 -23.587497 29.999523 39.016349 1.239254 0.693683 0.029820 -0.002929 99829.000000 0 0 1
-8.343384 -24.721697 30.815043 40.377484 1.245307 0.702586 0.022849 -0.007542 -147270.000000 0 0 1
-8.329284 -26.012197 30.011943 40.579897 1.260906 0.738355 0.015925 -0.003820 -285439.000000 0 0 1
-9.440484 -26.203197 29.168103 40.329995 1.224993 0.762320 0.017683 -0.002047 63596.500000 0 0 1
-9.239684 -27.211597 28.245343 40.294443 1.243462 0.794035 0.015268 -0.005261 7590.580000 0 0 1
-10.575184 -27.583097 27.518123 40.372129 1.204687 0.820833 0.010907 0.002699 488917.000000 0 0 1
-10.848184 -26.910497 26.296463 39.158165 1.187602 0.834505 0.011980 0.001678 173295.000000 0 0 1
-11.263584 -25.571397 26.447263 38.473658 1.155891 0.812876 0.008019 0.001519 -448916.000000 0 0 1
-11.406984 -24.758397 25.141613 37.083665 1.139054 0.825799 0.010729 -0.001136 -122845.000000 0 0 1
-12.340984 -25.298497 24.239383 37.146487 1.116944 0.859871 0.014032 -0.000233 280983.000000 0 0 1
-11.950784 -24.926797 22.935683 35.919521 1.123735 0.878210 0.025397 0.003117 -619493.000000 0 0 1
-13.149884 -24.708497 22.048883 35.631201 1.081721 0.903572 0.043832 -0.001282 -643767.000000 0 0 1
-13.818084 -25.919297 21.807483 36.582997 1.081005 0.932149 0.031100 -0.005732 -503568.000000 0 0 1
-14.932784 -25.793297 20.996283 36.457182 1.046006 0.957072 0.038942 -0.007645 -391007.000000 0 0 1
-15.605584 -27.153697 20.626683 37.500901 1.049178 0.988394 0.039616 -0.007372 -14567.700000 0 0 1
-14.790084 -27.905797 19.777083 37.264099 1.083437 1.011338 0.034418 -0.006652 -249497.000000 0 0 1
-15.305084 -29.154797 19.446583 38.241566 1.087381 1.037332 0.039102 -0.009233 -256923.000000 0 0 1
-14.483684 -29.874097 18.407783 37.961628 1.119363 1.064542 0.048403 -0.014857 -247481.000000 0 0 1
-14.622084 -29.334497 17.078983 36.959568 1.108381 1.090436 0.046361 -0.015569 20385.400000 0 0 1
-13.486584 -29.477297 16.232783 36.253306 1.141703 1.106538 0.037398 -0.019578 -171825.000000 0 0 1
-13.670784 -29.037797 14.762183 35.327129 1.130786 1.139696 0.035571 -0.018809 -363785.000000 0 0 1
-13.728084 -27.609197 14.608983 34.119649 1.109368 1.128330 0.036165 -0.020804 -177246.000000 0 0 1
-14.070784 -27.130497 13.323083 33.339996 1.092353 1.159702 0.033384 -0.016539 -65431.000000 0 0 1
-13.077984 -27.284797 12.149083 32.605123 1.123834 1.188973 0.023614 -0.011507 176677.000000 0 0 1
-13.554684 -26.691697 10.962383 31.880244 1.100909 1.219770 0.018840 -0.007201 -35593.400000 0 0 1
-12.573184 -26.917197 9.981683 31.340939 1.133808 1.246663 0.026519 -0.005981 92102.000000 0 0 1
-12.881784 -26.269697 8.595283 30.494528 1.114885 1.285061 0.012638 0.002253 -249883.000000 0 0 1
-13.972884 -26.791397 7.891583 31.229754 1.090063 1.315332 0.029221 -0.013141 -320035.000000 0 0 1
-14.047084 -26.037997 6.709683 30.336738 1.076063 1.347779 0.009490 -0.009939 686997.000000 0 0 1
-15.039184 -26.674097 5.635383 31.135864 1.057411 1.388800 0.008697 -0.010498 619203.000000 0 0 1
-14.524384 -27.703897 4.848083 31.653871 1.087920 1.417032 0.008488 -0.004024 -343958.000000 0 0 1
-15.207184 -27.714597 3.634183 31.820820 1.068947 1.456339 0.023162 0.002091 -201965.000000 0 0 1
-14.846884 -28.962197 2.793383 32.665606 1.097096 1.485177 0.034479 0.003914 871360.000000 0 0 1
-13.488384 -28.926997 2.317383 32.001217 1.134478 1.498317 0.018309 0.007171 601548.000000 0 0 1
-13.194084 -30.049097 1.487183 32.851846 1.157057 1.525511 0.014093 0.005136 -71551.900000 0 0 1
-11.801284 -30.012397 0.826883 32.259851 1.196154 1.545162 -0.001003 0.005385 -74552.900000 0 0 1
-11.562284 -29.167697 -0.290617 31.377148 1.193391 1.580059 -0.001987 0.009006 -50674.100000 0 0 1
-11.866584 -27.780697 -0.196617 30.209627 1.167104 1.577305 -0.006771 0.006052 -501415.000000 0 0 1
-11.631184 -27.079797 -1.542717 29.512367 1.165107 1.623094 -0.005665 0.009800 267869.000000 0 0 1
-10.263784 -27.062697 -1.937617 29.008433 1.208297 1.637641 -0.008777 0.007673 174784.000000 0 0 1
-10.162484 -26.580597 -3.294917 28.647176 1.205617 1.686069 0.009120 0.004369 484736.000000 0 0 1
-8.716284 -26.792897 -3.817817 28.432528 1.256274 1.705480 0.002492 0.002866 373135.000000 0 0 1
-8.503884 -26.258097 -5.123717 28.072338 1.257598 1.754344 0.015557 0.008081 124130.000000 0 0 1
-7.131184 -26.438897 -5.473317 27.925369 1.307342 1.768071 0.014730 0.009579 792477.000000 0 0 1
-6.594384 -25.136897 -6.134917 26.701811 1.314239 1.802624 0.014268 0.006703 -296596.000000 0 0 1
-7.029584 -25.002797 -7.438417 27.016383 1.296720 1.849729 0.017090 0.005114 -159780.000000 0 0 1
-6.422084 -23.883597 -8.093617 26.022605 1.308118 1.887065 0.014525 0.008690 -260760.000000 0 0 1
-6.640184 -23.760097 -9.589417 26.468683 1.298281 1.941523 0.019700 0.004880 59005.500000 0 0 1
-5.864284 -24.724897 -10.310317 27.422855 1.337918 1.956245 0.007685 0.006466 26706.200000 0 0 1
-6.131884 -24.909397 -11.705717 28.197551 1.329428 1.998885 -0.000605 0.016589 -674581.000000 0 0 1
-7.455484 -25.541797 -12.095117 29.227718 1.286793 1.997446 0.000014 0.003208 -442837.000000 0 0 1
-7.651984 -25.401197 -13.465317 29.750436 1.278198 2.040485 0.007046 0.007062 -15746.700000 0 0 1
-8.859584 -26.030097 -13.845217 30.785519 1.242736 2.037261 0.007180 -0.000488 -510139.000000 0 0 1
-9.063084 -26.243597 -15.359117 31.729613 1.238275 2.076088 0.008705 0.000865 293768.000000 0 0 1
-8.140884 -27.182597 -15.895517 32.524376 1.279809 2.081426 0.003609 0.002489 -594034.000000 0 0 1
-6.850484 -26.749597 -16.088617 31.957998 1.320088 2.098360 0.010864 0.003583 -678793.000000 0 0 1
-5.948984 -27.681197 -17.024717 33.037555 1.359106 2.112170 0.009612 -0.002871 420793.000000 0 0 1
-5.878384 -27.457097 -18.435217 33.590248 1.359887 2.151756 0.034732 -0.003056 534712.000000 0 0 1
-4.610684 -27.918097 -18.898117 34.026715 1.407123 2.159629 0.031238 -0.007423 247839.000000 0 0 1
-24.133084 14.603328 -6.043191 28.847584 -0.544173 1.781847 0.006894 -0.013826 -120519.000000 0 0 1
-24.524784 13.616128 -5.108291 28.512429 -0.506826 1.750929 -0.003152 -0.004549 392412.000000 0 0 1
-23.450484 12.707728 -4.935591 27.125110 -0.496600 1.753772 0.012578 -0.005115 -337960.000000 0 0 1
-23.887984 11.257428 -4.495191 26.787538 -0.440392 1.739403 0.026056 -0.011165 88506.600000 0 0 1
-24.475384 10.335628 -5.408291 27.113082 -0.399570 1.771615 0.030782 -0.012936 49039.800000 0 0 1
-25.813834 10.616128 -5.717691 28.491195 -0.390173 1.772851 0.010068 -0.011776 -552202.000000 0 0 1
-26.306604 10.146828 -7.105791 29.077273 -0.368131 1.817673 0.034243 -0.010421 -328146.000000 0 0 1
-25.841444 10.894428 -8.175591 29.211455 -0.398977 1.854461 0.064107 -0.007742 -159159.000000 0 0 1
-26.164244 10.331928 -9.454691 29.676718 -0.376091 1.895037 0.068426 -0.009753 -321878.000000 0 0 1
-26.450814 11.433728 -10.516591 30.675306 -0.408007 1.920730 0.043150 -0.012202 252034.000000 0 0 1
-25.331624 12.079028 -11.122291 30.187737 -0.444945 1.948124 0.052583 -0.019042 500082.000000 0 0 1
-25.822654 13.016428 -12.059591 31.331623 -0.466898 1.965898 0.046208 -0.017814 -13746.600000 0 0 1
-24.797384 14.069728 -12.508391 31.134022 -0.516095 1.984234 0.053371 -0.015337 -383111.000000 0 0 1
-24.403384 14.933828 -11.541091 30.850302 -0.549165 1.954222 0.045189 -0.010563 -261556.000000 0 0 1
-23.649884 15.917428 -12.194091 31.006086 -0.592405 1.974993 0.043597 -0.013230 -106557.000000 0 0 1
-23.783584 17.352028 -11.541591 31.622145 -0.630304 1.944412 0.031817 -0.001314 455521.000000 0 0 1
-22.889484 17.508228 -10.420091 30.643838 -0.652971 1.917754 0.021286 0.014627 471010.000000 0 0 1
-23.022184 18.801228 -9.862891 31.317467 -0.684815 1.891182 0.007576 0.024493 564942.000000 0 0 1
-21.970384 18.981328 -8.680791 30.304203 -0.712538 1.861321 -0.006521 0.026554 472729.000000 0 0 1
-22.187284 18.385528 -7.409691 29.752424 -0.691969 1.822490 0.000729 0.016379 -75157.200000 0 0 1
-22.991384 19.123228 -6.522791 30.607979 -0.693807 1.785551 -0.003752 0.004153 -370709.000000 0 0 1
-23.393584 18.391228 -5.227491 30.212972 -0.666248 1.744693 -0.009079 0.005381 366710.000000 0 0 1
-22.375684 18.195328 -4.247391 29.151012 -0.682722 1.717020 0.004138 -0.012275 559734.000000 0 0 1
-22.990184 18.185028 -2.981591 29.464108 -0.669223 1.672164 -0.006690 -0.006430 356813.000000 0 0 1
-21.923684 17.837128 -1.910091 28.327716 -0.682979 1.638276 0.012803 -0.023481 -176164.000000 0 0 1
-21.014784 18.888428 -1.627991 28.302724 -0.732161 1.628349 0.026109 -0.028872 -384282.000000 0 0 1
-20.173384 18.460328 -0.622791 27.352093 -0.741086 1.593568 0.060754 -0.039334 -847365.000000 0 0 1
-19.325184 19.655628 -0.227691 27.565527 -0.793875 1.579056 0.064350 -0.039505 -393968.000000 0 0 1
-20.078084 20.591728 0.535409 28.765176 -0.798027 1.552182 0.049426 -0.028106 23340.600000 0 0 1
-19.454784 21.826928 0.755109 29.248480 -0.842797 1.544976 0.057984 -0.031430 -129833.000000 0 0 1
-20.166084 22.759328 1.782609 30.460395 -0.845738 1.512241 0.038290 -0.015410 36688.000000 0 0 1
-20.063184 22.279128 3.112809 30.142669 -0.837684 1.467343 0.028373 -0.005616 -609560.000000 0 0 1
-21.215684 22.453728 3.858209 31.131349 -0.813741 1.446544 0.010486 -0.012484 -635499.000000 0 0 1
-21.046784 22.122728 5.324509 30.995687 -0.810317 1.398158 0.014553 -0.007157 -162198.000000 0 0 1
-20.426384 23.134728 6.093909 31.457726 -0.847492 1.375846 0.015323 -0.001565 162803.000000 0 0 1
-19.805784 22.544828 7.267409 30.876424 -0.849984 1.333196 0.009897 0.010566 558912.000000 0 0 1
-20.726784 22.344828 8.546409 31.653310 -0.822947 1.297403 0.011081 -0.003006 683963.000000 0 0 1
-21.692884 21.237628 8.549309 31.539003 -0.774794 1.296291 0.020596 -0.005127 1205960.000000 0 0 1
-22.152084 20.728228 9.806309 31.883192 -0.752205 1.258158 0.032334 -0.009976 25527.000000 0 0 1
-22.722384 21.752928 10.831109 33.268747 -0.763604 1.239188 0.029972 -0.006786 -1136990.000000 0 0 1
-23.947384 22.225128 10.359709 34.274729 -0.748115 1.263739 0.039794 -0.006778 -428846.000000 0 0 1
-24.592484 22.923528 11.414409 35.504466 -0.750289 1.243491 0.048853 -0.008524 -486722.000000 0 0 1
-26.019024 23.283528 10.974909 36.600012 -0.729971 1.266250 0.047705 -0.015437 -727583.000000 0 0 1
-26.703964 24.083128 11.926109 37.885760 -0.733840 1.250560 0.048035 -0.017082 82226.800000 0 0 1
-26.278574 25.473028 12.103309 38.547746 -0.769834 1.251412 0.035682 -0.014841 -253515.000000 0 0 1
-26.872024 26.197228 13.335309 39.827514 -0.772683 1.229375 0.037196 -0.014160 199351.000000 0 0 1
-26.114894 25.972128 14.533809 39.595084 -0.782657 1.194949 0.018031 -0.014291 227054.000000 0 0 1
-26.680414 26.553728 15.669409 40.773464 -0.783018 1.176342 0.019758 -0.008887 -163224.000000 0 0 1
-25.690824 26.576328 16.841509 40.619651 -0.802338 1.143277 0.014472 -0.015458 -219358.000000 0 0 1
-25.383734 25.334628 17.444509 39.880925 -0.784430 1.118074 0.029931 -0.017930 -192351.000000 0 0 1
-24.250684 25.446728 18.257209 39.610066 -0.809460 1.091761 0.032143 -0.014248 -573219.000000 0 0 1
-23.622384 24.073228 18.581409 38.507221 -0.794850 1.067240 0.034548 -0.006652 -602981.000000 0 0 1
-22.536384 24.254128 19.453709 38.400496 -0.822093 1.039559 0.036147 -0.013200 71525.600000 0 0 1
-22.039184 23.089328 20.049209 37.693679 -0.808664 1.009955 0.048396 -0.015343 -820222.000000 0 0 1
-20.573384 23.177228 20.443109 37.126389 -0.844844 0.987671 0.028607 -0.022181 -1142140.000000 0 0 1
-19.747384 22.971728 19.332509 35.936129 -0.860733 1.002771 0.026150 -0.020642 387315.000000 0 0 1
-18.378484 22.671328 19.593609 35.152060 -0.889596 0.979551 0.023047 -0.020307 437780.000000 0 0 1
-17.956984 21.207728 19.899709 34.179225 -0.868210 0.949344 0.022257 -0.010464 -721903.000000 0 0 1
-18.554684 20.555828 20.993609 34.749820 -0.836520 0.922115 0.039047 -0.008698 -138086.000000 0 0 1
-18.057984 20.990828 22.255309 35.524702 -0.860365 0.893775 0.042838 -0.011257 -440539.000000 0 0 1
-18.856584 20.621928 23.531709 36.531849 -0.830085 0.870895 0.031433 -0.007867 -578022.000000 0 0 1
-19.961884 21.499828 23.605809 37.655725 -0.822474 0.893248 0.026302 -0.006341 -197765.000000 0 0 1
-20.536984 21.445928 24.899709 38.751659 -0.807045 0.872980 0.030956 0.001055 -21800.600000 0 0 1
-21.592384 22.562928 24.973909 39.987659 -0.807375 0.896253 0.028164 0.003439 -863846.000000 0 0 1
-20.981584 23.808628 25.176809 40.508633 -0.848432 0.900119 0.018494 0.000311 -369173.000000 0 0 1
-21.786484 24.923528 25.384409 41.715721 -0.852457 0.916615 0.012981 0.005008 62845.800000 0 0 1
-22.732584 25.380728 24.154909 41.766151 -0.840382 0.954108 0.003063 -0.001089 658430.000000 0 0 1
-23.769984 24.494028 23.827209 41.625778 -0.800399 0.961349 0.006880 -0.002698 200613.000000 0 0 1
-24.552584 24.831428 22.693409 41.646368 -0.791045 0.994518 0.005531 -0.004161 589002.000000 0 0 1
-25.730094 23.928528 22.246109 41.587276 -0.749135 1.006376 0.023002 -0.003128 734303.000000 0 0 1
-26.941544 23.902728 23.002009 42.734993 -0.725702 1.002440 0.017963 -0.006469 328591.000000 0 0 1
-27.686174 22.789928 22.579509 42.376164 -0.688699 1.008849 0.019584 -0.003253 -216815.000000 0 0 1
-29.176844 22.877028 22.959309 43.609363 -0.664959 1.016345 0.027099 0.002993 36157.100000 0 0 1
-29.887384 23.851828 22.154909 44.192821 -0.673555 1.045668 0.019763 -0.000521 -477241.000000 0 0 1
-31.270464 23.861628 22.175509 45.154982 -0.651815 1.057447 0.014271 -0.001187 -544497.000000 0 0 1
-31.918504 22.870128 21.134609 44.592660 -0.621725 1.077027 0.020328 -0.010274 -780044.000000 0 0 1
-31.820374 21.436828 21.363009 43.914143 -0.592844 1.062749 0.015520 -0.001840 234389.000000 0 0 1
-32.460124 20.663228 20.391509 43.548160 -0.566878 1.083485 0.014576 -0.007435 -237063.000000 0 0 1
-33.986584 20.715628 20.237109 44.651604 -0.547393 1.100419 0.013432 -0.010310 -336125.000000 0 0 1
-34.519140 19.780428 19.318609 44.227198 -0.520351 1.118754 0.021355 -0.013253 372105.000000 0 0 1
34.876267 20.004928 19.042509 44.487844 0.520779 1.128475 0.025472 -0.018163 495937.000000 0 0 1
34.386872 19.109328 17.940709 43.237627 0.507221 1.142927 0.041111 -0.021367 -215178.000000 0 0 1
34.400042 17.749728 18.263709 42.801621 0.476350 1.129949 0.056896 -0.027186 151868.000000 0 0 1
33.778782 17.030428 17.259609 41.580472 0.466982 1.142755 0.055732 -0.033667 -101843.000000 0 0 1
33.987162 15.476528 17.388409 41.194743 0.427306 1.135033 0.059379 -0.027829 -152300.000000 0 0 1
32.985492 14.787528 16.696209 39.818049 0.421443 1.138108 0.048935 -0.030724 50962.500000 0 0 1
33.202742 13.406728 16.844709 39.571538 0.383764 1.131086 0.032124 -0.021823 133123.000000 0 0 1
32.379592 12.610128 15.818309 38.179474 0.371376 1.143607 0.033910 -0.027333 8536.720000 0 0 1
32.756022 12.818728 14.472409 38.035870 0.373018 1.180466 0.043429 -0.024767 723632.000000 0 0 1
31.862402 12.117828 13.590009 36.697994 0.363424 1.191443 0.042046 -0.016513 251812.000000 0 0 1
32.012682 12.675928 12.137709 36.507738 0.377024 1.231876 0.043536 -0.016229 505242.000000 0 0 1
33.285342 12.412028 11.535909 37.350363 0.356926 1.256806 0.043725 -0.012297 904244.000000 0 0 1
33.160412 12.575728 10.161709 36.892034 0.362482 1.291744 0.038303 0.001727 -532496.000000 0 0 1
34.507092 12.494628 9.463409 37.900016 0.347403 1.318432 0.022011 0.011108 -629342.000000 0 0 1
35.143755 11.250128 9.503509 38.104666 0.309809 1.318730 0.025012 0.016172 171644.000000 0 0 1
-34.284139 11.261528 9.086709 37.212800 -0.317373 1.324120 0.025285 0.018384 14141.300000 0 0 1
-33.974164 10.946128 7.608109 36.495820 -0.311688 1.360791 0.027903 0.012287 -386405.000000 0 0 1
-34.390834 11.971628 6.720209 37.029860 -0.334986 1.388304 0.011836 0.011539 145248.000000 0 0 1
-34.091480 11.531928 5.362709 36.386440 -0.326182 1.422875 0.017093 -0.002810 -118383.000000 0 0 1
-34.758799 12.433628 4.338309 37.169748 -0.343528 1.453814 0.020233 0.012346 -252202.000000 0 0 1
34.623632 12.284528 4.406209 37.001624 0.340946 1.451432 0.017773 -0.002136 -271782.000000 0 0 1
33.892502 13.500828 4.416909 36.748920 0.379077 1.450314 0.030427 -0.001435 196213.000000 0 0 1
33.564532 14.200128 5.775809 36.899613 0.400234 1.413622 0.032114 0.009707 -402511.000000 0 0 1
32.737202 15.332528 5.575409 36.577261 0.438010 1.417772 0.015907 0.009620 107746.000000 0 0 1
32.590232 16.172528 6.715309 36.996882 0.460634 1.388274 0.002394 0.013773 26363.100000 0 0 1
31.328442 15.851228 7.566109 35.916274 0.468412 1.358547 0.014419 0.014720 -46979.300000 0 0 1
31.250072 14.516028 7.875309 35.345474 0.434856 1.346101 0.033432 0.005809 -709806.000000 0 0 1
29.960372 14.068228 8.090409 34.073357 0.439001 1.331066 0.036383 -0.007869 -824562.000000 0 0 1
29.854172 12.534428 7.709509 33.283930 0.397505 1.337045 0.048626 0.000086 -160613.000000 0 0 1
29.938712 12.404028 6.313409 33.015837 0.392785 1.378388 0.035584 0.000753 286838.000000 0 0 1
30.271082 11.101528 5.860209 32.770785 0.351507 1.391005 0.058337 -0.007945 -360282.000000 0 0 1
30.236942 11.066028 4.339509 32.489398 0.350837 1.436829 0.048230 -0.014232 585562.000000 0 0 1
28.881662 11.016228 3.885909 31.154582 0.364393 1.445741 0.047020 -0.010130 802032.000000 0 0 1
28.808422 11.376528 2.519309 31.075674 0.376105 1.489637 0.050750 -0.016672 741610.000000 0 0 1
27.280112 11.428228 2.150109 29.655217 0.396711 1.498229 0.056811 -0.003299 707247.000000 0 0 1
26.802482 10.174328 1.779909 28.723824 0.362801 1.508790 0.047842 -0.007122 -693697.000000 0 0 1
25.408792 10.132628 1.815209 27.414811 0.379458 1.504535 0.045121 -0.005801 -685853.000000 0 0 1
24.991892 8.662328 1.508309 26.493501 0.333648 1.513834 0.043754 -0.011806 -158814.000000 0 0 1
25.315892 7.642428 2.452909 26.557821 0.293183 1.478303 0.054325 -0.010599 474591.000000 0 0 1
26.672622 7.220328 2.481509 27.743824 0.264366 1.481233 0.077357 -0.017344 87512.800000 0 0 1
27.053172 6.560828 3.868109 28.104819 0.237923 1.432727 0.084950 -0.019764 524669.000000 0 0 1
28.453592 6.391728 4.104809 29.450137 0.220969 1.430959 0.104013 -0.019361 769958.000000 0 0 1
28.700372 5.824728 5.354309 29.770916 0.200230 1.389962 0.090394 -0.011646 270629.000000 0 0 1
30.201952 5.875928 5.746009 31.300177 0.192154 1.386172 0.088361 -0.008075 238785.000000 0 0 1
30.662112 7.160128 5.940509 32.042506 0.229406 1.384323 0.075877 -0.014831 628560.000000 0 0 1
32.073992 7.184528 6.214709 33.451174 0.220361 1.383926 0.036817 0.000185 960069.000000 0 0 1
32.492822 8.280328 7.206009 34.296849 0.249525 1.359112 0.031994 -0.005636 -51001.500000 0 0 1
31.805462 8.114228 8.452709 33.895079 0.249792 1.318758 0.055273 -0.007235 451040.000000 0 0 1
32.274362 9.055628 9.444109 34.825709 0.273549 1.296175 0.046752 0.000875 -116516.000000 0 0 1
31.663552 8.864928 10.832009 34.619357 0.272983 1.252563 0.051054 -0.007912 -537494.000000 0 0 1
30.321982 9.258928 10.923909 33.533299 0.296361 1.238978 0.053071 -0.011820 -197509.000000 0 0 1
29.783892 8.927628 12.196409 33.399628 0.291225 1.196985 0.052813 -0.019425 529753.000000 0 0 1
28.273532 9.304528 12.417109 32.251379 0.317926 1.175577 0.045464 -0.023866 480173.000000 0 0 1
27.970352 10.629528 12.634409 32.480082 0.363172 1.171262 0.034760 -0.017691 187776.000000 0 0 1
28.151132 11.542528 11.545709 32.542581 0.389114 1.208109 0.044120 -0.022268 -1302950.000000 0 0 1
26.969372 11.638428 10.624009 31.235710 0.407399 1.223748 0.023413 -0.015259 -919220.000000 0 0 1
27.053282 12.672628 9.700809 31.409891 0.438076 1.256817 0.015551 0.006104 231232.000000 0 0 1
25.921412 12.733628 8.845809 30.204523 0.456615 1.273576 0.017339 0.002406 46506.600000 0 0 1
25.946962 13.889128 7.824609 30.452869 0.491479 1.310940 0.003426 0.007813 -65877.500000 0 0 1
25.891382 15.184328 8.352109 31.155821 0.530406 1.299402 -0.000414 0.012036 363153.000000 0 0 1
26.045042 16.100428 7.322909 31.483218 0.553677 1.336049 -0.005305 0.010889 -690035.000000 0 0 1
26.021902 17.578628 7.866109 32.373187 0.594115 1.325357 0.005429 0.001162 1197260.000000 0 0 1
24.713492 18.172828 8.077609 31.721540 0.634053 1.313320 0.012369 0.003600 1498440.000000 0 0 1
23.836992 17.535428 8.999309 30.930260 0.634247 1.275572 0.024844 0.004816 -244705.000000 0 0 1
22.480592 18.214928 9.243109 30.374260 0.680961 1.261585 0.036958 -0.002993 -584491.000000 0 0 1
21.670692 18.368128 8.140209 29.551142 0.703100 1.291726 0.045736 -0.005556 -390497.000000 0 0 1
20.803992 19.451328 8.384709 29.689452 0.751809 1.284487 0.072062 -0.016881 -513180.000000 0 0 1
20.176692 19.926228 7.134809 29.241391 0.779153 1.324311 0.067973 -0.009602 -276217.000000 0 0 1
20.971592 20.764628 6.333809 30.184343 0.780439 1.359388 0.039328 0.005886 139913.000000 0 0 1
20.188492 21.138728 5.229009 29.694504 0.808387 1.393780 0.050491 0.000519 155921.000000 0 0 1
17.751716 17.205028 33.045894 41.269450 0.769760 0.642275 0.012506 0.005880 -134398.000000 0 0 1
17.215616 18.107328 32.036323 40.627315 0.810637 0.662363 0.022479 0.003606 307188.000000 0 0 1
16.413716 17.414828 31.120683 39.257906 0.814983 0.655532 0.036591 -0.009328 -180985.000000 0 0 1
15.903116 18.212228 29.858103 38.420055 0.852981 0.680674 0.030068 -0.009616 46059.000000 0 0 1
16.842916 18.644728 28.898233 38.293832 0.836128 0.715684 0.026552 -0.001213 -219257.000000 0 0 1
16.256316 18.840628 27.609813 37.169057 0.858899 0.733528 0.046066 -0.015345 -273126.000000 0 0 1
17.245016 19.167428 26.488603 36.965213 0.838145 0.771907 0.037538 -0.003777 51371.400000 0 0 1
18.014716 20.379228 26.661103 38.087496 0.846906 0.795404 0.037272 0.002661 -18608.900000 0 0 1
18.981716 20.594128 25.707703 38.017228 0.826118 0.828188 0.027833 -0.002946 -847472.000000 0 0 1
19.823116 21.844028 26.012403 39.328903 0.833862 0.848103 0.048285 -0.005529 -374878.000000 0 0 1
19.155916 23.068728 25.844313 39.585904 0.877801 0.859434 0.044848 -0.017365 236379.000000 0 0 1
19.870316 24.069928 26.494843 40.941026 0.880684 0.866961 0.065959 -0.020943 3099.160000 0 0 1
19.155716 25.449128 26.237453 41.267463 0.925566 0.881764 0.060232 -0.024092 266766.000000 0 0 1
19.182216 25.946828 24.890223 40.751914 0.934185 0.913758 0.058150 -0.023143 556153.000000 0 0 1
18.056116 26.780728 24.655733 40.634171 0.977582 0.918801 0.057491 -0.023526 102070.000000 0 0 1
18.263116 27.674728 23.409983 40.588906 0.987479 0.956042 0.051490 -0.021997 -626352.000000 0 0 1
19.432216 28.411728 23.455983 41.653576 0.970923 0.972639 0.061047 -0.020096 -469962.000000 0 0 1
19.256716 29.495728 22.583483 41.842954 0.992410 1.000692 0.040592 -0.017316 585361.000000 0 0 1
20.547616 30.355628 22.361983 42.938641 0.975745 1.023021 0.042062 -0.017332 417805.000000 0 0 1
21.416216 29.863228 21.378983 42.515028 0.948657 1.043895 0.043979 -0.012209 -294168.000000 0 0 1
22.604816 30.588428 21.195783 43.541828 0.934373 1.062384 0.039454 -0.021741 -79644.600000 0 0 1
22.880116 31.024728 19.773083 43.324453 0.935356 1.096856 0.034047 -0.016147 -495545.000000 0 0 1
21.937016 31.959928 19.390783 43.343651 0.969262 1.106970 0.025603 -0.008489 -189436.000000 0 0 1
21.844316 32.199928 17.989683 42.867682 0.974717 1.137730 0.017258 -0.005258 134021.000000 0 0 1
20.934816 33.386628 17.548783 43.138071 1.010730 1.151842 0.029394 0.000131 -671769.000000 0 0 1
21.531716 -34.509497 17.883483 44.433536 -1.012963 1.156575 0.028037 -0.000061 187094.000000 0 0 1
21.995416 -33.738097 16.801383 43.638790 -0.993054 1.175577 0.017040 0.000889 339384.000000 0 0 1
23.073416 -34.364897 15.793983 44.303257 -0.979507 1.206280 0.001824 0.000987 -108957.000000 0 0 1
22.786216 33.561728 15.024483 43.258945 0.974349 1.216090 0.016423 -0.010585 -44748.400000 0 0 1
21.888616 33.791628 13.939383 42.606244 0.996003 1.237492 -0.000024 -0.005771 13605.000000 0 0 1
21.594616 32.471028 13.159583 41.156648 0.983919 1.245337 0.012021 -0.007852 526795.000000 0 0 1
22.677316 32.070528 12.316083 41.163883 0.955316 1.266946 0.024546 -0.009435 566121.000000 0 0 1
22.146416 31.007128 11.525383 39.808795 0.950580 1.277073 0.031157 -0.010910 -300428.000000 0 0 1
23.153416 30.299928 10.566683 39.570457 0.918306 1.300482 0.027305 -0.009310 167559.000000 0 0 1
24.160816 29.495928 11.085283 39.706905 0.884503 1.287859 0.025405 -0.003916 444325.000000 0 0 1
25.222716 30.179628 11.786483 41.059914 0.874632 1.279645 0.026402 -0.008348 -880640.000000 0 0 1
26.408316 29.339328 12.108083 41.289236 0.837926 1.273171 0.019996 -0.008675 -754117.000000 0 0 1
26.304816 28.509428 13.210483 40.978625 0.825596 1.242559 0.024106 -0.000461 -10635.000000 0 0 1
27.641716 28.299528 13.611983 41.835557 0.797157 1.239395 0.020023 0.000169 148169.000000 0 0 1
27.794316 27.322428 14.773883 41.681011 0.776837 1.208469 0.008459 -0.008263 870105.000000 0 0 1
29.097816 27.375028 15.397583 42.815425 0.754901 1.202928 0.004398 -0.010604 865238.000000 0 0 1
29.337716 26.330828 16.313783 42.663258 0.731436 1.178420 0.010774 -0.013479 218984.000000 0 0 1
30.630916 26.583028 17.133183 44.027904 0.714766 1.171094 0.019658 -0.010632 1119940.000000 0 0 1
31.830616 26.462728 16.333183 44.499853 0.693573 1.194972 0.028662 -0.008101 765558.000000 0 0 1
33.009116 26.705428 17.085583 45.767879 0.680224 1.188222 0.026241 -0.006791 531048.000000 0 0 1
34.287816 26.900628 16.239883 46.508407 0.665251 1.214099 0.037733 -0.011899 101096.000000 0 0 1
34.239316 28.095528 15.478683 46.917790 0.687154 1.234587 0.039647 -0.005868 408891.000000 0 0 1
-35.238460 28.442728 14.983483 47.699503 -0.679086 1.251264 0.057775 -0.008034 803655.000000 0 0 1
-35.238060 29.695828 14.112483 48.194660 -0.700253 1.273619 0.046852 -0.003361 36701.100000 0 0 1
35.046616 30.849928 14.754983 48.966242 0.721798 1.264709 0.050328 -0.005976 37884.800000 0 0 1
34.919716 31.908228 13.899583 49.302332 0.740365 1.284996 0.038655 0.004801 8615.650000 0 0 1
34.225816 33.122928 14.519483 49.793074 0.769024 1.274901 0.027405 0.003888 -522587.000000 0 0 1
34.120016 34.348528 13.855783 50.358510 0.788736 1.292058 0.011538 -0.005749 542667.000000 0 0 1
33.065016 -33.949797 14.376183 49.523314 -0.798600 1.276265 0.011266 -0.002338 1155940.000000 0 0 1
31.637316 -34.212497 13.773683 48.591450 -0.824485 1.283397 0.027728 -0.000727 444747.000000 0 0 1
31.125816 33.687428 14.291083 48.040548 0.824901 1.268745 0.022650 -0.003211 133865.000000 0 0 1
30.075516 33.085328 13.525583 46.713135 0.833015 1.277044 0.021373 -0.004245 311873.000000 0 0 1
29.459216 31.810228 14.235183 45.633063 0.823751 1.253553 0.026843 -0.010757 -37.072200 0 0 1
28.812116 32.126828 15.441083 45.833373 0.839739 1.227178 0.026994 -0.006373 -79719.000000 0 0 1
28.295816 30.998728 16.096383 44.951839 0.830951 1.204585 0.021198 -0.012084 -14466.800000 0 0 1
27.664916 31.520828 17.410283 45.409560 0.850456 1.177315 0.017644 -0.011518 -119995.000000 0 0 1
27.325116 30.417828 18.311483 44.801971 0.838907 1.149745 0.012206 -0.007712 -105066.000000 0 0 1
28.161916 30.404028 19.428783 45.770908 0.823663 1.132410 0.007242 -0.007618 -223116.000000 0 0 1
28.145916 29.179328 20.356083 45.365139 0.803423 1.105468 0.002551 -0.013005 240198.000000 0 0 1
27.063116 29.225628 21.287983 45.163345 0.823797 1.079969 0.011580 -0.012660 360946.000000 0 0 1
27.133216 28.113028 22.184283 44.929903 0.803132 1.054396 -0.002547 -0.009143 -427718.000000 0 0 1
25.952016 28.103728 23.160983 44.718651 0.825183 1.026371 0.010850 -0.016358 -127548.000000 0 0 1
24.718716 27.740028 22.553783 43.464896 0.842929 1.025237 0.034357 -0.017686 49495.400000 0 0 1
23.584516 27.903428 23.355783 43.362694 0.869084 1.002004 0.047311 -0.020958 -14600.400000 0 0 1
23.250316 26.735028 24.327993 42.978950 0.855000 0.969097 0.043640 -0.030669 -575076.000000 0 0 1
24.081916 26.702228 25.474353 44.066884 0.836949 0.954418 0.033955 -0.020477 155931.000000 0 0 1
23.838916 25.716128 26.432503 43.912303 0.823261 0.924870 0.055320 -0.021801 102699.000000 0 0 1
25.074016 25.554528 27.385563 45.074485 0.794889 0.917808 0.052887 -0.009177 516013.000000 0 0 1
25.424416 26.698928 28.187593 46.408771 0.809845 0.918042 0.055471 -0.022161 880301.000000 0 0 1
26.425716 27.539028 27.554933 47.074312 0.806026 0.945485 0.036517 -0.007961 211654.000000 0 0 1
26.824516 28.784428 28.440683 48.548639 0.820628 0.944907 0.012230 -0.004630 -187006.000000 0 0 1
27.397116 28.411728 29.705003 49.398537 0.803576 0.925627 0.010000 0.006405 323323.000000 0 0 1
27.794216 29.552828 30.471333 50.738449 0.816055 0.926599 0.009163 0.009641 307489.000000 0 0 1
29.264516 30.031528 30.394333 51.789188 0.798333 0.943589 -0.003154 0.011535 32381.900000 0 0 1
29.733816 30.411228 29.111223 51.540333 0.796661 0.970576 -0.016336 0.005410 1773730.000000 0 0 1
31.205416 30.398228 29.095963 52.387072 0.772296 0.981948 0.018823 -0.000707 1979050.000000 0 0 1
31.763416 30.706528 27.707963 52.149177 0.768481 1.010637 0.010024 0.004073 -293816.000000 0 0 1
31.564116 32.077928 27.461723 52.720329 0.793471 1.022898 0.010283 0.007000 211679.000000 0 0 1
31.829516 32.381928 26.132693 52.389168 0.794001 1.048561 0.003329 0.001471 -77652.400000 0 0 1
31.523116 33.900928 25.967003 53.077914 0.821727 1.059596 0.011917 -0.008211 241143.000000 0 0 1
32.458216 -34.417997 26.711113 54.328794 -0.814694 1.056805 0.031545 -0.005966 508814.000000 0 0 1
32.235516 -33.036597 26.526583 53.237250 -0.797670 1.049193 0.027582 -0.005436 -123155.000000 0 0 1
33.200416 -32.071797 27.281153 53.620230 -0.768109 1.037024 0.033681 -0.009118 -7450.940000 0 0 1
33.079616 -31.973397 28.680973 54.213995 -0.768395 1.013336 0.037568 -0.017826 694762.000000 0 0 1
33.958816 -30.982797 29.265803 54.494239 -0.739604 1.003867 0.037746 -0.021067 163889.000000 0 0 1
33.504616 -30.711497 30.711593 54.853963 -0.741930 0.976556 0.036700 -0.021225 -13819.500000 0 0 1
33.630116 -31.785497 31.646063 56.060466 -0.757207 0.970970 0.035568 -0.014648 906148.000000 0 0 1
32.399016 -32.525497 31.646353 55.759267 -0.787346 0.967265 0.040023 -0.026410 238605.000000 0 0 1
32.264516 -33.536897 32.826363 56.949912 -0.804732 0.956471 0.043031 -0.019999 -193611.000000 0 0 1
32.090016 -32.817397 34.023096 57.134243 -0.796604 0.932916 0.036976 -0.022816 180599.000000 0 0 1
32.561316 -33.477397 -33.739911 57.613861 -0.799269 2.196443 0.030401 -0.016222 22755.300000 0 0 1
31.948716 34.271828 -33.329051 57.498733 0.820465 2.189094 0.020565 -0.010462 23194.100000 0 0 1
32.251016 33.277228 -34.293155 57.649999 0.801057 2.207877 0.025365 -0.011628 289111.000000 0 0 1
31.272716 32.228428 -34.245403 56.474790 0.800447 2.222301 0.024544 -0.003840 228791.000000 0 0 1
31.442716 31.091128 33.649976 55.566388 0.779776 0.920300 0.018406 0.000987 -903162.000000 0 0 1
32.585616 30.336428 33.623880 55.791456 0.749668 0.923953 0.024855 -0.004059 -810983.000000 0 0 1
32.546516 29.584028 32.436083 54.649701 0.737753 0.935362 0.020747 0.000317 -638617.000000 0 0 1
33.831416 28.882828 32.040213 54.821143 0.706654 0.946594 0.035488 0.001796 -705267.000000 0 0 1
34.144716 27.744828 32.904914 54.939698 0.682356 0.928635 0.027769 0.005203 1476130.000000 0 0 1
-35.270860 27.257928 32.757923 55.318259 -0.657945 0.937045 0.012396 0.005886 1195670.000000 0 0 1
-34.954360 26.094228 33.706845 55.125923 -0.641272 0.912902 0.003799 0.007658 -14373.500000 0 0 1
35.217716 24.856528 33.308570 54.475640 0.614605 0.912918 0.007038 0.007306 219763.000000 0 0 1
35.370716 23.817928 34.239819 54.687717 0.592636 0.894259 0.006049 -0.001986 5076.090000 0 0 1
35.044816 22.406228 33.641785 53.497176 0.568859 0.890721 0.008116 -0.013122 93967.800000 0 0 1
-34.751160 21.919728 32.751483 52.543099 -0.562732 0.897807 0.015632 -0.010320 119013.000000 0 0 1
-35.172060 20.643228 32.347963 52.053889 -0.530747 0.900227 0.015813 -0.014101 507774.000000 0 0 1
-34.160860 19.925828 31.388103 50.489761 -0.528045 0.899920 0.009537 -0.017017 430621.000000 0 0 1
-33.847660 20.589328 30.154753 49.788489 -0.546496 0.920205 0.003091 -0.010626 206644.000000 0 0 1
-32.749560 20.005028 29.476703 48.390194 -0.548358 0.915813 0.025137 -0.012566 227993.000000 0 0 1
-33.213260 19.008828 28.357783 47.630033 -0.519823 0.933063 0.026907 -0.008475 82029.200000 0 0 1
-33.961860 17.884328 28.807473 47.990912 -0.484701 0.926959 0.023267 -0.012393 69071.700000 0 0 1
-34.529760 17.173628 27.764903 47.519761 -0.461531 0.946802 0.022929 -0.017074 -170845.000000 0 0 1
-35.248460 15.933928 28.413133 47.996355 -0.424554 0.937277 0.023971 -0.026863 182485.000000 0 0 1
-34.363560 14.912228 28.914283 47.320868 -0.409431 0.913440 0.031483 -0.020587 450204.000000 0 0 1
-35.088660 13.887928 29.531673 47.918768 -0.376876 0.906778 0.054232 -0.024081 -40979.700000 0 0 1
-34.115160 12.767428 29.950413 47.158017 -0.358109 0.882649 0.052601 -0.015928 137326.000000 0 0 1
-33.155060 13.224428 30.877783 47.197256 -0.379528 0.857634 0.040814 -0.008480 545833.000000 0 0 1
-32.352160 12.126028 31.383363 46.675671 -0.358607 0.833389 0.050391 -0.009500 1464110.000000 0 0 1
-30.783460 12.312928 31.384633 45.653311 -0.380494 0.812816 0.047674 -0.005353 366968.000000 0 0 1
-30.300260 12.484328 30.062853 44.471781 -0.390826 0.828478 0.041858 -0.006261 739883.000000 0 0 1
-28.992060 13.067728 29.955173 43.687727 -0.423465 0.815279 0.038503 -0.003388 1626460.000000 0 0 1
-27.744260 12.213328 30.429773 42.952071 -0.414684 0.783484 0.035419 -0.000694 6491.170000 0 0 1
-27.492260 11.100728 29.600903 41.895871 -0.383758 0.786206 0.026692 -0.000622 446895.000000 0 0 1
-26.391260 10.306328 30.099693 41.336552 -0.372308 0.755160 0.017004 0.001113 628494.000000 0 0 1
-26.090360 9.159628 29.061713 40.114696 -0.337631 0.760538 0.000328 0.008846 607230.000000 0 0 1
-26.903660 7.954428 29.164453 40.467829 -0.287474 0.766010 -0.000826 0.001732 -287894.000000 0 0 1
-28.004560 7.991428 28.318013 40.620539 -0.277974 0.799402 0.017507 -0.000662 -457188.000000 0 0 1
-28.828960 6.677828 28.433173 41.038368 -0.227622 0.805371 0.018283 -0.002859 -124728.000000 0 0 1
-29.413360 6.424228 29.731373 42.312776 -0.215035 0.791671 0.021822 -0.006840 313295.000000 0 0 1
-29.881660 5.091728 29.850953 42.543139 -0.168775 0.793067 0.014237 -0.003853 -325541.000000 0 0 1
-30.745960 4.808628 31.096733 43.993679 -0.155142 0.785768 0.004833 -0.003506 221381.000000 0 0 1
-32.046260 5.371728 31.008013 44.914531 -0.166080 0.808785 0.020873 -0.009131 -126029.000000 0 0 1
-32.851760 4.922528 32.059803 46.166009 -0.148734 0.803147 0.032244 -0.007605 -825702.000000 0 0 1
-34.222460 5.556828 32.103393 47.251275 -0.160969 0.823826 0.033551 -0.005611 -687540.000000 0 0 1
-34.317260 6.883828 32.516873 47.774559 -0.197966 0.822172 0.040826 -0.010676 -428358.000000 0 0 1
35.137116 7.339728 32.449553 48.388656 0.205927 0.835776 0.059523 -0.009878 -121193.000000 0 0 1
34.964716 8.764128 33.019629 48.883915 0.245596 0.829194 0.052794 -0.006692 -101472.000000 0 0 1
35.106316 8.874228 34.386532 49.936349 0.247595 0.811230 0.049762 -0.005247 198968.000000 0 0 1
34.908016 10.219628 -34.169130 49.905308 0.284800 2.324960 0.053601 -0.007375 -312113.000000 0 0 1
34.825816 10.483628 -32.661401 48.882625 0.292402 2.302529 0.048012 -0.008801 938771.000000 0 0 1
33.593716 10.010828 -32.052581 47.498656 0.289618 2.311504 0.045546 -0.004443 1072210.000000 0 0 1
33.783216 10.014228 -30.685721 46.724768 0.288175 2.287275 0.036027 0.003610 804363.000000 0 0 1
32.482416 9.511128 -29.960731 45.201928 0.284846 2.295375 0.016490 0.006823 678183.000000 0 0 1
32.426316 8.056528 -30.007741 44.909221 0.243525 2.302565 0.016338 0.011373 659083.000000 0 0 1
31.137116 7.674128 -29.532071 43.595360 0.241646 2.315037 0.007196 0.014053 285121.000000 0 0 1
33.602642 6.826128 -20.084591 39.738198 0.200415 2.100668 -0.007457 0.005495 -853589.000000 0 0 1
33.296802 7.528428 -18.848691 38.995223 0.222362 2.075284 -0.007486 0.010176 508371.000000 0 0 1
34.070542 8.752528 -18.642991 39.811678 0.251457 2.058139 -0.007160 0.005267 353038.000000 0 0 1
-35.183392 8.500728 -18.312991 40.564752 -0.237069 2.039187 -0.003923 -0.000278 218855.000000 0 0 1
-34.426142 7.897028 -19.292791 40.245920 -0.225489 2.070736 -0.005371 -0.007977 -526449.000000 0 0 1
-34.109049 8.818528 -20.303191 40.662184 -0.252999 2.093603 -0.007821 0.000752 -1189510.000000 0 0 1
-32.933364 8.314928 -21.161891 40.019622 -0.247309 2.127968 -0.001266 0.006674 -330760.000000 0 0 1
-33.167404 7.168128 -21.961191 40.419706 -0.212846 2.145194 -0.008523 0.013467 -114339.000000 0 0 1
-34.020334 7.311128 -23.056391 41.742459 -0.211685 2.155975 -0.004990 0.014954 -172012.000000 0 0 1
-34.052964 6.085828 -23.979991 42.091349 -0.176849 2.176953 0.003996 0.011639 264721.000000 0 0 1
-32.873884 5.903528 -24.749191 41.570017 -0.177687 2.208512 0.006498 0.002171 230939.000000 0 0 1
-32.952374 4.659128 -25.401811 41.866674 -0.140459 2.222738 0.015771 0.011783 75709.600000 0 0 1
-31.681314 4.423328 -26.260671 41.387128 -0.138723 2.258175 0.026815 0.006609 -71577.300000 0 0 1
-30.518944 4.358628 -25.476181 39.992992 -0.141858 2.261417 0.021096 0.003840 -1364560.000000 0 0 1
-29.457494 4.184028 -26.303781 39.713209 -0.141092 2.294739 0.014848 0.006175 -843267.000000 0 0 1
-28.043224 4.369928 -25.705001 38.291850 -0.154585 2.306746 0.019050 -0.003454 149176.000000 0 0 1
-27.828464 5.802928 -25.513181 38.197118 -0.205579 2.302227 0.011872 0.000632 593947.000000 0 0 1
-26.565774 6.073228 -24.902091 36.915289 -0.224749 2.311184 0.015529 -0.000230 460704.000000 0 0 1
-25.994284 7.528028 -24.984291 36.831899 -0.281891 2.316288 0.014755 -0.003227 8450.960000 0 0 1
-26.798574 8.444028 -24.246691 37.112898 -0.305245 2.282761 0.029172 -0.010604 6680.850000 0 0 1
-26.547634 9.840028 -24.528691 37.460108 -0.354956 2.284708 0.017105 -0.010595 -783910.000000 0 0 1
-25.195274 10.408128 -24.153691 36.421584 -0.391747 2.295842 0.041980 -0.010514 -715191.000000 0 0 1
-25.160024 10.800328 -22.765091 35.607910 -0.405478 2.264419 0.027684 -0.014005 -182843.000000 0 0 1
-23.864784 11.194528 -22.410491 34.598779 -0.438608 2.275391 0.055330 -0.014354 -661450.000000 0 0 1
-23.601384 11.461828 -20.911991 33.551605 -0.452096 2.243724 0.062250 -0.026498 -776255.000000 0 0 1
-23.880384 12.807428 -20.471791 33.961702 -0.492276 2.217790 0.055199 -0.028128 979741.000000 0 0 1
-25.238094 13.258728 -20.536591 35.135549 -0.483718 2.195055 0.047150 -0.021719 737307.000000 0 0 1
-26.361784 12.578428 -19.697091 35.229759 -0.445198 2.164101 0.038660 -0.010972 -86869.700000 0 0 1
-26.084974 12.656228 -18.284491 34.277231 -0.451731 2.133446 0.035970 -0.016067 -141786.000000 0 0 1
-27.142094 12.117528 -17.565091 34.526224 -0.419896 2.104524 0.025361 -0.016290 -1590010.000000 0 0 1
-26.788134 11.969328 -16.082891 33.459353 -0.420202 2.072214 0.040933 -0.015773 227080.000000 0 0 1
-26.020504 10.816628 -15.743191 32.278695 -0.393964 2.080281 0.056302 -0.018961 884347.000000 0 0 1
-24.742884 10.776328 -16.369891 31.564424 -0.410758 2.116031 0.057646 -0.012949 -925623.000000 0 0 1
-23.928984 9.446228 -16.285591 30.447462 -0.375982 2.135156 0.059192 -0.015347 865817.000000 0 0 1
-22.527584 9.667328 -16.049091 29.300556 -0.405366 2.150457 0.063898 -0.011697 927359.000000 0 0 1
-21.884784 8.483028 -15.707491 28.242358 -0.369791 2.160564 0.048376 -0.009660 178910.000000 0 0 1
-20.361184 8.608328 -15.424991 26.955732 -0.399990 2.180024 0.073103 -0.012878 390781.000000 0 0 1
-19.586484 8.865628 -16.577391 27.148473 -0.425047 2.227639 0.075297 -0.018467 620518.000000 0 0 1
-18.194084 9.035428 -16.321791 26.058866 -0.460935 2.247650 0.083781 -0.021317 483989.000000 0 0 1
-17.443384 9.494528 -17.660691 26.576638 -0.498461 2.297647 0.062635 -0.010768 52459.800000 0 0 1
-17.339584 8.569228 -18.728391 26.922954 -0.458997 2.340092 0.086248 -0.018170 45857.800000 0 0 1
-16.481484 7.491728 -18.485191 25.874072 -0.426635 2.366604 0.091216 -0.015927 -770885.000000 0 0 1
-16.152384 6.646428 -19.744691 26.361474 -0.390366 2.417345 0.069913 -0.014528 -202749.000000 0 0 1
-17.065384 5.786328 -20.394291 27.214629 -0.326903 2.417932 0.077768 -0.003839 -261511.000000 0 0 1
-17.921784 6.522928 -21.243991 28.549012 -0.349062 2.410018 0.066202 -0.010793 -199532.000000 0 0 1
-18.926984 5.679928 -22.059491 29.616101 -0.291546 2.411103 0.060155 -0.003424 41719.900000 0 0 1
-19.824384 4.987728 -21.198691 29.449417 -0.246480 2.374359 0.055254 -0.008219 465683.000000 0 0 1
-20.372984 3.784428 -21.718391 30.017809 -0.183664 2.379680 0.037815 0.001028 -66582.600000 0 0 1
-21.360284 3.065628 -20.734591 29.926294 -0.142547 2.336238 0.049767 -0.000291 153033.000000 0 0 1
-21.752184 1.797928 -21.221591 30.442503 -0.082468 2.342147 0.050907 0.002093 220224.000000 0 0 1
-22.674684 1.209928 -20.333991 30.480755 -0.053310 2.301118 0.056994 0.001827 -287157.000000 0 0 1
-23.247884 -0.171572 -20.719991 31.141798 0.007380 2.298750 0.044818 0.019863 355616.000000 0 0 1
-22.242884 -1.204172 -20.708091 30.414157 0.054085 2.319746 0.045553 0.001175 670457.000000 0 0 1
-22.716784 -2.519172 -21.166691 31.151682 0.110444 2.317839 0.033725 0.000101 -33629.200000 0 0 1
-23.133884 -2.639772 -22.681191 32.505098 0.113617 2.343081 0.048153 -0.007492 379587.000000 0 0 1
-22.022984 -2.463872 -23.545391 32.333697 0.111414 2.386488 0.031644 -0.008013 195456.000000 0 0 1
-21.216684 -3.611972 -23.702791 32.015876 0.168625 2.404380 0.025351 -0.017391 -202295.000000 0 0 1
-20.224084 -3.390472 -24.829691 32.202833 0.166101 2.451270 0.038467 -0.016812 -572477.000000 0 0 1
-20.932784 -3.409072 -26.024131 33.571694 0.161441 2.457797 0.027285 -0.008571 232394.000000 0 0 1
-20.161884 -3.209172 -27.213981 34.020598 0.157846 2.497969 0.016274 -0.016157 -152976.000000 0 0 1
-20.963284 -3.461672 -28.489441 35.539987 0.163653 2.500791 0.007665 -0.006964 -132243.000000 0 0 1
-21.421884 -4.800872 -28.648211 36.092457 0.220468 2.487738 0.012096 0.004118 715974.000000 0 0 1
-22.208484 -5.011972 -29.843101 37.535947 0.221960 2.489893 -0.013033 -0.001483 -238149.000000 0 0 1
-21.870984 -6.410072 -30.423751 38.013598 0.285101 2.498656 0.006686 0.005182 -119320.000000 0 0 1
-20.580984 -6.358272 -30.983271 37.735495 0.299638 2.534069 -0.006036 0.003212 -100901.000000 0 0 1
-20.079584 -7.574272 -31.509421 38.123522 0.360709 2.543673 -0.009448 0.001393 656388.000000 0 0 1
-18.666284 -7.311772 -32.161501 37.897946 0.373340 2.584195 0.002363 -0.007701 -3405.540000 0 0 1
-18.684084 -6.685572 -33.450591 38.893880 0.343626 2.606159 0.006130 -0.015607 204719.000000 0 0 1
-18.982484 -7.621572 34.458818 40.072849 0.381804 0.535714 0.000165 -0.015905 -672880.000000 0 0 1
-18.878384 -7.139872 32.969427 38.656879 0.361576 0.549332 0.001852 -0.011176 393110.000000 0 0 1
-17.550384 -6.890772 32.509813 37.581733 0.374135 0.525560 0.011236 -0.013051 528573.000000 0 0 1
-16.994284 -5.701672 33.023779 37.575055 0.323704 0.497297 0.002283 -0.009667 578799.000000 0 0 1
-15.619184 -5.309872 32.322153 36.288776 0.327701 0.471929 0.000897 -0.009006 884503.000000 0 0 1
-15.829284 -5.139072 30.949623 35.140510 0.313921 0.493376 0.009163 -0.004297 539410.000000 0 0 1
-14.623184 -4.723472 30.305723 33.979193 0.312433 0.469288 0.002483 -0.000269 357315.000000 0 0 1
-14.716184 -4.834872 28.804963 32.705779 0.317431 0.493395 0.002791 -0.001089 4751.730000 0 0 1
-15.508284 -3.807272 28.262043 32.461443 0.240738 0.514306 -0.009543 -0.008186 -38714.400000 0 0 1
-15.998484 -3.983372 26.915493 31.563626 0.244023 0.549592 -0.005395 -0.004637 -300883.000000 0 0 1
-15.065584 -3.681972 25.706643 30.022662 0.239698 0.542847 0.002745 -0.002488 154142.000000 0 0 1
-14.915284 -2.265272 25.524323 29.649422 0.150724 0.533818 -0.001742 0.007231 235994.000000 0 0 1
-13.944784 -1.964872 24.523603 28.279406 0.139982 0.521266 -0.003315 0.006855 166434.000000 0 0 1
-13.643284 -0.468972 24.227193 27.808560 0.034360 0.513127 0.004108 0.004861 88689.400000 0 0 1
-14.758184 0.219828 23.675483 27.899477 -0.014894 0.557464 0.003255 -0.001880 55443.400000 0 0 1
-15.210684 1.242428 24.487433 28.853820 -0.081500 0.557327 -0.005607 0.007766 -664557.000000 0 0 1
-15.879584 2.371528 23.666283 28.598571 -0.148249 0.596096 0.003779 0.006009 -12172.300000 0 0 1
-15.051384 3.002528 22.717683 27.416281 -0.196900 0.594158 -0.002782 0.003064 401445.000000 0 0 1
-15.868684 3.987928 22.087583 27.487816 -0.246209 0.637576 -0.007123 0.005797 239272.000000 0 0 1
-15.241984 4.606928 20.832083 26.220556 -0.293522 0.652622 -0.006524 0.005453 36634.400000 0 0 1
-14.182584 5.470028 21.165583 26.058565 -0.368106 0.622829 0.008478 -0.004037 -206685.000000 0 0 1
-13.258284 5.641128 20.137083 24.760988 -0.402277 0.621066 0.016870 -0.009961 -394545.000000 0 1 0
-12.076984 6.537228 20.516083 24.688024 -0.496136 0.589869 0.015342 -0.007540 -130253.000000 0 1 0
-12.436284 7.903028 20.681783 25.393998 -0.566101 0.619040 0.020396 -0.005064 106602.000000 0 0 1
-11.274684 8.707628 20.642383 25.080854 -0.657632 0.604065 0.012844 -0.004426 -65320.600000 0 0 1
-11.429884 10.236028 20.622583 25.704269 -0.730351 0.639655 0.003384 0.005287 -399289.000000 0 0 1
-11.914584 10.716828 19.416483 25.175534 -0.732523 0.690003 0.005085 0.004265 281458.000000 0 0 1
-12.492684 12.018128 19.519283 26.105650 -0.766039 0.726200 -0.001950 0.009099 -384007.000000 0 0 1
-13.060184 12.657228 18.209983 25.736692 -0.769731 0.784772 0.007656 0.007269 18847.000000 0 0 1
-12.201784 13.235028 17.203683 24.900125 -0.825996 0.808053 0.010317 0.006410 335897.000000 0 1 0
-11.687584 14.553528 17.484283 25.575475 -0.894183 0.818065 0.009539 -0.000766 -289658.000000 0 0 1
-12.658084 15.788328 17.316083 26.633534 -0.894997 0.863000 0.008689 0.009434 178377.000000 0 0 1
-12.937384 16.301228 16.058783 26.286697 -0.899943 0.913588 0.015066 0.000735 228102.000000 0 0 1
-13.607684 15.416228 15.165983 25.550659 -0.847630 0.935315 0.030002 -0.004198 -501112.000000 0 0 1
-13.988284 16.122828 13.841283 25.440102 -0.856169 0.995512 0.021058 -0.007391 -287047.000000 0 0 1
-14.987684 17.105628 13.971383 26.691435 -0.851296 1.019912 0.017722 -0.007329 -32158.400000 0 0 1
-15.281984 17.690328 12.701183 26.604638 -0.858310 1.073097 0.004414 -0.007100 18395.000000 0 0 1
-16.490384 18.640428 12.756183 27.966382 -0.846523 1.097160 0.009621 -0.002955 45607.200000 0 0 1
-17.737684 18.028728 12.995283 28.434800 -0.793535 1.096154 0.018100 -0.006283 -223398.000000 0 0 1
-18.811184 18.889428 13.208083 29.751043 -0.787474 1.110790 0.028450 -0.009385 490264.000000 0 0 1
-20.168784 18.150028 13.459383 30.287924 -0.732764 1.110313 0.032737 -0.000734 584871.000000 0 0 1
-20.796884 17.761028 12.277183 29.978221 -0.706825 1.148850 0.034839 -0.003093 353546.000000 0 0 1
-22.087584 17.172228 12.514883 30.649128 -0.660846 1.150175 0.045199 -0.001379 761261.000000 0 0 1
-22.699684 16.534328 11.281283 30.264286 -0.629530 1.188816 0.050691 0.002939 -517.897000 0 0 1
-22.022984 15.266128 10.968683 28.954766 -0.606141 1.182274 0.047083 0.001783 489067.000000 0 0 1
-22.516884 14.601928 9.826983 28.579642 -0.575312 1.219787 0.041588 -0.009536 -427702.000000 0 0 1
-21.843584 13.229928 9.502583 27.248344 -0.544576 1.214570 0.051841 -0.013082 -568477.000000 0 0 1
-22.149184 12.120028 10.337583 27.282724 -0.500691 1.182183 0.049829 -0.009222 439103.000000 0 0 1
-23.512784 11.765728 10.545483 28.328265 -0.463965 1.189353 0.053812 -0.012532 520617.000000 0 0 1
-24.333384 11.242728 9.324283 28.380535 -0.432812 1.236034 0.067208 -0.017272 -308365.000000 0 0 1
-24.779884 12.270728 8.435983 28.909846 -0.459791 1.274685 0.079081 -0.022910 67780.300000 0 0 1
-25.884424 11.791428 7.716883 29.471876 -0.427453 1.305869 0.077074 -0.020797 -736266.000000 0 0 1
-26.154164 12.828328 6.584283 29.865684 -0.456010 1.348507 0.056872 -0.019241 -1015050.000000 0 0 1
-25.354894 12.906528 5.440283 28.966287 -0.470849 1.381860 0.047457 -0.025719 1966800.000000 0 0 1
-24.000584 13.458128 5.701583 28.100841 -0.511053 1.366481 0.052827 -0.032254 1544470.000000 0 0 1
-23.915584 14.982928 5.954883 28.842745 -0.559672 1.362840 0.048695 -0.019116 -1142900.000000 0 0 1
-22.598284 15.446328 5.928683 28.007513 -0.599578 1.357501 0.044049 -0.016729 -166116.000000 0 0 1
-22.457884 16.563328 6.748083 28.709528 -0.635471 1.333530 0.043888 -0.010653 -19625.900000 0 0 1
-21.024784 17.123728 6.666583 27.923233 -0.683493 1.329721 0.036552 -0.011978 -75409.400000 0 0 1
-20.615884 17.774728 5.479183 27.766474 -0.711526 1.372162 0.039106 -0.023720 -512464.000000 0 0 1
-19.252484 18.012628 5.380683 26.908449 -0.752139 1.369477 0.032530 -0.019036 -784274.000000 0 0 1
-18.890184 19.120428 4.367583 27.230600 -0.791455 1.409708 0.042884 -0.013686 188795.000000 0 0 1
-17.466284 19.200428 4.308083 26.311349 -0.832658 1.406321 0.026801 -0.017075 994385.000000 0 0 1
-16.877284 20.271328 3.493283 26.607752 -0.876509 1.439128 0.029480 -0.012468 298774.000000 0 0 1
-17.015984 21.707628 4.063483 27.879683 -0.905968 1.424525 0.026462 -0.007738 -551933.000000 0 0 1
-16.385884 22.015228 5.272183 27.945722 -0.930955 1.381001 0.027150 -0.011398 -57336.300000 0 0 1
-16.423584 23.415928 5.577783 29.140203 -0.959141 1.378196 0.010833 -0.010123 -218265.000000 0 0 1
-15.767084 23.678028 6.967983 29.288269 -0.983328 1.330582 0.008253 0.006050 -196922.000000 0 0 1
-16.459784 23.190728 8.114783 29.573367 -0.953552 1.292836 0.006106 -0.004246 -187957.000000 0 0 1
-15.741784 23.320528 9.299083 29.633152 -0.977034 1.251597 0.010265 -0.005798 -330014.000000 0 0 1
-16.441084 22.768028 10.572783 30.007933 -0.945383 1.210734 0.003192 -0.004852 280509.000000 0 0 1
-17.641684 23.484128 10.792083 31.292209 -0.926517 1.218685 0.001789 -0.004151 311991.000000 0 0 1
-18.590084 22.790028 11.606783 31.617938 -0.886548 1.194912 0.007477 -0.000511 -2077.130000 0 0 1
-19.659484 23.661228 12.235283 33.106663 -0.877512 1.192248 0.008620 -0.008690 -434923.000000 0 0 1
-20.551884 24.358328 11.373683 33.838864 -0.869953 1.228010 0.012633 0.002882 304987.000000 0 0 1
-20.046684 25.527628 10.758683 34.194716 -0.905087 1.250730 0.001325 -0.001229 -316502.000000 0 0 1
-21.192684 26.374228 10.177383 35.331415 -0.893902 1.278601 0.007972 -0.004427 -30951.500000 0 0 1
-21.962884 26.986528 11.164983 36.541727 -0.887669 1.260290 0.017496 -0.015726 -221395.000000 0 0 1
-22.985484 27.803028 10.666983 37.618152 -0.879970 1.283292 0.016730 -0.011900 -430048.000000 0 0 1
-23.682284 28.439428 11.854283 38.860979 -0.876416 1.260812 0.010379 -0.013490 -39572.200000 0 0 1
-22.796684 29.373128 12.512383 39.230462 -0.910795 1.246180 0.015929 -0.014819 679534.000000 0 0 1
-23.386384 30.072628 13.565883 40.439079 -0.909824 1.228698 0.016773 -0.009981 -471971.000000 0 0 1
8.159316 -32.862597 28.324403 44.145175 -1.327432 0.874189 0.013670 -0.020916 708587.000000 0 0 1
9.518216 -32.596097 27.933993 43.970557 -1.286691 0.882414 0.014502 -0.026306 1018490.000000 0 0 1
9.642716 -32.718897 26.518683 43.205888 -1.284196 0.909963 0.014521 -0.020246 -830072.000000 0 0 1
11.047516 -32.783797 25.940513 43.240434 -1.245766 0.927404 0.010227 -0.010581 -507778.000000 0 0 1
11.674116 -34.027797 26.248613 44.532748 -1.240303 0.940452 0.019369 -0.022866 -2258.610000 0 0 1
13.052116 -33.945797 25.973453 44.691108 -1.203724 0.950622 0.026414 -0.016910 78126.200000 0 0 1
13.839216 33.812928 25.931043 44.802421 1.182309 0.953556 0.032384 -0.012602 -221944.000000 0 0 1
13.943816 33.254228 24.623513 43.664529 1.173755 0.971666 0.035329 -0.010513 361532.000000 0 0 1
14.895216 32.195328 24.673833 43.211163 1.137471 0.963066 0.040628 -0.015849 -110772.000000 0 0 1
15.293416 31.699728 23.243183 42.178275 1.121290 0.987150 0.048006 -0.019519 196660.000000 0 0 1
14.321216 30.910628 22.526483 40.841236 1.136929 0.986560 0.036833 -0.019433 235577.000000 0 0 1
14.699916 29.578628 22.302883 39.854753 1.109570 0.976888 0.039205 -0.016912 104634.000000 0 0 1
14.322116 28.682328 23.539383 39.773125 1.107680 0.937455 0.036386 -0.018227 -237016.000000 0 0 1
15.059216 28.989228 24.693323 40.950159 1.091689 0.923528 0.044446 -0.020270 7324.410000 0 0 1
14.658616 28.317728 25.873313 41.063330 1.093130 0.889136 0.026809 -0.015334 191373.000000 0 0 1
15.553116 28.719328 27.116253 42.449857 1.074459 0.877881 0.030534 -0.021089 489744.000000 0 0 1
15.331716 30.067028 27.579893 43.585986 1.099246 0.885671 0.023644 -0.018327 -126195.000000 0 0 1
16.170616 30.414128 28.631843 44.791633 1.082126 0.877309 0.035758 -0.020751 -255957.000000 0 0 1
15.906116 31.797528 29.121473 45.958106 1.106964 0.884531 0.034621 -0.021394 -85166.000000 0 0 1
16.640016 32.766628 28.414933 46.453745 1.100901 0.912611 0.033378 -0.010094 -35422.400000 0 0 1
16.508016 34.079228 28.931683 47.654492 1.119706 0.918373 0.034318 0.001159 -211449.000000 0 0 1
17.087616 -33.876397 28.107923 47.219193 -1.103626 0.933201 0.023945 0.001000 -358150.000000 0 0 1
16.407916 -33.713397 26.886313 46.137692 -1.117855 0.948699 0.038456 -0.003667 -175834.000000 0 0 1
16.493616 -32.432697 26.203063 44.838819 -1.100333 0.946676 0.021576 -0.005460 -1202050.000000 0 0 1
17.860816 -31.880097 25.855893 44.764679 -1.060118 0.955016 0.030828 0.013425 -604871.000000 0 0 1
18.509916 -31.268397 26.953993 45.242097 -1.036303 0.932569 0.001768 0.010892 389041.000000 0 0 1
19.484516 -30.276897 26.596803 44.763007 -0.998973 0.934564 0.008699 0.011128 364584.000000 0 0 1
19.957316 -29.415897 27.799013 45.126207 -0.974678 0.907106 0.000997 0.017123 287166.000000 0 0 1
18.845516 -28.642997 28.259883 44.431922 -0.988856 0.881458 0.006203 0.013169 559683.000000 0 0 1
19.141416 -27.756297 29.325843 44.685690 -0.967068 0.854933 0.021374 0.017873 -240378.000000 0 0 1
17.923716 -26.971897 29.857693 44.047981 -0.984272 0.825969 0.027650 0.008157 -139953.000000 0 0 1
17.446416 -25.949897 29.082533 42.703259 -0.978896 0.821617 0.033842 0.008297 -379573.000000 0 0 1
16.271216 -25.431997 29.658583 42.322222 -1.001630 0.794305 0.021096 0.005788 -106876.000000 0 0 1
15.335316 -24.755997 28.610663 40.824029 -1.016192 0.794237 0.022292 0.000818 -242787.000000 0 0 1
14.749916 -25.708197 27.706603 40.572494 -1.049907 0.819083 0.018590 0.002124 250269.000000 0 0 1
14.129416 -25.101097 26.588053 39.199873 -1.058103 0.825392 0.029799 -0.003309 -859589.000000 0 0 1
12.626316 -24.913097 26.781483 38.695401 -1.101712 0.806388 0.010877 0.003756 -772414.000000 0 0 1
11.807116 -25.929797 27.291633 39.453714 -1.143503 0.806903 -0.003522 0.008957 174101.000000 0 0 1
11.690016 -27.032097 26.439393 39.578179 -1.162633 0.839239 0.006364 0.003780 -771531.000000 0 0 1
10.771516 -28.184197 26.880603 40.409669 -1.205743 0.843032 0.005935 0.002744 1106600.000000 0 0 1
9.334116 -28.023297 26.821753 39.897836 -1.249270 0.833538 -0.004017 0.001063 1246020.000000 0 0 1
8.679316 -29.243697 27.079343 40.789890 -1.282285 0.844809 -0.003334 -0.006384 -54945.300000 0 0 1
7.134916 -29.155197 27.088523 40.431678 -1.330791 0.836611 -0.005026 0.009883 197421.000000 0 0 1
6.392716 -29.057997 25.871023 39.427704 -1.354247 0.855073 -0.005587 0.006888 211653.000000 0 0 1
6.672616 -27.940297 24.992183 38.076150 -1.336370 0.854794 0.011471 0.010958 -534727.000000 0 0 1
5.448416 -27.517897 24.139963 37.008887 -1.375329 0.860215 0.014546 0.013593 -451187.000000 0 0 1
5.058216 -28.470497 23.123883 37.025244 -1.394966 0.896249 0.010209 0.010848 687617.000000 0 0 1
4.033716 -29.410197 23.502783 37.863060 -1.434493 0.901121 0.020999 0.015342 -396763.000000 0 0 1
2.648616 -28.879297 23.822683 37.530643 -1.479339 0.883108 0.011084 0.002794 -1462020.000000 0 0 1
1.971016 -28.362697 22.654483 36.353171 -1.501415 0.897997 0.015184 -0.000311 274231.000000 0 0 1
0.765016 -27.682297 22.923983 35.950018 -1.543168 0.879336 0.016640 -0.001225 57470.700000 0 0 1
0.832316 -26.393397 23.832783 35.571136 -1.539272 0.836583 0.027846 0.000072 -625761.000000 0 0 1
0.970516 -26.594297 25.213193 36.659291 -1.534319 0.812382 0.023515 0.000239 103234.000000 0 0 1
0.986616 -25.399397 26.011563 36.369000 -1.531972 0.773868 0.023510 0.005229 163624.000000 0 0 1
2.446316 -24.970297 26.344773 36.380589 -1.473139 0.761004 0.019111 0.013503 -69646.900000 0 0 1
3.163916 -24.562297 25.237843 35.359094 -1.442690 0.775947 0.023713 0.013863 1225190.000000 0 0 1
4.437416 -23.881297 25.498343 35.216083 -1.387080 0.761135 0.023134 0.011334 1585540.000000 0 0 1
4.186716 -22.363097 25.828303 34.420022 -1.385723 0.722150 0.016191 0.018572 -238339.000000 0 0 1
3.962816 -21.486397 24.708323 32.982880 -1.388412 0.724055 0.021003 0.009951 148365.000000 0 0 1
3.573016 -20.209697 25.093603 32.417390 -1.395807 0.685538 0.016653 0.010255 -118861.000000 0 0 1
3.532216 -19.228797 23.969913 30.931859 -1.389128 0.684198 0.017516 0.007559 1086870.000000 0 0 1
4.831816 -18.658697 23.676383 30.529732 -1.317405 0.683260 0.024331 0.007151 944490.000000 0 0 1
4.772416 -17.929297 22.447883 29.122896 -1.310649 0.690703 0.033037 0.002528 231512.000000 0 0 1
6.146516 -17.321997 22.069083 28.720648 -1.229817 0.694452 0.030653 0.003090 -9937.670000 0 0 1
7.087216 -18.272297 21.619083 29.180305 -1.200793 0.736418 0.026435 0.001526 410258.000000 0 0 1
8.327716 -17.620697 21.260883 28.842069 -1.129300 0.741956 0.023126 0.003076 908494.000000 0 0 1
9.434516 -17.754597 22.324283 30.043459 -1.082358 0.733156 0.020732 0.005260 -356536.000000 0 0 1
9.169216 -16.943497 23.428483 30.332333 -1.074762 0.688196 0.005080 0.015224 303235.000000 0 0 1
10.226016 -17.108797 24.363793 31.478195 -1.032066 0.685679 0.015063 0.012353 111305.000000 0 0 1
10.206216 -16.180897 25.609583 31.966217 -1.008068 0.641590 0.022547 0.002816 -210502.000000 0 0 1
10.582716 -14.835797 25.460833 31.310521 -0.951185 0.621215 0.022291 0.010793 147313.000000 0 0 1
10.459016 -14.110997 26.643413 31.912109 -0.932954 0.582846 0.011582 0.008038 -59882.300000 0 0 1
11.001216 -12.686097 26.482603 31.357488 -0.856409 0.565094 0.009585 0.004058 329660.000000 0 0 1
10.003716 -11.800297 25.940523 30.203180 -0.867609 0.537742 0.013586 0.002844 373286.000000 0 0 1
10.336916 -10.449497 25.938233 29.813348 -0.790814 0.515552 0.013683 0.001902 -200804.000000 0 0 1
9.436816 -9.615797 24.983823 28.385004 -0.794792 0.494562 0.015100 0.002216 -632033.000000 0 0 1
8.141616 -9.556697 25.480163 28.405194 -0.865184 0.457805 0.002080 0.008384 -1141200.000000 0 0 1
7.236416 -9.009197 24.563093 27.145476 -0.894092 0.439725 0.002114 0.008308 -284327.000000 0 0 1
5.778816 -9.123997 25.017783 27.249431 -1.006205 0.407529 0.001279 0.000648 -980779.000000 0 0 1
5.373516 -8.328397 26.128913 27.945607 -0.997800 0.362560 0.000287 0.007854 685295.000000 0 0 1
3.990716 -8.395397 26.478283 28.062572 -1.127066 0.337624 -0.000063 0.012986 1258000.000000 0 0 1
2.820616 -8.198897 25.480823 26.915611 -1.239455 0.327986 0.006780 0.010312 -257983.000000 0 0 1
2.746916 -6.844997 24.983823 26.049778 -1.189167 0.287061 0.002884 0.009793 -77670.500000 0 0 1
1.718916 -6.815297 24.018093 25.025422 -1.323735 0.284694 0.017533 -0.004904 48167.900000 0 0 1
1.901816 -5.554597 23.148483 23.881430 -1.240921 0.248392 0.015171 -0.012088 -107900.000000 0 1 0
1.695216 -4.330297 23.879583 24.328167 -1.197658 0.192332 0.015197 -0.000046 -222716.000000 0 1 0
2.043416 -3.198197 23.169683 23.478463 -1.002244 0.162361 0.014543 -0.011232 -1029970.000000 0 1 0
0.975716 -2.437197 22.331983 22.485760 -1.189994 0.117019 0.010512 -0.009844 648025.000000 0 1 0
-0.095584 -1.762197 23.015783 23.083343 1.516608 0.076528 0.012251 -0.003655 997353.000000 0 1 0
-0.977884 -2.645197 23.759783 23.926567 1.216695 0.118142 0.019108 -0.000249 -425488.000000 0 1 0
-2.092484 -1.846197 24.456033 24.614721 0.722949 0.113612 0.011978 -0.001993 -63763.800000 0 1 0
-1.571584 -0.944197 25.422293 25.488318 0.541002 0.071993 0.017997 -0.002659 508168.000000 0 0 1
-2.543784 0.058803 25.707303 25.832919 -0.023112 0.098657 0.010658 -0.005158 -46976.900000 0 0 1
-2.019484 1.098803 26.700893 26.799690 -0.498303 0.085892 0.041193 -0.011413 -183624.000000 0 0 1
-2.077484 0.730803 28.096093 28.182272 -0.338254 0.078224 0.050470 -0.009021 78831.000000 0 0 1
-1.318884 -0.383197 28.516683 28.549737 0.282761 0.048125 0.043829 -0.010772 -844955.000000 0 0 1
0.070216 -0.151197 29.144613 29.145090 -1.136031 0.005720 0.053952 -0.013991 960497.000000 0 0 1
1.190916 0.323803 28.362873 28.389711 0.265477 0.043485 0.038230 -0.008292 844473.000000 0 0 1
1.610716 -0.617197 27.355163 27.409492 -0.365924 0.062973 0.025336 -0.001973 -296448.000000 0 0 1
2.899916 -1.409197 27.700743 27.887748 -0.452340 0.115872 0.016950 -0.002125 -177099.000000 0 0 1
2.677416 -2.392197 28.658913 28.882944 -0.729197 0.124632 0.020836 -0.003002 -106908.000000 0 0 1
3.779016 -3.216197 28.997183 29.418727 -0.705113 0.169490 0.012204 0.011785 41583.100000 0 0 1
4.264416 -4.230497 27.958203 28.596214 -0.781405 0.211634 0.011351 0.009662 -461195.000000 0 0 1
5.014216 -3.729197 26.919373 27.635157 -0.639473 0.228096 0.004270 0.006002 -467874.000000 0 0 1
5.332516 -4.647497 25.878103 26.827433 -0.716867 0.266823 0.008012 0.004578 -219918.000000 0 0 1
6.400016 -4.016197 24.944003 26.063256 -0.560416 0.294125 0.011041 0.000951 1996740.000000 0 0 1
7.775316 -3.859197 25.460723 26.899765 -0.460715 0.328574 0.013738 0.004840 1777390.000000 0 0 1
8.576816 -5.007997 25.547583 27.410232 -0.528497 0.370779 0.015561 -0.000469 -174867.000000 0 0 1
9.361316 -5.308197 24.262373 26.541928 -0.515828 0.417477 0.024372 -0.012242 -621401.000000 0 0 1
8.547416 -5.929597 23.315583 25.531056 -0.606505 0.419668 0.020010 -0.016341 -7034.020000 0 0 1
9.170616 -6.032197 22.024583 24.608329 -0.581821 0.462353 0.024937 -0.017269 75807.900000 0 1 0
9.268316 -4.687797 21.290283 23.688674 -0.468267 0.453878 0.027313 -0.020047 128756.000000 0 1 0
8.015716 -4.138897 20.939883 22.800458 -0.476640 0.406785 0.021653 -0.024593 -576569.000000 0 1 0
8.131116 -2.883197 20.318883 22.074530 -0.340756 0.401522 0.016859 -0.015507 -33407.700000 0 1 0
6.842616 -2.040197 20.221683 21.445285 -0.289768 0.339435 0.023622 -0.005497 -60505.400000 0 1 0
6.429616 -1.480197 21.444183 22.436219 -0.226273 0.298481 0.027865 0.000641 470206.000000 0 1 0
5.173416 -0.812197 21.228183 21.864575 -0.155723 0.241861 0.016632 0.002265 604379.000000 0 1 0
4.417316 -0.384197 22.506683 22.939291 -0.086757 0.194517 0.010431 -0.001380 -147973.000000 0 1 0
3.185016 0.264803 22.292883 22.520814 0.082950 0.142394 0.010714 0.000360 -272117.000000 0 1 0
2.685116 0.668803 23.534183 23.696306 0.244111 0.117043 0.024124 -0.002759 1708980.000000 0 1 0
1.148116 1.154803 23.558483 23.614696 0.788302 0.069013 0.021204 -0.005181 1782190.000000 0 1 0
0.932916 2.513803 23.291083 23.444916 1.215434 0.114618 0.030106 -0.002660 802293.000000 0 1 0
-0.490284 2.663803 23.236783 23.394108 -1.388779 0.116039 0.011482 0.002161 855563.000000 0 1 0
-1.026484 4.134803 22.941583 23.333806 -1.327461 0.183611 0.012073 0.005770 114010.000000 0 1 0
-0.933884 5.052803 24.009383 24.553074 -1.388034 0.210835 0.015090 0.006401 295588.000000 0 1 0
-1.822084 6.121803 23.675783 24.522218 -1.281507 0.263505 0.012681 0.016582 197963.000000 0 1 0
-1.542384 7.440803 24.463273 25.616327 -1.366404 0.301179 0.021954 0.011402 -98890.600000 0 0 1
-0.540684 8.262803 23.945663 25.336950 -1.505454 0.332931 0.011541 0.008814 -269673.000000 0 0 1
-0.564284 9.516803 24.583803 26.367619 -1.511572 0.369942 0.011726 0.009888 -447484.000000 0 0 1
0.202616 10.613803 23.785983 26.047396 1.551709 0.419775 0.010409 0.006538 1912590.000000 0 0 1
1.661716 10.579803 23.710783 26.017201 1.415004 0.424244 0.011602 0.008483 1901350.000000 0 0 1
2.354816 10.730803 25.016323 27.322367 1.354776 0.413802 0.024683 0.000724 -663809.000000 0 0 1
3.534016 11.747803 24.912973 27.769702 1.278584 0.457572 0.013986 0.001610 -183634.000000 0 0 1
4.749316 11.258803 24.412283 27.299747 1.171613 0.464086 0.015151 0.003227 -301555.000000 0 0 1
4.700516 10.634803 23.161483 25.916176 1.154620 0.465254 0.014483 -0.000654 -1000450.000000 0 0 1
6.091816 10.209803 22.567183 25.507412 1.032834 0.484881 0.016397 -0.003028 630421.000000 0 0 1
6.825216 11.334803 22.129583 25.783324 1.028800 0.538867 0.014905 -0.002293 3236.790000 0 0 1
8.109316 10.899803 21.706683 25.607554 0.931154 0.559224 0.016323 -0.005324 226535.000000 0 0 1
8.877416 12.055803 21.022083 25.808504 0.936082 0.618859 0.021519 -0.023253 -288917.000000 0 0 1
8.340316 12.330803 19.719083 24.707323 0.976099 0.646650 0.018657 -0.017522 350495.000000 0 1 0
9.056716 13.391803 19.050583 24.985780 0.976162 0.703694 0.030672 -0.022394 897602.000000 0 1 0
10.501216 13.021803 18.547683 24.977178 0.892145 0.733874 0.039284 -0.025395 385661.000000 0 1 0
11.494016 12.927803 19.541283 26.097936 0.844040 0.724596 0.039546 -0.026371 -1521580.000000 0 0 1
12.670416 12.756803 18.884483 26.074876 0.788796 0.760864 0.033128 -0.025893 -1356520.000000 0 0 1
13.921716 12.564803 19.754283 27.238211 0.734213 0.759411 0.036785 -0.022542 -109537.000000 0 0 1
14.259616 13.608803 20.619283 28.525270 0.762049 0.762889 0.038979 -0.029058 -52453.000000 0 0 1
15.304516 13.286803 21.515983 29.558499 0.714944 0.755525 0.038906 -0.020166 644813.000000 0 0 1
16.281716 14.475803 21.898583 30.889984 0.726751 0.782828 0.041023 -0.018105 464470.000000 0 0 1
15.765016 15.338803 22.900383 31.752829 0.771696 0.765252 0.044027 -0.017499 735988.000000 0 0 1
16.764516 16.321803 23.236383 32.975442 0.772018 0.788856 0.035693 -0.010212 415414.000000 0 0 1
-20.626684 13.263328 -24.665791 34.781852 -0.571451 2.359098 0.027271 0.000486 81133.800000 0 0 1
-20.366984 13.041528 -26.033021 35.533276 -0.569545 2.392986 0.021965 -0.017532 350412.000000 0 0 1
-21.163984 13.956828 -26.815051 36.901954 -0.582998 2.384239 0.029607 -0.020645 6514.480000 0 0 1
-20.909984 13.952528 -28.298741 37.851277 -0.588418 2.415282 0.018650 -0.012681 -347087.000000 0 0 1
-19.658884 14.424428 -28.730171 37.682338 -0.633011 2.437858 0.018681 -0.019288 -461763.000000 0 0 1
-19.567384 14.620428 -30.134611 38.790904 -0.641696 2.460440 0.017060 -0.021100 -345779.000000 0 0 1
-18.245084 15.130328 -30.710531 38.793642 -0.692343 2.484282 0.002043 -0.016442 17934.800000 0 0 1
-17.373484 14.050328 -31.077111 38.275795 -0.680037 2.518240 0.003135 -0.012026 43874.400000 0 0 1
-16.002084 14.367528 -31.094451 37.806844 -0.731628 2.536511 0.002553 -0.007521 175921.000000 0 0 1
-15.108084 13.975728 -29.931251 36.324303 -0.746484 2.539233 0.020898 -0.000755 -599619.000000 0 0 1
-15.528684 14.584728 -28.729571 35.766501 -0.754062 2.503534 0.020999 -0.004569 95193.300000 0 0 1
-16.252584 13.660528 -27.901031 35.060291 -0.698961 2.491126 0.023258 -0.006145 -224879.000000 0 0 1
-16.959184 14.176628 -26.683321 34.649536 -0.696267 2.449781 0.018831 -0.020052 -119626.000000 0 0 1
-16.132884 14.573628 -25.594741 33.582009 -0.734662 2.437434 0.041260 -0.015724 570520.000000 0 0 1
-17.015884 14.904328 -24.522391 33.362059 -0.719343 2.396519 0.043950 -0.015218 65582.000000 0 0 1
-16.268184 15.203528 -23.238191 32.184074 -0.751582 2.377543 0.038402 -0.014144 -431160.000000 0 0 1
-15.554684 16.386528 -23.408991 32.533788 -0.811435 2.373920 0.013626 -0.019767 -302570.000000 0 0 1
-14.926884 16.786428 -22.202091 31.583680 -0.843967 2.350348 0.015166 -0.014449 -136919.000000 0 0 1
-14.447884 18.283528 -22.300791 32.254519 -0.902052 2.334222 0.015646 -0.012969 442054.000000 0 0 1
-15.430884 19.332728 -22.495991 33.435552 -0.897170 2.308806 -0.005586 -0.014684 506942.000000 0 0 1
-16.119284 19.236128 -23.742691 34.548159 -0.873328 2.328472 -0.020074 -0.011519 -192139.000000 0 0 1
-17.479484 19.942728 -23.799391 35.632229 -0.851126 2.302203 -0.020530 -0.007542 -213494.000000 0 0 1
-17.423584 21.354828 -23.816391 36.425684 -0.886430 2.283438 -0.020692 -0.003329 -707558.000000 0 0 1
-18.672684 21.911628 -24.051891 37.513758 -0.865037 2.266790 0.010898 -0.003681 -637160.000000 0 0 1
-18.572784 23.435728 -24.296191 38.529035 -0.900646 2.253115 0.009584 -0.006888 124972.000000 0 0 1
-18.141684 24.199328 -23.180391 38.105888 -0.927502 2.224732 0.009007 -0.007170 243348.000000 0 0 1
-17.336584 25.340328 -23.525991 38.680248 -0.970787 2.224609 -0.006502 0.000889 -364022.000000 0 0 1
-16.239984 25.710628 -22.514891 37.837730 -1.007433 2.208109 -0.000154 -0.008636 -456505.000000 0 0 1
-15.149084 24.810828 -22.497091 36.758550 -1.022631 2.229413 0.000078 -0.016335 -169689.000000 0 0 1
-15.392784 23.472128 -22.014691 35.672471 -0.990362 2.235891 -0.001924 -0.005191 -585617.000000 0 0 1
-14.142784 22.549628 -21.860191 34.443751 -1.010627 2.258369 0.018872 -0.008586 291864.000000 0 0 1
-13.266984 22.880728 -20.820191 33.660376 -1.045338 2.237676 0.031203 -0.015936 127610.000000 0 0 1
-12.313784 21.825328 -20.595291 32.436711 -1.057119 2.258724 0.027179 -0.013644 218977.000000 0 0 1
-11.599184 22.013828 -19.227691 31.446046 -1.085858 2.228688 0.030662 -0.015363 -224740.000000 0 0 1
-12.384884 22.009628 -18.059391 31.047555 -1.058253 2.191575 0.035514 -0.009414 -253179.000000 0 0 1
-13.119484 23.186028 -17.856991 32.071559 -1.055876 2.161308 0.041344 -0.015823 -424944.000000 0 0 1
-13.934584 23.163328 -16.601191 31.722420 -1.029216 2.121547 0.045689 -0.011202 12947.300000 0 0 1
-13.142984 23.383228 -15.433491 30.946826 -1.058734 2.092906 0.067049 -0.020243 -258551.000000 0 0 1
-13.996184 23.602728 -14.370591 30.975729 -1.035547 2.053223 0.066100 -0.016294 -61540.500000 0 0 1
-13.256784 23.854828 -13.030391 30.242127 -1.063566 2.016252 0.063267 -0.013258 222522.000000 0 0 1
-12.618684 25.143128 -12.860091 30.932022 -1.105651 1.999567 0.052659 -0.015509 472568.000000 0 0 1
-11.799284 25.160528 -11.709791 30.156168 -1.132288 1.969588 0.023832 -0.011892 -30984.600000 0 0 1
-11.182884 26.527528 -11.272091 30.916446 -1.171845 1.943998 0.026653 -0.014441 -271776.000000 0 0 1
-10.339884 26.918028 -12.290491 31.345647 -1.204050 1.973705 0.035916 -0.024536 -436837.000000 0 0 1
-10.038484 28.268528 -12.086291 32.341293 -1.229575 1.953803 0.015190 -0.017416 -523262.000000 0 0 1
-9.693884 29.045228 -13.382991 33.417078 -1.248670 1.982841 0.047744 -0.023301 -15034.500000 0 0 1
-8.363584 29.109028 -13.825291 33.292998 -1.291013 1.999026 0.031688 -0.016829 -191492.000000 0 0 1
-7.703284 27.911528 -14.246491 32.270055 -1.301511 2.028041 0.040645 -0.021863 425456.000000 0 0 1
-6.416584 28.192528 -15.093991 32.616250 -1.347010 2.051920 0.037468 -0.020140 386402.000000 0 0 1
-5.533284 28.927028 -14.344291 32.758951 -1.381795 2.024029 0.024796 -0.016479 -577477.000000 0 0 1
-4.234384 29.069528 -14.915491 32.946006 -1.426150 2.040616 0.030053 -0.015722 1134750.000000 0 0 1
-3.206284 29.867728 -14.017991 33.149140 -1.463856 2.007414 0.010672 -0.004482 311556.000000 0 0 1
-3.215384 31.262628 -14.039491 34.420893 -1.468306 1.990924 0.005412 -0.000217 -188479.000000 0 0 1
-4.398284 31.911028 -13.619691 34.973627 -1.433830 1.970806 -0.011623 0.000176 5913.500000 0 0 1
-4.386484 33.405728 -14.072391 36.513232 -1.440234 1.966443 -0.011721 0.000600 -115466.000000 0 0 1
-3.570784 34.195928 -13.271091 36.854224 -1.466752 1.939168 -0.014543 -0.000809 -286194.000000 0 0 1
-3.806984 -33.589697 -13.676191 36.466410 1.457940 1.955231 -0.008456 -0.007796 811108.000000 0 0 1
-2.900384 -32.653997 -12.779291 35.185310 1.482207 1.942496 -0.007159 -0.002062 650968.000000 0 0 1
-3.307984 -32.627497 -11.397591 34.718891 1.469755 1.905281 0.001687 -0.008381 332107.000000 0 0 1
-2.300384 -32.009997 -10.610591 33.801129 1.499055 1.890107 -0.002565 -0.005501 374615.000000 0 0 1
-2.776784 -32.140697 -9.132791 33.528239 1.484616 1.846673 -0.003139 -0.010543 -382844.000000 0 0 1
-2.013284 -31.352697 -8.298991 32.494894 1.506670 1.829051 -0.003521 0.000454 -583347.000000 0 0 1
-2.301584 -31.535697 -6.927591 32.369569 1.497942 1.786480 -0.007780 -0.009498 -177062.000000 0 0 1
-1.142284 -31.037897 -6.048291 31.642340 1.534010 1.763125 0.002438 -0.002595 -1565.760000 0 0 1
-1.297384 -31.163997 -4.648391 31.535463 1.529189 1.718737 0.008152 -0.005107 -189854.000000 0 0 1
-0.179684 -30.644897 -3.947791 30.898657 1.564933 1.698912 0.008920 0.002821 -976.381000 0 0 1
-0.095984 -30.756897 -2.397391 30.850339 1.567676 1.648585 0.010389 0.007494 -438965.000000 0 0 1
0.034616 -32.091397 -1.745991 32.138877 -1.569718 1.625150 0.017545 0.001269 75916.200000 0 0 1
1.122016 -32.892497 -2.152791 32.981961 -1.536698 1.636115 0.025571 -0.001249 -613141.000000 0 0 1
2.521116 -32.463297 -1.761691 32.608668 -1.493291 1.624848 0.020775 -0.002559 -1692690.000000 0 0 1
2.752516 -32.677997 -0.393991 32.796083 -1.486763 1.582810 0.021202 -0.002294 -338724.000000 0 0 1
3.973316 -32.204097 0.085609 32.448396 -1.448038 1.568158 0.019718 -0.000963 -464314.000000 0 0 1
4.145316 -30.675797 0.194309 30.955224 -1.436477 1.564519 0.011194 -0.000802 -759797.000000 0 0 1
3.982316 -29.972897 -1.011391 30.253203 -1.438706 1.604233 0.025305 -0.005830 194493.000000 0 0 1
3.844216 -28.578597 -0.721991 28.845025 -1.437085 1.595829 0.027474 -0.002309 -781304.000000 0 0 1
3.466916 -27.784897 -1.978291 28.070155 -1.446661 1.641331 0.026211 -0.003912 226597.000000 0 0 1
2.186816 -28.055297 -2.548391 28.255550 -1.493007 1.661110 0.019069 0.000920 408286.000000 0 0 1
1.710516 -27.082497 -3.426491 27.351935 -1.507721 1.696401 0.016503 -0.003241 162308.000000 0 0 1
2.404316 -27.072697 -4.825891 27.604363 -1.482219 1.746523 0.004646 0.003406 -63198.600000 0 0 1
2.001916 -28.156197 -5.620391 28.781381 -1.499815 1.767338 -0.000313 0.006356 10152.300000 0 0 1
2.461216 -28.005497 -6.963091 28.962908 -1.483138 1.813589 0.004192 0.005025 -187964.000000 0 0 1
1.907316 -29.054997 -7.940991 30.180955 -1.505245 1.837043 -0.009701 0.007717 -422503.000000 0 0 1
0.567916 -28.827397 -8.250991 29.990335 -1.551098 1.849513 -0.000607 0.008913 -806946.000000 0 0 1
0.326416 -28.738697 -9.605791 30.303308 -1.559439 1.893349 -0.010379 0.011719 1162080.000000 0 0 1
-1.052084 -28.018597 -9.929791 29.744737 1.533264 1.911164 0.002329 -0.001137 514812.000000 0 0 1
-1.046584 -26.675397 -9.499591 28.335743 1.531582 1.912668 0.000340 0.003234 512167.000000 0 0 1
-2.330284 -26.041797 -9.631491 27.863435 1.481552 1.923747 0.011460 -0.006342 2116120.000000 0 0 1
-3.532684 -26.544397 -8.698791 28.155884 1.438488 1.884886 0.017363 -0.010219 408798.000000 0 0 1
-3.299784 -26.440797 -7.294791 27.626405 1.446639 1.838017 0.023946 -0.008248 -161705.000000 0 0 1
-2.500384 -27.478597 -6.730191 28.401068 1.480052 1.810042 0.017086 -0.001724 238176.000000 0 0 1
-2.030584 -27.304297 -5.316491 27.891091 1.496564 1.762586 0.018455 0.004692 -494417.000000 0 0 1
-3.002284 -27.532997 -4.361591 28.037530 1.462182 1.726993 0.019540 -0.002525 -808303.000000 0 0 1
-2.636684 -27.161197 -3.057991 27.459680 1.474024 1.682391 0.017312 0.004466 -121484.000000 0 0 1
-3.764084 -27.175597 -2.006691 27.508330 1.433162 1.643810 0.022498 0.000995 -532870.000000 0 0 1
-4.676784 -26.153697 -2.125591 26.653448 1.393847 1.650630 0.020885 0.001387 -562203.000000 0 0 1
-5.630184 -26.117897 -1.073691 26.739415 1.358477 1.610961 0.031114 -0.000387 798311.000000 0 0 1
-6.688384 -24.934797 -1.231591 25.845607 1.308730 1.618466 0.019439 -0.009137 545568.000000 0 0 1
-6.177284 -23.654497 -0.997491 24.468123 1.315355 1.611575 0.020197 -0.007896 -179939.000000 0 1 0
-6.832684 -23.017497 0.102909 24.010442 1.282234 1.566510 0.025043 -0.005969 161652.000000 0 1 0
-6.191684 -21.633297 0.425709 22.505948 1.292038 1.551880 0.014585 -0.008201 351238.000000 0 1 0
-4.983884 -21.800897 1.149809 22.392862 1.346049 1.519427 0.016016 -0.011379 -220511.000000 0 1 0
-4.432384 -20.530397 1.334509 21.045763 1.358166 1.507344 0.004953 -0.007317 -172185.000000 0 1 0
-3.382884 -20.482197 2.455209 20.904362 1.407112 1.453075 0.010397 -0.004927 296972.000000 0 1 0
-4.020684 -20.447797 3.763609 21.176474 1.376642 1.392121 0.003241 0.000275 607038.000000 0 1 0
-3.117084 -20.025197 4.804509 20.828059 1.416377 1.338025 0.011985 -0.014094 188008.000000 0 1 0
-2.339384 -21.171197 5.436609 21.982925 1.460744 1.320893 0.006709 -0.015849 -25931.500000 0 1 0
-1.408584 -21.769297 4.567809 22.287918 1.506181 1.364388 0.015868 -0.014442 -490075.000000 0 1 0
-0.811584 -22.894397 5.071209 23.463359 1.535362 1.352944 0.013143 -0.014692 -488300.000000 0 1 0
0.129216 -23.575797 3.989409 23.911300 -1.565316 1.403170 0.022015 -0.012711 798993.000000 0 1 0
1.219916 -22.640297 3.799309 22.989258 -1.516966 1.404770 0.011190 -0.020124 457578.000000 0 1 0
2.344816 -23.257997 4.426409 23.791294 -1.470318 1.383654 0.016889 -0.013233 -229531.000000 0 1 0
3.629216 -22.414797 4.637209 23.175375 -1.410278 1.369344 0.026844 -0.010021 261387.000000 0 1 0
4.213016 -22.105097 3.409309 22.759793 -1.382465 1.420435 0.022584 -0.005235 -1441290.000000 0 1 0
5.308816 -21.328997 3.634509 22.278224 -1.326852 1.406922 0.028690 -0.002588 -663418.000000 0 1 0
6.023416 -20.774897 2.368909 21.759816 -1.288597 1.461714 0.028876 -0.000141 156668.000000 0 1 0
6.966616 -21.652497 1.811209 22.817643 -1.259510 1.491335 0.033723 0.000264 -349495.000000 0 1 0
6.807216 -21.740197 0.428309 22.785034 -1.267350 1.551997 0.031945 -0.006327 -696555.000000 0 1 0
7.772516 -22.620297 -0.297691 23.920252 -1.239827 1.583242 0.024558 -0.000582 -821941.000000 0 1 0
8.950116 -21.946497 -0.637091 23.709896 -1.183571 1.597670 0.022990 0.000518 -1163230.000000 0 1 0
9.686716 -22.731597 -1.528191 24.756682 -1.167965 1.632564 0.024282 0.001793 96003.200000 0 1 0
10.963416 -21.942697 -1.932391 24.605133 -1.107438 1.649413 0.022212 0.001726 181167.000000 0 1 0
10.754316 -20.883097 -2.918391 23.670151 -1.095239 1.694405 0.024391 0.009154 -25784.200000 0 1 0
11.910416 -20.901997 -3.730391 24.344759 -1.052862 1.724634 0.019120 0.014989 97020.600000 0 1 0
12.176916 -19.659497 -4.576291 23.573619 -1.016241 1.766164 0.013010 -0.005632 -464143.000000 0 1 0
12.473716 -18.519097 -3.840391 22.656106 -0.978037 1.741127 0.029559 -0.002226 29137.200000 0 1 0
12.762416 -17.423397 -4.633391 22.088964 -0.938598 1.782126 0.030482 -0.011757 -883157.000000 0 1 0
13.303716 -16.297597 -3.751491 21.369937 -0.886196 1.747261 0.061360 -0.009790 -88933.900000 0 1 0
14.644816 -16.274997 -3.350291 22.148828 -0.838072 1.722642 0.043163 -0.006155 -78533.600000 0 1 0
15.558416 -16.043797 -4.421791 22.782009 -0.800756 1.766127 0.036537 -0.012485 -101179.000000 0 1 0
17.021616 -15.792397 -3.962191 23.554918 -0.747955 1.739811 0.025666 -0.007643 226149.000000 0 1 0
17.671816 -16.823197 -3.272991 24.617585 -0.760802 1.704145 0.032921 -0.009211 654958.000000 0 1 0
19.073416 -16.583697 -3.192791 25.475637 -0.715687 1.696454 0.012250 -0.003388 134643.000000 0 0 1
19.799416 -17.528797 -2.258891 26.540124 -0.724645 1.656012 0.026145 -0.012919 -395382.000000 0 0 1
21.197816 -17.557897 -2.335791 27.623958 -0.691753 1.655454 0.010995 -0.009467 -175081.000000 0 0 1
21.775016 -18.155497 -1.186991 28.375735 -0.695000 1.612640 0.008453 -0.008823 1489870.000000 0 0 1
23.365916 -18.231697 -1.249791 29.663492 -0.662593 1.612941 0.022184 -0.016271 1601810.000000 0 0 1
23.993316 -16.999697 -0.924891 29.419795 -0.616420 1.602239 0.017898 -0.009878 95912.300000 0 0 1
25.359916 -17.074297 -0.588291 30.577819 -0.592566 1.590037 0.027280 -0.010400 -188526.000000 0 0 1
25.837416 -15.716697 -0.026191 30.242144 -0.546494 1.571662 0.028167 -0.011990 -378638.000000 0 0 1
25.067916 -15.158397 0.974409 29.310866 -0.543863 1.537546 0.017894 -0.010203 36181.900000 0 0 1
25.688816 -13.980397 1.430109 29.281598 -0.498396 1.521937 0.018080 -0.013203 171802.000000 0 0 1
24.816916 -13.329897 2.540209 28.284592 -0.492908 1.480866 0.018957 -0.023229 -13967.700000 0 0 1
24.636816 -14.062597 3.773209 28.617590 -0.518669 1.438562 0.036297 -0.014999 630973.000000 0 0 1
25.813316 -14.480097 4.478809 29.934265 -0.511215 1.420611 0.048163 -0.006684 483358.000000 0 0 1
25.377316 -14.874297 5.890309 29.999143 -0.530155 1.373163 0.051538 0.002641 661544.000000 0 0 1
24.471316 -15.976997 5.734809 29.782508 -0.578402 1.377030 0.045130 0.000478 111498.000000 0 0 1
23.776916 -16.344697 6.876409 29.661015 -0.602232 1.336834 0.025797 0.004582 -116988.000000 0 0 1
22.874516 -17.594297 6.712409 29.628689 -0.655655 1.342261 0.027340 -0.000295 623133.000000 0 0 1
23.594116 -18.832497 6.685609 30.919939 -0.673634 1.352852 0.039558 0.004169 347725.000000 0 0 1
22.582116 -19.816597 6.678409 30.777437 -0.720264 1.352066 0.027161 0.018621 594653.000000 0 0 1
1.533116 23.528228 -2.941291 23.760874 1.505728 1.694902 0.006738 -0.006989 -265416.000000 0 1 0
2.495516 24.439428 -2.522491 24.695671 1.469039 1.673118 0.016191 -0.010898 -466864.000000 0 1 0
3.125616 24.943428 -3.685991 25.407294 1.446138 1.716386 0.028620 -0.014074 -331229.000000 0 0 1
4.154416 26.039628 -3.362491 26.582470 1.412588 1.697629 0.019597 -0.008034 -131857.000000 0 0 1
5.307416 25.468128 -2.767491 26.162056 1.365342 1.676777 0.009575 -0.010174 -339880.000000 0 0 1
5.845816 26.456528 -1.929791 27.163312 1.353331 1.641900 0.010604 -0.011924 -630496.000000 0 0 1
7.032116 25.939228 -1.141791 26.899775 1.306060 1.613255 0.006524 -0.023146 -795573.000000 0 0 1
8.133716 25.573028 -1.900891 26.902611 1.262856 1.641513 0.012364 -0.026468 -673413.000000 0 0 1
8.916116 24.573628 -1.261591 26.171586 1.222735 1.619020 0.011145 -0.019803 302001.000000 0 0 1
10.212216 24.311128 -2.070791 26.450113 1.173114 1.649167 0.029771 -0.020142 -633685.000000 0 0 1
11.227016 25.338028 -2.025891 27.787871 1.153704 1.643767 0.045436 -0.018568 1230820.000000 0 0 1
12.254316 25.232928 -3.045691 28.216044 1.118696 1.678949 0.055941 -0.020882 1105000.000000 0 0 1
13.148816 23.943528 -3.007791 27.481461 1.068599 1.680464 0.065027 -0.021367 -629720.000000 0 0 1
12.420716 22.808828 -3.460291 26.200962 1.072141 1.703251 0.048399 -0.026407 2073.200000 0 0 1
12.225816 22.612228 -4.855091 26.160186 1.075142 1.757469 0.051487 -0.023886 -216957.000000 0 0 1
11.324816 21.397728 -5.194591 24.760815 1.084021 1.782157 0.043390 -0.016771 -1012610.000000 0 1 0
9.988416 21.656528 -5.039791 24.375667 1.138651 1.779053 0.017256 -0.015310 -1468790.000000 0 1 0
9.207816 20.512428 -5.165291 23.069976 1.148866 1.796607 -0.006412 -0.004082 -77500.200000 0 1 0
7.694516 20.782028 -5.046791 22.728140 1.216198 1.794713 -0.014992 -0.001415 -65351.200000 0 1 0
7.227216 21.095128 -3.772191 22.615625 1.240728 1.738375 -0.021126 -0.010083 -1115910.000000 0 1 0
5.933416 21.550228 -3.868191 22.684370 1.302124 1.742156 -0.014125 0.001076 -966535.000000 0 1 0
5.420016 22.277528 -2.614091 23.075924 1.332138 1.684322 -0.006064 -0.004065 -79563.200000 0 1 0
5.142116 21.399828 -1.551291 22.063556 1.334979 1.641164 -0.012337 -0.003856 11360.200000 0 1 0
4.568616 22.081528 -0.414691 22.553006 1.366777 1.589185 -0.004736 -0.000051 217688.000000 0 1 0
4.221116 21.163728 0.781709 21.594728 1.373929 1.534589 -0.007046 -0.000526 -70381.500000 0 1 0
3.553916 21.820228 1.867209 22.186463 1.409341 1.486537 -0.000032 0.005235 308701.000000 0 1 0
3.216916 20.887428 2.898509 21.331539 1.417985 1.434496 0.001266 -0.003194 -62336.700000 0 1 0
2.208416 21.520628 3.871509 21.977331 1.468536 1.393713 0.007608 -0.001278 -1230480.000000 0 1 0
0.942016 21.780528 3.440509 22.070702 1.527573 1.414272 0.007862 0.003448 -1472470.000000 0 1 0
0.105716 22.024528 4.536609 22.487148 1.565996 1.367660 0.012711 -0.012177 832524.000000 0 1 0
-1.372284 22.283428 4.058509 22.691536 -1.509291 1.390973 0.010159 -0.008395 764874.000000 0 1 0
-2.345084 22.561728 5.026509 23.233527 -1.467227 1.352725 0.020473 -0.015064 524492.000000 0 1 0
-3.622584 22.785728 4.407609 23.489136 -1.413131 1.382033 0.021165 -0.010885 1082230.000000 0 1 0
-4.825884 23.123028 5.328809 24.214867 -1.365045 1.348917 0.028810 -0.019480 120311.000000 0 1 0
-4.954384 24.459728 5.816809 25.625368 -1.370947 1.341806 0.032369 -0.011385 156915.000000 0 0 1
-6.252284 24.560528 6.376309 26.133654 -1.321525 1.324320 0.042975 -0.012505 335799.000000 0 0 1
-6.516984 25.969628 6.852509 27.637828 -1.324927 1.320244 0.040620 -0.008032 -480588.000000 0 0 1
-5.565284 26.333828 7.798309 28.022428 -1.362525 1.288785 0.027433 -0.021100 -262552.000000 0 0 1
-5.878484 27.552428 8.568309 29.446711 -1.360592 1.275549 0.055439 -0.010266 -105306.000000 0 0 1
-5.844584 28.907928 7.805909 30.508354 -1.371306 1.312058 0.051175 -0.012233 501392.000000 0 0 1
-7.047284 29.131028 7.065609 30.792918 -1.333440 1.339278 0.048091 -0.019323 -158595.000000 0 0 1
-7.087384 30.310528 6.274209 31.754130 -1.341097 1.371900 0.060785 -0.024285 -420234.000000 0 0 1
-8.489184 30.604528 5.677309 32.263527 -1.300216 1.393909 0.047233 -0.020740 721052.000000 0 0 1
-9.449984 31.107628 6.609409 33.176362 -1.275872 1.370234 0.050238 -0.012663 -42031.800000 0 0 1
-10.040984 30.098428 7.360909 32.571762 -1.248801 1.342837 0.033768 -0.005478 -1075170.000000 0 0 1
-10.994784 30.593528 8.426109 33.583456 -1.225787 1.317186 0.019930 -0.005393 -33317.300000 0 0 1
-10.288384 31.170528 9.505709 34.173252 -1.251988 1.288916 0.031572 -0.004759 152836.000000 0 0 1
-11.223084 31.490728 10.490709 35.038244 -1.228437 1.266725 0.023802 0.003238 124946.000000 0 0 1
-10.487084 31.983428 11.784509 35.662210 -1.253952 1.234018 0.024708 -0.004959 89355.000000 0 0 1
-10.029084 33.275628 11.597709 36.638187 -1.278061 1.248709 0.025602 -0.005390 -76103.700000 0 0 1
-9.175184 33.735828 12.602509 37.163333 -1.305248 1.224824 0.022109 -0.010813 -34911.000000 0 0 1
-8.864984 -33.852497 12.833409 37.272991 1.314677 1.219294 0.022932 -0.005977 -393252.000000 0 0 1
-9.910884 -33.130797 13.391409 37.083759 1.280125 1.201336 0.016484 -0.002791 -468021.000000 0 0 1
-9.568984 -31.778997 13.610609 35.870862 1.278321 1.181612 0.017152 -0.000490 633995.000000 0 0 1
-10.734484 -30.980897 14.298609 35.770034 1.237254 1.159566 0.017709 -0.004977 137005.000000 0 0 1
-10.879984 -31.203897 15.712709 36.591617 1.235303 1.126960 0.017206 -0.015230 127670.000000 0 0 1
-9.755784 -30.771297 16.474909 36.241836 1.263779 1.098893 0.017430 -0.011883 290834.000000 0 0 1
-9.928284 -31.073097 18.021909 37.267913 1.261534 1.066060 0.017945 -0.021208 25707.400000 0 0 1
-10.706284 -30.162297 18.772609 37.105249 1.229713 1.040338 0.022132 -0.023636 139426.000000 0 0 1
-11.050784 -30.837097 19.954809 38.356756 1.226693 1.023662 0.019023 -0.023861 -222135.000000 0 0 1
-11.133384 -29.925597 21.200909 38.327172 1.214627 0.984648 0.005331 -0.019364 -934745.000000 0 0 1
-9.996284 -29.837897 21.954409 38.369543 1.247529 0.961631 0.001819 -0.013875 -1056220.000000 0 0 1
-10.042884 -28.900897 23.044409 38.303605 1.236356 0.925262 0.000476 -0.010706 312427.000000 0 0 1
-8.817384 -29.008897 24.002209 38.669993 1.275716 0.901170 0.008452 -0.008694 330055.000000 0 0 1
-8.686684 -30.307597 24.509109 39.933762 1.291662 0.910002 0.008425 0.001488 -516953.000000 0 0 1
-7.693684 -30.337097 25.485709 40.361536 1.322426 0.887393 0.015048 0.002162 -306575.000000 0 0 1
-7.777984 -31.596597 26.396009 41.899776 1.329430 0.889269 0.021075 0.005143 -116062.000000 0 0 1
-7.435784 -32.843497 25.827809 42.438919 1.348149 0.916517 0.029400 0.003656 262390.000000 0 0 1
-7.573684 -33.891497 26.774209 43.850342 1.350940 0.914002 0.029493 0.007900 -177882.000000 0 0 1
-7.374784 33.836128 26.176609 43.410665 -1.356197 0.923541 0.024819 -0.001824 271208.000000 0 0 1
-6.013484 33.553328 25.849909 42.780902 -1.393457 0.921985 0.030148 0.001299 608068.000000 0 0 1
-5.792084 32.335128 25.193809 41.398511 -1.393549 0.916542 0.029893 -0.006461 -297657.000000 0 0 1
-6.515784 32.042928 23.882309 40.491596 -1.370186 0.939974 0.032566 -0.008307 822267.000000 0 0 1
-7.824084 31.452828 24.040909 40.354206 -1.326989 0.932601 0.042514 -0.008949 1374160.000000 0 0 1
-8.644284 31.462028 22.858809 39.838524 -1.302660 0.959675 0.038239 -0.007437 338597.000000 0 0 1
-9.676584 30.342628 22.712809 39.117554 -1.262082 0.951295 0.042558 -0.010997 -96898.700000 0 0 1
-9.137384 29.066828 22.388209 37.810107 -1.266220 0.937106 0.042571 -0.006864 309483.000000 0 0 1
-9.911484 27.943828 22.925909 37.479225 -1.229947 0.912593 0.028228 -0.004987 366036.000000 0 0 1
-9.193484 26.578228 22.646709 36.108112 -1.237776 0.892854 0.021059 -0.004991 522336.000000 0 0 1
-7.918884 26.532828 23.288509 36.180856 -1.280757 0.871513 0.018082 -0.011929 143271.000000 0 0 1
-7.328784 25.305828 23.010709 34.979833 -1.288900 0.852865 0.021279 -0.018031 -137254.000000 0 0 1
-6.059384 25.063328 23.868109 35.136493 -1.333585 0.823992 0.018584 -0.018591 762755.000000 0 0 1
-4.939384 25.728528 23.260309 35.034221 -1.381123 0.844733 0.012099 -0.016111 570845.000000 0 0 1
-3.671384 25.335128 23.793309 34.949525 -1.426885 0.821955 0.017201 -0.015416 389855.000000 0 0 1
-2.542684 25.941428 22.956609 34.733684 -1.473092 0.848736 0.019856 -0.009286 -572821.000000 0 0 1
-2.333184 25.169428 21.792409 33.374435 -1.478361 0.859301 0.015317 -0.007209 -126905.000000 0 0 1
-1.411984 25.733928 20.906409 33.185941 -1.515983 0.889272 0.015248 -0.002530 -208562.000000 0 0 1
-1.133984 24.778028 19.690609 31.669491 -1.525063 0.899817 0.008517 0.002707 -519580.000000 0 0 1
-0.167784 23.847628 20.088009 31.181174 -1.563761 0.870773 0.007534 -0.002208 -252373.000000 0 0 1
0.100516 22.971128 19.019709 29.823349 1.566421 0.879228 0.005260 -0.000430 -661433.000000 0 0 1
1.151516 21.879028 19.284209 29.187301 1.518214 0.849038 -0.005504 0.008661 329305.000000 0 0 1
2.478916 22.402728 19.179509 29.595283 1.460592 0.865762 -0.005246 -0.002384 189963.000000 0 0 1
3.388116 21.307328 19.264609 28.924154 1.413105 0.841911 0.005430 0.011272 -543449.000000 0 0 1
4.814016 21.853428 19.215409 29.495406 1.353973 0.861274 0.000360 -0.000364 -578692.000000 0 0 1
5.722516 20.771728 19.143009 28.821288 1.301970 0.844377 0.008867 0.005523 -443819.000000 0 0 1
6.955116 21.206428 18.618409 29.064263 1.253879 0.875524 0.030117 0.002954 137197.000000 0 0 1
7.974916 20.057128 18.364709 28.339905 1.192352 0.865820 0.031445 0.001419 217130.000000 0 0 1
8.440016 19.415728 19.549109 28.816176 1.160739 0.825204 0.029262 0.001675 -17705.500000 0 0 1
9.447016 18.467028 19.304009 28.335878 1.097943 0.821318 0.032458 -0.007037 -55176.500000 0 0 1
9.945316 17.681528 20.526309 28.859575 1.058430 0.779525 0.043470 -0.012305 52109.100000 0 0 1
8.982616 16.808028 21.106809 28.437556 1.079990 0.734425 0.035912 -0.007487 -28326.700000 0 0 1
9.518416 16.147228 22.222409 29.071785 1.038150 0.700689 0.040066 -0.010504 356594.000000 0 0 1
8.524116 15.172928 22.956909 28.807950 1.058941 0.648659 0.028729 -0.007529 914906.000000 0 0 1
7.476416 15.844828 23.706309 29.477864 1.129919 0.636456 0.026183 0.004919 -212751.000000 0 0 1
6.352916 15.081428 23.929909 28.990508 1.172114 0.599816 0.011844 0.001547 -519809.000000 0 0 1
6.415816 13.856428 24.881609 29.193454 1.137167 0.550428 0.014909 0.000989 -870167.000000 0 0 1
6.666816 14.300928 26.219309 30.600901 1.134568 0.541736 0.015749 -0.002506 24921.200000 0 0 1
7.125016 13.246028 27.028709 30.931767 1.077292 0.507798 0.017258 -0.009946 -670670.000000 0 0 1
8.095816 13.804128 28.091009 32.329568 1.040379 0.517830 0.011657 -0.013419 -476705.000000 0 0 1
9.416216 14.054128 27.699909 32.457181 0.980492 0.548267 0.047547 -0.015376 -408601.000000 0 0 1
9.690416 15.098528 26.801009 32.251570 1.000199 0.589896 0.043183 -0.011051 -1241290.000000 0 0 1
11.093616 15.072028 26.220409 32.214037 0.936290 0.619888 0.052108 -0.017124 -599469.000000 0 0 1
11.166216 14.028328 25.243709 30.963256 0.898514 0.617585 0.043584 -0.026610 -283482.000000 0 0 1
12.457116 13.793428 24.762809 30.961833 0.836260 0.643859 0.053150 -0.031470 -718867.000000 0 0 1
12.305016 12.712728 23.616609 29.508831 0.801694 0.642962 0.039995 -0.031915 38889.800000 0 0 1
11.928916 11.440828 24.098409 29.221993 0.764516 0.601183 0.034242 -0.023845 423645.000000 0 0 1
10.575416 11.198228 24.467109 28.911575 0.813994 0.561845 0.033662 -0.018561 48086.200000 0 0 1
10.406416 9.804128 24.958209 28.763286 0.755606 0.520218 0.013196 -0.010902 -180071.000000 0 0 1
10.345716 8.797228 23.939809 27.523436 0.704683 0.516005 0.021869 -0.001276 215633.000000 0 0 1
10.119416 7.554428 24.559309 27.615786 0.641275 0.474937 0.026933 -0.000965 12070.000000 0 0 1
10.538216 6.485628 23.531309 26.586460 0.551694 0.484117 0.027372 -0.008449 -362887.000000 0 0 1
11.931216 6.338328 23.441109 27.055755 0.488325 0.522849 0.029271 -0.003535 -337431.000000 0 0 1
12.349216 5.531828 22.321409 26.102673 0.421148 0.544978 0.034705 -0.013302 83354.900000 0 0 1
12.106416 4.024428 22.492609 25.858824 0.320929 0.515952 0.016785 -0.017994 -549265.000000 0 0 1
12.800816 3.465828 23.586809 27.059387 0.264411 0.512200 0.029526 -0.009776 10634.300000 0 0 1
12.219416 2.280128 24.062709 27.083705 0.184477 0.476824 0.026342 -0.007886 -485707.000000 0 0 1
13.080816 1.518628 25.130009 28.371312 0.115578 0.482680 0.012089 0.002262 173158.000000 0 0 1
14.183516 0.753628 24.653709 28.452512 0.053084 0.522676 0.032881 -0.005095 -107607.000000 0 0 1
15.326716 1.587628 24.684809 29.099288 0.103218 0.558037 0.024021 -0.003014 -1118460.000000 0 0 1
16.419316 0.899128 23.873909 28.989065 0.054706 0.603157 0.020168 -0.012080 -680143.000000 0 0 1
16.704716 -0.394372 24.341709 29.524936 -0.023604 0.601574 0.022925 -0.008428 -303353.000000 0 0 1
17.650816 -0.996872 23.513009 29.417795 -0.056417 0.644703 0.022902 0.002053 -347617.000000 0 0 1
17.976316 -2.455772 23.958909 30.053420 -0.135771 0.648136 0.018981 0.013828 18613.000000 0 0 1
17.043516 -3.501972 23.683709 29.388149 -0.202652 0.633614 0.012360 0.012315 38078.900000 0 0 1
17.612816 -4.749072 23.810009 29.994691 -0.263374 0.653752 0.011674 0.012143 -137968.000000 0 0 1
16.769216 -5.879272 23.177409 29.205560 -0.337208 0.654100 0.010710 0.007934 13185.200000 0 0 1
16.590816 -5.872172 21.804409 28.020882 -0.340182 0.679084 0.002802 0.008636 427941.000000 0 0 1
15.754216 -6.881572 21.187509 27.284829 -0.411830 0.681655 0.012528 0.004197 -173830.000000 0 0 1
16.075116 -8.404972 21.413309 28.063904 -0.481765 0.702824 0.012721 -0.003984 -479608.000000 0 0 1
15.694816 -9.039472 22.605309 28.966175 -0.522550 0.675485 0.009386 0.004998 -302360.000000 0 0 1
16.336516 -10.263872 22.817209 29.880660 -0.560953 0.701909 0.014911 0.000377 -340281.000000 0 0 1
15.833916 -11.087972 24.013909 30.827323 -0.610905 0.677757 0.027538 -0.000580 -281401.000000 0 0 1
14.789116 -11.917272 23.585009 30.281875 -0.678276 0.677968 0.034120 -0.004767 -421280.000000 0 0 1
14.700616 -13.045672 24.411409 31.340303 -0.725823 0.677864 0.041941 0.002944 -270814.000000 0 0 1
13.672116 -14.074172 23.925409 30.942435 -0.799888 0.686888 0.030969 -0.003195 -174392.000000 0 0 1
14.043216 -14.859872 22.791909 30.618603 -0.813646 0.731189 0.042669 -0.001834 512913.000000 0 0 1
13.022216 -15.812972 22.489409 30.420416 -0.881881 0.738786 0.040812 0.003865 53986.800000 0 0 1
13.411816 -16.705372 21.278309 30.194581 -0.894323 0.788787 0.037254 -0.001670 -249656.000000 0 0 1
14.548416 -17.493572 21.498509 31.302833 -0.877056 0.813731 0.037690 -0.008359 -203179.000000 0 0 1
14.703216 -18.427572 20.416809 31.186633 -0.897342 0.857056 0.028054 -0.004531 -74047.900000 0 0 1
-22.617784 -32.281997 26.601463 47.553436 0.959647 0.977133 0.032485 -0.019986 -522485.000000 0 0 1
-23.305584 -33.190797 27.432853 48.962646 0.958615 0.976071 0.031456 -0.023596 -727759.000000 0 0 1
-24.453184 -33.603797 26.773703 49.436874 0.941726 0.998489 0.041916 -0.028317 -847451.000000 0 0 1
-25.184994 -34.542497 27.704283 50.941096 0.940805 0.995779 0.029058 -0.027827 -855805.000000 0 0 1
-26.020134 -33.972897 28.671033 51.509545 0.917191 0.980490 0.042035 -0.026005 -174343.000000 0 0 1
-25.446994 -33.497097 29.887443 51.602948 0.921130 0.953073 0.030822 -0.024960 -602886.000000 0 0 1
-26.491474 -33.017697 30.906673 52.413633 0.894629 0.940148 0.027619 -0.024790 -147929.000000 0 0 1
-26.971014 -31.746097 30.517473 51.638807 0.866543 0.938524 0.022222 -0.022294 -6833.650000 0 0 1
-27.737104 -31.203297 31.567823 52.340425 0.844139 0.923383 0.017660 -0.010430 -251615.000000 0 0 1
-28.149744 -29.715097 31.266413 51.507122 0.812443 0.918477 0.018880 -0.012318 87187.600000 0 0 1
-28.864804 -29.554097 30.022713 51.068433 0.797197 0.942346 0.026346 -0.001543 474631.000000 0 0 1
-29.501784 -28.312797 29.987663 50.707294 0.764836 0.938018 0.009746 0.005743 -139821.000000 0 0 1
-30.093784 -27.950997 28.628503 50.064810 0.748499 0.962063 0.006349 -0.009758 -474332.000000 0 0 1
-29.126664 -27.750497 27.647773 48.814465 0.761207 0.968684 0.013190 -0.007229 -170336.000000 0 0 1
-28.769704 -26.422497 27.467233 47.752415 0.742896 0.957947 -0.004183 0.005977 -116868.000000 0 0 1
-27.641984 -26.198397 26.461973 46.375331 0.758592 0.963555 0.015688 0.011251 -24554.300000 0 0 1
-28.172404 -26.408197 25.158503 46.087173 0.753086 0.993346 0.003227 0.004582 841108.000000 0 0 1
-27.114614 -26.360497 24.168643 44.879855 0.771297 1.002118 0.025881 0.013937 592666.000000 0 0 1
-27.476874 -26.712297 22.657083 44.518185 0.771290 1.036843 0.014999 0.014348 158630.000000 0 0 1
-28.399124 -25.851197 21.997383 44.256971 0.738467 1.050615 0.002495 0.002790 306225.000000 0 0 1
-28.573094 -26.202897 20.641183 43.921201 0.742154 1.081552 0.002492 0.019066 -19205.200000 0 0 1
-29.217664 -25.112297 19.714983 43.277938 0.709978 1.097814 -0.008764 0.015199 275561.000000 0 0 1
-30.459474 -24.620797 20.198183 44.067332 0.679789 1.094661 -0.005496 0.001804 273243.000000 0 0 1
-30.960684 -23.567697 19.421183 43.487730 0.650639 1.107846 -0.003375 -0.000588 1099610.000000 0 0 1
-32.424604 -23.116597 19.870483 44.503574 0.619354 1.107955 0.001368 0.003763 1683080.000000 0 0 1
-33.483194 -24.001097 19.501583 45.579476 0.621919 1.128674 -0.005876 0.004386 66132.300000 0 0 1
-34.753691 -23.420897 19.570283 46.253145 0.593001 1.133919 -0.002595 -0.000951 320859.000000 0 0 1
34.947710 -24.267297 18.782683 46.508422 -0.606950 1.155069 0.006185 -0.004342 441982.000000 0 0 1
34.715898 -25.595597 19.261783 47.237109 -0.635315 1.150788 0.004489 -0.007313 -206572.000000 0 0 1
33.866102 -26.275897 18.378483 46.638013 -0.659857 1.165744 0.010693 0.005301 -158133.000000 0 0 1
33.633312 -27.675497 18.975383 47.509977 -0.688525 1.159936 0.007883 0.009708 69714.700000 0 0 1
32.690872 -27.817197 20.048083 47.375259 -0.705026 1.133848 0.001747 0.002686 161375.000000 0 0 1
32.922112 -27.131397 21.237783 47.655237 -0.689269 1.108891 0.008586 -0.001463 -338133.000000 0 0 1
31.582472 -27.077997 21.990283 47.055743 -0.708760 1.084535 0.009015 -0.002902 77170.200000 0 0 1
30.576072 -26.269097 21.455183 45.664937 -0.709776 1.081688 0.008528 -0.000961 -378259.000000 0 0 1
29.562212 -25.989797 22.389883 45.284664 -0.721179 1.053623 0.019175 -0.005162 89310.800000 0 0 1
28.589342 -24.888097 21.885483 43.769192 -0.716297 1.047174 0.019493 0.007292 -245398.000000 0 0 1
29.254772 -23.727697 21.562283 43.402504 -0.681455 1.050891 0.019895 0.012202 106804.000000 0 0 1
29.981262 -23.062097 22.626083 44.075798 -0.655687 1.031718 0.038230 0.002327 -195037.000000 0 0 1
30.803322 -21.912697 22.097283 43.786994 -0.618319 1.041815 0.027425 -0.005012 -563506.000000 0 0 1
30.046272 -20.843697 21.641383 42.492207 -0.606499 1.036422 0.021588 -0.011703 -228588.000000 0 0 1
30.876632 -19.732397 21.371483 42.420209 -0.568655 1.042799 0.020192 -0.002619 -447148.000000 0 0 1
30.159042 -18.375797 21.405483 41.296882 -0.547227 1.025897 0.004266 0.009948 -268327.000000 0 0 1
29.833512 -17.873197 22.642983 41.499329 -0.539756 0.993664 0.013815 -0.006821 963525.000000 0 0 1
28.697562 -18.481397 23.326483 41.342918 -0.572150 0.971309 0.021007 -0.003605 474344.000000 0 0 1
28.572472 -18.014697 24.799403 41.903769 -0.562538 0.937484 0.015485 0.002431 -195933.000000 0 0 1
28.108732 -16.737497 25.011923 41.180589 -0.537071 0.918048 0.010531 -0.006545 -47394.100000 0 0 1
28.213152 -16.289297 26.352773 41.902169 -0.523610 0.890643 0.011371 -0.000263 -233419.000000 0 0 1
28.109062 -14.744697 26.506383 41.353522 -0.483097 0.875034 0.000426 -0.001705 138977.000000 0 0 1
26.839182 -14.123297 26.397133 40.207186 -0.484402 0.854590 0.013014 -0.004296 311498.000000 0 0 1
26.982392 -12.720997 26.627583 39.986265 -0.440552 0.842072 0.012120 -0.007782 185930.000000 0 0 1
27.710862 -11.876497 25.554153 39.521612 -0.404904 0.867695 0.020951 -0.024068 -41588.000000 0 0 1
26.906362 -11.735297 24.420733 38.184312 -0.411279 0.876885 0.016981 -0.006116 98125.400000 0 0 1
27.583532 -11.022797 23.422383 37.828049 -0.380175 0.903098 0.012060 0.002744 270635.000000 0 0 1
28.658592 -11.823197 22.640883 38.388963 -0.391281 0.940015 0.011157 -0.013913 -556735.000000 0 0 1
28.066262 -12.687997 21.741983 37.701647 -0.424576 0.956131 0.008983 -0.014427 -40603.900000 0 0 1
28.331572 -14.029697 22.198483 38.630079 -0.459797 0.958629 0.006319 -0.013522 -192326.000000 0 0 1
27.816222 -15.161397 21.347683 38.201227 -0.499039 0.977832 0.000315 -0.006548 -15956.600000 0 0 1
28.563812 -15.338197 20.128083 38.161386 -0.492792 1.015204 0.003161 -0.001723 50325.400000 0 0 1
27.935302 -16.260297 19.287783 37.640363 -0.527131 1.032792 -0.001604 -0.003039 -158620.000000 0 0 1
28.604272 -16.272297 17.861583 37.443667 -0.517220 1.073529 0.008624 -0.000563 140307.000000 0 0 1
28.065632 -17.136297 16.876483 36.961440 -0.548162 1.096630 0.004130 -0.001292 83594.600000 0 0 1
26.675432 -17.032797 16.610483 35.743573 -0.568263 1.087486 0.014347 -0.011150 -316781.000000 0 0 1
26.265762 -16.019597 15.518983 34.458041 -0.547670 1.103613 0.020189 -0.006484 -556452.000000 0 0 1
26.454222 -16.390497 14.138183 34.181318 -0.554692 1.144366 0.028233 -0.007522 -215486.000000 0 0 1
25.490392 -17.323397 13.766183 33.754525 -0.596906 1.150718 0.028034 -0.015165 -536572.000000 0 0 1
25.468392 -17.960597 12.339883 33.518573 -0.614215 1.193777 0.024188 -0.001756 -176207.000000 0 0 1
25.149192 -17.044297 11.276483 32.406002 -0.595621 1.215386 0.019786 -0.006631 -127316.000000 0 0 1
25.044492 -17.538697 9.966983 32.158564 -0.610928 1.255674 0.023279 -0.013200 1160.420000 0 0 1
26.352792 -17.839297 9.192983 33.124328 -0.595082 1.289575 0.035976 -0.006447 -193953.000000 0 0 1
27.178992 -18.701097 9.876883 34.438081 -0.602675 1.279910 0.039691 -0.003477 -1630040.000000 0 0 1
28.489632 -18.579997 9.441283 35.298913 -0.577897 1.300033 0.048438 0.003124 -654449.000000 0 0 1
29.409372 -19.578697 10.194683 36.771838 -0.587354 1.289874 0.054740 -0.008786 -266177.000000 0 0 1
29.661362 -19.213097 11.502383 37.165095 -0.574791 1.256135 0.055283 -0.016960 75472.300000 0 0 1
29.645562 -20.213297 12.464083 37.984077 -0.598428 1.236463 0.038760 -0.014240 -248812.000000 0 0 1
29.604082 -19.599897 13.940383 38.143045 -0.584812 1.196652 0.038670 -0.004614 48952.200000 0 0 1
29.354252 -20.553697 14.942583 38.825344 -0.610857 1.175733 0.037472 -0.005860 44572.300000 0 0 1
29.326732 -20.037697 16.222183 39.047736 -0.599400 1.142364 0.031835 -0.008280 27074.600000 0 0 1
29.120762 -21.138097 17.323283 39.936625 -0.627883 1.122124 0.023087 0.000208 419970.000000 0 0 1
27.822942 -21.710197 17.406583 39.350195 -0.662612 1.112578 0.005443 0.000610 172872.000000 0 0 1
27.725422 -22.562897 18.543083 40.269458 -0.683098 1.092266 0.016519 -0.003555 -618868.000000 0 0 1
26.413352 -23.297597 18.587883 39.824020 -0.722803 1.085183 0.023101 0.000103 -1173030.000000 0 0 1
25.272092 -22.534797 18.768483 38.713714 -0.728203 1.064660 0.029759 -0.003162 -479456.000000 0 0 1
24.147592 -23.372797 18.590083 38.405534 -0.769095 1.065523 0.015824 -0.005788 885680.000000 0 0 1
22.737092 -22.876597 19.089883 37.479830 -0.788457 1.036382 0.015259 -0.008121 801988.000000 0 0 1
22.234092 -21.746697 18.320283 36.095795 -0.774317 1.038462 0.020547 -0.001829 253174.000000 0 0 1
20.991092 -21.236697 18.789983 35.280118 -0.791214 1.009134 0.014400 -0.003188 390617.000000 0 0 1
21.011692 -20.408297 20.116383 35.533908 -0.770831 0.969008 0.006593 -0.005573 -297222.000000 0 0 1
21.387292 -21.185397 21.238083 36.841464 -0.780656 0.956392 0.006018 -0.009934 -40034.400000 0 0 1
21.699992 -20.323397 22.346383 37.192619 -0.752652 0.926259 -0.000298 0.006909 -72708.100000 0 0 1
22.083192 -21.116697 23.645283 38.635239 -0.763029 0.912192 0.006462 0.004806 526856.000000 0 0 1
20.917492 -21.778597 24.109813 38.641064 -0.805564 0.897018 0.019852 0.004000 186227.000000 0 0 1
21.256892 -22.429197 25.281633 39.925998 -0.812226 0.885100 0.023684 -0.011079 -135846.000000 0 0 1
20.138292 -23.163797 26.043483 40.253885 -0.855155 0.867178 0.030230 -0.009435 -329795.000000 0 0 1
19.742592 -24.412397 25.460953 40.422706 -0.890766 0.889414 0.033500 0.000267 425925.000000 0 0 1
18.792792 -25.113897 26.262393 40.909536 -0.928382 0.873741 0.035332 0.009167 268810.000000 0 0 1
18.231092 -26.406997 25.593873 41.045688 -0.966550 0.897526 0.029900 0.011989 213153.000000 0 0 1
17.364292 -26.183297 24.491703 39.836255 -0.985210 0.908652 0.026174 0.005492 704592.000000 0 0 1
16.586192 -27.334397 24.124173 40.053049 -1.025400 0.924410 0.034843 -0.005677 320752.000000 0 0 1
15.706092 -27.172697 22.825783 38.807901 -1.046703 0.941998 0.031525 -0.014881 414429.000000 0 0 1
14.432492 -26.660797 23.208183 38.180030 -1.074628 0.917431 0.013947 -0.006434 64566.200000 0 0 1
13.979592 -25.826897 22.153483 36.786334 -1.074672 0.924517 0.005052 -0.006410 354027.000000 0 0 1
12.526492 -25.322597 22.418683 36.065832 -1.111417 0.900007 0.001885 -0.006039 522298.000000 0 0 1
11.524692 -26.270397 22.093783 36.208942 -1.157383 0.914515 0.002315 -0.005261 1227220.000000 0 0 1
10.209792 -25.643997 22.162283 35.398040 -1.191898 0.894270 0.009552 0.001555 1517640.000000 0 0 1
9.023992 -26.649297 22.047283 35.744932 -1.244295 0.906132 0.015338 -0.006834 219477.000000 0 0 1
8.914592 -27.391597 20.846483 35.557635 -1.256158 0.944346 0.011305 -0.005860 -176368.000000 0 0 1
7.629892 -27.949797 20.809283 35.671174 -1.304304 0.947932 0.008288 -0.000707 -290612.000000 0 0 1
7.291092 -28.830197 19.613583 35.623488 -1.323092 0.987737 0.015091 -0.010956 -40830.500000 0 0 1
7.818892 -30.188197 19.694983 36.882986 -1.317361 1.007489 0.012135 -0.010517 162108.000000 0 0 1
7.556692 -31.000997 18.598183 36.933153 -1.331703 1.043078 -0.000446 -0.012417 -191808.000000 0 0 1
8.126492 -32.441997 18.655383 38.295513 -1.325354 1.061981 -0.006381 -0.005937 -132063.000000 0 0 1
7.665092 -33.266597 19.693483 39.411335 -1.344335 1.047555 -0.006476 -0.006712 241896.000000 0 0 1
8.571292 -34.368697 19.861483 40.609763 -1.326390 1.059760 0.000382 -0.001588 187461.000000 0 0 1
8.149292 33.676128 20.886883 40.456822 1.333370 1.028300 0.009231 -0.003936 -438671.000000 0 0 1
7.131292 32.830728 20.460683 39.336390 1.356905 1.023774 0.009228 -0.004198 -373726.000000 0 0 1
7.251592 31.690228 21.240683 38.833268 1.345842 0.992054 0.012226 -0.016517 -114124.000000 0 0 1
6.234492 30.615428 20.797183 37.532601 1.369904 0.983503 0.015233 -0.013866 -235006.000000 0 0 1
4.920992 30.913728 21.177083 37.793433 1.412936 0.976003 0.016997 -0.016552 -816207.000000 0 0 1
4.075192 29.888328 20.722783 36.597173 1.435285 0.968859 0.027800 -0.008694 519807.000000 0 0 1
2.646892 29.916128 21.357283 36.852602 1.482549 0.952641 0.017451 -0.007002 404820.000000 0 0 1
2.656592 29.361928 22.669383 37.189800 1.480565 0.915292 0.012158 -0.016217 456265.000000 0 0 1
1.329492 28.994428 23.029983 37.051646 1.524975 0.900058 0.003737 -0.010239 373579.000000 0 0 1
1.258792 28.495628 24.498503 37.600027 1.526650 0.861163 0.017454 -0.010780 -380504.000000 0 0 1
1.388292 29.461028 25.480163 38.975867 1.523708 0.858277 0.017818 -0.011887 278336.000000 0 0 1
1.222992 28.918428 26.766603 39.423625 1.528530 0.824467 0.016927 -0.012072 254550.000000 0 0 1
2.535192 28.240028 27.292533 39.354907 1.481263 0.804464 0.012425 -0.008556 27435.100000 0 0 1
2.851092 27.054028 26.610393 38.054726 1.465799 0.796425 0.016449 -0.009847 220189.000000 0 0 1
3.772592 26.332028 27.408043 38.194358 1.428495 0.770455 0.013193 0.002772 35537.100000 0 0 1
4.227792 25.014128 26.728233 36.850770 1.403363 0.759312 0.005308 0.013290 261052.000000 0 0 1
3.144492 24.069228 26.744393 36.117560 1.440888 0.737009 0.011254 0.015755 499638.000000 0 0 1
3.555192 22.757328 26.354443 35.001315 1.415827 0.718254 0.006288 0.025407 -56187.600000 0 0 1
2.413192 21.709728 26.349833 34.226444 1.460094 0.692163 0.008800 0.031143 -438453.000000 0 0 1
2.744492 20.341728 26.536253 33.548336 1.436687 0.658378 0.005470 0.036574 -124982.000000 0 0 1
3.422092 19.700828 25.462073 32.375152 1.398809 0.665724 0.008758 0.033553 -326109.000000 0 0 1
3.944692 18.280528 25.822293 31.883054 1.358268 0.626804 -0.001253 0.025954 712606.000000 0 0 1
5.090692 18.155128 26.696803 32.683988 1.297417 0.614926 -0.001738 0.023214 1485430.000000 0 0 1
6.346292 18.114528 26.004623 32.321076 1.233816 0.635842 0.012223 0.019085 270021.000000 0 0 1
7.600292 18.009228 26.903733 33.255189 1.171451 0.628333 0.013100 0.007144 84923.200000 0 0 1
7.941192 19.222028 27.680123 34.622797 1.179023 0.644373 0.006734 0.009538 317139.000000 0 0 1
8.516192 20.293628 26.937563 34.784898 1.173467 0.685024 -0.002258 0.009359 -452043.000000 0 0 1
8.939592 21.445028 27.811223 36.239062 1.175840 0.695961 -0.006506 0.012436 -110162.000000 0 0 1
10.147592 21.261228 28.530343 36.999918 1.125488 0.690242 0.016345 0.003789 67796.900000 0 0 1
10.331792 22.020128 29.659983 38.358135 1.132093 0.686864 0.004425 -0.007366 -340406.000000 0 0 1
11.669992 21.713328 30.351673 39.100913 1.077634 0.682118 0.021724 -0.011691 -101766.000000 0 0 1
12.744392 22.122128 29.544223 39.047012 1.048141 0.712650 0.016429 -0.006565 -44820.200000 0 0 1
14.012092 21.831528 30.129343 39.758416 1.000187 0.710846 0.010097 0.006227 1117850.000000 0 0 1
15.241192 22.165628 29.218703 39.715760 0.968438 0.744103 0.012058 0.002883 479461.000000 0 0 1
15.283192 23.580028 29.008893 40.386997 0.995729 0.769479 0.009908 -0.000200 76429.300000 0 0 1
16.508092 23.932128 28.399503 40.642288 0.966957 0.797123 0.044616 -0.010215 9490.930000 0 0 1
-8.602384 16.826028 4.446209 19.413526 -1.098186 1.339719 0.009554 -0.011885 -251488.000000 0 1 0
-8.381884 18.182028 4.855009 20.601292 -1.138834 1.332893 0.011957 -0.015090 117402.000000 0 1 0
-7.104384 18.478728 5.382009 20.515888 -1.203755 1.305357 0.011627 -0.008575 -50924.500000 0 1 0
-7.028984 19.924728 5.932609 21.945324 -1.231650 1.297054 0.013653 -0.008388 -69492.000000 0 1 0
-7.131384 20.985528 4.952209 22.710645 -1.243216 1.350973 0.015545 -0.014505 -159049.000000 0 1 0
-8.452284 21.286628 4.596009 23.359900 -1.192818 1.372757 0.011136 -0.018080 -256250.000000 0 1 0
-8.416784 22.483228 3.589309 24.273873 -1.212588 1.422385 0.020039 -0.020986 229584.000000 0 1 0
-7.749484 22.358528 2.340909 23.778943 -1.237153 1.472192 -0.000626 -0.018189 154450.000000 0 1 0
-8.362184 21.290928 1.574909 22.928368 -1.196549 1.502054 0.013661 -0.010462 -603961.000000 0 1 0
-7.800984 21.137128 0.111309 22.530999 -1.217239 1.565856 0.005985 0.001301 845521.000000 0 1 0
-6.487584 20.597128 -0.120191 21.595019 -1.265658 1.576362 0.000642 0.001447 259913.000000 0 1 0
-5.528284 21.532128 0.270609 22.232132 -1.319479 1.558624 0.009564 -0.007091 -594362.000000 0 1 0
-4.142384 21.354928 -0.430091 21.757235 -1.379198 1.590565 0.005267 0.000367 402304.000000 0 1 0
-4.143884 21.679028 -1.796991 22.144552 -1.381927 1.652034 0.005223 0.002404 -371883.000000 0 1 0
-2.868484 21.598828 -2.369291 21.916914 -1.438762 1.679111 0.011940 0.007938 -331512.000000 0 1 0
-2.846184 21.841928 -3.913191 22.371492 -1.441218 1.746619 0.012625 0.006452 1469980.000000 0 1 0
-1.489684 22.117428 -4.380191 22.596147 -1.503544 1.765878 0.023855 0.003151 1487690.000000 0 1 0
-1.508284 22.333728 -5.760191 23.113851 -1.503365 1.822660 0.027612 -0.010053 693427.000000 0 1 0
-0.200084 23.042428 -6.295891 23.887900 -1.562113 1.837507 0.038681 -0.016904 736228.000000 0 1 0
0.942616 22.255728 -6.040791 23.080232 1.528468 1.835611 0.013678 -0.006340 -713989.000000 0 1 0
2.051016 22.864628 -6.632791 23.895434 1.481333 1.852066 0.011985 -0.009772 -862833.000000 0 1 0
3.217016 21.912928 -6.751991 23.154157 1.425029 1.866706 0.008115 -0.000156 -601545.000000 0 1 0
2.983816 21.030428 -7.781491 22.621531 1.429856 1.921955 0.004953 -0.006898 -658962.000000 0 1 0
4.022516 20.141428 -7.861291 21.992218 1.373676 1.936341 0.000701 -0.000762 -354670.000000 0 1 0
3.782316 19.209828 -9.047791 21.568169 1.376388 2.003688 -0.015726 0.002344 227940.000000 0 1 0
3.956616 19.884428 -10.271791 22.727846 1.374381 2.039744 -0.006712 0.003378 209553.000000 0 1 0
3.144016 19.144828 -11.173091 22.388551 1.408026 2.093303 -0.003623 -0.004918 80989.600000 0 1 0
3.416716 19.520928 -12.613391 23.491237 1.397523 2.137602 0.003802 -0.002778 132954.000000 0 1 0
3.316716 20.888628 -12.972491 24.811709 1.413330 2.120973 0.014802 -0.011480 -109031.000000 0 1 0
3.827216 21.142528 -14.251391 25.782866 1.391716 2.156453 0.026296 -0.009358 77583.300000 0 0 1
4.144016 22.638228 -14.377891 27.136433 1.389747 2.129205 0.022742 -0.007075 -125405.000000 0 0 1
3.019816 23.380328 -14.760891 27.814437 1.442347 2.130213 0.027470 -0.009002 -427701.000000 0 0 1
3.393716 24.688628 -15.156491 29.167874 1.434192 2.117214 0.015792 -0.000974 -119353.000000 0 0 1
2.200316 25.631728 -15.362391 29.963810 1.485163 2.109121 0.019341 0.000890 -312691.000000 0 0 1
1.426716 25.770328 -14.200391 29.458384 1.515490 2.073788 0.031442 -0.011682 -269141.000000 0 0 1
1.293616 27.155228 -13.848291 30.509916 1.523194 2.041928 0.019822 -0.002046 -738338.000000 0 0 1
0.321816 27.367228 -12.670891 30.159910 1.559038 2.004378 0.021457 -0.015655 -93533.000000 0 0 1
-1.063584 27.173028 -12.881091 30.090317 -1.531675 2.013165 0.015779 -0.020131 235409.000000 0 0 1
-1.567084 25.842928 -13.015991 28.978073 -1.510232 2.036629 0.015004 -0.014974 -203891.000000 0 0 1
-1.463884 24.919828 -11.840491 27.628572 -1.512120 2.013694 0.037152 -0.024511 -660901.000000 0 0 1
-2.386084 25.262728 -10.856791 27.600158 -1.476625 1.975079 0.037257 -0.017406 -311829.000000 0 0 1
-2.552284 24.152028 -10.042891 26.281063 -1.465511 1.962901 0.059156 -0.014727 543861.000000 0 0 1
-3.593684 24.319428 -8.850791 26.128253 -1.424088 1.916378 0.043910 -0.016669 554881.000000 0 0 1
-3.166184 24.974028 -7.665791 26.315226 -1.444690 1.866388 0.051916 -0.021206 -118352.000000 0 0 1
-2.667184 26.301028 -7.766891 27.553267 -1.469732 1.856556 0.048510 -0.022228 167558.000000 0 0 1
-2.208584 26.877228 -6.392191 27.715038 -1.488807 1.803531 0.039378 -0.017308 -453673.000000 0 0 1
-1.198284 26.197728 -5.745791 26.847177 -1.525088 1.786483 0.056931 -0.019767 -591325.000000 0 0 1
-1.016384 26.480628 -4.323691 26.850530 -1.532433 1.732529 0.052194 -0.019725 -636083.000000 0 0 1
-1.877884 25.625228 -3.419191 25.920448 -1.497644 1.703093 0.042850 -0.015314 142543.000000 0 0 1
-3.258284 25.871528 -3.648591 26.329918 -1.445515 1.709816 0.028155 -0.008491 465213.000000 0 0 1
-4.096884 25.451528 -2.554691 25.905427 -1.411197 1.669573 0.020675 0.000183 1074520.000000 0 0 1
-5.393784 24.632828 -2.963491 25.389986 -1.355231 1.687782 0.007759 0.000678 1270040.000000 0 0 1
-6.378984 25.576428 -3.433991 26.582652 -1.326374 1.700340 -0.003282 0.004741 384477.000000 0 0 1
-7.565084 24.985728 -3.957191 26.404099 -1.276794 1.721233 -0.001316 0.006744 626189.000000 0 0 1
-8.764084 25.954528 -3.914291 27.672520 -1.245147 1.712723 -0.010250 0.005071 300994.000000 0 0 1
-9.450184 26.069128 -2.663191 27.856740 -1.223025 1.666546 -0.010178 -0.001015 -686632.000000 0 0 1
-10.673884 26.698528 -2.671891 28.877018 -1.190468 1.663455 -0.008532 0.001986 -853441.000000 0 0 1
-11.325184 26.905328 -1.319291 29.221516 -1.172380 1.615960 0.004213 0.000271 -336799.000000 0 0 1
-11.694484 25.687428 -0.682591 28.232443 -1.143576 1.594976 0.016087 -0.008402 210217.000000 0 0 1
-10.619384 24.887928 -0.205091 27.059607 -1.167497 1.578376 0.016103 -0.009705 11337.600000 0 0 1
-11.045284 23.434728 0.109509 25.907465 -1.130354 1.566569 0.012696 -0.007788 -643003.000000 0 0 1
-11.892884 23.385828 1.174409 26.262461 -1.100331 1.526063 0.022945 -0.011063 -434815.000000 0 0 1
-12.416584 22.052628 1.360209 25.344430 -1.057994 1.517102 0.029793 -0.015682 -209586.000000 0 0 1
-13.365184 21.938428 2.564409 25.816641 -1.023630 1.471301 0.032350 -0.020801 -332199.000000 0 0 1
-12.866184 21.915628 3.900909 25.710903 -1.039932 1.418486 0.039568 -0.022598 -49948.900000 0 0 1
-12.563384 23.221528 4.347209 26.757732 -1.074871 1.407607 0.029452 -0.019734 -134085.000000 0 0 1
-12.332784 23.197128 5.841909 26.913420 -1.082149 1.351992 0.030208 -0.017060 -703312.000000 0 0 1
-11.075384 22.726028 6.224009 26.036028 -1.117325 1.329405 0.027854 -0.019308 -254671.000000 0 0 1
-11.177784 22.417528 7.609409 26.179983 -1.108255 1.275882 0.021019 -0.019858 75393.300000 0 0 1
-9.810484 22.176628 8.275309 25.622825 -1.154298 1.241934 0.020459 -0.020623 -163415.000000 0 0 1
-9.052884 23.279328 8.678709 26.442424 -1.199912 1.236387 0.024743 -0.020271 206347.000000 0 0 1
-7.894484 23.019728 9.460109 26.109853 -1.240421 1.200041 0.030100 -0.017743 242485.000000 0 0 1
-8.085384 22.687028 10.978709 26.468976 -1.228442 1.143099 0.026762 -0.020008 -313312.000000 0 0 1
-8.931184 21.580628 11.179709 25.893540 -1.178406 1.124357 0.027055 -0.017621 -137424.000000 0 0 1
-8.574984 20.907328 12.365109 25.759321 -1.181577 1.070114 0.019684 -0.009490 -550779.000000 0 0 1
-9.636284 19.966228 12.888609 25.644190 -1.121142 1.044200 0.018573 -0.011215 -581859.000000 0 0 1
-10.009284 18.949228 11.979509 24.551327 -1.084832 1.061071 0.036378 -0.021396 -42672.800000 0 1 0
-10.533284 17.802528 12.612209 24.227007 -1.036522 1.023261 0.029794 -0.017073 -111787.000000 0 1 0
-10.766184 16.607128 11.663909 22.972901 -0.995626 1.038255 0.027835 -0.023278 -168214.000000 0 1 0
-11.288684 15.467428 12.297709 22.757622 -0.940326 0.999911 0.024852 -0.014876 7104.170000 0 1 0
-11.376384 14.392928 11.409009 21.604258 -0.901927 1.014446 0.012882 -0.014152 -117456.000000 0 1 0
-11.685684 13.076228 12.088109 21.299421 -0.841496 0.967291 0.005182 -0.011802 -429725.000000 0 1 0
-12.878884 12.978228 12.793909 22.315559 -0.789240 0.960247 0.020558 -0.011616 -489385.000000 0 1 0
-13.225084 11.674228 13.219609 22.044240 -0.723193 0.927688 0.014897 -0.006772 645022.000000 0 1 0
-14.118084 11.661428 14.545409 23.385425 -0.690390 0.899520 0.022477 -0.007358 328572.000000 0 1 0
-15.315084 12.375328 14.498009 24.451847 -0.679629 0.936115 0.029208 -0.010291 -647154.000000 0 1 0
-15.861784 12.525528 15.773309 25.637518 -0.668409 0.908102 0.029505 -0.005454 415688.000000 0 0 1
-16.985284 13.647728 15.726809 26.871786 -0.676873 0.945604 0.031383 -0.005864 388.736000 0 0 1
-18.143584 13.232428 15.078509 27.048997 -0.630132 0.979483 0.033732 -0.002563 -383836.000000 0 0 1
-19.003984 14.385228 14.963509 28.142366 -0.647940 1.010181 0.045527 -0.006313 -317446.000000 0 0 1
-20.253884 14.162728 14.144109 28.475577 -0.610229 1.050992 0.045274 -0.000236 -1251870.000000 0 0 1
-21.142484 13.350728 14.784509 29.048722 -0.563234 1.036825 0.039459 0.005770 -426401.000000 0 0 1
-22.426184 13.476828 14.173509 29.756461 -0.541112 1.074335 0.033608 0.009997 185690.000000 0 0 1
-23.386584 12.415928 14.734709 30.301802 -0.488061 1.062986 0.027298 0.009391 -145732.000000 0 0 1
-23.742784 12.597328 16.116109 31.339136 -0.487807 1.030665 0.023284 -0.000741 672364.000000 0 0 1
-24.762284 11.674828 16.560809 31.995823 -0.440569 1.026761 0.013530 0.003569 652330.000000 0 0 1
-25.755264 12.199728 17.622809 33.507169 -0.442370 1.016975 0.015405 0.000105 -263058.000000 0 0 1
-26.596334 13.202928 17.163709 34.296869 -0.460779 1.046683 0.021378 0.004792 54169.100000 0 0 1
-27.402924 13.698728 18.234209 35.651953 -0.463568 1.033924 0.023926 0.002627 288587.000000 0 0 1
-28.324424 14.907528 17.834409 36.641145 -0.484476 1.062452 0.017935 -0.001697 -386384.000000 0 0 1
-27.785374 16.148928 17.752809 36.714808 -0.526483 1.066110 0.011163 0.005494 -271806.000000 0 0 1
-28.708544 17.132928 17.262009 37.625718 -0.538055 1.094172 0.012402 0.002637 158381.000000 0 0 1
-28.088614 18.604328 17.233409 37.842855 -0.585004 1.097982 0.018278 -0.002914 -282893.000000 0 0 1
-27.751074 19.237228 18.444609 38.475923 -0.606152 1.070848 0.013863 -0.004853 -485823.000000 0 0 1
-28.713384 19.350928 19.432709 39.705755 -0.593017 1.059374 0.006163 -0.002432 -767757.000000 0 0 1
-28.012434 19.445028 20.822709 39.954859 -0.606794 1.022592 0.011380 -0.006590 803476.000000 0 0 1
-27.444094 18.249928 21.465809 39.332164 -0.586838 0.993504 0.014839 -0.001306 698752.000000 0 0 1
-26.376544 17.568328 20.772209 37.892649 -0.587582 0.990603 0.022218 0.001405 389964.000000 0 0 1
-25.846624 16.220328 21.402809 37.272339 -0.560439 0.959136 0.029402 -0.000136 309511.000000 0 0 1
-26.828184 15.216528 21.575809 37.640533 -0.515941 0.960382 0.003635 0.002014 16948.200000 0 0 1
-26.197184 14.005728 21.800009 36.846889 -0.490964 0.937708 0.011290 0.004320 -201368.000000 0 0 1
-27.186634 12.852528 22.092609 37.314661 -0.441612 0.937181 0.019745 0.005067 214208.000000 0 0 1
-28.074804 12.562028 21.015509 37.251185 -0.420730 0.971385 0.017713 0.006987 -45232.100000 0 0 1
-29.039264 11.611628 21.400409 37.895729 -0.380385 0.970705 0.035229 0.005325 -347969.000000 0 0 1
-30.001054 11.404828 20.187709 37.916711 -0.363276 1.009336 0.036610 0.002259 -322267.000000 0 0 1
-29.520704 10.845828 18.986609 36.736838 -0.352089 1.027655 0.047147 -0.000268 -13592.600000 0 0 1
-29.063854 9.487228 19.087809 36.042469 -0.315522 1.012677 0.044808 -0.000568 -117265.000000 0 0 1
-28.258984 9.146528 17.814809 34.635193 -0.313027 1.030540 0.039360 -0.005598 4624.170000 0 0 1
-29.037874 8.884528 16.635709 34.624843 -0.296919 1.069622 0.034020 0.001461 801104.000000 0 0 1
-29.739664 10.018828 16.069309 35.256875 -0.324943 1.097550 0.035930 0.003047 63314.700000 0 0 1
-28.797294 11.034028 15.385409 34.463673 -0.365907 1.108031 0.032393 0.001797 -136166.000000 0 0 1
-28.267314 10.502928 14.205909 33.334072 -0.355749 1.130544 0.023112 0.007155 610667.000000 0 0 1
-27.308544 11.409728 13.616709 32.578417 -0.395763 1.139590 0.012281 0.018034 289664.000000 0 0 1
-27.145194 11.241128 12.101009 31.775131 -0.392612 1.180100 0.031186 0.016846 -564192.000000 0 0 1
-26.461644 10.093028 11.729909 30.654177 -0.364388 1.178130 0.041488 0.015269 272970.000000 0 0 1
-27.317254 9.078228 11.244409 30.904422 -0.320843 1.198404 0.046407 0.018664 -609991.000000 0 0 1
-26.596104 7.982928 10.511609 29.691309 -0.291598 1.208920 0.050177 0.000186 -515490.000000 0 0 1
-26.201364 8.418028 9.221609 29.024347 -0.310865 1.247473 0.050706 0.000011 76157.400000 0 0 1
-25.543024 7.428828 8.510109 27.929474 -0.283028 1.261173 0.062785 -0.010265 -301432.000000 0 0 1
-24.901884 8.124928 7.259909 27.181327 -0.315387 1.300422 0.055555 -0.009797 -1049830.000000 0 0 1
-25.836894 8.626028 6.376309 27.975181 -0.322229 1.340848 0.046355 -0.009927 -258383.000000 0 0 1
-25.194494 9.126128 5.244409 27.304808 -0.347526 1.377526 0.047579 -0.011988 -419923.000000 0 0 1
-26.167694 9.354428 4.048209 28.082762 -0.343323 1.426140 0.034419 -0.007940 207929.000000 0 0 1
-26.902574 8.220228 3.578409 28.357109 -0.296546 1.444268 0.047731 -0.011878 664126.000000 0 0 1
-26.101104 7.047228 3.360909 27.243839 -0.263709 1.447117 0.049880 -0.012146 214573.000000 0 0 1
-25.074344 7.019228 2.176709 26.129109 -0.272950 1.487394 0.060196 -0.009345 102187.000000 0 0 1
-23.979484 7.874128 2.352309 25.348588 -0.317276 1.477864 0.050088 -0.010297 -241605.000000 0 0 1
-23.052684 7.841328 1.289609 24.383924 -0.327871 1.517884 0.052797 -0.004089 -108962.000000 0 1 0
-21.800784 8.653228 1.638409 23.512484 -0.377851 1.501057 0.038001 -0.006994 -151978.000000 0 1 0
-22.191684 10.050328 1.764009 24.425226 -0.425252 1.498513 0.038742 -0.008552 363659.000000 0 1 0
-21.070284 10.757128 2.161109 23.755906 -0.472040 1.479699 0.044653 -0.008719 -424993.000000 0 1 0
-21.535484 12.172228 2.600609 24.873749 -0.514451 1.466053 0.045089 -0.016388 -32276.500000 0 1 0
-20.420784 12.945828 2.965209 24.359707 -0.565012 1.448768 0.043363 -0.016421 300476.000000 0 1 0
-20.706984 14.125328 3.690309 25.336189 -0.598647 1.424623 0.042595 -0.026320 -259424.000000 0 0 1
-19.433084 14.511128 4.466409 24.661030 -0.641400 1.388679 0.013187 -0.018354 54249.900000 0 1 0
-19.095184 13.595928 5.434309 24.062565 -0.618740 1.342990 0.019669 -0.027625 325483.000000 0 1 0
-18.171784 14.157828 6.377809 23.902600 -0.661873 1.300699 0.021238 -0.024514 11657.000000 0 1 0
-17.688484 13.085928 7.409109 23.216780 -0.636941 1.245988 0.000310 -0.032738 -285932.000000 0 1 0
-16.981284 12.056928 6.773509 21.900090 -0.617414 1.256349 0.016791 -0.030582 595110.000000 0 1 0
-16.033184 11.551928 7.751309 21.227172 -0.624353 1.196992 -0.005762 -0.020582 -162844.000000 0 1 0
10.650016 -32.576297 -14.094991 37.058153 -1.254824 1.960969 0.024584 -0.013735 -539081.000000 0 0 1
11.987916 -32.907297 -13.865491 37.667654 -1.221445 1.947762 0.005558 -0.013515 -571817.000000 0 0 1
12.779716 -31.753997 -14.005691 36.983737 -1.188171 1.959186 0.002313 -0.017454 -183369.000000 0 0 1
14.198716 -32.028897 -13.453491 37.529324 -1.153520 1.937435 0.045044 -0.006563 -90748.000000 0 0 1
14.857616 -33.049397 -14.177191 38.910206 -1.148310 1.943738 0.027144 -0.001825 -1155060.000000 0 0 1
16.221316 -32.858697 -14.026091 39.237180 -1.112226 1.936353 0.044217 -0.004097 -640664.000000 0 0 1
17.070616 -34.021097 -14.558591 40.752834 -1.105737 1.936109 0.027661 -0.009049 50260.000000 0 0 1
16.990216 34.103928 -13.555991 40.441442 1.108598 1.912614 0.025037 -0.001290 -198019.000000 0 0 1
17.418016 32.841428 -14.005191 39.725206 1.083151 1.931093 0.018850 0.002192 -314175.000000 0 0 1
17.305716 31.715528 -12.984091 38.392045 1.071296 1.915797 0.018173 0.001323 -155607.000000 0 0 1
18.322716 31.721028 -12.010891 38.551356 1.046995 1.887626 0.012270 -0.005061 -266931.000000 0 0 1
18.163216 30.729628 -11.056791 37.369306 1.036972 1.871172 0.017611 -0.005580 12936.000000 0 0 1
19.243316 30.768228 -9.955391 37.631089 1.011889 1.838536 0.014221 0.001161 351328.000000 0 0 1
20.444116 30.128528 -10.346191 37.851469 0.974603 1.847656 0.015636 0.002782 -33870.900000 0 0 1
21.280316 29.837128 -9.259291 37.800007 0.951256 1.818269 0.013286 0.007852 -208744.000000 0 0 1
22.597216 29.122028 -9.571491 38.083331 0.910893 1.824851 -0.003595 0.009086 -555597.000000 0 0 1
23.530616 29.910228 -10.222791 39.405800 0.904213 1.833222 -0.006184 0.004827 -1158040.000000 0 0 1
24.770016 29.279528 -10.151991 39.672501 0.868638 1.829570 -0.013456 0.007935 -184802.000000 0 0 1
25.805716 29.914028 -11.151491 41.050454 0.858997 1.845907 -0.009280 0.005837 81144.400000 0 0 1
26.218716 31.193628 -10.687191 42.126945 0.871835 1.827290 -0.012590 -0.003109 170637.000000 0 0 1
27.226816 31.707828 -11.534591 43.355883 0.861286 1.840084 -0.017092 0.002913 197200.000000 0 0 1
27.740416 33.136628 -11.274591 44.661876 0.873808 1.826001 -0.013433 -0.006645 -627383.000000 0 0 1
26.905216 34.097928 -11.838791 45.019066 0.902764 1.836899 -0.000460 -0.008160 -131162.000000 0 0 1
27.264016 -33.657297 -11.470991 44.807631 -0.889959 1.829684 0.009771 -0.013463 -14708.000000 0 0 1
26.211316 -32.597397 -11.870491 43.480247 -0.893565 1.847316 0.009600 -0.012090 15109.300000 0 0 1
24.965616 -32.764397 -11.228891 42.695148 -0.919676 1.836928 0.013480 -0.008854 87699.700000 0 0 1
23.875216 -31.933897 -11.601791 41.525911 -0.928804 1.853952 0.013287 -0.009249 336878.000000 0 0 1
24.047816 -30.448097 -11.148191 40.369124 -0.902308 1.850589 0.026118 -0.020390 -613930.000000 0 0 1
25.005516 -29.730397 -11.890391 40.627007 -0.871506 1.867816 0.009666 -0.015072 -278943.000000 0 0 1
25.347916 -28.517297 -11.212891 39.767851 -0.844170 1.856631 0.001847 -0.017815 40575.100000 0 0 1
26.318316 -27.711997 -12.123391 40.094702 -0.811187 1.877973 -0.001082 -0.004821 1029080.000000 0 0 1
27.596616 -28.284697 -12.443191 41.429824 -0.797711 1.875849 -0.006430 -0.003290 687252.000000 0 0 1
27.491116 -29.185197 -13.533791 42.316671 -0.815280 1.896338 0.002236 -0.008104 -1038930.000000 0 0 1
28.785016 -29.866597 -13.914491 43.751615 -0.803837 1.894451 0.011848 -0.004180 -546806.000000 0 0 1
29.232916 -30.840597 -12.978791 44.431462 -0.812154 1.867227 0.010463 -0.004383 -262950.000000 0 0 1
30.282916 -31.600597 -13.495391 45.801510 -0.806688 1.869885 0.012587 -0.014802 -515414.000000 0 0 1
30.905616 -32.529197 -12.460091 46.567796 -0.810987 1.841665 0.017314 -0.012544 461773.000000 0 0 1
32.092716 -33.118297 -13.026091 47.921217 -0.801124 1.846083 0.007565 -0.015549 971270.000000 0 0 1
32.957116 -33.916397 -12.199991 48.839873 -0.799742 1.823266 0.009707 -0.010893 279050.000000 0 0 1
32.338616 34.027628 -11.448791 48.319151 0.810843 1.810012 0.005033 -0.009000 -367600.000000 0 0 1
31.698816 34.300528 -10.237391 47.813652 0.824798 1.786577 0.000730 -0.014723 -257763.000000 0 0 1
30.968916 33.206228 -9.748091 46.440850 0.820247 1.782272 -0.010958 -0.004606 -318679.000000 0 0 1
30.277016 33.524728 -8.362691 45.940610 0.836257 1.753850 -0.019525 -0.008811 337875.000000 0 0 1
29.286516 34.532228 -8.478191 46.065763 0.867411 1.755897 -0.011641 -0.015877 -283773.000000 0 0 1
28.624216 -34.208897 -7.301091 45.198454 -0.874046 1.733041 -0.006276 -0.012720 282367.000000 0 0 1
27.633716 -33.031197 -7.513991 43.716613 -0.874137 1.743534 0.000908 -0.013769 -301450.000000 0 0 1
28.188316 -31.775997 -7.833491 43.193271 -0.845157 1.753165 0.002415 -0.020487 -83776.600000 0 0 1
27.328816 -30.803897 -8.451591 42.037764 -0.845106 1.773224 0.002401 -0.011185 519196.000000 0 0 1
26.174516 -30.223497 -7.568391 40.692082 -0.857068 1.757877 0.008124 -0.015258 566492.000000 0 0 1
25.377316 -29.213797 -8.160291 39.548002 -0.855559 1.778628 0.013440 -0.017349 218921.000000 0 0 1
24.338716 -28.787797 -7.282891 38.394672 -0.868948 1.761638 0.020142 -0.024550 280973.000000 0 0 1
23.421816 -27.722197 -7.978091 37.158466 -0.869285 1.787186 0.043254 -0.029228 -758389.000000 0 0 1
22.557716 -28.401597 -8.788691 37.319463 -0.899577 1.808528 0.053875 -0.029308 -84082.700000 0 0 1
21.667916 -27.546297 -9.540691 36.322470 -0.904280 1.836581 0.062939 -0.025416 148697.000000 0 0 1
20.519916 -28.334597 -10.170691 36.432942 -0.944013 1.853718 0.051543 -0.010095 -357883.000000 0 0 1
20.905816 -29.204297 -11.233491 37.631575 -0.949514 1.873930 0.051487 -0.009642 -110676.000000 0 0 1
19.874916 -30.056497 -11.700391 37.885412 -0.986552 1.884766 0.044211 -0.005226 222424.000000 0 0 1
19.543116 -31.303297 -10.827291 38.458549 -1.012690 1.856186 0.037921 -0.009414 -191406.000000 0 0 1
20.528716 -32.277897 -10.983791 39.798674 -1.004327 1.850409 0.030310 -0.006312 -376414.000000 0 0 1
20.212116 -33.567497 -10.384791 40.535791 -1.028810 1.829873 0.023067 -0.010467 197727.000000 0 0 1
21.262016 34.420628 -10.651691 41.836724 1.017455 1.828232 0.008118 -0.003490 -69790.300000 0 0 1
22.297316 34.470528 -9.737391 42.192468 0.996638 1.803681 0.010898 -0.002351 -924108.000000 0 0 1
23.306616 33.523428 -9.950191 42.024098 0.963276 1.809840 0.013482 -0.004832 349752.000000 0 0 1
24.651916 33.940528 -9.246491 42.955488 0.942619 1.787752 0.012908 -0.008184 230735.000000 0 0 1
24.821316 33.587928 -7.881791 42.501403 0.934376 1.757324 0.005653 -0.011456 128151.000000 0 0 1
25.180716 32.206228 -7.781591 41.615655 0.907216 1.758891 -0.001265 0.001492 -363760.000000 0 0 1
25.142916 31.840328 -6.246491 41.048646 0.902394 1.723563 -0.003869 0.002371 -117437.000000 0 0 1
26.085916 32.635828 -5.477291 42.137548 0.896481 1.701151 -0.004855 -0.007899 36202.600000 0 0 1
27.162416 31.888828 -5.010791 42.187702 0.865267 1.689851 -0.008361 -0.002850 -561314.000000 0 0 1
26.919116 30.860328 -3.909291 41.137345 0.853504 1.665970 -0.001491 0.015558 -597457.000000 0 0 1
26.413616 31.394628 -2.717591 41.117965 0.871350 1.636937 -0.006815 0.011507 -101809.000000 0 0 1
26.346816 30.406228 -1.690191 40.268476 0.856804 1.612782 -0.006082 0.022404 371768.000000 0 0 1
25.171516 29.353128 -1.620691 38.701912 0.861940 1.612685 -0.004883 0.026853 -227939.000000 0 0 1
23.975616 29.963528 -1.269691 38.396032 0.895958 1.603871 -0.009794 0.025419 -483464.000000 0 0 1
22.936116 28.954728 -1.290291 36.960878 0.900868 1.605713 0.001852 0.022270 852447.000000 0 0 1
21.627216 29.462928 -0.626791 36.553980 0.937583 1.587944 0.016486 0.009705 191729.000000 0 0 1
21.780816 29.547328 0.791309 36.716137 0.935570 1.549243 0.029637 0.005137 550992.000000 0 0 1
20.631816 30.152628 1.401509 36.562508 0.970722 1.532455 0.016839 0.004168 374280.000000 0 0 1
19.911216 29.204028 2.367709 35.425101 0.972392 1.503909 0.036274 -0.013613 -351884.000000 0 0 1
19.331716 28.032528 1.838709 34.101594 0.967073 1.516852 0.050773 -0.010281 206825.000000 0 0 1
18.713116 27.277828 2.849909 33.202147 0.969515 1.484855 0.078191 -0.021268 -79398.900000 0 0 1
18.103516 25.996728 2.255909 31.759349 0.962506 1.499705 0.066883 -0.016106 48724.900000 0 0 1
19.121216 25.093128 1.902009 31.605436 0.919653 1.510580 0.065621 -0.013270 46134.900000 0 0 1
19.751816 24.410928 2.965409 31.540787 0.890508 1.476639 0.058649 -0.006647 -839503.000000 0 0 1
21.040116 23.786128 2.493409 31.854096 0.846581 1.492440 0.040167 0.000948 -1026090.000000 0 0 1
20.781816 22.753028 1.558509 30.854709 0.830646 1.520264 0.040618 0.006673 204839.000000 0 0 1
21.972616 22.225628 1.016409 31.269913 0.791123 1.538286 0.026247 0.008445 -19849.500000 0 0 1
21.712916 21.115228 0.000609 30.287020 0.771444 1.570776 0.038558 0.003991 -32579.000000 0 0 1
21.466416 21.601028 -1.297591 30.481062 0.788524 1.613380 0.022215 0.006031 902850.000000 0 0 1
22.160616 20.684528 -2.242691 30.396912 0.750960 1.644644 0.035612 -0.005086 656123.000000 0 0 1
21.914616 21.132028 -3.679891 30.665201 0.767220 1.691088 0.028116 -0.001230 54814.800000 0 0 1
22.430416 22.436328 -3.896091 31.963915 0.785530 1.692990 0.026097 0.000672 107578.000000 0 0 1
22.022616 23.028328 -5.105991 32.270275 0.807718 1.729690 0.034805 -0.002762 -245909.000000 0 0 1
22.855916 24.271328 -5.499191 33.789515 0.815423 1.734272 0.022420 0.008051 -201656.000000 0 0 1
22.687616 25.446828 -4.742791 34.420387 0.842659 1.709026 0.003854 0.014746 -79130.900000 0 0 1
23.226416 25.508128 -3.426391 34.668013 0.832183 1.669792 0.011112 0.015399 111533.000000 0 0 1
22.226716 25.222428 -2.245991 33.693356 0.848450 1.637506 0.011905 0.015110 -807635.000000 0 0 1
21.195016 26.229328 -2.150191 33.790970 0.891157 1.634471 0.026704 0.009316 1173470.000000 0 0 1
20.069516 25.855928 -1.358291 32.759112 0.910733 1.612271 0.048495 0.003200 103353.000000 0 0 1
19.306116 24.628928 -1.812591 31.346382 0.905962 1.628653 0.080064 -0.010521 -1894300.000000 0 0 1
18.660916 24.874628 -3.043791 31.244864 0.927168 1.668368 0.067608 -0.013108 188702.000000 0 0 1
17.941816 23.740628 -3.539291 29.967528 0.923630 1.689177 0.086534 -0.020198 36592.600000 0 0 1
17.198916 24.143328 -4.801791 30.029322 0.951818 1.731389 0.074558 -0.017781 -295593.000000 0 0 1
16.588716 23.008128 -5.409491 28.875977 0.946119 1.759245 0.069833 -0.015796 112626.000000 0 0 1
15.964616 23.277328 -6.660291 29.001076 0.969634 1.802521 0.066033 -0.013584 13306.800000 0 0 1
15.033416 22.198428 -7.161091 27.749865 0.975517 1.831809 0.059381 -0.008841 -463142.000000 0 0 1
15.781216 21.080728 -7.552491 27.394963 0.928186 1.850103 0.062207 -0.010495 227358.000000 0 0 1
14.951516 20.163928 -8.228191 26.416566 0.932759 1.887545 0.048560 -0.007411 -62506.300000 0 0 1
15.690016 18.901128 -8.720991 26.066931 0.877963 1.911936 0.043854 -0.001968 269276.000000 0 0 1
16.801616 19.191328 -9.579391 27.246396 0.851695 1.930059 0.045089 -0.001973 680176.000000 0 0 1
17.403016 17.991328 -10.025791 26.964223 0.802018 1.951763 0.034869 0.002785 728617.000000 0 0 1
18.831416 18.118928 -10.684091 28.232385 0.766118 1.958900 0.026188 -0.000440 807767.000000 0 0 1
18.816616 18.673728 -11.974691 29.088939 0.781587 1.995069 0.027997 0.000256 473460.000000 0 0 1
20.186916 18.968728 -12.216891 30.275017 0.754297 1.986168 0.028536 0.000808 444540.000000 0 0 1
20.436616 19.404228 -13.683791 31.327711 0.759491 2.022829 0.027021 -0.006868 -117544.000000 0 0 1
20.285316 18.267628 -14.529491 30.924204 0.733110 2.059908 0.028814 -0.001104 268452.000000 0 0 1
20.266616 18.784128 -15.904291 31.882999 0.747453 2.093048 0.025833 -0.001752 -22091.300000 0 0 1
20.315216 17.641228 -16.967491 31.809066 0.715066 2.133431 0.027532 0.003935 -465886.000000 0 0 1
21.527416 16.917628 -16.898191 32.174285 0.666062 2.123756 0.033823 0.000219 -43714.100000 0 0 1
21.726316 15.985228 -17.947291 32.398543 0.634321 2.157902 0.033552 -0.006293 -193275.000000 0 0 1
22.477816 16.566828 -19.226091 33.902132 0.635149 2.173784 0.023847 -0.007379 -1078480.000000 0 0 1
23.785616 16.850428 -18.885391 34.732556 0.616361 2.145680 0.029067 -0.005797 -758931.000000 0 0 1
24.452916 17.528428 -19.959291 36.104905 0.621928 2.156534 0.043026 -0.012158 -960359.000000 0 0 1
25.924716 17.597828 -19.644391 36.982111 0.596359 2.130796 0.039145 -0.014172 -1012250.000000 0 0 1
26.150516 18.626328 -18.684591 37.147052 0.618916 2.097851 0.030417 -0.009825 189800.000000 0 0 1
27.533516 18.776628 -18.397191 38.067215 0.598513 2.075196 0.039645 -0.018997 216660.000000 0 0 1
27.882216 19.977828 -17.502091 38.507853 0.621719 2.042615 0.045260 -0.018431 -230513.000000 0 0 1
27.382416 19.858728 -16.201091 37.505215 0.627463 2.017471 0.042492 -0.016753 -354747.000000 0 0 1
26.130516 20.491528 -16.116591 36.911395 0.665032 2.022645 0.021744 -0.017745 -579055.000000 0 0 1
25.195416 19.882728 -15.089791 35.465950 0.668084 2.010280 0.032176 -0.016119 -30022.000000 0 0 1
25.706116 19.994428 -13.725791 35.340895 0.661062 1.969672 0.027655 -0.015576 249011.000000 0 0 1
24.600216 19.697328 -12.909291 34.055912 0.675166 1.959578 0.034829 -0.015167 74287.800000 0 0 1
24.830516 19.970528 -11.430191 33.853002 0.677341 1.915207 0.034697 -0.011452 -249623.000000 0 0 1
24.629416 21.370528 -11.231991 34.488624 0.714671 1.902519 0.029371 -0.011343 48078.100000 0 0 1
25.016816 21.964828 -10.003791 34.761625 0.720528 1.862707 0.013021 -0.008799 -305751.000000 0 0 1
24.265516 21.544328 -8.777891 33.615840 0.726066 1.834982 0.016628 -0.005348 -878257.000000 0 0 1
24.602416 20.215728 -8.344091 32.917752 0.687831 1.827076 0.031206 -0.004642 157139.000000 0 0 1
23.899216 19.786828 -7.194191 31.850392 0.691540 1.798637 0.030433 -0.004265 361656.000000 0 0 1
22.379216 19.488328 -7.391191 30.581922 0.716459 1.814898 0.026155 -0.004753 99406.500000 0 0 1
21.601716 20.642528 -7.550091 30.818046 0.762696 1.818305 0.025106 -0.000021 -118652.000000 0 0 1
20.265716 20.394428 -7.966691 29.834545 0.788564 1.841105 0.030648 -0.006456 669049.000000 0 0 1
19.506916 21.814628 -8.038891 30.348336 0.841188 1.838883 0.044255 -0.005930 -133910.000000 0 0 1
19.836916 22.593128 -9.181791 31.436570 0.850266 1.867191 0.034956 -0.004430 221068.000000 0 0 1
19.164816 22.212028 -10.387891 31.121899 0.858911 1.911108 0.032857 0.001694 -3361.580000 0 0 1
17.657216 22.505128 -10.469791 30.461034 0.905525 1.921662 0.029096 0.004381 -443274.000000 0 0 1
17.410116 23.870628 -10.190491 31.253242 0.940641 1.902931 0.031665 -0.002464 2210960.000000 0 0 1
15.971316 24.240328 -10.260991 30.789030 0.988208 1.910564 0.031681 0.006138 2479490.000000 0 0 1
15.665216 25.582328 -9.529491 31.474842 1.021349 1.878389 0.040823 -0.007133 62306.400000 0 0 1
16.067316 26.749528 -10.191591 32.826276 1.029893 1.886484 0.033405 0.004352 -31984.400000 0 0 1
16.385116 27.793728 -9.264691 33.567809 1.038114 1.850426 0.050233 -0.019494 110055.000000 0 0 1
19.535816 29.475828 33.874245 48.968735 0.985493 0.806883 0.008343 -0.004511 -16338.300000 0 0 1
18.173116 29.802028 33.815597 48.599564 1.023206 0.801263 0.018318 -0.013659 -279932.000000 0 0 1
17.341316 28.740728 34.268045 47.969257 1.027902 0.775066 0.014276 -0.013952 -99400.500000 0 0 1
15.853816 29.099328 34.125128 47.567202 1.071941 0.770721 0.018098 -0.015033 -255832.000000 0 0 1
15.389116 29.240828 32.793703 46.554031 1.086340 0.789187 0.021450 -0.013673 766183.000000 0 0 1
14.092416 29.886328 32.777313 46.541820 1.130180 0.789423 0.027807 -0.013307 954191.000000 0 0 1
13.478516 29.913428 31.345773 45.376657 1.147457 0.808214 0.029073 -0.018599 95038.100000 0 0 1
12.928716 28.716628 30.812553 44.059163 1.147762 0.796316 0.018605 -0.016596 387832.000000 0 0 1
11.534916 28.555228 31.048053 43.731418 1.186888 0.781339 0.007844 -0.005519 144742.000000 0 0 1
11.021016 27.102928 30.834523 42.506462 1.184583 0.759170 -0.014920 0.002216 -96259.500000 0 0 1
11.099016 26.527428 29.558733 41.238468 1.174531 0.771629 -0.014353 0.008109 428529.000000 0 0 1
12.457116 26.224028 29.274703 41.229693 1.127326 0.781242 -0.006701 -0.000157 79030.900000 0 0 1
12.557316 25.317028 28.043593 39.813078 1.110352 0.789245 0.017135 0.000560 -187119.000000 0 0 1
12.138216 25.960428 26.858103 39.276428 1.133431 0.817808 0.015612 0.000990 100087.000000 0 0 1
12.385016 25.277728 25.667213 38.094067 1.115215 0.831477 0.024653 -0.001850 -24766.400000 0 0 1
11.598016 23.953528 25.367463 36.766746 1.119878 0.809367 0.020286 0.002979 -169258.000000 0 0 1
11.850016 23.503928 24.048093 35.653447 1.103817 0.830515 0.029718 -0.007178 -141734.000000 0 0 1
10.941516 22.493328 23.815183 34.537364 1.118060 0.809931 0.027353 -0.005882 -255599.000000 0 0 1
11.018716 22.052228 22.365983 33.285883 1.107417 0.833977 0.036514 -0.000862 41609.400000 0 0 1
10.450716 23.029328 21.535683 33.216758 1.144787 0.865397 0.030828 -0.000478 53779.900000 0 0 1
10.668916 22.753028 20.157183 32.215494 1.132336 0.894770 0.034383 0.003874 -619914.000000 0 0 1
10.284916 23.960828 19.113483 32.329955 1.165341 0.938250 0.028761 0.002667 1315730.000000 0 0 1
8.869916 24.198528 18.920183 31.972136 1.219456 0.937542 0.040115 -0.004592 861278.000000 0 0 1
8.165416 24.596728 20.070083 32.779281 1.250272 0.911856 0.039570 -0.002992 -907114.000000 0 0 1
6.848616 25.257028 19.640583 32.719619 1.306007 0.926959 0.039495 -0.006006 -511659.000000 0 0 1
6.968416 26.381028 18.772683 33.119950 1.312550 0.968169 0.033220 -0.011476 231039.000000 0 0 1
5.730016 27.051928 18.530483 33.286914 1.362066 0.980401 0.027809 -0.012441 -40212.200000 0 0 1
5.905216 28.245628 17.531083 33.764270 1.364698 1.024858 0.030692 -0.008579 115620.000000 0 0 1
6.078216 27.855328 16.156783 32.770499 1.355957 1.055229 0.028551 -0.005165 -65484.100000 0 0 1
6.854016 28.772528 15.432683 33.361708 1.336941 1.089886 0.021496 -0.000594 -223348.000000 0 0 1
7.476616 28.146928 14.159783 32.382847 1.311164 1.118245 0.020136 -0.001481 187369.000000 0 0 1
6.568416 27.936828 13.096983 31.545862 1.339874 1.142664 0.021349 -0.007082 91671.500000 0 0 1
7.087816 26.933528 12.281183 30.438126 1.313471 1.155479 0.018306 -0.015724 -259030.000000 0 0 1
6.318916 27.017828 10.976983 29.839334 1.341046 1.194079 0.009829 -0.013566 -455657.000000 0 0 1
6.716216 27.854428 9.919183 30.321063 1.334194 1.237523 0.003425 -0.007514 -97601.600000 0 0 1
6.685516 29.223528 10.231883 31.676523 1.345895 1.241886 0.003077 -0.005151 -135473.000000 0 0 1
6.741016 30.049628 8.925483 32.063775 1.350120 1.288703 -0.004817 0.004063 -12957.300000 0 0 1
5.629216 29.788228 8.103983 31.379948 1.384024 1.309582 -0.007091 0.003029 98406.300000 0 0 1
6.094716 29.057428 6.958383 30.494241 1.364046 1.340581 -0.000390 0.005225 489758.000000 0 0 1
4.899716 28.318428 6.279683 29.417257 1.399470 1.355672 0.005450 0.011577 548143.000000 0 0 1
4.020316 29.267428 5.722383 30.091376 1.434286 1.379464 -0.004808 0.001179 -178798.000000 0 0 1
2.649216 28.925228 5.801083 29.619921 1.479463 1.373671 0.019030 -0.005190 804004.000000 0 0 1
1.765516 29.953428 4.950183 30.411004 1.511922 1.407293 0.026904 -0.008903 -122294.000000 0 0 1
2.104716 29.933528 3.559183 30.217771 1.500599 1.452738 0.018147 -0.011076 273240.000000 0 0 1
1.298816 30.907428 2.914683 31.071714 1.528798 1.476853 0.016887 -0.017775 51788.600000 0 0 1
-0.135284 30.453028 2.628383 30.566544 -1.566354 1.484701 0.028969 -0.005660 -773000.000000 0 0 1
-0.150584 29.730128 1.375083 29.762292 -1.565731 1.524578 0.036931 -0.005472 -765536.000000 0 0 1
-1.200384 28.844028 1.413983 28.903602 -1.529204 1.521856 0.039328 0.001172 -589415.000000 0 0 1
-1.711084 28.365728 0.019583 28.417296 -1.510547 1.570107 0.038156 -0.003060 28153.900000 0 0 1
-2.319684 29.447028 -0.676317 29.545994 -1.492184 1.593689 0.042297 -0.012791 44213.100000 0 0 1
-1.792484 29.606628 -2.002817 29.728382 -1.510327 1.638218 0.042172 -0.012014 -295665.000000 0 0 1
-2.520484 30.665028 -2.895117 30.904344 -1.488787 1.664614 0.037708 -0.012381 526730.000000 0 0 1
-3.840084 30.330828 -3.306517 30.751234 -1.444860 1.678529 0.016826 -0.011918 368264.000000 0 0 1
-3.835684 29.335228 -4.326117 29.899554 -1.440780 1.715994 0.010339 -0.011272 -596451.000000 0 0 1
-5.208584 29.233228 -5.006717 30.112758 -1.394473 1.737838 0.013659 -0.007989 -169385.000000 0 0 1
-5.598184 30.371628 -5.714217 31.407447 -1.388519 1.753754 0.011667 -0.008692 -25183.600000 0 0 1
-6.803784 30.121328 -6.403517 31.537135 -1.348645 1.775265 0.005242 -0.007436 -124544.000000 0 0 1
-7.468984 31.243928 -7.235817 32.929102 -1.336146 1.792344 0.008258 -0.016691 -409901.000000 0 0 1
-8.205284 32.146028 -6.480317 33.803673 -1.320882 1.763695 -0.004789 -0.001314 -272658.000000 0 0 1
-8.498284 33.281428 -7.277617 35.111793 -1.320792 1.779580 -0.002356 -0.013555 -353217.000000 0 0 1
-9.474684 34.284128 -6.642317 36.184132 -1.301168 1.755413 -0.005699 -0.005946 201669.000000 0 0 1
-10.768684 33.710628 -6.613217 36.001467 -1.261597 1.755538 0.000584 -0.003889 -104453.000000 0 0 1
-11.713284 34.494428 -5.894317 36.902704 -1.243443 1.731209 0.008105 -0.003977 -3570.120000 0 0 1
-13.189484 34.167228 -6.085617 37.126765 -1.202393 1.735454 0.018601 -0.004412 -327183.000000 0 0 1
-13.562384 34.300328 -7.438617 37.626902 -1.194261 1.769801 0.025361 -0.007172 -460741.000000 0 0 1
-14.897684 33.967528 -7.693417 37.880372 -1.157475 1.775317 0.038933 -0.010624 -691464.000000 0 0 1
-15.270184 34.433828 -9.121717 38.756583 -1.153391 1.808384 0.044803 -0.013420 444617.000000 0 0 1
-16.588484 34.245628 -9.620317 39.249093 -1.119709 1.818429 0.055214 -0.016701 711284.000000 0 0 1
-17.610784 -34.011097 -9.107517 39.368024 1.093014 1.804254 0.054039 -0.018688 576741.000000 0 0 1
-19.067584 34.532628 -9.228817 40.512297 -1.066295 1.800617 0.052886 -0.018104 532786.000000 0 0 1
-19.544084 33.508028 -8.380117 39.686087 -1.042772 1.783558 0.049145 -0.023183 -39140.000000 0 0 1
-19.759084 33.945228 -7.081917 39.910568 -1.043652 1.749186 0.053229 -0.021702 -404389.000000 0 0 1
-20.162484 32.702328 -6.177417 38.911804 -1.018300 1.730225 0.045158 -0.020261 -370621.000000 0 0 1
-19.919184 32.898728 -4.771917 38.753985 -1.026365 1.694243 0.043684 -0.024436 -4715.640000 0 0 1
-21.098384 33.030128 -4.017117 39.398837 -1.002362 1.672934 0.048219 -0.022252 -453545.000000 0 0 1
-21.909984 34.273228 -4.086617 40.882783 -1.001998 1.670923 0.038117 -0.022875 -675270.000000 0 0 1
-22.438984 -34.546697 -5.358017 41.541432 0.994754 1.700137 0.039708 -0.029934 41657.300000 0 0 1
-22.986584 -33.210297 -5.365117 40.744218 0.965357 1.702858 0.041310 -0.028432 34738.200000 0 0 1
-23.455384 -32.658597 -6.727117 40.767549 0.947960 1.736566 0.041785 -0.019201 -457313.000000 0 0 1
-22.417784 -32.338197 -7.611717 40.078102 0.964629 1.761879 0.049925 -0.010834 -420012.000000 0 0 1
-22.653884 -32.507997 -9.000817 40.632290 0.962173 1.794168 0.039491 -0.007106 67550.800000 0 0 1
-23.909884 -31.930497 -9.725717 41.058845 0.928057 1.809942 0.025012 -0.005608 -433012.000000 0 0 1
-25.074644 -32.604197 -9.327517 42.175514 0.915207 1.793800 0.019447 0.000485 83940.900000 0 0 1
-26.252984 -32.156397 -10.007517 42.701328 0.886126 1.807357 0.015302 -0.000520 994794.000000 0 0 1
-26.853624 -30.676697 -9.776617 41.925638 0.851754 1.806153 0.016673 0.008087 -545260.000000 0 0 1
-26.119734 -29.663297 -10.400517 40.869578 0.848837 1.828107 0.019962 0.011915 -324691.000000 0 0 1
-26.334924 -29.470497 -11.796117 41.245446 0.841527 1.860844 0.009403 0.006502 -334679.000000 0 0 1
-25.382744 -28.447297 -12.429117 40.100067 0.842267 1.885939 0.030345 0.005896 -149318.000000 0 0 1
-24.090984 -29.007997 -12.561817 39.744668 0.877736 1.892373 0.019927 -0.004582 -338588.000000 0 0 1
-23.316884 -28.390097 -13.537517 39.152765 0.883200 1.923846 0.019344 -0.004158 507662.000000 0 0 1
-21.885184 -29.045897 -13.653817 38.846520 0.925079 1.929949 0.023605 -0.008337 417268.000000 0 0 1
-21.698584 -30.265397 -14.395817 39.925710 0.948789 1.939670 0.026234 -0.010747 -175198.000000 0 0 1
-22.366884 -31.356197 -13.834417 40.925294 0.951189 1.915631 0.024346 -0.016506 -252053.000000 0 0 1
-22.288884 -32.675097 -14.647117 42.178126 0.972160 1.925453 0.020641 -0.010886 249439.000000 0 0 1
-23.052384 -33.665997 -13.963017 43.125139 0.970387 1.900517 0.018690 -0.014961 101501.000000 0 0 1
-23.022884 34.185328 -14.658217 43.744178 -0.978097 1.912497 0.026785 -0.015658 425312.000000 0 0 1
-23.794984 33.048128 -13.838517 43.010284 -0.946767 1.898372 0.023358 -0.008621 426260.000000 0 0 1
-23.085284 32.609028 -12.659917 41.911246 -0.954760 1.877654 0.030108 -0.006607 238579.000000 0 0 1
-22.970084 33.535628 -11.536217 42.253371 -0.970246 1.847332 0.044324 -0.014651 238765.000000 0 0 1
-22.222284 32.929328 -10.310617 41.042409 -0.977151 1.824735 0.047755 -0.021995 292549.000000 0 0 1
-22.989684 31.860628 -9.717917 40.472992 -0.945740 1.813274 0.047061 -0.015972 2802.690000 0 0 1
-22.233284 31.098128 -8.810617 39.230593 -0.950114 1.797314 0.035882 -0.013524 -321326.000000 0 0 1
-22.984684 30.060028 -7.944917 38.665523 -0.918000 1.777749 0.037095 -0.008296 -238920.000000 0 0 1
-23.526984 28.927528 -8.606417 38.267365 -0.887993 1.797639 0.036148 -0.001320 87491.300000 0 0 1
-23.985984 27.918328 -7.756417 37.615455 -0.861015 1.778489 0.039533 0.003401 -727811.000000 0 0 1
-22.979284 27.232228 -6.806817 36.276363 -0.869897 1.759553 0.037299 0.007975 243874.000000 0 0 1
-22.318184 28.142428 -5.870917 36.394577 -0.900311 1.732817 0.041452 0.005906 664194.000000 0 0 1
-21.430084 27.444128 -5.010117 35.178544 -0.907834 1.713702 0.033418 -0.006430 182864.000000 0 0 1
-20.006884 28.017628 -4.797617 34.760322 -0.950682 1.709258 0.041497 -0.009272 414079.000000 0 0 1
-19.209384 27.841128 -5.992517 34.351697 -0.966838 1.746139 0.049779 -0.003349 466714.000000 0 0 1
-18.046384 28.660628 -5.850217 34.370461 -1.008855 1.741840 0.035055 -0.002981 387703.000000 0 0 1
-17.026284 28.528328 -7.020017 33.956450 -1.032718 1.779034 0.037273 0.001941 -172569.000000 0 0 1
-17.321784 29.067828 -8.303017 34.841396 -1.033390 1.811421 0.042173 -0.001153 -84319.500000 0 0 1
-17.579384 30.462628 -8.387217 36.157321 -1.047400 1.804893 0.042889 -0.003550 -63599.200000 0 0 1
-17.589384 31.035828 -9.763917 36.985715 -1.055188 1.837955 0.055200 -0.008243 777471.000000 0 0 1
-16.279884 31.261728 -10.331317 36.729639 -1.090678 1.855924 0.045989 -0.002575 785465.000000 0 0 1
-16.280884 31.666428 -11.709017 37.482408 -1.095903 1.888501 0.064385 -0.009710 -308090.000000 0 0 1
-14.902884 32.198528 -12.149317 37.502627 -1.137313 1.900708 0.059793 -0.011242 22501.900000 0 0 1
-14.798684 32.769228 -13.483117 38.400752 -1.146610 1.929559 0.060695 -0.014562 -241910.000000 0 0 1
-15.055884 31.814928 -14.524317 38.076568 -1.128790 1.962161 0.066439 -0.014682 -158831.000000 0 0 1
-14.574484 32.264428 -15.906317 38.812624 -1.146513 1.993057 0.076379 -0.017031 48367.900000 0 0 1
-13.179184 32.211928 -16.030117 38.317931 -1.182436 2.002419 0.061321 -0.022772 -467417.000000 0 0 1
-12.572384 32.778028 -17.174317 39.082235 -1.204541 2.025772 0.056742 -0.025017 -794879.000000 0 0 1
-11.093284 32.500428 -17.221417 38.417652 -1.241869 2.035624 0.054337 -0.020889 -1316890.000000 0 0 1
-10.820284 31.135528 -17.276817 37.215427 -1.236331 2.053570 0.054020 -0.027558 -420532.000000 0 0 1
-9.541684 30.801528 -17.732717 36.799825 -1.270392 2.073583 0.048997 -0.023661 -312726.000000 0 0 1
-9.229984 30.970728 -19.270517 37.626206 -1.281154 2.108490 0.044376 -0.023656 78476.100000 0 0 1
-10.208184 30.285628 -20.061717 37.734583 -1.245692 2.131348 0.041738 -0.037639 583597.000000 0 0 1
-9.715884 30.114528 -21.359517 38.177377 -1.258708 2.164556 0.030162 -0.032554 72304.300000 0 0 1
-10.877784 29.733828 -22.368917 38.765902 -1.220082 2.185878 0.039021 -0.036641 1292990.000000 0 0 1
-11.800884 30.786828 -22.730817 40.047218 -1.204761 2.174385 0.052721 -0.038361 890842.000000 0 0 1
-12.778884 31.073428 -21.715117 40.005051 -1.180631 2.144575 0.052809 -0.037542 152335.000000 0 0 1
-13.602484 32.379328 -22.072917 41.480864 -1.173085 2.131902 0.061201 -0.032332 235576.000000 0 0 1
-14.397384 32.338228 -23.217917 42.333407 -1.151931 2.151310 0.044782 -0.029003 30269.900000 0 0 1
-15.235984 33.495728 -23.332517 43.571841 -1.143905 2.135890 0.037446 -0.022654 458084.000000 0 0 1
-15.623984 33.713028 -24.804017 44.675680 -1.136822 2.159402 0.026010 -0.017380 -487109.000000 0 0 1
-14.507684 33.974728 -25.592017 44.941143 -1.167221 2.176641 0.025174 -0.013710 -473848.000000 0 0 1
-14.688584 33.860628 -26.991717 45.725807 -1.161500 2.202221 0.026332 -0.008330 16230.000000 0 0 1
-15.150884 -33.971497 -27.786817 46.429722 1.151284 2.212387 0.016083 -0.004659 -44243.000000 0 0 1
-16.463584 -33.563997 -27.516017 46.418990 1.114767 2.205296 0.021741 -0.002900 -559921.000000 0 0 1
-16.795784 -32.448797 -28.223717 46.169264 1.093161 2.228511 0.022417 0.002016 -813537.000000 0 0 1
-18.237884 -32.103197 -27.932117 46.297287 1.054162 2.218455 0.047936 -0.011068 -767359.000000 0 0 1
-19.190184 -32.988097 -28.475217 47.616338 1.043919 2.211817 0.036459 -0.012778 146019.000000 0 0 1
-20.512584 -32.563997 -28.078117 47.639906 1.008670 2.201090 0.047344 -0.015555 726542.000000 0 0 1
-21.494184 -33.720197 -28.275217 48.974887 1.003310 2.186265 0.030180 -0.009211 -259867.000000 0 0 1
-21.364384 34.306428 -27.369917 48.810657 -1.013815 2.166071 0.042512 -0.013543 -400831.000000 0 0 1
-22.586384 33.622728 -27.413317 48.909330 -0.979276 2.165777 0.032510 -0.009109 -4579.760000 0 0 1
-22.468584 32.099428 -27.216017 47.706625 -0.960092 2.177895 0.040785 -0.008418 -68258.900000 0 0 1
-22.159384 31.753528 -25.875217 46.570932 -0.961511 2.159891 0.044777 -0.022083 -268682.000000 0 0 1
-22.512184 30.411228 -25.653217 45.713551 -0.933559 2.166599 0.039621 -0.017374 -318482.000000 0 0 1
30.175972 10.244128 -26.851961 41.672044 0.327272 2.270988 -0.003656 0.008386 -65447.900000 0 0 1
29.939602 8.901628 -26.560011 41.000646 0.288996 2.275483 -0.015265 0.010762 965962.000000 0 0 1
28.512312 8.738628 -26.420621 39.841747 0.297397 2.295801 -0.011330 0.008770 1005890.000000 0 0 1
28.198542 7.291128 -26.062481 39.084156 0.253023 2.300743 -0.017070 0.017681 80249.800000 0 0 1
28.737102 6.936728 -24.764291 38.564353 0.236855 2.268102 -0.025755 0.018685 568514.000000 0 0 1
28.184992 5.682028 -24.280291 37.632589 0.198931 2.272072 -0.021584 0.015024 93332.300000 0 0 1
28.135902 5.473928 -22.721391 36.576693 0.192153 2.241068 -0.014077 0.015800 263684.000000 0 0 1
29.447802 5.171628 -22.257291 37.273392 0.173847 2.210722 -0.012176 0.014199 566973.000000 0 0 1
29.362612 4.818328 -20.862891 36.340604 0.162648 2.182292 -0.002642 0.006972 184588.000000 0 0 1
30.687072 4.460528 -20.128391 36.969512 0.144344 2.146541 -0.006422 0.005843 51917.100000 0 0 1
31.165262 3.128528 -20.199191 37.270210 0.100050 2.143571 -0.006212 0.011028 297552.000000 0 0 1
32.236922 2.889028 -19.309391 37.688436 0.089380 2.108707 0.009433 0.004281 -122262.000000 0 0 1
32.669762 1.418328 -19.258791 37.950310 0.043387 2.103047 0.017672 0.003554 -202061.000000 0 0 1
31.638962 0.541028 -18.893191 36.854705 0.017098 2.109053 0.027048 -0.000910 66279.600000 0 0 1
32.169062 -0.792972 -18.872991 37.305055 -0.024645 2.101233 0.035154 0.005219 698359.000000 0 0 1
31.053512 -1.818472 -18.455191 36.169345 -0.058493 2.106265 0.025126 0.005930 559872.000000 0 0 1
30.840862 -1.753672 -17.057291 35.287183 -0.056801 2.075314 0.036289 -0.005516 233366.000000 0 0 1
29.467892 -1.690672 -16.714791 33.920485 -0.057311 2.086060 0.034471 -0.004258 -88762.100000 0 0 1
29.204142 -2.028872 -15.282191 33.023380 -0.069361 2.051912 0.045329 -0.006238 -381291.000000 0 0 1
29.295992 -3.393672 -14.825591 33.008640 -0.115327 2.036602 0.029726 -0.006161 810299.000000 0 0 1
28.293962 -3.556872 -13.816591 31.687503 -0.125055 2.021975 0.025273 -0.015470 118355.000000 0 0 1
28.136972 -5.031972 -13.426091 31.579580 -0.176968 2.009925 0.022935 -0.008968 -459271.000000 0 0 1
27.428192 -5.701172 -14.410591 31.503559 -0.204940 2.045896 0.015695 -0.005890 150457.000000 0 0 1
27.170832 -6.996372 -13.997391 31.354909 -0.252021 2.033554 0.013445 -0.006877 -422791.000000 0 0 1
26.600342 -7.859672 -15.128491 31.594681 -0.287298 2.070118 0.001180 0.001841 202685.000000 0 0 1
25.269092 -7.573572 -15.548491 30.620934 -0.291197 2.103394 0.009611 -0.004619 349886.000000 0 0 1
24.863692 -8.400172 -16.577491 31.041574 -0.325809 2.134170 0.001657 0.002479 68968.900000 0 0 1
23.435192 -8.001572 -17.026091 30.051974 -0.329023 2.173115 -0.008311 0.000778 -107380.000000 0 0 1
23.275592 -6.716972 -17.612491 29.951139 -0.280951 2.199431 -0.009751 0.002134 542939.000000 0 0 1
21.948292 -6.494272 -18.104891 29.183731 -0.287682 2.240019 -0.006205 -0.001684 592453.000000 0 0 1
21.564792 -7.046872 -19.464091 29.892298 -0.315838 2.279883 -0.005453 0.005519 -255513.000000 0 0 1
22.450192 -6.510572 -20.434891 31.048083 -0.282258 2.289181 -0.008186 0.004142 490008.000000 0 0 1
22.095792 -6.958772 -21.696491 31.739349 -0.305103 2.323457 0.006248 -0.001357 19070.900000 0 0 1
22.670992 -5.977772 -22.800991 32.704630 -0.257807 2.342252 0.004465 -0.006290 37065.300000 0 0 1
22.681592 -6.426072 -24.150991 33.749361 -0.276082 2.368277 0.011057 -0.008479 108649.000000 0 0 1
22.797992 -5.326472 -25.009291 34.257618 -0.229521 2.389171 0.013731 -0.009911 -392547.000000 0 0 1
22.762292 -5.716872 -26.519331 35.412985 -0.246066 2.417135 0.023338 -0.012366 -19901.600000 0 0 1
21.539392 -6.288272 -26.953131 35.070772 -0.284049 2.447345 0.024303 -0.008723 -104665.000000 0 0 1
21.448792 -6.279772 -28.305851 36.065322 -0.284820 2.473250 0.031223 -0.011776 -51537.100000 0 0 1
20.133092 -6.978272 -28.670491 35.721628 -0.333649 2.502452 0.022307 -0.016342 -207735.000000 0 0 1
20.112692 -8.337472 -28.476491 35.846121 -0.392976 2.488831 0.015410 -0.008159 -310990.000000 0 0 1
19.229092 -8.931772 -29.349201 36.206493 -0.434840 2.515983 0.013304 -0.010425 -644303.000000 0 0 1
19.061792 -10.391172 -29.032401 36.252016 -0.499097 2.499508 0.022406 -0.010907 -572167.000000 0 0 1
18.312592 -10.751572 -27.921761 35.079511 -0.530890 2.491382 0.016892 -0.005527 -33070.600000 0 0 1
18.341392 -12.079072 -27.413881 35.125938 -0.582376 2.466174 0.016773 -0.011163 -472316.000000 0 0 1
18.197692 -13.273472 -28.429761 36.271096 -0.630189 2.471579 0.015072 -0.005565 -1011980.000000 0 0 1
16.973992 -13.386672 -29.048241 36.209387 -0.667787 2.501817 0.010757 -0.003298 -509502.000000 0 0 1
17.151792 -14.365472 -30.070951 37.480833 -0.697221 2.501938 0.003768 -0.005393 -312168.000000 0 0 1
15.935992 -14.530672 -30.984011 37.750566 -0.739304 2.533530 -0.001842 -0.007362 -6390.500000 0 0 1
14.885592 -15.329072 -30.452411 37.200950 -0.800075 2.529752 0.004865 -0.002270 -258521.000000 0 0 1
13.960892 -15.699972 -31.381031 37.764596 -0.843963 2.551635 0.000852 -0.005145 -402376.000000 0 0 1
12.724392 -16.414072 -30.753641 37.109545 -0.911354 2.547624 0.007924 -0.006076 304862.000000 0 0 1
13.044492 -17.768372 -30.468321 37.605750 -0.937522 2.515296 0.005594 -0.008222 29815.900000 0 0 1
12.147492 -18.185372 -29.495061 36.718224 -0.981884 2.503580 0.007849 -0.005380 -347300.000000 0 0 1
12.429292 -19.566972 -28.908921 37.055086 -1.004883 2.465719 0.006154 0.003282 -329119.000000 0 0 1
13.350792 -19.452972 -27.840671 36.493352 -0.969317 2.438579 0.001196 0.003346 -913.766000 0 0 1
13.120992 -20.375372 -26.798661 36.131488 -0.998677 2.406395 0.000635 0.009759 -134877.000000 0 0 1
14.143992 -20.160672 -25.670751 35.573764 -0.959022 2.376936 -0.015337 0.010015 -326462.000000 0 0 1
15.355892 -20.825272 -25.880571 36.596439 -0.935429 2.356310 -0.011135 0.009130 -81409.800000 0 0 1
16.353092 -20.367972 -24.961291 36.129544 -0.894300 2.333506 -0.005505 0.005708 -348624.000000 0 0 1
17.739792 -20.900672 -25.346901 37.336359 -0.867019 2.317032 -0.013081 0.015162 -501452.000000 0 0 1
17.925892 -22.298772 -25.182041 38.114407 -0.893684 2.292542 -0.005340 0.005720 118086.000000 0 0 1
17.863792 -22.866772 -23.911991 37.600368 -0.907617 2.260037 -0.004665 0.006808 -425250.000000 0 0 1
18.282792 -24.401972 -23.904191 38.744381 -0.927786 2.235685 -0.007258 -0.006490 -782262.000000 0 0 1
19.650292 -24.583972 -24.078591 39.626812 -0.896474 2.223874 -0.004030 -0.005262 -570759.000000 0 0 1
20.070592 -25.931862 -23.944691 40.603428 -0.912127 2.201510 -0.000917 -0.020546 231331.000000 0 0 1
20.369492 -26.445242 -22.471091 40.239495 -0.914460 2.163293 0.015481 -0.021738 -170494.000000 0 0 1
19.165692 -26.607752 -21.739791 39.343548 -0.946573 2.156233 0.006310 -0.015787 250416.000000 0 0 1
19.283592 -26.569172 -20.346991 38.623541 -0.942972 2.125631 0.007064 -0.010563 -558188.000000 0 0 1
17.956292 -26.991332 -19.731891 37.951390 -0.983767 2.117560 0.007367 -0.015193 -1371670.000000 0 0 1
17.840592 -28.389342 -19.929791 39.005616 -1.009737 2.107082 0.016157 -0.012081 866903.000000 0 0 1
16.678392 -28.941002 -19.267391 38.561415 -1.047994 2.093996 0.006980 -0.003734 1555150.000000 0 0 1
15.253692 -28.435082 -19.696291 37.804403 -1.078424 2.118825 0.009638 -0.011971 -370602.000000 0 0 1
14.819592 -27.265202 -19.096691 36.437552 -1.072930 2.122447 0.018989 -0.010614 199204.000000 0 0 1
13.492692 -27.052532 -19.586191 36.020982 -1.108142 2.145688 0.022937 -0.004091 382566.000000 0 0 1
12.518092 -26.295152 -18.692991 34.605860 -1.126483 2.141433 0.018270 -0.015344 -788350.000000 0 0 1
11.974392 -26.928692 -17.583591 34.317972 -1.152383 2.108742 0.025864 -0.012964 -145726.000000 0 0 1
10.883992 -26.275882 -17.012891 33.140937 -1.178092 2.109880 0.029959 -0.019768 93181.200000 0 0 1
9.423592 -26.516872 -17.475491 33.126144 -1.229336 2.126503 0.035796 -0.017883 -326967.000000 0 0 1
8.873192 -27.649412 -16.817291 33.556591 -1.260261 2.095737 0.034725 -0.019145 -96013.500000 0 0 1
7.468392 -27.605192 -16.930391 33.233442 -1.306578 2.105328 0.020160 -0.005184 136856.000000 0 0 1
6.712092 -28.172052 -18.136391 34.170827 -1.336903 2.130289 0.025089 -0.000493 -416586.000000 0 0 1
7.004592 -27.596062 -19.391291 34.447484 -1.322220 2.168715 0.032110 -0.001273 -128068.000000 0 0 1
6.201692 -28.154382 -20.396691 35.315085 -1.353984 2.186537 0.030955 0.001989 -44981.100000 0 0 1
6.329092 -27.417872 -21.763291 35.572995 -1.343932 2.229121 0.027406 -0.005155 -250175.000000 0 0 1
5.638892 -26.190392 -21.743091 34.503562 -1.358730 2.252568 0.036034 -0.009881 158087.000000 0 0 1
5.645192 -25.571902 -23.027791 34.872189 -1.353523 2.292079 0.034896 -0.004872 -382228.000000 0 0 1
4.335292 -24.848072 -23.402791 34.408023 -1.398063 2.318770 0.013225 0.001917 -427303.000000 0 0 1
3.276392 -25.764542 -23.489891 35.018872 -1.444309 2.306054 -0.002812 0.009303 -237636.000000 0 0 1
2.202492 -25.120552 -24.163391 34.925100 -1.483343 2.334863 0.006385 0.000375 286471.000000 0 0 1
1.139792 -26.078562 -24.740691 35.965154 -1.527118 2.329398 -0.005645 -0.003231 -104181.000000 0 0 1
1.688192 -26.794202 -25.818601 37.247543 -1.507874 2.336664 -0.017098 0.007895 476636.000000 0 0 1
0.735892 -27.733072 -26.342461 38.256896 -1.544268 2.330308 -0.014976 -0.000081 198894.000000 0 0 1
1.355292 -28.758422 -27.286831 39.666797 -1.523704 2.329389 -0.029548 0.009420 -556104.000000 0 0 1
1.646692 -28.145762 -28.521931 40.104814 -1.512357 2.361978 -0.025917 0.009175 -43706.800000 0 0 1
1.986892 -29.102082 -29.478491 41.471199 -1.502629 2.361457 -0.019780 0.002611 978636.000000 0 0 1
3.517292 -29.510492 -29.571141 41.924848 -1.452168 2.353695 -0.019897 0.008947 783289.000000 0 0 1
4.036792 -30.305362 -28.512951 41.805491 -1.438372 2.321343 -0.031943 0.008810 -353426.000000 0 0 1
5.130992 -31.061352 -28.931671 42.757178 -1.407086 2.314000 -0.006497 0.009302 -379292.000000 0 0 1
5.637192 -32.135002 -27.942921 42.956293 -1.397141 2.279034 0.018201 0.002504 -393803.000000 0 0 1
4.757292 -33.212642 -27.712961 43.516889 -1.428527 2.261179 0.000854 -0.005261 -194281.000000 0 0 1
5.272592 -34.416270 -27.105851 44.124903 -1.418778 2.232293 0.031081 -0.014983 -748251.000000 0 0 1
4.188592 33.692869 -26.843091 43.281697 1.447114 2.239788 0.025169 -0.016264 -666229.000000 0 0 1
3.568592 33.241582 -28.038911 43.633911 1.463853 2.268676 0.013890 -0.011472 -108168.000000 0 0 1
2.270692 32.812522 -27.699591 43.000988 1.501704 2.270723 -0.005890 -0.010796 -26346.900000 0 0 1
1.202292 33.055482 -28.802131 43.859699 1.534440 2.287215 -0.012464 -0.004701 -49580.000000 0 0 1
1.180592 32.030802 -29.822521 43.780690 1.533955 2.320169 0.006525 -0.008328 21457.700000 0 0 1
0.081692 32.203032 -30.675161 44.474796 1.568260 2.331899 0.003964 -0.000375 -161954.000000 0 0 1
-0.010908 31.082582 -31.680281 44.382060 -1.570445 2.365717 0.016134 -0.001411 -228344.000000 0 0 1
1.059892 30.904022 -32.585741 44.922294 1.536514 2.382383 0.013199 0.000191 -114317.000000 0 0 1
0.810292 29.928672 -33.553261 44.968915 1.543729 2.413047 0.018993 -0.001343 -842122.000000 0 0 1
1.927892 29.529272 34.441716 45.408441 1.505601 0.709808 0.021669 0.002529 -392354.000000 0 0 1
2.121292 30.486862 33.392035 45.265623 1.501328 0.741153 0.015804 0.001897 387288.000000 0 0 1
3.206092 30.164492 32.504393 44.460220 1.464907 0.750879 0.014477 0.000086 357285.000000 0 0 1
2.902292 29.169482 31.342123 42.913991 1.471625 0.751966 0.016646 0.000696 -74444.600000 0 0 1
2.591592 27.831452 31.723423 42.280984 1.477947 0.722281 0.017947 -0.001492 1309660.000000 0 0 1
3.772592 26.995802 31.939953 41.990075 1.431948 0.706475 0.025122 0.006782 1104160.000000 0 0 1
3.310792 25.597852 32.359793 41.392845 1.442172 0.673293 0.029894 0.000027 -399488.000000 0 0 1
2.423192 25.057822 31.460723 40.293218 1.474392 0.674860 0.027626 0.006225 -289524.000000 0 0 1
2.848092 23.780052 31.050443 39.213933 1.451596 0.657010 0.025265 0.009604 -292781.000000 0 0 1
1.884092 23.039152 30.121793 37.969392 1.489200 0.654557 0.018681 0.020062 -664915.000000 0 0 1
0.668892 22.640552 30.668613 38.126183 1.541261 0.636135 0.011489 0.019963 -664816.000000 0 0 1
-0.029308 22.038352 29.622063 36.920948 -1.569466 0.639640 0.015032 0.020809 -457099.000000 0 0 1
-1.430008 21.474852 29.898933 36.839658 -1.504305 0.623917 0.009185 0.021006 -361271.000000 0 0 1
-2.362908 22.508052 30.047003 37.616727 -1.466199 0.645553 0.018395 0.012531 525655.000000 0 0 1
-3.632808 22.022752 30.515253 37.807136 -1.407312 0.631523 -0.000909 0.009480 382668.000000 0 0 1
-4.706608 23.041352 30.791953 38.745328 -1.369300 0.652239 -0.020856 -0.001646 -706420.000000 0 0 1
-4.558508 23.633852 32.085063 40.109727 -1.380256 0.643614 -0.011794 -0.001047 178920.000000 0 0 1
-4.607608 25.035502 31.945193 40.847298 -1.388790 0.672826 -0.006922 -0.005199 -618162.000000 0 0 1
-4.655908 25.724052 33.324471 42.354748 -1.391740 0.665199 -0.000365 -0.001500 21602.500000 0 0 1
-5.937208 25.985072 33.885707 43.112823 -1.346167 0.666521 -0.003929 -0.002887 122768.000000 0 0 1
-5.923408 26.377322 -33.719361 43.218575 -1.349897 2.465790 0.007634 0.004028 -353033.000000 0 0 1
-7.336808 26.626162 -33.174981 43.166661 -1.301920 2.447341 0.009410 0.009645 -313042.000000 0 0 1
-7.936108 27.837912 -33.590081 44.342132 -1.293081 2.430303 0.017027 0.006524 -451290.000000 0 0 1
-9.191708 28.095642 -33.031071 44.327241 -1.254614 2.411577 0.018369 0.011112 -300061.000000 0 0 1
-9.266008 28.490802 -31.534961 43.497569 -1.256358 2.381805 0.021056 0.009391 -457969.000000 0 0 1
-8.873308 29.853732 -31.271591 44.134944 -1.281886 2.358230 0.019489 0.006642 347169.000000 0 0 1
-9.017708 30.100252 -29.864441 43.350076 -1.279717 2.330785 0.020855 0.004696 -398331.000000 0 0 1
-8.557508 31.535742 -29.565401 44.066392 -1.305818 2.306257 0.017495 -0.000265 -193094.000000 0 0 1
-7.153008 31.633642 -29.599041 43.908496 -1.348416 2.310552 0.011060 -0.001780 -341432.000000 0 0 1
-6.701908 32.885192 -29.230541 44.505909 -1.369752 2.287336 0.015915 0.001266 -384602.000000 0 0 1
-5.184408 33.035542 -29.060841 44.303020 -1.415132 2.286245 0.009615 -0.000597 -525108.000000 0 0 1
-4.808908 34.342033 -28.569251 44.929978 -1.431671 2.259921 0.010837 -0.003780 -23734.800000 0 0 1
-4.477508 -33.760812 -29.547351 45.087542 1.438941 2.285420 0.014873 -0.009297 734708.000000 0 0 1
-3.272708 -34.043439 -30.552431 45.859758 1.474958 2.299917 0.020508 -0.015690 282967.000000 0 0 1
-3.306708 34.014294 -31.529701 46.497619 -1.473886 2.315961 0.019484 -0.008416 527403.000000 0 0 1
-4.258808 34.168954 -32.624321 47.434177 -1.446796 2.329224 0.023068 -0.012698 691546.000000 0 0 1
-3.740308 -34.018343 -33.774921 48.083083 1.461286 2.349600 0.007256 -0.010918 35032.000000 0 0 1
-3.462708 -32.709182 -33.334821 46.830452 1.465326 2.362881 0.006896 -0.014607 63858.800000 0 0 1
-2.671808 -32.029842 -34.287805 46.996840 1.487573 2.388499 0.002410 -0.013146 89411.000000 0 0 1
32.042492 19.839828 12.672983 39.761094 0.554398 1.246409 0.009621 -0.014650 -540489.000000 0 0 1
32.779922 18.797228 13.163683 40.014268 0.520659 1.235579 0.024280 -0.022150 -173100.000000 0 0 1
32.195902 17.525728 12.904683 38.862039 0.498492 1.232305 0.030339 -0.011167 -187525.000000 0 0 1
33.031912 16.416728 13.529583 39.289512 0.461242 1.219243 0.042685 -0.020603 -390634.000000 0 0 1
34.345632 16.358428 13.073083 40.225938 0.444499 1.239794 0.034292 -0.002688 -64227.000000 0 0 1
35.145152 15.352028 13.741083 40.739217 0.411838 1.226756 0.038023 -0.000259 766882.000000 0 0 1
-34.521467 14.771828 12.781883 39.665036 -0.404327 1.242696 0.043662 -0.005065 208389.000000 0 0 1
-33.742154 13.775428 13.419283 38.837772 -0.387603 1.218002 0.039331 -0.000533 -350443.000000 0 0 1
-34.329954 12.532128 13.847083 39.081219 -0.350018 1.208614 0.042002 -0.000313 -339777.000000 0 0 1
-33.702834 11.890228 15.095183 38.795916 -0.339164 1.171151 0.040602 -0.001351 -1145.270000 0 0 1
-33.968374 12.630828 16.236683 39.711687 -0.355998 1.149587 0.052239 -0.004448 -57721.900000 0 0 1
-33.243134 12.248528 17.364783 39.454633 -0.353018 1.115064 0.045076 0.008757 -268510.000000 0 0 1
-33.468304 13.271728 18.512683 40.484387 -0.377525 1.095863 0.048362 -0.000515 117459.000000 0 0 1
-34.787534 13.284428 19.009483 41.809197 -0.364783 1.098792 0.046130 -0.013790 10636.900000 0 0 1
-34.808103 14.078228 20.221683 42.646418 -0.384339 1.076774 0.073756 -0.015990 942860.000000 0 0 1
34.692742 13.758728 21.109783 42.877872 0.377562 1.056039 0.064028 -0.020103 833238.000000 0 0 1
34.734030 12.416828 21.620783 42.756154 0.343326 1.040630 0.054613 -0.010097 -325120.000000 0 0 1
33.648612 12.194928 22.468283 42.258361 0.347696 1.010203 0.054673 -0.017703 -173267.000000 0 0 1
33.760392 10.826428 23.124283 42.328573 0.310324 0.992851 0.044927 -0.021282 -367829.000000 0 0 1
34.774636 10.794428 24.078723 43.652948 0.300981 0.986522 0.047627 -0.013541 -527782.000000 0 0 1
34.476212 11.323628 25.390663 44.289045 0.317347 0.960275 0.047284 -0.013298 -574625.000000 0 0 1
-35.052811 11.625128 26.268983 45.320002 -0.320231 0.952518 0.048664 -0.016148 683269.000000 0 0 1
-34.250399 12.728528 25.828913 44.746374 -0.355814 0.955465 0.047065 -0.019096 243429.000000 0 0 1
-33.400884 12.535328 24.697673 43.390420 -0.359033 0.965268 0.039699 -0.014032 -197851.000000 0 0 1
-32.381134 13.714828 24.507503 42.863178 -0.400637 0.962145 0.035556 -0.015617 206380.000000 0 0 1
-31.519154 13.802128 25.606343 42.891032 -0.412743 0.931028 0.036031 -0.023835 -162897.000000 0 0 1
-32.084054 14.584828 26.669263 44.196757 -0.426658 0.923012 0.028452 -0.021815 -147020.000000 0 0 1
-31.032754 15.041728 27.749093 44.263953 -0.451337 0.893228 0.029338 -0.013002 -282783.000000 0 0 1
-30.164844 16.004528 27.320293 43.731695 -0.487803 0.896017 0.026882 -0.015717 -1010820.000000 0 0 1
-29.709914 16.722728 28.420573 44.385331 -0.512668 0.875889 0.028679 -0.020189 -159572.000000 0 0 1
-29.050224 17.995128 27.846523 44.081390 -0.554598 0.887043 0.027689 -0.013532 -198531.000000 0 0 1
-29.972354 18.899128 27.275413 44.715402 -0.562582 0.914763 0.028621 -0.018746 -236813.000000 0 0 1
-29.439934 20.134828 26.979313 44.721408 -0.599859 0.923195 0.019794 -0.011903 -306119.000000 0 0 1
-30.315534 21.124428 26.137623 45.259788 -0.608588 0.955131 0.024532 -0.003339 536099.000000 0 0 1
-31.517514 21.489028 26.834103 46.639051 -0.598415 0.957756 0.021691 -0.006205 1101080.000000 0 0 1
-32.564754 22.088528 26.076913 47.205632 -0.596010 0.985542 0.021713 -0.001164 -193172.000000 0 0 1
-32.420064 23.591928 25.880993 47.722798 -0.629073 0.997601 0.019131 0.005760 -566834.000000 0 0 1
-33.283484 24.180528 24.936623 48.107415 -0.628292 1.025872 0.023744 -0.001372 -33565.900000 0 0 1
-33.312564 25.605428 25.015393 48.899230 -0.655325 1.033785 0.032688 0.001072 -105344.000000 0 0 1
-34.226479 26.135628 23.908833 49.256017 -0.652154 1.063977 0.043742 0.004666 -36688.100000 0 0 1
-33.729704 26.106628 22.563283 48.252986 -0.658682 1.084218 0.035823 -0.003627 -49112.700000 0 0 1
-34.648486 26.763628 21.744383 48.883817 -0.657704 1.109826 0.042170 -0.006657 -86622.700000 0 0 1
-34.181035 26.633928 20.277983 47.842511 -0.661930 1.133106 0.043782 -0.017779 237134.000000 0 0 1
-34.382949 25.290828 19.832983 47.065490 -0.634197 1.135818 0.042605 -0.015542 17161.000000 0 0 1
-34.070724 25.249128 18.452283 46.247372 -0.637768 1.160380 0.045073 -0.017913 -143427.000000 0 0 1
-34.281116 23.895928 17.772383 45.409998 -0.608749 1.168670 0.043300 -0.017309 -253377.000000 0 0 1
35.229863 23.634728 17.246583 45.795068 0.590908 1.184669 0.037652 -0.022434 -643669.000000 0 0 1
35.259218 22.712528 16.191583 44.958189 0.572258 1.202370 0.030212 -0.017413 495221.000000 0 0 1
33.848702 22.626228 15.540083 43.579525 0.589237 1.206179 0.035472 -0.011535 105172.000000 0 0 1
32.854872 21.988628 16.282883 42.755990 0.589800 1.180100 0.035664 -0.023412 -352014.000000 0 0 1
31.661562 22.184728 15.539183 41.666328 0.611184 1.188617 0.038278 -0.018587 -944144.000000 0 0 1
30.559642 21.182028 15.816783 40.407186 0.606105 1.168606 0.010444 -0.021318 298757.000000 0 0 1
29.797282 21.354728 17.061983 40.435302 0.621824 1.135193 0.010632 -0.013770 49823.600000 0 0 1
28.845842 22.353428 16.979483 40.249984 0.659265 1.135311 0.010243 -0.005922 -981158.000000 0 0 1
28.242352 22.798828 18.271183 40.635614 0.679150 1.104440 0.009043 -0.005078 260141.000000 0 0 1
29.164422 23.542328 19.068283 42.052397 0.679133 1.100174 -0.009384 -0.001419 578991.000000 0 0 1
28.421812 24.277628 20.048083 42.416132 0.706922 1.078498 -0.010356 0.000642 136045.000000 0 0 1
29.490182 24.873528 20.951483 43.901342 0.700680 1.073285 -0.012204 0.001141 425903.000000 0 0 1
30.294652 25.902728 20.295783 44.728470 0.707405 1.099821 -0.004414 -0.003567 332059.000000 0 0 1
31.022742 26.622428 21.219383 46.058945 0.709211 1.092012 -0.001735 -0.005806 102687.000000 0 0 1
32.193312 27.543628 20.653483 47.134140 0.707719 1.117218 0.013177 -0.008176 702234.000000 0 0 1
33.075922 28.095728 21.604483 48.478245 0.704164 1.108893 0.014631 -0.004501 294256.000000 0 0 1
32.480602 29.024228 22.544783 49.047554 0.729260 1.093194 0.002938 -0.003282 -455785.000000 0 0 1
33.384402 29.253528 23.749183 50.341940 0.719545 1.079513 0.007099 -0.004687 269515.000000 0 0 1
34.547662 30.018328 23.430683 51.416319 0.715362 1.097632 0.034721 -0.007942 74894.400000 0 0 1
35.187404 30.293628 24.669763 52.578080 0.710801 1.082409 0.054340 -0.000567 112525.000000 0 0 1
-34.285348 31.132628 24.567553 52.424138 -0.737242 1.083056 0.061584 -0.004390 339243.000000 0 0 1
-33.131404 30.419728 24.141323 51.047559 -0.742755 1.078196 0.049559 -0.006312 -766041.000000 0 0 1
-32.079174 31.294128 24.357753 51.006823 -0.773011 1.072945 0.055440 -0.004888 -852365.000000 0 0 1
-30.688634 30.681028 24.099413 49.637682 -0.785274 1.063854 0.050996 -0.006071 -324694.000000 0 0 1
-30.370264 30.401928 22.763883 48.629461 -0.785919 1.083647 0.034955 -0.006498 220925.000000 0 0 1
-31.113904 29.342628 22.154383 48.165148 -0.756108 1.092838 0.040233 -0.004026 -412868.000000 0 0 1
-30.749174 27.955628 22.632983 47.321039 -0.737848 1.072095 0.027236 0.005550 -898334.000000 0 0 1
-29.377624 27.808928 22.442083 46.260440 -0.757974 1.064291 0.018192 0.002605 -346897.000000 0 0 1
-28.743714 26.725828 23.142083 45.563439 -0.749036 1.038041 0.011338 0.000455 163616.000000 0 0 1
-28.261584 27.007728 24.618233 46.197315 -0.762716 1.008780 0.012718 0.007471 -270802.000000 0 0 1
-29.320614 27.331628 25.494433 47.504551 -0.750304 1.004307 0.010674 0.002572 -150950.000000 0 0 1
-28.916014 27.677028 26.774253 48.156146 -0.763509 0.981245 0.025791 -0.009155 -1234470.000000 0 0 1
-30.045334 28.011128 27.714433 49.552348 -0.750374 0.977260 0.029945 -0.013345 -727572.000000 0 0 1
-30.730754 26.875928 28.067223 49.542545 -0.718581 0.968510 0.015248 -0.005298 31731.900000 0 0 1
-31.891454 27.065228 28.871093 50.824516 -0.703720 0.966656 0.022658 -0.001379 611574.000000 0 0 1
-32.504404 25.712228 29.354863 50.787429 -0.669253 0.954527 0.018554 0.002022 -51482.400000 0 0 1
-31.875334 25.228328 30.539293 50.844408 -0.669517 0.926492 0.015387 0.001963 55828.400000 0 0 1
-32.334754 23.924428 30.805483 50.664508 -0.637005 0.917221 0.007530 -0.015482 -371997.000000 0 0 1
-31.570094 23.166528 31.878783 50.493719 -0.633060 0.887514 0.004344 -0.016853 -362397.000000 0 0 1
-30.319974 22.662428 31.418303 49.193457 -0.641862 0.878030 0.015626 -0.012771 -68946.200000 0 0 1
-29.828264 21.663728 32.344153 49.042702 -0.628148 0.850630 0.016012 -0.012845 231450.000000 0 0 1
-29.117344 22.114128 33.660962 49.698237 -0.649543 0.826700 0.017303 -0.015832 -19593.800000 0 0 1
-30.013024 22.755528 -34.360941 50.983036 -0.648721 2.310363 0.041744 -0.019071 513649.000000 0 0 1
-29.717104 22.375628 -33.027861 49.745498 -0.645389 2.296867 0.026767 -0.012050 -741142.000000 0 0 1
-28.504864 22.998628 -32.351911 48.868295 -0.678893 2.294310 0.054060 -0.014153 -465301.000000 0 0 1
-28.716344 24.333828 -32.033031 49.425486 -0.702975 2.275893 0.037183 -0.010749 -191966.000000 0 0 1
-27.804024 24.797228 -31.082871 48.519183 -0.728298 2.266116 0.069649 -0.007221 -269114.000000 0 0 1
-28.177414 26.183128 -30.418511 49.038848 -0.748728 2.239914 0.048140 0.007544 -407484.000000 0 0 1
-28.078284 27.372228 -31.206521 50.114627 -0.772666 2.242989 0.064485 -0.000359 134393.000000 0 0 1
-29.045544 27.669228 -32.207741 51.444809 -0.761136 2.247292 0.022004 0.003077 -116382.000000 0 0 1
-28.698784 29.100628 -32.756991 52.378309 -0.792350 2.246431 0.045769 0.011979 151346.000000 0 0 1
-29.080924 30.167028 -31.911301 52.669544 -0.803728 2.221665 0.029448 -0.003012 153494.000000 0 0 1
-28.312974 31.332728 -32.212581 53.113225 -0.835983 2.222433 0.053484 -0.020452 -26985.800000 0 0 1
-28.504934 32.568128 -31.314011 53.420796 -0.851830 2.197128 0.044955 -0.009539 -156198.000000 0 0 1
-28.107734 32.461328 -29.971391 52.364748 -0.857153 2.180175 0.048066 -0.006699 219938.000000 0 0 1
-28.283874 33.816628 -29.509971 53.050733 -0.874257 2.160674 0.034782 -0.009673 -233103.000000 0 0 1
-28.001314 34.055928 -27.999961 52.229088 -0.882655 2.136605 0.001915 -0.006894 501626.000000 0 0 1
-26.651484 34.189428 -27.539471 51.357970 -0.908666 2.136756 0.053869 0.003548 724563.000000 0 0 1
-25.953564 -33.696397 -27.742611 50.780775 0.914481 2.148762 0.039271 0.011557 121995.000000 0 0 1
-26.389714 -32.623597 -26.703851 49.737428 0.890643 2.137550 0.034454 0.017809 439722.000000 0 0 1
-27.653934 -32.013697 -27.013841 50.193271 0.858336 2.139092 0.016314 0.001778 335954.000000 0 0 1
-27.854224 -31.099797 -25.953561 49.159358 0.840395 2.126978 0.013724 0.006915 1038380.000000 0 0 1
-29.375864 -30.706597 -25.776521 49.701766 0.807543 2.116037 -0.004153 0.005290 1018290.000000 0 0 1
-29.804834 -29.875097 -26.868621 50.027716 0.786575 2.137762 -0.001856 0.006263 -72901.700000 0 0 1
-31.205874 -29.807297 -26.766541 50.781190 0.762480 2.125976 -0.008563 0.004413 -446358.000000 0 0 1
-31.860264 -28.996697 -27.908301 51.329895 0.738379 2.145641 -0.005194 -0.002313 -1326420.000000 0 0 1
-33.169804 -28.773697 -27.553511 51.839729 0.714547 2.131183 0.000068 -0.012750 -1321120.000000 0 0 1
-33.813104 -28.252897 -28.684811 52.577282 0.696051 2.147870 0.005056 -0.015873 -671270.000000 0 0 1
-35.316813 -28.417597 -28.724211 53.664862 0.677569 2.135602 0.004839 -0.018118 -908596.000000 0 0 1
34.619242 -27.703897 -27.888651 52.381053 -0.674891 2.132252 -0.004588 -0.008233 -682461.000000 0 0 1
33.292272 -27.893797 -28.288371 51.833109 -0.697396 2.148091 0.001153 -0.011679 -605633.000000 0 0 1
32.267382 -27.476297 -27.220621 50.369565 -0.705375 2.141730 0.009441 -0.010746 -435557.000000 0 0 1
32.287532 -28.166797 -26.012361 50.124805 -0.717341 2.116421 -0.005246 -0.006281 -413642.000000 0 0 1
31.432562 -27.645397 -25.093771 48.805443 -0.721381 2.110823 -0.006826 0.001315 -727926.000000 0 0 1
31.334072 -28.489997 -23.813491 48.585866 -0.737893 2.083038 -0.019665 0.009403 159876.000000 0 0 1
30.705912 -29.773697 -23.928691 49.009268 -0.769986 2.080878 -0.007070 -0.002086 11477.100000 0 0 1
30.220292 -30.329497 -22.708691 48.464720 -0.787202 2.058458 -0.007535 0.004088 -154379.000000 0 0 1
31.203582 -30.656997 -21.552091 48.764819 -0.776563 2.028579 -0.005503 0.014577 -598364.000000 0 0 1
32.384892 -31.363397 -21.890391 50.116196 -0.769376 2.022827 -0.011210 0.008665 822863.000000 0 0 1
33.386752 -31.313597 -20.843091 50.295636 -0.753367 1.998092 -0.012718 0.016313 531340.000000 0 0 1
34.198082 -30.038397 -20.738191 50.018863 -0.720733 1.998308 -0.009572 0.017790 -1214450.000000 0 0 1
33.512652 -28.886497 -20.330391 48.691399 -0.711395 2.001528 -0.007639 0.022017 -504241.000000 0 0 1
34.071042 -27.671797 -20.809491 48.575705 -0.682123 2.013510 -0.011372 0.021129 -277857.000000 0 0 1
33.334372 -26.364397 -20.519491 47.194399 -0.669172 2.020598 -0.007601 0.020624 196097.000000 0 0 1
32.254882 -26.106897 -21.416591 46.697086 -0.680443 2.047247 0.001614 0.017518 166862.000000 0 0 1
31.227392 -25.394697 -20.748291 45.282803 -0.682749 2.046758 0.007716 0.014490 -738554.000000 0 0 1
30.025042 -25.185597 -21.624091 44.759566 -0.697967 2.075007 0.005318 0.005297 -666605.000000 0 0 1
29.314982 -26.396697 -21.853891 45.097077 -0.733064 2.076698 0.011780 0.000518 -25165.200000 0 0 1
28.117122 -26.163197 -22.570691 44.547969 -0.749417 2.102103 0.013348 -0.000184 86267.900000 0 0 1
27.517482 -27.451197 -23.138091 45.234404 -0.784192 2.107744 0.015026 -0.000611 -217520.000000 0 0 1
27.014482 -28.214097 -22.040091 44.850676 -0.807116 2.084505 0.011878 0.003345 -53543.300000 0 0 1
26.576412 -29.495597 -22.344391 45.558399 -0.837413 2.083409 0.010607 -0.000102 -445811.000000 0 0 1
26.023902 -30.226597 -21.054191 45.101769 -0.859974 2.056482 0.017930 0.009021 -526910.000000 0 0 1
26.933502 -30.711897 -20.134591 45.541584 -0.850850 2.028751 0.016326 0.008839 -515034.000000 0 0 1
27.510412 -31.955797 -20.418191 46.849741 -0.860014 2.021749 0.012666 0.009980 -107715.000000 0 0 1
28.424802 -32.486297 -19.313291 47.289873 -0.851979 1.991499 0.007436 0.015203 -310918.000000 0 0 1
27.809932 -33.091197 -18.211491 46.904989 -0.871900 1.969543 0.009974 0.007677 -213127.000000 0 0 1
27.308422 -32.244397 -17.202691 45.622183 -0.868093 1.957426 0.007223 0.004200 -80287.700000 0 0 1
26.814682 -33.000297 -15.959291 45.417461 -0.888444 1.929853 0.012844 0.002569 725227.000000 0 0 1
25.414992 -33.332097 -16.041991 44.880909 -0.919357 1.936316 0.018764 0.002338 750688.000000 0 0 1
25.025392 -34.111597 -14.951691 44.871197 -0.937853 1.910506 0.022694 0.007911 -325347.000000 0 0 1
23.506392 -34.269997 -14.723191 44.088043 -0.969584 1.911287 0.019157 0.007573 -120233.000000 0 0 1
23.023092 -32.979997 -14.437591 42.733909 -0.961352 1.915426 0.022151 0.012763 -1623960.000000 0 0 1
21.663592 -33.061697 -14.366591 42.056937 -0.990741 1.919414 0.024530 0.007485 -1497200.000000 0 0 1
-0.869284 -7.235772 -29.051761 29.951909 1.451232 2.895809 0.027083 -0.003791 168980.000000 0 0 1
-0.365184 -8.551172 -28.969181 30.207108 1.528117 2.854315 0.033622 -0.006781 24306.800000 0 0 1
-0.421684 -9.133272 -30.246361 31.598051 1.524659 2.848041 0.015235 -0.007840 -180717.000000 0 0 1
-0.125884 -10.655372 -30.054911 31.888093 1.558983 2.800866 0.029296 -0.006049 262027.000000 0 0 1
1.165016 -11.035072 -29.614691 31.625306 -1.465612 2.783092 0.012383 -0.008424 -79891.600000 0 0 1
1.305416 -12.439372 -29.472261 32.016500 -1.466237 2.740240 0.015466 -0.007591 -675308.000000 0 0 1
2.702416 -12.809972 -29.031541 31.846959 -1.362883 2.717945 0.015652 -0.008919 -1654130.000000 0 0 1
3.679016 -12.670672 -30.077771 32.844382 -1.288210 2.728207 0.017762 -0.007437 796538.000000 0 0 1
5.019116 -12.911672 -29.640821 32.718207 -1.200046 2.704397 0.028537 -0.012607 696057.000000 0 0 1
5.314016 -14.338772 -29.215161 32.975215 -1.215885 2.659385 0.026979 -0.015540 -1777350.000000 0 0 1
4.736716 -14.651472 -27.972011 31.930166 -1.258109 2.638379 0.029495 -0.012233 -328649.000000 0 0 1
5.478216 -15.589672 -27.228111 31.849941 -1.232875 2.596130 0.040395 -0.016773 -115121.000000 0 0 1
5.204116 -17.137672 -27.466031 32.789716 -1.275980 2.563748 0.038648 -0.018696 -67168.300000 0 0 1
5.443116 -17.468772 -28.819501 34.137211 -1.268740 2.575915 0.028708 -0.022760 126238.000000 0 0 1
5.244716 -18.843172 -28.966781 34.952061 -1.299332 2.547680 0.032108 -0.022628 -319275.000000 0 0 1
5.436316 -19.343872 -30.375791 36.420154 -1.296828 2.557183 0.027656 -0.017434 -1163150.000000 0 0 1
6.737516 -19.206572 -30.816361 36.931486 -1.233416 2.557875 0.018859 -0.016299 -791698.000000 0 0 1
6.902716 -20.008272 -31.988931 38.357140 -1.238589 2.557071 0.020854 -0.019347 -1200030.000000 0 0 1
8.292416 -20.035672 -32.534001 39.097999 -1.178380 2.553705 0.010387 -0.005153 -1127810.000000 0 0 1
8.529716 -18.755972 -33.096871 38.986477 -1.143980 2.584758 0.012333 -0.007561 -616043.000000 0 0 1
9.679516 -18.764572 -33.862741 39.905982 -1.094557 2.584060 0.000134 -0.007050 -694666.000000 0 0 1
10.082416 -17.391372 -34.427423 39.866808 -1.045410 2.613086 0.001208 0.001730 -67716.700000 0 0 1
9.129516 -16.985172 33.562474 38.707671 -1.077601 0.521495 0.009712 -0.004593 74878.300000 0 0 1
9.490716 -15.804772 32.914972 37.726117 -1.030012 0.510558 0.007009 0.002756 -65048.100000 0 0 1
8.360116 -15.265572 32.008503 36.434510 -1.069763 0.498038 0.011253 -0.004191 -108122.000000 0 0 1
8.329816 -16.076472 30.837753 35.760394 -1.092745 0.530916 0.011844 -0.005227 130532.000000 0 0 1
7.764016 -15.300972 29.803543 34.389691 -1.101231 0.522365 0.006932 -0.000231 -412198.000000 0 0 1
7.757216 -16.098972 28.501703 33.640725 -1.121778 0.560032 0.004733 0.008060 -471957.000000 0 0 1
7.036416 -17.321472 28.483243 34.071097 -1.184935 0.580854 0.005857 0.008223 335498.000000 0 0 1
7.150016 -18.091272 27.278883 33.504542 -1.194418 0.619473 0.003018 0.009733 -116701.000000 0 0 1
6.476816 -19.460072 27.416703 34.239147 -1.249503 0.642264 0.001596 0.017602 -332899.000000 0 0 1
7.205716 -20.262072 28.309693 35.551549 -1.229118 0.649643 0.001754 0.013017 464834.000000 0 0 1
6.497216 -21.382672 28.774133 36.433271 -1.275807 0.660352 -0.001906 0.013461 -340122.000000 0 0 1
7.065716 -21.757472 30.137853 37.836518 -1.256792 0.649265 -0.004057 0.007485 -206482.000000 0 0 1
6.701316 -21.007772 31.299563 38.287031 -1.262008 0.613743 0.003078 -0.000772 290190.000000 0 0 1
7.121516 -19.643272 31.420903 37.733901 -1.222992 0.586836 0.008567 -0.007029 -602969.000000 0 0 1
6.560616 -19.166872 32.783313 38.537725 -1.241007 0.553517 0.009628 -0.016851 -547277.000000 0 0 1
5.165216 -19.142172 32.705233 38.245712 -1.307239 0.544986 0.012486 -0.022448 -757760.000000 0 0 1
4.779716 -18.081172 33.572940 38.430675 -1.312360 0.508250 0.012378 -0.019854 339529.000000 0 0 1
3.318016 -18.151772 34.095680 38.768692 -1.389999 0.496061 0.020232 -0.021103 216158.000000 0 0 1
3.068616 -19.258272 -34.043341 39.233232 -1.412785 2.621387 0.020412 -0.024074 130357.000000 0 0 1
2.517016 -18.867072 -32.781881 37.907170 -1.438172 2.615536 0.008444 -0.030794 -101796.000000 0 0 1
2.125616 -20.064572 -31.842391 37.696726 -1.465251 2.576799 0.011066 -0.012252 -877589.000000 0 0 1
1.000516 -20.772872 -32.303141 38.418826 -1.522669 2.569584 0.000812 -0.005948 -62185.000000 0 0 1
0.355816 -21.582772 -31.344541 38.058152 -1.554312 2.538519 0.000013 -0.005412 357198.000000 0 0 1
-0.517484 -20.756672 -30.357421 36.778802 1.545871 2.541716 0.002145 -0.006473 -100277.000000 0 0 1
-1.746384 -20.190772 -30.853681 36.914317 1.484517 2.560419 0.004911 -0.011995 547333.000000 0 0 1
-2.326984 -19.222072 -29.960301 35.672434 1.450325 2.567845 0.018734 -0.001621 99620.200000 0 0 1
-1.960284 -17.728172 -30.199861 35.073671 1.460669 2.608109 0.006215 -0.001284 -212193.000000 0 0 1
-2.761984 -16.783672 -29.501151 34.053460 1.407694 2.618581 0.017733 -0.002189 82951.700000 0 0 1
-2.288084 -15.479272 -29.854461 33.706558 1.424043 2.658832 0.028501 -0.005419 -293505.000000 0 0 1
-3.155184 -14.376272 -29.318671 32.805744 1.354750 2.676334 0.027991 0.000992 -119631.000000 0 0 1
-3.054984 -14.128272 -27.924141 31.443579 1.357843 2.663929 0.024337 -0.001515 -403548.000000 0 0 1
-4.101984 -13.286072 -27.566191 30.874599 1.271338 2.674417 0.026115 -0.001126 -327203.000000 0 0 1
-4.135484 -12.889772 -26.098951 29.400743 1.260337 2.663115 0.028735 -0.009093 -384843.000000 0 0 1
-4.776284 -13.907272 -25.350971 29.306942 1.239979 2.615978 0.026443 -0.004078 194912.000000 0 0 1
-4.741484 -13.714372 -23.944091 27.997949 1.237930 2.596750 0.026146 -0.007897 -122314.000000 0 0 1
-5.689284 -12.596472 -23.347591 27.132067 1.146565 2.607079 0.029161 -0.013950 282543.000000 0 0 1
-7.044784 -12.889972 -23.652191 27.842531 1.070619 2.585831 0.022860 -0.013876 -167547.000000 0 0 1
-7.834884 -11.807972 -23.189091 27.176232 0.984972 2.593051 0.020191 -0.016462 290034.000000 0 0 1
-9.326684 -12.089272 -23.543191 28.060994 0.913686 2.566240 0.035554 -0.014091 349408.000000 0 0 1
-9.975484 -13.104972 -22.741091 28.078600 0.920167 2.514792 0.031489 -0.013500 335574.000000 0 0 1
-10.963584 -13.794972 -23.503391 29.375344 0.899263 2.498268 0.019231 -0.010393 299329.000000 0 0 1
-11.667384 -14.927272 -22.714991 29.579083 0.907367 2.446417 0.019353 -0.015947 -158141.000000 0 0 1
-10.843184 -16.061172 -22.592391 29.764946 0.976966 2.432613 0.029237 -0.011584 -687246.000000 0 0 1
-11.376884 -17.191672 -22.058891 30.192412 0.986193 2.390012 0.018584 -0.005204 -654877.000000 0 0 1
-12.027884 -18.151272 -23.066191 31.720464 0.985582 2.384988 0.010562 0.003472 -189458.000000 0 0 1
-13.293184 -17.667672 -23.431591 32.216375 0.925760 2.385204 0.010842 -0.001307 -697784.000000 0 0 1
-13.713184 -18.169272 -24.727191 33.609639 0.924265 2.397521 0.000672 -0.001372 222792.000000 0 0 1
-15.028784 -17.656172 -25.339541 34.346719 0.865611 2.400538 0.011977 -0.008864 -1030050.000000 0 0 1
-16.217884 -18.218572 -24.886891 34.846714 0.843431 2.366251 0.009856 -0.000097 -604927.000000 0 0 1
-17.309084 -17.672472 -25.584701 35.587886 0.795786 2.373038 -0.009440 -0.004213 -70276.500000 0 0 1
-17.852684 -16.279972 -25.157761 34.880779 0.739354 2.376402 0.005169 -0.000238 -729612.000000 0 0 1
-18.531584 -16.296572 -23.918391 34.366951 0.721313 2.340567 -0.000955 0.004531 156489.000000 0 0 1
-18.976484 -15.033572 -23.523191 33.755826 0.669980 2.341811 0.005966 0.001688 117804.000000 0 0 1
-19.687884 -14.971472 -22.089191 33.161576 0.650150 2.299775 0.003370 -0.002601 670381.000000 0 0 1
-18.776184 -14.998172 -20.953791 31.883407 0.674001 2.287895 0.014060 0.001648 535351.000000 0 0 1
-19.331784 -14.654972 -19.664491 31.227845 0.648650 2.251976 0.020347 0.000593 -170029.000000 0 0 1
-19.901584 -13.234272 -19.420691 30.795815 0.586838 2.253158 0.032260 -0.008634 -334984.000000 0 0 1
-21.198684 -12.971972 -19.877191 31.823875 0.549141 2.245416 0.025454 -0.013050 -216958.000000 0 0 1
-21.806284 -12.018072 -19.002591 31.321663 0.503709 2.222688 0.035059 -0.011050 1169720.000000 0 0 1
-23.321184 -11.777772 -19.403591 32.543707 0.467659 2.209595 0.041131 -0.005620 1003860.000000 0 0 1
-23.516784 -11.106672 -20.637291 33.200830 0.441232 2.241567 0.033605 -0.014780 166452.000000 0 0 1
-24.903584 -10.991272 -20.909291 34.324845 0.415640 2.225796 0.031367 -0.019322 58091.400000 0 0 1
-25.302614 -9.879672 -21.891091 34.886245 0.372256 2.249134 0.035799 -0.008442 -223766.000000 0 0 1
-25.268084 -10.374372 -23.207391 35.842526 0.389587 2.275072 0.014356 -0.006631 102363.000000 0 0 1
-25.838854 -9.397372 -24.005691 36.499729 0.348820 2.288551 0.003682 0.000096 -532257.000000 0 0 1
-26.135944 -9.867472 -25.454241 37.793822 0.360999 2.309734 -0.002257 0.009331 689212.000000 0 0 1
-24.978184 -9.731372 -26.303621 37.556488 0.371504 2.346719 -0.008412 0.008475 807160.000000 0 0 1
-24.107184 -10.872472 -26.253771 37.264292 0.423690 2.352555 -0.009957 0.007150 -235197.000000 0 0 1
-23.051284 -10.718272 -27.356341 37.344510 0.435237 2.392842 -0.007037 0.009079 -503767.000000 0 0 1
-23.459584 -10.890072 -28.730661 38.657427 0.434604 2.408655 0.000833 0.014616 481905.000000 0 0 1
-22.428084 -10.702972 -29.723211 38.743281 0.445252 2.445235 -0.000536 0.020239 774798.000000 0 0 1
-23.016884 -11.151672 -31.149061 40.303855 0.451171 2.454125 -0.003406 0.011019 234331.000000 0 0 1
-23.973384 -10.413972 -31.842111 41.195801 0.409803 2.454267 -0.009945 0.012707 -43620.900000 0 0 1
-23.433784 -9.398472 -32.679111 41.296462 0.381424 2.483777 -0.007297 0.014214 -254333.000000 0 0 1
-24.558084 -8.503072 -33.280731 42.225689 0.333324 2.478615 -0.009383 0.012375 -280390.000000 0 0 1
-25.431074 -9.158972 -34.215051 43.603853 0.345687 2.472975 -0.001623 -0.009622 665836.000000 0 0 1
-26.567744 -9.793372 -33.693011 44.011069 0.353165 2.442704 0.011017 -0.007583 -6208.360000 0 0 1
-27.641564 -8.871672 -32.983291 43.939278 0.310568 2.419851 -0.009787 0.018386 -382566.000000 0 0 1
-28.986264 -9.302572 -32.970631 44.875426 0.310547 2.396042 -0.016490 0.011421 136631.000000 0 0 1
-29.559354 -8.831272 -31.752251 44.271348 0.290323 2.370600 -0.008821 0.017977 456674.000000 0 0 1
-31.082604 -9.149572 -31.641491 45.288265 0.286277 2.344331 -0.005867 0.012260 361377.000000 0 0 1
-31.235464 -10.511672 -31.813431 45.806592 0.324625 2.338544 -0.000723 0.008045 293996.000000 0 0 1
-32.569534 -10.976372 -31.653051 46.724415 0.325059 2.315075 -0.007593 0.009336 17027.300000 0 0 1
-32.651764 -12.514772 -31.807991 47.270557 0.366010 2.308908 0.004488 0.008345 -122325.000000 0 0 1
-33.982284 -12.933972 -31.565441 48.150393 0.363679 2.285719 -0.006923 0.007322 50865.300000 0 0 1
-34.018084 -14.365072 -31.588171 48.594217 0.399562 2.278433 -0.002709 0.009683 626169.000000 0 0 1
-35.238244 -15.122472 -30.963291 49.286392 0.405380 2.250075 0.011503 0.003396 495264.000000 0 0 1
-35.161960 -15.012272 -29.597811 48.350410 0.403518 2.229576 0.016076 0.000918 37279.900000 0 0 1
35.056642 -16.114872 -28.878361 48.193537 -0.430875 2.213318 0.017896 0.002667 14856.900000 0 0 1
35.109103 -15.827272 -27.373501 47.248918 -0.423521 2.188723 0.026409 -0.004844 -63414.100000 0 0 1
-34.353670 -15.850872 -26.871411 46.405792 0.432296 2.188363 0.021580 -0.010711 -59092.900000 0 0 1
-34.294094 -15.601272 -25.472901 45.479152 0.426943 2.165304 0.034021 -0.015689 -52646.600000 0 0 1
-32.860794 -15.387572 -24.928291 44.023049 0.437939 2.172752 0.039161 -0.009940 619538.000000 0 0 1
-31.895544 -16.429772 -25.084711 43.777915 0.475664 2.180957 0.041908 -0.008516 -11153.700000 0 0 1
-30.718464 -16.157772 -24.382891 42.417249 0.484227 2.183198 0.036285 0.004629 156583.000000 0 0 1
-29.476504 -17.018172 -24.760691 42.090074 0.523596 2.199725 0.037499 -0.009496 319529.000000 0 0 1
-29.477534 -18.278872 -24.175491 42.278796 0.555064 2.179508 0.043671 -0.022253 -63351.300000 0 0 1
-30.258024 -19.226172 -24.846691 43.618251 0.566048 2.176864 0.042249 -0.026118 -150885.000000 0 0 1
-30.107614 -20.536972 -24.061091 43.671178 0.598624 2.154311 0.038510 -0.033191 618703.000000 0 0 1
-28.875874 -21.209772 -24.351491 43.320499 0.633517 2.167748 0.038071 -0.028405 525905.000000 0 0 1
-28.758544 -22.386472 -23.501691 43.365164 0.661449 2.143550 0.034112 -0.028100 -376672.000000 0 0 1
-27.451534 -23.224972 -23.736091 43.085822 0.702188 2.154242 0.030985 -0.023017 748140.000000 0 0 1
-26.230844 -22.670972 -23.291491 41.767496 0.712730 2.162344 0.013659 -0.028395 14028.300000 0 0 1
-26.145674 -22.410472 -21.894391 40.806738 0.708624 2.137126 0.009971 -0.028331 -1097640.000000 0 0 1
-26.086444 -23.603972 -20.890891 40.915515 0.735481 2.106663 0.008916 -0.017851 -252164.000000 0 0 1
-26.061824 -23.275572 -19.510791 40.020519 0.728985 2.080043 0.003555 -0.020723 -17137.300000 0 0 1
-26.198194 -24.412772 -18.707791 40.401860 0.750135 2.052221 0.001192 0.001425 -195079.000000 0 0 1
-26.204904 -24.077872 -17.193991 39.523085 0.743122 2.020875 0.000164 -0.005398 -62564.200000 0 0 1
-27.314314 -23.295172 -16.841391 39.653112 0.706150 2.009447 0.013125 -0.006453 -422891.000000 0 0 1
-26.963284 -22.273272 -15.970191 38.446903 0.690430 1.999160 0.005819 -0.002155 -300118.000000 0 0 1
-28.148474 -21.507672 -15.379591 38.619275 0.652451 1.980389 0.016704 0.005726 -207415.000000 0 0 1
-28.842104 -20.794872 -16.382591 39.149495 0.624675 2.002548 0.023642 0.004746 5433.260000 0 0 1
-29.995714 -20.223772 -15.778491 39.467767 0.593215 1.982075 0.033289 -0.004546 -308589.000000 0 0 1
-30.965764 -19.577672 -16.746391 40.281577 0.563786 1.999545 0.052880 -0.030337 -1153980.000000 0 0 1
-31.902924 -20.502672 -17.159691 41.624646 0.571197 1.995717 0.037976 -0.021141 -446727.000000 0 0 1
-32.781614 -19.839972 -18.078391 42.368466 0.544246 2.011631 0.034418 -0.019271 50670.400000 0 0 1
-33.563834 -20.798272 -19.037391 43.835161 0.554752 2.020052 0.031874 -0.019614 167465.000000 0 0 1
-34.761751 -21.377572 -18.591691 44.844519 0.551357 1.998279 0.031215 -0.012783 -286082.000000 0 0 1
-34.725183 -22.130872 -17.443391 44.720082 0.567406 1.971490 0.042757 -0.014596 -376120.000000 0 0 1
35.082378 -23.345972 -17.559791 45.652535 -0.587168 1.965614 0.032096 0.010839 739189.000000 0 0 1
33.751722 -23.167172 -17.072191 44.354891 -0.601540 1.965896 0.029314 -0.003305 92127.100000 0 0 1
33.149072 -24.407072 -17.039291 44.552257 -0.634664 1.963250 0.014065 0.006585 1357200.000000 0 0 1
31.604402 -24.400872 -16.632091 43.253523 -0.657478 1.965490 0.010493 0.001772 1968550.000000 0 0 1
30.683012 -23.862472 -17.586691 42.663292 -0.661001 1.995686 -0.001474 0.004964 901318.000000 0 0 1
29.354032 -24.283272 -17.265591 41.826273 -0.691140 1.996315 -0.004236 0.001519 1353940.000000 0 0 1
28.133362 -23.913172 -18.172791 41.153083 -0.704490 2.028166 0.014424 0.014997 582912.000000 0 0 1
27.778132 -22.545272 -18.232391 40.153879 -0.681786 2.042117 0.025921 0.012455 1358260.000000 0 0 1
26.429552 -22.499272 -18.777091 39.462864 -0.705244 2.066689 0.024231 0.002354 1080420.000000 0 0 1
33.572032 30.182528 -18.351491 48.732366 0.732283 1.956895 -0.004896 0.003387 18032.200000 0 0 1
32.765642 30.150928 -19.521291 48.618377 0.743864 1.983973 -0.006128 -0.002712 -125890.000000 0 0 1
33.525002 29.801928 -20.645891 49.379484 0.726674 2.002156 -0.002805 0.006601 -60280.500000 0 0 1
32.680382 29.845228 -21.944791 49.399583 0.740085 2.031111 -0.006058 0.008406 -193197.000000 0 0 1
31.581262 28.903228 -21.883891 48.079906 0.741151 2.043345 -0.007388 0.005015 376548.000000 0 0 1
30.746632 29.029328 -22.980891 48.126693 0.756677 2.068613 -0.004903 0.016089 -400512.000000 0 0 1
29.694252 30.137628 -22.927391 48.121622 0.792808 2.067405 -0.004762 0.017329 -1316320.000000 0 0 1
30.240892 31.401628 -22.782791 49.189728 0.804226 2.052355 -0.006715 0.018811 -102983.000000 0 0 1
29.188812 32.339028 -22.967791 49.247527 0.836553 2.055984 0.011793 0.018261 -264431.000000 0 0 1
29.480662 33.829028 -22.743191 50.306712 0.853975 2.039904 0.006064 0.012343 -238482.000000 0 0 1
29.905362 34.166028 -21.445191 50.214981 0.851799 2.012044 0.000452 0.013019 810058.000000 0 0 1
31.340572 34.098728 -21.331991 50.990279 0.827522 2.002429 -0.006411 0.008721 560979.000000 0 0 1
31.630712 33.909828 -19.852291 50.442956 0.820158 1.975296 -0.005227 -0.001564 -359450.000000 0 0 1
31.546682 -33.993097 -19.099791 50.155018 -0.822708 1.961474 0.004943 0.002848 122352.000000 0 0 1
31.491132 -34.100997 -17.701491 49.678085 -0.825166 1.935127 0.006300 -0.011739 -474713.000000 0 0 1
31.579902 -32.697597 -17.093091 48.565387 -0.802785 1.930461 0.007941 0.004178 28670.000000 0 0 1
32.787362 -31.967197 -17.232991 48.927382 -0.772733 1.930734 0.014220 0.005279 -697789.000000 0 0 1
33.670692 -32.232697 -16.207991 49.349379 -0.763582 1.905441 0.020217 0.002112 -469002.000000 0 0 1
34.978273 -31.465497 -16.576591 49.883268 -0.732579 1.909546 0.018526 0.004719 90933.300000 0 0 1
-35.053355 -32.003597 -17.644591 50.638913 0.739949 1.926702 0.014986 0.004609 -313384.000000 0 0 1
-33.751654 -31.467797 -17.716291 49.429377 0.750394 1.937367 0.012999 0.013541 258240.000000 0 0 1
-32.882914 -32.148497 -18.795991 49.679987 0.774105 1.958800 0.006162 0.007931 -1128420.000000 0 0 1
-32.354804 -33.403997 -18.469291 50.037736 0.801352 1.948845 0.007924 -0.000416 566244.000000 0 0 1
-31.264124 -33.841797 -19.293791 49.949605 0.824969 1.967375 0.009892 0.002353 997686.000000 0 0 1
-29.948984 -33.015697 -19.271991 48.563232 0.834065 1.978871 0.010285 0.000775 -1210020.000000 0 0 1
-30.053674 -31.892197 -20.102591 48.212547 0.815069 2.000892 0.009457 0.003893 142820.000000 0 0 1
-28.850894 -31.491397 -20.739591 47.478551 0.829129 2.022857 0.018843 0.001058 348132.000000 0 0 1
-28.006554 -32.459597 -21.634991 48.021509 0.858911 2.038152 0.015188 0.005064 -123359.000000 0 0 1
-28.687944 -32.988497 -22.766291 49.290395 0.855013 2.050911 0.010244 0.010001 55784.800000 0 0 1
-27.956644 -34.096497 -23.312091 49.875832 0.884022 2.057147 0.007730 0.004697 87340.500000 0 0 1
-28.675014 34.317028 -24.483791 50.984025 -0.874727 2.071707 0.002151 0.006536 455324.000000 0 0 1
-29.917934 33.716628 -24.079991 51.105183 -0.845023 2.061430 -0.007376 0.006048 626481.000000 0 0 1
-30.566974 32.877328 -25.047491 51.406570 -0.821798 2.079726 -0.007584 0.009480 436621.000000 0 0 1
-31.570794 33.682928 -25.947151 52.957618 -0.817755 2.082841 0.002181 0.001968 -113516.000000 0 0 1
-31.006904 -34.398297 -26.782031 53.497178 0.837204 2.095117 -0.004423 -0.004044 -389923.000000 0 0 1
-32.026974 -33.836697 -27.567961 54.135401 0.812868 2.105099 -0.007024 -0.002774 181530.000000 0 0 1
-31.498604 -32.873497 -28.669201 53.802899 0.806753 2.132768 0.000058 0.001787 191196.000000 0 0 1
-31.032744 -33.427697 -29.888921 54.532465 0.822535 2.150880 0.003916 -0.000383 -438482.000000 0 0 1
-32.021964 -33.560197 -30.843761 55.704852 0.808849 2.157597 -0.000940 -0.000219 -944977.000000 0 0 1
-31.764334 34.454928 -31.896291 56.687638 -0.826007 2.168405 0.015394 -0.005238 146602.000000 0 0 1
-30.889774 -34.265697 -32.943291 56.688416 0.837165 2.190912 0.013754 -0.014387 97536.700000 0 0 1
-30.968784 33.886228 -33.985891 57.117272 -0.830352 2.208086 0.014000 -0.013673 -573509.000000 0 0 1
-30.223974 34.272628 33.678754 56.765836 -0.848089 0.935653 0.023047 -0.024554 -58886.900000 0 0 1
-28.826224 34.158028 33.797079 56.035387 -0.869850 0.923367 0.026182 -0.022100 -372153.000000 0 0 1
-28.491474 32.905428 33.234541 54.763729 -0.857167 0.918678 0.038861 -0.027592 -1244740.000000 0 0 1
-27.020894 32.538428 33.146989 53.736402 -0.877774 0.906069 0.040860 -0.029096 -1038330.000000 0 0 1
-26.530434 32.277528 34.422913 54.135383 -0.882815 0.881665 0.050113 -0.029109 1353300.000000 0 0 1
-25.155294 31.761528 34.405283 53.153617 -0.900949 0.866785 0.056785 -0.029887 1264470.000000 0 0 1
-24.855384 30.242828 34.219288 51.994023 -0.882867 0.852452 0.056932 -0.027874 -356180.000000 0 0 1
-25.093724 29.458228 -33.610511 51.255718 -0.865234 2.285961 0.064179 -0.023366 193002.000000 0 0 1
-24.974684 28.077328 -33.840571 50.569313 -0.843815 2.303917 0.055763 -0.016120 -290785.000000 0 0 1
-24.970784 27.233228 -32.565841 49.251627 -0.828710 2.293232 0.074841 -0.017521 683369.000000 0 0 1
-23.795584 27.237628 -31.708281 48.099202 -0.852743 2.290586 0.068307 -0.016120 834856.000000 0 0 1
-23.729684 28.340528 -30.754501 48.084538 -0.873718 2.264764 0.053269 -0.008299 -254585.000000 0 0 1
-22.558684 28.346028 -29.758431 46.882361 -0.898602 2.258477 0.067872 -0.011067 -412114.000000 0 0 1
-21.335484 28.475828 -30.441211 46.826734 -0.927776 2.278489 0.062029 -0.008788 467560.000000 0 0 1
-20.105784 28.422228 -29.707041 45.766515 -0.955124 2.277197 0.022642 -0.006856 886113.000000 0 0 1
-19.841384 29.634428 -28.780001 45.827593 -0.980808 2.249785 0.015104 0.001083 -873157.000000 0 0 1
-19.614184 30.843928 -29.420821 46.921731 -1.004385 2.248517 0.009458 0.000994 308111.000000 0 0 1
-18.950184 31.831928 -28.638031 46.824330 -1.033825 2.228885 0.017067 -0.000685 -159200.000000 0 0 1
-18.600484 33.066228 -29.481291 48.046852 -1.058390 2.231401 0.011083 0.002050 -248935.000000 0 0 1
-17.466284 32.854928 -30.272571 47.968176 -1.082175 2.253763 0.004116 -0.001129 -502784.000000 0 0 1
-17.378884 33.864628 -31.261191 49.255464 -1.096655 2.258384 0.002579 0.006047 -524418.000000 0 0 1
-15.981684 33.909728 -31.872761 49.205251 -1.130370 2.275425 -0.008171 0.010809 -930938.000000 0 0 1
-15.131184 -34.480797 -31.014901 48.783216 1.157271 2.259802 0.000239 0.004909 -650381.000000 0 0 1
-13.762084 -34.434297 -31.285021 48.516680 1.190581 2.271597 0.011789 0.008513 259892.000000 0 0 1
-12.964484 33.346028 -31.112181 47.413112 -1.199994 2.286560 0.010557 0.003211 -686079.000000 0 0 1
-12.944684 32.920228 -29.736401 46.212117 -1.196154 2.269827 0.021332 -0.004339 3033.430000 0 0 1
-12.614084 31.506928 -29.695371 45.095639 -1.189980 2.289617 0.015395 -0.002346 -225124.000000 0 0 1
-12.478984 30.943928 -28.263921 43.727576 -1.187468 2.273606 0.019825 -0.011769 -742507.000000 0 0 1
-11.314284 31.260628 -27.584211 43.198710 -1.223530 2.263399 0.022458 -0.004223 -717981.000000 0 0 1
-11.261084 30.848328 -26.215161 42.019829 -1.220780 2.244489 0.017335 -0.012817 -408966.000000 0 0 1
-9.914584 31.216128 -25.602321 41.571919 -1.263262 2.234268 0.021440 -0.008967 -216666.000000 0 0 1
-8.895984 30.346528 -26.045851 40.968727 -1.285639 2.259776 0.024567 0.003775 789222.000000 0 0 1
-7.588684 30.923028 -25.777591 40.967133 -1.330146 2.251353 0.027714 -0.004689 1161940.000000 0 0 1
-6.358384 30.059628 -26.114351 40.323313 -1.362343 2.275259 0.013896 -0.000898 -79362.400000 0 0 1
-6.106384 28.970328 -25.246561 38.909596 -1.363057 2.276871 0.015682 -0.013297 -704937.000000 0 0 1
-5.085084 28.221528 -25.784991 38.563953 -1.392525 2.303160 0.017245 -0.015632 -654471.000000 0 0 1
-4.813884 26.944828 -24.978691 37.055799 -1.394004 2.310519 0.023486 -0.025092 -320414.000000 0 0 1
-5.725384 25.881028 -25.151521 36.540479 -1.353083 2.329966 0.026203 -0.022871 -39129.300000 0 0 1
-5.320784 24.724028 -24.410391 35.149047 -1.358822 2.338496 0.031417 -0.029982 227261.000000 0 0 1
-6.418984 23.600128 -24.440391 34.576034 -1.305231 2.355845 0.025261 -0.027414 303284.000000 0 0 1
-6.291484 22.829628 -25.582331 34.860154 -1.301887 2.394777 0.028576 -0.025581 -398322.000000 0 0 1
-7.106384 21.744228 -25.658081 34.375126 -1.254922 2.413454 0.023174 -0.025234 -1130400.000000 0 0 1
-6.994384 20.954928 -27.003571 34.888727 -1.248642 2.455917 0.016490 -0.018812 -460068.000000 0 0 1
-5.785784 20.275028 -27.150851 34.376166 -1.292820 2.481306 0.029898 -0.026590 -603618.000000 0 0 1
-5.729684 19.110928 -26.336261 33.040210 -1.279512 2.493269 0.026812 -0.023257 -634492.000000 0 0 1
-4.431384 18.307628 -26.419451 32.446784 -1.333313 2.522214 0.028035 -0.028034 -164135.000000 0 0 1
-4.348784 17.628128 -27.681601 33.104892 -1.328930 2.561074 0.017500 -0.022592 -609438.000000 0 0 1
-3.173584 16.895928 -27.747611 32.641598 -1.385128 2.586913 0.019399 -0.021329 -821165.000000 0 0 1
-2.830984 16.576128 -29.256451 33.744961 -1.401642 2.619921 0.017697 -0.011820 -81876.600000 0 0 1
-2.386584 17.696828 -30.041371 34.947925 -1.436746 2.605290 0.024199 -0.019325 264136.000000 0 0 1
-2.015484 17.439328 -31.390751 35.966256 -1.455736 2.631672 0.020224 -0.021596 -157232.000000 0 0 1
-1.404384 18.703628 -32.010111 37.100474 -1.495851 2.611569 0.030616 -0.009858 -187271.000000 0 0 1
-0.090484 18.910428 -31.528771 36.765145 -1.566011 2.601328 0.041014 -0.016533 -112472.000000 0 0 1
0.475216 20.078128 -32.060631 37.831747 1.547132 2.581965 0.051242 -0.001097 209124.000000 0 0 1
0.227816 21.306128 -31.109961 37.707196 1.560104 2.541070 0.043506 0.000834 -247098.000000 0 0 1
1.044416 21.255228 -29.976251 36.762088 1.521699 2.524237 0.057574 -0.025372 -421030.000000 0 0 1
0.762016 22.310828 -29.140311 36.708465 1.536655 2.487879 0.057755 -0.022105 -208048.000000 0 0 1
1.788216 22.634528 -28.051221 36.088649 1.491956 2.461138 0.061919 -0.013864 87497.700000 0 0 1
2.998916 23.129228 -28.593361 36.898983 1.441857 2.457368 0.053487 -0.011342 344522.000000 0 0 1
4.051616 23.187528 -27.612891 36.284277 1.397810 2.435673 0.047183 -0.013110 586234.000000 0 0 1
4.637516 24.628528 -27.468261 37.183011 1.384677 2.401983 0.052194 -0.009773 -138828.000000 0 0 1
5.490616 25.020528 -28.525141 38.338719 1.354776 2.409878 0.052787 -0.015240 130458.000000 0 0 1
5.798716 26.377328 -28.391591 39.185086 1.354401 2.381179 0.042900 -0.021160 -143263.000000 0 0 1
6.499216 27.007128 -29.627781 40.613177 1.334639 2.388404 0.037061 -0.011751 313236.000000 0 0 1
7.908516 26.837428 -29.535611 40.683467 1.284225 2.383263 0.034256 -0.004381 32061.300000 0 0 1
8.610016 27.616028 -30.453431 42.002248 1.268571 2.381893 0.049176 -0.007769 682981.000000 0 0 1
10.157616 27.557128 -30.177631 42.110116 1.217647 2.369764 0.042025 -0.012005 808264.000000 0 0 1
10.874516 28.471928 -30.988631 43.464940 1.205957 2.364502 0.046567 -0.015403 -291101.000000 0 0 1
12.120016 28.769828 -30.409581 43.581423 1.172085 2.343069 0.034668 -0.021723 -291310.000000 0 0 1
12.929116 29.771428 -31.233431 45.044724 1.161092 2.336975 0.046833 -0.015157 -428335.000000 0 0 1
12.503616 31.095328 -31.269291 45.836976 1.188476 2.321543 0.039728 -0.010880 233584.000000 0 0 1
13.485816 31.913428 -31.887011 47.086257 1.170981 2.314753 0.067803 -0.017051 151685.000000 0 0 1
12.990216 33.403628 -31.862611 47.955959 1.199907 2.297506 0.075173 -0.020748 264887.000000 0 0 1
12.004016 33.607828 -32.857131 48.509520 1.227740 2.314929 0.065486 -0.016710 161070.000000 0 0 1
11.415716 -34.203597 -32.708161 48.682937 -1.248664 2.307515 0.063792 -0.016135 696698.000000 0 0 1
10.011216 -34.036597 -33.390181 48.719796 -1.284733 2.325882 0.044444 -0.014468 660109.000000 0 0 1
10.072716 -33.879797 34.161803 49.156170 -1.281812 0.802426 0.047709 -0.010011 326857.000000 0 0 1
8.759516 -33.638197 33.674834 48.396816 -1.316050 0.801254 0.050324 -0.015684 291439.000000 0 0 1
8.767516 -33.036097 32.245343 46.989522 -1.311384 0.814511 0.051825 -0.013502 143131.000000 0 0 1
9.356316 -31.744897 32.249283 46.209256 -1.284177 0.798340 0.022300 -0.026798 190080.000000 0 0 1
9.637916 -31.240497 30.932413 45.007469 -1.271553 0.813068 0.027107 -0.010896 -606565.000000 0 0 1
9.266416 -29.760997 31.042483 43.991126 -1.268949 0.787452 0.005127 -0.026533 585931.000000 0 0 1
7.886616 -29.391597 31.129813 43.533090 -1.308643 0.774052 0.000210 -0.013258 277257.000000 0 0 1
7.468016 -29.401197 32.480023 44.442699 -1.322053 0.751260 -0.003116 -0.004489 -59859.400000 0 0 1
5.947316 -29.008297 32.598213 44.039702 -1.368577 0.737428 -0.021486 -0.011858 1074920.000000 0 0 1
4.939716 -29.936297 32.229573 44.264297 -1.407262 0.755226 0.008302 -0.016165 136734.000000 0 0 1
5.035716 -30.618897 30.973563 43.843322 -1.407791 0.786312 0.002576 -0.015647 -1133770.000000 0 0 1
4.559416 -29.822497 29.754623 42.373425 -1.419086 0.792313 -0.005091 -0.009574 -1121810.000000 0 0 1
3.210016 -29.550897 29.675323 42.002196 -1.462594 0.786230 0.011764 -0.012468 -728030.000000 0 0 1
2.972916 -28.915697 28.399973 40.638826 -1.468343 0.797024 0.026245 -0.016393 60378.400000 0 0 1
1.474916 -29.046697 28.015163 40.382364 -1.520062 0.804117 0.024496 -0.020284 181874.000000 0 0 1
1.114516 -30.302797 27.445693 40.899483 -1.534034 0.835169 0.020934 -0.024525 160035.000000 0 0 1
0.711516 -31.347897 28.321283 42.252715 -1.548103 0.836206 0.038859 -0.024263 -716508.000000 0 0 1
0.857716 -32.793697 27.694483 42.931883 -1.544647 0.869669 0.025808 -0.018783 -660777.000000 0 0 1
2.157016 -33.193197 27.380513 43.082868 -1.505904 0.882100 0.016601 -0.018785 -332696.000000 0 0 1
2.694116 -32.594697 26.204803 41.908999 -1.488329 0.895308 0.015093 -0.018388 -588191.000000 0 0 1
4.172816 -32.888697 25.962293 42.108425 -1.444594 0.906433 0.011246 -0.008803 -16920.300000 0 0 1
4.774016 -32.191697 24.853473 40.948647 -1.423570 0.918589 0.009498 -0.007318 1161800.000000 0 0 1
6.204016 -32.069197 24.960753 41.109152 -1.379700 0.918287 0.004154 -0.013483 873841.000000 0 0 1
6.966316 -31.778797 23.616883 40.201724 -1.354997 0.942880 0.001426 -0.001901 -203519.000000 0 0 1
8.349116 -31.605297 23.746183 40.404006 -1.312528 0.942560 0.010859 -0.001439 -353444.000000 0 0 1
8.959516 -31.416497 22.517883 39.677755 -1.292986 0.967307 0.001517 -0.002349 -267334.000000 0 0 1
10.107316 -30.405797 22.468183 39.134250 -1.249873 0.959254 0.000836 -0.001047 -172958.000000 0 0 1
11.224516 -30.788997 23.253483 40.183038 -1.221208 0.953676 0.014503 -0.002350 101374.000000 0 0 1
12.229216 -29.787797 23.119483 39.640598 -1.181233 0.948100 0.010455 0.008270 -95479.100000 0 0 1
13.449016 -30.035397 24.007743 40.735400 -1.149797 0.940532 0.036425 -0.000769 -353305.000000 0 0 1
13.160616 -29.927797 25.396263 41.398611 -1.156503 0.910366 0.015904 -0.003091 -579139.000000 0 0 1
14.283016 -29.678197 26.153203 42.056984 -1.122250 0.899691 0.027261 0.002554 -1046550.000000 0 0 1
-10.453184 -13.734772 25.858703 31.089959 0.920245 0.588565 0.023488 -0.013477 -1322690.000000 0 0 1
-9.112784 -13.977072 25.706033 30.646395 0.993030 0.575731 0.013099 -0.020627 -1299550.000000 0 0 1
-8.471984 -14.265272 26.944823 31.643261 1.034883 0.551922 0.012757 -0.017294 -934835.000000 0 0 1
-6.968084 -14.316072 26.836583 31.204267 1.117820 0.535469 0.023479 -0.016171 -981285.000000 0 0 1
-6.356784 -15.340672 26.028043 30.874001 1.177960 0.567884 0.018935 -0.016925 204248.000000 0 0 1
-6.334284 -14.999072 24.666733 29.555762 1.171205 0.583421 0.020915 -0.013425 -690476.000000 0 0 1
-5.644884 -16.030872 23.714483 29.175851 1.232229 0.621833 0.016350 -0.014869 -8114.320000 0 0 1
-6.240684 -17.274572 23.456983 29.792399 1.224122 0.664301 0.018152 -0.012984 -462582.000000 0 0 1
-6.167784 -18.157672 24.518243 31.126948 1.243345 0.663753 0.011019 -0.010520 -421047.000000 0 0 1
-6.924884 -19.502072 24.303393 31.920836 1.229599 0.705381 0.012879 -0.002959 -788393.000000 0 0 1
-8.298384 -19.315072 24.136143 32.007633 1.165008 0.716552 0.010990 0.002275 -942648.000000 0 0 1
-8.886284 -20.570072 23.884483 32.749999 1.163011 0.753502 0.004478 0.006882 259873.000000 0 0 1
-10.426284 -20.419372 24.009633 33.198202 1.098699 0.762342 0.013458 -0.000198 138154.000000 0 0 1
-10.961484 -20.365572 25.310403 34.285962 1.077030 0.740376 0.019233 -0.002583 -134820.000000 0 0 1
-12.363684 -20.455572 25.342023 34.835460 1.027136 0.756158 0.034241 -0.002720 9896.890000 0 0 1
-12.930384 -20.671772 26.785773 36.221467 1.011831 0.738469 0.038172 -0.002343 -342627.000000 0 0 1
-12.655584 -21.962972 27.348763 37.289285 1.048043 0.747455 0.036520 -0.000234 355886.000000 0 0 1
-11.893784 -21.802772 28.552113 37.842385 1.071401 0.715903 0.029926 -0.002055 203080.000000 0 0 1
-11.497084 -23.102172 29.225813 38.987709 1.109020 0.723315 0.019780 -0.002359 672654.000000 0 0 1
-12.653084 -23.796872 29.762913 40.152493 1.082102 0.735870 0.010992 -0.004653 917020.000000 0 0 1
-12.399984 -25.187812 30.067923 41.137155 1.113327 0.751129 0.010875 -0.012147 295484.000000 0 0 1
-13.512384 -25.671362 31.059883 42.500820 1.086284 0.751293 0.007757 -0.019440 494223.000000 0 0 1
-13.367584 -25.225282 32.400653 43.183440 1.083494 0.722276 0.034717 -0.017406 44817.500000 0 0 1
-14.524884 -25.475062 33.182519 44.283525 1.052606 0.723762 0.034254 -0.024056 -416867.000000 0 0 1
-14.423084 -24.885472 -34.336532 44.791847 1.045528 2.444294 0.027114 -0.024145 -105535.000000 0 0 1
-14.327784 -23.494672 -34.130293 43.842467 1.023179 2.463030 0.033790 -0.023181 -248312.000000 0 0 1
-15.442084 -22.718372 34.435978 44.050187 0.973813 0.673338 0.028350 -0.025152 -300628.000000 0 0 1
-15.353084 -21.271972 -34.110843 43.032123 0.945621 2.485994 0.014996 -0.016145 -133971.000000 0 0 1
-15.572284 -21.003072 -32.739221 41.898469 0.932803 2.467693 0.019550 -0.014244 108182.000000 0 0 1
-15.859484 -19.648072 -32.564081 41.206666 0.891694 2.482034 0.009896 -0.017538 -607192.000000 0 0 1
-15.879484 -19.272172 -31.122091 39.901869 0.881616 2.465407 0.005589 -0.009197 -177620.000000 0 0 1
-17.041884 -19.658572 -30.431011 40.036630 0.856576 2.434231 0.004738 -0.011114 -219094.000000 0 0 1
-17.002584 -19.372372 -29.015361 38.810667 0.850455 2.415257 -0.001838 -0.004977 98608.100000 0 0 1
-16.051184 -20.200372 -28.112341 38.157558 0.899358 2.399038 0.003063 -0.007066 -314404.000000 0 0 1
-14.687684 -19.899672 -28.215061 37.520857 0.934963 2.421862 0.005944 -0.009708 -836379.000000 0 0 1
-14.015484 -20.877772 -27.511871 37.272218 0.979585 2.401096 -0.001067 -0.000745 -660854.000000 0 0 1
-12.516284 -20.916972 -27.791701 36.966955 1.031569 2.421582 0.039162 -0.006926 -810909.000000 0 0 1
-11.802884 -19.858972 -27.191491 35.680023 1.034553 2.437336 0.039619 -0.014349 305588.000000 0 0 1
-10.410384 -19.991972 -26.962341 35.142892 1.090704 2.445292 0.035330 -0.015887 603948.000000 0 0 1
-9.889884 -21.171872 -26.028661 34.979268 1.133794 2.410008 0.028748 -0.015514 -508811.000000 0 0 1
-9.828484 -22.473572 -26.570691 36.161612 1.158524 2.396133 0.030067 -0.015583 96988.200000 0 0 1
-9.498384 -23.400972 -25.603951 35.963692 1.185217 2.363052 0.034659 -0.014244 -191745.000000 0 0 1
-9.611784 -24.878372 -26.067481 37.293878 1.202111 2.344759 0.036769 -0.015898 -590489.000000 0 0 1
-8.556084 -25.380302 -26.842141 37.919215 1.245646 2.357284 0.033114 -0.017575 -131108.000000 0 0 1
-8.853884 -26.624332 -27.465031 39.262887 1.249752 2.345517 0.033352 -0.013907 -56117.600000 0 0 1
-8.720584 -27.915832 -26.632591 39.555495 1.268013 2.309455 0.041846 -0.017235 360096.000000 0 0 1
-9.930384 -28.092082 -25.896531 39.476676 1.231012 2.286297 0.029278 -0.014085 313550.000000 0 0 1
-9.939884 -29.311442 -25.176661 39.897697 1.243853 2.253677 0.040981 -0.011469 342150.000000 0 0 1
-11.039284 -29.345332 -24.040591 39.509041 1.210987 2.224944 0.036941 -0.014396 -218365.000000 0 0 1
-10.872784 -28.339392 -23.047191 38.111830 1.204452 2.220217 0.045163 -0.023196 -104482.000000 0 0 1
-11.629184 -27.170852 -23.349791 37.665712 1.166386 2.239439 0.016949 -0.014505 -211857.000000 0 0 1
-11.309984 -26.033222 -22.388191 36.150733 1.160954 2.238649 0.021505 -0.019377 -42193.700000 0 0 1
-11.757684 -26.376002 -21.086991 35.757486 1.151464 2.201511 0.018413 -0.018561 223796.000000 0 0 1
-11.937084 -25.226922 -20.260691 34.487493 1.128827 2.198737 0.005582 -0.011836 -92345.900000 0 0 1
-12.383784 -25.495502 -18.778591 34.000209 1.118634 2.155927 0.018481 -0.008813 -333590.000000 0 0 1
-13.725184 -25.880002 -18.735691 34.773284 1.083173 2.139803 0.034257 -0.013846 -619028.000000 0 0 1
-14.122884 -26.183762 -17.460791 34.495282 1.076147 2.101545 0.035853 -0.013080 832623.000000 0 0 1
-15.675384 -26.431272 -17.328791 35.279127 1.035494 2.084253 0.042331 -0.016324 -469787.000000 0 0 1
-16.420184 -25.270842 -17.253591 34.726421 0.994584 2.090754 0.040352 -0.009181 -991357.000000 0 0 1
-17.695084 -25.370902 -16.714491 35.159250 0.961780 2.066208 0.043817 -0.007549 -396840.000000 0 0 1
-18.723584 -26.059322 -17.674991 36.634222 0.947763 2.074271 0.035838 -0.005665 -1438080.000000 0 0 1
-18.564984 -27.428212 -18.032191 37.711078 0.975772 2.069363 0.028662 -0.001320 -232172.000000 0 0 1
-18.824584 -28.451742 -17.072091 38.148695 0.986287 2.034780 0.037762 -0.011242 227784.000000 0 0 1
-20.309984 -28.908112 -16.914491 39.169815 0.958347 2.017311 0.030343 -0.003985 474651.000000 0 0 1
-20.546484 -29.848602 -17.913591 40.422689 0.967928 2.029913 0.031399 -0.001054 -476502.000000 0 0 1
-21.792484 -30.466092 -17.725691 41.440261 0.949874 2.012788 0.026570 0.001113 -410137.000000 0 0 1
-22.208884 -31.316922 -18.944891 42.812300 0.953945 2.029193 0.016557 -0.002266 -141937.000000 0 0 1
-21.557484 -32.566462 -19.067391 43.461074 0.986064 2.024974 0.014083 -0.008072 -85473.900000 0 0 1
-21.922684 -33.360942 -20.178891 44.729679 0.989421 2.038827 0.018709 -0.002275 112598.000000 0 0 1
-21.319084 34.323537 -20.177191 45.163343 -1.014991 2.033937 0.012176 -0.004331 -328111.000000 0 0 1
-22.083784 33.446647 -19.436591 44.543830 -0.987236 2.022332 0.018484 -0.006826 -262019.000000 0 0 1
-21.340184 32.328782 -19.016591 43.153034 -0.987355 2.027150 0.025541 -0.009227 94023.400000 0 0 1
-22.314084 31.242602 -18.476791 42.607632 -0.950591 2.019336 0.028286 -0.011969 513192.000000 0 0 1
-23.006584 31.407032 -17.217591 42.569355 -0.938570 1.987184 0.018933 -0.007735 -145343.000000 0 0 1
-23.750184 30.279132 -16.876991 42.020589 -0.905656 1.984099 0.026463 -0.011897 -285425.000000 0 0 1
-22.990584 28.970462 -16.504091 40.499872 -0.899978 1.990522 0.026753 -0.019223 -393911.000000 0 0 1
-22.335184 28.402892 -17.595291 40.189290 -0.904422 2.023958 0.025830 -0.019619 -111653.000000 0 0 1
-21.896084 27.065302 -17.384991 38.912813 -0.890586 2.033946 0.011048 -0.008147 23051.100000 0 0 1
-21.005884 26.588042 -18.547791 38.628897 -0.902152 2.071626 0.026557 -0.004067 -810564.000000 0 0 1
-20.759084 25.172652 -18.599291 37.557098 -0.881194 2.088892 0.030120 -0.009450 -3600.380000 0 0 1
-19.893284 24.616222 -19.589091 37.221414 -0.891113 2.125023 0.023842 -0.003596 1027660.000000 0 0 1
-18.417784 25.162112 -19.533991 36.795699 -0.938938 2.130431 0.022271 -0.006348 -589530.000000 0 0 1
-17.658484 24.671752 -18.484991 35.527627 -0.949587 2.117997 0.022253 -0.007527 -285316.000000 0 0 1
-16.395584 25.296592 -18.421391 35.328181 -0.995734 2.119329 0.033132 -0.014167 -116546.000000 0 0 1
-16.374384 26.600122 -17.556191 35.831645 -1.019003 2.082844 0.038989 -0.021864 -396130.000000 0 0 1
-17.062584 27.656092 -18.213591 37.252196 -1.018003 2.081655 0.034937 -0.022205 51240.200000 0 0 1
-16.788484 28.889042 -17.573491 37.752583 -1.044362 2.054986 0.045418 -0.028355 -367662.000000 0 0 1
-17.935684 29.910482 -17.782691 39.147794 -1.030638 2.042321 0.053877 -0.026374 132211.000000 0 0 1
-18.203184 30.365962 -19.083491 40.219736 -1.030774 2.065170 0.045559 -0.029121 264541.000000 0 0 1
-19.128884 29.554942 -19.809191 40.395703 -0.996370 2.083321 0.035251 -0.019920 -168544.000000 0 0 1
-19.185784 29.905082 -21.300891 41.426274 -1.000380 2.110857 0.028598 -0.020370 -33589.500000 0 0 1
-19.583184 31.203222 -21.622491 42.716206 -1.010329 2.101557 0.026997 -0.020264 -80144.800000 0 0 1
-19.750884 31.286572 -23.017291 43.574565 -1.007687 2.127308 0.027490 -0.018358 127702.000000 0 0 1
-20.200384 32.713402 -23.579491 45.102268 -1.017612 2.120929 0.031652 -0.021037 153446.000000 0 0 1
-19.226884 33.737412 -23.479091 45.377899 -1.052805 2.114621 0.022824 -0.013289 21192.700000 0 0 1
-19.577584 -34.317202 -24.357491 46.413786 1.052359 2.123265 0.022097 -0.009640 -53073.100000 0 0 1
-18.631084 -33.086662 -24.300891 45.081901 1.057952 2.140092 0.037775 -0.004524 -41325.400000 0 0 1
-18.763284 -32.193022 -23.230991 43.910482 1.043092 2.128281 0.027019 -0.005391 261688.000000 0 0 1
-18.192084 -32.807112 -22.057791 43.517866 1.064492 2.102343 0.023749 -0.011453 -105752.000000 0 0 1
-18.069384 -31.873742 -20.828691 42.145847 1.055067 2.087717 0.038720 -0.011934 288692.000000 0 0 1
-17.130184 -30.803142 -20.980691 41.017876 1.063268 2.107727 0.033228 -0.010285 260995.000000 0 0 1
-17.050284 -29.943002 -19.876091 39.778821 1.053162 2.094009 0.036746 -0.010306 918920.000000 0 0 1
-15.697184 -29.125772 -19.941291 38.631170 1.076480 2.113201 0.037473 -0.009534 852413.000000 0 0 1
-14.509684 -29.857022 -20.002391 38.756527 1.118434 2.113092 0.043050 -0.016744 -485126.000000 0 0 1
-13.402184 -29.020192 -20.227491 37.827787 1.138154 2.134979 0.030666 -0.019433 55262.100000 0 0 1
-12.011584 -29.740262 -20.362391 37.991951 1.186947 2.136448 0.042326 -0.018357 745613.000000 0 0 1
-11.423984 -30.162032 -19.133191 37.501128 1.208739 2.106217 0.041090 -0.010783 123931.000000 0 0 1
-11.108184 -29.195662 -18.172491 36.138869 1.207235 2.097691 0.016520 -0.014913 -1000280.000000 0 0 1
-10.145784 -29.658192 -17.098791 35.705937 1.241185 2.070173 0.018537 -0.001212 -491151.000000 0 0 1
-10.674684 -30.592292 -16.160291 36.207627 1.235072 2.033448 0.034020 -0.009941 -30376.800000 0 0 1
-10.704784 -31.942252 -16.646291 37.576574 1.247430 2.029735 0.037892 -0.010041 -579335.000000 0 0 1
-11.734084 -32.810372 -15.961891 38.327421 1.227337 2.000346 0.064167 -0.014061 -485997.000000 0 0 1
-11.532784 -33.166362 -14.601991 38.029342 1.236149 1.964885 0.055602 -0.018392 1011180.000000 0 0 1
-12.816184 -33.386192 -13.933191 38.380024 1.204266 1.942317 0.059176 -0.014025 1128090.000000 0 0 1
-12.599884 -34.022445 -12.511391 38.377321 1.216117 1.902876 0.039619 -0.023593 -185932.000000 0 0 1
-11.990584 -33.118042 -11.650191 37.098595 1.223422 1.890235 0.029563 -0.018476 -168811.000000 0 0 1
-11.751484 -33.697712 -10.434091 37.182031 1.235251 1.855238 0.028080 -0.016787 163950.000000 0 0 1
-10.612584 -32.998472 -9.640691 35.978730 1.259635 1.842066 0.018570 -0.015748 576334.000000 0 0 1
-9.290984 -33.167282 -10.100491 35.894441 1.297672 1.856043 0.008412 -0.020974 268602.000000 0 0 1
-8.241684 -32.646922 -9.248591 34.918238 1.323514 1.838859 0.001964 -0.017811 1525790.000000 0 0 1
-6.865484 -33.092152 -9.874191 35.209730 1.366233 1.855048 0.001552 -0.021710 500796.000000 0 0 1
-6.634084 -34.449542 -9.557091 36.360968 1.380551 1.836760 -0.003531 -0.019571 -665426.000000 0 0 1
-5.416384 34.242298 -10.081691 36.104192 -1.413918 1.853798 -0.006760 -0.016737 -273191.000000 0 0 1
-4.795584 33.034682 -9.300491 34.652373 -1.426635 1.842522 -0.004202 -0.021284 -52260.000000 0 0 1
-4.283984 33.385793 -8.055491 34.610037 -1.443176 1.805701 0.001581 -0.025129 -274477.000000 0 0 1
-3.601084 32.301592 -7.479291 33.351169 -1.459772 1.796979 0.013421 -0.020547 -159564.000000 0 0 1
-3.100084 32.624312 -6.076591 33.329885 -1.476057 1.754138 0.013322 -0.015191 -255189.000000 0 0 1
-2.155184 33.694593 -6.135691 34.316426 -1.506921 1.750560 0.016975 -0.010550 -42683.100000 0 0 1
-1.838484 34.321853 -4.920791 34.721518 -1.517281 1.712997 0.016203 -0.006415 397363.000000 0 0 1
-0.752684 33.591098 -4.059891 33.843923 -1.548393 1.691045 0.024165 -0.013005 244259.000000 0 0 1
0.599316 33.668090 -4.460291 33.967538 1.552997 1.702487 0.027921 -0.006489 -38415.800000 0 0 1
1.418516 32.790102 -3.704091 33.029128 1.527563 1.683179 0.031378 -0.012159 -54243.700000 0 0 1
2.898316 32.953662 -4.063291 33.329483 1.483071 1.693013 0.036454 -0.009559 -415051.000000 0 0 1
3.484716 34.179630 -3.713491 34.556915 1.469194 1.678464 0.031825 -0.004628 1742690.000000 0 0 1
4.897016 34.209145 -4.155191 34.806781 1.428613 1.690460 0.039306 -0.000514 2243930.000000 0 0 1
5.567416 -33.556822 -3.831891 34.230686 -1.406384 1.682975 0.033731 0.002030 -10818.100000 0 0 1
5.024016 -32.476742 -4.580091 33.180668 -1.417317 1.709273 0.024708 0.007966 -1092.790000 0 0 1
5.341116 -31.275152 -3.943491 31.972078 -1.401650 1.694453 0.029646 0.001614 29983.500000 0 0 1
5.239316 -29.993042 -4.845691 30.830403 -1.397857 1.728623 0.011807 0.007793 -112259.000000 0 0 1
6.376216 -29.878652 -5.659091 31.071133 -1.360546 1.753952 0.020919 0.003413 -445681.000000 0 0 1
6.183816 -28.839022 -6.588691 30.221509 -1.359570 1.790575 0.008820 0.006127 -12605.700000 0 0 1
6.648616 -27.457762 -6.125591 28.907709 -1.333229 1.784317 0.016447 0.006178 134214.000000 0 0 1
5.696116 -26.847572 -5.282891 27.949004 -1.361731 1.760959 0.017216 0.005193 -353929.000000 0 0 1
6.278516 -25.673132 -4.739091 26.851228 -1.330948 1.748220 0.013246 -0.003735 113317.000000 0 0 1
5.539016 -24.973472 -3.585391 25.830409 -1.352534 1.710051 0.013806 -0.006519 -596896.000000 0 0 1
4.335716 -24.403572 -3.966391 25.101096 -1.394964 1.729478 0.013451 -0.013567 -866236.000000 0 0 1
3.639616 -23.815072 -2.884891 24.263699 -1.419142 1.689976 0.017929 -0.012076 -873462.000000 0 1 0
2.454916 -23.042772 -3.370691 23.417035 -1.464659 1.715240 0.025056 -0.013719 -803239.000000 0 1 0
1.451816 -23.944172 -3.778291 24.283876 -1.510237 1.727019 0.018994 -0.008587 -848327.000000 0 1 0
0.372116 -23.279772 -4.361791 23.687792 -1.554813 1.755990 0.018736 -0.010450 -150973.000000 0 1 0
-14.587084 23.443628 18.219883 33.080974 -1.014199 0.987514 -0.003870 -0.008967 -285203.000000 0 0 1
-14.999884 22.859728 19.407183 33.529128 -0.990095 0.953521 -0.006721 0.000411 188209.000000 0 0 1
-14.817384 23.852728 20.388683 34.701670 -1.014932 0.942779 -0.001199 0.003372 -916445.000000 0 0 1
-15.069084 23.379428 21.833383 35.360593 -0.998266 0.905300 0.019519 -0.002695 201756.000000 0 0 1
-14.131984 22.403928 22.393283 34.685848 -1.008050 0.868984 0.013918 0.001596 1433850.000000 0 0 1
-12.750684 22.790328 22.451583 34.439114 -1.060706 0.860681 -0.000345 -0.006405 495352.000000 0 0 1
-12.250284 23.827328 23.510183 35.644631 -1.095911 0.850548 0.022217 0.001261 -535475.000000 0 0 1
-11.813284 23.264228 24.660713 35.901654 -1.100938 0.813587 0.014999 0.008037 -41551.900000 0 0 1
-11.732684 24.185928 25.721333 37.204865 -1.119137 0.807450 0.028288 0.009117 -62144.100000 0 0 1
-11.305984 23.534128 27.039033 37.587095 -1.122945 0.767901 0.024012 0.009466 250411.000000 0 0 1
-9.932484 23.257628 27.239753 37.169552 -1.167179 0.748293 -0.004453 0.003393 -229960.000000 0 0 1
-9.687184 22.591228 28.461523 37.606693 -1.165709 0.712361 -0.010350 -0.003948 -539553.000000 0 0 1
-8.212084 22.108528 28.591003 37.063065 -1.215147 0.689735 -0.012218 -0.004852 790488.000000 0 0 1
-7.282984 23.173428 28.828593 37.697976 -1.266289 0.700182 -0.010777 -0.005479 126862.000000 0 0 1
-7.068684 24.073428 27.760053 37.418134 -1.285194 0.734915 -0.007428 -0.005181 -962881.000000 0 0 1
-6.065284 25.253628 28.078593 38.248409 -1.335086 0.746439 -0.005788 -0.013699 270229.000000 0 0 1
-4.738984 24.816828 27.905613 37.643806 -1.382109 0.735781 -0.001471 -0.012307 -424696.000000 0 0 1
-3.798384 25.823628 28.258573 38.468616 -1.424754 0.745737 0.002602 -0.008353 -359832.000000 0 0 1
-2.362584 25.355028 28.117053 37.934521 -1.477885 0.735941 0.005013 -0.002940 -749011.000000 0 0 1
-1.831984 25.305628 26.801203 36.905764 -1.498528 0.758009 0.004593 -0.009196 339270.000000 0 0 1
-0.412384 25.190228 26.939753 36.884521 -1.554427 0.751917 0.012941 0.001443 776193.000000 0 0 1
0.199016 25.023628 25.494843 35.724061 1.562843 0.776087 0.012156 -0.000657 -128107.000000 0 0 1
-0.120484 23.777528 24.923513 34.446579 -1.565729 0.761878 0.009203 -0.000126 -12523.600000 0 0 1
0.416016 23.743528 23.639083 33.507229 1.553277 0.787679 0.010802 -0.000098 -294613.000000 0 0 1
-0.005384 22.491828 22.833183 32.050532 -1.570557 0.777867 -0.006733 0.003341 141466.000000 0 0 1
0.614216 21.278328 23.243483 31.518312 1.541939 0.741495 0.008282 0.007443 -192353.000000 0 0 1
0.058816 20.155328 22.585783 30.271410 1.567878 0.728597 0.006076 0.009595 -415728.000000 0 0 1
0.789916 18.842028 22.776583 29.570572 1.528898 0.691571 0.002871 0.022004 298529.000000 0 0 1
2.046316 18.852428 22.098283 29.119333 1.462676 0.709194 -0.001673 0.021469 -283772.000000 0 0 1
2.766016 17.715528 22.138383 28.488573 1.415912 0.680756 -0.009882 0.020403 -21534.000000 0 0 1
4.229716 17.936228 21.630683 28.416284 1.339208 0.705624 0.002469 0.016213 -157436.000000 0 0 1
5.020116 18.621728 22.539683 29.664922 1.307472 0.707777 0.001320 0.020715 -1722150.000000 0 0 1
6.133216 18.921728 21.774083 29.491673 1.257346 0.740231 0.016377 0.012119 -358154.000000 0 0 1
7.267016 19.482228 22.740483 30.813898 1.213774 0.740703 0.023104 0.006211 293009.000000 0 0 1
6.928916 20.664128 23.419883 31.992295 1.247267 0.749474 0.004926 0.013452 59824.900000 0 0 1
6.556916 21.779928 22.617683 32.076751 1.278374 0.788216 0.013955 0.006745 391887.000000 0 0 1
5.581516 22.822828 23.284683 33.078864 1.330946 0.789903 0.005573 0.009862 331762.000000 0 0 1
5.365216 23.965928 22.492683 33.302733 1.350559 0.829289 0.008695 0.002312 454782.000000 0 0 1
4.420016 24.839028 23.119983 34.220571 1.394693 0.828996 -0.006234 0.010152 -92605.000000 0 0 1
4.443916 26.189028 22.397083 34.745401 1.402711 0.870289 -0.003794 0.007070 -79069.800000 0 0 1
4.054716 26.220528 21.033983 33.858311 1.417373 0.900478 -0.000986 0.002477 73573.500000 0 0 1
2.832316 25.616128 20.638783 33.017683 1.460676 0.895559 0.006376 -0.006699 -333353.000000 0 0 1
2.413816 25.955228 19.222883 32.388572 1.478064 0.935386 0.005546 -0.007384 -626431.000000 0 0 1
1.804716 27.246928 19.105283 33.326625 1.504657 0.960300 0.011292 -0.007651 302878.000000 0 0 1
1.501016 27.628528 17.800283 32.900436 1.516521 0.999129 0.011594 0.002091 -15885.200000 0 0 1
0.461816 28.768228 17.802983 33.834456 1.554745 1.016695 0.003245 0.013278 -26460.400000 0 0 1
0.928816 29.889528 18.470183 35.148175 1.539731 1.017500 0.006057 0.012510 825874.000000 0 0 1
-0.173584 30.807228 18.647983 36.011980 -1.565162 1.026487 0.005951 0.010220 690241.000000 0 0 1
0.292916 32.162028 19.165483 37.440587 1.561689 1.033412 0.004426 0.010238 -30011.300000 0 0 1
0.816816 32.227028 20.487083 38.196454 1.545456 1.004677 0.004375 0.005230 -108738.000000 0 0 1
1.064616 33.538528 20.899783 39.531850 1.539064 1.013749 0.002092 0.004218 134524.000000 0 0 1
1.697016 33.615228 22.353983 40.404999 1.520356 0.984538 0.002008 -0.010448 602414.000000 0 0 1
0.762616 33.328328 23.418583 40.740509 1.547918 0.958408 0.002484 -0.003555 633343.000000 0 0 1
1.371316 33.355828 24.664403 41.506921 1.529708 0.934496 0.002220 -0.012687 356777.000000 0 0 1
0.230616 32.905728 25.656553 41.726476 1.563788 0.908569 0.011159 -0.007921 -49818.900000 0 0 1
-0.795984 33.833128 25.679823 42.482554 -1.547274 0.921684 0.011737 -0.006922 254824.000000 0 0 1
-1.870084 33.544628 26.623573 42.866699 -1.515105 0.900679 0.010321 -0.008193 851348.000000 0 0 1
-1.593084 33.744928 28.153313 43.975756 -1.523622 0.876037 0.023769 -0.014406 -972937.000000 0 0 1
-0.690584 32.818928 28.657063 43.575064 -1.549757 0.853104 0.028531 -0.014511 -388439.000000 0 0 1
-0.265284 33.169328 29.928683 44.676624 -1.562799 0.836728 0.033405 -0.018535 -1174940.000000 0 0 1
0.726116 32.115828 30.465743 44.273187 1.548191 0.811887 0.026557 -0.017950 215900.000000 0 0 1
2.033216 32.275428 29.901233 44.044534 1.507884 0.824551 0.019216 -0.015162 423998.000000 0 0 1
2.231816 31.944128 28.565593 42.911553 1.501043 0.842384 0.015195 -0.017395 -1247120.000000 0 0 1
3.721316 31.758828 28.231743 42.655628 1.454154 0.847509 0.008475 -0.017291 48272.500000 0 0 1
4.410116 30.680928 28.832603 42.333054 1.428033 0.821547 0.008255 -0.018352 713985.000000 0 0 1
5.768616 30.567528 28.406223 42.125576 1.384273 0.830750 0.005426 -0.020329 475627.000000 0 0 1
6.694116 29.597828 29.113623 42.052891 1.348369 0.806111 0.000738 -0.009600 -135601.000000 0 0 1
6.765816 29.928828 30.469703 43.242500 1.348470 0.788903 0.013685 -0.019449 220257.000000 0 0 1
7.279216 28.821028 31.216723 43.105944 1.323404 0.760943 0.006433 -0.009824 -95956.900000 0 0 1
7.453616 29.135928 32.737063 44.454178 1.320346 0.743029 0.023664 -0.009863 240566.000000 0 0 1
6.233916 29.237028 33.511421 44.907470 1.360722 0.728412 0.026744 -0.010022 549196.000000 0 0 1
6.295516 28.958528 -34.010551 45.110392 1.356730 2.424836 0.034860 -0.011478 -215646.000000 0 0 1
6.121616 27.454628 -33.650781 43.858931 1.351413 2.445339 0.028611 -0.006166 -23967.500000 0 0 1
7.183416 26.675928 -34.160366 43.933327 1.307751 2.461557 0.018115 -0.010602 258171.000000 0 0 1
6.957916 25.338428 -33.882371 42.877308 1.302803 2.481959 0.023975 -0.007483 -495878.000000 0 0 1
8.232816 24.536328 -34.035221 42.757536 1.247065 2.491463 0.020075 -0.006191 -991287.000000 0 0 1
8.762016 24.510128 33.607562 42.508676 1.227469 0.659000 0.001741 0.001594 120222.000000 0 0 1
10.027816 23.878328 33.510425 42.351862 1.173207 0.657965 0.010394 -0.010486 -239543.000000 0 0 1
10.125216 22.329328 33.796545 41.753147 1.145078 0.627604 0.015793 -0.010539 -945268.000000 0 0 1
9.460516 21.450828 32.873833 40.377324 1.155425 0.619505 0.013271 -0.007295 135685.000000 0 0 1
9.251416 20.132328 33.323970 40.017325 1.140045 0.586761 0.014369 -0.010151 273933.000000 0 0 1
7.940516 19.998928 34.152280 40.365668 1.192838 0.562222 0.035217 -0.019250 -130786.000000 0 0 1
7.973216 20.669128 -33.596551 40.243176 1.202630 2.558636 0.037627 -0.012915 -924624.000000 0 0 1
6.739916 20.725228 -32.999581 39.546604 1.256380 2.557927 0.041638 -0.008269 -1128920.000000 0 0 1
6.745716 21.422028 -31.614361 38.779837 1.265730 2.523917 0.052775 -0.016898 -53040.900000 0 0 1
7.104816 22.823428 -31.676631 39.683702 1.269010 2.495144 0.046162 -0.012523 307706.000000 0 0 1
7.335116 23.380228 -30.347601 39.005331 1.266790 2.462332 0.028148 -0.014457 932594.000000 0 0 1
8.861816 23.515628 -29.954981 39.100095 1.210407 2.443563 0.034515 -0.008883 1135340.000000 0 0 1
9.408316 22.244728 -29.587301 38.193621 1.170667 2.456983 0.039657 -0.013081 526593.000000 0 0 1
10.828216 22.384028 -29.422341 38.522320 1.120235 2.439936 0.044566 -0.009947 1184300.000000 0 0 1
11.541916 20.967428 -29.207661 37.761572 1.067593 2.455103 0.049673 -0.017943 122887.000000 0 0 1
11.733316 20.044328 -30.275561 38.158294 1.041205 2.487204 0.042397 -0.017374 1105320.000000 0 0 1
10.538216 19.659028 -31.044921 38.227196 1.078727 2.518566 0.049730 -0.018320 1083420.000000 0 0 1
10.872016 18.674328 -32.180061 38.761935 1.043575 2.550258 0.052136 -0.022192 -589225.000000 0 0 1
11.083516 17.366128 -31.680381 37.789857 1.002743 2.565010 0.043517 -0.016573 121257.000000 0 0 1
11.247116 16.432128 -32.743581 38.323029 0.970577 2.595211 0.037007 -0.007912 753007.000000 0 0 1
12.528516 16.528728 -33.675461 39.549959 0.922205 2.589572 0.025195 0.004739 431588.000000 0 0 1
12.378016 17.670728 34.388674 40.596192 0.959747 0.560309 0.032286 -0.001660 -76078.700000 0 0 1
12.952416 17.545128 33.120364 39.655455 0.934868 0.582294 0.036986 -0.005295 -573207.000000 0 0 1
11.987116 17.054528 32.075633 38.254334 0.958147 0.576302 0.046757 -0.016105 -1297520.000000 0 0 1
12.423916 17.262528 30.748033 37.387031 0.946968 0.605135 0.036659 -0.014790 366036.000000 0 0 1
11.480216 16.937528 29.714463 36.078034 0.975127 0.603038 0.030845 -0.011860 457718.000000 0 0 1
10.064816 17.561828 29.737933 35.973087 1.050385 0.597630 0.017164 -0.016934 -265423.000000 0 0 1
9.260816 17.014828 30.757283 36.349381 1.072356 0.562064 0.031785 -0.014866 -657138.000000 0 0 1
7.987516 17.620828 30.778783 36.354195 1.145202 0.561164 0.025189 -0.014527 116931.000000 0 0 1
7.063216 16.829828 31.753873 36.625682 1.173437 0.521679 0.024477 -0.010640 -339806.000000 0 0 1
7.292016 17.013428 33.129840 37.950185 1.165877 0.509513 0.038342 -0.006816 62604.100000 0 0 1
6.958816 15.845828 33.837168 38.006175 1.156995 0.472777 0.060600 -0.008640 -40518.300000 0 0 1
7.262816 15.906228 -33.556681 37.839231 1.142466 2.661219 0.068799 -0.015761 -161329.000000 0 0 1
6.257316 16.605828 -32.847721 37.334706 1.210436 2.646274 0.069318 -0.014606 150100.000000 0 0 1
6.482716 16.886928 -31.476661 36.303913 1.204255 2.620011 0.076653 -0.021602 109688.000000 0 0 1
5.392916 17.880628 -30.949981 36.148329 1.277866 2.598654 0.064176 -0.023722 -381530.000000 0 0 1
5.266616 17.985228 -29.533481 34.977595 1.285930 2.576155 0.060596 -0.029546 -31366.800000 0 0 1
4.364016 18.959628 -29.063051 34.973891 1.344563 2.551686 0.054145 -0.030447 -601830.000000 0 0 1
2.905016 18.584328 -29.223471 34.753814 1.415736 2.569687 0.058411 -0.027606 -2300640.000000 0 0 1
2.482816 17.601928 -28.289931 33.411262 1.430667 2.580583 0.066221 -0.031759 -475671.000000 0 0 1
1.124816 17.288128 -28.261611 33.149106 1.505825 2.591661 0.059402 -0.030556 -465179.000000 0 0 1
0.208516 18.444628 -27.790121 33.354739 1.559492 2.555609 0.057290 -0.035352 -1318640.000000 0 0 1
0.113816 18.842128 -26.449481 32.474818 1.564756 2.522596 0.069034 -0.045203 -88956.900000 0 0 1
-0.616384 20.040628 -26.363001 33.121209 -1.540049 2.491380 0.075104 -0.037971 -240401.000000 0 0 1
-1.095584 20.435928 -24.957691 32.275591 -1.517237 2.454776 0.057379 -0.043178 184715.000000 0 0 1
-2.136584 19.635028 -24.398291 31.390698 -1.462408 2.461073 0.050746 -0.030414 246292.000000 0 0 1
-2.676184 20.278828 -23.278691 30.988551 -1.439585 2.420679 0.050216 -0.023099 187829.000000 0 0 1
-3.843284 19.518628 -22.588891 30.099928 -1.376380 2.419559 0.030850 -0.023183 707359.000000 0 0 1
-5.167984 19.983028 -22.858791 30.798600 -1.317723 2.407147 0.028577 -0.022555 -196177.000000 0 0 1
-6.050884 19.009228 -22.434891 30.021463 -1.262624 2.414778 0.023578 -0.021615 60659.200000 0 0 1
-7.495884 19.573328 -22.215491 30.542290 -1.205062 2.385275 0.020327 -0.011585 288828.000000 0 0 1
-7.620284 20.437028 -21.114691 30.357388 -1.213897 2.339964 0.003629 -0.016295 72218.700000 0 0 1
-7.382184 21.783928 -21.482991 31.473085 -1.244060 2.322088 0.012856 -0.016956 -128015.000000 0 0 1
-7.697984 22.810528 -20.360391 31.529742 -1.245323 2.272804 0.025755 -0.020923 35580.400000 0 0 1
-6.764784 22.765828 -19.298691 30.602037 -1.281960 2.253166 0.038896 -0.024424 209261.000000 0 0 1
-7.087584 23.714428 -18.289791 30.775386 -1.280374 2.207190 0.044872 -0.024963 593994.000000 0 0 1
-5.981784 23.635428 -17.158891 29.813465 -1.322916 2.184063 0.045983 -0.021798 1681140.000000 0 0 1
-4.693584 24.114628 -17.583191 30.211150 -1.378563 2.191995 0.043081 -0.025412 563796.000000 0 0 1
-3.704784 23.914128 -16.572191 29.329992 -1.417098 2.171260 0.029944 -0.020909 369400.000000 0 0 1
-2.360784 24.612728 -16.811791 29.899766 -1.475172 2.167927 0.024565 -0.009708 -239410.000000 0 0 1
-2.382684 26.009628 -16.640991 30.969348 -1.479444 2.138073 0.012846 -0.009113 -282460.000000 0 0 1
-1.137884 26.555028 -16.980191 31.540310 -1.527972 2.139292 0.010652 -0.012508 -363048.000000 0 0 1
-1.132584 28.087828 -16.870091 32.784276 -1.530495 2.111313 -0.000889 -0.016415 130744.000000 0 0 1
-2.140084 28.772528 -17.645791 33.820293 -1.496554 2.119699 0.000046 -0.018907 387790.000000 0 0 1
-1.948184 28.936428 -19.037891 34.692270 -1.503571 2.151682 0.003910 -0.017421 -894771.000000 0 0 1
-3.214084 29.411828 -19.747591 35.571805 -1.461950 2.159336 0.015885 -0.018732 -233637.000000 0 0 1
-3.763484 30.642728 -19.270791 36.393735 -1.448590 2.128817 0.014806 -0.003088 -345070.000000 0 0 1
-4.758584 30.531028 -18.310691 35.917533 -1.416180 2.105746 0.002068 -0.005574 -665775.000000 0 0 1
-5.036784 31.804828 -17.589491 36.692049 -1.413735 2.070746 0.004591 0.005117 -131868.000000 0 0 1
-5.794484 32.705928 -18.389991 37.966374 -1.395447 2.076446 0.029268 0.002462 100237.000000 0 0 1
-5.903784 33.957628 -17.798491 38.791255 -1.398660 2.047471 0.019391 -0.014326 240388.000000 0 0 1
-6.794384 -34.057297 -18.546891 39.370678 1.373883 2.061315 0.018738 -0.001147 633332.000000 0 0 1
-8.084984 34.544928 -18.784391 40.144394 -1.340892 2.057733 0.033212 -0.008295 -390072.000000 0 0 1
-8.950584 -33.676097 -19.411191 39.887176 1.311018 2.079050 0.062661 -0.011665 47104.900000 0 0 1
28.672516 -20.738872 -26.470971 44.191926 -0.626194 2.213048 0.030515 0.002702 -102445.000000 0 0 1
28.118416 -21.998672 -26.240001 44.307161 -0.663891 2.204619 0.030752 -0.011090 -805696.000000 0 0 1
26.747616 -22.047672 -26.499031 43.631794 -0.689375 2.223496 0.022393 -0.004946 141527.000000 0 0 1
26.034716 -23.412172 -26.025061 43.626139 -0.732410 2.209989 0.016159 0.002688 479708.000000 0 0 1
26.497716 -24.540872 -26.741811 44.938934 -0.747076 2.208149 0.012702 0.011023 1141020.000000 0 0 1
27.848116 -24.948372 -26.358971 45.746412 -0.730530 2.184865 0.019056 0.009481 1190750.000000 0 0 1
28.244016 -26.319602 -26.765931 46.977239 -0.750144 2.177015 0.012178 0.003574 -263356.000000 0 0 1
27.569316 -27.365012 -26.092951 46.794799 -0.781679 2.162293 0.016193 -0.002079 -243663.000000 0 0 1
27.848016 -28.637522 -26.687871 48.040214 -0.799374 2.159799 0.004658 0.001425 207467.000000 0 0 1
26.854316 -29.024272 -27.815071 48.345019 -0.824212 2.183822 0.013516 -0.004106 -285366.000000 0 0 1
26.813116 -28.278322 -29.020581 48.588073 -0.811988 2.210899 0.003166 -0.003918 -267719.000000 0 0 1
27.848616 -28.504082 -29.964301 49.858675 -0.797029 2.215529 -0.003251 -0.007438 -189628.000000 0 0 1
28.070616 -29.909412 -30.624451 51.189739 -0.817102 2.212116 0.005343 -0.004587 -549647.000000 0 0 1
28.623516 -30.998562 -29.852481 51.685464 -0.825212 2.186557 0.012037 -0.000863 846312.000000 0 0 1
29.979616 -30.919782 -29.392231 52.141284 -0.800835 2.169659 0.013917 -0.001123 1954090.000000 0 0 1
31.185216 -30.774822 -30.450121 53.355574 -0.778775 2.178157 0.011565 -0.001956 745960.000000 0 0 1
31.093316 -29.408762 -30.827781 52.744873 -0.757562 2.195023 0.020656 -0.013101 -331780.000000 0 0 1
32.208716 -28.989012 -31.558131 53.606715 -0.732835 2.200243 0.021601 -0.014757 -456678.000000 0 0 1
32.016416 -27.606392 -32.135351 53.102209 -0.711567 2.220764 0.015877 -0.003976 36221.500000 0 0 1
31.997616 -26.474922 -31.230751 51.962763 -0.691228 2.215575 0.003006 -0.000738 313501.000000 0 0 1
30.762116 -26.323632 -30.528551 50.707335 -0.707803 2.216867 0.010705 0.001073 94023.000000 0 0 1
30.516516 -24.887972 -29.895011 49.440677 -0.684155 2.220141 0.008341 -0.003592 -132281.000000 0 0 1
31.236916 -24.709772 -28.689021 49.085412 -0.669256 2.195025 0.009212 -0.003573 45366.600000 0 0 1
31.154816 -23.375472 -28.177491 48.072926 -0.643693 2.197083 0.001196 0.000192 328071.000000 0 0 1
32.179316 -23.192372 -26.980961 47.972563 -0.624499 2.168112 0.001508 -0.003142 307259.000000 0 0 1
31.948916 -23.990572 -25.860981 47.592763 -0.644079 2.145255 0.002690 -0.007671 255682.000000 0 0 1
31.009016 -23.511672 -24.888491 46.193017 -0.648742 2.139800 0.023825 -0.000620 175766.000000 0 0 1
31.517816 -22.349572 -23.994691 45.482099 -0.616813 2.126526 0.022441 -0.003962 -175454.000000 0 0 1
31.484716 -21.119372 -24.749091 45.275078 -0.590846 2.149141 0.019244 -0.009551 -35471.700000 0 0 1
31.907616 -19.995472 -24.018191 44.663054 -0.559798 2.138579 0.011417 -0.013995 -72012.400000 0 0 1
32.096316 -18.760772 -24.917791 44.755294 -0.528956 2.161272 0.008832 -0.022158 55211.000000 0 0 1
30.902016 -18.338172 -25.558491 44.096027 -0.535574 2.189046 0.022426 -0.013038 301762.000000 0 0 1
30.985316 -17.044872 -26.187501 44.004576 -0.502916 2.208197 0.024453 -0.007806 -429869.000000 0 0 1
30.032516 -16.977972 -27.375691 44.041254 -0.514529 2.241570 0.015675 0.010219 -239617.000000 0 0 1
28.716216 -16.700972 -26.950811 42.777211 -0.526770 2.252385 0.013511 0.005431 -268067.000000 0 0 1
27.825016 -16.854372 -28.014031 42.931193 -0.544620 2.281719 -0.001808 0.008229 852814.000000 0 0 1
26.303716 -16.437872 -27.805091 41.655878 -0.558546 2.301636 -0.012613 0.011296 1557190.000000 0 0 1
25.494316 -17.335372 -27.058521 41.019981 -0.597156 2.291139 0.006541 0.018605 260219.000000 0 0 1
25.836916 -17.326572 -25.645041 40.316553 -0.590730 2.260219 0.005614 0.018745 -1104840.000000 0 0 1
24.895516 -18.127872 -24.821991 39.554237 -0.629375 2.249190 0.013708 0.016052 -800926.000000 0 0 1
24.989616 -17.777972 -23.478291 38.623404 -0.618346 2.224181 0.015855 0.024233 225128.000000 0 0 1
24.225616 -18.658872 -22.653091 38.055177 -0.656312 2.208397 0.026747 0.019063 49297.300000 0 0 1
24.385816 -18.236672 -21.162391 37.082220 -0.642117 2.178140 0.016241 0.021091 103251.000000 0 0 1
23.573516 -17.173372 -20.656791 35.739871 -0.629600 2.187043 0.014713 0.018850 155522.000000 0 0 1
23.835416 -15.859472 -21.158791 35.599780 -0.587107 2.207256 0.013452 0.019131 -132845.000000 0 0 1
25.130316 -15.186472 -20.688591 35.919069 -0.543582 2.184596 0.012795 0.010719 -142358.000000 0 0 1
24.922416 -14.352572 -19.566191 34.784465 -0.522503 2.168200 0.010036 0.000132 603183.000000 0 0 1
26.079816 -13.557572 -19.315191 35.171596 -0.479401 2.152167 0.008724 0.004182 140727.000000 0 0 1
25.937116 -12.576572 -18.154891 34.066174 -0.451484 2.132856 0.014068 0.005179 -561313.000000 0 0 1
26.275416 -13.050172 -16.921191 33.867849 -0.460979 2.093961 0.002337 0.017390 59216.300000 0 0 1
25.977416 -12.124572 -15.915791 32.789385 -0.436683 2.077611 -0.004155 0.014334 112016.000000 0 0 1
26.649816 -12.319972 -14.521291 32.754577 -0.433028 2.030114 0.003065 0.014035 -6002.540000 0 0 1
26.072616 -13.441072 -13.794291 32.414907 -0.475990 2.010370 0.019315 -0.000486 701811.000000 0 0 1
26.704116 -13.587772 -12.516891 32.471679 -0.470684 1.966515 0.030223 -0.001015 46315.500000 0 0 1
26.347216 -14.939272 -11.866991 32.529727 -0.515813 1.944219 0.027781 -0.010651 -632543.000000 0 0 1
25.064016 -15.074272 -11.346891 31.371811 -0.541471 1.940877 0.022635 -0.017173 -414386.000000 0 0 1
24.784416 -16.292272 -10.736191 31.543164 -0.581532 1.918101 0.022756 -0.014324 -1093500.000000 0 0 1
23.357316 -16.551872 -10.341591 30.438088 -0.616500 1.917456 0.025287 -0.015563 -1191910.000000 0 0 1
22.920616 -15.875972 -9.234691 29.371426 -0.605776 1.890632 0.021946 -0.020036 -1115210.000000 0 0 1
21.599716 -16.074072 -8.949791 28.372915 -0.639766 1.891711 0.013214 -0.019083 -1443950.000000 0 0 1
21.192116 -15.620272 -7.510991 27.377247 -0.635181 1.848712 0.009789 -0.021317 -356824.000000 0 0 1
21.382616 -14.243272 -7.220791 26.687579 -0.587620 1.844779 0.015210 -0.011615 354510.000000 0 0 1
20.977516 -13.881472 -5.926591 25.843296 -0.584578 1.802184 -0.000381 -0.009979 -639872.000000 0 0 1
21.716416 -14.611872 -4.781491 26.607747 -0.592271 1.751481 0.007150 -0.013343 -1086420.000000 0 0 1
23.075216 -14.344172 -4.793891 27.589894 -0.556170 1.745438 0.019531 -0.009469 -412408.000000 0 0 1
23.825316 -15.135772 -3.856891 28.488820 -0.565958 1.706596 0.008011 -0.017620 -546876.000000 0 0 1
25.314016 -15.016072 -4.142391 29.722739 -0.535399 1.710619 0.025018 -0.013126 -822579.000000 0 0 1
25.945116 -13.886972 -3.595791 29.646699 -0.491444 1.692384 0.027352 -0.010957 -340246.000000 0 0 1
27.307216 -13.853472 -3.874091 30.864402 -0.469486 1.696648 0.042639 -0.026592 -820959.000000 0 0 1
28.082816 -12.683172 -3.328991 30.993380 -0.424212 1.678414 0.065681 -0.022899 -1230160.000000 0 0 1
28.460216 -12.802072 -1.964891 31.268798 -0.422707 1.633676 0.072202 -0.025596 480020.000000 0 0 1
28.932616 -11.617272 -1.331891 31.206269 -0.381823 1.613490 0.062975 -0.022888 502012.000000 0 0 1
30.362516 -11.153772 -1.771091 32.394842 -0.352050 1.625496 0.067886 -0.016088 -109255.000000 0 0 1
30.328716 -10.657372 -3.097691 32.295608 -0.337917 1.666861 0.059946 -0.009649 -696111.000000 0 0 1
31.438616 -11.003072 -3.830391 33.527989 -0.336662 1.685291 0.079861 -0.008853 -979272.000000 0 0 1
31.442316 -10.491872 -5.311591 33.569504 -0.322068 1.729691 0.069822 -0.010930 -42192.500000 0 0 1
30.468016 -11.129972 -6.128191 33.011074 -0.350240 1.757520 0.063078 -0.018132 410156.000000 0 0 1
30.637216 -10.926772 -7.546191 33.391292 -0.342587 1.798758 0.043582 -0.014320 716428.000000 0 0 1
29.440216 -11.656772 -8.278491 32.728276 -0.377008 1.826521 0.051001 -0.019497 797685.000000 0 0 1
29.407616 -13.066172 -7.909991 33.137602 -0.418114 1.811825 0.045951 -0.013778 119878.000000 0 0 1
28.114216 -13.555972 -8.189891 32.268372 -0.449286 1.827409 0.038418 -0.015141 85726.300000 0 0 1
28.016516 -15.097972 -8.151191 32.852943 -0.494278 1.821527 0.044121 -0.013708 -32443.600000 0 0 1
28.349516 -15.691872 -9.367991 33.729648 -0.505538 1.852235 0.041079 -0.019053 189940.000000 0 0 1
28.575116 -17.085272 -9.271891 34.560262 -0.538879 1.842405 0.036224 -0.018692 -271563.000000 0 0 1
28.779316 -17.784672 -10.559691 35.440805 -0.553526 1.873344 0.024206 -0.019944 -85165.600000 0 0 1
30.068916 -17.493972 -11.072791 36.507334 -0.526927 1.878954 0.037639 -0.011219 357027.000000 0 0 1
30.265916 -17.833872 -12.445191 37.268693 -0.532470 1.911268 0.026425 -0.002293 -228841.000000 0 0 1
29.549216 -16.997872 -13.519491 36.672339 -0.522014 1.948359 0.022698 -0.003046 -341171.000000 0 0 1
30.282816 -15.923572 -13.983991 36.961617 -0.484096 1.958797 0.011819 -0.004625 85597.900000 0 0 1
29.586316 -15.331372 -15.047791 36.562783 -0.478095 1.994962 -0.005325 0.001748 -330226.000000 0 0 1
30.470516 -14.270672 -15.755291 37.152841 -0.438003 2.008728 0.005478 0.005328 870152.000000 0 0 1
31.561516 -14.769972 -16.542291 38.573680 -0.437700 2.014015 -0.005456 0.002255 812724.000000 0 0 1
32.793316 -15.036172 -15.912191 39.429505 -0.429911 1.986201 0.005678 -0.004881 -301464.000000 0 0 1
33.820016 -15.600272 -16.940691 40.916366 -0.432189 1.997676 0.018545 -0.002223 -711011.000000 0 0 1
35.088216 -15.751972 -16.387191 41.807267 -0.421959 1.973568 0.029570 -0.008644 13210.400000 0 0 1
-34.825960 -16.363572 -17.378691 42.221238 0.439252 1.995016 0.041776 -0.012583 723727.000000 0 0 1
-33.294460 -16.274872 -17.077391 40.804777 0.454661 2.002605 0.042946 -0.015117 297670.000000 0 0 1
-32.767360 -17.190872 -16.118791 40.361385 0.483160 1.981617 0.052281 -0.018028 -86415.700000 0 0 1
-33.145660 -17.016172 -14.773891 40.080579 0.474291 1.948304 0.046975 -0.017961 -498368.000000 0 0 1
-32.479060 -17.867172 -13.652291 39.503294 0.502930 1.923673 0.056797 -0.022087 -146965.000000 0 0 1
-31.153860 -17.514172 -13.349891 38.151394 0.512149 1.928281 0.040554 -0.012862 -243973.000000 0 0 1
-30.661260 -18.081672 -12.129691 37.605707 0.532829 1.899218 0.041660 -0.002405 -277897.000000 0 0 1
-29.188560 -17.723972 -11.946391 36.177721 0.545714 1.907327 0.070215 -0.008189 -478882.000000 0 0 1
-29.013260 -16.304372 -11.813491 35.315158 0.511981 1.911888 0.068662 -0.018079 -56739.700000 0 0 1
-28.099660 -15.970072 -10.787591 34.073542 0.516812 1.892936 0.062856 -0.018125 -39311.700000 0 0 1
-28.639860 -16.125272 -9.353391 34.172385 0.512797 1.848047 0.057162 -0.011121 -190827.000000 0 0 1
-28.627860 -17.498972 -8.897491 34.712156 0.548655 1.830012 0.049286 -0.006110 14328.200000 0 0 1
-28.994060 -17.532072 -7.525191 34.708178 0.543852 1.789345 0.065660 -0.011157 -548142.000000 0 0 1
-29.341560 -18.951072 -7.054391 35.634741 0.573472 1.770077 0.048017 -0.018310 413109.000000 0 0 1
-30.542960 -19.451372 -7.667391 37.013743 0.567077 1.779457 0.037882 -0.016322 314878.000000 0 0 1
-30.366060 -20.069372 -8.911491 37.473884 0.584010 1.810902 0.043583 -0.011376 -468153.000000 0 0 1
-31.556660 -20.842972 -9.509591 38.995957 0.583717 1.817141 0.034347 -0.016113 -171651.000000 0 0 1
-32.558660 -19.960972 -9.940691 39.462946 0.549980 1.825439 0.032734 -0.017382 -361621.000000 0 0 1
-33.795060 -20.576872 -10.130091 40.842778 0.546918 1.821439 0.033213 -0.023171 -544485.000000 0 0 1
-35.029560 -19.720672 -10.348391 41.509809 0.512748 1.822754 0.033509 -0.032604 -261048.000000 0 0 1
-35.095260 -19.128772 -11.655891 41.634685 0.499037 1.854545 0.028654 -0.031721 -495172.000000 0 0 1
34.349916 -18.933072 -11.999491 41.016652 -0.503751 1.867691 0.047510 -0.033318 -459694.000000 0 0 1
33.995216 -18.761572 -13.551991 41.125755 -0.504292 1.906597 0.041804 -0.028753 -82818.000000 0 0 1
34.214316 -19.945672 -14.284691 42.101088 -0.527798 1.916964 0.040527 -0.025908 -398931.000000 0 0 1
33.485216 -19.956672 -15.426791 41.922719 -0.537462 1.947634 0.034227 -0.024506 -193979.000000 0 0 1
32.237616 -20.867572 -15.275591 41.328720 -0.574478 1.949388 0.037178 -0.022824 -295190.000000 0 0 1
31.155916 -20.339072 -14.502691 39.933658 -0.578352 1.942464 0.040466 -0.019184 91072.200000 0 0 1
29.977116 -21.094372 -14.532991 39.431052 -0.613193 1.948264 0.038547 -0.012517 -57624.400000 0 0 1
29.148616 -20.859572 -15.814391 39.177271 -0.621138 1.986313 0.031634 -0.010626 -1011470.000000 0 0 1
28.606716 -19.538872 -15.748991 38.054467 -0.599237 1.997480 0.009226 0.006102 245774.000000 0 0 1
27.991316 -19.146872 -16.976491 37.925160 -0.599927 2.034911 0.005933 0.008985 -17881.800000 0 0 1
27.254216 -17.800372 -16.905191 36.680118 -0.578568 2.049785 0.009281 0.015982 -224841.000000 0 0 1
26.124616 -17.857572 -16.066191 35.489589 -0.599603 2.040589 0.009560 0.011243 -101690.000000 0 0 1
25.628016 -16.532272 -15.958791 34.420840 -0.572913 2.052893 0.006023 0.011614 -505206.000000 0 0 1
24.226816 -16.560672 -15.212291 33.054626 -0.599612 2.049036 0.011295 0.003163 1091410.000000 0 0 1
23.220716 -17.183972 -16.014191 33.029454 -0.637088 2.076983 0.021271 0.008590 388391.000000 0 0 1
22.782816 -16.329672 -17.072891 32.820702 -0.621882 2.117866 0.020555 0.012348 -1227560.000000 0 0 1
21.662216 -16.965572 -17.919391 32.835755 -0.664405 2.148054 0.009038 0.012434 -605572.000000 0 0 1
20.422116 -17.076172 -17.308591 31.752886 -0.696405 2.147308 0.007270 0.008579 -754744.000000 0 0 1
19.617516 -17.862972 -18.189391 32.168100 -0.738620 2.171773 0.007492 0.005435 432079.000000 0 0 1
18.128616 -18.024772 -17.788491 31.144334 -0.782526 2.178718 0.000026 0.009790 160576.000000 0 0 1
17.366416 -16.840272 -17.820791 30.046094 -0.770018 2.205719 -0.003235 0.004199 -354238.000000 0 0 1
16.017916 -17.241272 -17.796191 29.504907 -0.822164 2.218254 0.003868 0.001510 -850074.000000 0 0 1
15.042316 -16.147972 -17.418291 28.114500 -0.820832 2.238963 0.011587 0.005502 -787680.000000 0 0 1
14.780916 -15.286672 -18.520991 28.199024 -0.802217 2.287358 0.015451 0.005513 500678.000000 0 0 1
13.510516 -14.677672 -18.303891 27.073983 -0.826780 2.313211 0.019156 0.006039 275562.000000 0 0 1
12.849616 -14.201172 -19.576191 27.386368 -0.835320 2.367156 0.024769 0.001505 90103.700000 0 0 1
13.410116 -12.920572 -19.970791 27.305767 -0.766808 2.391134 0.020549 0.000718 132152.000000 0 0 1
12.620016 -12.298372 -20.934491 27.363620 -0.772491 2.441913 0.033819 0.002356 -353166.000000 0 0 1
13.056716 -10.918172 -21.365091 27.315773 -0.696434 2.468909 0.025645 0.009789 -694967.000000 0 0 1
14.175216 -10.827572 -22.183591 28.465502 -0.652299 2.464368 0.010638 0.017691 -721457.000000 0 0 1
14.462716 -9.482972 -22.386991 28.289119 -0.580361 2.483833 0.015340 0.022930 397669.000000 0 0 1
15.653616 -9.374672 -23.407291 29.678636 -0.539597 2.479474 -0.012000 0.015273 443857.000000 0 0 1
15.271616 -9.652872 -24.741491 30.635626 -0.563674 2.510876 -0.002101 0.012763 569445.000000 0 0 1
16.370016 -9.500272 -25.650971 31.877969 -0.525843 2.505901 -0.005266 0.006901 152672.000000 0 0 1
22.153316 4.948128 -7.032091 23.763495 0.219751 1.871215 0.052679 0.017968 -140805.000000 0 1 0
22.324116 6.282328 -7.247391 24.297293 0.274320 1.873686 0.033638 0.017497 586629.000000 0 1 0
21.561916 6.911428 -6.234891 23.485270 0.310191 1.839499 0.020863 0.011459 -355184.000000 0 1 0
21.554216 8.495728 -6.104791 23.958925 0.375458 1.828440 0.030186 0.010240 -801928.000000 0 1 0
20.774016 9.106628 -7.067791 23.758032 0.413137 1.872859 0.059285 0.010577 182302.000000 0 1 0
20.694516 10.535428 -7.028991 24.262418 0.470895 1.864717 0.069404 0.012649 85300.000000 0 1 0
19.818416 11.114228 -5.861091 23.465891 0.511099 1.823240 0.056828 0.007896 164696.000000 0 1 0
20.581716 11.274928 -4.671191 23.928039 0.501162 1.767276 0.042820 0.009174 411876.000000 0 1 0
19.939816 12.182428 -3.784091 23.671230 0.548439 1.731346 0.051420 0.004403 415752.000000 0 1 0
20.860216 12.648828 -2.593791 24.533023 0.545084 1.676721 0.045568 -0.003533 116267.000000 0 1 0
22.076516 13.259128 -2.975591 25.923564 0.540860 1.685833 0.047952 -0.013677 649276.000000 0 0 1
22.986516 13.497928 -1.901591 26.724334 0.530963 1.642012 0.045528 -0.014181 501522.000000 0 0 1
23.888816 12.313128 -1.411191 26.912452 0.475919 1.623257 0.042237 -0.021642 -94209.800000 0 0 1
24.975416 11.931128 -2.265891 27.771523 0.445661 1.652478 0.017797 -0.011282 572537.000000 0 0 1
25.633216 10.822228 -1.680491 27.874835 0.399493 1.631120 0.030202 -0.019539 -648670.000000 0 0 1
26.942816 10.431828 -2.345591 28.986896 0.369410 1.651804 0.032386 -0.014258 -298054.000000 0 0 1
27.946016 11.430228 -2.285091 30.279557 0.388250 1.646335 0.038270 -0.018927 -1219940.000000 0 0 1
29.182416 10.902528 -2.088391 31.222426 0.357542 1.637734 0.044767 -0.017909 -927747.000000 0 0 1
30.275516 12.012628 -1.848391 32.624019 0.377725 1.627484 0.030242 -0.013854 105685.000000 0 0 1
30.144916 12.644628 -0.546291 32.694051 0.397170 1.587506 0.038110 -0.016536 808389.000000 0 0 1
31.022116 13.787128 -0.402791 33.950240 0.418211 1.582661 0.032183 -0.013804 751041.000000 0 0 1
32.539816 13.565528 -0.074991 35.254344 0.394982 1.572923 0.036912 -0.015392 995937.000000 0 0 1
33.318516 14.767928 0.123509 36.444896 0.417214 1.567407 0.029448 -0.008094 604369.000000 0 0 1
34.033316 15.235028 -1.062091 37.302824 0.420898 1.599272 0.026875 -0.005864 -138161.000000 0 0 1
33.268016 16.139328 -2.010491 37.030810 0.451681 1.625115 0.008113 0.006630 -222883.000000 0 0 1
32.215116 15.461628 -2.669791 35.832993 0.447479 1.645372 0.019090 0.001175 -312501.000000 0 0 1
31.652616 16.313928 -3.641791 35.795181 0.475896 1.672712 0.015177 0.009098 -392591.000000 0 0 1
30.330716 15.817828 -4.221291 34.467018 0.480709 1.693578 0.025256 0.003611 -1040250.000000 0 0 1
30.448716 14.625928 -4.929891 34.137163 0.447801 1.715717 0.013264 0.005999 -14910.900000 0 0 1
29.341116 14.426028 -5.773491 33.201575 0.456958 1.745577 0.007687 0.001380 287565.000000 0 0 1
28.038616 13.917128 -5.056991 31.708415 0.460728 1.730964 0.010159 -0.008459 -419469.000000 0 0 1
26.966816 13.759028 -5.936391 30.850620 0.471791 1.764428 0.010199 -0.011898 -156901.000000 0 0 1
25.832916 13.258228 -5.240291 29.505606 0.474176 1.749347 0.017647 -0.004176 26442.400000 0 0 1
24.750116 12.872028 -6.270691 28.593337 0.479582 1.791899 0.019022 -0.005138 -531384.000000 0 0 1
25.137116 11.911828 -7.217991 28.737878 0.442529 1.824681 0.005081 0.003339 -133440.000000 0 0 1
24.160516 11.523728 -8.146691 27.980268 0.445051 1.866234 0.014828 0.002770 -604610.000000 0 0 1
23.911916 12.529828 -9.311691 28.556679 0.482662 1.902948 0.025786 0.009990 -229137.000000 0 0 1
23.232616 13.684328 -8.940891 28.406950 0.532302 1.890982 0.031422 -0.000873 77365.200000 0 0 1
23.301216 14.586928 -10.009491 29.256026 0.559329 1.919984 0.024494 0.001910 -84431.000000 0 0 1
22.433916 15.858728 -9.701791 29.135967 0.615348 1.910262 0.022165 -0.008854 89416.100000 0 0 1
21.080416 15.610428 -9.429991 27.874614 0.637405 1.915906 0.042067 -0.002349 -108032.000000 0 0 1
20.797816 15.872428 -8.032791 27.368026 0.651882 1.868693 0.058887 -0.010668 190832.000000 0 0 1
19.586216 14.984328 -7.595591 25.803932 0.653060 1.869580 0.090555 0.002695 181662.000000 0 0 1
18.371516 15.346828 -8.238691 25.316274 0.695933 1.902263 0.079439 -0.011822 1068910.000000 0 0 1
17.223416 14.580028 -7.835791 23.887714 0.702472 1.905010 0.073756 -0.028531 522931.000000 0 1 0
16.505816 14.951228 -6.552091 23.214458 0.736019 1.856926 0.073898 -0.012300 -799206.000000 0 1 0
17.136816 14.540928 -5.375491 23.108547 0.703634 1.805566 0.100695 -0.005384 835469.000000 0 1 0
16.361016 15.060028 -4.241591 22.637985 0.744017 1.759276 0.074075 0.002013 121032.000000 0 1 0
15.861516 14.035128 -3.204891 21.420640 0.724384 1.720977 0.048281 0.015469 -4429.480000 0 1 0
16.858716 13.262328 -2.489291 21.594032 0.666563 1.686330 0.044254 0.007686 700229.000000 0 1 0
16.414216 12.413528 -1.419491 20.628551 0.647500 1.639663 0.024849 0.001470 -136587.000000 0 1 0
16.455016 13.043928 -0.030491 20.997917 0.670275 1.572248 0.022575 -0.006453 -170306.000000 0 1 0
15.552116 14.137628 0.004409 21.017632 0.737792 1.570587 0.035963 -0.008573 328060.000000 0 1 0
15.731216 14.928128 1.159009 21.717814 0.759210 1.517404 0.035498 -0.005724 -306901.000000 0 1 0
14.561616 15.881028 1.516009 21.599675 0.828712 1.500552 0.043930 -0.002062 -108792.000000 0 1 0
14.343216 16.827128 0.459009 22.115396 0.864918 1.550040 0.050726 -0.007714 532170.000000 0 1 0
13.402716 17.748128 1.052109 22.265124 0.924000 1.523525 0.042544 -0.013316 304899.000000 0 1 0
13.246216 19.169628 0.382709 23.304148 0.966136 1.554373 0.039211 -0.012805 240343.000000 0 1 0
12.591816 19.186728 -0.919991 22.968037 0.990021 1.610862 0.042300 -0.020973 192804.000000 0 1 0
12.088916 20.449028 -1.250891 23.788009 1.036892 1.623406 0.047047 -0.026258 836449.000000 0 1 0
10.545816 20.671328 -1.062391 23.230297 1.099049 1.616545 0.033803 -0.023630 775261.000000 0 1 0
10.039716 20.665728 0.253009 22.976775 1.118561 1.559785 0.021675 -0.025222 383592.000000 0 1 0
8.623616 20.521528 0.183809 22.260585 1.172979 1.562539 0.007658 -0.020899 687462.000000 0 1 0
7.911416 20.714728 1.565609 22.229295 1.205971 1.500308 0.003708 -0.011816 -118038.000000 0 1 0
7.840916 22.061928 2.074109 23.505543 1.229315 1.482442 0.000034 -0.001502 -24953.600000 0 1 0
6.900316 22.147228 3.103309 23.403944 1.268763 1.437807 -0.002615 0.003497 -265177.000000 0 1 0
6.708316 23.538728 3.728309 24.758301 1.293166 1.419633 -0.000153 0.005214 -242417.000000 0 1 0
7.602216 23.805128 4.736409 25.434452 1.261681 1.383483 0.003756 -0.001171 -28945.900000 0 0 1
7.036916 24.890128 5.464709 26.436711 1.295268 1.362586 -0.001251 0.005712 96803.800000 0 0 1
7.631716 25.103628 6.891509 27.127995 1.275666 1.313945 -0.002812 0.001853 -82019.900000 0 0 1
7.147716 24.092428 7.781309 26.307483 1.282389 1.270521 0.004929 -0.014064 533465.000000 0 0 1
7.824316 24.119428 9.087209 26.935925 1.257108 1.226681 0.002682 -0.021117 3236.770000 0 0 1
7.293516 23.188528 10.138509 26.338044 1.266062 1.175656 0.008200 -0.017715 -447408.000000 0 0 1
6.069616 23.659928 10.655709 26.649138 1.319676 1.159441 0.007916 -0.018637 2260.830000 0 0 1
5.500116 22.689128 11.547609 26.046018 1.332972 1.111459 0.011328 -0.010923 -274078.000000 0 0 1
4.118216 23.042528 12.092209 26.346524 1.393941 1.093963 0.020690 -0.016892 -573311.000000 0 0 1
3.180616 23.193128 11.058309 25.890610 1.434510 1.129495 0.015390 -0.018705 -313671.000000 0 0 1
1.924916 23.421728 11.678709 26.242616 1.488796 1.109590 0.020158 -0.018004 334186.000000 0 0 1
0.820916 23.871528 10.660309 26.156566 1.536421 1.151018 0.031134 -0.006771 -15314.300000 0 0 1
0.985616 25.168128 10.153109 27.156799 1.531655 1.187618 0.029484 -0.002298 12155.300000 0 0 1
0.093116 25.384428 9.083409 26.960826 1.567128 1.227162 0.030116 -0.004418 -9500.990000 0 0 1
-1.270084 25.985628 9.442709 27.677260 -1.521959 1.222633 0.030908 -0.009653 110113.000000 0 0 1
-2.119284 25.079728 10.188709 27.153156 -1.486495 1.186150 0.028419 -0.009025 157104.000000 0 0 1
-3.373884 25.707928 10.369109 27.924882 -1.440303 1.190364 0.041040 -0.012395 -161046.000000 0 0 1
-4.470484 24.820128 10.997609 27.513113 -1.392592 1.159582 0.040307 -0.013354 40432.300000 0 0 1
-4.682484 24.817928 12.435309 28.151236 -1.384315 1.113268 0.031649 -0.009257 157268.000000 0 0 1
-5.548084 25.870728 12.840909 29.410283 -1.359542 1.118966 0.031200 0.000756 -29937.000000 0 0 1
-6.026884 25.782328 14.304709 30.094459 -1.341160 1.075461 0.025398 -0.005683 -103274.000000 0 0 1
-7.049084 24.837428 14.507709 29.615216 -1.294259 1.058852 0.024089 -0.001984 -248769.000000 0 0 1
-7.384484 24.751628 15.850209 30.305161 -1.280860 1.020406 0.016091 0.002405 230071.000000 0 0 1
-8.748484 24.029128 16.048709 30.190992 -1.221635 1.010340 0.013263 -0.002062 75340.700000 0 0 1
-9.856184 24.785528 15.614509 30.907598 -1.192310 1.041183 0.009967 -0.000993 -994360.000000 0 0 1
-10.935884 23.913428 15.548609 30.548401 -1.141879 1.036794 0.006088 -0.002318 -920966.000000 0 0 1
-12.205284 24.713728 15.251109 31.501327 -1.112067 1.065414 0.001885 -0.006685 -439847.000000 0 0 1
-12.708584 25.386428 16.433409 32.802984 -1.106664 1.046074 0.002320 -0.009125 -26637.300000 0 0 1
-13.621884 26.359528 15.986109 33.703651 -1.093821 1.076612 0.001855 -0.002106 -609782.000000 0 0 1
-14.293884 27.291628 17.035209 35.204352 -1.088333 1.065696 0.009775 -0.004934 92390.100000 0 0 1
-15.512584 26.683928 17.450309 35.456812 -1.044206 1.056231 -0.001686 -0.010569 192383.000000 0 0 1
-15.991284 27.358028 18.615109 36.751941 -1.041838 1.039668 0.012890 -0.011466 716485.000000 0 0 1
-17.339084 26.732828 19.175309 37.188444 -0.995401 1.029059 -0.000207 -0.019939 1174470.000000 0 0 1
-18.488684 27.129028 18.431009 37.649936 -0.972588 1.059238 0.008799 -0.019631 65854.800000 0 0 1
-19.573784 26.288528 18.790209 37.779514 -0.930776 1.050237 0.018105 -0.016270 -759035.000000 0 0 1
-20.788584 26.581628 17.965209 38.229529 -0.907087 1.081585 0.009178 -0.020051 -1344750.000000 0 0 1
-21.337984 27.854728 18.216809 39.535396 -0.917105 1.091931 0.011708 -0.020080 217243.000000 0 0 1
-21.526484 28.637828 16.994309 39.652506 -0.926221 1.127875 0.012176 -0.019344 -482270.000000 0 0 1
-22.420184 29.869028 17.115509 41.082406 -0.926901 1.141079 -0.001357 -0.021004 343838.000000 0 0 1
-23.765584 29.572628 17.476909 41.770631 -0.893843 1.139111 -0.001733 -0.016451 705476.000000 0 0 1
-24.624784 30.711528 17.536409 43.094125 -0.894953 1.151703 -0.003266 -0.009582 1042230.000000 0 0 1
-26.060514 30.373928 18.079209 43.915643 -0.861682 1.146499 0.002209 -0.012354 159116.000000 0 0 1
-26.915424 29.649128 17.238009 43.596557 -0.833690 1.164295 0.014586 -0.007549 584582.000000 0 0 1
-28.228924 29.528528 17.820209 44.568666 -0.807895 1.159457 0.038017 -0.007920 621610.000000 0 0 1
-28.370584 28.378828 18.866109 44.341605 -0.785543 1.131313 0.027958 -0.008085 -906659.000000 0 0 1
-28.487084 27.132728 18.287909 43.383712 -0.761053 1.135655 0.027349 -0.009433 -23317.900000 0 0 1
-28.758104 26.122928 19.174909 43.325663 -0.737419 1.112327 0.033098 -0.008246 -163129.000000 0 0 1
-28.824974 24.734328 18.558109 42.273745 -0.709170 1.116313 0.032896 -0.010713 201541.000000 0 0 1
-30.047544 24.611028 17.842709 42.742483 -0.686261 1.140163 0.031535 -0.015296 348948.000000 0 0 1
-29.952724 23.647428 16.812209 41.701521 -0.668301 1.155834 0.034006 -0.015512 -271570.000000 0 0 1
-30.094734 22.152428 17.148609 41.115664 -0.634539 1.140564 0.024696 -0.015581 110328.000000 0 0 1
-31.421124 21.726228 16.842009 41.748884 -0.604967 1.155553 0.029822 -0.013791 278208.000000 0 0 1
-31.533844 20.377928 16.553309 41.032369 -0.573716 1.155544 0.023186 -0.016521 -835898.000000 0 0 1
-32.844814 19.892228 15.984809 41.593228 -0.544558 1.176333 0.030022 -0.028120 -809830.000000 0 0 1
-33.108854 20.225428 14.658809 41.474629 -0.548379 1.209550 0.023839 -0.028046 -205260.000000 0 0 1
-34.332816 19.646628 14.287309 42.057811 -0.519758 1.224192 0.036841 -0.023407 139044.000000 0 0 1
-34.786167 20.065328 12.810609 42.152183 -0.523200 1.261999 0.039571 -0.020241 -14736.400000 0 0 1
-34.896331 21.475128 12.623809 42.875349 -0.551665 1.271937 0.033633 -0.027547 143651.000000 0 0 1
-35.313173 21.957328 11.335109 43.100222 -0.556287 1.304672 0.026085 -0.017830 -144030.000000 0 0 1
-34.226905 21.870728 10.229209 41.886113 -0.568598 1.324086 0.022637 -0.020974 62236.600000 0 0 1
-34.068854 20.556528 9.791409 40.977181 -0.542902 1.329514 0.016692 -0.014429 -21086.300000 0 0 1
-32.779534 20.206228 9.312009 39.616954 -0.552412 1.333525 0.024588 -0.010014 52641.100000 0 0 1
-32.171514 19.006228 10.032109 38.689614 -0.533611 1.308502 0.010324 -0.012581 -77274.400000 0 0 1
-31.628444 19.365928 11.292709 38.767550 -0.549411 1.275218 0.013658 -0.017461 586867.000000 0 0 1
-30.778784 18.429028 11.953409 37.813312 -0.539505 1.249163 0.019207 -0.014023 374755.000000 0 0 1
-30.284044 18.703328 13.404109 38.034299 -0.553258 1.210639 0.013002 -0.010754 -179978.000000 0 0 1
-29.244604 19.651728 13.457909 37.716741 -0.591671 1.205940 0.025529 -0.009556 -158894.000000 0 0 1
-29.648444 21.023228 13.410409 38.740746 -0.616796 1.217324 0.032899 -0.010306 -4155.030000 0 0 1
-28.402084 21.877728 13.680309 38.372701 -0.656358 1.206265 0.029606 -0.014642 290479.000000 0 0 1
-27.855684 21.665128 15.011209 38.349098 -0.661034 1.168605 0.026948 -0.011757 -107362.000000 0 0 1
-26.744224 22.491728 15.256109 38.129781 -0.699242 1.159159 0.043762 -0.010864 -491804.000000 0 0 1
-26.117724 22.251828 16.649309 38.137630 -0.705644 1.119026 0.037817 -0.012741 -459776.000000 0 0 1
-25.286634 21.118328 16.744009 36.956183 -0.695814 1.100582 0.056188 -0.014730 51825.600000 0 0 1
-24.953884 20.792028 18.077209 37.172439 -0.694670 1.062938 0.044573 -0.004335 -178262.000000 0 0 1
-23.878484 19.684728 18.228809 35.916013 -0.689426 1.038469 0.054863 -0.003822 120529.000000 0 0 1
-23.414884 19.632628 19.556309 36.278728 -0.697761 1.001479 0.057630 -0.006933 -121968.000000 0 0 1
-22.547384 18.558428 19.817309 35.292003 -0.688660 0.974570 0.053604 -0.005829 -59405.200000 0 0 1
-22.024584 18.654528 21.313809 35.879690 -0.702742 0.934730 0.046997 -0.009788 384395.000000 0 0 1
-23.047984 18.308928 22.238909 36.891672 -0.671307 0.923770 0.048308 -0.006062 285654.000000 0 0 1
-22.754684 18.744428 23.587609 37.755854 -0.689063 0.895997 0.064244 -0.013236 229242.000000 0 0 1
-23.454084 17.879828 24.689409 38.462309 -0.651348 0.873807 0.037776 -0.004335 367811.000000 0 0 1
-22.926584 16.559128 24.789709 37.608013 -0.625515 0.851095 0.051428 -0.016555 286925.000000 0 0 1
-23.869384 15.724228 25.451509 38.272420 -0.582510 0.843290 0.042516 -0.015945 437523.000000 0 0 1
20.103016 25.308228 33.960698 46.882477 0.899524 0.760663 0.038010 -0.019158 -367688.000000 0 0 1
20.915216 24.263228 33.500853 46.351458 0.859369 0.763013 0.038334 -0.023053 289433.000000 0 0 1
20.251416 22.997328 33.631994 45.498439 0.848804 0.738929 0.028218 -0.019072 403757.000000 0 0 1
19.164916 22.586928 32.604903 44.051595 0.867176 0.737499 0.033769 -0.015907 48433.600000 0 0 1
19.763416 22.049528 31.450353 43.196053 0.840019 0.755274 0.035316 -0.010374 700884.000000 0 0 1
18.884116 21.135028 30.753443 41.821926 0.841585 0.744624 0.031052 -0.002610 84841.500000 0 0 1
19.455216 20.638628 29.401403 40.852183 0.814906 0.767423 0.033312 0.000487 281368.000000 0 0 1
20.657516 19.876528 29.619113 41.220155 0.766133 0.769068 0.026184 0.000077 455779.000000 0 0 1
21.027716 19.094728 28.500023 40.237107 0.737258 0.783706 0.029428 0.001122 300622.000000 0 0 1
22.127816 18.031628 28.821193 40.564036 0.683752 0.780572 0.033308 0.010667 1649520.000000 0 0 1
23.450416 18.602128 29.023913 41.693509 0.670614 0.800810 0.047142 -0.000032 1201920.000000 0 0 1
24.343316 17.657828 29.646683 42.229394 0.627548 0.792540 0.040561 0.009596 104050.000000 0 0 1
25.794316 18.123728 29.535663 43.199209 0.612485 0.817964 0.047599 -0.006273 -543740.000000 0 0 1
26.567916 17.831028 28.388253 42.774906 0.591099 0.845087 0.041046 0.003309 609700.000000 0 0 1
27.872616 18.378328 28.689533 44.019711 0.582933 0.860916 0.045145 -0.003696 1073120.000000 0 0 1
28.930516 17.851828 27.660653 43.826638 0.552868 0.887777 0.044917 0.010906 2288.290000 0 0 1
28.822716 18.521728 26.402893 43.254088 0.571162 0.914213 0.036665 0.010349 177173.000000 0 0 1
29.800516 18.184828 25.410163 43.179105 0.547899 0.941615 0.038457 0.019659 64939.800000 0 0 1
30.337316 19.471628 24.699573 43.698580 0.570616 0.970089 0.038834 0.008898 -176815.000000 0 0 1
29.324316 20.291128 24.134583 43.059534 0.605307 0.975815 0.038893 0.000318 -12448.200000 0 0 1
29.670916 21.288528 23.211383 43.270463 0.622367 1.004600 0.013865 -0.004276 -110670.000000 0 0 1
30.417016 20.809528 21.912483 42.876430 0.600003 1.034377 0.016495 -0.000488 90388.900000 0 0 1
29.575616 20.040228 21.067583 41.474942 0.595529 1.037982 0.034880 -0.004464 109351.000000 0 0 1
30.106116 19.553728 19.860383 41.026349 0.576019 1.065475 0.030541 -0.006539 -302294.000000 0 0 1
31.059516 18.364728 19.953883 41.232441 0.533980 1.065649 0.027415 -0.015167 113413.000000 0 0 1
30.370116 17.154128 20.031283 40.222635 0.514162 1.049494 0.023884 -0.013822 508531.000000 0 0 1
31.397316 16.165428 20.110783 40.639342 0.475470 1.053123 0.021932 -0.007249 -300790.000000 0 0 1
30.974616 14.692728 20.363883 39.874689 0.442916 1.034801 0.019827 -0.015667 173764.000000 0 0 1
30.296316 14.408628 21.607983 39.904639 0.443930 0.998587 0.014261 -0.019509 530519.000000 0 0 1
29.036216 15.022428 21.776083 39.280694 0.477446 0.983189 0.018097 -0.009846 -368405.000000 0 0 1
28.295716 14.587128 23.102683 39.334028 0.475990 0.943021 0.012533 -0.014095 226729.000000 0 0 1
27.962816 13.214528 23.154883 38.635365 0.441468 0.928147 0.019610 -0.013493 -151514.000000 0 0 1
27.277416 12.898428 24.324113 38.756797 0.441702 0.892318 0.020855 -0.005541 -91106.200000 0 0 1
26.773716 11.414228 24.401853 37.981139 0.402990 0.873075 0.029416 -0.003921 846226.000000 0 0 1
25.646816 11.297628 23.483583 36.563291 0.414932 0.873337 0.032946 0.004366 856220.000000 0 0 1
25.553316 9.916628 23.201783 35.911477 0.370185 0.868355 0.034532 0.003327 497450.000000 0 0 1
24.433816 9.554328 22.136183 34.326479 0.372749 0.869941 0.023362 -0.009725 2003580.000000 0 0 1
23.090716 9.755428 22.695183 33.814507 0.399737 0.835014 0.024418 -0.005467 2197280.000000 0 0 1
22.081216 9.351228 21.720483 32.354365 0.400593 0.834793 0.025950 0.002252 764762.000000 0 0 1
20.627516 9.592228 22.198183 31.784659 0.435275 0.797647 0.018589 0.001494 42907.900000 0 0 1
20.176016 8.773328 23.228183 31.993615 0.410175 0.758272 0.021726 -0.004162 190139.000000 0 0 1
18.758916 8.886728 23.239283 31.159832 0.442415 0.729048 0.028114 -0.006542 65814.400000 0 0 1
18.185816 8.111028 24.440283 31.525230 0.419530 0.683668 0.021080 -0.004465 -343080.000000 0 0 1
18.262016 6.693228 24.395473 31.199994 0.351307 0.673078 0.022187 -0.003993 220139.000000 0 0 1
18.104516 6.315428 25.754123 32.108145 0.335634 0.639984 0.014323 0.004355 -277261.000000 0 0 1
18.239316 4.771228 25.975063 32.095812 0.255857 0.627841 0.014865 -0.000417 -421566.000000 0 0 1
19.548916 4.390128 25.679773 32.571215 0.220906 0.662561 0.024649 -0.001431 -347350.000000 0 0 1
19.700216 2.975928 25.760843 32.566481 0.149927 0.658317 0.026299 -0.001665 575795.000000 0 0 1
21.201916 2.552728 25.716603 33.427254 0.119824 0.693004 0.043909 -0.010042 931558.000000 0 0 1
22.038416 3.009028 26.809593 34.835331 0.135697 0.692567 0.048597 -0.016940 1605340.000000 0 0 1
23.423916 2.999028 26.369143 35.397821 0.127340 0.730356 0.059498 -0.022636 1485610.000000 0 0 1
24.448316 3.309728 27.490123 36.937532 0.134558 0.731411 0.047059 -0.024184 -1177500.000000 0 0 1
24.516916 2.382228 28.577283 37.728176 0.096863 0.711395 0.042586 -0.020907 423769.000000 0 0 1
25.580916 2.641328 29.491773 39.129587 0.102889 0.717130 0.037820 -0.018611 824598.000000 0 0 1
27.040716 2.694828 28.967803 39.718963 0.099330 0.753470 0.045543 -0.029900 -1237360.000000 0 0 1
27.325816 3.863928 28.252333 39.494613 0.140471 0.773676 0.046033 -0.026062 1660330.000000 0 0 1
28.764016 4.013228 27.983093 40.330238 0.138628 0.803976 0.049754 -0.019114 1910470.000000 0 0 1
29.361116 3.047028 26.955533 39.974495 0.103407 0.830755 0.046872 -0.010579 -1268640.000000 0 0 1
28.814616 3.225828 25.708693 38.750806 0.111487 0.845394 0.034804 -0.008773 -172624.000000 0 0 1
29.133816 2.175628 24.843583 38.349918 0.074539 0.866086 0.026330 0.001780 -501776.000000 0 0 1
28.737616 2.561328 23.408883 37.153557 0.088893 0.889169 0.045305 -0.003736 358651.000000 0 0 1
29.441616 3.586428 22.634183 37.309214 0.121218 0.918938 0.036232 -0.000099 424549.000000 0 0 1
30.819316 3.316528 22.342083 38.209924 0.107199 0.946262 0.030190 0.006074 480373.000000 0 0 1
31.509316 4.553928 21.825583 38.599628 0.143533 0.969836 0.029820 0.001726 -978412.000000 0 0 1
31.124616 4.975328 20.484583 37.591405 0.158511 0.994494 0.027168 -0.003209 75059.400000 0 0 1
31.743416 6.142428 19.912783 37.972263 0.191140 1.018782 0.024878 0.006725 398630.000000 0 0 1
33.300716 6.180228 19.924583 39.295316 0.183501 1.039041 0.022823 0.000957 154585.000000 0 0 1
34.064716 6.253028 21.138383 40.575072 0.181542 1.022810 0.030662 0.003720 296395.000000 0 0 1
33.957216 7.398328 21.851983 41.052855 0.214520 1.009494 0.032982 0.002762 -465049.000000 0 0 1
34.541116 7.354528 23.278183 42.297182 0.209788 0.988015 0.033522 0.003295 31099.800000 0 0 1
33.827316 6.396628 24.032743 41.985437 0.186890 0.961358 0.033804 0.002011 318209.000000 0 0 1
34.543716 6.089628 25.239583 43.213290 0.174495 0.947063 0.033829 -0.002050 481207.000000 0 0 1
33.786916 5.145628 26.242313 43.089351 0.151135 0.915971 0.031383 -0.005150 188753.000000 0 0 1
33.767316 3.766628 25.883183 42.712507 0.111087 0.919791 0.029031 0.000096 -175348.000000 0 0 1
32.955816 3.019728 26.733273 42.542596 0.091374 0.891317 0.027868 0.003813 -454876.000000 0 0 1
32.931116 1.562928 26.355613 42.208050 0.047425 0.896406 0.013675 0.014061 -69514.300000 0 0 1
32.270716 1.242728 25.160013 40.938609 0.038490 0.908944 0.018329 0.009162 -184196.000000 0 0 1
32.483116 -0.143572 24.900673 40.929414 -0.004420 0.916777 0.018114 0.009471 -180570.000000 0 0 1
31.565416 -0.602572 23.766783 39.517067 -0.019087 0.925505 0.024047 0.014968 146551.000000 0 0 1
30.208816 -0.578172 24.187553 38.703289 -0.019137 0.895731 0.029102 0.013188 -306496.000000 0 0 1
29.459516 -1.467872 23.386283 37.642210 -0.049786 0.900424 0.035419 0.005700 -584050.000000 0 0 1
28.001716 -1.611372 23.777183 36.770192 -0.057482 0.867621 0.041939 0.008667 -556835.000000 0 0 1
27.326716 -0.402572 23.566383 36.087198 -0.014731 0.859205 0.031391 0.005471 -364465.000000 0 0 1
25.921216 -0.525572 23.594583 35.055527 -0.020273 0.832454 0.045032 0.000251 442774.000000 0 0 1
25.110316 0.821228 23.605483 34.473486 0.032693 0.816545 0.052457 -0.002289 91075.600000 0 0 1
25.037216 1.439828 22.329983 33.579211 0.057444 0.843310 0.049658 -0.012914 -57261.700000 0 0 1
24.267716 2.610128 22.316983 33.072383 0.107144 0.830113 0.050175 -0.013817 -106945.000000 0 0 1
24.327216 3.459428 21.026183 32.340090 0.141257 0.863003 0.041259 -0.014871 -88233.600000 0 0 1
23.590216 2.803028 20.024983 31.070166 0.118267 0.870416 0.034618 -0.012075 -280338.000000 0 0 1
22.754716 3.595928 19.301683 30.054330 0.156734 0.873397 0.036569 -0.007750 -633061.000000 0 0 1
22.699916 3.160728 17.825483 29.034879 0.138350 0.909762 0.038230 -0.010066 39151.200000 0 0 1
23.956916 3.416028 17.197083 29.687417 0.141636 0.952961 0.047260 -0.017903 526172.000000 0 0 1
23.898816 3.619828 15.791983 28.872881 0.150322 0.992081 0.032555 -0.010496 -418214.000000 0 0 1
23.538016 2.396828 14.940083 27.981942 0.101478 1.007568 0.034528 -0.003911 -539730.000000 0 0 1
22.165416 2.230028 14.754583 26.720337 0.100271 0.985813 0.037557 -0.003985 -273228.000000 0 0 1
21.884516 0.969828 14.097883 26.050392 0.044287 0.998960 0.032865 -0.002276 9374.580000 0 0 1
20.409716 0.514128 13.992983 24.751251 0.025185 0.969946 0.043417 -0.014652 188607.000000 0 1 0
19.469016 1.116528 13.095283 23.489905 0.057286 0.979442 0.052844 -0.009973 908508.000000 0 1 0
19.594916 0.989428 11.684683 22.835751 0.050451 1.033653 0.059902 -0.013782 -1026400.000000 0 1 0
19.350716 -0.431672 11.137183 22.330996 -0.022304 1.048661 0.058498 -0.008709 -180077.000000 0 1 0
20.279116 -1.479172 11.469083 23.344600 -0.072812 1.057221 0.058598 -0.018578 435359.000000 0 1 0
21.450816 -1.333372 10.688583 24.003358 -0.062080 1.109292 0.057667 -0.013149 -833420.000000 0 1 0
22.520016 -2.334872 11.106083 25.218006 -0.103311 1.114749 0.054908 -0.017068 -574735.000000 0 0 1
23.068516 -1.905172 12.324583 26.223681 -0.082401 1.081529 0.055682 -0.017594 217910.000000 0 0 1
24.055316 -2.777372 12.862183 27.419113 -0.114949 1.082530 0.032026 -0.006209 167459.000000 0 0 1
24.324216 -2.402172 14.350583 28.343908 -0.098437 1.039905 0.044394 -0.008625 -350719.000000 0 0 1
25.296416 -1.429872 14.571083 29.227892 -0.056465 1.048890 0.038061 -0.005870 -231257.000000 0 0 1
25.473616 -1.124172 15.921383 30.060927 -0.044102 1.012624 0.036954 -0.010951 -235837.000000 0 0 1
26.737416 -0.287772 16.153283 31.239411 -0.010762 1.027360 0.043986 -0.005819 297996.000000 0 0 1
27.938216 -1.015272 15.867683 32.145887 -0.036324 1.054555 0.049654 -0.007939 667283.000000 0 0 1
29.060616 -0.219972 16.210983 33.277075 -0.007569 1.061971 0.050147 -0.005258 160437.000000 0 0 1
30.448616 -0.855972 16.378983 34.584996 -0.028105 1.077438 0.041548 -0.003349 -42220.600000 0 0 1
31.013516 -1.316972 15.207083 34.566284 -0.042439 1.115265 0.043639 0.003678 -1131620.000000 0 0 1
32.282716 -1.795472 15.376383 35.802662 -0.055560 1.126884 0.023301 0.000319 -1294880.000000 0 0 1
32.896616 -2.325972 14.060283 35.850928 -0.070588 1.167788 0.032148 -0.000227 -25392.600000 0 0 1
32.898016 -1.426272 12.993083 35.399631 -0.043327 1.194971 0.028829 0.003641 183211.000000 0 0 1
33.284316 -2.021772 11.745083 35.353645 -0.060668 1.232143 0.032979 -0.001707 250915.000000 0 0 1
32.545516 -1.257172 10.589383 34.248009 -0.038609 1.256448 0.050777 0.002658 377438.000000 0 0 1
33.199416 -0.032672 10.232383 34.740523 -0.000984 1.271825 0.034700 0.004842 555957.000000 0 0 1
32.271016 0.753828 9.509583 33.651432 0.023355 1.284302 0.040988 0.001453 -59377.800000 0 0 1
32.781216 2.148528 8.997083 34.061295 0.065448 1.303480 0.035962 0.003619 -96491.500000 0 0 1
33.498116 2.025428 7.787583 34.451017 0.060390 1.342778 0.028232 -0.001399 202170.000000 0 0 1
33.661216 3.298128 7.139583 34.567741 0.097668 1.362760 0.019092 -0.000644 -46595.500000 0 0 1
34.536116 3.170628 5.862283 35.173321 0.091550 1.403346 0.013413 0.003270 -134765.000000 0 0 1
34.850016 4.376328 5.263283 35.515884 0.124922 1.422053 0.014123 0.013920 182452.000000 0 0 1
35.333416 4.274528 3.935783 35.807991 0.120392 1.460660 0.004186 -0.017069 119134.000000 0 0 1
-34.835060 5.615828 3.422183 35.450392 -0.159837 1.474111 0.004932 -0.019337 298253.000000 0 0 1
34.853016 6.522328 3.461583 35.626620 0.184998 1.473480 0.020674 -0.020598 531666.000000 0 0 1
35.195616 7.860528 3.084983 36.194425 0.219732 1.485459 0.012626 -0.019892 -485101.000000 0 0 1
34.043616 8.899228 3.225383 35.335069 0.255685 1.479389 0.046272 -0.002953 868484.000000 0 0 1
33.021816 8.785128 2.199083 34.241127 0.260017 1.506529 0.062322 -0.019315 885463.000000 0 0 1
31.918816 7.963628 2.595783 32.999519 0.244505 1.492054 0.048667 -0.021093 -342398.000000 0 0 1
30.748916 8.213128 1.645783 31.869419 0.261010 1.519132 0.093659 -0.025829 -423129.000000 0 0 1
30.955216 7.794428 0.293683 31.922793 0.246669 1.561596 0.091715 -0.029954 685737.000000 0 0 1
29.685016 7.689428 -0.351717 30.666776 0.253463 1.582266 0.095518 -0.029124 420732.000000 0 0 1
29.824616 7.252328 -1.832017 30.748337 0.238536 1.630413 0.074647 -0.023990 483995.000000 0 0 1
28.582816 6.960528 -2.483117 29.522740 0.238872 1.655004 0.053126 -0.013740 1460970.000000 0 0 1
29.064116 6.536528 -3.776417 30.028492 0.221220 1.696891 0.064289 -0.013396 158209.000000 0 0 1
27.977016 5.892528 -4.651317 28.966706 0.207586 1.732069 0.047334 -0.002331 -386979.000000 0 0 1
27.792616 4.521028 -4.488417 28.513419 0.161258 1.728868 0.050562 -0.006844 361848.000000 0 0 1
26.840416 3.999728 -5.365417 27.662130 0.147930 1.765996 0.034139 -0.006045 -559162.000000 0 0 1
26.757816 2.498628 -5.469217 27.425101 0.093109 1.771566 0.040085 0.002675 -464801.000000 0 0 1
26.392216 1.944528 -4.204617 26.795691 0.073545 1.728361 0.025048 -0.003038 541535.000000 0 0 1
26.409616 0.472228 -4.122717 26.733642 0.017879 1.725629 0.025187 -0.005543 -207314.000000 0 0 1
26.408516 -0.014072 -2.637717 26.539922 -0.000533 1.670347 0.016914 -0.000864 -898654.000000 0 0 1
27.620216 0.271028 -2.049017 27.697441 0.009812 1.644843 0.046893 -0.011927 -474332.000000 0 0 1
27.663016 -0.003072 -0.692917 27.671693 -0.000111 1.595840 0.049988 -0.012336 -958314.000000 0 0 1
28.917316 0.422728 0.028683 28.920420 0.014617 1.569805 0.070308 -0.013039 -165774.000000 0 0 1
30.060916 -0.351372 -0.327317 30.064751 -0.011688 1.581684 0.066570 -0.015933 1081060.000000 0 0 1
31.284416 0.094228 0.267983 31.285706 0.003012 1.562231 0.051742 -0.021833 330687.000000 0 0 1
-3.155084 -21.149972 -8.524791 23.020598 1.422712 1.950141 0.005096 0.016861 129487.000000 0 1 0
-3.700484 -21.902572 -7.495491 23.443520 1.403425 1.896236 0.006210 0.015397 -13634.300000 0 1 0
-2.814084 -22.946072 -7.069091 24.174643 1.448767 1.867550 0.008389 0.005644 256751.000000 0 1 0
-3.361184 -23.664372 -5.839991 24.604991 1.429704 1.810433 0.007682 0.008564 -434810.000000 0 1 0
-3.244784 -22.858072 -4.658791 23.552589 1.429785 1.769913 0.010578 0.001008 -205905.000000 0 1 0
-3.666184 -23.531072 -3.539091 24.076491 1.416237 1.718325 0.009531 0.000199 -292374.000000 0 1 0
-3.279384 -22.847372 -2.244991 23.190446 1.428236 1.667755 0.009140 -0.003828 887398.000000 0 1 0
-1.886884 -22.832472 -1.878291 22.987173 1.488343 1.652598 0.019924 -0.008203 357165.000000 0 1 0
-1.750084 -22.530772 -0.509391 22.604380 1.493277 1.593333 0.026922 -0.012755 -48970.900000 0 1 0
-0.253584 -22.589472 -0.192391 22.591715 1.559571 1.579312 0.025284 -0.016123 444093.000000 0 1 0
0.609916 -21.496872 -0.628691 21.514711 -1.542432 1.600022 0.013754 -0.015321 -74430.300000 0 1 0
1.783616 -21.468572 0.129709 21.542927 -1.487906 1.564775 0.010560 -0.011535 -361287.000000 0 1 0
2.727216 -20.421672 -0.459291 20.608090 -1.438037 1.593085 0.015247 -0.008827 53157.400000 0 1 0
3.417316 -20.627572 -1.678691 20.976005 -1.406620 1.650911 0.013102 -0.010251 -468066.000000 0 1 0
4.473416 -19.711972 -1.766891 20.290274 -1.347637 1.657987 0.019664 -0.011804 -716665.000000 0 1 0
5.285216 -19.928372 -3.013391 20.836364 -1.311554 1.715927 0.013801 -0.009659 -1173780.000000 0 1 0
6.025816 -21.136972 -2.788191 22.155272 -1.293079 1.696979 0.019029 -0.007527 -30457.300000 0 1 0
6.657616 -21.607872 -3.971391 22.956392 -1.271915 1.744668 0.012935 -0.007511 170887.000000 0 1 0
7.905816 -20.963172 -4.608391 22.873430 -1.210161 1.773658 0.014049 0.000403 -306488.000000 0 1 0
7.684116 -19.721372 -5.298491 21.818620 -1.199258 1.816091 0.004403 -0.002126 276369.000000 0 1 0
8.887016 -19.318272 -5.963591 22.084816 -1.139631 1.844222 0.008109 0.001132 122461.000000 0 1 0
8.705716 -17.976772 -6.600291 21.036104 -1.119807 1.889947 0.001988 -0.001600 -691928.000000 0 1 0
9.663816 -17.788672 -7.561391 21.610202 -1.073145 1.928260 0.010857 0.002873 -107568.000000 0 1 0
9.276916 -16.621772 -8.257191 20.749113 -1.061742 1.980082 0.002349 0.001211 28706.000000 0 1 0
9.813016 -16.510672 -9.682091 21.509079 -1.034546 2.037718 0.000380 0.000278 30197.800000 0 1 0
9.152416 -17.363272 -10.649991 22.330971 -1.085694 2.067939 -0.005856 0.005047 317581.000000 0 1 0
8.894316 -16.590872 -11.828991 22.232655 -1.078690 2.131822 -0.008990 0.003579 -56565.500000 0 1 0
8.290716 -17.358172 -13.031191 23.234760 -1.125208 2.166207 -0.009046 0.005627 2234.020000 0 1 0
6.924016 -17.654672 -12.874791 22.921381 -1.197039 2.167228 -0.014970 0.004710 -43767.300000 0 1 0
6.381216 -18.154172 -14.064791 23.835105 -1.232785 2.201963 -0.015750 0.007556 259228.000000 0 1 0
5.181216 -19.137272 -13.905191 24.216410 -1.306395 2.182429 -0.011511 0.015076 -285592.000000 0 1 0
5.485816 -20.334472 -13.286991 24.902391 -1.307290 2.133604 -0.004183 0.010349 -797907.000000 0 1 0
4.379516 -21.154972 -13.133691 25.282540 -1.366659 2.117035 0.003975 0.010817 -564737.000000 0 0 1
4.661816 -22.676172 -12.778491 26.442979 -1.368039 2.075156 -0.001320 0.008100 -207869.000000 0 0 1
5.285416 -23.346972 -13.852391 27.656924 -1.348164 2.095394 0.003861 0.004979 12541.600000 0 0 1
4.762916 -24.678672 -14.019891 28.779847 -1.380143 2.079611 0.000727 0.010129 369585.000000 0 0 1
3.284516 -24.961772 -14.383591 28.995962 -1.439966 2.089846 0.005827 0.004781 323607.000000 0 0 1
2.348816 -24.826972 -13.298291 28.261989 -1.476470 2.060695 0.008612 0.003803 499164.000000 0 0 1
1.008816 -24.979702 -13.767291 28.540174 -1.530433 2.074169 0.013273 -0.004343 583377.000000 0 0 1
0.375116 -26.293402 -13.273191 29.456091 -1.556531 2.038244 0.005996 -0.001361 -529869.000000 0 0 1
1.014516 -27.431462 -13.856791 30.749391 -1.533830 2.038274 0.007215 0.000719 210900.000000 0 0 1
0.577116 -28.699192 -13.344691 31.655291 -1.550690 2.005964 -0.002711 0.009288 101087.000000 0 0 1
-0.850284 -29.216512 -13.702591 32.281397 1.541702 2.009176 -0.001489 -0.000157 404882.000000 0 0 1
-1.843984 -28.441192 -13.085991 31.361519 1.506052 2.001227 -0.006430 -0.005145 -581863.000000 0 0 1
-3.133284 -28.955522 -13.318891 32.025499 1.463006 1.999711 0.001112 -0.008292 -216529.000000 0 0 1
-4.313684 -28.147122 -12.743591 31.197235 1.418725 1.991590 -0.007841 -0.009071 52904.100000 0 0 1
-4.525984 -28.232262 -11.348391 30.762496 1.411836 1.948625 -0.001241 -0.018931 -96436.500000 0 0 1
-4.994384 -29.540082 -10.932291 31.891618 1.403309 1.920687 -0.012288 -0.016212 -863368.000000 0 0 1
-5.488384 -29.717992 -9.496891 31.677632 1.388172 1.875277 0.003902 -0.021993 513095.000000 0 0 1
-6.857884 -29.348212 -9.293791 31.539225 1.341242 1.869911 0.016929 -0.023878 293183.000000 0 0 1
-7.097184 -27.953472 -9.176391 30.265042 1.322157 1.878846 0.015082 -0.010615 -111318.000000 0 0 1
-8.592784 -27.588062 -8.822591 30.212170 1.268852 1.867136 0.012811 -0.006454 1108030.000000 0 0 1
-9.638584 -27.743592 -9.736291 30.941955 1.236425 1.890898 0.012540 -0.008026 -205494.000000 0 0 1
-9.846784 -29.103302 -10.063591 32.330129 1.244547 1.887332 0.019775 -0.026139 -578336.000000 0 0 1
-11.129184 -29.337702 -10.929591 33.226728 1.208220 1.905977 0.016082 -0.016850 -37812.800000 0 0 1
-11.154684 -28.739642 -12.213091 33.159518 1.200565 1.947990 0.017319 -0.018174 -163132.000000 0 0 1
-12.054384 -29.285092 -13.141891 34.287521 1.180311 1.964147 0.023017 -0.020081 -306646.000000 0 0 1
-12.163784 -28.394472 -14.455691 34.105288 1.166062 2.008493 0.020225 -0.017925 -159426.000000 0 0 1
-13.120784 -27.332472 -14.539391 33.624588 1.123241 2.017953 0.019484 -0.023641 88581.000000 0 0 1
-13.004784 -26.297752 -13.599191 32.336267 1.111542 2.004854 0.023608 -0.011128 -368024.000000 0 0 1
-13.936584 -25.107052 -13.866591 31.888474 1.064056 2.020664 0.039113 -0.005894 -443599.000000 0 0 1
-13.504284 -24.355472 -14.934391 31.600487 1.064531 2.063035 0.041018 -0.007235 -175739.000000 0 0 1
-14.252484 -23.190172 -15.104091 31.129583 1.019717 2.077389 0.051958 -0.004041 -733247.000000 0 0 1
-14.067884 -22.557672 -16.487391 31.282391 1.013175 2.125922 0.043822 -0.002420 169988.000000 0 0 1
-13.006584 -21.617572 -16.569791 30.183582 1.029152 2.151924 0.039774 0.002734 389689.000000 0 0 1
-13.041184 -21.006472 -17.858991 30.500622 1.015210 2.196328 0.029401 0.008318 -47808.800000 0 0 1
-13.259484 -19.477972 -17.667891 29.450971 0.973112 2.214183 0.030182 0.007362 -4002.870000 0 0 1
-12.014784 -18.850172 -17.458491 28.363408 1.003342 2.233853 0.038412 0.009335 94739.700000 0 0 1
-12.172484 -17.495872 -17.229091 27.406505 0.962939 2.250612 0.034431 0.011911 -69725.200000 0 0 1
-10.956384 -16.605272 -17.505991 26.499757 0.987553 2.292427 0.043086 -0.007427 97095.000000 0 0 1
-10.215584 -16.080872 -16.398091 25.136627 1.004851 2.281488 0.044379 -0.008686 -302922.000000 0 0 1
-9.037784 -15.488672 -16.828491 24.592247 1.042591 2.324441 0.045646 -0.007966 -1231160.000000 0 1 0
-8.257784 -14.715372 -15.759091 23.088571 1.059420 2.322042 0.042373 -0.005802 -92055.700000 0 1 0
-7.726684 -15.529272 -14.717291 22.747716 1.109106 2.274412 0.033427 -0.002890 942358.000000 0 1 0
-6.501584 -16.168272 -15.172791 23.106216 1.188464 2.287170 0.025311 -0.003407 122006.000000 0 1 0
-5.952784 -17.055772 -14.035891 22.876653 1.234996 2.231340 0.015248 0.001080 -502497.000000 0 1 0
-5.531784 -16.440472 -12.801691 21.558596 1.246222 2.206581 0.009190 -0.003800 219034.000000 0 1 0
-5.499684 -17.250372 -11.663391 21.537329 1.262168 2.143068 0.006795 -0.003245 165380.000000 0 1 0
-4.404484 -18.373972 -11.730791 22.239914 1.335523 2.126411 0.009447 -0.001017 312050.000000 0 1 0
-3.095684 -17.826472 -11.810291 21.606697 1.398854 2.149099 0.012067 0.000594 -176677.000000 0 1 0
-2.165384 -18.914572 -11.792091 22.394270 1.456810 2.125354 0.003782 0.010129 1394140.000000 0 1 0
-0.705384 -18.498572 -12.234191 22.189416 1.532683 2.154781 0.003955 0.014779 534925.000000 0 1 0
-0.619884 -18.119972 -13.651291 22.695273 1.536600 2.216178 0.009901 0.003219 -121775.000000 0 1 0
0.622116 -17.525872 -13.982591 22.428912 -1.535314 2.243903 0.011829 0.000018 107174.000000 0 1 0
1.793116 -18.470272 -14.260691 23.403708 -1.474018 2.226018 0.013827 0.003948 -1044600.000000 0 1 0
1.595816 -19.378872 -15.330791 24.761270 -1.488633 2.238448 0.021310 -0.000824 -62418.900000 0 1 0
0.962216 -20.574872 -14.983191 25.470517 -1.524064 2.199697 0.021577 0.004553 -740866.000000 0 0 1
1.049316 -21.650272 -16.082991 26.990701 -1.522368 2.209147 0.031099 0.001023 601184.000000 0 0 1
2.284916 -22.362972 -16.198091 27.707427 -1.468976 2.195198 0.015837 -0.000987 942953.000000 0 0 1
3.341716 -21.620872 -16.828291 27.601097 -1.417450 2.226474 0.018275 -0.000520 -496245.000000 0 0 1
4.646216 -22.312672 -17.106291 28.496804 -1.365498 2.214658 0.026116 -0.002382 -800456.000000 0 0 1
4.531316 -23.419372 -17.986291 29.874847 -1.379672 2.216868 0.031383 -0.009065 89543.900000 0 0 1
5.824916 -23.898272 -18.283591 30.648764 -1.331720 2.209995 0.027849 -0.011846 115502.000000 0 0 1
6.289516 -23.717072 -19.720491 31.479442 -1.311574 2.247795 0.038302 -0.009218 -186099.000000 0 0 1
6.495916 -22.340572 -19.991191 30.674840 -1.287831 2.280637 0.040509 -0.021492 82501.400000 0 0 1
6.587416 -22.139972 -21.411091 31.496146 -1.281603 2.318287 0.045778 -0.019360 -25286.000000 0 0 1
6.914116 -20.721872 -21.755891 30.830501 -1.248749 2.354152 0.034939 -0.023151 316337.000000 0 0 1
5.766816 -19.890972 -21.805191 30.072800 -1.288612 2.381947 0.039573 -0.028272 409796.000000 0 0 1
6.169616 -18.679972 -22.426391 29.832005 -1.251797 2.421517 0.043285 -0.027995 -44122.900000 0 0 1
4.974516 -17.812372 -22.813691 29.368196 -1.298462 2.460390 0.043248 -0.024592 -666636.000000 0 0 1
4.304216 -18.285672 -24.000691 30.478275 -1.339617 2.477488 0.046373 -0.026258 75225.000000 0 0 1
3.245816 -17.483772 -24.433791 30.219658 -1.387239 2.512462 0.046064 -0.017681 795633.000000 0 0 1
1.851416 -17.542672 -23.723691 29.563264 -1.465648 2.502223 0.035772 -0.006596 495752.000000 0 0 1
2.103916 -16.909372 -22.470991 28.201042 -1.447009 2.492801 0.038089 -0.008453 -468009.000000 0 0 1
0.997116 -16.232272 -21.941091 27.311030 -1.509445 2.503743 0.025674 -0.007639 -292564.000000 0 0 1
1.373116 -15.344072 -20.795591 25.880159 -1.481546 2.504005 0.021869 -0.007584 58243.000000 0 0 1
2.205716 -14.222272 -21.048391 25.498490 -1.416933 2.541841 0.019048 -0.002703 -44612.900000 0 0 1
2.333616 -13.580172 -19.818091 24.137597 -1.400618 2.534038 0.012593 -0.004891 -694808.000000 0 1 0
3.480916 -12.613872 -19.787491 23.722802 -1.301538 2.557319 0.014461 -0.002679 -749373.000000 0 1 0
4.770816 -13.216572 -19.735591 24.226680 -1.224380 2.522874 0.016727 0.000427 2842.350000 0 1 0
5.817216 -12.288672 -19.714291 23.947959 -1.128670 2.537845 0.025429 -0.003375 -153661.000000 0 1 0
6.060916 -11.351872 -18.465291 22.507036 -1.080388 2.532947 0.029030 -0.001819 -1115670.000000 0 1 0
5.127616 -10.316272 -18.272291 21.600799 -1.109518 2.579062 0.006227 0.005264 -419184.000000 0 1 0
5.207416 -9.181272 -19.133291 21.851676 -1.054860 2.637469 0.014865 -0.000913 -166406.000000 0 1 0
4.635916 -9.194672 -20.579591 23.012025 -1.103798 2.677655 0.019064 -0.001808 15258.000000 0 1 0
3.220816 -9.159472 -20.623291 22.794511 -1.232663 2.701584 0.008460 -0.005077 -161188.000000 0 1 0
2.801516 -9.112572 -21.973391 23.952398 -1.272533 2.732237 0.018539 -0.007964 151984.000000 0 1 0
1.280916 -8.931672 -22.158391 23.925087 -1.428355 2.754889 0.023878 -0.009464 80352.600000 0 1 0
0.894516 -7.625972 -21.729291 23.045991 -1.454031 2.801928 0.021844 -0.013159 28509.500000 0 1 0
-0.498384 -7.393472 -21.885491 23.105985 1.503489 2.815117 0.022329 -0.012326 527128.000000 0 1 0
-0.896784 -6.433072 -23.036991 23.935154 1.432287 2.866777 0.033983 -0.011057 -32516.100000 0 1 0
-0.373184 -6.956972 -24.263991 25.244405 1.517206 2.861983 0.033629 -0.007839 -99693.500000 0 0 1
-0.802284 -6.270372 -25.415981 26.190329 1.443539 2.897818 0.032615 -0.011858 55048.400000 0 0 1
-0.525984 -4.777072 -25.674711 26.120641 1.461132 2.956548 0.043017 -0.011750 -229992.000000 0 0 1
-1.135084 -4.324372 -26.846301 27.216034 1.314102 2.976572 0.034407 -0.008835 -186067.000000 0 0 1
-0.887884 -2.969872 -27.255241 27.430943 1.280291 3.028349 0.027695 -0.003889 -639576.000000 0 0 1
-1.384984 -1.850472 -26.318271 26.419573 0.928289 3.053994 0.038510 -0.013090 -866729.000000 0 0 1
-2.740184 -1.641772 -26.148311 26.342707 0.539792 3.020031 0.028861 -0.016840 -1049480.000000 0 0 1
-3.322484 -0.924072 -27.185931 27.403789 0.271271 3.015414 0.035837 -0.011081 -1104580.000000 0 0 1
-4.839284 -0.995172 -27.118801 27.565167 0.202817 2.961387 0.030799 -0.014148 -842103.000000 0 0 1
-5.395084 -0.103272 -26.222701 26.772143 0.019140 2.938647 0.033710 -0.014108 -387161.000000 0 0 1
-6.784984 -0.298472 -26.185081 27.051498 0.043962 2.887818 0.038706 -0.021026 -943538.000000 0 0 1
-7.606084 0.776728 -25.523951 26.644472 -0.101766 2.850551 0.033873 -0.016845 -960680.000000 0 0 1
-7.947184 1.935028 -26.320911 27.562518 -0.238838 2.840298 0.046352 -0.017133 407094.000000 0 0 1
-8.729384 1.790528 -27.523331 28.929948 -0.202309 2.828477 0.035187 -0.015839 -338133.000000 0 0 1
-10.170984 1.362028 -27.230051 29.099480 -0.133121 2.781197 0.020906 -0.016989 -1208570.000000 0 0 1
-11.150484 1.988828 -28.034281 30.235900 -0.176506 2.757624 0.024316 -0.025603 -500726.000000 0 0 1
-12.379284 1.466728 -27.639551 30.320665 -0.117933 2.717894 -0.003887 -0.019961 -445475.000000 0 0 1
-13.559484 2.279628 -28.247971 31.416623 -0.166563 2.688599 -0.011724 -0.020593 -151029.000000 0 0 1
-14.854584 1.806828 -27.915811 31.673582 -0.121040 2.649528 0.002711 -0.017565 865384.000000 0 0 1
-15.949784 2.443928 -28.600291 32.838164 -0.152044 2.627922 0.015038 -0.012665 607067.000000 0 0 1
-16.274584 3.917828 -28.280971 32.863731 -0.236238 2.607150 -0.001459 -0.005164 -1056490.000000 0 0 1
-15.386384 4.949628 -28.671531 32.913467 -0.311234 2.628272 0.011145 -0.005483 -122695.000000 0 0 1
-15.387684 5.391928 -30.037971 34.177967 -0.337036 2.644284 0.001774 -0.008405 586069.000000 0 0 1
-16.693984 6.087328 -30.603161 35.387825 -0.349659 2.615535 -0.016880 0.006804 626058.000000 0 0 1
-17.117384 7.179728 -29.847921 35.148993 -0.397152 2.585232 -0.011689 0.012616 670959.000000 0 0 1
-18.278584 7.731528 -30.502581 36.390804 -0.400161 2.564761 -0.025227 0.013746 29422.200000 0 0 1
-18.843084 8.913928 -29.760781 36.334887 -0.441865 2.530583 -0.006645 0.008366 -1002250.000000 0 0 1
-18.102984 10.109128 -29.736291 36.251338 -0.509287 2.532699 -0.015327 0.012556 23016.800000 0 0 1
-18.558584 11.035328 -28.806241 35.999986 -0.536455 2.498381 0.009669 0.000184 -402547.000000 0 0 1
-8.162584 24.940328 31.486683 40.988522 -1.254500 0.694798 -0.004686 0.005356 -817012.000000 0 0 1
-9.141384 25.900528 31.252293 41.606587 -1.231503 0.721012 0.004872 0.002510 -374547.000000 0 0 1
-9.013284 27.034628 32.153703 42.964765 -1.248988 0.725189 0.006884 0.003594 894873.000000 0 0 1
-7.724984 27.969528 32.077593 43.254385 -1.301321 0.735339 0.001116 -0.000036 821398.000000 0 0 1
-7.701684 28.789128 30.891043 42.923028 -1.309397 0.767448 0.007462 0.008985 504369.000000 0 0 1
-6.368784 28.805128 30.388433 42.352729 -1.353198 0.770578 0.006759 0.006549 371406.000000 0 0 1
-6.081484 30.022128 29.404233 42.460823 -1.370934 0.805844 0.017799 -0.003805 -337183.000000 0 0 1
-6.127984 31.223328 30.122263 43.815512 -1.376997 0.812784 0.017297 -0.000016 365934.000000 0 0 1
-5.723784 32.404328 29.411133 44.134079 -1.395963 0.841421 0.032619 0.011008 -195245.000000 0 0 1
-6.125784 33.719328 30.113653 45.621819 -1.391086 0.849883 0.027781 0.003296 -497547.000000 0 0 1
-5.660084 33.843328 31.414703 46.521940 -1.405086 0.829471 0.032130 -0.009057 -455555.000000 0 0 1
-6.197884 -34.289097 32.253083 47.480704 1.391973 0.824004 0.030701 -0.012469 780983.000000 0 0 1
-7.501684 34.303228 33.004826 48.190302 -1.355498 0.816350 0.001109 -0.010906 775713.000000 0 0 1
-7.177584 33.336028 34.024951 48.171628 -1.358724 0.786499 0.010314 -0.011149 96962.900000 0 0 1
-7.061784 31.954028 33.617422 46.915453 -1.353294 0.771948 0.019308 -0.003183 -151901.000000 0 0 1
-6.887884 31.040128 -34.120119 46.638128 -1.352432 2.391452 0.021972 -0.005651 -934749.000000 0 0 1
-5.603284 31.003528 -33.623831 46.077951 -1.391996 2.388703 0.016987 -0.004249 -972470.000000 0 0 1
-5.577784 30.363128 -32.390801 44.745896 -1.389119 2.380211 0.021048 -0.002177 -47443.200000 0 0 1
-4.176084 30.346728 -31.685641 44.072025 -1.434043 2.373089 0.015297 0.001124 1102730.000000 0 0 1
-3.261784 29.296528 -31.978081 43.491648 -1.459916 2.396861 0.012882 0.005700 434360.000000 0 0 1
-2.902984 29.105728 -33.357301 44.365304 -1.471386 2.421702 0.020971 -0.000801 -965608.000000 0 0 1
-2.384884 27.700628 -33.681971 43.674794 -1.484913 2.451519 0.017648 -0.002430 180161.000000 0 0 1
-1.098284 27.465328 -33.056621 42.991751 -1.530830 2.447925 0.035630 0.005041 1124300.000000 0 0 1
-0.517184 26.184728 -33.272531 42.343462 -1.551048 2.474748 0.039426 0.005890 192987.000000 0 0 1
-0.097184 25.772628 34.238718 42.854727 -1.567026 0.645252 0.032365 0.011763 -1192120.000000 0 0 1
-1.185384 25.559828 33.407404 42.080453 -1.524453 0.653610 0.028494 0.010939 -653735.000000 0 0 1
-0.940484 25.218328 32.054543 40.796351 -1.533520 0.666936 0.038609 0.010379 -669053.000000 0 0 1
-0.751184 26.479628 31.148813 40.889895 -1.542436 0.704751 0.031481 0.006701 -427425.000000 0 0 1
-1.761684 27.438628 31.107713 41.517124 -1.506680 0.723831 0.005648 -0.001437 -310069.000000 0 0 1
-1.362584 28.526428 30.295893 41.634779 -1.523067 0.755894 0.011688 -0.003238 670152.000000 0 0 1
-2.397284 29.713828 30.363153 42.550906 -1.490292 0.776212 0.017072 -0.004749 446478.000000 0 0 1
-2.113284 30.505128 31.514583 43.911248 -1.501630 0.770320 0.028085 -0.009500 334486.000000 0 0 1
-3.094384 31.525928 31.729383 44.835400 -1.472956 0.784579 0.026845 -0.007076 48619.600000 0 0 1
-2.755784 32.374528 32.970732 46.290102 -1.485879 0.778079 0.034258 0.000835 1198940.000000 0 0 1
-1.459584 32.999528 32.840923 46.579238 -1.526595 0.788296 0.020343 -0.007659 767433.000000 0 0 1
-0.698084 33.104628 34.030814 47.481575 -1.549712 0.771714 0.011129 -0.002367 -282087.000000 0 0 1
0.637916 33.803028 33.786637 47.797369 1.551927 0.785730 0.026262 -0.009403 -347178.000000 0 0 1
0.517016 -33.983297 33.291800 47.575999 -1.555584 0.795734 0.028807 -0.014126 1355960.000000 0 0 1
1.851616 -33.511297 32.967598 47.045701 -1.515599 0.794338 0.016057 -0.019220 1195540.000000 0 0 1
1.891616 -32.044497 32.537733 45.707024 -1.511834 0.778631 0.018707 -0.014373 -346996.000000 0 0 1
1.560116 -31.133597 33.560653 45.804500 -1.520728 0.748525 0.015759 -0.004754 243844.000000 0 0 1
1.728116 -29.773297 33.124380 44.571966 -1.512819 0.733006 0.015351 -0.009539 -35057.900000 0 0 1
1.354816 -28.657397 34.231865 44.664331 -1.523555 0.697539 0.015272 -0.009851 326342.000000 0 0 1
-0.043884 -28.485797 34.379792 44.647650 1.569256 0.691917 0.007285 -0.004364 51475.000000 0 0 1
-0.380784 -28.187197 -33.223261 43.571185 1.557288 2.437973 0.004405 0.007056 58593.700000 0 0 1
-1.903084 -28.058997 -33.001341 43.359169 1.503076 2.435828 -0.004168 0.018113 97392.000000 0 0 1
-2.331484 -27.951597 -31.661771 42.298881 1.487577 2.416631 -0.008286 0.001891 637093.000000 0 0 1
-3.530984 -27.165397 -31.595241 41.817292 1.441540 2.427296 0.011284 0.001741 277780.000000 0 0 1
-3.673484 -26.312997 -30.272901 40.277994 1.432086 2.421279 0.013434 -0.010556 -193421.000000 0 0 1
-4.160984 -27.099297 -29.166771 40.029816 1.418440 2.387110 0.016950 -0.006958 -69763.900000 0 0 1
-4.554284 -26.393997 -28.008431 38.753797 1.399929 2.378537 0.024212 -0.005439 -74913.500000 0 0 1
-3.523384 -25.719397 -27.062861 37.500667 1.434651 2.376999 0.020505 -0.008794 -299380.000000 0 0 1
-2.867084 -24.629397 -27.649131 37.138953 1.454909 2.410549 0.016490 -0.004225 -91027.000000 0 0 1
-1.747684 -24.296197 -26.857451 36.258547 1.498988 2.404939 0.016193 -0.010100 -465309.000000 0 0 1
-0.777584 -23.308997 -27.581961 36.120334 1.537449 2.439687 0.010828 0.000305 475001.000000 0 0 1
0.011116 -23.738497 -28.691471 37.238647 -1.570328 2.450383 -0.008094 -0.006058 531691.000000 0 0 1
0.921416 -24.815897 -28.483021 37.788361 -1.533683 2.424548 0.006952 -0.002992 288367.000000 0 0 1
1.839316 -25.162397 -29.728971 38.991550 -1.497828 2.437882 -0.015459 -0.005482 601117.000000 0 0 1
2.677116 -24.088497 -30.159231 38.691108 -1.460114 2.464643 0.005876 -0.005135 159767.000000 0 0 1
3.401016 -24.398797 -31.316181 39.844339 -1.432296 2.475049 0.017629 -0.005150 -1446030.000000 0 0 1
4.275016 -23.187297 -31.741491 39.540470 -1.388475 2.502705 0.022494 -0.009828 -1047520.000000 0 0 1
5.375116 -22.905897 -30.917281 38.851644 -1.340306 2.491087 0.017956 -0.010192 393575.000000 0 0 1
6.381116 -23.922597 -30.833851 39.544097 -1.310125 2.465036 0.003764 -0.000215 -332167.000000 0 0 1
7.234116 -24.132897 -32.149231 40.844855 -1.279558 2.476899 0.007343 0.008123 -466573.000000 0 0 1
6.579816 -25.082497 -32.993131 41.963941 -1.314250 2.475474 -0.009496 0.004155 156817.000000 0 0 1
6.891116 -24.936497 -34.411914 43.052249 -1.301179 2.496935 -0.001583 0.005606 -145996.000000 0 0 1
6.395916 -23.679097 33.811232 41.770884 -1.306984 0.627590 -0.006768 0.007642 785815.000000 0 0 1
4.964516 -23.580797 33.980183 41.657571 -1.363295 0.616854 -0.004280 0.003064 968681.000000 0 0 1
4.498116 -22.473797 33.252925 40.386404 -1.373257 0.603474 0.008353 -0.000927 -263589.000000 0 0 1
3.109516 -21.909197 33.623819 40.252245 -1.429811 0.582068 0.006973 -0.013029 66964.800000 0 0 1
2.003316 -22.700697 33.252624 40.312181 -1.482775 0.600810 0.016737 -0.001393 -83121.700000 0 0 1
1.412116 -23.406997 34.314323 41.561452 -1.510541 0.599481 0.020028 -0.004455 -7798.180000 0 0 1
0.110816 -24.089497 33.804584 41.509831 -1.566196 0.619144 0.023862 -0.009338 107250.000000 0 0 1
0.293016 -25.210797 32.952878 41.491714 -1.559174 0.653100 0.039598 -0.007780 -36261.300000 0 0 1
-0.952384 -25.574597 32.393093 41.282920 1.533574 0.668647 0.045730 -0.023652 -63021.300000 0 0 1
-0.812084 -26.630297 31.273373 41.083525 1.540311 0.705613 0.042579 -0.027251 67727.200000 0 0 1
-1.987684 -26.941397 30.545933 40.777981 1.497152 0.724125 0.041782 -0.032914 109266.000000 0 0 1
-1.897984 -28.184997 29.903223 41.136348 1.503558 0.756956 0.036689 -0.027555 -190521.000000 0 0 1
-3.159084 -28.440897 29.040093 40.769982 1.460174 0.778039 0.033636 -0.011691 -428770.000000 0 0 1
-4.253584 -28.529597 29.899823 41.545521 1.422793 0.767443 0.035305 -0.010716 -698933.000000 0 0 1
-5.349084 -29.089397 29.229293 41.583137 1.388944 0.791313 0.027594 -0.001156 -917815.000000 0 0 1
-6.552984 -29.378697 30.096963 42.566144 1.351337 0.785459 0.018287 0.002492 -724731.000000 0 0 1
-7.541484 -30.094397 29.372903 42.723695 1.325258 0.812744 0.028012 0.002695 672192.000000 0 0 1
-8.764984 -30.301797 30.097083 43.598833 1.289225 0.808867 0.019617 0.001899 476950.000000 0 0 1
-8.799384 -31.475397 31.145683 45.146244 1.298192 0.809467 0.001123 0.007176 -453130.000000 0 0 1
-8.879284 -32.805397 30.715413 45.809086 1.306464 0.835901 0.006291 0.009308 985584.000000 0 0 1
-10.186384 -33.146697 30.218963 45.996213 1.272645 0.853980 0.002942 0.011977 579368.000000 0 0 1
-10.153284 -34.543997 29.751833 46.707049 1.284924 0.880212 0.010665 0.016553 -409746.000000 0 0 1
-10.152784 33.568228 30.738103 46.634064 -1.277091 0.851130 0.005742 0.014597 261172.000000 0 0 1
-9.898984 32.329328 30.083983 45.257279 -1.273668 0.843661 0.006236 0.009500 -133811.000000 0 0 1
-10.209084 31.104528 30.905273 45.020583 -1.253656 0.814173 0.010124 0.015477 -475750.000000 0 0 1
-11.567184 30.932328 31.166193 45.408592 -1.212945 0.814338 -0.002454 0.024367 -631956.000000 0 0 1
-11.965384 29.709928 31.727813 45.083304 -1.187930 0.790121 0.003696 0.018144 54959.700000 0 0 1
-11.978484 29.648728 33.295923 46.164376 -1.186835 0.765195 0.004407 0.005790 241917.000000 0 0 1
-13.103984 30.402528 33.757132 47.281836 -1.163841 0.775665 -0.001365 0.017037 531676.000000 0 0 1
-13.333084 30.278828 -33.816661 47.309038 -1.156002 2.367139 -0.001737 0.011861 -64072.500000 0 0 1
-14.781784 30.318528 -33.290321 47.391558 -1.117159 2.349634 -0.004934 0.017258 -55628.000000 0 0 1
-14.784084 29.918428 -31.928911 46.185894 -1.111843 2.334101 -0.010329 0.014180 -124795.000000 0 0 1
-16.030184 30.234128 -31.353021 46.412080 -1.083280 2.312487 -0.002616 0.008970 -66350.300000 0 0 1
-16.154384 29.834328 -29.850021 45.189324 -1.074526 2.292354 0.005606 0.000192 -394020.000000 0 0 1
-16.243584 28.460328 -29.691071 44.219950 -1.052166 2.306947 -0.000231 0.000514 145070.000000 0 0 1
-16.118684 28.108228 -28.338091 43.045695 -1.050127 2.289389 0.004045 -0.006188 -163488.000000 0 0 1
-16.641484 26.674428 -28.063571 42.142948 -1.013007 2.299514 -0.013577 -0.004438 -15485.900000 0 0 1
-18.025084 26.511328 -28.271651 42.743893 -0.973687 2.293506 -0.011218 -0.002436 -302351.000000 0 0 1
-18.419184 25.193528 -28.039891 41.954924 -0.939496 2.302763 -0.013967 0.002498 59633.200000 0 0 1
-19.934684 24.968628 -28.257841 42.653600 -0.897038 2.294942 0.013946 0.004618 -81371.600000 0 0 1
-20.779984 25.524728 -27.280161 42.749581 -0.887510 2.262875 0.010127 -0.000308 -274024.000000 0 0 1
-22.083984 25.068728 -27.542401 43.298121 -0.848613 2.260244 0.034081 -0.004827 50826.900000 0 0 1
-23.113584 25.347428 -26.417411 43.296760 -0.831461 2.227043 0.056197 -0.007317 18440.000000 0 0 1
-23.672184 26.671028 -26.420481 44.381954 -0.844896 2.208433 0.036383 0.008354 1425020.000000 0 0 1
-24.940684 26.808128 -25.690711 44.729476 -0.821469 2.182615 0.032436 0.017576 1510550.000000 0 0 1
-24.928684 26.550628 -24.170391 43.710215 -0.816894 2.156720 0.028504 0.016378 -767798.000000 0 0 1
-24.861084 25.124028 -23.862891 42.646545 -0.790659 2.164640 0.020135 0.013452 -264317.000000 0 0 1
-26.104964 24.536428 -23.538591 42.866895 -0.754435 2.152094 0.015904 0.011490 -404936.000000 0 0 1
-26.706194 24.836628 -22.144091 42.666610 -0.749142 2.116480 0.019030 0.009980 -296476.000000 0 0 1
-26.143294 24.233628 -20.961991 41.353907 -0.747509 2.102372 0.004818 0.011242 -546913.000000 0 0 1
-24.917684 24.812528 -20.658091 40.783688 -0.783284 2.101950 0.007403 0.007293 -455443.000000 0 0 1
-24.001384 23.984728 -19.672591 39.221734 -0.785051 2.096213 0.012195 0.002622 303498.000000 0 0 1
-24.525184 23.900728 -18.360591 38.856669 -0.772504 2.062945 0.006169 -0.006400 7128.070000 0 0 1
-23.451084 23.812028 -17.457191 37.705696 -0.793035 2.052157 0.016453 -0.009194 -153794.000000 0 0 1
-23.841584 23.980328 -15.964691 37.394500 -0.788299 2.011887 0.004500 -0.008543 -126631.000000 0 0 1
-24.350884 25.249428 -15.699391 38.431368 -0.803512 1.991611 0.017545 -0.010996 -34945.200000 0 0 1
-24.809084 25.432128 -14.326891 38.308531 -0.797799 1.954101 -0.020570 -0.002604 195682.000000 0 0 1
-24.820584 26.975428 -13.985191 39.234177 -0.826977 1.935266 -0.013948 0.004421 -584306.000000 0 0 1
-23.647084 27.530228 -13.510591 38.725109 -0.861129 1.927177 0.024562 -0.000960 -956502.000000 0 0 1
-23.729784 27.971928 -12.160491 38.644649 -0.867265 1.890910 0.026311 -0.008107 -161580.000000 0 0 1
-22.421684 28.588628 -11.621291 38.145720 -0.905710 1.880373 0.036772 -0.007601 -106850.000000 0 0 1
-21.464084 27.590128 -11.406791 36.770055 -0.909638 1.886220 0.031619 -0.000800 64652.400000 0 0 1
-20.276684 28.070428 -10.790891 36.270321 -0.945227 1.872883 0.037251 0.005646 632775.000000 0 0 1
-19.338184 26.933128 -10.250291 34.704858 -0.948087 1.870625 0.038672 0.010590 241847.000000 0 0 1
-18.826384 26.130728 -11.306991 34.133498 -0.946464 1.908433 0.036916 0.001686 -59988.500000 0 0 1
-18.160784 25.038528 -10.738991 32.742448 -0.943283 1.904965 0.032200 0.015325 -394853.000000 0 0 1
-17.577984 23.981928 -11.678591 31.945389 -0.938285 1.945052 0.024562 0.012798 -180564.000000 0 0 1
-16.957584 22.965128 -10.987791 30.589023 -0.934757 1.938214 0.017311 0.011011 -81581.600000 0 0 1
-16.384684 22.017328 -11.878791 29.905288 -0.931035 1.979275 0.022760 0.016112 -29211.600000 0 0 1
-16.286484 20.611928 -11.245091 28.575395 -0.902091 1.975258 0.027808 0.021166 -531699.000000 0 0 1
-17.549484 20.049328 -11.078591 28.856457 -0.851788 1.964835 0.014305 0.032565 -604461.000000 0 0 1
-17.349584 18.833628 -10.430791 27.649864 -0.826390 1.957617 0.027802 0.022194 -911406.000000 0 0 1
-18.543584 17.869628 -10.357291 27.757190 -0.766892 1.953186 0.013482 0.032804 -30038.000000 0 0 1
-19.072584 17.348028 -11.581191 28.263785 -0.738082 1.992980 0.004922 0.035912 178459.000000 0 0 1
-19.742384 18.325028 -12.373791 29.642521 -0.748183 2.001416 -0.002980 0.033472 -584466.000000 0 0 1
-20.357884 17.772028 -13.719591 30.307022 -0.717685 2.040573 0.009334 0.021373 469855.000000 0 0 1
-19.466584 17.505628 -14.806491 30.077019 -0.732409 2.085510 0.020134 0.017147 134136.000000 0 0 1
-20.251384 17.160628 -15.909891 30.947219 -0.702971 2.110752 0.034560 0.009847 66718.900000 0 0 1
-19.412784 16.780128 -17.144791 30.860537 -0.712786 2.159829 0.036216 0.002527 -434256.000000 0 0 1
-18.686784 17.825428 -17.708991 31.313737 -0.761812 2.171877 0.019864 -0.001973 675.496000 0 0 1
-17.961784 17.384428 -18.852591 31.309171 -0.769065 2.216979 0.019814 0.000341 -820484.000000 0 0 1
-17.110584 18.477028 -19.375691 31.774047 -0.823776 2.226600 0.018635 -0.006199 -416345.000000 0 0 1
-15.997584 18.801228 -18.527791 30.865643 -0.865792 2.214638 0.026992 -0.000181 248439.000000 0 0 1
-15.405984 19.941528 -19.019591 31.571407 -0.913014 2.217340 0.022831 -0.004277 -274959.000000 0 0 1
32.291552 31.436128 1.861609 45.104767 0.771976 1.529512 0.027726 -0.006618 466265.000000 0 0 1
33.439672 31.211328 1.046409 45.754274 0.750945 1.547924 0.034252 -0.006171 205604.000000 0 0 1
33.543712 32.252028 0.132209 46.533766 0.765769 1.567955 0.020602 -0.000436 -287955.000000 0 0 1
34.853941 32.194928 -0.674891 47.452777 0.745761 1.585019 0.004449 -0.002634 533433.000000 0 0 1
-34.778344 32.661028 0.064609 47.710378 -0.754013 1.569442 -0.012580 0.003114 -89497.500000 0 0 1
-33.618964 32.339228 -0.626991 46.652476 -0.765998 1.584236 0.001936 0.000668 -724201.000000 0 0 1
-32.474054 33.297528 -0.235191 46.511771 -0.797918 1.575853 0.002206 0.005509 -218143.000000 0 0 1
-32.102704 33.127428 1.105509 46.143604 -0.801106 1.546836 0.000008 0.001755 -286907.000000 0 0 1
-31.498504 34.268228 1.612309 46.573241 -0.827488 1.536171 0.003711 0.004583 -239108.000000 0 0 1
-30.767914 34.056628 2.946909 45.991333 -0.836087 1.506677 0.017322 0.008715 -210854.000000 0 0 1
-30.208334 -33.845897 3.380709 45.491948 0.842126 1.496413 0.023214 0.011349 -246163.000000 0 0 1
-29.697824 -33.985897 4.643709 45.371422 0.852631 1.468268 0.020289 0.005677 -702903.000000 0 0 1
-29.699964 -32.641397 5.380009 44.457768 0.832546 1.449485 0.016697 0.006609 -754822.000000 0 0 1
-30.857024 -32.139597 5.937409 44.948442 0.805755 1.438315 0.015234 0.000363 -778868.000000 0 0 1
-31.258544 -32.948697 7.100809 45.968845 0.811715 1.415705 0.016440 -0.005706 -458353.000000 0 0 1
-32.208624 -32.363197 8.251309 46.398880 0.787792 1.392011 0.026542 -0.002137 1403650.000000 0 0 1
-33.587324 -32.145297 7.991309 47.172974 0.763464 1.400571 0.023616 0.003276 518521.000000 0 0 1
-34.350189 -33.196697 7.406409 48.340574 0.768323 1.416977 0.018245 0.000160 102284.000000 0 0 1
34.884776 -32.918997 7.373609 48.528116 -0.756414 1.418260 0.012124 0.005843 866239.000000 0 0 1
34.156922 -32.909197 8.597209 48.203968 -0.766796 1.391486 0.011327 0.005281 288357.000000 0 0 1
32.774502 -32.854697 8.291709 47.141823 -0.786620 1.393988 0.004531 0.009276 176298.000000 0 0 1
31.969502 -32.879497 9.639009 46.861721 -0.799430 1.363627 0.017768 -0.005594 420733.000000 0 0 1
30.549922 -32.896497 9.488909 45.885909 -0.822366 1.362500 0.021923 -0.012400 646408.000000 0 0 1
29.745992 -32.769597 10.626209 45.514688 -0.833726 1.335154 0.028368 -0.006127 -18385.700000 0 0 1
29.782512 -31.440697 11.434009 44.791204 -0.812476 1.312666 0.031239 -0.004217 -562009.000000 0 0 1
29.195792 -30.263097 10.866609 43.431929 -0.803347 1.317911 0.040854 -0.009055 584335.000000 0 0 1
29.842022 -29.756597 9.679509 43.239961 -0.783965 1.345028 0.042293 -0.012837 15737.700000 0 0 1
29.164302 -28.451497 9.262309 41.783185 -0.773027 1.347264 0.038807 -0.012963 -254477.000000 0 0 1
29.698462 -27.864097 8.074409 41.516293 -0.753542 1.375061 0.038325 -0.016003 -57694.300000 0 0 1
29.045452 -26.677697 7.714109 40.185137 -0.742932 1.377633 0.035173 -0.014431 -99572.500000 0 0 1
29.350112 -26.209497 6.250609 39.842652 -0.728931 1.413263 0.025953 -0.005561 1266240.000000 0 0 1
30.691662 -25.700097 6.086609 40.490985 -0.697112 1.419904 0.033442 -0.000827 553044.000000 0 0 1
30.738262 -25.021197 4.817809 39.926336 -0.683224 1.449834 0.023565 -0.001607 -684739.000000 0 0 1
32.089212 -24.532397 4.335909 40.624575 -0.652721 1.463861 0.031144 -0.003572 -747751.000000 0 0 1
32.776192 -25.662697 3.909709 41.810747 -0.664269 1.477150 0.030434 0.008658 -1362820.000000 0 0 1
34.130542 -25.455297 3.717709 42.739764 -0.640822 1.483701 0.028644 -0.000025 -896099.000000 0 0 1
34.918193 -26.740997 3.755309 44.141403 -0.653548 1.485619 0.024979 -0.001390 -242707.000000 0 0 1
34.971301 -27.208697 5.110509 44.602941 -0.661200 1.455966 0.012581 0.005432 -543087.000000 0 0 1
-35.111029 -28.410397 5.120309 45.454951 0.680301 1.457911 0.017107 0.003907 -1093070.000000 0 0 1
35.149990 -29.466797 6.160109 46.279162 -0.697672 1.437292 0.013134 0.002926 446518.000000 0 0 1
33.840942 -29.985497 6.017809 45.613084 -0.725066 1.438479 0.003852 0.006581 65749.800000 0 0 1
32.788742 -29.067697 6.099309 44.240639 -0.725314 1.432489 0.011743 0.008435 -1364880.000000 0 0 1
31.426772 -29.576997 5.647409 43.523947 -0.755085 1.440675 0.017414 0.001755 -938940.000000 0 0 1
31.268472 -29.658397 4.246609 43.305560 -0.758978 1.472577 0.012136 -0.002890 826840.000000 0 0 1
30.007902 -29.204797 3.707809 42.037390 -0.771836 1.482479 0.011365 -0.004061 1184870.000000 0 0 1
28.724792 -30.055597 4.023209 41.768873 -0.808035 1.474326 0.012911 -0.009563 276141.000000 0 0 1
28.666412 -31.322597 3.402309 42.596290 -0.829647 1.490838 0.017644 -0.008016 -460285.000000 0 0 1
27.393942 -31.891097 3.624609 42.197250 -0.861110 1.484794 0.023868 -0.011782 -19014.000000 0 0 1
27.214442 -33.314397 2.982909 43.120443 -0.885837 1.501565 0.023841 -0.012405 -347260.000000 0 0 1
27.200892 -33.321897 1.587709 43.043677 -0.886191 1.533902 0.017377 -0.008701 181551.000000 0 0 1
27.026812 34.481528 1.151209 43.826357 0.906008 1.544526 0.017027 0.000589 -99158.000000 0 0 1
26.697692 34.432128 -0.344691 43.571286 0.911254 1.578707 0.002387 -0.004170 373349.000000 0 0 1
27.872692 -34.329697 -1.074191 44.233120 -0.888834 1.595083 0.007698 -0.007615 555830.000000 0 0 1
27.624712 -34.515897 -2.439391 44.276658 -0.895844 1.625919 0.007425 -0.004708 -118501.000000 0 0 1
28.751332 -34.105197 -3.424391 44.738462 -0.870369 1.647414 0.001922 -0.004618 97760.700000 0 0 1
28.690362 -32.695397 -3.650091 43.651449 -0.850550 1.654513 -0.000990 -0.007344 1417270.000000 0 0 1
29.925682 -32.166897 -4.243391 44.139122 -0.821477 1.667082 0.009774 -0.016239 1261400.000000 0 0 1
30.033292 -30.613297 -4.177991 43.088608 -0.794962 1.667912 0.014773 -0.002520 56990.300000 0 0 1
28.912402 -29.963297 -4.785791 41.912169 -0.803246 1.685232 0.012608 -0.013518 409194.000000 0 0 1
29.080722 -28.567097 -5.008991 41.071370 -0.776489 1.693059 0.022782 -0.006850 -68096.000000 0 0 1
30.024942 -28.073497 -6.145891 41.561886 -0.751822 1.719214 0.026754 -0.010724 -678066.000000 0 0 1
31.351402 -27.955397 -5.640091 42.381898 -0.728199 1.704270 0.022692 -0.006796 232238.000000 0 0 1
32.323432 -27.495597 -6.564091 42.940650 -0.704865 1.724262 0.019070 -0.009278 296876.000000 0 0 1
32.520972 -28.386897 -7.788491 43.864452 -0.717628 1.749301 0.024865 -0.009728 -1109430.000000 0 0 1
31.431412 -28.282697 -8.716191 43.171942 -0.732717 1.774089 0.031868 -0.017087 166269.000000 0 0 1
31.268272 -29.219797 -9.749591 43.892549 -0.751545 1.794789 0.023135 -0.006825 141502.000000 0 0 1
31.049592 -30.682797 -9.340191 44.640232 -0.779457 1.781586 0.020161 -0.003420 18884.600000 0 0 1
32.240382 -31.238597 -8.803291 45.747023 -0.769618 1.764438 0.016148 -0.003580 -394551.000000 0 0 1
32.077792 -32.506797 -8.148091 46.390387 -0.792041 1.747354 0.008388 -0.012238 -412583.000000 0 0 1
33.343972 -33.020397 -7.484891 47.520424 -0.780522 1.728964 0.010874 -0.006991 -261035.000000 0 0 1
33.257842 -34.328497 -6.921291 48.295279 -0.801238 1.714603 0.004460 -0.008145 -231421.000000 0 0 1
32.655982 -34.354997 -5.640391 47.733562 -0.810747 1.689237 0.010413 -0.011207 -190020.000000 0 0 1
32.705952 33.421228 -4.913891 47.019189 0.796214 1.675496 -0.007400 -0.006623 9479.620000 0 0 1
31.649212 32.593128 -5.397591 45.750613 0.800090 1.689050 -0.004844 -0.012132 548209.000000 0 0 1
31.895562 31.228328 -5.119291 44.930418 0.774828 1.684983 -0.011445 0.000043 283701.000000 0 0 1
30.653292 30.430428 -5.591491 43.553416 0.781750 1.699534 -0.000244 -0.005843 122965.000000 0 0 1
30.428802 30.399628 -6.965191 43.572506 0.784919 1.731338 -0.017872 0.001749 178671.000000 0 0 1
29.151182 29.879228 -7.305491 42.378413 0.797731 1.744049 -0.020362 0.005557 185405.000000 0 0 1
28.910742 29.359128 -8.724191 42.117703 0.793093 1.779445 -0.020019 0.009574 -95612.100000 0 0 1
29.719872 28.214028 -9.045391 41.965715 0.759412 1.788044 -0.005630 0.010219 288279.000000 0 0 1
29.867272 28.062428 -10.455891 42.295147 0.754252 1.820599 -0.018396 0.011247 328916.000000 0 0 1
30.950652 28.967228 -11.154391 43.834502 0.752308 1.828092 0.002536 0.006858 29353.100000 0 0 1
32.260832 28.500528 -10.850191 44.393333 0.723591 1.817708 -0.001742 0.002620 932077.000000 0 0 1
33.311862 29.409828 -11.260691 45.841262 0.723266 1.818982 0.010665 0.001546 651825.000000 0 0 1
33.510992 30.662528 -10.375791 46.592212 0.741040 1.795373 0.023821 -0.003157 -793551.000000 0 0 1
34.282632 30.456728 -9.191691 46.769630 0.726370 1.768615 -0.000106 0.002371 404684.000000 0 0 1
34.175482 31.635728 -8.368191 47.316059 0.746826 1.748589 0.005488 -0.002238 -1123650.000000 0 0 1
35.224338 31.735128 -7.265391 47.965177 0.733336 1.722854 0.013515 0.002211 4376.640000 0 0 1
-34.250262 31.994328 -7.756191 47.506589 -0.751357 1.734796 0.017065 -0.000972 134265.000000 0 0 1
-33.470434 30.853128 -8.074391 46.231821 -0.744731 1.746347 0.018787 0.000296 -864877.000000 0 0 1
-32.045354 31.119728 -8.544091 45.479046 -0.770745 1.759788 0.033640 -0.002273 -838320.000000 0 0 1
-31.202574 31.608228 -7.516891 45.046469 -0.791856 1.738450 0.032283 -0.004163 -331744.000000 0 0 1
-29.882164 31.873928 -7.874191 44.394751 -0.817639 1.749107 0.026703 -0.013585 -457053.000000 0 0 1
-29.616774 33.046428 -8.860891 45.251907 -0.840075 1.767882 0.019532 -0.013302 -920516.000000 0 0 1
-29.625734 34.383128 -8.458891 46.167482 -0.859586 1.755059 0.026156 -0.007478 50345.000000 0 0 1
-28.632034 -34.383597 -7.503991 45.368877 0.876418 1.736959 0.033561 -0.009526 100412.000000 0 0 1
-28.870984 -33.004697 -6.778591 44.371083 0.852106 1.724167 0.036883 -0.005114 105861.000000 0 0 1
-29.908494 -33.005297 -5.808591 44.917784 0.834581 1.700476 0.034651 -0.002976 81615.900000 0 0 1
-29.591994 -33.616397 -4.558291 45.016955 0.848981 1.672227 0.030267 -0.003938 111691.000000 0 0 1
-30.801764 -33.509397 -3.597091 45.657063 0.827475 1.649663 0.025311 -0.000978 -47189.600000 0 0 1
-30.967154 -32.225497 -3.061391 44.797538 0.805308 1.639188 0.031265 0.005445 558115.000000 0 0 1
-31.936284 -32.175397 -1.984891 45.377552 0.789128 1.614552 0.022162 0.005393 461270.000000 0 0 1
-32.636824 -30.814497 -1.764991 44.920048 0.756686 1.610098 0.027690 0.004796 -420206.000000 0 0 1
-33.612754 -30.989797 -0.782191 45.725229 0.744819 1.587903 0.023458 0.008534 -509992.000000 0 0 1
-34.394375 -29.819997 -0.665691 45.526348 0.714282 1.585419 0.036059 0.004954 20747.700000 0 0 1
-35.206123 -29.687697 0.645509 46.056999 0.700564 1.556780 0.026186 0.006041 -92518.700000 0 0 1
34.278672 -30.256697 0.564809 45.725420 -0.723157 1.558444 0.009241 0.003552 131696.000000 0 0 1
33.426192 -29.884597 1.663009 44.868308 -0.729517 1.533724 0.013101 0.005737 383847.000000 0 0 1
32.543342 -28.657197 1.395309 43.384916 -0.721985 1.538630 0.007953 0.008575 -508518.000000 0 0 1
31.526402 -28.869597 0.408509 42.749673 -0.741437 1.561240 0.006786 0.008436 592850.000000 0 0 1
30.822912 -27.642797 0.069609 41.402669 -0.731059 1.569115 0.012168 0.004435 9589.050000 0 0 1
29.511922 -27.947097 -0.682591 40.650457 -0.758171 1.587589 0.006335 0.000933 -473648.000000 0 0 1
28.611092 -28.570197 0.190709 40.433737 -0.784683 1.566080 0.007031 0.009785 -454698.000000 0 0 1
28.418902 -29.992397 0.199309 41.318490 -0.812330 1.565973 0.007954 0.010320 -127595.000000 0 0 1
27.689672 -30.610097 -1.032091 41.288754 -0.835450 1.595796 0.004895 0.003251 -328326.000000 0 0 1
26.383582 -30.136797 -1.251091 40.073497 -0.851705 1.602021 0.008026 0.003606 -343825.000000 0 0 1
25.984772 -30.520197 -2.557491 40.165054 -0.865492 1.634514 0.006391 -0.001553 421374.000000 0 0 1
24.447992 -30.737497 -2.614391 39.361568 -0.898879 1.637265 -0.009855 -0.002650 532785.000000 0 0 1
23.646092 -29.656497 -3.079291 38.054270 -0.897684 1.651803 0.008397 -0.000883 55299.100000 0 0 1
22.422392 -30.114297 -3.606391 37.717908 -0.930775 1.666557 0.008348 0.000001 104229.000000 0 0 1
21.306192 -29.053097 -3.745391 36.222427 -0.938034 1.674381 0.009314 -0.001156 -66055.800000 0 0 1
21.528292 -28.158397 -4.767491 35.764391 -0.918053 1.704497 0.013777 -0.006663 -1040.400000 0 0 1
20.966892 -26.866997 -4.536491 34.380602 -0.908124 1.703131 0.022258 -0.012532 -501895.000000 0 0 1
20.484892 -26.234297 -5.835791 33.792389 -0.907846 1.744362 0.032441 -0.029666 -470401.000000 0 0 1
19.153392 -26.552997 -6.127991 33.308653 -0.945900 1.755826 0.037509 -0.024538 -802719.000000 0 0 1
18.723892 -26.072897 -7.351291 32.930557 -0.948002 1.795929 0.049749 -0.024473 -1214990.000000 0 0 1
17.244892 -26.227997 -7.528191 32.279526 -0.989167 1.806183 0.044324 -0.017728 -1225920.000000 0 0 1
16.551492 -25.415997 -6.616991 31.043668 -0.993562 1.785595 0.035205 -0.016125 -1304610.000000 0 0 1
15.198492 -25.416197 -6.914091 30.410226 -1.031860 1.800163 0.035097 -0.010256 -948673.000000 0 0 1
14.563492 -24.514797 -5.855591 29.109423 -1.034749 1.773336 0.023010 -0.001949 -442325.000000 0 0 1
14.501792 -25.066497 -4.532791 29.311728 -1.046311 1.726060 0.015660 0.001695 -11741.100000 0 0 1
13.864392 -24.229797 -3.613091 28.148869 -1.051066 1.699508 0.011595 0.001436 -336343.000000 0 0 1
13.956092 -24.724097 -2.145491 28.472032 -1.056909 1.646222 0.029549 0.001001 -66377.700000 0 0 1
13.240792 -25.896797 -1.812591 29.141862 -1.098157 1.633035 0.028793 0.013832 315618.000000 0 0 1
14.113092 -27.016797 -1.679791 30.527174 -1.089404 1.625850 0.035517 0.007202 -148832.000000 0 0 1
13.431992 -28.321597 -2.018091 31.410252 -1.127946 1.635090 0.033563 0.009535 -277212.000000 0 0 1
12.472592 -28.759297 -1.093091 31.366504 -1.161589 1.605652 0.053904 0.000567 -69234.700000 0 0 1
11.828192 -29.986797 -1.476991 32.269112 -1.195086 1.616583 0.052981 -0.001346 202784.000000 0 0 1
12.577792 -31.304097 -1.168791 33.756679 -1.188745 1.605427 0.048479 -0.001981 521324.000000 0 0 1
13.793092 -31.580497 -1.877791 34.512364 -1.159007 1.625232 0.047419 0.003459 289517.000000 0 0 1
14.261892 -32.907997 -1.561691 35.899536 -1.161843 1.614312 0.042854 0.001772 -195759.000000 0 0 1
15.688992 -33.109997 -2.125691 36.700612 -1.128291 1.628749 0.025884 0.003313 303279.000000 0 0 1
16.584792 -32.215997 -1.452791 36.263430 -1.095379 1.610869 0.023846 0.013534 -501485.000000 0 0 1
17.823092 -32.115997 -2.060191 36.787827 -1.064153 1.626828 0.002873 0.009284 -924799.000000 0 0 1
18.725292 -30.979797 -1.518091 36.231050 -1.027122 1.612709 0.010072 0.004475 -218584.000000 0 0 1
18.275892 -29.700597 -1.787591 34.918894 -1.019175 1.622011 0.014316 -0.003090 -199268.000000 0 0 1
18.758992 -28.785597 -0.846491 34.368982 -0.993241 1.595428 0.015487 0.001109 -217934.000000 0 0 1
18.295192 -27.308897 -1.028991 32.886908 -0.980534 1.602090 0.024559 0.003652 21136.700000 0 0 1
18.705392 -26.762797 -2.310291 32.733415 -0.960787 1.641434 0.019237 -0.001797 -115834.000000 0 0 1
17.667692 -26.855997 -3.231491 32.308427 -0.988910 1.670984 0.021139 -0.001018 -750689.000000 0 0 1
31.988562 -29.906697 13.898109 45.943836 -0.751776 1.263480 0.025817 -0.005352 -10212.800000 0 0 1
32.541072 -30.445797 15.080809 47.045709 -0.752145 1.244479 0.021819 -0.003065 58013.100000 0 0 1
31.722102 -30.315197 16.215709 46.778757 -0.762724 1.216802 0.031787 -0.006273 53712.200000 0 0 1
32.448902 -30.953897 17.403409 48.103572 -0.761823 1.200609 0.012381 -0.001028 -372833.000000 0 0 1
31.558122 -31.343297 18.393409 48.131433 -0.781983 1.178675 -0.004647 -0.000444 182188.000000 0 0 1
32.235182 -31.603497 19.665709 49.240513 -0.775503 1.159955 -0.006138 -0.001042 294850.000000 0 0 1
32.919622 -33.013297 19.795309 50.650109 -0.786819 1.169269 0.000460 -0.001743 678983.000000 0 0 1
34.051192 -33.177297 18.896009 51.159318 -0.772400 1.192480 0.005556 0.001326 749514.000000 0 0 1
34.659482 -34.436797 19.084109 52.453559 -0.782175 1.198421 0.018917 -0.008595 -688138.000000 0 0 1
-34.961317 34.475028 18.123109 52.338020 -0.778395 1.217204 0.019226 -0.001436 -122409.000000 0 0 1
-33.898554 -33.708397 18.414909 51.229648 0.782585 1.203109 0.023370 -0.000290 453133.000000 0 0 1
-32.970564 -33.728097 17.333009 50.250132 0.796755 1.218627 0.030149 0.001209 645424.000000 0 0 1
-31.587474 -33.061797 17.747109 49.049065 0.808199 1.200573 0.013039 -0.004988 1341630.000000 0 0 1
-30.569554 -33.076997 16.739509 48.049938 0.824774 1.214957 0.021548 -0.008191 207726.000000 0 0 1
-30.775604 -32.097497 15.768409 47.180821 0.806420 1.230027 0.024477 -0.002266 -1405800.000000 0 0 1
-29.706534 -31.889097 14.711209 45.997960 0.820817 1.245254 0.017671 -0.001810 177572.000000 0 0 1
-28.548084 -31.306997 15.351909 45.064423 0.831459 1.223171 0.006079 -0.003517 5637.120000 0 0 1
-27.513634 -31.218897 14.416709 44.039313 0.848402 1.237288 0.004244 0.000298 -649361.000000 0 0 1
-26.267474 -30.502097 14.889309 42.919106 0.859853 1.216516 0.018575 -0.002293 345733.000000 0 0 1
-25.206034 -30.539697 13.920309 41.973709 0.880786 1.232751 0.015516 -0.000337 -129429.000000 0 0 1
-24.005084 -30.044497 14.426609 41.073628 0.896675 1.211904 0.013124 -0.002242 -503104.000000 0 0 1
-22.783184 -30.105497 13.519109 40.102129 0.922971 1.226943 0.015679 -0.007429 -51610.700000 0 0 1
-22.140884 -31.382797 13.473909 40.701903 0.956382 1.233392 0.014281 0.001550 383648.000000 0 0 1
-20.926384 -31.242497 12.742509 39.703636 0.980624 1.244074 0.018551 -0.008820 729970.000000 0 0 1
-20.217484 -32.663997 12.474509 40.389314 1.016557 1.256806 0.017488 -0.007482 158625.000000 0 0 1
-20.908184 -33.411097 11.506209 41.059060 1.011632 1.286757 0.010722 -0.007221 -84454.300000 0 0 1
-20.718384 34.321428 11.596009 41.733431 -1.027692 1.289232 0.010400 -0.000753 262588.000000 0 0 1
-21.764384 33.557928 10.721509 41.409826 -0.995433 1.308900 -0.004656 0.004442 -64131.800000 0 0 1
-21.650184 33.852828 9.315109 41.249432 -1.001811 1.343008 -0.002647 0.007756 -23760.400000 0 0 1
-22.721084 33.444128 8.477609 41.311345 -0.974048 1.364115 -0.002402 0.003394 -190676.000000 0 0 1
-22.499284 33.750728 6.997209 41.161758 -0.982818 1.399974 0.001444 0.012093 -938367.000000 0 0 1
-21.835084 32.830628 6.141309 39.904094 -0.983891 1.416280 0.003838 0.003575 438202.000000 0 0 1
-20.408284 32.802528 6.140409 39.117880 -1.014245 1.413173 -0.000071 0.005534 452203.000000 0 0 1
-19.746084 34.152028 5.662009 39.853823 -1.046574 1.428245 -0.003251 0.005911 -905763.000000 0 0 1
-19.799484 -33.753197 6.430809 39.656691 1.040291 1.407915 -0.001771 0.003672 -42468.100000 0 0 1
-19.036184 -33.919097 7.616209 39.634430 1.059377 1.377432 -0.000455 0.002245 -256749.000000 0 0 1
-19.105584 -32.818697 8.702809 38.959326 1.043601 1.345514 -0.001298 -0.008206 -347322.000000 0 0 1
-18.615484 -31.599597 8.203909 37.581576 1.038426 1.350728 0.015955 -0.017987 -213324.000000 0 0 1
-18.620384 -30.480097 9.069709 36.851250 1.022398 1.322125 0.024932 -0.018887 198017.000000 0 0 1
-17.843584 -30.586397 10.411109 36.909516 1.042685 1.284844 0.017317 -0.014362 1395130.000000 0 0 1
-16.480684 -31.097097 10.393209 36.696882 1.083457 1.283649 0.021105 -0.020432 1001020.000000 0 0 1
-15.862284 -30.878997 11.633509 36.612334 1.096255 1.247443 0.041583 -0.019006 109843.000000 0 0 1
-14.417484 -31.400097 11.753809 36.496328 1.140356 1.242897 0.043830 -0.015957 246154.000000 0 0 1
-13.402784 -30.577597 11.211809 35.218301 1.157698 1.246806 0.031353 -0.013903 108408.000000 0 0 1
-12.514484 -31.389497 10.406809 35.358372 1.191425 1.272048 0.039080 -0.004280 483046.000000 0 0 1
-11.386584 -30.585697 9.721609 34.053617 1.214408 1.281290 0.041644 0.000294 -286193.000000 0 0 1
-10.438284 -30.068097 10.598109 33.546507 1.236658 1.249367 0.036245 -0.003397 -735171.000000 0 0 1
-9.456684 -29.433897 9.785609 32.427477 1.259928 1.264249 0.037640 0.000924 107048.000000 0 0 1
-8.389884 -28.822297 10.714509 31.873432 1.287534 1.227962 0.026374 0.004849 396923.000000 0 0 1
-9.030484 -27.824497 11.583009 31.462968 1.256970 1.193781 0.025343 -0.008240 298825.000000 0 0 1
-8.407684 -27.772697 12.841909 31.732105 1.276835 1.154148 0.027138 -0.004650 -517991.000000 0 0 1
-8.723884 -26.419097 13.565909 30.953331 1.251858 1.117124 0.020838 -0.005217 95873.000000 0 0 1
-8.445984 -25.187797 12.945409 29.552383 1.247258 1.117368 0.010496 -0.000971 409044.000000 0 0 1
-9.380484 -24.922997 11.883509 29.161053 1.210818 1.151067 0.012002 -0.004748 279571.000000 0 0 1
-9.228684 -23.591597 11.207309 27.700827 1.197912 1.154273 0.001209 0.005919 154828.000000 0 0 1
-8.130184 -23.406397 10.334609 26.847038 1.236485 1.175649 0.004507 0.004138 -103131.000000 0 0 1
-7.699184 -22.074897 10.200209 25.507308 1.235213 1.159396 -0.000223 0.008306 401738.000000 0 0 1
-6.465284 -21.858597 9.257909 24.602988 1.283218 1.185005 -0.002461 0.004612 1458370.000000 0 1 0
-5.249284 -22.432597 9.768309 25.023913 1.340930 1.169775 -0.004988 0.005499 -28019.300000 0 0 1
-4.139484 -22.135197 8.989109 24.246780 1.385923 1.190997 -0.007173 -0.001236 286048.000000 0 1 0
-2.806084 -22.913597 9.175009 24.841252 1.448939 1.192492 0.001803 -0.006387 499483.000000 0 1 0
-2.093684 -22.474897 10.301709 24.811886 1.477908 1.142642 0.005100 -0.006644 -1006570.000000 0 1 0
-1.120284 -23.398397 10.638409 25.727723 1.522954 1.144502 0.004587 -0.007124 -311516.000000 0 0 1
-0.182884 -22.836597 11.720909 25.669501 1.562788 1.096617 0.008089 -0.007507 -89897.500000 0 0 1
-0.814884 -22.823297 13.026009 26.291516 1.535107 1.052449 0.009462 -0.000164 396508.000000 0 0 1
0.093216 -22.666597 14.129509 26.710042 -1.566684 1.013379 0.015765 0.000860 44234.700000 0 0 1
0.750616 -21.290697 14.301809 25.659285 -1.535555 0.979577 0.019269 -0.000999 -121106.000000 0 0 1
1.704516 -21.009397 13.317709 24.933141 -1.489843 1.007310 0.026546 -0.009763 -567163.000000 0 1 0
2.136616 -19.684297 13.204709 23.799181 -1.462675 0.982627 0.026965 -0.007428 -407976.000000 0 1 0
3.607316 -19.456597 12.866209 23.603204 -1.387475 0.994283 0.030655 -0.010972 -210490.000000 0 1 0
3.843516 -19.932397 11.571509 23.366062 -1.380307 1.052700 0.040309 -0.011637 -149081.000000 0 1 0
5.247716 -20.053797 11.383609 23.649098 -1.314853 1.068597 0.047761 -0.008326 572995.000000 0 1 0
5.614316 -20.950397 10.186909 23.962737 -1.308967 1.131708 0.046482 -0.009436 -238689.000000 0 1 0
5.246516 -20.380197 8.922409 22.857990 -1.318835 1.169794 0.043925 -0.014585 -206105.000000 0 1 0
5.583016 -21.213597 7.779409 23.274577 -1.313451 1.229992 0.044803 -0.018351 -385353.000000 0 1 0
7.026016 -21.723897 7.596109 24.062283 -1.257991 1.249618 0.049286 -0.006604 -373085.000000 0 1 0
7.945416 -20.854597 6.990509 23.386130 -1.206784 1.267239 0.040317 -0.011202 1608.050000 0 1 0
8.534316 -19.748697 7.694609 22.848470 -1.162889 1.227315 0.049558 -0.008092 350335.000000 0 1 0
9.503816 -20.045697 8.847709 23.883769 -1.128076 1.191304 0.048174 -0.006970 226876.000000 0 1 0
8.782116 -20.038097 10.069609 24.084184 -1.157739 1.139443 0.053614 -0.011610 -52045.400000 0 1 0
9.711016 -19.945697 11.140809 24.824429 -1.117706 1.105392 0.054582 -0.007224 331365.000000 0 1 0
9.090016 -20.040197 12.549709 25.332451 -1.144962 1.052500 0.060589 -0.008700 -168497.000000 0 0 1
8.841816 -21.397197 12.791209 26.450572 -1.178943 1.066046 0.053167 -0.012313 -286744.000000 0 0 1
8.163416 -21.539897 14.019909 26.966022 -1.208532 1.024051 0.056897 -0.009176 59863.500000 0 0 1
8.296716 -22.978797 14.548509 28.434481 -1.224303 1.033692 0.043066 -0.016313 97067.300000 0 0 1
7.641716 -24.077597 13.899509 28.832670 -1.263473 1.067775 0.045228 -0.010861 -298548.000000 0 0 1
7.608416 -25.287197 14.664109 30.205404 -1.278532 1.063885 0.042755 -0.016498 237445.000000 0 0 1
7.546716 -26.573897 13.790009 30.875383 -1.294092 1.107796 0.047461 -0.016893 347151.000000 0 0 1
8.774716 -26.926497 13.154409 31.226116 -1.255772 1.135959 0.047279 -0.014313 34697.300000 0 0 1
8.615116 -27.928297 12.130509 31.644261 -1.271585 1.177387 0.037682 -0.013113 55514.800000 0 0 1
9.927116 -28.432797 11.484209 32.231330 -1.234885 1.206485 0.039654 -0.014820 375897.000000 0 0 1
10.779616 -29.206297 12.305809 33.475974 -1.217221 1.194368 0.034010 -0.018664 642416.000000 0 0 1
12.029116 -29.545397 11.698209 33.977613 -1.184150 1.219312 0.043887 -0.015065 662242.000000 0 0 1
12.930716 -30.446797 12.572209 35.387445 -1.169181 1.207590 0.027401 -0.016574 -644410.000000 0 0 1
13.527016 -29.823497 13.714409 35.503607 -1.144978 1.174199 0.031013 -0.014733 548449.000000 0 0 1
14.610416 -30.466297 14.365009 36.715296 -1.123634 1.168802 0.033666 -0.012053 -62598.800000 0 0 1
15.905416 -30.601297 13.583309 37.066533 -1.091464 1.195598 0.036941 -0.002706 -946952.000000 0 0 1
16.574716 -29.323697 13.433509 36.263750 -1.056333 1.191315 0.028146 -0.016529 833313.000000 0 0 1
17.922316 -29.464497 12.972309 36.846259 -1.024319 1.211019 0.019735 -0.014527 415243.000000 0 0 1
18.652116 -28.126197 13.044209 36.181981 -0.985227 1.201975 0.008471 -0.010773 -430107.000000 0 0 1
19.979416 -28.164897 12.596809 36.757558 -0.953807 1.221007 -0.004733 -0.011839 45916.100000 0 0 1
20.616216 -26.869597 12.642709 36.150265 -0.916334 1.213517 -0.011407 -0.009329 133629.000000 0 0 1
21.932316 -26.819297 11.830009 36.609429 -0.885307 1.241750 -0.009542 -0.005389 409854.000000 0 0 1
22.937916 -27.575797 12.510909 37.988095 -0.876956 1.235194 -0.006398 -0.007151 -281473.000000 0 0 1
23.853116 -28.188897 11.669609 38.726797 -0.868519 1.264707 -0.010640 -0.015782 -703011.000000 0 0 1
24.909616 -28.948997 12.499809 40.184308 -0.860258 1.254486 0.007191 -0.013235 232605.000000 0 0 1
25.899216 -28.270897 13.291909 40.579402 -0.829152 1.237084 0.003979 -0.007681 712667.000000 0 0 1
27.065516 -28.053197 12.509409 40.939093 -0.803315 1.260268 -0.004189 -0.002749 326558.000000 0 0 1
28.299616 -27.455697 13.277409 41.604965 -0.770263 1.245985 0.019280 -0.014188 467575.000000 0 0 1
28.422116 -26.060197 13.356809 40.808760 -0.742073 1.237349 0.034001 -0.009672 -53947.800000 0 0 1
27.674916 -25.407497 14.373009 40.224685 -0.742709 1.205401 0.025933 -0.007351 9015.400000 0 0 1
28.407216 -25.174297 15.784109 41.107824 -0.725135 1.176706 0.012531 0.001234 -321976.000000 0 0 1
28.440916 -26.436297 16.463909 42.176104 -0.748885 1.169773 0.002067 -0.006088 178438.000000 0 0 1
29.186316 -26.260797 17.655809 43.048787 -0.732685 1.148194 0.016010 0.016879 -145084.000000 0 0 1
29.683116 -27.636997 18.160109 44.437377 -0.749717 1.149803 0.004972 0.028735 -122212.000000 0 0 1
28.630116 -28.449397 18.631409 44.454259 -0.782232 1.138327 -0.006768 0.020298 202142.000000 0 0 1
29.146116 -29.543297 19.400809 45.811503 -0.792166 1.133500 -0.008006 0.012215 159329.000000 0 0 1
28.047916 -30.274297 20.224409 45.959170 -0.823553 1.115140 -0.002178 0.022640 -727079.000000 0 0 1
27.453316 -29.416397 21.273809 45.514656 -0.819903 1.084442 -0.004453 0.019019 1035500.000000 0 0 1
26.352416 -29.995997 21.992009 45.583529 -0.849970 1.067341 -0.004544 0.014228 619017.000000 0 0 1
25.107216 -30.435097 21.222109 44.800059 -0.881030 1.077301 0.027136 0.003683 -1133780.000000 0 0 1
25.353016 -31.634297 20.512809 45.434342 -0.895177 1.102370 0.006452 0.006084 -375916.000000 0 0 1
24.537116 -31.883497 19.398209 44.664504 -0.914877 1.121525 0.015784 0.005948 -483892.000000 0 0 1
24.856716 -31.009897 18.119309 43.678134 -0.895097 1.143033 0.010042 0.000837 927418.000000 0 0 1
26.177516 -31.219997 17.572109 44.370368 -0.873025 1.163604 -0.003039 -0.001864 965314.000000 0 0 1
26.183516 -30.562297 16.365109 43.444761 -0.862410 1.184578 -0.002943 -0.016740 806991.000000 0 0 1
27.475916 -30.813097 15.478309 44.090259 -0.842588 1.212094 0.008313 -0.012080 673082.000000 0 0 1
27.378116 -31.821097 14.514909 44.416506 -0.860309 1.237890 0.014461 -0.006312 197092.000000 0 0 1
27.281416 -33.138597 14.936609 45.448262 -0.882037 1.235922 -0.016251 -0.007319 -347132.000000 0 0 1
26.506816 -34.004297 13.919609 45.306280 -0.908672 1.258512 0.012557 -0.011514 -309541.000000 0 0 1
27.204616 -34.339597 12.765609 45.631785 -0.900816 1.287260 0.032802 -0.009892 52059.700000 0 0 1
26.554416 33.750028 12.004209 44.590385 0.904158 1.298223 0.031133 -0.007857 -349376.000000 0 0 1
27.159016 33.428628 10.631309 44.363386 0.888511 1.328800 0.026736 -0.011332 -797503.000000 0 0 1
28.386416 32.803128 10.792209 44.702411 0.857454 1.326964 0.021818 -0.013729 -617040.000000 0 0 1
28.861416 32.161228 9.631809 44.272990 0.839421 1.351488 0.018953 -0.010459 -78747.100000 0 0 1
30.334416 31.740428 9.813609 44.988204 0.808045 1.350891 -0.001162 -0.008842 -111011.000000 0 0 1
30.455716 30.850428 10.918609 44.704760 0.791836 1.324062 -0.003637 0.001328 -252781.000000 0 0 1
31.776216 30.476328 11.193509 45.429386 0.764520 1.321839 0.008071 -0.001823 -330634.000000 0 0 1
31.979016 29.467728 12.334109 45.201047 0.744552 1.294419 0.003968 0.008632 -166741.000000 0 0 1
31.457416 28.192628 12.051809 43.927661 0.730720 1.292877 0.000542 0.008386 224808.000000 0 0 1
31.688816 27.289128 13.068009 43.813815 0.710937 1.267925 0.011030 0.000396 -51887.900000 0 0 1
31.482416 25.820928 12.698109 42.650965 0.686919 1.268491 -0.000695 -0.008822 -190289.000000 0 0 1
32.554216 25.330528 11.933209 42.939656 0.661246 1.289182 0.007778 -0.003292 -217465.000000 0 0 1
32.624316 23.920428 11.848309 42.153473 0.632668 1.285882 0.001481 -0.009134 -455036.000000 0 0 1
31.494016 23.207028 11.055709 40.653018 0.635045 1.295374 -0.005724 -0.004318 -186963.000000 0 0 1
30.364216 23.031728 11.861609 39.914206 0.648929 1.269061 0.002193 -0.012980 -301781.000000 0 0 1
29.276116 22.628728 11.025909 38.609856 0.658023 1.281193 -0.006902 0.004204 -170680.000000 0 0 1
28.023916 22.257028 11.827209 37.690821 0.671204 1.251609 -0.008523 0.006578 -234110.000000 0 0 1
27.467516 23.436928 12.436609 38.189308 0.706384 1.239090 -0.000079 0.003624 428652.000000 0 0 1
26.454616 23.170228 13.415609 37.638872 0.719310 1.206353 0.011769 0.000577 92547.300000 0 0 1
23.131916 9.884628 26.278333 36.377770 0.403830 0.763568 0.006704 -0.006131 -368457.000000 0 0 1
22.937216 8.627828 26.753253 36.280736 0.359778 0.741590 0.018692 -0.013519 419981.000000 0 0 1
21.555916 8.300728 26.691083 35.298350 0.367578 0.713376 0.020877 -0.014459 172274.000000 0 0 1
21.194016 7.064028 27.592913 35.502896 0.321723 0.680590 0.030376 -0.017797 -278109.000000 0 0 1
21.443216 7.181228 28.986363 36.763987 0.323155 0.662520 0.023683 -0.017306 -800074.000000 0 0 1
22.720116 6.785228 29.312623 37.702425 0.290212 0.680158 0.025973 -0.021031 -1151060.000000 0 0 1
22.952216 6.572628 30.829223 38.992879 0.278898 0.658947 0.022002 -0.020076 -686439.000000 0 0 1
22.953416 7.762628 31.593763 39.815619 0.326116 0.654255 0.022528 -0.017288 211792.000000 0 0 1
22.960716 7.425828 32.993140 40.876456 0.312797 0.631500 0.017267 -0.016559 -350446.000000 0 0 1
22.945316 8.665828 33.880232 41.826478 0.361112 0.626612 0.022130 -0.011820 320171.000000 0 0 1
24.048616 9.539028 33.636508 42.435170 0.377620 0.655643 0.017479 -0.019542 206147.000000 0 0 1
24.521816 10.143828 -34.101731 43.210470 0.392231 2.480303 0.018826 -0.012691 -71825.000000 0 0 1
25.600916 11.185128 -34.309648 44.245519 0.411910 2.458204 0.004627 -0.009788 -330280.000000 0 0 1
24.948216 12.370228 34.274933 44.161149 0.460311 0.682286 0.003188 -0.011017 176292.000000 0 0 1
25.376216 13.433828 -33.851951 44.388902 0.486880 2.438153 0.011629 -0.008630 -569532.000000 0 0 1
24.825516 14.834128 -34.323401 44.882663 0.538605 2.441428 0.010580 -0.009915 -424821.000000 0 0 1
25.482016 15.582428 33.591512 44.950360 0.548837 0.726803 0.008243 -0.009244 47704.300000 0 0 1
25.032016 16.916828 33.476147 45.093606 0.594304 0.734195 0.014068 -0.011290 -69900.300000 0 0 1
25.692616 18.052328 34.369394 46.553757 0.612487 0.740290 0.008725 -0.014381 -120895.000000 0 0 1
25.438316 17.954428 -33.195681 45.512884 0.614610 2.388195 0.012865 -0.021869 735610.000000 0 0 1
26.485516 17.296728 -32.422821 45.297888 0.578526 2.368521 0.006726 -0.017521 250904.000000 0 0 1
25.991116 16.735128 -31.075891 43.832791 0.572060 2.358825 -0.006693 -0.010782 -28390.700000 0 0 1
25.350816 15.481328 -31.322291 43.167364 0.548238 2.382704 -0.001308 -0.006018 162296.000000 0 0 1
24.478616 15.233728 -30.236481 41.779348 0.556676 2.379972 0.003450 -0.006435 -52355.100000 0 0 1
23.717216 13.887928 -30.327581 40.928511 0.529737 2.405338 0.014924 -0.006614 -179376.000000 0 0 1
22.829316 13.889628 -31.470751 41.285683 0.546582 2.437606 0.012095 -0.009454 574935.000000 0 0 1
22.242716 12.664528 -31.849731 40.859932 0.517599 2.464641 0.017594 -0.001004 220904.000000 0 0 1
21.415816 11.859628 -30.764341 39.315806 0.505740 2.469456 0.023033 -0.003206 330401.000000 0 0 1
20.179516 12.532128 -30.465541 38.631804 0.555741 2.479346 0.025020 0.002342 911843.000000 0 0 1
19.311716 11.691328 -29.708511 37.312533 0.544381 2.491797 0.031846 0.001379 163144.000000 0 0 1
18.032416 12.323228 -29.130971 36.409387 0.599493 2.498250 0.036340 0.000632 -544082.000000 0 0 1
16.936916 12.281428 -29.990031 36.566303 0.627392 2.532478 0.014902 0.007601 -944165.000000 0 0 1
15.907016 12.990428 -29.355701 35.826548 0.684810 2.531132 0.018329 -0.003188 -922305.000000 0 0 1
14.996516 13.543828 -30.461591 36.554607 0.734543 2.555878 0.008315 -0.000622 22060.700000 0 0 1
14.175716 12.621328 -31.173701 36.497239 0.727457 2.594689 -0.001709 0.007414 -731545.000000 0 0 1
12.923516 12.392828 -30.632151 35.481377 0.764439 2.612629 0.005483 0.002877 -1051530.000000 0 0 1
12.021716 11.682628 -31.639721 35.806108 0.771094 2.654378 0.008864 0.004815 -212784.000000 0 0 1
11.674216 12.420628 -32.765661 36.934372 0.816366 2.661889 0.020526 0.003814 110269.000000 0 0 1
10.709116 11.758028 -33.598401 37.172422 0.832051 2.699487 0.033523 0.004878 391190.000000 0 0 1
10.159616 12.836628 34.377551 38.076408 0.901287 0.444427 0.043722 0.001017 -23868.900000 0 0 1
10.994916 13.112828 33.279124 37.421044 0.873025 0.474950 0.027054 0.009686 148005.000000 0 0 1
10.194016 13.458528 32.148283 36.312009 0.922551 0.483583 0.036955 -0.005695 -277161.000000 0 0 1
10.856516 13.487628 30.774933 35.311139 0.893060 0.512470 0.040555 -0.009424 -416271.000000 0 0 1
11.415916 12.260128 30.413923 34.722335 0.821040 0.503461 0.023248 -0.005807 -88017.300000 0 0 1
11.389816 12.070328 28.998903 33.411930 0.814397 0.519796 0.038267 -0.010320 -110442.000000 0 0 1
12.011516 10.694528 28.567963 32.783806 0.727461 0.512738 0.023509 -0.005304 546956.000000 0 0 1
11.289016 9.556628 29.100393 32.643589 0.702483 0.470243 0.017927 -0.001528 306302.000000 0 0 1
11.827416 8.483428 28.404203 31.916376 0.622222 0.473545 -0.001826 -0.003559 -441372.000000 0 0 1
11.147316 7.158328 28.572133 31.493985 0.570842 0.434157 0.004441 0.003736 -212250.000000 0 0 1
9.962916 7.035328 27.798923 30.356806 0.614843 0.413452 0.012914 -0.004679 -361038.000000 0 0 1
9.306516 5.791328 28.057153 30.122326 0.556646 0.372445 0.005218 -0.004493 -342539.000000 0 0 1
9.899616 4.449828 27.507153 29.571047 0.422434 0.375824 -0.001607 0.001104 -345804.000000 0 0 1
10.778016 3.773728 28.350583 30.564067 0.336792 0.382917 -0.004756 0.003277 -175067.000000 0 0 1
10.965316 2.488528 27.868763 30.051603 0.223165 0.383492 -0.017270 0.013281 -114744.000000 0 0 1
11.341216 1.466928 28.959533 31.135664 0.128631 0.376089 -0.019973 0.015844 -136449.000000 0 0 1
10.269916 1.145728 29.795183 31.536277 0.111102 0.333841 -0.013420 0.011201 -456508.000000 0 0 1
10.500316 -0.011272 30.578023 32.330670 -0.001074 0.330778 -0.006577 0.006415 406229.000000 0 0 1
9.381616 -0.113672 31.640493 33.002249 -0.012116 0.288269 0.009760 0.001405 38878.000000 0 0 1
9.593616 0.944228 32.530093 33.928395 0.098107 0.288096 0.009607 -0.003634 -45614.100000 0 0 1
8.583616 1.203028 33.484641 34.588248 0.139247 0.253291 0.012927 -0.013204 -208104.000000 0 0 1
8.821316 2.461228 34.308325 35.509638 0.272090 0.260857 0.017623 -0.014622 -194205.000000 0 0 1
8.745316 3.765928 33.653100 34.974189 0.406623 0.275730 0.006429 -0.012629 268575.000000 0 0 1
9.744716 3.995328 32.669083 34.324789 0.389097 0.311863 -0.002818 -0.004157 -208940.000000 0 0 1
9.711516 5.412728 32.082923 33.954751 0.508470 0.333590 -0.005012 -0.001887 81093.800000 0 0 1
9.984116 6.513728 32.898831 34.992060 0.578067 0.347638 -0.007851 -0.000146 -134770.000000 0 0 1
10.028616 7.632728 32.054873 34.443382 0.650564 0.374600 -0.006391 0.000630 -146435.000000 0 0 1
10.015416 8.951228 32.856703 35.496422 0.729349 0.388088 0.022069 -0.006711 389141.000000 0 0 1
8.831016 9.261928 33.590722 35.945886 0.809210 0.364000 0.030979 -0.008240 60503.100000 0 0 1
8.512516 8.412428 -34.260180 36.290382 0.779485 2.805519 0.030343 -0.014137 105837.000000 0 0 1
7.108816 8.837828 -33.733251 35.588969 0.893401 2.817239 0.040229 -0.016109 438902.000000 0 0 1
6.608516 7.947428 -32.776461 34.367579 0.877124 2.836113 0.050185 -0.011855 1207950.000000 0 0 1
5.188216 8.096828 -32.485691 33.879143 1.000936 2.853790 0.048223 -0.015075 1606170.000000 0 0 1
4.759316 7.394228 -31.166511 32.383284 0.998896 2.866595 0.053637 -0.014184 -569006.000000 0 0 1
5.345316 7.908828 -29.992241 31.474696 0.976451 2.833455 0.058061 -0.012017 39081.400000 0 0 1
4.800116 7.461328 -28.790521 30.126510 0.999122 2.842669 0.056533 -0.013220 -340462.000000 0 0 1
3.353016 7.793728 -28.407211 29.647168 1.164513 2.851356 0.054445 -0.012206 25269.500000 0 0 1
2.336416 7.200228 -29.191381 30.156904 1.257024 2.887865 0.046462 -0.015225 90564.900000 0 0 1
1.031216 7.418628 -28.690921 29.652460 1.432678 2.886235 0.046214 -0.006636 653366.000000 0 0 1
-0.063284 6.965728 -29.735951 30.540991 -1.561712 2.911480 0.041852 -0.011157 323850.000000 0 0 1
-0.033284 7.649628 -30.973551 31.904212 -1.566445 2.899463 0.046334 -0.011150 184365.000000 0 0 1
-0.521884 6.748328 -31.979811 32.688233 -1.493615 2.933022 0.051214 -0.017092 -279951.000000 0 0 1
-0.501884 7.442828 -33.411981 34.234603 -1.503466 2.921930 0.055776 -0.024315 595856.000000 0 0 1
0.835316 7.763928 -33.804201 34.694385 1.463619 2.914576 0.044274 -0.024289 1024640.000000 0 0 1
1.743816 6.719428 -34.255301 34.951642 1.316879 2.941645 0.051526 -0.026667 381666.000000 0 0 1
1.607816 6.251828 33.202322 33.824024 1.319076 0.192026 0.057840 -0.032687 57056.500000 0 0 1
0.411516 5.507928 32.936244 33.396149 1.496222 0.166150 0.063330 -0.031174 151474.000000 0 0 1
0.206616 5.436928 31.533843 31.999783 1.532812 0.170858 0.070892 -0.029145 272839.000000 0 0 1
0.964016 4.311928 30.770923 31.086520 1.350844 0.142615 0.079228 -0.027092 152221.000000 0 0 1
0.760116 4.469728 29.361753 29.709742 1.402349 0.153205 0.069736 -0.026062 88009.500000 0 0 1
1.495516 3.564228 28.551183 28.811635 1.173517 0.134562 0.056989 -0.015865 144373.000000 0 0 1
1.555816 4.005128 27.058703 27.397719 1.200281 0.157477 0.060959 -0.010756 169452.000000 0 0 1
2.103716 5.295828 26.902623 27.499501 1.192671 0.208730 0.059491 -0.010231 -110355.000000 0 0 1
1.899316 5.668028 25.540353 26.230585 1.247463 0.229914 0.037203 0.002951 -567063.000000 0 0 1
2.507316 7.026228 25.164323 26.246860 1.228031 0.288205 0.038500 0.003870 1035690.000000 0 0 1
3.935516 7.220628 25.106123 26.418614 1.071771 0.316536 0.032670 0.007710 818178.000000 0 0 1
4.504316 6.632328 23.968963 25.274252 0.974204 0.322787 0.035671 0.003666 -135146.000000 0 0 1
6.064716 6.715028 23.862783 25.520674 0.836240 0.362432 0.033800 0.001577 902893.000000 0 0 1
6.850316 5.784128 24.625623 26.206951 0.701210 0.349161 0.024794 0.003092 299689.000000 0 0 1
6.649916 4.409428 24.481943 25.749368 0.585516 0.315058 0.034829 0.005855 -1016430.000000 0 0 1
6.941116 3.800928 23.064683 24.384539 0.500996 0.330521 0.033507 0.003889 493563.000000 0 1 0
5.974916 4.066328 22.034383 23.189409 0.597564 0.316946 0.033570 -0.000248 273614.000000 0 1 0
4.674916 3.560128 22.197283 22.961897 0.650845 0.258788 0.030314 -0.001187 613770.000000 0 1 0
3.514716 3.900528 21.173383 21.814662 0.837381 0.243072 0.011843 0.000351 953926.000000 0 1 0
3.145416 5.276428 21.142283 22.016595 1.033230 0.282762 0.006500 -0.008853 -168619.000000 0 1 0
1.922916 5.336928 20.437283 21.209973 1.224972 0.270754 0.002798 -0.001509 -156774.000000 0 1 0
1.402916 6.775828 20.474083 21.611758 1.366634 0.325914 0.001923 0.001111 -51152.800000 0 1 0
2.189616 7.733628 19.764983 21.336775 1.294888 0.386234 -0.006349 -0.001648 -71781.400000 0 1 0
1.889216 8.914928 20.403983 22.346534 1.361970 0.420043 0.001617 0.010990 631393.000000 0 1 0
2.844616 10.055528 19.919683 22.494427 1.295109 0.483144 0.004916 0.004342 -103372.000000 0 1 0
2.540516 10.492828 18.571583 21.481558 1.333248 0.526570 -0.012292 0.008834 -219118.000000 0 1 0
3.405916 11.414628 17.955783 21.547718 1.280825 0.585740 -0.010190 0.000202 155290.000000 0 1 0
4.934116 11.183128 17.869783 21.650335 1.155276 0.599919 -0.000470 -0.005990 271761.000000 0 1 0
5.334816 10.045228 17.025783 20.475452 1.082595 0.588955 0.003051 -0.010962 497810.000000 0 1 0
6.691616 9.651228 17.287683 20.899471 0.964552 0.596721 -0.003147 -0.005138 801226.000000 0 1 0
6.800016 8.230828 17.716583 20.684875 0.880304 0.542347 0.006996 -0.002013 -217555.000000 0 1 0
6.391716 8.060628 19.080383 21.676918 0.900366 0.494478 0.017394 -0.007177 -106108.000000 0 1 0
6.498916 6.723728 19.577983 21.696586 0.802399 0.445598 0.013518 -0.011533 -1190130.000000 0 1 0
7.839216 6.189928 20.014583 22.368550 0.668374 0.462893 0.027577 -0.006205 -789447.000000 0 1 0
8.746516 6.113728 18.930583 21.731226 0.610048 0.513311 0.026416 -0.009325 -84567.000000 0 1 0
10.003516 5.536028 19.255683 22.394179 0.505456 0.535816 0.022566 -0.003021 333182.000000 0 1 0
10.112216 3.947228 19.218883 22.072675 0.372153 0.514154 0.023645 0.000032 -513704.000000 0 1 0
9.460416 3.285928 20.281383 22.619268 0.334298 0.458671 0.031677 -0.003714 56639.400000 0 1 0
9.647716 1.899828 20.113083 22.388030 0.194432 0.454717 0.028634 -0.013262 429952.000000 0 1 0
8.679016 1.084228 21.056683 22.800982 0.124281 0.393692 0.035344 -0.014888 192571.000000 0 1 0
9.046816 1.049728 22.453983 24.230728 0.115516 0.385331 0.034847 -0.011393 3750.400000 0 1 0
8.357516 0.069728 23.153883 24.616158 0.008343 0.346412 0.033849 -0.011833 -1037180.000000 0 1 0
8.566616 0.253428 24.702503 26.146984 0.029575 0.333949 0.024455 0.002941 111996.000000 0 0 1
9.875916 0.004628 25.196003 27.062378 0.000469 0.373559 0.024391 -0.000063 250102.000000 0 0 1
10.212716 -1.344172 25.167623 27.194036 -0.130865 0.388487 0.024293 -0.008027 440898.000000 0 0 1
11.704716 -1.800272 25.384963 28.011385 -0.152612 0.436499 0.024279 -0.004367 882887.000000 0 0 1
11.829316 -3.204272 25.223843 28.043579 -0.264528 0.452283 0.022911 -0.004636 351691.000000 0 0 1
13.162616 -3.711572 25.334833 28.790345 -0.274842 0.494983 0.024303 -0.003549 523448.000000 0 0 1
13.282516 -5.283272 25.333673 29.088368 -0.378575 0.513723 0.022021 -0.003019 -156657.000000 0 0 1
12.866316 -5.854472 24.114433 27.952152 -0.427023 0.530204 0.018908 -0.006671 235721.000000 0 0 1
12.701716 -7.256772 24.298353 28.362022 -0.519066 0.541917 0.021375 -0.005147 25278.400000 0 0 1
12.494816 -8.098672 23.001183 27.400061 -0.575082 0.574512 0.027812 -0.007056 63559.200000 0 0 1
11.979516 -9.439072 23.152683 27.724567 -0.667340 0.582489 0.023896 -0.002390 -367390.000000 0 0 1
12.246016 -10.260072 22.064483 27.241061 -0.697386 0.626693 0.029470 -0.006935 109819.000000 0 0 1
11.566516 -11.656272 22.210883 27.622026 -0.789263 0.636636 0.032036 -0.006038 -271366.000000 0 0 1
10.187216 -11.693772 22.048683 26.956782 -0.854142 0.612998 0.025561 -0.004239 -1109630.000000 0 0 1
9.667716 -12.965372 22.222783 27.484863 -0.930081 0.629119 0.028638 -0.000072 -295190.000000 0 0 1
8.215016 -13.030472 22.715383 27.445734 -1.008290 0.595894 0.018952 0.002434 299397.000000 0 0 1
7.372016 -12.384972 21.727883 26.073647 -1.033885 0.585696 0.024316 -0.008081 238006.000000 0 0 1
6.026016 -12.220972 22.155183 26.009944 -1.112694 0.551391 0.012022 -0.005452 677400.000000 0 0 1
5.346616 -11.050072 21.386483 24.659117 -1.120149 0.521074 0.007811 -0.005340 98744.100000 0 1 0
5.662216 -9.816172 21.925083 24.680502 -1.047591 0.477043 0.011013 0.000022 -346902.000000 0 1 0
5.067116 -8.729972 21.253083 23.528315 -1.044893 0.443400 0.007545 -0.002705 49312.400000 0 1 0
5.441816 -7.340972 21.783983 23.622979 -0.932891 0.397188 0.010820 -0.007900 301127.000000 0 1 0
4.553316 -6.319072 21.343983 22.720673 -0.946400 0.349897 -0.000186 -0.004947 63825.800000 0 1 0
5.187416 -5.073572 21.538683 22.728073 -0.774304 0.324944 0.019011 -0.020636 -210528.000000 0 1 0
-8.228784 -14.916772 -20.570391 26.708874 1.066690 2.449905 0.038030 -0.002110 -101726.000000 0 0 1
-7.498784 -14.539472 -19.462791 25.424953 1.094625 2.442614 0.037328 -0.013324 126139.000000 0 0 1
-6.569984 -13.478372 -19.721091 24.774032 1.117242 2.491518 0.027779 -0.020473 253443.000000 0 1 0
-5.747584 -12.989772 -18.548291 23.362534 1.154222 2.488047 0.021375 -0.022318 -258831.000000 0 1 0
-5.019084 -14.046172 -17.994391 23.372725 1.227609 2.449463 0.024019 -0.017169 -288456.000000 0 1 0
-4.144484 -13.573972 -17.002991 22.147938 1.274461 2.446042 0.018577 -0.018619 484706.000000 0 1 0
-3.091584 -14.672472 -16.529591 22.317408 1.363128 2.404847 0.013693 -0.005708 -252772.000000 0 1 0
-1.949684 -14.735372 -17.273391 22.788210 1.439247 2.431033 0.014271 -0.011627 -1547040.000000 0 1 0
-0.885384 -15.234872 -16.547991 22.510470 1.512746 2.396646 0.025868 -0.010698 -1160580.000000 0 1 0
0.363916 -15.524572 -17.329791 23.269431 -1.547359 2.410949 0.013888 -0.004577 -838074.000000 0 1 0
0.341116 -16.583472 -18.280391 24.684015 -1.550230 2.404724 0.025668 -0.005180 -172454.000000 0 1 0
-0.003284 -17.936072 -17.897991 25.338524 1.570613 2.355132 0.023186 -0.004760 -210029.000000 0 0 1
-0.363384 -18.768472 -19.154791 26.819650 1.551437 2.366287 0.039238 -0.001843 618766.000000 0 0 1
-1.634984 -18.318772 -19.644091 26.909866 1.481780 2.389112 0.034072 -0.010938 344008.000000 0 0 1
-1.773684 -18.459972 -21.043791 28.049201 1.475008 2.419230 0.042582 -0.013109 559129.000000 0 0 1
-3.037684 -17.724672 -21.646791 28.142052 1.401064 2.448380 0.034238 -0.005986 812125.000000 0 0 1
-2.896984 -16.312072 -21.771591 27.358333 1.395031 2.491114 0.027276 0.001029 -181535.000000 0 0 1
-3.178184 -15.558172 -20.656291 26.054557 1.369291 2.486201 0.024972 -0.004868 -95646.800000 0 0 1
-2.361784 -14.240572 -20.479091 25.055241 1.406443 2.527606 0.024515 -0.015127 12395.700000 0 0 1
-2.631284 -13.185172 -21.402791 25.275520 1.373820 2.580698 0.022625 -0.024635 114409.000000 0 0 1
-1.584484 -12.240472 -21.382791 24.689340 1.442066 2.618091 0.010247 -0.007517 200119.000000 0 1 0
-1.529684 -11.425072 -22.693791 25.453494 1.437700 2.671615 0.023896 0.000892 -454612.000000 0 0 1
-2.522184 -10.445172 -22.628291 25.050002 1.333863 2.698255 0.019321 -0.008720 -67739.700000 0 0 1
-2.642884 -9.837572 -23.917791 25.996603 1.308341 2.738967 0.026020 -0.006506 480099.000000 0 0 1
-3.732684 -8.696772 -24.053291 25.848164 1.165371 2.766738 0.029586 -0.008601 225603.000000 0 0 1
-5.073184 -9.119572 -23.983691 26.155711 1.063132 2.731185 0.032926 -0.017163 321489.000000 0 0 1
-5.854884 -7.938072 -24.141491 26.078808 0.935298 2.753713 0.038068 -0.021985 129109.000000 0 0 1
-7.394084 -7.905572 -23.863991 26.204210 0.818817 2.715755 0.028405 -0.029374 936419.000000 0 0 1
-8.227384 -8.376872 -24.932391 27.558773 0.794401 2.701469 0.026197 -0.012174 304435.000000 0 0 1
-8.405784 -7.442472 -25.979991 28.302076 0.724689 2.733687 0.026720 -0.014613 -317170.000000 0 0 1
-9.307284 -8.074872 -27.071941 29.744228 0.714616 2.714461 0.027122 -0.015444 -221780.000000 0 0 1
-9.979384 -7.110672 -27.779891 30.362347 0.619090 2.726169 0.035500 -0.016861 -387057.000000 0 0 1
-10.512284 -7.736272 -28.932851 31.740635 0.634433 2.717809 0.044762 -0.016306 6690.110000 0 0 1
-11.500384 -6.874372 -29.761541 32.638400 0.538765 2.718581 0.045204 -0.015655 183977.000000 0 0 1
-10.888484 -5.678872 -30.241641 32.639938 0.480737 2.755859 0.027014 -0.008092 481776.000000 0 0 1
-11.689284 -5.041272 -31.260521 33.753133 0.407172 2.754874 0.017343 -0.008442 249857.000000 0 0 1
-10.913884 -3.878772 -31.912781 33.949718 0.341476 2.793431 0.021863 -0.014531 841235.000000 0 0 1
-9.786584 -4.301772 -32.715411 34.417737 0.414137 2.825764 0.038716 -0.009181 794609.000000 0 0 1
-9.195984 -3.264372 -33.449361 34.843680 0.341103 2.857740 0.029600 -0.010107 -170023.000000 0 0 1
-8.128784 -3.688572 -34.465024 35.602255 0.425982 2.888159 0.027807 -0.014228 -1330.340000 0 0 1
-6.910984 -4.110772 -33.886231 34.827242 0.536600 2.908604 0.028994 -0.015766 -383262.000000 0 0 1
-5.942584 -4.253872 34.068825 34.843860 0.621270 0.211310 0.019165 -0.018967 -421855.000000 0 0 1
-4.523684 -3.830872 34.470960 34.976941 0.702661 0.170301 0.026607 -0.018159 -174445.000000 0 0 1
-4.344484 -2.448672 34.407235 34.766771 0.513246 0.143939 0.033476 -0.023481 83097.600000 0 0 1
-2.968684 -2.126572 -34.406688 34.599936 0.621605 3.035853 0.022262 -0.022766 417345.000000 0 0 1
-2.703684 -0.613272 -33.988151 34.101033 0.223054 3.060204 0.041102 -0.027862 -63856.100000 0 0 1
-3.010284 -0.538372 -32.616271 32.759316 0.176973 3.048108 0.036039 -0.017972 209211.000000 0 0 1
-3.327984 0.764928 -32.137761 32.318668 -0.225923 3.035736 0.043560 -0.020754 -382091.000000 0 0 1
-3.903684 0.648528 -30.710551 30.964452 -0.164629 3.013444 0.060723 -0.022233 997548.000000 0 0 1
-5.109684 -0.121572 -30.558891 30.983374 0.023788 2.975872 0.040537 -0.020758 1588020.000000 0 0 1
-6.366384 0.580728 -30.743601 31.401228 -0.090966 2.936575 0.036209 -0.021965 515152.000000 0 0 1
-7.565284 -0.336172 -30.558741 31.483062 0.044407 2.898677 0.031035 -0.021800 -491474.000000 0 0 1
-7.726484 -0.788072 -29.257201 30.270504 0.101645 2.882119 0.022972 -0.018866 -82829.100000 0 0 1
-8.745084 -1.754372 -29.341471 30.667185 0.197984 2.846485 0.026895 -0.015138 -113049.000000 0 0 1
-9.091284 -2.504772 -27.978921 29.525334 0.268844 2.816510 0.028148 -0.023461 391025.000000 0 0 1
-9.989884 -1.794172 -27.093761 28.932486 0.177704 2.783160 0.016200 -0.022200 685133.000000 0 0 1
-10.193284 -2.535872 -25.899911 27.948865 0.243829 2.756302 0.007209 -0.021347 -101952.000000 0 0 1
-11.113284 -1.717472 -24.967891 27.383396 0.153329 2.718417 0.006575 -0.015562 -77736.400000 0 0 1
-10.596784 -0.501472 -24.451391 26.653589 0.047288 2.732236 0.019239 -0.016528 -67031.700000 0 0 1
-11.525684 0.237028 -23.690391 26.346389 -0.020562 2.688710 0.023125 -0.017202 -22113.400000 0 0 1
-10.918484 1.563028 -23.140991 25.635168 -0.142188 2.696812 0.024909 -0.016540 199557.000000 0 0 1
-10.422884 2.419728 -24.142291 26.407230 -0.228114 2.724401 0.007508 -0.011001 75626.000000 0 0 1
-9.852584 3.590528 -23.593691 25.819132 -0.349467 2.723356 0.010808 -0.004112 -301351.000000 0 0 1
-9.576784 4.694528 -24.597091 26.809891 -0.455776 2.732453 0.022586 -0.004252 202417.000000 0 0 1
-10.780484 5.392128 -24.907391 27.670779 -0.463788 2.690872 0.026004 0.001482 293868.000000 0 0 1
-11.416284 4.890928 -26.063761 28.871653 -0.404761 2.696906 0.014330 -0.008089 -518191.000000 0 0 1
-12.764484 5.568928 -26.309651 29.768150 -0.411389 2.654759 0.013455 -0.001277 -317951.000000 0 0 1
-12.706184 6.943928 -26.558061 30.248898 -0.500152 2.642431 0.009410 0.005342 764939.000000 0 0 1
-14.052984 7.383128 -26.801001 31.149488 -0.483743 2.606849 0.013845 0.001937 498626.000000 0 0 1
-14.100484 8.914928 -27.024721 31.759017 -0.563791 2.588551 0.020066 0.010097 -382677.000000 0 0 1
-14.029084 9.606828 -25.758861 30.864628 -0.600438 2.558158 0.043294 0.005432 71371.600000 0 0 1
-14.397484 10.956028 -25.909781 31.601247 -0.650484 2.532028 0.033583 0.004631 -223774.000000 0 0 1
-14.005184 11.835128 -24.678591 30.744890 -0.701615 2.502587 0.029341 0.008581 169191.000000 0 0 1
-14.703184 11.642928 -23.426891 30.009342 -0.669760 2.466507 0.042675 0.002935 314457.000000 0 0 1
-14.100484 12.434928 -22.417591 29.257469 -0.722713 2.443731 0.035451 0.003839 -326968.000000 0 0 1
-14.821184 12.377428 -21.067891 28.578388 -0.695790 2.399708 0.045539 -0.000470 634199.000000 0 0 1
-16.107984 13.026728 -21.168791 29.618921 -0.680031 2.366999 0.037483 -0.009600 629927.000000 0 0 1
-16.674384 13.239528 -19.892791 29.138348 -0.671074 2.322250 0.040723 -0.001102 -324457.000000 0 0 1
-18.160484 13.580428 -20.048691 30.268485 -0.642092 2.294763 0.043392 -0.007902 -315055.000000 0 0 1
-18.590984 14.752628 -20.774391 31.541085 -0.670787 2.289813 0.041624 -0.015210 745392.000000 0 0 1
-20.020184 14.752028 -20.882591 32.473261 -0.635037 2.269297 0.032198 -0.020680 697995.000000 0 0 1
-20.552284 16.058428 -21.464891 33.778855 -0.663262 2.259392 0.031517 -0.027526 -215823.000000 0 0 1
-20.361384 16.167028 -22.899791 34.646200 -0.671074 2.292895 0.036543 -0.031541 239814.000000 0 0 1
-20.859884 17.383928 -23.405191 35.848831 -0.694758 2.282184 0.018080 -0.021309 -241249.000000 0 0 1
-20.813484 17.480228 -24.990991 36.923016 -0.698573 2.314258 0.011664 -0.016361 -311341.000000 0 0 1
-19.518684 17.807128 -25.396541 36.647744 -0.739576 2.336425 0.009549 -0.021748 -184146.000000 0 0 1
-19.203284 17.063128 -26.564711 36.954030 -0.726454 2.372955 -0.004032 -0.028661 41951.700000 0 0 1
-18.255384 17.795728 -27.562071 37.544836 -0.772649 2.395153 -0.016446 -0.018222 226906.000000 0 0 1
-18.916784 18.906628 -28.156601 38.834256 -0.785130 2.381897 -0.018610 -0.025179 497917.000000 0 0 1
-18.210984 20.114728 -27.909031 38.925008 -0.835030 2.370278 -0.030994 -0.014594 -899601.000000 0 0 1
-19.090584 21.390328 -28.009611 40.081602 -0.842148 2.344535 0.008456 -0.011320 47280.700000 0 0 1
-19.970884 21.642428 -26.950461 39.919397 -0.825545 2.311926 0.028855 0.002602 328647.000000 0 0 1
-21.192984 20.914128 -26.978581 40.179437 -0.778776 2.306963 0.063550 -0.021138 -166504.000000 0 0 1
-22.231684 21.380628 -25.940771 40.302638 -0.765887 2.270054 0.062640 -0.000741 -115410.000000 0 0 1
-21.903984 20.931128 -24.665091 39.067420 -0.762690 2.254085 0.023172 0.005537 -461674.000000 0 0 1
-22.817384 21.264128 -23.672191 39.155699 -0.750177 2.220017 0.024148 -0.004031 -215183.000000 0 0 1
-22.347284 20.822628 -22.245991 37.787128 -0.750095 2.200269 0.011392 0.004348 -487496.000000 0 0 1
-21.200784 21.448328 -21.761691 37.189719 -0.791202 2.195866 0.014911 0.002571 -512182.000000 0 0 1
-20.243684 20.605728 -21.177991 35.817734 -0.794261 2.203430 0.005674 0.004213 -219828.000000 0 0 1
-20.590584 20.107428 -19.787491 34.926002 -0.773527 2.173115 0.008294 -0.004350 -1052660.000000 0 0 1
-21.543884 19.041028 -19.811791 34.917141 -0.723807 2.174134 0.023608 -0.008313 428620.000000 0 0 1
-22.091484 18.599528 -18.559991 34.328550 -0.699791 2.142015 0.021101 -0.004902 -646867.000000 0 0 1
-23.078584 19.632828 -18.054691 35.270963 -0.704897 2.108174 0.016157 -0.002870 -917003.000000 0 0 1
-24.329784 19.614528 -18.741691 36.440624 -0.678506 2.110996 0.010629 -0.010862 373576.000000 0 0 1
-25.082824 20.782928 -18.545791 37.483657 -0.691922 2.088367 0.017145 -0.012007 -61415.000000 0 0 1
-26.554584 20.764028 -19.069591 38.729060 -0.663630 2.085624 0.013643 0.003555 756934.000000 0 0 1
-27.487374 19.841728 -18.541091 38.639642 -0.625240 2.071276 0.009923 -0.006866 343850.000000 0 0 1
-27.631654 19.684628 -17.134691 38.007769 -0.618996 2.038481 -0.002518 -0.011883 -1216570.000000 0 0 1
-28.693454 18.673428 -16.738391 38.107544 -0.576931 2.025550 -0.011148 -0.005866 -622011.000000 0 0 1
-28.263284 17.336328 -16.874291 37.203537 -0.550205 2.041560 0.010058 -0.010839 -245218.000000 0 0 1
-29.210414 16.378128 -16.547191 37.353727 -0.511017 2.029723 0.004472 -0.005077 -298207.000000 0 0 1
-28.519014 15.187928 -15.869191 35.997757 -0.489351 2.027329 0.027983 -0.006768 -273914.000000 0 0 1
-28.040764 15.359528 -14.551291 35.127477 -0.501120 1.997907 0.028781 -0.006875 426769.000000 0 0 1
-28.970894 15.790928 -13.521591 35.658092 -0.499044 1.959729 0.003251 -0.008246 372106.000000 0 0 1
-28.233654 16.272728 -12.282491 34.825285 -0.522855 1.931239 0.005142 -0.011341 707270.000000 0 0 1
-27.469754 17.518128 -12.401891 34.860853 -0.567697 1.934517 0.000586 -0.006003 731101.000000 0 0 1
-28.337584 18.630928 -12.245191 36.056551 -0.581604 1.917299 -0.008960 -0.009605 -104782.000000 0 0 1
-27.670644 19.958128 -12.610491 36.373285 -0.624862 1.924843 0.002866 -0.010781 67182.000000 0 0 1
-26.629694 20.338428 -11.734391 35.503355 -0.652243 1.907646 -0.002436 -0.021275 -22565.600000 0 0 1
-26.022264 21.546428 -12.115891 35.891525 -0.691582 1.915130 -0.017048 -0.018485 123136.000000 0 0 1
-25.180474 22.226128 -11.026991 35.350411 -0.723159 1.888024 -0.015114 -0.001161 203625.000000 0 0 1
-25.963464 23.065428 -10.167991 36.187062 -0.726358 1.855616 0.000142 -0.009039 193634.000000 0 0 1
-25.405604 24.337228 -10.092991 36.600736 -0.763923 1.850176 0.008792 -0.010978 -233614.000000 0 0 1
-26.188204 25.235928 -9.146191 37.501025 -0.766882 1.817173 0.024010 0.000916 -104108.000000 0 0 1
-25.903174 25.015028 -7.819891 36.849379 -0.767957 1.784635 0.014373 0.005229 109158.000000 0 0 1
-26.912834 25.573328 -7.005991 37.780678 -0.759883 1.757314 0.025036 -0.000228 44515.900000 0 0 1
-26.913514 24.947928 -5.610691 37.124334 -0.747516 1.722510 0.025965 0.004773 -183933.000000 0 0 1
-27.048664 23.550828 -5.733291 36.319999 -0.716380 1.729314 0.018942 -0.000222 -33284.100000 0 0 1
-26.995874 22.819228 -4.530491 35.637336 -0.701751 1.698269 0.024208 -0.003917 -68425.800000 0 0 1
-27.233514 21.290728 -4.684591 34.884162 -0.663535 1.705493 0.007909 -0.009795 382543.000000 0 0 1
-26.161224 20.685728 -5.423691 33.789427 -0.669046 1.732008 0.002355 -0.015428 419859.000000 0 0 1
-26.127264 20.805028 -6.861291 34.096340 -0.672478 1.773412 -0.004764 -0.008200 -694470.000000 0 0 1
-27.136434 20.016028 -7.742091 34.597217 -0.635522 1.796485 -0.001929 -0.014106 -99373.600000 0 0 1
-26.930774 18.621228 -7.657791 33.625265 -0.604963 1.800552 -0.014316 -0.005551 237603.000000 0 0 1
-27.160534 18.022428 -8.931991 33.797677 -0.585843 1.838252 -0.021628 -0.004639 -200712.000000 0 0 1
-26.662644 16.584128 -9.008791 32.666316 -0.556438 1.850200 -0.002661 -0.002262 -103679.000000 0 0 1
-27.383804 15.815128 -8.105091 32.644808 -0.523738 1.821702 -0.020058 -0.000011 16450.800000 0 0 1
-27.066064 14.469028 -8.359891 31.808998 -0.490929 1.836735 -0.002866 -0.006266 63387.800000 0 0 1
-27.864454 13.519028 -7.458791 31.856326 -0.451714 1.807129 -0.020011 -0.011256 724133.000000 0 0 1
-29.246784 13.283928 -7.752591 33.044512 -0.426342 1.807614 -0.005873 -0.004098 538014.000000 0 0 1
-29.818844 12.305128 -6.910691 32.989957 -0.391375 1.781838 -0.006260 -0.008274 -150737.000000 0 0 1
-30.434804 11.077028 -7.661091 33.281679 -0.349056 1.803069 0.007008 -0.009991 143941.000000 0 0 1
-29.504084 10.210628 -8.353391 32.319144 -0.333174 1.832230 0.021447 -0.008342 76328.900000 0 0 1
-29.983474 8.938128 -8.575691 32.441352 -0.289714 1.838320 -0.000388 0.003040 -1617810.000000 0 0 1
-28.944604 7.927328 -8.918591 31.307729 -0.267324 1.859666 0.027506 -0.001121 -983312.000000 0 0 1
-28.608674 8.028328 -10.280991 31.442154 -0.273589 1.903904 0.021631 -0.008633 441061.000000 0 0 1
-27.489724 7.207928 -10.607491 30.334107 -0.256432 1.928035 0.048177 -0.017235 138384.000000 0 0 1
-26.816844 7.489028 -11.964891 30.304905 -0.272328 1.976665 0.042612 -0.011398 -110573.000000 0 0 1
-26.272504 8.799528 -12.056591 30.216511 -0.323190 1.981230 0.061047 -0.026297 559500.000000 0 0 1
-25.432004 9.010028 -13.174191 30.025435 -0.340482 2.025023 0.056857 -0.014365 -170052.000000 0 0 1
-31.236684 26.003428 34.465237 53.289410 -0.694225 0.867473 0.001380 0.011878 -245332.000000 0 0 1
-31.482254 27.397728 34.472008 54.130279 -0.716139 0.880411 -0.000435 0.002785 335895.000000 0 0 1
-31.407244 27.904328 33.113343 53.493551 -0.726407 0.903308 -0.003111 -0.005958 -196055.000000 0 0 1
-31.488124 29.417228 32.933022 54.235221 -0.751409 0.918232 0.013739 -0.006539 -21824.400000 0 0 1
-31.362324 29.888728 31.588913 53.617076 -0.761344 0.940780 0.023744 -0.009007 228512.000000 0 0 1
-31.550214 31.281628 31.573063 54.505179 -0.781124 0.952967 0.030333 -0.013531 -145569.000000 0 0 1
-31.203094 31.931428 30.160643 53.878693 -0.796934 0.976666 0.045978 -0.008990 56265.800000 0 0 1
-29.921474 31.667328 29.634383 52.690710 -0.813738 0.973485 0.043382 -0.012354 86587.100000 0 0 1
-29.844234 32.396328 28.418693 52.419676 -0.826379 0.997817 0.021445 -0.005620 -134897.000000 0 0 1
-28.420054 32.247128 27.871983 51.229134 -0.848398 0.995522 0.030430 -0.009947 -624425.000000 0 0 1
-28.069254 30.968628 27.337253 49.942610 -0.834469 0.991574 0.051845 -0.008154 -78439.400000 0 0 1
-26.988884 30.967328 26.441643 48.852182 -0.853936 0.998864 0.024227 -0.006925 -412345.000000 0 0 1
-27.179064 31.715728 25.103533 48.731676 -0.862276 1.029628 0.020788 -0.011515 -510948.000000 0 0 1
-27.062854 33.145228 25.182973 49.650643 -0.886079 1.038860 0.020296 -0.016926 917826.000000 0 0 1
-28.198384 33.808128 24.590663 50.426571 -0.875623 1.061397 0.033586 -0.013562 491063.000000 0 0 1
-28.604644 -33.981297 25.200733 51.068886 0.871096 1.054727 0.044066 -0.012604 -308720.000000 0 0 1
-29.076984 -34.058497 26.534143 52.052982 0.864137 1.035899 0.044076 -0.022973 269704.000000 0 0 1
-29.255084 -32.750297 27.021653 51.561726 0.841708 1.019180 0.043415 -0.024209 -174178.000000 0 0 1
-29.503074 -32.576197 28.524573 52.395527 0.834861 0.995112 0.046138 -0.023452 36774.500000 0 0 1
-30.738084 -33.210797 28.814403 53.647522 0.824046 1.003794 0.050674 -0.019020 -16347.100000 0 0 1
-31.084664 -33.151197 30.167563 54.546678 0.817558 0.984764 0.041811 -0.020369 330402.000000 0 0 1
-32.548984 -33.617297 30.390363 55.795458 0.801543 0.994795 0.053453 -0.019913 357245.000000 0 0 1
-32.839594 -33.744197 31.780783 56.807816 0.798983 0.977082 0.043382 -0.022835 741877.000000 0 0 1
-34.228909 -33.980897 32.068713 57.919961 0.781762 0.984028 0.038844 -0.017886 771973.000000 0 0 1
-34.537591 -34.361397 33.492605 59.121108 0.782841 0.968534 0.038115 -0.007306 -84360.700000 0 0 1
-34.149677 33.459628 33.868271 58.590161 -0.775192 0.954455 0.019824 -0.008879 771411.000000 0 0 1
-35.274148 32.735528 34.421119 59.166661 -0.748088 0.949899 0.024630 -0.000346 778939.000000 0 0 1
-34.834431 31.370028 -33.980551 57.898135 -0.733117 2.198024 0.006620 0.002557 176519.000000 0 0 1
-33.925074 31.496228 -32.913531 56.799855 -0.748289 2.188868 0.000382 -0.000110 -86191.700000 0 0 1
-33.273464 30.215128 -32.740911 55.606156 -0.737264 2.200370 -0.004588 0.007645 436651.000000 0 0 1
-32.369024 30.083228 -31.492031 54.263269 -0.748814 2.189962 -0.005437 0.008047 201444.000000 0 0 1
-33.065134 30.057428 -30.228721 53.949306 -0.737786 2.165565 -0.007625 0.008860 -75898.500000 0 0 1
-33.389034 31.394328 -29.808491 54.671542 -0.754617 2.147458 -0.012913 0.011412 109987.000000 0 0 1
-34.386665 31.511028 -28.633601 54.729066 -0.741788 2.121384 -0.023991 0.017217 76405.900000 0 0 1
-33.837664 31.357628 -27.342211 53.627277 -0.747376 2.105814 -0.031382 0.015678 41936.200000 0 0 1
-34.843046 31.078228 -26.367211 53.620182 -0.728349 2.084884 -0.011813 0.014039 163253.000000 0 0 1
-34.320103 31.104328 -24.900791 52.587052 -0.736285 2.064074 0.003026 0.012528 -255005.000000 0 0 1
-33.976884 32.350728 -24.463891 52.910114 -0.760886 2.051459 0.001862 0.005363 -192331.000000 0 0 1
-33.623234 32.410128 -23.069291 52.087719 -0.767029 2.029619 0.001857 -0.002694 -23615.800000 0 0 1
-34.807499 32.266028 -22.054591 52.336063 -0.747525 2.005789 -0.007609 -0.004036 78863.400000 0 0 1
35.128046 33.330728 -21.788491 53.100427 0.759150 1.993608 -0.012450 -0.010648 270785.000000 0 0 1
-35.094053 34.283328 -20.787691 53.282898 -0.773713 1.971578 0.001772 -0.011209 262458.000000 0 0 1
-35.158080 33.754828 -19.303091 52.422212 -0.765038 1.947894 0.004987 -0.013314 -437869.000000 0 0 1
-34.201536 32.801128 -19.025891 51.065092 -0.764500 1.952585 0.003340 -0.014615 -530032.000000 0 0 1
-33.974734 32.709028 -17.647691 50.354782 -0.766420 1.928866 0.004457 -0.009290 -39296.800000 0 0 1
-32.800744 31.734628 -17.446691 48.860643 -0.768880 1.935926 -0.001924 0.002191 41764.500000 0 0 1
-32.728854 31.445328 -16.051091 48.141708 -0.765400 1.910718 0.003266 0.003612 -316392.000000 0 0 1
-31.562674 30.722828 -15.741491 46.774877 -0.771915 1.914034 0.004963 -0.000836 -398270.000000 0 0 1
-31.341114 30.695528 -14.233991 46.120357 -0.774992 1.884546 0.014391 -0.002596 -113793.000000 0 0 1
-32.236404 29.841328 -13.520891 45.961996 -0.746835 1.869389 0.018860 0.000493 258685.000000 0 0 1
-31.788724 29.555428 -12.216491 45.092005 -0.749008 1.845149 0.036217 -0.001144 -466340.000000 0 0 1
-32.746254 28.608628 -11.542891 44.988988 -0.718063 1.830270 0.031192 -0.002600 -362226.000000 0 0 1
-32.226754 28.072428 -10.332491 43.970277 -0.716612 1.808003 0.041897 0.000850 111068.000000 0 0 1
-32.962714 26.972928 -9.832991 43.712322 -0.685792 1.797686 0.041987 0.002510 -163655.000000 0 0 1
-32.153854 26.222028 -8.749591 42.403071 -0.684131 1.778633 0.039371 -0.000384 124473.000000 0 0 1
-31.927284 26.819828 -7.495891 42.365588 -0.698677 1.748666 0.031543 -0.002464 533170.000000 0 0 1
-30.796624 27.684528 -7.381291 42.063625 -0.732233 1.747189 0.037658 -0.006526 -79643.000000 0 0 1
-30.483744 28.171228 -5.959391 41.933174 -0.745993 1.713395 0.030845 -0.005874 480186.000000 0 0 1
-29.586504 27.226628 -5.276391 40.552322 -0.743885 1.701279 0.032964 -0.006946 945288.000000 0 0 1
-29.323744 27.660128 -3.970991 40.505967 -0.756212 1.668989 0.039291 -0.001995 -197376.000000 0 0 1
-28.760344 26.524128 -3.115291 39.247825 -0.744971 1.650255 0.030993 -0.009084 -219913.000000 0 0 1
-29.621794 25.436628 -2.895991 39.151749 -0.709531 1.644832 0.020517 -0.002375 252662.000000 0 0 1
-28.918624 24.598628 -2.008191 38.018576 -0.704851 1.623642 0.000406 -0.002324 380024.000000 0 0 1
-29.823514 23.407428 -1.689391 37.950016 -0.665444 1.615327 0.001717 -0.013631 59833.800000 0 0 1
-29.934034 22.575828 -2.785691 37.596203 -0.646175 1.644959 -0.003234 -0.004590 652760.000000 0 0 1
-31.044864 21.675628 -2.598491 37.952188 -0.609519 1.639317 0.012358 -0.004150 553589.000000 0 0 1
-31.138254 20.677728 -3.823991 37.573690 -0.586197 1.672746 0.005536 -0.002232 -392481.000000 0 0 1
-30.196764 19.657328 -3.914591 36.243332 -0.577060 1.679016 -0.007323 -0.004801 -175335.000000 0 0 1
-30.480454 18.892728 -5.055991 36.215415 -0.554874 1.710863 0.007022 -0.006713 -358258.000000 0 0 1
-29.318644 17.971728 -5.382791 34.807188 -0.549909 1.726065 0.004723 -0.001945 -481611.000000 0 0 1
-29.146044 16.941128 -4.418891 34.000298 -0.526518 1.701131 -0.010484 -0.009804 301937.000000 0 0 1
-28.181544 16.048728 -4.966291 32.808919 -0.517673 1.722751 -0.013056 -0.006555 20539.600000 0 0 1
-28.019924 14.792428 -4.041391 31.941586 -0.485737 1.697661 -0.020915 -0.012212 48238.000000 0 0 1
-29.188754 14.035428 -3.838691 32.614600 -0.448211 1.688768 -0.005560 -0.008832 237416.000000 0 0 1
-28.796294 12.866628 -3.137391 31.695739 -0.420202 1.669943 -0.005152 -0.007816 343257.000000 0 0 1
-29.955794 11.958428 -2.619891 32.360739 -0.379819 1.651844 0.003034 -0.008650 72776.300000 0 0 1
-30.753444 11.367728 -3.632691 32.987816 -0.354064 1.681142 -0.008625 -0.002665 94372.200000 0 0 1
-31.579884 10.356728 -3.197391 33.388234 -0.316901 1.666707 0.007194 -0.003965 -170882.000000 0 0 1
-32.665304 9.866828 -4.233791 34.384609 -0.293344 1.694240 -0.005203 -0.001608 540717.000000 0 0 1
-32.158454 9.072128 -5.320291 33.834526 -0.274962 1.728696 -0.004359 -0.003720 80077.000000 0 0 1
-33.230154 8.610528 -6.099291 34.865250 -0.253542 1.746640 -0.001689 0.003136 -309458.000000 0 0 1
-32.908124 7.588128 -7.209991 34.532713 -0.226624 1.781131 0.008365 0.000189 -657655.000000 0 0 1
-32.609564 6.292728 -6.710591 33.882357 -0.190629 1.770170 0.003562 0.005390 249382.000000 0 0 1
-32.084914 5.572928 -7.795091 33.485261 -0.171977 1.805744 0.008194 0.003897 -72404.200000 0 0 1
-31.140044 4.430328 -7.265191 32.281777 -0.141323 1.797796 0.013638 -0.002592 602506.000000 0 0 1
-29.866144 4.913128 -6.847991 31.032569 -0.163045 1.793299 0.006829 0.002571 200609.000000 0 0 1
-28.975904 3.908828 -6.472691 29.946247 -0.134090 1.788659 0.004745 0.002416 -228330.000000 0 0 1
-27.533294 4.433928 -6.317791 28.594693 -0.159668 1.793577 0.033304 0.002499 -36690.000000 0 0 1
-27.002314 5.118028 -7.433091 28.470511 -0.187318 1.834938 0.041429 -0.002543 170709.000000 0 0 1
-25.597484 5.115928 -7.301391 27.105612 -0.197261 1.843533 0.069631 -0.008800 127117.000000 0 0 1
-24.696384 5.601728 -8.467091 26.701730 -0.223050 1.893465 0.074959 -0.008739 -15633.500000 0 0 1
-24.821784 4.819328 -9.622891 27.054518 -0.191771 1.934443 0.074309 -0.019001 329593.000000 0 0 1
-23.887984 5.026728 -10.665791 26.639498 -0.207403 1.982722 0.077481 -0.022514 -291202.000000 0 0 1
-24.323684 4.261928 -11.891191 27.408139 -0.173456 2.019565 0.077473 -0.026296 -39660.900000 0 0 1
-25.422374 4.846628 -12.553691 28.764250 -0.188384 2.022428 0.063354 -0.012661 186087.000000 0 0 1
-25.888284 4.014328 -13.587591 29.511705 -0.153838 2.049257 0.053172 -0.011310 192420.000000 0 0 1
-26.811834 4.714428 -14.604791 30.893368 -0.174055 2.063203 0.047467 -0.002463 -64580.500000 0 0 1
-26.014994 5.620728 -15.363291 30.731144 -0.212786 2.094309 0.030976 0.002472 555258.000000 0 0 1
-26.668144 6.727328 -16.033391 31.835774 -0.247105 2.098590 0.065707 0.002233 -13386.500000 0 0 1
-27.532254 6.220728 -17.243791 33.076741 -0.222212 2.119201 0.019095 0.012356 818277.000000 0 0 1
-28.836644 5.732028 -16.864191 33.894087 -0.196218 2.091575 0.019842 0.002637 433218.000000 0 0 1
-29.291524 4.989328 -17.999191 34.739857 -0.168714 2.115440 0.020718 0.015407 -476324.000000 0 0 1
-30.614984 4.298328 -17.684991 35.616173 -0.139488 2.090409 0.027497 0.009108 -737124.000000 0 0 1
-30.636304 3.126228 -16.843091 35.100515 -0.101691 2.071284 0.032521 0.002199 585946.000000 0 0 1
-29.881714 1.956128 -17.269491 34.568462 -0.065369 2.093903 0.046537 0.002304 372463.000000 0 0 1
-30.361854 0.704428 -16.460991 34.544213 -0.023197 2.067488 0.043646 -0.002031 -423783.000000 0 0 1
-29.522364 -0.412972 -16.574691 33.859429 0.013988 2.082330 0.041511 0.007127 149671.000000 0 0 1
-30.042414 -1.568072 -15.950891 34.050498 0.052148 2.058330 0.055529 -0.010429 -347002.000000 0 0 1
-29.831694 -2.885172 -16.686791 34.303108 0.096415 2.078820 0.050707 -0.006057 199308.000000 0 0 1
-30.609894 -3.040372 -17.892191 35.585671 0.099002 2.097622 0.043653 -0.006542 476291.000000 0 0 1
-30.581614 -4.386772 -18.328991 35.922567 0.142473 2.106256 0.038636 -0.007041 50718.900000 0 0 1
-31.383964 -4.629372 -19.626391 37.303881 0.146451 2.124830 0.050053 0.000927 -11716.200000 0 0 1
-31.287654 -5.929472 -20.205091 37.713680 0.187294 2.136192 0.043330 0.002255 -233000.000000 0 0 1
-32.167234 -6.065072 -21.261891 39.033115 0.186360 2.146845 0.036584 0.002310 -609737.000000 0 0 1
-32.096774 -7.392372 -21.985191 39.600489 0.226368 2.159369 0.039660 -0.004259 -197384.000000 0 0 1
-30.870224 -7.502272 -22.660391 39.022406 0.238404 2.190387 0.033531 -0.003931 -119297.000000 0 0 1
-30.964634 -8.454972 -23.671091 39.882523 0.266555 2.206222 0.019858 0.005963 -930.175000 0 0 1
-29.580624 -8.486272 -24.349791 39.242101 0.279383 2.240179 0.016554 0.008669 -111079.000000 0 0 1
-29.267434 -7.148772 -24.941491 39.112218 0.239566 2.262293 0.010799 0.010979 60181.500000 0 0 1
-29.306534 -7.061672 -26.361821 40.046046 0.236452 2.289338 0.009427 0.019370 -147207.000000 0 0 1
-30.651944 -6.939772 -27.102191 41.499770 0.222652 2.282426 0.006046 0.009448 -83900.500000 0 0 1
-31.566024 -8.000172 -26.983861 42.291198 0.248216 2.262758 0.005872 0.004606 226541.000000 0 0 1
-32.606314 -8.019072 -27.958111 43.693629 0.241150 2.265122 0.003892 0.007385 789826.000000 0 0 1
-33.638254 -9.169472 -27.753631 44.563162 0.266125 2.243104 0.017666 0.004371 -355189.000000 0 0 1
-33.115404 -10.415172 -28.162491 44.701585 0.304716 2.252364 0.009287 0.003638 -181665.000000 0 0 1
-33.953604 -11.518672 -27.978221 45.478653 0.327064 2.233429 0.007081 0.002974 1070190.000000 0 0 1
-35.339832 -11.601872 -28.805641 47.045426 0.317209 2.229755 0.012475 0.003710 1725770.000000 0 0 1
34.480932 -10.663872 -28.285881 45.855686 -0.299938 2.235525 0.007757 0.002372 -86729.300000 0 0 1
33.738802 -10.040672 -29.282881 45.788743 -0.289254 2.264672 0.014084 -0.003315 -90623.900000 0 0 1
32.546352 -9.180972 -28.812011 44.426200 -0.274945 2.276456 0.013732 -0.000612 204296.000000 0 0 1
31.470572 -9.794272 -28.124851 43.328189 -0.301718 2.277213 0.007629 -0.000994 153799.000000 0 0 1
30.563142 -8.736472 -27.822161 42.243393 -0.278425 2.289774 0.014294 -0.001814 144975.000000 0 0 1
29.470182 -9.168172 -26.812261 40.883302 -0.301609 2.286070 0.018863 -0.002035 -127637.000000 0 0 1
29.957362 -9.374872 -25.493911 40.438488 -0.303286 2.252912 0.006970 0.007039 137154.000000 0 0 1
28.958852 -9.905672 -24.634491 39.288619 -0.329584 2.248510 -0.002104 0.006001 78848.300000 0 0 1
29.408982 -10.134672 -23.160391 38.781484 -0.331866 2.210805 -0.009037 0.004953 -123490.000000 0 0 1
30.326812 -11.152472 -22.908791 39.609417 -0.352393 2.187522 -0.017890 0.008552 -129798.000000 0 0 1
30.683102 -11.111972 -21.562391 39.113494 -0.347460 2.154691 -0.012033 0.013531 156374.000000 0 0 1
31.559772 -12.289272 -21.001991 39.851337 -0.371332 2.125873 -0.004929 0.008542 807657.000000 0 0 1
32.911812 -12.339372 -21.459591 41.182053 -0.358703 2.118925 0.002855 0.008143 909428.000000 0 0 1
33.739582 -13.202272 -20.685591 41.719936 -0.372983 2.089575 0.016615 0.004843 563695.000000 0 0 1
35.205630 -13.398172 -21.210091 43.229797 -0.363644 2.083616 0.018039 -0.005623 -131371.000000 0 0 1
-34.692072 -12.353672 -20.897391 42.342107 0.342094 2.086948 0.030059 -0.008596 126817.000000 0 0 1
-34.707279 -11.197172 -21.690391 42.431650 0.312075 2.107358 0.024774 0.007337 -760617.000000 0 0 1
-34.269275 -11.270772 -23.195291 42.888635 0.317745 2.142215 0.026165 0.006101 236695.000000 0 0 1
-35.073242 -12.061772 -24.072191 44.216389 0.331232 2.146491 0.021420 0.006050 -327310.000000 0 0 1
34.375712 -11.714472 -24.303791 43.698887 -0.328435 2.160560 0.016331 0.006315 -498164.000000 0 0 1
33.703122 -12.730972 -25.300001 44.023495 -0.361170 2.183025 0.020158 -0.006231 -65663.300000 0 0 1
33.620482 -14.083272 -24.873991 44.129251 -0.396684 2.169609 0.026923 -0.008222 439475.000000 0 0 1
32.606882 -14.449772 -23.935591 42.952499 -0.417144 2.161875 0.015299 -0.006806 -23583.800000 0 0 1
-28.923744 8.965828 -19.300791 35.909464 -0.300589 2.138248 0.008027 0.009652 -167609.000000 0 0 1
-27.693414 8.386128 -19.604591 34.951285 -0.294042 2.166283 0.009347 0.010863 -479765.000000 0 0 1
-27.076374 8.824828 -20.781391 35.254416 -0.315067 2.201198 0.024165 -0.005097 -53988.000000 0 0 1
-25.825414 7.962828 -21.052291 34.257227 -0.299084 2.232594 0.025463 -0.000598 109886.000000 0 0 1
-24.842484 8.009228 -20.015991 32.892805 -0.311879 2.224993 0.033694 -0.003689 -454411.000000 0 0 1
-23.866984 7.065628 -20.275891 32.104015 -0.287822 2.254371 0.043420 -0.009086 -250093.000000 0 0 1
-22.491084 7.513728 -19.699591 30.828215 -0.322419 2.264009 0.052883 -0.014334 351085.000000 0 0 1
-21.923984 8.574728 -20.499391 31.215574 -0.372821 2.287236 0.057750 -0.015398 400550.000000 0 0 1
-20.784284 9.133528 -19.844091 30.152873 -0.414041 2.289110 0.044879 -0.004978 404803.000000 0 0 1
-19.931284 10.117428 -20.674791 30.447749 -0.469721 2.317230 0.051444 -0.004442 162831.000000 0 0 1
-19.210684 9.611628 -21.791791 30.599280 -0.463909 2.363376 0.057150 -0.005814 338907.000000 0 0 1
-18.419784 10.536028 -22.516491 30.940082 -0.519573 2.385825 0.060628 -0.005369 590640.000000 0 0 1
-17.458784 9.788328 -23.540691 30.899590 -0.510986 2.436953 0.050138 0.001322 319329.000000 0 0 1
-18.129384 8.954028 -24.503991 31.769400 -0.458752 2.451690 0.047575 -0.002336 -23583.900000 0 0 1
-17.274284 8.302828 -25.406821 31.825216 -0.448045 2.495303 0.038082 0.004477 -764192.000000 0 0 1
-18.040084 7.334928 -26.317751 32.739423 -0.386175 2.504544 0.017982 0.008848 -40328.100000 0 0 1
-18.610784 6.246128 -25.606611 32.265677 -0.323806 2.487528 0.029286 0.005166 388530.000000 0 0 1
-19.415984 5.430828 -26.458951 33.264853 -0.272739 2.490468 0.020647 0.003264 -324084.000000 0 0 1
-19.924984 4.155728 -25.687191 32.773569 -0.205621 2.471522 0.020438 0.009540 757489.000000 0 0 1
-18.927484 3.118028 -25.455571 31.874094 -0.163269 2.495810 0.023852 0.002412 915061.000000 0 0 1
-17.783984 3.474028 -24.715391 30.646199 -0.192916 2.508962 0.021340 -0.001696 -427135.000000 0 0 1
-16.849084 2.296628 -24.374191 29.719814 -0.135471 2.532439 0.023478 -0.005778 -152934.000000 0 0 1
-17.183484 1.476128 -23.228591 28.931272 -0.085693 2.502922 0.029179 -0.007212 529031.000000 0 0 1
-18.444584 0.808928 -23.378091 29.789129 -0.043829 2.473147 0.024277 -0.006644 397727.000000 0 0 1
-18.974084 0.041328 -22.146991 29.163449 -0.002178 2.433201 0.058908 -0.009304 284938.000000 0 0 1
-18.164784 -1.069872 -21.706891 28.324779 0.058830 2.443947 0.058251 -0.013002 398276.000000 0 0 1
-18.802784 -1.804972 -20.676991 28.006081 0.095702 2.401348 0.060887 -0.013339 79560.200000 0 0 1
-18.057884 -3.152872 -20.406291 27.430722 0.172856 2.409715 0.043055 -0.027057 104805.000000 0 0 1
-18.081084 -4.019072 -21.501991 28.379820 0.218724 2.430502 0.041890 -0.028856 250172.000000 0 0 1
-18.470484 -5.301572 -21.064791 28.512995 0.279515 2.402053 0.044887 -0.024166 -254195.000000 0 0 1
-18.634884 -6.358672 -22.218091 29.687290 0.328835 2.416449 0.020091 -0.022129 252139.000000 0 0 1
-17.411584 -6.558272 -22.933491 29.531664 0.360226 2.460004 0.030995 -0.013034 305445.000000 0 0 1
-17.402984 -7.435672 -24.010691 30.572314 0.403787 2.474096 0.040296 -0.014108 -357647.000000 0 0 1
-16.028184 -7.614572 -24.643991 30.367922 0.443509 2.517535 0.045387 -0.015999 -871655.000000 0 0 1
-16.122884 -8.557372 -25.680621 31.506671 0.487951 2.523673 0.035372 -0.027056 1221590.000000 0 0 1
-14.882184 -8.691772 -26.427171 31.550304 0.528601 2.563708 0.051575 -0.028452 1065270.000000 0 0 1
-13.700584 -9.473772 -25.832581 30.737284 0.604989 2.568875 0.058748 -0.034554 -555487.000000 0 0 1
-13.114484 -8.833372 -24.745691 29.366092 0.592759 2.573005 0.046829 -0.028126 -311516.000000 0 0 1
-12.315684 -9.731972 -24.044691 28.714709 0.668743 2.563241 0.024534 -0.022020 -93179.000000 0 0 1
-11.460884 -9.145272 -22.890991 27.184285 0.673493 2.571901 0.035100 -0.023495 300105.000000 0 0 1
-12.254584 -8.829272 -21.734391 26.467237 0.624344 2.534274 0.028596 -0.020338 -41103.700000 0 0 1
-11.494884 -8.235172 -20.746291 25.106951 0.621662 2.543332 0.026598 -0.022203 -928442.000000 0 0 1
-12.116684 -7.805572 -19.369891 24.144019 0.572287 2.501875 0.014478 -0.019609 -25715.700000 0 1 0
-13.024084 -6.719072 -19.263391 24.204358 0.476283 2.491231 0.014968 -0.014344 606347.000000 0 1 0
-14.379084 -7.112872 -19.483291 25.237861 0.459373 2.452757 0.029600 -0.028247 260651.000000 0 0 1
-15.338284 -5.911172 -19.280691 25.336731 0.367846 2.435615 0.032876 -0.021325 -343718.000000 0 0 1
-15.508384 -5.440472 -17.951391 24.338471 0.337395 2.400265 0.028033 -0.017261 294255.000000 0 1 0
-15.176484 -4.072672 -17.891591 23.812210 0.262177 2.420920 0.029966 -0.019300 -597865.000000 0 1 0
-14.988584 -3.632672 -16.414491 22.523088 0.237778 2.387342 0.040775 -0.021114 188783.000000 0 1 0
-16.080984 -3.504572 -15.498591 22.607220 0.214578 2.326168 0.049014 -0.021661 -125074.000000 0 1 0
-16.801384 -2.326672 -15.718191 23.124910 0.137606 2.318161 0.032637 -0.018214 -744471.000000 0 1 0
-18.031084 -2.287572 -14.843991 23.466935 0.126194 2.255636 0.030305 -0.020404 -692324.000000 0 1 0
-17.600084 -2.350072 -13.483491 22.295523 0.132741 2.220264 0.029613 -0.030660 388966.000000 0 1 0
-18.417784 -1.632572 -12.595691 22.372561 0.088410 2.168804 0.016262 -0.029355 -278054.000000 0 1 0
-17.790984 -0.330472 -12.006491 21.465883 0.018573 2.164372 0.009559 -0.016007 -30266.300000 0 1 0
-17.629584 0.656128 -12.993391 21.910293 -0.037200 2.205609 0.035823 -0.018578 1004020.000000 0 1 0
-16.551984 1.534428 -12.596091 20.856274 -0.092439 2.219241 0.032562 -0.010176 -195745.000000 0 1 0
-16.099284 2.380628 -13.807491 21.342473 -0.146808 2.274373 0.044078 -0.004077 -93931.000000 0 1 0
-15.358784 1.674928 -14.776291 21.378410 -0.108624 2.333914 0.043101 -0.019224 -202477.000000 0 1 0
-14.011384 1.546728 -14.399591 20.150917 -0.109946 2.366830 0.039253 -0.015383 -1033580.000000 0 1 0
-13.250184 0.447928 -15.232891 20.194281 -0.033793 2.425410 0.029019 -0.022961 -290459.000000 0 1 0
-12.949884 0.927628 -16.520191 21.011347 -0.071510 2.475514 0.034800 -0.024284 87058.600000 0 1 0
-12.377984 -0.106172 -17.296991 21.269971 0.008577 2.520446 0.002007 -0.017051 -373271.000000 0 1 0
-11.766684 0.392128 -18.602891 22.015362 -0.033313 2.577354 0.014740 -0.019377 -599986.000000 0 1 0
-10.641784 1.186928 -18.432991 21.317400 -0.111076 2.615334 -0.008257 -0.005623 -802899.000000 0 1 0
-10.371684 1.861428 -19.617191 22.268159 -0.177582 2.648668 -0.008405 0.003735 617372.000000 0 1 0
-8.980684 2.569828 -19.547491 21.664743 -0.278703 2.695807 -0.016752 0.005545 1117320.000000 0 1 0
-7.836984 1.651928 -19.522491 21.101536 -0.207745 2.752277 -0.019609 0.003201 1528550.000000 0 1 0
-6.583084 2.297928 -19.298991 20.519954 -0.335842 2.794891 -0.004460 0.003995 702809.000000 0 1 0
-6.002784 3.250028 -20.372791 21.485965 -0.496232 2.818288 0.003353 0.008401 -919109.000000 0 1 0
-6.002384 2.710528 -21.709291 22.686315 -0.424163 2.847044 0.003191 0.007124 334210.000000 0 1 0
-6.040184 3.762928 -22.643991 23.735917 -0.557147 2.837092 0.001698 0.009827 -339347.000000 0 1 0
-5.539484 3.298828 -24.026791 24.876793 -0.537113 2.879429 0.012839 -0.003209 873947.000000 0 1 0
-4.113384 3.093328 -24.033791 24.578684 -0.644790 2.930634 0.025589 -0.005103 864451.000000 0 1 0
-3.644984 2.526228 -25.264671 25.650952 -0.606060 2.967828 0.039834 -0.012057 -495129.000000 0 0 1
-2.270284 1.907528 -25.102911 25.277440 -0.698786 3.024013 0.044946 -0.015243 -997594.000000 0 0 1
-1.211784 2.823528 -24.970591 25.158918 -1.165396 3.019160 0.051754 -0.016706 -41278.200000 0 0 1
0.076616 2.251728 -24.977191 25.078601 1.536784 3.051633 0.053546 -0.015507 229512.000000 0 0 1
0.616316 1.337928 -23.828091 23.873580 1.139122 3.079851 0.047090 -0.015563 -811658.000000 0 1 0
0.148316 0.038928 -23.761491 23.761986 0.256675 3.135139 0.043769 -0.016456 -333220.000000 0 1 0
0.865816 -0.706972 -22.793491 22.820883 -0.684745 3.092592 0.041104 -0.016111 -871206.000000 0 1 0
0.568616 -2.212972 -22.712191 22.826830 -1.319290 3.041330 0.040125 -0.019530 -270041.000000 0 1 0
-0.613184 -2.500372 -21.993591 22.143755 1.330305 3.025068 0.041293 -0.021024 234918.000000 0 1 0
-1.769784 -2.561872 -22.850591 23.061761 0.966260 3.006162 0.045435 -0.021210 456171.000000 0 1 0
-2.621284 -1.239772 -22.871991 23.055068 0.441786 3.015487 0.044194 -0.018882 -1077640.000000 0 1 0
-3.399084 -1.131172 -21.650091 21.944470 0.321259 2.977612 0.039100 -0.016178 73948.400000 0 1 0
-4.384684 -0.157872 -21.703291 22.142340 0.035990 2.942122 0.020162 -0.012245 -256564.000000 0 1 0
-5.685084 -0.507772 -22.441991 23.156446 0.089080 2.892541 0.020256 -0.005675 -555306.000000 0 1 0
-6.404484 -1.550772 -21.769991 22.745435 0.237566 2.847670 0.019013 -0.002049 1257040.000000 0 1 0
-7.829484 -1.408372 -21.997891 23.392126 0.177977 2.794593 0.002956 0.006499 1132730.000000 0 1 0
-8.654184 -2.619372 -21.615991 23.430900 0.293906 2.745413 0.004546 -0.009193 -396141.000000 0 1 0
-8.542884 -3.744272 -22.462491 24.322088 0.413074 2.748015 0.023249 -0.011183 -212222.000000 0 1 0
-9.107484 -4.904072 -21.957491 24.271951 0.493945 2.701342 0.015260 -0.005638 -486660.000000 0 1 0
-10.121984 -5.579772 -22.913791 25.663792 0.503805 2.674420 0.018977 -0.016162 393959.000000 0 0 1
-11.321684 -4.785672 -22.949591 26.033957 0.399921 2.649879 0.009475 -0.019339 191010.000000 0 0 1
-12.334184 -5.546272 -23.560591 27.166058 0.422577 2.620509 0.010471 -0.019964 1063360.000000 0 0 1
-13.837084 -5.155972 -23.239291 27.533863 0.356682 2.575542 -0.001830 -0.017344 1165820.000000 0 0 1
-14.187684 -3.855272 -23.669391 27.863840 0.265327 2.585769 0.010825 -0.021643 -433568.000000 0 0 1
-15.548784 -3.777672 -23.998691 28.843936 0.238338 2.553533 0.026081 -0.019046 -99348.600000 0 0 1
-15.956884 -2.335672 -24.477191 29.312291 0.145342 2.559018 0.015401 -0.020555 -324043.000000 0 0 1
-15.377184 -1.958272 -25.695841 30.009480 0.126667 2.598777 0.011170 -0.013962 -59834.800000 0 0 1
-15.651584 -0.625572 -26.163831 30.494417 0.039947 2.602135 0.003001 -0.019263 -302197.000000 0 0 1
-17.119284 -0.452472 -26.629761 31.660998 0.026424 2.570092 0.019189 -0.016330 -185652.000000 0 0 1
-17.440984 -1.200872 -27.782221 32.825018 0.068745 2.579935 0.014793 -0.020432 -100844.000000 0 0 1
-16.849184 -0.826472 -28.984511 33.536248 0.049012 2.614502 0.008617 -0.010441 -691687.000000 0 0 1
-17.148084 -1.785172 -30.166671 34.745815 0.103730 2.622380 0.003690 -0.005451 447589.000000 0 0 1
-18.479284 -1.767972 -30.681461 35.860308 0.095383 2.597472 0.003843 -0.004347 516285.000000 0 0 1
-18.601084 -2.700072 -31.737801 36.886024 0.144150 2.606907 0.004272 -0.011073 190763.000000 0 0 1
-20.081284 -3.064872 -32.106591 37.993218 0.151455 2.577476 -0.014083 -0.002365 437738.000000 0 0 1
-20.856684 -1.994672 -32.586661 38.741069 0.095347 2.570184 -0.012142 -0.006255 -33003.600000 0 0 1
-21.644284 -1.429672 -31.564031 38.298917 0.065957 2.539495 -0.017827 0.006473 -874748.000000 0 0 1
-22.623484 -0.439972 -32.155231 39.318882 0.019445 2.528385 -0.012566 0.008965 -851759.000000 0 0 1
-22.228184 0.905328 -32.260401 39.187310 -0.040706 2.537884 -0.016094 -0.000623 395263.000000 0 0 1
-23.293084 1.737528 -32.716671 40.199096 -0.074456 2.521571 -0.012389 0.000521 186956.000000 0 0 1
-22.767684 2.950028 -33.500781 40.612466 -0.128853 2.540802 -0.011175 0.001081 -613158.000000 0 0 1
-22.226484 4.042528 -32.746271 39.782872 -0.179912 2.537688 -0.017858 -0.004104 466681.000000 0 0 1
-23.136484 4.838628 -31.993171 39.777785 -0.206163 2.505289 -0.016911 -0.005944 -92998.700000 0 0 1
-24.283384 5.552328 -32.737591 41.137099 -0.224783 2.491151 -0.016830 -0.008521 -61486.200000 0 0 1
-25.294174 4.714528 -33.286241 42.071319 -0.184273 2.483542 -0.016220 -0.025293 23672.600000 0 0 1
-26.017514 5.465928 -34.248883 43.356354 -0.207075 2.481506 -0.006459 -0.027487 -596938.000000 0 0 1
-27.373844 4.845028 34.392058 44.222339 -0.175181 0.679785 0.004776 -0.016709 -455852.000000 0 0 1
-27.193674 3.493428 33.875513 43.580389 -0.127765 0.680416 0.002490 -0.013138 331585.000000 0 0 1
-28.480004 3.012628 33.571511 44.127462 -0.105389 0.706275 -0.000387 -0.009954 52985.900000 0 0 1
-28.416194 1.529628 33.347464 43.839174 -0.053778 0.706440 0.007806 0.016079 -81929.300000 0 0 1
-28.233664 0.697328 -34.462624 44.556689 -0.024693 2.455071 -0.005816 0.022503 149099.000000 0 0 1
-28.349044 -0.689472 34.211482 44.436125 0.024316 0.692108 -0.005498 0.020520 -553279.000000 0 0 1
-28.031964 -1.658872 -33.562171 43.760281 0.059109 2.444879 -0.052850 0.030959 1830270.000000 0 0 1
-26.670294 -1.635372 -32.980751 42.446542 0.061241 2.460674 -0.043710 0.026991 2292900.000000 0 0 1
-26.332484 -0.387572 -32.290541 41.668081 0.014717 2.457427 -0.036662 0.026734 -816831.000000 0 0 1
-26.908894 -0.240172 -30.911251 40.983554 0.008925 2.425285 -0.010167 0.020447 -574658.000000 0 0 1
-26.176724 -1.035472 -30.048271 39.864667 0.039536 2.424557 -0.013857 0.014573 294693.000000 0 0 1
-26.461444 -0.691472 -28.682211 39.030186 0.026125 2.396275 -0.002995 0.008582 161440.000000 0 0 1
-25.276374 -1.112972 -27.764741 37.563475 0.044004 2.402592 0.010575 0.003675 194969.000000 0 0 1
-25.236374 -2.519572 -27.670181 37.534807 0.099509 2.399694 0.001968 0.015074 534223.000000 0 0 1
-24.247184 -2.981772 -26.736171 36.216567 0.122360 2.401240 0.025197 0.007323 170705.000000 0 0 1
-24.593184 -4.366872 -26.206941 36.203564 0.175733 2.380202 0.022740 0.005495 260070.000000 0 0 1
-25.647664 -4.379472 -25.248781 36.255805 0.169124 2.341174 0.018525 0.007097 269533.000000 0 0 1
-25.679564 -5.550772 -24.466091 35.900427 0.212880 2.320605 0.015778 0.005220 -244430.000000 0 0 1
-26.718184 -5.512872 -23.358991 35.915116 0.203479 2.278900 0.021112 0.001542 -220778.000000 0 0 1
-26.886864 -6.666872 -22.519091 35.699581 0.243058 2.253373 0.026611 -0.005651 -423560.000000 0 0 1
-27.897594 -6.410572 -21.587391 35.852289 0.225868 2.216950 0.032093 0.001097 -342728.000000 0 0 1
-28.382494 -7.603772 -20.713791 35.950584 0.261757 2.184836 0.027170 -0.003633 -746824.000000 0 0 1
-27.315764 -8.179572 -20.007991 34.833548 0.290948 2.182653 0.025428 -0.005299 -333621.000000 0 0 1
-27.562294 -9.072972 -18.938391 34.650563 0.318008 2.149040 0.031757 -0.013941 -171420.000000 0 0 1
-28.450634 -8.455872 -17.798991 34.608445 0.288897 2.110983 0.039836 -0.021230 -16428.600000 0 0 1
-27.765994 -7.616072 -16.917191 33.393807 0.267711 2.102029 0.033356 -0.024112 128752.000000 0 0 1
-28.615704 -6.790372 -16.117791 33.537306 0.232986 2.072127 0.042865 -0.022495 -264192.000000 0 0 1
-27.934214 -6.121972 -14.937891 32.263593 0.215746 2.052168 0.038863 -0.023712 -2674.740000 0 0 1
-26.930784 -5.219472 -15.374591 31.446591 0.191437 2.081638 0.033633 -0.013381 391812.000000 0 0 1
-26.135214 -4.758772 -14.293291 30.166098 0.180110 2.064420 0.026675 -0.026846 -224928.000000 0 0 1
-13.466584 21.511728 -4.655991 25.802743 -1.011470 1.752236 0.018724 0.001006 -291308.000000 0 0 1
-13.873284 20.966528 -5.870191 25.817096 -0.986249 1.800179 0.049494 -0.004985 335122.000000 0 0 1
-14.921484 20.006628 -5.689591 25.598580 -0.929971 1.794930 0.052926 -0.016653 398619.000000 0 0 1
-15.369184 19.351228 -7.078391 25.705747 -0.899588 1.849763 0.087457 -0.015593 -650520.000000 0 0 1
-14.278284 18.890428 -7.833691 24.941619 -0.923563 1.890285 0.078328 -0.012657 -237599.000000 0 1 0
-14.416084 17.819828 -8.746891 24.533199 -0.890597 1.935351 0.066020 -0.015891 -774719.000000 0 1 0
-14.817384 16.477228 -8.155991 23.613007 -0.838388 1.923464 0.057313 -0.005976 801640.000000 0 1 0
-16.232384 16.387528 -7.923691 24.389060 -0.790154 1.901689 0.059648 0.002023 868569.000000 0 1 0
-16.650484 15.441628 -6.888991 23.730585 -0.747748 1.865337 0.076335 -0.000696 -261292.000000 0 1 0
-18.115584 15.509728 -6.462491 24.708092 -0.708056 1.835428 0.065443 -0.011922 -308656.000000 0 1 0
-18.935884 15.052728 -7.503091 25.326837 -0.671643 1.871561 0.061965 -0.007562 -719004.000000 0 0 1
-20.275984 15.409728 -7.337991 26.503233 -0.649870 1.851333 0.031624 -0.007592 -759318.000000 0 0 1
-21.242784 14.770528 -8.292691 27.169709 -0.607578 1.880964 0.040013 0.005569 -680394.000000 0 0 1
-21.540784 13.451228 -7.922691 26.602818 -0.558207 1.873198 0.066191 -0.000005 87245.200000 0 0 1
-22.084884 12.687028 -8.993591 27.010877 -0.521433 1.910239 0.062452 0.002466 273604.000000 0 0 1
-22.600784 11.296628 -8.574091 26.681909 -0.463514 1.897946 0.051420 -0.008306 -241345.000000 0 0 1
-21.485784 10.490028 -8.301691 25.310031 -0.454188 1.904982 0.053345 -0.008454 -150825.000000 0 0 1
-21.743984 9.523328 -7.364791 24.854271 -0.412809 1.871633 0.060443 -0.010474 -745709.000000 0 1 0
-20.630784 8.527428 -7.080191 23.419551 -0.391949 1.877922 0.039510 -0.002522 -790652.000000 0 1 0
-20.529584 7.479528 -8.026791 23.277382 -0.349383 1.922856 0.048425 -0.001557 415569.000000 0 1 0
-19.527884 6.573828 -7.596991 21.960595 -0.324722 1.924034 0.042231 0.003685 -195629.000000 0 1 0
-19.303784 5.380128 -8.503891 21.769199 -0.271811 1.972122 0.033659 -0.010935 -13149.200000 0 1 0
-20.348384 4.412728 -8.605791 22.529726 -0.213552 1.962729 0.044492 -0.004418 501248.000000 0 1 0
-20.006584 3.499728 -9.607391 22.468054 -0.173177 2.012635 0.026159 -0.006082 91089.300000 0 1 0
-20.845584 2.177328 -9.659091 23.077634 -0.104073 2.002642 0.014789 -0.003282 182917.000000 0 1 0
-20.685284 1.412228 -8.481491 22.401140 -0.068166 1.959100 0.031670 -0.009934 -377266.000000 0 1 0
-21.603284 0.399028 -8.323991 23.154912 -0.018469 1.938519 0.035375 -0.005179 -719190.000000 0 1 0
-21.457584 -0.909072 -9.113491 23.330453 0.042341 1.972108 0.019521 -0.012626 -468789.000000 0 1 0
-20.456384 -1.811972 -8.722591 22.312115 0.088347 1.972444 0.015555 -0.008287 287615.000000 0 1 0
-20.505484 -3.132272 -9.319591 22.740730 0.151581 1.993052 0.003221 -0.011529 -319705.000000 0 1 0
-21.577884 -3.996572 -8.631891 23.581502 0.183141 1.945552 0.013375 -0.009198 -119822.000000 0 1 0
-21.134384 -4.354072 -7.338991 22.792124 0.203176 1.898634 -0.005664 -0.002415 111744.000000 0 1 0
-22.076384 -5.086672 -6.611891 23.599959 0.226460 1.854763 -0.001438 0.000323 -963117.000000 0 1 0
-22.181384 -6.580772 -6.864491 24.133827 0.288408 1.859213 -0.004990 -0.000109 -96371.900000 0 1 0
-21.043384 -7.334172 -6.446691 23.198576 0.335361 1.852395 -0.012462 -0.001151 925481.000000 0 1 0
-21.203384 -8.644272 -6.853391 23.901379 0.387113 1.861615 -0.006662 0.001850 -607342.000000 0 1 0
-20.317784 -9.593372 -6.090291 23.279536 0.441134 1.835492 0.001855 -0.002196 -1658010.000000 0 1 0
-18.984084 -9.407672 -6.378991 22.126710 0.460086 1.863241 -0.000657 -0.005155 -805136.000000 0 1 0
-18.097084 -10.249172 -5.665091 21.555585 0.515305 1.836733 0.010943 -0.001990 11281.200000 0 1 0
-17.648984 -11.592972 -6.302391 22.036419 0.581185 1.860845 0.014098 0.003337 -159912.000000 0 1 0
-16.554784 -11.587172 -7.209791 21.454709 0.610678 1.913513 0.013173 0.002090 639653.000000 0 1 0
-16.858584 -10.949272 -8.424491 21.796111 0.576008 1.967645 0.017011 -0.003363 118820.000000 0 1 0
-15.797684 -11.235172 -9.566891 21.617616 0.618197 2.029237 0.023024 -0.000137 523949.000000 0 1 0
-15.811784 -12.479072 -10.114691 22.539892 0.668137 2.036158 0.020991 0.001973 322919.000000 0 1 0
-15.070784 -12.623172 -11.345391 22.697817 0.697246 2.094216 0.030792 0.015139 301698.000000 0 1 0
-15.140184 -14.026572 -11.972191 23.860077 0.747236 2.096436 0.044436 0.005200 163405.000000 0 1 0
-16.073384 -14.195372 -13.034991 25.095284 0.723433 2.116968 0.032964 0.006447 75530.700000 0 0 1
-15.908484 -15.339672 -13.748191 26.026874 0.767197 2.127312 0.018467 0.010354 -209231.000000 0 0 1
-16.428384 -15.242572 -15.148191 27.049871 0.747974 2.165194 0.032863 0.015086 -165478.000000 0 0 1
-16.364484 -16.479172 -15.789091 28.082999 0.788890 2.167876 0.022401 0.023221 138404.000000 0 0 1
-16.578784 -16.383372 -17.182491 28.957019 0.779470 2.206047 0.022472 0.021357 -240160.000000 0 0 1
-16.931084 -17.817072 -17.728291 30.305148 0.810890 2.195667 0.024765 0.012059 859856.000000 0 0 1
-18.315484 -18.139272 -17.504791 31.159394 0.780564 2.167335 0.009253 0.010650 212186.000000 0 0 1
-19.089384 -18.135272 -18.700391 32.295469 0.759773 2.188348 0.015638 0.007480 -544913.000000 0 0 1
-20.571784 -18.120572 -18.347791 32.987799 0.722131 2.160602 0.011089 0.004357 -608902.000000 0 0 1
-20.944284 -16.948072 -17.572991 32.166912 0.680324 2.148744 0.009911 0.019593 268608.000000 0 0 1
-20.727084 -17.090572 -16.181491 31.361447 0.689534 2.112933 -0.002891 0.014214 -597169.000000 0 0 1
-20.480284 -15.744972 -15.576991 30.166021 0.655417 2.113409 0.005003 0.010839 532857.000000 0 0 1
-21.719384 -15.038172 -15.426291 30.591645 0.605597 2.099327 0.017163 0.009688 869316.000000 0 0 1
-21.561784 -13.638972 -15.270791 29.734309 0.564012 2.110142 0.016520 0.007090 988585.000000 0 0 1
-22.921784 -12.844372 -14.958391 30.234741 0.510760 2.088334 0.022004 -0.003487 1062490.000000 0 0 1
-23.337184 -13.201572 -13.645891 30.085146 0.514808 2.041570 0.039262 0.004311 363702.000000 0 0 1
-24.361384 -12.344372 -13.176291 30.322850 0.469008 2.020316 0.067666 -0.005513 76733.300000 0 0 1
-25.313284 -13.009672 -12.127991 30.937067 0.474742 1.973624 0.059386 -0.006913 136995.000000 0 0 1
-26.093664 -12.098472 -11.365591 30.926186 0.434152 1.947123 0.049493 -0.014589 90348.900000 0 0 1
-26.729234 -12.685272 -10.273491 31.319526 0.443109 1.905005 0.039451 -0.011445 -365342.000000 0 0 1
-27.654824 -11.733172 -9.528491 31.515849 0.401254 1.877943 0.041320 -0.015876 141261.000000 0 0 1
-26.897014 -10.661572 -8.943691 30.283793 0.377386 1.870596 0.042269 -0.019898 644587.000000 0 0 1
-27.781454 -9.658072 -8.427091 30.595807 0.334575 1.849836 0.059020 -0.018241 784729.000000 0 0 1
-26.988194 -8.507272 -7.681091 29.321246 0.305363 1.835852 0.042076 -0.012765 57197.500000 0 0 1
-26.106474 -8.874272 -6.673091 28.369541 0.327672 1.808242 0.014138 -0.012448 -382250.000000 0 0 1
-25.498414 -7.777172 -5.997291 27.324367 0.296043 1.792083 0.012086 -0.007719 -611570.000000 0 0 1
-26.299824 -6.678272 -5.278891 27.643205 0.248673 1.762942 0.027915 -0.009846 -512984.000000 0 0 1
-27.062574 -7.071472 -4.124391 28.273649 0.255586 1.717193 0.028879 -0.011279 222059.000000 0 0 1
-26.344234 -7.377972 -2.956391 27.517147 0.273065 1.678442 0.042464 -0.006580 -167465.000000 0 0 1
-25.767074 -6.232672 -2.089891 26.592404 0.237327 1.649467 0.038706 -0.006992 424351.000000 0 0 1
-26.847614 -5.442172 -1.622691 27.441661 0.199996 1.629963 0.035088 -0.014899 500278.000000 0 0 1
-26.365394 -4.365572 -0.838391 26.737523 0.164091 1.602158 0.013780 -0.006575 196177.000000 0 0 1
-27.506814 -3.402772 -0.322791 27.718367 0.123081 1.582442 0.014900 -0.003055 526444.000000 0 0 1
-28.358754 -3.748772 0.754409 28.615404 0.131429 1.544430 0.010163 -0.004896 101772.000000 0 0 1
-27.742754 -3.896372 2.009109 28.086983 0.139534 1.499204 0.002705 -0.001500 -340193.000000 0 0 1
-28.734954 -4.030372 3.177809 29.189724 0.139351 1.461713 -0.009133 -0.002044 4677.070000 0 0 1
-29.321784 -5.332972 3.329109 29.988174 0.179911 1.459553 0.001303 -0.010719 -183449.000000 0 0 1
-30.229264 -5.360872 4.388409 31.012989 0.175516 1.428818 0.012116 -0.012414 -156065.000000 0 0 1
-31.186774 -6.575572 4.188009 32.146422 0.207801 1.440146 0.017212 -0.011424 95918.400000 0 0 1
-30.386514 -7.789872 4.246909 31.655309 0.250955 1.436230 0.018837 -0.012335 342054.000000 0 0 1
-31.066164 -8.948672 4.006909 32.576688 0.280460 1.447485 0.028774 -0.015625 -1195950.000000 0 0 1
-30.252134 -10.210272 4.210209 32.205079 0.325501 1.439690 0.014623 -0.006418 -353694.000000 0 0 1
-29.976974 -10.431472 5.560109 32.223429 0.334877 1.397380 0.014018 -0.002026 155310.000000 0 0 1
-28.940194 -11.353872 5.763009 31.617361 0.373870 1.387498 0.019266 0.004344 -616834.000000 0 0 1
-28.914954 -11.793872 7.272309 32.063320 0.387282 1.341994 0.022941 -0.006327 -104723.000000 0 0 1
-28.725854 -10.730972 8.149509 31.729213 0.357512 1.311039 0.039393 -0.013476 258302.000000 0 0 1
-28.574254 -11.290672 9.448309 32.144017 0.376305 1.272453 0.034560 -0.013339 -143939.000000 0 0 1
-28.568294 -10.182772 10.575909 32.119871 0.342397 1.235273 0.033501 -0.012501 55900.100000 0 0 1
-27.449194 -9.317772 10.555709 30.849670 0.327250 1.221575 0.021517 -0.006078 195469.000000 0 0 1
-27.792384 -8.235472 11.394509 31.146018 0.288078 1.196259 0.025115 -0.008451 141413.000000 0 0 1
-26.826164 -7.021972 11.506209 30.022392 0.256014 1.177479 0.026904 0.002900 -112690.000000 0 0 1
-26.911284 -6.207872 10.392309 29.508558 0.226713 1.210898 0.029489 -0.001687 986609.000000 0 0 1
-26.055044 -5.019972 10.505509 28.538240 0.190336 1.193810 0.025583 -0.003179 241692.000000 0 0 1
-26.467754 -3.957772 9.418609 28.371044 0.148432 1.232395 0.023598 -0.010250 113125.000000 0 0 1
-25.998654 -4.469472 8.170209 27.616273 0.170248 1.270454 0.013124 -0.002874 971185.000000 0 0 1
-26.754754 -3.891972 7.097109 27.952339 0.144455 1.314086 0.004450 -0.016348 236182.000000 0 0 1
-26.068014 -4.415772 5.815309 27.071354 0.167801 1.354295 0.007709 -0.007201 150666.000000 0 0 1
-24.791484 -3.812372 5.686509 25.719414 0.152582 1.347856 0.041223 -0.014860 371009.000000 0 0 1
-24.122684 -4.306372 4.553709 24.923583 0.176659 1.387057 0.063277 -0.013827 604896.000000 0 1 0
-22.565984 -4.073772 4.607709 23.389105 0.178603 1.372497 0.069647 -0.011218 894222.000000 0 1 0
-22.363584 -2.671472 4.502509 22.968223 0.118893 1.373486 0.051757 -0.008927 717806.000000 0 1 0
-20.962184 -2.411772 4.406509 21.555675 0.114550 1.364921 0.039887 -0.000732 76607.000000 0 1 0
-20.552284 -0.944072 4.700509 21.104086 0.045903 1.346183 0.026315 -0.006629 -386073.000000 0 1 0
-20.696084 0.009528 3.719309 21.027631 -0.000460 1.392984 0.030813 -0.001903 1270650.000000 0 1 0
-21.978384 0.654928 3.842009 22.321275 -0.029790 1.397812 0.028176 -0.015123 631149.000000 0 1 0
-22.068084 1.874528 2.881409 22.334205 -0.084740 1.441422 0.049679 -0.007873 -255658.000000 0 1 0
-21.221484 2.937728 3.275309 21.672777 -0.137558 1.419090 0.010311 -0.002446 331044.000000 0 1 0
-21.270584 4.092128 2.461909 21.800098 -0.190062 1.457624 0.025371 0.000139 -180765.000000 0 1 0
-20.262884 4.177628 1.303609 20.730085 -0.203323 1.507870 0.019828 -0.000111 -658839.000000 0 1 0
-20.696484 5.004428 0.234509 21.294219 -0.237247 1.559783 0.045697 0.002192 1091940.000000 0 1 0
-21.778384 4.588928 -0.630391 22.265526 -0.207672 1.599113 0.066735 -0.001270 278469.000000 0 1 0
-21.427084 3.474128 -1.614791 21.766880 -0.160738 1.645050 0.072252 0.004894 -292470.000000 0 1 0
-21.493584 2.193428 -1.056891 21.631049 -0.101698 1.619676 0.060407 0.004691 754773.000000 0 1 0
-20.875284 1.161028 -1.848091 20.989066 -0.055560 1.658961 0.042988 0.004138 218066.000000 0 1 0
-19.871684 0.251328 -1.087991 19.903033 -0.012647 1.625488 0.027445 -0.001184 79012.200000 0 1 0
-20.578284 -0.611472 -0.207791 20.588415 0.029706 1.580889 0.027758 -0.000953 293160.000000 0 1 0
-19.791284 -1.336872 0.656309 19.847239 0.067446 1.537722 0.022754 -0.008252 -972726.000000 0 1 0
-19.248984 -2.637672 0.137809 19.429351 0.136181 1.563703 0.026327 -0.009791 -499117.000000 0 1 0
-18.332284 -3.175972 1.065809 18.635863 0.171542 1.513574 0.020319 -0.007198 342114.000000 0 1 0
-17.714484 -4.380172 0.692409 18.261114 0.242403 1.532870 0.013984 -0.007082 -548153.000000 0 1 0
-18.576384 -5.639072 0.566009 19.421677 0.294721 1.541649 0.008468 -0.004568 -424486.000000 0 1 0
-19.242684 -5.949172 1.771209 20.219068 0.299844 1.483083 0.032785 -0.012618 238194.000000 0 1 0
-20.121884 -7.012172 1.640909 21.371789 0.335324 1.493941 0.006501 -0.012541 -710554.000000 0 1 0
-20.896384 -7.310472 2.913009 22.329073 0.336536 1.439965 0.020324 -0.009371 -114957.000000 0 1 0
-20.055084 -7.931872 3.903909 21.917151 0.376625 1.391720 0.017782 -0.005620 952291.000000 0 1 0
-20.786784 -8.640872 4.905009 23.039405 0.393959 1.356258 0.021084 -0.002192 -27999.000000 0 1 0
-19.929884 -9.598972 5.757109 22.857928 0.448850 1.316190 0.017039 0.003510 -150712.000000 0 1 0
-19.628484 -10.797372 5.123109 22.980576 0.502910 1.345975 0.018347 0.002579 674258.000000 0 1 0
-18.570184 -11.370872 5.910909 22.562963 0.549428 1.305729 0.015620 0.002250 588924.000000 0 1 0
-17.864984 -12.631372 5.364309 22.527428 0.615439 1.330363 0.001948 0.001830 -297542.000000 0 1 0
-18.779384 -13.690772 5.454209 23.871550 0.629946 1.340279 0.007260 0.007007 418356.000000 0 1 0
-18.227384 -14.894872 4.851009 24.033873 0.685123 1.367560 0.002821 0.008375 124839.000000 0 1 0
-18.898884 -16.173872 5.379209 25.449909 0.707858 1.357825 0.008283 -0.000552 -168418.000000 0 0 1
-18.206184 -17.338672 5.010409 25.635891 0.760997 1.374085 0.001839 -0.003534 281684.000000 0 0 1
-18.741184 -18.426472 5.781409 26.910807 0.776931 1.354272 0.003857 -0.005520 334208.000000 0 0 1
-17.897184 -19.735972 5.556309 27.215627 0.834220 1.365192 0.005181 -0.008980 -241852.000000 0 0 1
-17.875584 -20.181772 4.189409 27.283541 0.845922 1.416636 0.007745 -0.005923 342828.000000 0 0 1
-17.020284 -21.304972 3.955109 27.554216 0.896734 1.426760 -0.003526 -0.006575 374643.000000 0 0 1
-15.494584 -21.021472 3.976709 26.415879 0.935613 1.419679 0.003743 -0.002847 143404.000000 0 0 1
-14.852984 -22.289572 4.290309 27.126425 0.983003 1.411970 0.000127 0.000443 943361.000000 0 0 1
-13.413684 -22.151872 4.349609 26.259312 1.026319 1.404389 -0.005636 0.004983 1060540.000000 0 0 1
-12.744884 -23.555772 4.323209 27.129258 1.074849 1.410758 0.006983 0.009630 -387915.000000 0 0 1
-12.730284 -24.244272 3.102209 27.558457 1.087283 1.457989 0.005638 0.011294 43808.100000 0 0 1
-12.123684 -25.489912 3.310109 28.419644 1.126837 1.454059 0.008838 0.000798 -304631.000000 0 0 1
17.998716 20.132428 -24.822191 36.679825 0.841297 2.314103 0.030968 0.014519 -396545.000000 0 0 1
17.214416 20.073028 -25.953611 37.052024 0.861913 2.346844 0.024725 0.006123 -459146.000000 0 0 1
17.894116 19.726028 -27.128311 38.016586 0.834055 2.365408 0.028911 0.005926 103949.000000 0 0 1
16.929816 19.797728 -28.382301 38.524326 0.863326 2.399028 0.024489 0.003344 512295.000000 0 0 1
16.654616 21.113728 -28.737821 39.357694 0.902919 2.389368 0.022120 0.014173 318064.000000 0 0 1
15.537616 21.276728 -29.598091 39.625290 0.940047 2.414258 0.014564 0.011357 -2422.380000 0 0 1
15.178316 22.712928 -29.957471 40.542674 0.981686 2.402251 0.016077 0.004868 -99026.400000 0 0 1
14.268616 23.340728 -29.033541 39.891471 1.022096 2.385924 0.022404 0.002905 667990.000000 0 0 1
14.175316 24.755828 -29.247741 40.856100 1.050764 2.368669 0.024031 0.002722 -448476.000000 0 0 1
13.542516 25.547128 -28.156641 40.359037 1.083360 2.342914 0.021703 0.002604 922257.000000 0 0 1
12.135316 25.268828 -27.961111 39.592970 1.123074 2.354933 0.031392 0.000566 888253.000000 0 0 1
11.623316 26.057928 -26.922091 39.229021 1.151226 2.327158 0.028050 0.004758 365146.000000 0 0 1
10.100816 25.692428 -26.720851 38.420453 1.196214 2.339891 0.032642 0.008531 1272900.000000 0 0 1
9.346016 26.541228 -25.846551 38.207708 1.232223 2.313762 0.032885 -0.005189 399827.000000 0 0 1
9.075316 27.878228 -26.294691 39.382327 1.256081 2.301881 0.039062 -0.010652 -563033.000000 0 0 1
8.503616 28.777928 -25.223721 39.200978 1.283481 2.269788 0.045494 -0.015529 165606.000000 0 0 1
9.501116 29.188928 -24.245591 39.116664 1.256109 2.239319 0.047370 -0.010848 604421.000000 0 0 1
9.069316 30.166328 -23.325991 39.196450 1.278749 2.208192 0.064738 -0.016231 35904.800000 0 0 1
10.110916 30.653028 -22.227991 39.190845 1.252184 2.173866 0.040143 -0.014155 305292.000000 0 0 1
11.200516 31.311928 -22.820891 40.332139 1.227272 2.172229 0.029061 -0.016929 16939.800000 0 0 1
12.031516 31.945428 -21.859991 40.535502 1.210600 2.140378 0.011969 -0.002774 546480.000000 0 0 1
13.354816 32.552628 -22.392391 41.706640 1.181482 2.137557 0.003230 0.014997 297714.000000 0 0 1
14.402116 31.724228 -22.789791 41.631985 1.144639 2.150063 -0.001738 0.007292 -331665.000000 0 0 1
15.498616 32.408328 -23.342591 42.841374 1.124716 2.147020 -0.006085 0.011474 -189671.000000 0 0 1
16.729416 31.522828 -23.501191 42.730177 1.082885 2.153149 -0.017622 0.010036 -313611.000000 0 0 1
17.440116 31.175428 -22.327891 42.125997 1.060751 2.129428 0.000119 0.010318 -272634.000000 0 0 1
18.608116 30.529728 -22.761691 42.384205 1.023415 2.137712 0.006766 0.006426 -306517.000000 0 0 1
19.496616 29.838428 -21.695391 41.726967 0.992030 2.117573 0.021990 0.011236 -203019.000000 0 0 1
20.176116 30.821228 -20.957891 42.382271 0.991182 2.088052 0.022977 0.021082 -281747.000000 0 0 1
21.067016 30.138728 -20.113691 41.913275 0.960741 2.071324 0.027624 0.003174 -193466.000000 0 0 1
21.766316 31.029528 -19.108291 42.446801 0.959084 2.037752 0.033161 0.002183 21686.500000 0 0 1
22.780916 31.929928 -19.591091 43.844056 0.951090 2.034022 0.025825 0.008187 464932.000000 0 0 1
23.353416 32.484428 -18.428691 44.048118 0.947491 2.002453 0.040365 0.008309 122974.000000 0 0 1
24.748416 33.149128 -18.603291 45.358915 0.929489 1.993399 0.032562 0.009012 653433.000000 0 0 1
25.804616 32.310728 -19.043191 45.524767 0.896886 2.002374 0.033615 0.007422 -511218.000000 0 0 1
27.006116 33.025528 -18.965491 46.687318 0.885335 1.989114 0.024087 0.005058 -349049.000000 0 0 1
28.216616 32.262328 -19.507891 47.091326 0.852193 1.997922 0.008386 0.004712 -343659.000000 0 0 1
28.503816 31.180028 -18.669291 46.186622 0.830208 1.986916 0.027072 0.009201 178048.000000 0 0 1
29.648016 30.459728 -19.146391 46.619568 0.798902 1.994012 0.009323 0.004861 208360.000000 0 0 1
29.954616 29.290628 -18.208891 45.681327 0.774191 1.980794 0.002831 0.002215 -356434.000000 0 0 1
30.448516 29.766328 -16.974791 45.839829 0.774069 1.950135 -0.000813 0.010428 35925.900000 0 0 1
30.658416 28.800128 -15.944491 44.984582 0.754155 1.933115 0.003855 0.007532 -323561.000000 0 0 1
31.013116 29.433828 -14.586791 45.176742 0.759277 1.899570 0.002159 0.002418 834645.000000 0 0 1
32.269616 30.152828 -14.613891 46.519748 0.751500 1.890351 -0.005691 0.008276 668523.000000 0 0 1
32.253716 31.464528 -15.092291 47.519427 0.773013 1.893996 0.003959 0.004591 -151443.000000 0 0 1
33.684116 32.036928 -15.228291 48.917126 0.760340 1.887365 0.007655 0.001404 563235.000000 0 0 1
34.315716 32.184228 -13.940091 49.068513 0.753357 1.858858 0.010046 -0.001605 695171.000000 0 0 1
-35.032660 32.072128 -13.995091 49.515364 -0.741309 1.857343 0.016591 -0.007183 842003.000000 0 0 1
-34.417060 32.230328 -12.574391 48.800035 -0.752599 1.831408 0.018073 -0.000703 -322728.000000 0 0 1
-34.818460 33.434328 -12.047091 49.752506 -0.765121 1.815368 0.035588 -0.011311 368444.000000 0 0 1
-34.092260 33.773328 -10.858891 49.201986 -0.780699 1.793329 0.023825 -0.004606 101662.000000 0 0 1
-34.640060 -34.032297 -10.142991 49.608581 0.776548 1.776709 0.028310 -0.003470 -223313.000000 0 0 1
-33.852460 -33.336297 -9.219791 48.397338 0.777716 1.762470 0.022224 -0.003506 -468261.000000 0 0 1
-33.498260 -34.057197 -8.077091 48.448586 0.793672 1.738293 0.013301 -0.004266 -9416.380000 0 0 1
-32.941460 -33.148597 -7.021491 47.257493 0.788532 1.719928 0.029725 0.000032 -287806.000000 0 0 1
-33.927260 -32.266397 -6.529791 47.273857 0.760312 1.709366 0.012808 0.004328 -139966.000000 0 0 1
-33.494060 -31.381497 -5.550091 46.232607 0.752846 1.691134 0.022054 0.008517 132551.000000 0 0 1
-34.704660 -30.494697 -5.110191 46.480684 0.720917 1.680961 0.006009 0.012737 651685.000000 0 0 1
35.068116 -31.268297 -4.437991 47.192954 -0.728180 1.664975 0.004254 0.000797 1058630.000000 0 0 1
33.781916 -30.631697 -4.339491 45.807749 -0.736531 1.665671 0.004144 0.005834 637426.000000 0 0 1
33.651316 -29.637197 -3.184091 44.954565 -0.722057 1.641685 0.006672 0.005719 -799654.000000 0 0 1
34.277916 -28.405597 -3.389691 44.646875 -0.691989 1.646792 0.014984 0.005762 214196.000000 0 0 1
33.689816 -27.374297 -2.601891 43.487075 -0.682340 1.630663 0.011402 0.003755 -74278.500000 0 0 1
34.377116 -26.020497 -2.839591 43.207819 -0.647911 1.636563 0.004298 -0.006265 -373235.000000 0 0 1
34.215416 -25.493397 -4.133491 42.868330 -0.640348 1.667369 0.016615 -0.015014 250973.000000 0 0 1
33.447416 -24.294797 -4.167591 41.549195 -0.628198 1.671270 0.031007 -0.019210 -263132.000000 0 0 1
33.039016 -23.753097 -5.553691 41.068597 -0.623325 1.706442 0.028303 -0.023028 -1232440.000000 0 0 1
34.072816 -23.450497 -6.380691 41.852070 -0.602794 1.723851 0.026784 -0.024609 -680991.000000 0 0 1
33.541116 -23.285597 -7.659991 41.543964 -0.606850 1.756240 0.014859 -0.022517 284965.000000 0 0 1
34.687016 -23.285997 -8.706091 42.675786 -0.591215 1.776244 0.017747 -0.034975 269289.000000 0 0 1
35.148216 -24.555597 -9.158991 43.843603 -0.609806 1.781248 0.010555 -0.013367 -13115.300000 0 0 1
-34.649660 -24.378197 -10.155891 43.566473 0.613113 1.806074 0.030431 -0.017212 -188265.000000 0 0 1
-34.361560 -25.759797 -10.825191 44.288472 0.643289 1.817723 0.028666 -0.011713 -251391.000000 0 0 1
-33.656660 -26.716997 -10.045591 44.130291 0.670955 1.800444 0.026567 -0.003167 629601.000000 0 0 1
-34.513960 -27.613097 -9.311291 45.170751 0.674775 1.778420 0.019015 -0.006260 546780.000000 0 0 1
-33.630960 -28.749497 -8.717191 45.095060 0.707304 1.765328 0.021500 0.000819 262484.000000 0 0 1
-32.991060 -29.539497 -9.685191 45.329845 0.730256 1.786117 0.029669 0.002194 431295.000000 0 0 1
-32.077560 -30.481297 -9.104491 45.177108 0.759888 1.773715 0.030781 -0.003888 219575.000000 0 0 1
-31.330560 -31.457497 -10.035291 45.517965 0.787420 1.793091 0.025996 0.000333 153186.000000 0 0 1
-30.273160 -30.839797 -10.767291 44.536410 0.794670 1.814979 0.015574 0.015068 288959.000000 0 0 1
-29.766260 -31.588897 -11.840191 44.989763 0.815096 1.837108 0.002974 0.013276 -168622.000000 0 0 1
-30.083760 -31.066297 -13.267191 45.234564 0.801464 1.868471 0.005148 0.013653 -530825.000000 0 0 1
-29.155960 -30.059097 -13.582491 44.023896 0.800649 1.884439 0.000847 0.014863 -71495.300000 0 0 1
-29.476060 -29.429797 -14.778591 44.196808 0.784613 1.911745 -0.002189 0.022170 128553.000000 0 0 1
-28.329160 -28.517197 -15.292191 43.007243 0.788706 1.934323 -0.004690 0.004839 410288.000000 0 0 1
-27.171360 -29.217897 -15.697391 42.876292 0.821675 1.945620 -0.000417 0.001741 -694063.000000 0 0 1
-26.195260 -28.385397 -16.176191 41.875907 0.825503 1.967401 0.012277 0.008047 28394.500000 0 0 1
-24.974360 -29.119497 -16.843191 41.896979 0.861877 1.984512 0.015874 0.012176 218425.000000 0 0 1
-25.246660 -29.615597 -18.221591 42.970965 0.864865 2.008703 0.007952 0.016438 -4242.530000 0 0 1
-25.497860 -28.705797 -19.272191 42.960226 0.844512 2.036001 0.007398 0.013971 -81005.600000 0 0 1
-24.296260 -27.882897 -19.775191 41.938316 0.854027 2.061822 0.011244 0.008934 86054.900000 0 0 1
-24.050060 -26.773397 -18.888791 40.644884 0.838931 2.054123 0.004929 0.004601 339621.000000 0 0 1
-22.748260 -26.221197 -19.102891 39.622657 0.856200 2.073870 0.018278 -0.002115 686391.000000 0 0 1
-22.320960 -25.187697 -18.047391 38.188397 0.845666 2.063022 0.013935 -0.010189 -206524.000000 0 0 1
-22.441760 -25.566597 -16.705891 37.899476 0.850396 2.027280 0.023654 -0.009016 146025.000000 0 0 1
-21.875160 -24.569197 -15.886891 36.531649 0.843339 2.020702 0.024218 -0.006143 -92517.100000 0 0 1
-22.319160 -24.683497 -14.412591 36.264896 0.835658 1.979506 0.018625 -0.000723 304007.000000 0 0 1
-23.622260 -24.127097 -14.276791 36.659988 0.795970 1.970818 -0.002776 0.011568 76693.100000 0 0 1
-23.940460 -24.223097 -12.926891 36.428129 0.791266 1.933561 0.001012 0.015986 -1016280.000000 0 0 1
-25.424860 -24.042997 -12.671891 37.216475 0.757471 1.918236 0.016007 0.019940 -1039320.000000 0 0 1
-26.109960 -25.135997 -13.263491 38.593634 0.766395 1.921619 0.020660 0.017567 -417917.000000 0 0 1
-27.337660 -25.376297 -12.639791 39.383606 0.748208 1.897519 0.016331 0.016547 -558455.000000 0 0 1
-28.599160 -24.720997 -13.263191 40.061851 0.712792 1.908231 0.020668 0.011502 -527595.000000 0 0 1
-28.926460 -23.455197 -12.706391 39.348936 0.681326 1.899605 0.025214 0.015304 337558.000000 0 0 1
-29.509860 -23.511097 -11.382991 39.410354 0.672738 1.863803 0.031745 0.008654 474382.000000 0 0 1
-31.033960 -23.921597 -11.320191 40.785981 0.656693 1.852040 0.027839 0.002912 470366.000000 0 0 1
-32.020560 -22.986497 -11.679991 41.111039 0.622617 1.858873 0.044747 -0.014080 -2765.740000 0 0 1
-32.125960 -22.629297 -13.065991 41.411140 0.613668 1.891800 0.051838 -0.008457 -394173.000000 0 0 1
-33.567460 -22.276997 -13.532591 42.499059 0.585910 1.894860 0.036853 -0.019063 304212.000000 0 0 1
-34.350360 -23.447597 -13.468391 43.716525 0.598953 1.883975 0.037846 -0.014633 -17833.100000 0 0 1
35.093116 -23.243297 -13.903991 44.329433 -0.584996 1.889832 0.046659 -0.021979 83238.200000 0 0 1
34.053516 -24.169397 -13.264591 43.814964 -0.617238 1.878364 0.033059 -0.009053 -342718.000000 0 0 1
34.196416 -25.473997 -13.787691 44.815397 -0.640250 1.883524 0.023252 0.005065 145877.000000 0 0 1
33.235016 -26.355997 -13.242391 44.436086 -0.670470 1.873403 0.022133 -0.006711 219726.000000 0 0 1
33.256516 -27.731597 -13.989191 45.505327 -0.695055 1.883276 0.017387 -0.002357 139418.000000 0 0 1
32.714716 -27.505197 -15.249791 45.380002 -0.699105 1.913512 0.022052 -0.002628 -239175.000000 0 0 1
32.390116 -28.703097 -15.947691 46.122838 -0.725121 1.923851 0.013219 0.022568 -88448.600000 0 0 1
31.581616 -28.484397 -17.230091 45.887202 -0.733880 1.955720 0.008985 0.016934 156381.000000 0 0 1
30.178516 -28.605497 -17.104891 44.962146 -0.758645 1.961056 0.017204 0.017229 68344.000000 0 0 1
29.498416 -28.207297 -18.294291 44.726829 -0.763028 1.992179 0.014116 0.011201 -393624.000000 0 0 1
27.987316 -28.236497 -18.150291 43.703806 -0.789830 1.999071 0.009191 0.004345 -619807.000000 0 0 1
27.521216 -27.157697 -17.352391 42.379987 -0.778750 1.992645 0.007613 0.003032 414353.000000 0 0 1
26.107816 -27.293297 -17.178991 41.492889 -0.807594 1.997665 0.020189 0.000166 710966.000000 0 0 1
25.551116 -26.464397 -15.984791 40.109068 -0.802954 1.980713 0.017655 -0.002886 -32145.800000 0 0 1
25.654616 -25.097597 -16.286191 39.411784 -0.774423 1.996796 0.015807 -0.006477 143002.000000 0 0 1
25.096316 -24.348597 -15.199391 38.127427 -0.770277 1.980838 0.018128 -0.006111 -51076.900000 0 0 1
25.105316 -22.792297 -15.508991 37.286653 -0.737145 1.999772 0.013795 -0.007664 -267010.000000 0 0 1
23.814916 -22.491397 -15.959691 36.437959 -0.756824 2.024165 0.012445 -0.002606 -344744.000000 0 0 1
23.636916 -21.160797 -16.281191 35.658944 -0.730181 2.044945 0.011719 -0.001566 408544.000000 0 0 1
22.156516 -20.667697 -16.284191 34.398252 -0.750646 2.063945 0.009913 -0.001199 349137.000000 0 0 1
21.680616 -20.477797 -14.978091 33.372631 -0.756875 2.036234 0.022095 -0.010268 917323.000000 0 0 1
20.441716 -19.709797 -15.054391 32.139921 -0.767171 2.058277 0.022075 -0.014805 1130990.000000 0 0 1
20.348516 -18.540397 -14.059291 30.910711 -0.738937 2.042984 0.016959 -0.002381 7263.490000 0 0 1
19.976116 -18.878197 -12.727591 30.288993 -0.757148 2.004468 0.011677 -0.019017 138107.000000 0 0 1
19.541716 -17.755697 -11.949491 28.981611 -0.737549 1.995788 0.017535 -0.028921 -438762.000000 0 0 1
18.645816 -18.067597 -10.739691 28.097072 -0.769650 1.963010 0.017529 -0.014716 -471719.000000 0 0 1
19.195616 -18.692897 -9.608591 28.464383 -0.772131 1.915126 0.024942 -0.029089 808021.000000 0 0 1
18.267816 -18.712497 -8.456291 27.484168 -0.797422 1.883549 0.021295 -0.037765 602703.000000 0 0 1
18.855716 -19.552897 -7.309891 28.129847 -0.803548 1.833676 0.028386 -0.035337 -328008.000000 0 0 1
19.927516 -18.842497 -6.756991 28.245398 -0.757419 1.812363 0.023658 -0.032098 -280609.000000 0 0 1
20.584216 -19.632197 -5.771691 29.024912 -0.761730 1.770984 0.023048 -0.024981 -545312.000000 0 0 1
21.954516 -19.056497 -5.430591 29.574350 -0.714851 1.755469 0.018040 -0.022913 -661846.000000 0 0 1
22.822916 -18.978697 -6.517791 30.390097 -0.693693 1.786946 0.006783 -0.034218 298957.000000 0 0 1
23.760416 -17.911097 -6.383691 30.432158 -0.645942 1.782134 0.009043 -0.029395 202286.000000 0 0 1
24.954016 -17.709497 -7.360891 31.472399 -0.617197 1.806867 0.021567 -0.034673 282103.000000 0 0 1
25.888316 -18.756797 -7.409791 32.816571 -0.626998 1.798555 0.030096 -0.042323 303839.000000 0 0 1
25.435116 -19.807697 -8.289591 33.286743 -0.661651 1.822481 0.033036 -0.047016 -285959.000000 0 0 1
26.373116 -21.029397 -8.214391 34.716754 -0.673141 1.809673 0.038946 -0.053253 -481983.000000 0 0 1
27.638216 -20.731197 -8.708691 35.629970 -0.643560 1.817718 0.039404 -0.041185 -1256720.000000 0 0 1
28.448216 -21.786497 -8.367191 36.796227 -0.653556 1.800196 0.048736 -0.040778 -590272.000000 0 0 1
-29.646704 30.728728 4.260609 42.910774 -0.803318 1.471342 0.006610 0.007227 -48564.900000 0 0 1
-28.707194 31.287428 3.391809 42.597071 -0.828379 1.491087 -0.005385 0.007994 -575608.000000 0 0 1
-27.621994 31.815128 4.119509 42.333760 -0.855829 1.473332 0.000240 0.012039 20871.500000 0 0 1
-26.926674 32.978428 3.364009 42.707599 -0.886079 1.491946 0.002468 0.012475 -276693.000000 0 0 1
-26.170164 32.510528 2.223509 41.794209 -0.893029 1.517570 0.005857 0.008913 113649.000000 0 0 1
-25.725934 33.518528 1.370809 42.275223 -0.916180 1.538365 0.014376 -0.000500 291537.000000 0 0 1
-24.442184 34.253328 1.883309 42.121938 -0.951020 1.526071 0.028972 0.002102 905946.000000 0 0 1
-23.207684 33.512428 1.707709 40.799457 -0.965115 1.528928 0.021167 -0.000520 -79297.000000 0 0 1
-22.175684 34.185928 2.347509 40.816044 -0.995351 1.513250 0.008953 0.007458 752627.000000 0 0 1
-20.756284 33.682728 1.855009 39.607960 -1.018529 1.523945 0.012325 0.003421 1111200.000000 0 0 1
-20.270984 34.058928 0.565709 39.638912 -1.033933 1.556524 0.024257 -0.000378 579391.000000 0 0 1
-18.967084 33.560628 0.271309 38.550481 -1.056389 1.563759 0.031542 -0.003767 360942.000000 0 0 1
-18.213384 34.201228 -0.934691 38.759837 -1.081460 1.594914 0.038267 -0.005320 93845.300000 0 0 1
-18.044084 -33.487697 -1.051691 38.054183 1.076571 1.598437 0.039721 -0.002854 295906.000000 0 0 1
-17.335584 -32.895197 0.020709 37.183556 1.085787 1.570239 0.036215 -0.009692 -419015.000000 0 0 1
-17.491484 -31.332597 0.161709 35.884673 1.061640 1.566290 0.031964 -0.006294 -148727.000000 0 0 1
-16.594284 -30.540997 -0.599091 34.763223 1.073077 1.588031 0.030837 0.004089 128771.000000 0 0 1
-16.720784 -29.156197 -0.398291 33.612900 1.050098 1.582646 0.019227 0.006008 -259640.000000 0 0 1
-15.562384 -28.412297 -1.067491 32.412743 1.069694 1.603737 0.013826 0.008445 -325832.000000 0 0 1
-15.688784 -28.522297 -2.469491 32.645945 1.067912 1.646513 0.026980 0.007276 177949.000000 0 0 1
-14.918084 -27.536497 -3.156391 31.476510 1.074304 1.671243 0.015384 0.017152 -138837.000000 0 0 1
-15.157184 -27.586397 -4.680691 31.822294 1.068380 1.718420 0.017180 0.000326 -1169420.000000 0 0 1
-16.406684 -27.215197 -5.100891 32.184861 1.028284 1.729955 0.033165 0.003426 -1408000.000000 0 0 1
-16.581284 -27.153297 -6.483291 32.469579 1.022579 1.771820 0.023531 0.008406 82587.800000 0 0 1
-17.484284 -25.959897 -6.873691 32.044720 0.978070 1.786979 0.013022 0.009510 -31090.700000 0 0 1
-16.960484 -24.728597 -6.540891 30.691119 0.969620 1.785564 -0.004885 0.018301 -486750.000000 0 0 1
-17.725984 -23.664297 -7.066091 30.399656 0.927897 1.805382 -0.007002 0.017053 -122904.000000 0 0 1
-17.117284 -22.260797 -7.022691 28.945858 0.915282 1.815857 -0.012637 0.010997 54150.300000 0 0 1
-15.936584 -22.179297 -7.791491 28.400761 0.947739 1.848701 0.002365 0.008318 -493682.000000 0 0 1
-15.122684 -21.099797 -7.390291 26.990987 0.948936 1.848144 0.046709 -0.008996 -192510.000000 0 0 1
-13.961584 -20.924897 -8.386591 26.516260 0.982408 1.892603 0.051083 -0.008715 -371685.000000 0 0 1
-14.239284 -20.410197 -9.675791 26.701204 0.961646 1.941609 0.049272 -0.002094 -942861.000000 0 0 1
-13.152084 -20.580697 -10.515991 26.591887 1.002158 1.977363 0.057030 0.007379 -335696.000000 0 0 1
-13.269584 -19.619497 -11.753291 26.441376 0.976122 2.031417 0.060061 0.006934 -289582.000000 0 0 1
-14.307684 -20.024697 -12.592791 27.645555 0.950404 2.043740 0.041593 0.017846 -502663.000000 0 0 1
-14.630784 -19.041097 -13.608891 27.601180 0.915636 2.086394 0.048517 0.006894 17938.100000 0 0 1
-15.831884 -19.399497 -14.475991 28.923059 0.886317 2.094973 0.044783 0.006055 315576.000000 0 0 1
-17.072284 -19.544497 -13.792291 29.388391 0.852812 2.059307 0.033671 0.006867 109029.000000 0 0 1
-18.095784 -19.985697 -14.637491 30.678032 0.834986 2.068185 0.020013 0.003551 611756.000000 0 0 1
-19.568384 -19.770697 -14.093391 31.183742 0.790541 2.039743 -0.000687 0.012144 1234320.000000 0 0 1
-20.389584 -20.476897 -15.053391 32.582864 0.787535 2.051049 0.014619 0.001108 -115048.000000 0 0 1
-21.731484 -20.490997 -14.616391 33.253229 0.756027 2.025892 0.000362 0.003506 -366301.000000 0 0 1
-22.748684 -21.088397 -15.581991 34.713420 0.747542 2.036302 -0.000491 -0.003049 -485397.000000 0 0 1
-22.911084 -20.393597 -16.841491 34.992176 0.727329 2.072926 0.005286 -0.016372 226059.000000 0 0 1
-23.569584 -21.189797 -17.804791 36.353038 0.732280 2.082627 0.004329 -0.018707 -279566.000000 0 0 1
-24.036484 -20.457997 -19.045091 36.864586 0.705145 2.113698 -0.001662 -0.019955 -409031.000000 0 0 1
-22.973084 -20.145697 -19.899091 36.463482 0.719920 2.148052 0.010258 -0.019033 -182173.000000 0 0 1
-23.316484 -19.790897 -21.191591 37.207816 0.703794 2.176751 0.007773 -0.019865 -338734.000000 0 0 1
-22.139784 -19.118597 -21.938291 36.564729 0.712303 2.214279 -0.002054 -0.007895 284585.000000 0 0 1
-21.023484 -19.944397 -22.201891 36.506024 0.759064 2.224550 -0.006578 -0.005466 -734352.000000 0 0 1
-20.035684 -19.242997 -22.831791 35.958479 0.765220 2.258738 -0.012480 -0.003900 -588950.000000 0 0 1
-18.704084 -20.025897 -22.929391 35.730047 0.819514 2.267561 -0.002546 -0.001599 -35347.900000 0 0 1
-18.696184 -21.105097 -23.855791 36.933334 0.845848 2.273017 -0.005192 0.003417 289134.000000 0 0 1
-17.385084 -21.657597 -23.838791 36.600281 0.894396 2.280130 -0.000937 0.007721 240394.000000 0 0 1
-17.238084 -22.991597 -24.522891 37.777470 0.927451 2.277250 0.004901 0.007221 -392136.000000 0 0 1
-17.340784 -22.902297 -25.912071 38.686605 0.922726 2.304728 0.007780 0.004131 71399.100000 0 0 1
-17.347684 -24.173797 -26.519071 39.856941 0.948340 2.298767 0.012138 0.003216 -88720.900000 0 0 1
-17.285584 -24.052697 -28.102911 40.830102 0.947660 2.329924 0.024500 0.006946 -252214.000000 0 0 1
-15.971484 -23.783697 -28.525291 40.428267 0.979434 2.354035 0.002426 0.002680 -143584.000000 0 0 1
-15.946484 -23.943997 -29.980971 41.550740 0.983262 2.376836 0.033921 0.000421 -447369.000000 0 0 1
-14.599184 -23.758397 -30.662621 41.446277 1.019794 2.403593 0.005306 -0.004397 -720108.000000 0 0 1
-13.642584 -24.688497 -30.258101 41.366589 1.065968 2.391260 0.005697 -0.010612 -240774.000000 0 0 1
-12.487484 -24.554897 -31.093611 41.541459 1.100329 2.416587 0.028399 -0.010148 446112.000000 0 0 1
-11.547784 -25.764197 -30.731911 41.732427 1.149432 2.398535 0.021631 -0.005967 -798236.000000 0 0 1
-11.996984 -27.046997 -31.159251 42.969368 1.153310 2.382049 0.011003 -0.001751 145924.000000 0 0 1
-11.178684 -28.128497 -30.748981 43.147134 1.192520 2.364071 0.006967 -0.003257 1099400.000000 0 0 1
-9.708884 -28.281497 -31.324301 43.304934 1.240108 2.379427 0.022592 -0.008074 1378930.000000 0 0 1
-8.881684 -27.168797 -30.913601 42.103189 1.254840 2.395334 0.024223 -0.014982 1163410.000000 0 0 1
-7.759584 -26.913397 -31.839951 42.406657 1.290092 2.420106 0.030452 -0.012838 1083290.000000 0 0 1
-6.966684 -25.616597 -31.464521 41.167473 1.305259 2.440760 0.047272 -0.010498 -348319.000000 0 0 1
-7.638184 -24.339097 -31.445891 40.491697 1.266706 2.460049 0.051931 -0.014008 -107815.000000 0 0 1
-8.302884 -24.068497 -30.267471 39.551867 1.238611 2.442242 0.036801 -0.008040 -277458.000000 0 0 1
-8.889284 -22.647497 -30.066131 38.676876 1.196767 2.461266 0.041408 -0.012550 342339.000000 0 0 1
-9.888084 -22.220897 -30.973971 39.381840 1.152116 2.475924 0.036697 -0.015840 134097.000000 0 0 1
-10.260084 -20.806897 -30.857991 38.605853 1.112676 2.496940 0.047186 -0.019491 148345.000000 0 0 1
-11.187384 -20.483597 -32.047411 39.645578 1.070904 2.512136 0.043001 -0.017267 -92424.500000 0 0 1
-11.628984 -19.164797 -31.973351 39.048916 1.025400 2.530118 0.045992 -0.014991 21862.000000 0 0 1
-12.141484 -18.747497 -33.233451 40.041810 0.996087 2.549848 0.039028 -0.015734 -507023.000000 0 0 1
-13.006284 -17.485497 -33.157491 39.677767 0.931254 2.560147 0.042935 -0.011616 -414185.000000 0 0 1
-12.435684 -16.178897 -33.288591 39.045272 0.915474 2.591668 0.058620 -0.011201 -509536.000000 0 0 1
-11.707484 -15.822097 -32.171971 37.715244 0.933761 2.592547 0.055707 -0.009046 -303948.000000 0 0 1
-11.347184 -14.291897 -32.054691 36.885229 0.899750 2.624052 0.055194 -0.004655 298304.000000 0 0 1
-10.376284 -13.794597 -32.984531 37.228181 0.925889 2.659464 0.050278 -0.007910 253774.000000 0 0 1
-10.796184 -13.838097 -34.331801 38.558048 0.908259 2.669003 0.048491 -0.010884 -362605.000000 0 0 1
-11.292284 -12.494997 34.029191 37.968756 0.835916 0.459573 0.043929 -0.005609 253935.000000 0 0 1
-12.573584 -12.133897 -34.439644 38.618850 0.767604 2.672068 0.038753 -0.002733 127391.000000 0 0 1
-13.307884 -11.272497 33.606531 37.862486 0.702781 0.478700 0.037863 -0.005242 1565760.000000 0 0 1
-14.649884 -10.737797 34.245757 38.764562 0.632507 0.487665 0.045065 -0.007306 947006.000000 0 0 1
-14.280784 -9.662497 -33.834301 37.974525 0.594854 2.670281 0.059922 -0.015164 379663.000000 0 0 1
-15.340984 -9.220797 -33.003211 37.544385 0.541196 2.644652 0.046955 -0.015940 360696.000000 0 0 1
-14.789384 -8.152797 -32.000191 36.182955 0.503810 2.656002 0.048052 -0.026031 202328.000000 0 0 1
-14.381284 -6.879097 -32.561491 36.254572 0.446167 2.686305 0.031554 -0.026828 706451.000000 0 0 1
-15.434784 -5.903597 -32.551741 36.506176 0.365318 2.671834 0.028104 -0.024046 58110.000000 0 0 1
-15.666084 -5.228497 -31.191331 35.293944 0.322122 2.654631 0.030499 -0.021949 -227088.000000 0 0 1
-16.167184 -6.180897 -30.268501 34.867800 0.365165 2.622144 0.038637 -0.023184 -111569.000000 0 0 1
-16.559884 -5.620297 -29.009751 33.873045 0.327194 2.599103 0.045930 -0.026586 55759.100000 0 0 1
-15.404184 -5.054797 -28.144251 32.479820 0.317073 2.618974 0.040125 -0.031492 241930.000000 0 0 1
-14.876884 -3.846197 -28.663641 32.522596 0.252995 2.649499 0.024384 -0.028323 -563272.000000 0 0 1
-13.750584 -3.422197 -27.975301 31.359328 0.243921 2.672743 0.018699 -0.022957 -466798.000000 0 0 1
-13.262484 -2.043197 -28.442991 31.449513 0.152857 2.700772 -0.001326 -0.003852 -254762.000000 0 0 1
-13.149784 -2.041197 -29.872651 32.702578 0.153998 2.722515 0.004750 -0.007778 244455.000000 0 0 1
-13.115184 -0.784197 -30.452531 33.165941 0.059722 2.734275 0.002834 -0.013708 -100987.000000 0 0 1
-13.069284 -0.750197 -31.994001 34.568556 0.057339 2.753211 -0.006822 -0.015364 -482605.000000 0 0 1
-14.317184 -1.084197 -32.541501 35.568336 0.075583 2.726059 -0.010524 -0.013834 -98579.200000 0 0 1
-14.297784 -1.389197 -33.930061 36.845699 0.096858 2.741100 -0.016792 -0.006931 22015.700000 0 0 1
-15.698184 -1.451197 34.343855 37.789408 0.092182 0.430344 -0.026086 -0.008394 316020.000000 0 0 1
-15.575684 -1.851197 32.987995 36.527205 0.118297 0.443844 -0.019952 -0.008671 241224.000000 0 0 1
-16.800284 -1.645197 32.310603 36.454510 0.097615 0.481445 -0.012033 -0.002648 133960.000000 0 0 1
-16.702884 -1.691197 30.757183 35.040702 0.100908 0.499638 -0.007822 0.002745 -174160.000000 0 0 1
-16.240984 -0.505197 30.204253 34.297546 0.031096 0.493557 -0.006062 0.013981 -117789.000000 0 0 1
-16.218984 -0.585197 28.854173 33.105305 0.036065 0.512365 -0.009427 0.007185 -242574.000000 0 0 1
-15.595384 0.681803 28.154393 32.192401 -0.043690 0.506255 -0.005788 0.005393 72450.600000 0 0 1
-16.207584 1.915803 28.511343 32.851983 -0.117658 0.519892 -0.001585 0.010883 399032.000000 0 0 1
-17.609584 2.054803 28.299073 33.393970 -0.116161 0.559669 0.002760 0.008671 361117.000000 0 0 1
-17.903184 2.773803 26.912033 32.441879 -0.153711 0.592502 0.006489 0.007449 -429613.000000 0 0 1
-17.386084 4.061803 26.808013 32.209373 -0.229507 0.587544 -0.001474 0.011256 151500.000000 0 0 1
-18.047784 4.678803 25.698313 31.749283 -0.253661 0.627643 0.008176 0.013002 9032.570000 0 0 1
-18.061884 6.236803 25.711833 32.034789 -0.332483 0.639118 0.009219 0.008297 277450.000000 0 0 1
-16.864784 6.948803 25.455813 31.316213 -0.390834 0.621744 0.002344 0.007201 -21403.900000 0 0 1
-16.350584 6.898803 24.129853 29.953045 -0.399268 0.634127 0.015324 0.001385 -194124.000000 0 0 1
-15.169384 7.829803 23.865183 29.342171 -0.476491 0.620925 0.007159 0.000463 78861.300000 0 0 1
-13.971284 7.446803 24.542573 29.205985 -0.489704 0.572910 -0.008175 0.002724 43652.700000 0 0 1
-12.939784 8.204803 23.938603 28.422060 -0.565099 0.569345 0.006192 -0.001063 -581227.000000 0 0 1
-11.590984 7.975803 24.608163 28.346535 -0.602697 0.519396 0.000557 0.005866 -702205.000000 0 0 1
-10.499484 8.559803 23.934843 27.502475 -0.683976 0.515027 -0.000150 -0.000217 172658.000000 0 0 1
-9.307084 8.540803 24.710863 27.752367 -0.742491 0.472561 -0.002428 -0.000224 95715.100000 0 0 1
-9.066884 9.827803 25.538963 28.827638 -0.825648 0.482324 0.000169 -0.005350 -420525.000000 0 0 1
-10.073084 10.127803 26.524623 30.126318 -0.788107 0.493992 -0.008829 -0.009635 604180.000000 0 0 1
-9.970684 11.441803 27.036263 31.004660 -0.853994 0.511510 -0.005422 -0.010212 -223740.000000 0 0 1
-10.548084 12.625803 26.163093 30.905993 -0.874817 0.561349 -0.020362 -0.013108 193879.000000 0 0 1
-11.952784 12.723803 26.021713 31.335184 -0.816633 0.590915 -0.017963 -0.013714 267874.000000 0 0 1
-12.421984 12.014803 24.850943 30.269301 -0.768737 0.607645 -0.012309 -0.006192 -930757.000000 0 0 1
-13.896284 11.886803 24.553583 30.615049 -0.707617 0.640143 -0.022968 -0.006785 -973823.000000 0 0 1
-14.444284 13.108803 24.011383 30.935814 -0.736967 0.682231 -0.012930 -0.009304 -201029.000000 0 0 1
-15.746484 12.935803 23.514183 31.115970 -0.687716 0.714082 0.001502 -0.004950 -203249.000000 0 0 1
-15.795884 12.216803 22.127583 29.805875 -0.658320 0.734166 0.003552 -0.003518 -431439.000000 0 0 1
-15.646784 10.804803 22.089083 29.146067 -0.604352 0.710746 -0.002132 -0.003142 -4245.280000 0 0 1
-15.444784 10.374803 20.746683 27.867593 -0.591503 0.731051 -0.004386 -0.000069 -451807.000000 0 0 1
-15.943484 8.937803 20.497283 27.463023 -0.510940 0.728221 -0.000558 -0.003144 511574.000000 0 0 1
-17.361884 9.042803 20.642983 28.448903 -0.480182 0.758867 0.005137 0.001198 102992.000000 0 0 1
-17.891584 7.708803 20.537883 28.307933 -0.406825 0.759011 0.002075 0.002207 36356.200000 0 0 1
-19.405484 7.601803 20.807383 29.450083 -0.373361 0.786213 0.007152 0.014069 -10760.100000 0 0 1
-19.688584 8.075803 22.085083 30.669363 -0.389249 0.766846 0.003484 0.012405 180342.000000 0 0 1
-21.068984 7.998803 22.410183 31.782059 -0.362840 0.788203 -0.001756 0.012523 147911.000000 0 0 1
-21.296684 8.638803 23.787683 33.076148 -0.385360 0.768176 0.007386 0.007255 -694937.000000 0 0 1
-21.256484 10.074803 23.906953 33.539263 -0.442603 0.777307 0.010853 0.007045 216411.000000 0 0 1
-20.073584 10.798803 23.577983 32.794576 -0.493553 0.768492 0.008225 0.014294 214846.000000 0 0 1
-18.811984 10.492803 24.407823 32.553517 -0.508791 0.723074 0.007998 0.007053 -499746.000000 0 0 1
-19.000084 10.861803 25.761093 33.802602 -0.519329 0.704240 0.014881 0.006228 238209.000000 0 0 1
-18.191884 10.030803 26.572813 33.729454 -0.503909 0.663531 0.006090 0.011138 160946.000000 0 0 1
-29.879624 -13.994772 20.669883 38.934428 0.438026 1.011146 0.022572 -0.005499 29256.400000 0 0 1
-29.620854 -15.206272 21.401283 39.580811 0.474281 0.999529 0.025787 -0.014215 135750.000000 0 0 1
-30.241464 -16.447772 21.000283 40.324772 0.498134 1.023033 0.013762 -0.002834 -281486.000000 0 0 1
-30.017184 -16.927272 19.512783 39.601927 0.513467 1.055580 0.007118 -0.010094 -172708.000000 0 0 1
-30.667564 -16.123772 18.549583 39.300923 0.484042 1.079251 0.009281 -0.018687 -75185.000000 0 0 1
-29.856024 -15.959972 17.424283 38.075038 0.490915 1.095468 0.009354 -0.017236 -1010140.000000 0 0 1
-30.249114 -14.702872 16.597083 37.505287 0.452433 1.112382 0.005188 -0.014406 997271.000000 0 0 1
-31.485084 -14.830672 15.821783 38.230723 0.440211 1.144117 0.029673 -0.016234 921921.000000 0 0 1
-32.682794 -14.655472 16.513083 39.441473 0.421535 1.138813 0.026157 -0.015924 -788402.000000 0 0 1
-33.060394 -13.268872 17.147183 39.535788 0.381672 1.122187 0.031440 -0.018084 -1346760.000000 0 0 1
-34.240424 -13.275872 17.871483 40.841711 0.369880 1.117892 0.031519 -0.017487 -492158.000000 0 0 1
-34.545325 -11.944472 18.290483 40.872872 0.332895 1.106832 0.035056 -0.018066 651706.000000 0 0 1
34.977594 -11.853372 19.233883 41.639846 -0.326738 1.090648 0.019827 -0.008320 570788.000000 0 0 1
35.303234 -12.456572 20.442383 42.654139 -0.339207 1.070986 0.018062 -0.010201 -153234.000000 0 0 1
34.390812 -12.086672 21.422683 42.281757 -0.337967 1.039484 0.018461 -0.014920 -1468290.000000 0 0 1
34.847980 -12.469872 22.870483 43.507912 -0.343639 1.017302 0.016619 -0.016686 589366.000000 0 0 1
-34.710611 -11.804772 23.271583 43.425174 0.327820 1.005222 0.022502 -0.014944 278567.000000 0 0 1
-33.590814 -12.513472 22.848883 42.508837 0.356600 1.003316 0.020421 -0.018837 -734179.000000 0 0 1
-32.234544 -11.765072 22.977183 41.296897 0.349960 0.980761 0.036489 -0.015032 460512.000000 0 0 1
-32.183164 -10.586172 22.200483 40.505364 0.317787 0.990720 0.044929 -0.013810 -632988.000000 0 0 1
-30.844354 -10.205672 22.222883 39.362247 0.319538 0.970880 0.049128 -0.019150 -614104.000000 0 0 1
-30.526924 -8.981372 21.313783 38.299288 0.286138 0.980622 0.054716 -0.000480 35192.000000 0 0 1
-30.713314 -9.037072 19.909383 37.700927 0.286164 1.014450 0.045627 0.002079 1370450.000000 0 0 1
-32.099954 -9.127972 19.470683 38.637216 0.277048 1.042647 0.048533 -0.006205 1007540.000000 0 0 1
-32.385384 -8.873172 17.968383 38.084237 0.267424 1.079458 0.053060 -0.008876 -318013.000000 0 0 1
-33.761514 -8.985672 17.689983 39.160154 0.260121 1.102088 0.049899 -0.011850 79889.200000 0 0 1
-33.941924 -8.733372 16.301083 38.652960 0.251841 1.135445 0.058323 -0.013282 -417288.000000 0 0 1
35.357037 -8.602772 15.944883 39.728668 -0.238674 1.157812 0.046825 -0.009168 -405823.000000 0 0 1
34.620002 -9.776072 16.206883 39.456041 -0.275216 1.147511 0.040154 -0.006923 283298.000000 0 0 1
33.237292 -9.461472 16.312983 38.214532 -0.277329 1.129758 0.036905 -0.005158 390433.000000 0 0 1
32.309282 -10.690172 16.164183 37.675593 -0.319532 1.127371 0.031784 -0.005129 1925.140000 0 0 1
32.242502 -11.407772 17.338383 38.344957 -0.340066 1.101601 0.020893 -0.007255 414808.000000 0 0 1
31.000522 -12.105572 17.329183 37.521698 -0.372286 1.090723 0.017681 -0.007814 303689.000000 0 0 1
30.697372 -12.803372 18.658483 38.136518 -0.395146 1.059561 0.011631 -0.003912 24062.800000 0 0 1
31.571892 -13.848072 19.047083 39.387115 -0.413350 1.066049 0.018085 -0.000841 -134360.000000 0 0 1
31.567152 -13.946572 20.430283 40.104718 -0.416019 1.036282 0.004991 -0.000031 -397979.000000 0 0 1
32.042982 -15.269872 20.984983 41.234588 -0.444707 1.036870 -0.000402 0.006378 -21759.500000 0 0 1
32.254522 -15.111572 22.388483 42.070869 -0.438140 1.009645 -0.006149 -0.002845 -136577.000000 0 0 1
32.861012 -16.263172 22.934183 43.247123 -0.459566 1.011836 -0.005511 0.009714 101587.000000 0 0 1
33.144742 -16.180772 24.483223 44.269849 -0.454151 0.984782 0.008237 0.005956 648456.000000 0 0 1
34.242902 -15.306072 24.788183 44.958939 -0.420344 0.986813 0.012674 0.002814 552208.000000 0 0 1
34.490562 -15.167372 26.191183 45.887102 -0.414301 0.963348 0.018173 0.006617 88845.800000 0 0 1
-35.158956 -14.118972 26.422253 46.191266 0.381864 0.961832 0.026838 -0.004496 -865139.000000 0 0 1
-33.911874 -14.487072 25.972323 45.104900 0.403731 0.957189 0.012623 -0.004020 -766936.000000 0 0 1
-32.944624 -13.521672 26.357953 44.304916 0.389471 0.933628 0.016304 -0.009453 -300229.000000 0 0 1
-31.500674 -13.990272 26.291653 43.350562 0.417958 0.919159 0.017392 -0.005623 -798179.000000 0 0 1
-31.114244 -14.180872 24.927493 42.315165 0.427640 0.940863 0.008960 -0.003970 98329.800000 0 0 1
-29.756624 -14.561872 24.736513 41.344889 0.455104 0.929423 0.029672 -0.017891 367159.000000 0 0 1
-29.460074 -16.067272 24.954703 41.818541 0.499298 0.931367 0.022054 -0.016110 -489143.000000 0 0 1
-29.448914 -16.461972 26.315283 42.787021 0.509727 0.908373 0.020573 -0.014920 102352.000000 0 0 1
-29.227924 -17.854772 26.472833 43.288282 0.548382 0.912782 0.019954 -0.015364 -583458.000000 0 0 1
-28.871104 -18.231072 27.966433 44.136538 0.563234 0.884554 0.016726 -0.014279 120268.000000 0 0 1
-27.688574 -17.531972 28.333243 43.322048 0.564463 0.857917 0.024225 -0.011427 -15770.500000 0 0 1
-27.384464 -17.803272 29.662403 44.121690 0.576462 0.833504 0.032927 -0.009956 -319112.000000 0 0 1
-26.034434 -17.156472 30.006423 43.272644 0.582670 0.804562 0.025982 -0.008397 -257026.000000 0 0 1
-26.188294 -15.952572 30.613823 43.330330 0.547120 0.786225 0.039832 -0.022879 -184255.000000 0 0 1
-24.967684 -15.262472 30.515853 42.279375 0.548679 0.764445 0.028375 -0.019547 -537817.000000 0 0 1
-24.906484 -13.895472 31.234633 42.296801 0.508893 0.740008 0.031407 -0.021841 -165243.000000 0 0 1
-24.473184 -14.002872 32.600973 43.102675 0.519706 0.713072 0.032861 -0.018437 287049.000000 0 0 1
-24.444784 -12.724972 33.235776 43.175099 0.479960 0.692284 0.031560 -0.009772 -211470.000000 0 0 1
-23.634384 -12.752072 -34.373843 43.620644 0.494789 2.478379 0.028549 -0.006674 1432240.000000 0 0 1
-22.192684 -12.913872 34.440782 42.958710 0.527003 0.640632 0.002152 -0.002820 1445600.000000 0 0 1
-21.709884 -14.260872 34.397782 43.103352 0.581199 0.646777 0.002801 -0.002007 -96519.600000 0 0 1
-21.717584 -15.100972 -33.208101 42.455515 0.607587 2.468963 0.004562 -0.002430 -65783.800000 0 0 1
-20.706584 -14.777872 -32.259521 41.083145 0.619848 2.473856 -0.019580 0.003150 65170.900000 0 0 1
-20.744184 -15.643372 -31.170451 40.578729 0.646126 2.446739 -0.008832 -0.002754 439678.000000 0 0 1
-19.527284 -15.609572 -30.176561 39.186712 0.674358 2.449749 -0.012927 0.004781 492666.000000 0 0 1
-19.502684 -14.441472 -29.358651 38.089909 0.637385 2.450849 -0.012830 0.004111 341450.000000 0 0 1
-20.200284 -14.680572 -28.117321 37.605245 0.628455 2.415383 -0.013249 0.008116 231002.000000 0 0 1
-20.186684 -13.385172 -27.310551 36.503853 0.585508 2.416074 -0.010347 0.008654 -453843.000000 0 0 1
-18.942784 -13.147072 -26.715041 35.289772 0.606716 2.429536 0.011893 -0.000415 -349334.000000 0 0 1
-18.876084 -12.038972 -25.834741 34.185922 0.567744 2.427538 0.007187 -0.007413 914691.000000 0 0 1
-17.421784 -11.749872 -25.292191 32.882716 0.593362 2.448328 0.021644 -0.006595 476689.000000 0 0 1
-17.177384 -12.488972 -24.080491 32.107741 0.628657 2.418844 0.036613 -0.008781 114076.000000 0 0 1
-15.845884 -12.407172 -23.622591 31.033156 0.664283 2.435965 0.034183 -0.011889 348642.000000 0 0 1
-14.797284 -13.311572 -24.366691 31.462568 0.732592 2.456667 0.026895 -0.009676 -285098.000000 0 0 1
-14.267384 -12.728872 -25.538551 31.902978 0.728470 2.498937 0.037477 -0.019720 -253242.000000 0 0 1
-13.424684 -13.609972 -26.201021 32.433732 0.792252 2.511262 0.041994 -0.020170 -40802.900000 0 0 1
-12.320484 -12.964672 -27.112851 32.480513 0.810870 2.558461 0.054203 -0.014621 755902.000000 0 0 1
-12.919884 -12.177872 -28.172131 33.300044 0.755842 2.579251 0.071683 -0.025051 151827.000000 0 0 1
-11.889584 -11.517472 -28.880601 33.288188 0.769502 2.621138 0.081119 -0.024646 3237.940000 0 0 1
-12.144084 -11.059872 -30.358721 34.517409 0.738707 2.645647 0.066491 -0.019073 -76002.800000 0 0 1
-11.256784 -10.034872 -30.776891 34.272888 0.728072 2.685988 0.071491 -0.019062 128259.000000 0 0 1
-11.034284 -10.233872 -32.173091 35.518944 0.747782 2.704062 0.070233 -0.007563 129333.000000 0 0 1
-10.377084 -9.004572 -32.886981 35.641545 0.714701 2.745861 0.051450 -0.007607 27148.000000 0 0 1
-9.044284 -8.791672 -32.508741 34.869913 0.771236 2.771479 0.027782 -0.006474 -441734.000000 0 0 1
-8.749484 -7.408472 -32.620031 34.576081 0.702594 2.803617 0.028601 -0.006070 1231090.000000 0 0 1
-7.211684 -7.075672 -32.363821 33.904136 0.775879 2.839005 0.032116 -0.004423 1351560.000000 0 0 1
-6.756484 -7.018572 -31.017201 32.511186 0.804422 2.837260 0.024223 -0.001422 -81077.500000 0 0 1
-7.201284 -5.926572 -30.265271 31.669692 0.688602 2.842669 0.023186 -0.003286 -440212.000000 0 0 1
-6.572184 -4.542472 -30.601211 31.626915 0.604773 2.886218 0.020115 -0.007391 -180888.000000 0 0 1
-5.215784 -4.561272 -30.224421 31.008470 0.718554 2.916238 0.017470 -0.006824 -202824.000000 0 0 1
-4.595984 -3.347072 -30.615211 31.138675 0.629442 2.957973 0.026343 -0.010100 97396.100000 0 0 1
-3.079684 -3.335672 -30.331161 30.669048 0.825279 2.993016 0.019789 -0.002872 -386461.000000 0 0 1
-2.260584 -4.132772 -31.201651 31.555238 1.070267 2.991750 0.012224 -0.006987 529687.000000 0 0 1
-0.869384 -3.984672 -30.976591 31.243922 1.355981 3.010685 0.021987 -0.002998 546043.000000 0 0 1
-0.169684 -2.646572 -31.368311 31.480217 1.506769 3.057249 0.018050 -0.003284 -697608.000000 0 0 1
-0.205584 -1.698272 -30.375101 30.423234 1.450328 3.085334 0.013909 -0.006665 36822.200000 0 0 1
0.507216 -0.542472 -30.780281 30.789239 -0.818973 3.117470 0.015804 -0.005726 91674.200000 0 0 1
0.590316 0.613928 -29.747401 29.759591 0.805003 3.112970 0.025424 -0.012319 -158970.000000 0 0 1
-0.612284 1.224428 -29.403881 29.435732 -1.107103 3.095068 0.032690 -0.010569 -425495.000000 0 0 1
-0.269084 2.473128 -28.874721 28.981689 -1.462419 3.055649 0.052627 -0.015006 193.840000 0 0 1
-1.536584 3.183028 -28.415101 28.634083 -1.121049 3.017840 0.047590 -0.014580 -486886.000000 0 0 1
-2.393684 3.525828 -29.469141 29.775686 -0.974372 2.997976 0.033638 -0.014051 -562137.000000 0 0 1
-3.433084 4.346928 -29.034181 29.557833 -0.902323 2.953079 0.042779 -0.016799 -1167180.000000 0 0 1
-4.503484 4.433628 -30.067431 30.724401 -0.777582 2.934424 0.043318 -0.020343 -1212200.000000 0 0 1
-4.151384 5.084328 -31.193461 31.876581 -0.886071 2.934194 0.046170 -0.019491 97866.900000 0 0 1
-5.252584 5.405628 -32.018751 32.893934 -0.799756 2.910400 0.046764 -0.017766 -1269.990000 0 0 1
-4.643384 6.009928 -33.353601 34.207352 -0.912976 2.917706 0.053225 -0.016279 462895.000000 0 0 1
-4.139584 5.137128 -34.324549 34.952838 -0.892519 2.951701 0.065079 -0.019250 303211.000000 0 0 1
-3.053184 4.284928 -33.985051 34.389915 -0.951703 2.987996 0.051440 -0.022057 -102311.000000 0 0 1
-2.431384 3.515528 33.769897 34.039338 -0.965722 0.125905 0.053086 -0.024139 -162725.000000 0 0 1
-3.320984 2.521728 33.315061 33.575011 -0.649447 0.124518 0.046691 -0.026426 -245114.000000 0 0 1
-3.139984 1.918728 32.009563 32.220384 -0.548514 0.114457 0.057620 -0.023212 -285750.000000 0 0 1
-2.928284 2.840028 30.764903 31.034172 -0.770099 0.131827 0.061435 -0.022825 43050.400000 0 0 1
-3.966384 3.782328 30.634653 31.121057 -0.761649 0.177033 0.039580 -0.018343 64391.300000 0 0 1
-3.664884 4.593928 29.469043 30.049293 -0.897418 0.196837 0.039398 -0.021729 -121400.000000 0 0 1
-4.832684 5.513928 29.228753 30.134336 -0.851145 0.245777 0.036386 -0.012275 -299861.000000 0 0 1
-4.762684 6.274828 28.038883 29.124484 -0.921551 0.273892 0.032677 -0.005167 -440955.000000 0 0 1
-5.983884 6.900928 27.712923 29.179372 -0.856451 0.318380 0.024727 0.000863 -238812.000000 0 0 1
-5.987384 7.591328 26.351843 28.069497 -0.902975 0.351646 0.025292 -0.002244 -30252.600000 0 0 1
-5.134884 8.730628 26.257403 28.143243 -1.039139 0.368159 0.026154 -0.001880 52078.900000 0 0 1
-5.365384 9.504128 25.140913 27.407687 -1.056865 0.409565 0.023557 -0.003215 196262.000000 0 0 1
-4.612884 10.903228 25.285403 27.919718 -1.170557 0.437894 0.024094 -0.006550 -244503.000000 0 0 1
-4.725684 11.735528 24.153863 27.266533 -1.187980 0.482489 0.030669 0.001163 144825.000000 0 0 1
-4.147284 13.031528 24.253053 27.842975 -1.262682 0.513429 0.020989 0.007557 -508464.000000 0 0 1
-2.602284 13.150328 24.236913 27.697129 -1.375433 0.505217 0.013238 0.010336 -113090.000000 0 0 1
-1.978984 12.496228 25.383113 28.361497 -1.413734 0.462399 0.017159 0.006234 14190.600000 0 0 1
-2.098184 13.296928 26.539133 29.757961 -1.414292 0.469415 0.030849 0.003983 -913865.000000 0 0 1
-1.220884 12.801728 27.733953 30.570360 -1.475715 0.434176 0.018286 0.002691 1610140.000000 0 0 1
0.214516 13.006828 27.682723 30.586872 1.554305 0.439293 0.012570 0.007998 1167070.000000 0 0 1
0.886616 12.423428 28.815153 31.391730 1.499551 0.407986 0.018484 0.001067 -159129.000000 0 0 1
2.373616 12.754928 28.799493 31.586912 1.386807 0.423262 0.015278 0.006105 -435679.000000 0 0 1
2.585116 14.142728 28.906323 32.284285 1.390005 0.461539 0.005887 0.012644 -135787.000000 0 0 1
3.926416 14.409928 28.562653 32.231784 1.304775 0.481796 0.015457 0.005183 -263101.000000 0 0 1
4.437016 15.790828 28.848843 33.185736 1.296873 0.516983 0.014387 0.008695 -410713.000000 0 0 1
4.383216 16.171128 30.232313 34.564587 1.306104 0.506059 0.019482 0.014073 283899.000000 0 0 1
3.380116 17.133728 30.567043 35.204175 1.376019 0.519074 0.006167 0.014609 151558.000000 0 0 1
3.401416 18.523528 29.828923 35.276839 1.389193 0.563170 0.009041 0.024662 -655452.000000 0 0 1
4.537616 19.211528 30.216533 36.093097 1.338855 0.578684 0.038597 0.022790 -452304.000000 0 0 1
4.738216 20.325528 29.379313 36.037783 1.341770 0.617659 0.014298 0.020650 -75970.300000 0 0 1
5.890916 21.222428 29.843753 37.091022 1.300033 0.635780 0.024329 0.019646 -426698.000000 0 0 1
5.618916 21.808228 31.086013 38.386341 1.318630 0.626952 0.024077 0.006465 357669.000000 0 0 1
6.717816 22.554128 31.593673 39.395151 1.281310 0.640213 0.006181 0.003941 -101430.000000 0 0 1
6.946216 24.011628 31.094133 39.895530 1.289198 0.677106 -0.006912 0.009879 -257865.000000 0 0 1
7.245116 24.148228 29.701253 38.958863 1.279315 0.703821 -0.020405 0.014690 213687.000000 0 0 1
7.641516 25.431928 29.377153 39.600414 1.278909 0.734987 -0.020257 0.011806 -238374.000000 0 0 1
8.231916 25.404828 27.940973 38.650584 1.257442 0.762789 -0.004617 0.003979 -240058.000000 0 0 1
7.336416 25.215828 26.887843 37.584798 1.287668 0.773612 -0.007361 0.009402 -13616.700000 0 0 1
8.089716 24.994428 25.714513 36.761408 1.257776 0.796102 0.007209 0.008058 -168371.000000 0 0 1
28.834872 2.123528 6.786909 29.698844 0.073512 1.340235 0.065183 -0.003568 -46059.500000 0 0 1
28.750662 2.751928 8.075709 29.989844 0.095426 1.298149 0.070735 -0.005573 -422166.000000 0 0 1
27.436582 2.714328 8.523709 28.858053 0.098610 1.270957 0.063553 -0.004100 -669268.000000 0 0 1
27.109392 3.640728 9.768009 29.044587 0.133499 1.227800 0.053122 -0.003096 -244837.000000 0 0 1
27.086832 5.035728 9.513509 29.147245 0.183812 1.238309 0.063766 -0.011250 858370.000000 0 0 1
28.405752 5.601028 9.457009 30.458058 0.194682 1.255085 0.080576 -0.018826 687225.000000 0 0 1
28.388322 7.143628 9.297409 30.714330 0.246521 1.263266 0.079696 -0.018810 37027.600000 0 0 1
27.609602 7.500728 8.180109 29.756768 0.265269 1.292312 0.074328 -0.019958 -14599.800000 0 0 1
27.929552 8.814928 7.733009 30.291290 0.305718 1.312651 0.070177 -0.019505 -290897.000000 0 0 1
27.234842 9.323928 6.493809 29.510029 0.329846 1.348926 0.059823 -0.015534 -1285900.000000 0 0 1
25.872002 9.500628 6.692509 28.362160 0.351929 1.332584 0.053040 -0.012557 -719519.000000 0 0 1
25.250992 9.777128 5.443209 27.619438 0.369421 1.372419 0.056259 -0.015706 -164447.000000 0 0 1
23.743492 10.035428 5.510109 26.359524 0.399887 1.360206 0.017113 -0.013144 -317194.000000 0 0 1
23.462992 11.196828 6.226109 26.732852 0.445252 1.335737 0.007446 -0.004048 1361710.000000 0 0 1
22.031592 11.426428 6.371409 25.623215 0.478447 1.319502 0.006601 -0.007209 1210240.000000 0 0 1
21.854292 12.850228 6.942809 26.285757 0.531546 1.303496 0.007253 0.003018 -543870.000000 0 0 1
22.087792 13.903528 6.018709 26.784389 0.561805 1.344151 0.012190 0.015066 422091.000000 0 0 1
21.665692 15.166028 6.524409 27.239283 0.610727 1.328923 0.011407 0.002040 -357747.000000 0 0 1
21.795692 16.241628 5.401409 27.713136 0.640407 1.374636 0.033794 0.005728 -637029.000000 0 0 1
20.592692 16.345628 4.714109 26.710697 0.670924 1.393379 0.052244 -0.000094 -116226.000000 0 0 1
20.605192 17.571428 3.990109 27.372431 0.706098 1.424504 0.049891 0.002597 886679.000000 0 0 1
19.211692 17.891028 3.307109 26.459685 0.749818 1.445482 0.067644 0.001866 785755.000000 0 0 1
18.255992 18.442528 4.153009 26.280326 0.790481 1.412104 0.064127 -0.001759 1179940.000000 0 0 1
16.885892 18.073228 3.809309 25.025702 0.819349 1.417986 0.065839 -0.012080 1532110.000000 0 0 1
15.884392 19.194228 4.179009 25.262549 0.879474 1.404609 0.057641 -0.014467 8249.670000 0 0 1
14.537092 18.923228 3.853709 24.171609 0.915740 1.410682 0.057411 -0.021573 118350.000000 0 1 0
13.743892 20.053928 4.178509 24.668087 0.969973 1.400586 0.048139 -0.024618 1599770.000000 0 1 0
12.210392 19.987828 3.725009 23.716716 1.022407 1.413081 0.035709 -0.017617 1410410.000000 0 1 0
11.517692 19.057128 4.545309 22.726442 1.027165 1.369437 0.026748 -0.021129 41272.900000 0 1 0
10.135592 19.348328 4.404709 22.282044 1.088252 1.371806 0.024075 -0.006663 -53390.000000 0 1 0
9.296892 18.726828 5.501909 21.619373 1.109995 1.313476 0.015840 -0.013622 -684400.000000 0 1 0
9.395092 19.394728 6.735909 22.578656 1.119694 1.267853 0.028766 -0.019575 29800.600000 0 1 0
8.760592 18.554828 7.730509 21.926933 1.129679 1.210493 0.031147 -0.022793 -386965.000000 0 1 0
7.928792 19.422028 8.669809 22.699042 1.183209 1.178895 0.014196 -0.024655 1717210.000000 0 1 0
6.576192 19.728228 8.165509 22.341101 1.249040 1.196634 0.016860 -0.023573 1708280.000000 0 1 0
6.621192 20.923428 7.382909 23.154640 1.264318 1.246278 0.013800 -0.014871 157801.000000 0 1 0
5.327992 21.185628 6.494809 22.790368 1.324415 1.281810 0.008076 -0.002873 1482410.000000 0 1 0
4.112692 21.365528 7.245909 22.932580 1.380630 1.249322 0.014126 -0.007124 529672.000000 0 1 0
3.901392 22.538528 8.030109 24.242292 1.399396 1.233175 0.007108 -0.008460 -558607.000000 0 1 0
3.861292 23.829028 7.148409 25.176018 1.410151 1.282898 0.005567 -0.005977 -357632.000000 0 0 1
2.704692 23.910728 6.347309 24.886273 1.458159 1.312894 0.017135 -0.006215 51935.500000 0 1 0
2.808792 25.031028 5.511509 25.784072 1.459051 1.355378 0.017226 0.002755 219953.000000 0 0 1
1.633992 25.329728 4.520509 25.781777 1.506377 1.394548 0.028464 -0.004678 -84354.500000 0 0 1
0.457692 25.718228 5.150609 26.232909 1.553002 1.373171 0.039967 -0.013012 -419722.000000 0 0 1
-0.577708 26.043128 4.240809 26.392474 -1.548617 1.409414 0.050695 -0.013933 -277266.000000 0 0 1
-1.681808 26.853628 4.879409 27.345099 -1.508249 1.391397 0.046837 -0.009529 -1091860.000000 0 0 1
-2.599408 27.266028 3.948109 27.672744 -1.475749 1.427636 0.052873 -0.009175 -1200500.000000 0 0 1
-3.719108 27.700628 4.651509 28.333603 -1.437334 1.405880 0.030746 -0.009484 40976.400000 0 0 1
-4.815308 28.405928 3.747009 29.053812 -1.402875 1.441468 0.026377 -0.010733 587563.000000 0 0 1
-4.332208 29.571028 3.160209 30.053296 -1.425329 1.465448 0.026291 -0.009568 239018.000000 0 0 1
-5.139808 29.779928 2.004309 30.286614 -1.399887 1.504570 0.029848 -0.011969 -4060.060000 0 0 1
-4.598108 30.851828 1.034709 31.209750 -1.422847 1.537637 0.028568 -0.005644 -160431.000000 0 0 1
-4.520808 32.186028 1.532709 32.538090 -1.431251 1.523674 0.027418 0.001734 -147706.000000 0 0 1
-3.269808 32.346328 2.158709 32.582765 -1.470051 1.504495 0.021027 -0.009764 -715567.000000 0 0 1
-2.736208 33.778328 1.980509 33.946792 -1.489968 1.512422 0.016006 -0.008563 -1035650.000000 0 0 1
-2.227008 33.971928 0.699709 34.052034 -1.505336 1.550247 0.013654 -0.005052 -92886.000000 0 0 1
-1.222708 -34.157797 0.595209 34.184856 1.535016 1.553384 0.022651 -0.010059 1191710.000000 0 0 1
0.186292 -34.462797 1.253109 34.486075 -1.565391 1.534452 0.027233 -0.009265 248644.000000 0 0 1
0.189892 -34.173497 2.653109 34.276857 -1.565240 1.493316 0.013229 -0.013085 301397.000000 0 0 1
1.433292 -34.412497 3.306909 34.600721 -1.529170 1.475077 0.015635 -0.013098 519578.000000 0 0 1
1.197892 -34.372497 4.897709 34.740337 -1.535960 1.429345 0.014835 -0.015690 171457.000000 0 0 1
0.454292 33.738228 5.539009 34.192909 1.557332 1.408086 0.018312 -0.017368 -169424.000000 0 0 1
-0.053508 34.109328 6.818009 34.784111 -1.569228 1.373510 0.023354 -0.018023 -460876.000000 0 0 1
0.837192 33.987328 8.010209 34.928538 1.546169 1.339406 0.017637 -0.013896 -633596.000000 0 0 1
1.046492 32.648928 8.350109 33.716049 1.538754 1.320532 0.020833 -0.017029 151717.000000 0 0 1
2.088892 32.469628 9.294709 33.838319 1.506551 1.292539 0.024213 -0.010997 178775.000000 0 0 1
2.825892 31.096928 9.228309 32.560195 1.480172 1.283435 0.020311 -0.008971 -126587.000000 0 0 1
2.090492 30.027528 9.766209 31.644927 1.501289 1.257056 0.026868 -0.007707 222386.000000 0 0 1
2.816692 28.781128 9.754709 30.519525 1.473241 1.245466 0.018158 -0.003773 110500.000000 0 0 1
2.647292 27.924928 10.990709 30.126490 1.476278 1.197358 0.023976 -0.009445 -421549.000000 0 0 1
3.047192 28.623528 12.136209 31.239067 1.464738 1.171799 0.016853 -0.004660 -159602.000000 0 0 1
3.030692 27.828628 13.311209 30.996869 1.462318 1.126927 0.015810 -0.007130 -418344.000000 0 0 1
1.733892 27.354428 14.007209 30.781049 1.507495 1.098357 0.025900 -0.006188 348693.000000 0 0 1
0.923692 28.372128 14.591609 31.917799 1.538252 1.095995 0.027524 -0.005517 414568.000000 0 0 1
0.002892 29.092428 13.800709 32.199828 1.570697 1.127858 0.030971 -0.007125 62070.700000 0 0 1
-0.804008 30.216728 14.513509 33.531165 -1.544195 1.123159 0.014629 -0.001552 -11116.100000 0 0 1
-1.893208 29.851628 15.308709 33.601495 -1.507461 1.097755 0.009282 0.004337 -55046.100000 0 0 1
-2.605008 31.023428 15.745609 34.887868 -1.487024 1.102552 0.018806 0.006822 -523303.000000 0 0 1
-3.949908 30.795328 16.385409 35.106062 -1.443230 1.085195 0.016593 0.009180 -135228.000000 0 0 1
-4.901308 30.123828 15.524109 34.241288 -1.409504 1.100249 0.031050 0.004743 791247.000000 0 0 1
-6.052108 29.708728 16.253309 34.400677 -1.369831 1.078704 0.030164 0.003643 -617861.000000 0 0 1
-7.200108 29.263828 15.371409 33.830362 -1.329547 1.099135 0.018608 -0.000135 -980796.000000 0 0 1
-8.335008 29.068728 16.160609 34.287440 -1.291554 1.080001 0.019272 -0.003903 -352432.000000 0 0 1
-9.415508 28.688528 15.325509 33.860813 -1.253675 1.101114 0.020545 -0.002261 768457.000000 0 0 1
-10.783008 28.424628 16.051709 34.378628 -1.208214 1.085004 0.021530 -0.005807 614680.000000 0 0 1
-11.474208 29.579228 16.616609 35.814799 -1.200752 1.088337 0.017426 -0.013711 572899.000000 0 0 1
-11.206508 29.650028 18.019209 36.460963 -1.209434 1.053876 0.024418 -0.013938 54389.800000 0 0 1
-12.105108 30.742528 18.705009 37.967275 -1.195683 1.055651 0.033650 -0.009815 -1311660.000000 0 0 1
-13.445508 30.497328 18.556209 38.147104 -1.155557 1.062788 0.045705 -0.011593 -1483680.000000 0 0 1
-14.178408 31.549128 19.089909 39.506953 -1.148435 1.066486 0.052563 -0.016716 -270021.000000 0 0 1
-14.773808 31.293228 20.490109 40.216614 -1.129710 1.036200 0.042385 -0.017272 -735152.000000 0 0 1
-13.838008 31.187328 21.521109 40.339782 -1.153189 1.008068 0.043661 -0.014293 -539774.000000 0 0 1
-14.462108 30.864828 22.756309 40.983408 -1.132613 0.982125 0.036470 -0.001104 -179788.000000 0 0 1
-13.697308 30.900728 24.092209 41.507900 -1.153555 0.951546 0.014381 0.008895 -289684.000000 0 0 1
-12.798208 29.816528 24.431309 40.616601 -1.165347 0.925406 0.026530 0.005294 693106.000000 0 0 1
-12.413408 29.685228 25.766309 41.221452 -1.174727 0.895575 0.023024 0.008655 -21472.000000 0 0 1
-11.939308 30.927328 26.590109 42.498007 -1.202379 0.894795 0.016878 0.013856 -644697.000000 0 0 1
-13.025208 31.748728 26.895309 43.600406 -1.181477 0.906050 0.011422 0.015114 175662.000000 0 0 1
-12.567408 33.068628 27.198209 44.623048 -1.207614 0.915354 0.012112 0.011602 -261698.000000 0 0 1
-13.743108 33.987428 27.551409 45.859551 -1.186538 0.926322 0.010813 0.010455 76425.400000 0 0 1
-14.461408 33.562428 28.720409 46.480434 -1.163955 0.904723 -0.008636 0.005716 541381.000000 0 0 1
-13.751608 33.777428 29.959509 47.197389 -1.184164 0.883085 0.000409 0.015229 -281495.000000 0 0 1
-14.357908 33.017628 31.198609 47.641017 -1.160607 0.856788 -0.008840 0.009301 -445149.000000 0 0 1
-15.565408 33.552628 31.627509 48.665800 -1.136435 0.863354 -0.010778 0.011111 -779229.000000 0 0 1
-16.014708 32.852928 32.763509 49.083941 -1.117226 0.839951 -0.007231 0.013352 -25235.100000 0 0 1
-17.449008 33.058828 33.278709 50.048241 -1.085144 0.843393 -0.008621 0.008716 -28251.500000 0 0 1
-17.790708 34.412828 33.491109 51.209436 -1.093658 0.857933 0.004305 0.005529 -1096810.000000 0 0 1
-19.159608 34.545828 33.605009 51.863295 -1.064417 0.865902 0.010197 0.000711 -1138890.000000 0 0 1
-19.635508 -33.109497 33.848509 51.259277 1.035505 0.849526 0.011479 -0.002384 -286600.000000 0 0 1
-19.360108 -32.426197 -33.916465 50.760207 1.032548 2.302543 0.029700 -0.000477 -16236.400000 0 0 1
-20.149008 -32.816197 -32.808365 50.589269 1.020149 2.276440 0.031431 0.001702 112018.000000 0 0 1
-19.764208 -31.979297 -31.586165 49.101784 1.017224 2.269570 0.049784 -0.008439 196449.000000 0 0 1
-20.194308 -30.619497 -31.813665 48.553815 0.987755 2.285277 0.052136 -0.010180 440044.000000 0 0 1
-19.429608 -29.746997 -30.977165 47.137864 0.992201 2.287842 0.054002 -0.004879 -2845.910000 0 0 1
-19.794708 -28.274297 -31.081765 46.447200 0.960006 2.303908 0.062305 -0.010253 349528.000000 0 0 1
-21.104908 -27.981497 -30.613865 46.535900 0.924584 2.288763 0.073818 -0.009080 133429.000000 0 0 1
-21.468708 -26.643297 -30.773465 46.019309 0.892539 2.303266 0.072874 -0.010975 -63706.400000 0 0 1
-22.800008 -26.339497 -30.065765 46.016950 0.857303 2.282814 0.069619 -0.009670 -295169.000000 0 0 1
-22.788008 -26.364897 -28.628765 45.099970 0.858041 2.258526 0.066618 -0.004475 -36719.000000 0 0 1
-21.974908 -25.395397 -28.007265 43.729048 0.857481 2.265910 0.072352 -0.006751 -257904.000000 0 0 1
-21.761208 -25.784497 -26.525565 42.918481 0.869816 2.237050 0.063762 -0.008098 -214066.000000 0 0 1
-22.862408 -25.543597 -25.694265 42.841105 0.840731 2.213994 0.045608 -0.009693 -198603.000000 0 0 1
-22.527508 -25.820397 -24.335265 42.028403 0.853401 2.188322 0.039211 -0.001850 -304391.000000 0 0 1
-23.700508 -25.487597 -23.369365 41.922057 0.821714 2.162105 0.020016 -0.003155 1456540.000000 0 0 1
-24.933808 -26.230697 -23.547465 43.176699 0.810740 2.147632 0.021338 -0.000740 872246.000000 0 0 1
-24.799608 -27.602997 -23.333165 43.833578 0.838844 2.132126 0.031700 0.013134 -843907.000000 0 0 1
-26.234908 -28.190597 -23.298965 45.009131 0.821316 2.114898 0.015931 0.010751 491508.000000 0 0 1
-26.843708 -27.808797 -22.072065 44.509436 0.803055 2.089663 0.011608 0.017309 -584569.000000 0 0 1
-28.073908 -27.182697 -22.320265 45.002639 0.769271 2.089756 0.010659 0.018974 -389951.000000 0 0 1
-28.747308 -26.682797 -21.046565 44.512215 0.748170 2.063292 0.018445 0.026694 -397425.000000 0 0 1
-29.330108 -27.734997 -20.323265 45.194251 0.757453 2.037211 0.025121 0.019385 -100372.000000 0 0 1
-29.829508 -27.293297 -19.084265 44.709426 0.741028 2.011804 0.021596 0.014921 -951361.000000 0 0 1
-30.599708 -28.486597 -18.486465 45.711899 0.749650 1.987133 0.013901 0.016316 636755.000000 0 0 1
-31.946408 -28.724097 -18.943765 46.952241 0.732336 1.986101 0.009698 0.018418 1669440.000000 0 0 1
-32.973508 -27.715797 -18.860865 47.022865 0.698981 1.983514 0.014702 0.021760 220057.000000 0 0 1
-33.359808 -27.220197 -17.421065 46.446845 0.684396 1.955274 0.019819 0.016039 -485994.000000 0 0 1
-32.591408 -26.092697 -16.972565 45.067690 0.675107 1.956921 0.020182 0.016402 368246.000000 0 0 1
-33.027908 -25.484497 -15.764065 44.596054 0.657185 1.932091 0.022536 0.014882 -92886.900000 0 0 1
-32.703708 -26.250897 -14.422165 44.346825 0.676378 1.902033 0.027835 0.005476 -120777.000000 0 0 1
-33.237308 -27.528197 -14.351965 45.480756 0.691720 1.891844 0.029374 0.013913 51088.100000 0 0 1
-32.933908 -28.201497 -13.125665 45.301764 0.708144 1.864750 0.023538 0.011043 87609.900000 0 0 1
-33.731808 -29.574597 -12.986665 46.702731 0.719824 1.852581 0.026611 0.006682 309092.000000 0 0 1
-33.171808 -30.705897 -13.671365 47.224222 0.746814 1.864500 0.025710 -0.000089 75103.200000 0 0 1
-33.849808 -31.902997 -13.399065 48.406050 0.755799 1.851265 0.015001 -0.004843 -327682.000000 0 0 1
-33.313108 -33.052497 -14.265665 49.048342 0.781471 1.865910 0.012129 0.004023 -1777560.000000 0 0 1
-32.018208 -33.411297 -14.093965 48.374789 0.806686 1.866433 0.003146 0.005701 -1705740.000000 0 0 1
-31.690908 -34.237597 -15.168465 49.057201 0.824007 1.885148 0.013047 -0.004452 -468794.000000 0 0 1
-30.194608 -34.526897 -15.226065 48.328604 0.852236 1.891309 0.000051 -0.001542 -486593.000000 0 0 1
-29.858008 33.719228 -16.273765 47.888646 -0.846056 1.917527 0.002488 -0.006142 -1260490.000000 0 0 1
-28.494208 33.494628 -16.276165 46.890548 -0.865890 1.925284 0.004931 -0.006574 -886608.000000 0 0 1
9.195716 20.077228 -8.727691 23.745081 1.141295 1.947178 0.001773 -0.006017 -1021290.000000 0 1 0
7.875716 20.482828 -8.861191 23.666302 1.203720 1.954570 0.001427 0.000752 -589035.000000 0 1 0
7.409616 20.637828 -10.222791 24.193549 1.226099 2.007045 0.004249 0.001270 147442.000000 0 1 0
7.276216 19.447528 -11.199391 23.591863 1.212775 2.065436 0.001280 0.008731 -297806.000000 0 1 0
8.495016 18.754228 -11.312791 23.491820 1.145479 2.073234 0.006862 0.004251 -265384.000000 0 1 0
8.346116 17.763128 -12.273091 23.147681 1.131553 2.129642 0.006716 -0.000401 -233087.000000 0 1 0
9.661016 17.114128 -12.743891 23.422966 1.056885 2.146085 0.011267 -0.007788 -61746.800000 0 1 0
9.492416 16.044828 -13.627591 23.092286 1.036563 2.202024 0.017126 -0.019397 -687052.000000 0 1 0
10.588516 15.878728 -14.458291 23.943534 0.982676 2.219118 0.025652 -0.015951 -513976.000000 0 1 0
10.310916 14.871628 -15.657591 23.929907 0.964562 2.284067 0.027242 -0.014470 -330360.000000 0 1 0
10.151116 13.482028 -15.278391 22.764873 0.925418 2.306540 0.016170 -0.007661 231025.000000 0 1 0
11.294116 12.869328 -14.722191 22.581398 0.850496 2.280964 0.015720 -0.011355 216873.000000 0 1 0
12.397416 12.311328 -15.679191 23.475556 0.781914 2.302172 0.025879 -0.013369 114190.000000 0 1 0
13.014216 13.194628 -16.591191 24.874397 0.792282 2.300970 0.025151 -0.019961 -265134.000000 0 1 0
13.916116 12.412528 -17.306991 25.441326 0.728352 2.318928 0.033720 -0.027116 -12909.100000 0 0 1
14.720916 13.265528 -18.381291 27.028715 0.733442 2.318648 0.036470 -0.027308 156382.000000 0 0 1
15.766316 14.040128 -17.881991 27.667083 0.727550 2.273558 0.031275 -0.018327 -431180.000000 0 0 1
16.529716 14.572328 -18.951091 29.064206 0.722547 2.281071 0.038543 -0.014578 -4439.210000 0 0 1
17.758716 15.401028 -18.532991 29.933850 0.714417 2.238433 0.028083 0.000619 -396305.000000 0 0 1
17.519116 16.728728 -17.962291 30.156486 0.762324 2.208854 0.020129 -0.002079 223658.000000 0 0 1
16.801616 17.695928 -18.784791 30.794618 0.811316 2.226860 0.023788 0.003723 179539.000000 0 0 1
16.780916 19.096728 -18.054991 31.181194 0.849856 2.188340 0.018479 0.007731 -728619.000000 0 0 1
17.873716 19.919828 -18.213491 32.372836 0.839485 2.168344 0.010153 0.009017 -922291.000000 0 0 1
17.618516 21.309328 -17.951291 32.965867 0.879927 2.146639 0.004582 0.010531 -244339.000000 0 0 1
18.745316 22.302428 -18.322091 34.416336 0.871840 2.132190 0.013942 0.007830 489426.000000 0 0 1
19.810216 22.435428 -17.359191 34.599633 0.847460 2.096378 0.012613 0.002498 388068.000000 0 0 1
19.326516 23.240528 -16.234991 34.310513 0.877090 2.063691 0.018523 0.001192 -588995.000000 0 0 1
20.365716 23.673628 -15.196791 34.729605 0.860370 2.023696 0.023518 -0.000894 -352884.000000 0 0 1
20.954216 22.576328 -14.494391 34.041990 0.822645 2.010620 0.021623 -0.006825 -387112.000000 0 0 1
21.715916 23.060928 -13.426691 34.404410 0.815427 1.971711 0.020212 -0.008290 752867.000000 0 0 1
23.260716 23.106628 -13.717991 35.540968 0.782075 1.967063 0.012231 -0.011213 543734.000000 0 0 1
23.575916 24.007228 -14.749391 36.738472 0.794462 1.983918 0.005525 -0.005245 -939057.000000 0 0 1
24.940016 24.177228 -14.910991 37.800534 0.769869 1.976282 0.012015 -0.003854 -691906.000000 0 0 1
25.413816 24.686128 -16.333891 39.013625 0.770874 2.002778 0.009694 -0.000868 92042.400000 0 0 1
26.102516 23.721128 -17.125391 39.208574 0.737638 2.022809 0.017368 -0.010864 199903.000000 0 0 1
26.144116 24.185928 -18.469491 40.119771 0.746511 2.049196 0.010256 0.005577 -748658.000000 0 0 1
26.591416 23.073328 -19.467891 40.230345 0.714680 2.075914 0.003674 -0.000247 986879.000000 0 0 1
28.027216 22.982028 -19.591291 41.200936 0.686811 2.066335 0.006002 0.004363 731589.000000 0 0 1
28.310016 22.123428 -20.687491 41.459321 0.663340 2.093221 0.013586 0.004263 358550.000000 0 0 1
29.774016 22.131028 -21.192591 42.724704 0.639199 2.089813 0.037916 -0.003908 12322.700000 0 0 1
30.161616 23.356228 -21.731691 43.903335 0.658916 2.088619 0.022542 0.009024 -381903.000000 0 0 1
31.558316 23.362028 -21.864491 44.941825 0.637252 2.078883 0.038396 0.001705 -393627.000000 0 0 1
32.091316 24.611428 -22.567991 46.312948 0.654241 2.079784 0.025460 0.004473 -310418.000000 0 0 1
31.963216 24.875528 -23.924091 47.040421 0.661340 2.104338 0.022360 0.004573 142434.000000 0 0 1
30.637816 25.076428 -24.378991 46.495572 0.685908 2.122724 0.013206 0.004205 -107687.000000 0 0 1
30.572716 25.479128 -25.886141 47.475986 0.694774 2.147480 0.007145 0.001389 -124595.000000 0 0 1
30.905916 26.838228 -26.001541 48.492744 0.715071 2.136719 0.002140 0.002181 626198.000000 0 0 1
29.857716 27.665728 -26.603931 48.627614 0.747311 2.149686 0.003590 0.004372 866026.000000 0 0 1
29.523616 27.454928 -28.122661 49.155885 0.749108 2.179875 0.000330 0.005545 242753.000000 0 0 1
28.937616 26.156628 -28.375651 48.236214 0.734964 2.199707 0.001355 -0.004883 148760.000000 0 0 1
28.495916 26.080328 -29.743231 48.753056 0.741166 2.226957 0.006058 -0.010298 -320960.000000 0 0 1
27.907516 24.657628 -30.052551 47.853776 0.723651 2.249787 0.012807 -0.017658 196537.000000 0 0 1
26.678116 24.517928 -29.357581 46.633874 0.743229 2.251749 0.016383 -0.014269 471450.000000 0 0 1
25.948516 23.290528 -29.669971 45.782981 0.731469 2.275826 0.025339 -0.021615 1811350.000000 0 0 1
24.428116 23.306628 -29.206311 44.642360 0.761908 2.283959 0.015065 -0.011999 1285650.000000 0 0 1
24.389416 23.196728 -27.821251 43.668682 0.760340 2.261524 0.000635 0.005182 -1034490.000000 0 0 1
23.107616 23.379028 -27.392141 42.788669 0.791237 2.265519 0.000291 0.001928 -1521230.000000 0 0 1
23.041616 23.519828 -25.868671 41.872264 0.795668 2.236738 0.005427 0.009134 -364219.000000 0 0 1
23.424716 22.357228 -25.153451 41.003159 0.762086 2.231220 -0.010505 0.010236 327257.000000 0 0 1
23.661116 22.664528 -23.780591 40.485130 0.763889 2.198627 -0.005658 0.010640 -506545.000000 0 0 1
24.091316 21.521328 -22.833191 39.558990 0.729114 2.186084 -0.000664 0.012674 -521431.000000 0 0 1
25.367416 21.032528 -23.115891 40.251925 0.692244 2.182521 -0.008241 0.009722 -387868.000000 0 0 1
25.466916 19.591528 -23.008491 39.519393 0.655735 2.192238 0.012242 0.007924 -319819.000000 0 0 1
26.753016 18.976828 -23.547091 40.377089 0.616963 2.193434 0.019217 -0.004977 -164661.000000 0 0 1
27.881916 18.843928 -22.714291 40.600910 0.594332 2.164522 0.046791 -0.021094 501292.000000 0 0 1
29.003916 18.376228 -23.475691 41.593521 0.564744 2.170512 0.042276 -0.017730 575276.000000 0 0 1
30.266716 17.998328 -22.674391 41.882477 0.536482 2.142875 0.047028 -0.017844 778178.000000 0 0 1
31.125016 19.140728 -22.360691 42.838471 0.551349 2.119963 0.043614 -0.012245 619646.000000 0 0 1
32.362616 18.764828 -21.780691 43.288060 0.525457 2.098044 0.045883 -0.008198 345673.000000 0 0 1
32.903916 19.862728 -20.858291 43.729440 0.543105 2.068018 0.039277 -0.015859 135804.000000 0 0 1
32.102016 19.946428 -19.682491 42.612203 0.555967 2.050930 0.041364 -0.015085 364755.000000 0 0 1
32.466616 21.007028 -18.882091 43.033821 0.574288 2.025029 0.027938 -0.007491 -74570.200000 0 0 1
31.757816 20.746628 -17.534991 41.790637 0.578675 2.003791 0.034387 -0.019684 337815.000000 0 0 1
32.330616 19.690328 -16.700691 41.375002 0.547033 1.986290 0.034814 -0.025325 511029.000000 0 0 1
31.958616 19.925028 -15.326591 40.660352 0.557494 1.957289 0.033855 -0.024498 -54654.800000 0 0 1
32.438916 18.729428 -14.466591 40.154165 0.523618 1.939360 0.025180 -0.013167 -379628.000000 0 0 1
33.846416 18.655328 -14.524091 41.286200 0.503746 1.930279 0.029456 -0.020480 -187475.000000 0 0 1
34.440416 17.584828 -13.779391 41.051675 0.472081 1.913102 0.015485 -0.002039 118966.000000 0 0 1
34.443716 17.784928 -12.245291 40.652434 0.476640 1.876767 0.035129 -0.016919 220644.000000 0 0 1
35.384716 18.812628 -11.780591 41.770509 0.488653 1.856707 0.038072 -0.025159 735624.000000 0 0 1
35.198416 19.053328 -10.369991 41.346034 0.496149 1.824313 0.036762 -0.024961 -182554.000000 0 0 1
34.001616 19.972628 -10.010791 40.684539 0.531105 1.819408 0.035688 -0.027452 713347.000000 0 0 1
32.726216 19.455328 -10.412791 39.470764 0.536356 1.837767 0.044203 -0.032391 412987.000000 0 0 1
31.674616 20.402428 -10.283791 39.055047 0.572234 1.837253 0.024666 -0.016430 42952.800000 0 0 1
30.300416 19.785828 -10.546191 37.693717 0.578473 1.854368 0.012060 -0.011319 -292762.000000 0 0 1
30.093516 19.451228 -11.949591 37.772512 0.573812 1.892683 0.018255 -0.018872 -259534.000000 0 0 1
28.770316 19.026328 -12.171091 36.576874 0.584291 1.910019 0.021516 -0.016154 -90589.400000 0 0 1
28.414916 18.569828 -13.586091 36.562656 0.578849 1.951511 0.053925 -0.015603 -843326.000000 0 0 1
29.295316 17.575728 -14.035091 36.933799 0.540383 1.960600 0.043734 -0.003862 -384194.000000 0 0 1
28.949816 16.884828 -15.185891 36.794028 0.528008 1.996242 0.037757 0.003482 -666381.000000 0 0 1
30.023016 15.925028 -15.635991 37.409520 0.487692 2.002004 0.043655 -0.018406 -548436.000000 0 0 1
30.475516 14.900228 -14.799391 37.010753 0.454748 1.982168 0.036924 -0.015452 -564637.000000 0 0 1
31.589816 14.338328 -15.396391 37.954617 0.426085 1.988489 0.033846 -0.012639 -840147.000000 0 0 1
32.396316 13.597728 -14.354891 37.953687 0.397399 1.958670 0.021857 -0.021933 -362229.000000 0 0 1
33.241116 14.329828 -13.468691 38.622809 0.407015 1.927005 0.020507 -0.003852 195533.000000 0 0 1
33.753616 13.356228 -12.569391 38.414646 0.376792 1.904139 0.021517 0.001959 16456.600000 0 0 1
34.723616 13.969328 -11.516791 39.160032 0.382488 1.869305 0.024836 0.005926 -113060.000000 0 0 1
-34.867860 14.454628 -12.057491 39.624324 -0.392990 1.879995 -0.000421 0.002746 -905423.000000 0 0 1
-34.051660 14.991428 -11.072091 38.818162 -0.414721 1.860042 -0.002886 -0.002785 -59754.900000 0 0 1
-32.578260 15.227028 -11.538191 37.766854 -0.437228 1.881271 0.002865 -0.017914 606767.000000 0 0 1
-31.806560 14.137628 -12.016391 36.822866 -0.418261 1.903214 0.002995 -0.011422 334716.000000 0 0 1
-31.383760 13.200328 -11.002791 35.780588 -0.398147 1.883369 0.008518 -0.005724 -583941.000000 0 0 1
-30.278260 12.184928 -11.327591 34.547935 -0.382601 1.904855 0.012403 -0.011044 -247569.000000 0 0 1
-30.511860 11.404528 -12.447891 34.871003 -0.357695 1.935818 0.002796 -0.003743 3485.580000 0 0 1
-29.693060 10.273828 -12.352891 33.761269 -0.333108 1.945385 0.024814 -0.016585 -386162.000000 0 0 1
-29.803360 9.658928 -13.752991 34.215200 -0.313407 1.984448 0.028325 -0.017184 -70342.900000 0 0 1
-31.072660 9.225228 -14.160691 35.371460 -0.288603 1.982687 0.004258 -0.013364 134621.000000 0 0 1
-30.811460 8.272828 -15.205691 35.341177 -0.262312 2.015571 0.015972 -0.011586 -355061.000000 0 0 1
-32.057360 7.816628 -15.961891 36.654549 -0.239166 2.021355 0.022307 -0.007549 -650440.000000 0 0 1
-32.698060 6.805428 -15.230191 36.707434 -0.205200 1.998638 0.024500 -0.012069 -596371.000000 0 0 1
-33.647260 6.152328 -15.985391 37.756085 -0.180850 2.007976 0.011814 -0.013088 -1074790.000000 0 0 1
-34.694960 5.521628 -15.100491 38.239423 -0.157824 1.976748 0.013356 -0.009594 -145132.000000 0 0 1
35.208016 4.518328 -15.688491 38.809128 0.127635 1.986952 0.020434 -0.007618 850969.000000 0 0 1
34.293516 4.099228 -14.654191 37.517919 0.118969 1.972071 0.029387 -0.012845 -95720.000000 0 0 1
33.198416 3.170528 -15.121591 36.617613 0.095214 1.996498 0.043744 -0.013123 -864075.000000 0 0 1
33.691716 1.883628 -15.370591 37.080114 0.055850 1.998216 0.044444 -0.016014 904775.000000 0 0 1
32.744916 0.772028 -15.173991 36.098138 0.023573 2.004632 0.035342 -0.004565 875552.000000 0 0 1
32.167416 0.350228 -13.783491 34.997856 0.010887 1.975600 0.053850 -0.025655 335668.000000 0 0 1
33.174416 -0.270972 -12.950691 35.613701 -0.008168 1.942973 0.063894 -0.026332 818080.000000 0 0 1
32.977116 -0.111172 -11.539991 34.938144 -0.003371 1.907415 0.075161 -0.015261 -342619.000000 0 0 1
33.201916 1.343528 -10.978791 34.995802 0.040443 1.889902 0.073971 -0.027967 -329127.000000 0 0 1
32.234716 2.276228 -11.383391 34.261344 0.070497 1.909486 0.070077 -0.016416 259079.000000 0 0 1
32.498316 3.564428 -10.857491 34.448959 0.109244 1.891439 0.072965 -0.019540 -351669.000000 0 0 1
31.525516 4.597828 -11.447891 33.853395 0.144824 1.915758 0.063117 -0.012817 -152409.000000 0 0 1
31.713716 4.942128 -12.798391 34.554062 0.154592 1.950222 0.055957 -0.014304 745041.000000 0 0 1
30.617516 5.763428 -13.220791 33.844330 0.186062 1.972118 0.054412 -0.015256 388263.000000 0 0 1
30.892916 6.320828 -14.666891 34.777044 0.201819 2.006160 0.029592 -0.005148 -253943.000000 0 0 1
30.893516 5.408928 -15.741691 35.092259 0.173326 2.035972 0.024301 -0.002743 292129.000000 0 0 1
31.280616 5.969028 -17.030891 36.113120 0.188555 2.061899 0.018817 0.002837 -427645.000000 0 0 1
30.319416 7.073528 -17.652891 35.790031 0.229201 2.086601 0.016054 0.002451 573492.000000 0 0 1
29.057416 6.697228 -18.165191 34.916478 0.226527 2.117936 0.003474 0.003241 241552.000000 0 0 1
28.119716 6.313928 -17.181791 33.552914 0.220874 2.108401 0.001165 0.007872 -1292320.000000 0 0 1
26.699216 6.216728 -17.729491 32.647062 0.228767 2.144880 -0.001995 0.007689 -529293.000000 0 0 1
26.533716 5.241928 -18.761791 32.916875 0.195046 2.177272 -0.001524 0.002605 -228319.000000 0 0 1
25.277516 5.380628 -19.364991 32.294068 0.209732 2.213854 0.000016 -0.005535 -303438.000000 0 0 1
25.006516 4.325228 -20.444791 32.588693 0.171270 2.248953 0.001680 0.024399 -185784.000000 0 0 1
24.825616 3.085328 -19.859491 31.941037 0.123646 2.241777 0.000533 0.004235 144129.000000 0 0 1
24.560616 2.118928 -20.840691 32.280770 0.086060 2.272614 -0.004025 0.002748 -433922.000000 0 0 1
23.520816 1.080228 -20.302191 31.089783 0.045894 2.282359 -0.003566 -0.004791 151468.000000 0 0 1
22.328116 1.752628 -19.929291 29.979878 0.078334 2.297963 -0.000183 -0.001198 -36321.700000 0 0 1
21.481116 0.869728 -19.236791 28.848724 0.040466 2.300724 -0.004410 -0.001906 -672885.000000 0 0 1
20.191016 1.474428 -18.714391 27.569539 0.072895 2.316933 -0.008944 -0.005267 -770597.000000 0 0 1
19.258816 1.706228 -19.769991 27.652590 0.088364 2.367337 -0.003072 -0.005568 827670.000000 0 0 1
18.095316 2.495928 -19.523791 26.736651 0.137067 2.389449 -0.013565 -0.003095 969778.000000 0 0 1
16.973316 1.940928 -18.599091 25.254442 0.113857 2.398631 0.012354 -0.011554 -730386.000000 0 0 1
17.309616 1.822128 -17.265591 24.516190 0.104881 2.352166 0.009592 -0.016060 450363.000000 0 1 0
16.173116 2.073728 -16.448791 23.161018 0.127525 2.360569 -0.004638 -0.005052 385111.000000 0 1 0
15.395716 3.409928 -16.397591 22.749432 0.217967 2.375739 0.016674 -0.005014 5485.610000 0 1 0
14.775616 3.784528 -17.614591 23.300543 0.250743 2.427936 0.015902 0.004935 2968.700000 0 1 0
13.842216 4.815828 -17.449091 22.787495 0.334811 2.442973 0.037463 -0.005431 -284699.000000 0 1 0
-19.803184 -21.845572 -17.708491 34.394560 0.834397 2.111644 0.029904 -0.010917 -224913.000000 0 0 1
-19.487284 -22.513872 -18.901691 35.269004 0.857333 2.136404 0.030289 -0.008321 476095.000000 0 0 1
-20.604184 -22.477472 -19.782791 36.347324 0.828853 2.146316 0.036575 -0.006346 3926.030000 0 0 1
-20.319184 -23.156272 -21.115291 37.348865 0.850563 2.171657 0.023239 -0.002138 -42506.400000 0 0 1
-20.287684 -24.556972 -20.901391 38.098598 0.880314 2.151501 0.013507 0.001384 -48425.200000 0 0 1
-19.398984 -25.214382 -21.755191 38.540550 0.915018 2.170594 0.020327 0.002482 -626957.000000 0 0 1
-19.335984 -26.719792 -21.531291 39.388121 0.944369 2.149148 0.016509 0.017432 -112959.000000 0 0 1
-20.509684 -27.388032 -21.944991 40.648912 0.928028 2.141075 0.024042 0.020305 33749.600000 0 0 1
-20.404284 -28.807402 -21.862391 41.523070 0.954522 2.125289 0.045001 0.006770 150720.000000 0 0 1
-21.767584 -29.447192 -22.228091 42.837517 0.934238 2.116352 0.040215 0.009308 141326.000000 0 0 1
-22.159984 -29.449512 -23.605691 43.767195 0.925714 2.140457 0.028276 0.011171 -8534.120000 0 0 1
-21.562784 -30.462222 -24.389591 44.584221 0.954819 2.149627 0.033152 0.002868 -721178.000000 0 0 1
-21.918484 -30.333382 -25.855641 45.486791 0.945072 2.175382 0.042586 0.003659 501251.000000 0 0 1
-23.306284 -30.518592 -26.162431 46.465473 0.918601 2.168869 0.044580 0.003782 734027.000000 0 0 1
-23.822384 -29.551592 -27.091071 46.633987 0.892330 2.190667 0.045126 0.007610 44255.300000 0 0 1
-23.425384 -29.624862 -28.590291 47.368616 0.901731 2.218768 0.061124 -0.005477 -297127.000000 0 0 1
-23.910684 -30.820642 -29.129561 48.684331 0.910986 2.212218 0.046106 0.003240 108069.000000 0 0 1
-23.420284 -30.959932 -30.444911 49.334772 0.923167 2.235859 0.073936 -0.002865 127826.000000 0 0 1
-23.945284 -32.240762 -31.187451 50.847817 0.931982 2.231090 0.043836 -0.006837 -73273.700000 0 0 1
-23.371784 -33.454912 -30.805981 51.131985 0.961007 2.217401 0.048242 -0.015158 230779.000000 0 0 1
-24.219584 -34.514667 -31.285401 52.503589 0.958918 2.209147 0.047956 -0.013633 407460.000000 0 0 1
-23.589284 33.197645 -31.165741 51.281979 -0.953011 2.223999 0.061723 -0.016468 756247.000000 0 0 1
-22.378184 33.014812 -31.911771 51.079566 -0.975110 2.245603 0.060674 -0.017845 512164.000000 0 0 1
-21.802184 31.741172 -31.724681 49.892811 -0.968934 2.259914 0.054961 -0.012118 67727.500000 0 0 1
-20.513584 31.551452 -32.563581 49.766335 -0.994307 2.284092 0.048701 -0.009674 -6700.670000 0 0 1
-20.659984 31.307912 -33.980651 50.613288 -0.987495 2.306863 0.035986 -0.006601 -146798.000000 0 0 1
-20.014184 30.164432 -34.334563 49.893113 -0.984987 2.329750 0.012388 0.005443 -412293.000000 0 0 1
-20.210684 29.765222 33.118867 48.900916 -0.974302 0.826758 0.010443 0.004639 82835.100000 0 0 1
-19.580084 30.654612 32.179393 48.565402 -1.002383 0.846513 0.011166 0.003938 322939.000000 0 0 1
-19.810784 30.421792 30.814423 47.618077 -0.993575 0.867001 0.022583 0.001166 -222263.000000 0 0 1
-19.310784 31.545112 29.913573 47.569132 -1.021481 0.890731 0.013306 -0.006040 -508868.000000 0 0 1
-20.077384 32.707062 29.890393 48.644515 -1.020252 0.909088 0.023314 -0.012153 -368445.000000 0 0 1
-19.378984 33.876665 29.549343 48.952397 -1.051185 0.922745 0.009044 -0.014764 -389772.000000 0 0 1
-20.281484 -34.005589 29.432483 49.335482 1.033016 0.931565 0.009239 -0.019694 -200037.000000 0 0 1
-20.707384 -33.554812 30.709333 49.977838 1.017883 0.909096 0.006437 -0.008913 -186929.000000 0 0 1
-21.496584 -32.367312 30.729723 49.538489 0.984542 0.901646 0.033218 -0.018110 -110590.000000 0 0 1
-20.947784 -31.012592 30.179603 48.077011 0.976730 0.892157 0.020176 -0.021300 -592152.000000 0 0 1
-20.848784 -30.883062 28.787433 47.086640 0.976986 0.913004 0.031249 -0.016404 -251255.000000 0 0 1
-20.831684 -29.562322 28.344113 45.948653 0.956943 0.906043 0.030224 -0.019981 637194.000000 0 0 1
-22.269984 -28.940742 28.104953 46.080442 0.914930 0.914848 0.038578 -0.015417 673056.000000 0 0 1
-23.112284 -28.879332 29.302843 47.189513 0.895869 0.900828 0.037695 -0.015778 1334860.000000 0 0 1
-24.239984 -29.773712 29.218423 48.246938 0.887492 0.920275 0.034439 -0.016603 1507790.000000 0 0 1
-25.414064 -29.587622 28.143893 48.097617 0.861134 0.945742 0.024645 -0.009667 632146.000000 0 0 1
-24.933484 -29.727002 26.789723 47.149364 0.872871 0.966494 0.035048 -0.009951 184116.000000 0 0 1
-26.018514 -29.779052 25.880853 47.260698 0.852692 0.991280 0.040349 -0.011481 103317.000000 0 0 1
-25.632654 -30.283162 24.467293 46.612780 0.868377 1.018193 0.044819 -0.017574 -229249.000000 0 0 1
-24.932184 -29.234172 23.805483 45.199023 0.864654 1.016104 0.029304 -0.013746 494453.000000 0 0 1
-24.381884 -29.459002 22.512683 44.374880 0.879419 1.038713 0.041550 -0.012938 1003590.000000 0 0 1
-23.111184 -30.410462 22.414783 44.287081 0.920942 1.040111 0.030559 -0.014532 477109.000000 0 0 1
-23.450884 -31.814052 22.267483 45.364289 0.935587 1.057721 0.030215 -0.015273 933976.000000 0 0 1
-22.307384 -32.635572 21.994883 45.237980 0.971210 1.063056 0.020994 -0.007467 742393.000000 0 0 1
-21.373284 -33.199032 23.104983 45.747495 0.998797 1.041351 0.021427 -0.005939 308810.000000 0 0 1
-20.579984 -32.197252 23.738683 44.985819 1.002062 1.014914 0.023375 -0.006276 200201.000000 0 0 1
-19.632084 -32.818572 24.560573 45.449963 1.031701 0.999899 0.016104 -0.014413 -359364.000000 0 0 1
-18.941184 -31.923992 25.634153 45.111191 1.035302 0.966426 0.005491 -0.007684 -879116.000000 0 0 1
-17.870284 -31.117992 25.211523 43.855415 1.049507 0.958341 0.020005 -0.008736 19907.400000 0 0 1
-17.292784 -30.400012 26.305823 43.762969 1.053603 0.925922 0.027102 -0.009214 208256.000000 0 0 1
-16.486584 -31.195792 27.403923 44.676167 1.084619 0.910450 0.006643 -0.010250 -777571.000000 0 0 1
-17.220984 -32.237932 28.055293 46.075439 1.080177 0.916124 -0.001937 -0.009477 -22064.200000 0 0 1
-16.580984 -32.758532 29.213803 46.920110 1.102235 0.898699 0.004073 -0.008060 -378749.000000 0 0 1
-16.812184 -32.163002 30.589213 47.463757 1.089140 0.870460 0.014057 -0.007540 -241389.000000 0 0 1
-16.608784 -30.749532 30.491793 46.380329 1.075561 0.853394 0.009934 -0.008715 323630.000000 0 0 1
-16.768884 -30.135452 31.796663 46.908088 1.063014 0.825962 0.022124 -0.008294 -219838.000000 0 0 1
-16.470684 -28.620572 31.575473 45.688413 1.048598 0.807780 0.028764 -0.011734 167077.000000 0 0 1
-17.577984 -27.808842 31.150813 45.306626 1.007107 0.812679 0.024799 -0.012461 453809.000000 0 0 1
-17.887884 -27.891102 29.799163 44.563215 1.000528 0.838345 0.020078 -0.012915 -25992.200000 0 0 1
-16.821484 -27.416122 28.739573 43.134315 1.020465 0.841586 0.021475 -0.011665 225287.000000 0 0 1
-16.486884 -26.041542 28.648453 42.079842 1.006394 0.821926 0.023803 -0.007522 -500290.000000 0 0 1
-15.378584 -25.931272 27.839143 41.035955 1.035502 0.825202 0.014260 -0.001967 -933431.000000 0 0 1
-15.270784 -24.436272 27.279103 39.679689 1.012253 0.812779 0.023798 -0.003012 -141723.000000 0 0 1
-16.308284 -24.109872 26.388213 39.288470 0.976075 0.834359 0.032614 -0.005473 26456.400000 0 0 1
-15.951784 -22.973472 25.585673 37.906022 0.963868 0.829864 0.041234 -0.005428 35200.200000 0 0 1
-16.423684 -21.544572 25.988953 37.541066 0.919462 0.806152 0.051208 -0.006201 -645452.000000 0 0 1
-16.132984 -20.563872 25.034453 36.192124 0.905559 0.806942 0.045903 -0.006221 -5401.700000 0 0 1
-16.699884 -19.332572 25.376713 36.008500 0.858333 0.788736 0.054512 -0.000944 -218431.000000 0 0 1
-16.298484 -18.276772 24.386023 34.559501 0.842553 0.787493 0.049332 -0.010106 -714488.000000 0 0 1
-14.926984 -18.064672 24.437643 33.857726 0.880218 0.764434 0.049392 -0.008386 -814537.000000 0 0 1
-14.540484 -16.932472 23.618983 32.496010 0.861254 0.757105 0.055623 -0.006359 -526880.000000 0 0 1
-13.126984 -16.422172 23.753883 31.721482 0.896455 0.724507 0.043253 -0.010468 -1741790.000000 0 0 1
-12.134284 -17.282672 23.401983 31.521174 0.958658 0.734119 0.020433 -0.005561 105506.000000 0 0 1
-10.805084 -16.741272 23.598783 30.885637 0.997650 0.701198 0.018216 -0.008436 975292.000000 0 0 1
-10.313384 -16.100872 22.258083 29.343249 1.001094 0.709724 0.015371 -0.011945 -532591.000000 0 0 1
-9.909384 -17.008672 21.243283 28.961490 1.043263 0.747338 0.025292 -0.003295 -235774.000000 0 0 1
-8.601984 -17.514572 21.367583 28.936620 1.114267 0.740062 0.020977 -0.002273 -451374.000000 0 0 1
-8.256784 -18.715472 20.483783 28.948726 1.155306 0.784717 0.016357 0.004232 -57653.800000 0 0 1
-8.060284 -18.328872 19.146983 27.704200 1.156491 0.807756 0.020624 0.004460 -116915.000000 0 0 1
-7.678884 -19.483272 18.386783 27.868207 1.195363 0.850275 0.017676 0.008406 198615.000000 0 0 1
-7.572684 -19.189272 16.931383 26.687927 1.194927 0.883537 0.007174 0.003721 -553719.000000 0 0 1
-6.447884 -18.424672 16.696583 25.686955 1.234158 0.863209 0.009048 0.006947 -869452.000000 0 0 1
-6.259884 -18.093272 15.335783 24.530367 1.237709 0.895440 0.015649 -0.002620 29960.700000 0 1 0
-5.483084 -16.766472 15.284283 23.340696 1.254732 0.856833 0.006621 0.000257 177387.000000 0 1 0
-6.137484 -15.705472 15.929983 23.196873 1.198258 0.813816 0.012021 -0.003986 -286774.000000 0 1 0
-5.315384 -14.603872 15.816383 22.173957 1.221730 0.776620 0.009080 0.002495 -249168.000000 0 1 0
-5.595284 -13.550572 16.922483 22.389632 1.179203 0.713894 0.000475 0.010620 -85683.300000 0 1 0
-5.181784 -13.730472 18.296183 23.454788 1.209929 0.676032 0.007479 0.010972 -4643.730000 0 1 0
-5.883584 -14.746772 19.030883 24.784236 1.191174 0.695299 0.016410 0.003861 282677.000000 0 1 0
-7.219984 -14.226372 19.609983 25.279819 1.101161 0.682946 0.023329 -0.005213 -163493.000000 0 0 1
-7.034984 -13.478872 20.771383 25.741433 1.089762 0.631870 0.020265 -0.001198 -217900.000000 0 0 1
-8.194784 -13.007372 21.408183 26.356337 1.008602 0.622781 0.027157 0.000054 80595.300000 0 0 1
-7.726084 -12.035072 22.522383 26.679450 1.000091 0.565754 0.027558 0.007669 -182795.000000 0 0 1
-7.369384 -10.761172 21.990683 25.567573 0.970336 0.535330 0.025092 0.005103 93892.500000 0 0 1
-6.892284 -9.714672 22.813983 25.736283 0.953742 0.481174 0.019132 -0.009760 1283070.000000 0 0 1
-5.476184 -10.005572 23.499683 26.121546 1.070018 0.451879 0.035009 -0.001574 1120490.000000 0 0 1
-5.483284 -11.070572 24.486473 27.426471 1.110914 0.467263 0.031018 0.002752 -1046030.000000 0 0 1
-4.185784 -11.355972 24.857443 27.647267 1.217651 0.453105 0.033275 -0.000572 -893300.000000 0 0 1
-4.095384 -12.550072 25.803323 28.984271 1.255368 0.472897 0.024954 -0.001532 -408689.000000 0 0 1
-2.728384 -12.830972 26.056313 29.172065 1.361277 0.466398 0.021829 -0.004883 330908.000000 0 0 1
-2.640784 -13.929972 27.007953 30.503236 1.383444 0.483415 0.018643 -0.005071 -169601.000000 0 0 1
-2.552684 -15.282572 26.356483 30.573476 1.405292 0.531456 0.016108 -0.018483 -1082600.000000 0 0 1
-1.307384 -15.655672 25.903493 30.295219 1.487481 0.545177 0.018170 -0.014055 -1004700.000000 0 0 1
-1.392084 -16.727972 24.966373 30.084593 1.487769 0.591917 0.011282 -0.014820 -138494.000000 0 0 1
-0.028084 -17.487072 24.868343 30.401200 1.569190 0.612862 0.011986 -0.010779 504087.000000 0 0 1
0.335216 -18.206772 26.010383 31.751204 -1.552387 0.610793 0.014786 -0.012366 98105.700000 0 0 1
0.670116 -17.441072 27.131773 32.261016 -1.532394 0.571653 0.028887 -0.014608 -1042180.000000 0 0 1
1.034916 -18.253672 28.368843 33.749946 -1.514161 0.572481 0.019802 -0.008525 478200.000000 0 0 1
2.309416 -18.950072 28.266893 34.109469 -1.449526 0.593996 0.014265 -0.002399 1240510.000000 0 0 1
3.030816 -19.062372 29.468393 35.227064 -1.413121 0.579882 0.007837 -0.013408 276811.000000 0 0 1
3.983916 -17.865372 29.782263 34.957493 -1.351390 0.551086 0.014891 -0.005367 -117452.000000 0 0 1
3.296016 -16.729872 30.248003 34.723105 -1.376274 0.513317 0.010527 -0.016463 451126.000000 0 0 1
4.275216 -15.866872 30.778723 34.890757 -1.307604 0.490398 0.014284 -0.024858 317772.000000 0 0 1
3.516316 -14.744572 31.522953 34.978042 -1.336687 0.448217 0.020012 -0.022582 292447.000000 0 0 1
2.917516 -15.173672 32.716343 36.181643 -1.380840 0.441235 0.013055 -0.026143 382327.000000 0 0 1
1.741316 -14.437672 33.062738 36.119568 -1.450767 0.414373 0.013289 -0.012122 455794.000000 0 0 1
0.871816 -15.120072 34.157288 37.364381 -1.513201 0.417348 0.005207 -0.013191 244708.000000 0 0 1
1.487116 -14.971972 -33.517851 36.739867 -1.471794 2.719667 0.026575 -0.010944 130327.000000 0 0 1
0.712616 -15.673472 -32.563251 36.145966 -1.525361 2.692594 0.014808 -0.015825 185438.000000 0 0 1
1.344816 -15.533372 -31.161461 34.844380 -1.484436 2.677669 0.033832 -0.012741 30973.500000 0 0 1
1.044716 -16.638572 -30.361111 34.637127 -1.508090 2.639439 0.027812 -0.013921 -271375.000000 0 0 1
1.367716 -16.435872 -28.996411 33.358663 -1.487772 2.624443 0.029906 -0.014266 -112832.000000 0 0 1
1.054916 -17.603372 -28.066711 33.147124 -1.510941 2.580608 0.031337 -0.015916 -11342.600000 0 0 1
1.869216 -18.756872 -28.263151 33.972341 -1.471469 2.553402 0.036812 -0.017512 168848.000000 0 0 1
1.431816 -19.877272 -27.440751 33.913874 -1.498888 2.513467 0.045911 -0.021164 -372772.000000 0 0 1
2.308316 -21.151372 -27.554251 34.813009 -1.462093 2.484044 0.046615 -0.028487 992600.000000 0 0 1
3.653716 -21.076772 -27.015361 34.458812 -1.399149 2.471864 0.045826 -0.026608 1064790.000000 0 0 1
3.744916 -21.168472 -25.610861 33.437177 -1.395698 2.443298 0.039957 -0.019803 -206123.000000 0 0 1
5.225216 -21.395272 -25.107441 33.398266 -1.331262 2.421522 0.035299 -0.022704 910635.000000 0 0 1
5.803916 -22.656572 -25.428871 34.548997 -1.320020 2.397974 0.028616 -0.016705 40602.600000 0 0 1
5.939616 -22.995872 -26.826221 35.829252 -1.318030 2.416931 0.018972 -0.010166 -930381.000000 0 0 1
5.112316 -24.207072 -27.324051 36.860845 -1.362664 2.405765 0.004012 -0.008411 94489.800000 0 0 1
5.609716 -25.380952 -26.737791 37.290362 -1.353273 2.370308 0.016653 0.006179 315979.000000 0 0 1
4.753616 -26.468812 -27.069041 38.156623 -1.393098 2.359470 0.010742 0.004047 36342.100000 0 0 1
4.877216 -27.701922 -26.113771 38.381151 -1.396522 2.319077 0.012481 0.000558 -620758.000000 0 0 1
6.187716 -28.176822 -26.032191 38.857382 -1.354625 2.304927 0.030621 0.003415 -454344.000000 0 0 1
6.364316 -29.398672 -25.393811 39.365367 -1.357603 2.271924 0.026383 0.005387 -451927.000000 0 0 1
7.782616 -29.951732 -25.527061 40.116159 -1.316579 2.260526 0.017886 -0.000326 -250087.000000 0 0 1
8.153516 -30.387572 -26.829041 41.348299 -1.308653 2.276875 0.022555 0.004151 1728020.000000 0 0 1
9.591516 -30.603162 -27.059351 41.961401 -1.267077 2.271640 0.068816 -0.001371 2016650.000000 0 0 1
9.930616 -30.467282 -28.539921 42.911531 -1.255711 2.298407 0.071569 -0.013135 -10927.400000 0 0 1
9.480116 -31.555052 -29.363951 44.134290 -1.278944 2.298735 0.064830 -0.018259 253797.000000 0 0 1
9.714116 -31.104932 -30.696701 44.767938 -1.268092 2.326341 0.075817 -0.008933 17000.400000 0 0 1
-34.617574 -4.900972 -5.976691 35.469942 0.140640 1.740104 0.073135 -0.015626 -243229.000000 0 0 1
-34.289308 -4.324472 -4.706291 34.879892 0.125455 1.706138 0.076316 -0.021135 471967.000000 0 0 1
-33.252684 -3.343772 -4.738891 33.754687 0.100220 1.711654 0.059768 -0.025847 76675.800000 0 0 1
-33.620614 -1.954172 -5.320191 34.094998 0.058059 1.727477 0.072951 -0.022878 11198.500000 0 0 1
-34.451440 -1.162872 -4.442891 34.756198 0.033741 1.698977 0.054148 -0.021548 552034.000000 0 0 1
-35.228680 -0.210772 -5.104191 35.597150 0.005983 1.714680 0.063294 -0.029153 -54064.600000 0 0 1
34.761454 0.648628 -4.072191 35.005173 0.018657 1.687391 0.069247 -0.026440 -360144.000000 0 0 1
-35.142544 1.477328 -3.398091 35.337344 -0.042013 1.667107 0.056518 -0.020493 203738.000000 0 0 1
34.970466 2.265428 -2.413791 35.126800 0.064691 1.639567 0.056693 -0.023676 428735.000000 0 0 1
-34.893614 3.501328 -2.072491 35.130027 -0.100008 1.629825 0.043542 -0.025611 251361.000000 0 0 1
-34.916005 4.444728 -3.143591 35.337872 -0.126617 1.659872 0.057489 -0.031142 516657.000000 0 0 1
-33.636284 4.668028 -3.727691 34.162637 -0.137899 1.680130 0.024064 -0.007971 20720.900000 0 0 1
-32.970394 5.945428 -3.201991 33.654832 -0.178409 1.666083 -0.001244 -0.002602 -413124.000000 0 0 1
-32.469054 5.838228 -1.898391 33.044338 -0.177908 1.628278 -0.002093 -0.010648 218699.000000 0 0 1
-32.304934 7.161228 -1.400391 33.118772 -0.218148 1.613093 0.008136 -0.018882 -33394.100000 0 0 1
-31.601884 7.153628 -0.006891 32.401443 -0.222615 1.571009 0.011671 -0.025178 -204666.000000 0 0 1
-30.201754 7.013528 -0.047891 31.005448 -0.228178 1.572341 0.006829 -0.015231 281385.000000 0 0 1
-29.476774 7.502728 1.089909 30.436147 -0.249238 1.534979 0.014338 -0.023328 106974.000000 0 0 1
-29.274014 9.003628 1.365109 30.657735 -0.298382 1.526254 0.019254 -0.027417 672227.000000 0 0 1
-30.499634 9.805728 1.449309 32.069931 -0.311066 1.525589 0.019958 -0.028965 1290580.000000 0 0 1
-30.217464 11.171028 1.656709 32.258823 -0.354105 1.519417 0.025513 -0.015728 -823112.000000 0 0 1
-31.389384 12.075428 1.413309 33.661652 -0.367246 1.528798 0.018072 -0.024884 -1361590.000000 0 0 1
-31.724064 12.228428 0.057509 33.999323 -0.367911 1.569105 0.015663 -0.020796 240537.000000 0 0 1
-32.908444 12.933328 -0.203691 35.359272 -0.374466 1.576557 0.022573 -0.014262 731648.000000 0 0 1
-34.309834 12.327128 0.187109 36.457617 -0.344926 1.565664 0.039028 -0.021917 218567.000000 0 0 1
-34.592647 11.231828 -0.640291 36.376025 -0.313950 1.588399 0.037241 -0.019965 156551.000000 0 0 1
35.140643 10.486528 -0.000791 36.671952 0.290003 1.570818 0.059370 -0.021601 481141.000000 0 0 1
34.805360 9.140328 -0.734091 35.993021 0.256814 1.591193 0.063946 -0.022920 182049.000000 0 0 1
34.078732 9.296228 -1.931791 35.376711 0.266307 1.625430 0.054308 -0.012958 78119.500000 0 0 1
33.574042 8.101828 -2.436891 34.623610 0.236785 1.641237 0.049765 -0.022641 -93340.000000 0 0 1
33.100602 8.340428 -3.907691 34.358152 0.246834 1.684777 0.051743 -0.005859 569280.000000 0 0 1
31.880482 9.078328 -4.067391 33.396479 0.277418 1.692890 0.062038 -0.017759 740779.000000 0 0 1
31.614722 9.353128 -5.441591 33.415304 0.287643 1.734372 0.049121 -0.010173 276303.000000 0 0 1
30.244002 10.043628 -5.702891 32.374328 0.320628 1.747875 0.050055 -0.009619 31026.100000 0 0 1
29.140002 9.175028 -5.643991 31.067274 0.305034 1.753481 0.034338 -0.010674 667582.000000 0 0 1
27.945732 9.918528 -5.969591 30.248589 0.341052 1.769451 0.020970 0.001430 832599.000000 0 0 1
26.681352 9.011028 -6.064991 28.807591 0.325700 1.782918 0.027737 0.011632 94195.700000 0 0 1
26.622892 8.294128 -7.310491 28.827317 0.302011 1.827192 0.018281 0.001052 338359.000000 0 0 1
25.454292 7.500928 -7.324491 27.528768 0.286571 1.840107 0.024687 -0.001348 -45093.400000 0 0 1
25.494692 6.603328 -8.626691 27.712868 0.253439 1.887345 0.016086 -0.004334 532442.000000 0 0 1
26.512382 5.549328 -8.631191 28.428839 0.206332 1.879272 0.029818 -0.002700 1176210.000000 0 0 1
26.269182 4.534328 -9.558191 28.319412 0.170926 1.915071 0.030115 -0.004603 -150470.000000 0 0 1
27.207812 3.319728 -9.329291 28.953779 0.121414 1.898863 0.040852 -0.001378 33253.200000 0 0 1
28.577542 3.519628 -9.629291 30.360944 0.122544 1.893530 0.078901 -0.000476 358450.000000 0 0 1
29.485382 3.082928 -8.651291 30.882633 0.104179 1.854731 0.058754 -0.013221 -250584.000000 0 0 1
29.722112 1.573428 -8.285491 30.895452 0.052889 1.842298 0.062302 -0.011466 -12106.100000 0 0 1
28.564252 0.922528 -7.732191 29.606660 0.032285 1.835024 0.063945 -0.014421 766162.000000 0 0 1
28.907192 -0.337772 -7.174591 29.786148 -0.011684 1.814059 0.053903 -0.014075 -170595.000000 0 0 1
28.775982 -1.576272 -8.113191 29.939366 -0.054723 1.845215 0.041126 -0.010928 -617371.000000 0 0 1
29.800682 -1.711172 -9.079391 31.200066 -0.057358 1.866074 0.051328 -0.014260 384458.000000 0 0 1
29.613732 -2.851872 -9.821091 31.329860 -0.096006 1.889645 0.038306 -0.015812 270018.000000 0 0 1
30.664942 -3.008372 -10.976291 32.708836 -0.097792 1.913013 0.039087 -0.016729 715395.000000 0 0 1
32.020772 -3.212272 -10.577391 33.875208 -0.099984 1.888352 0.055574 -0.019018 393206.000000 0 0 1
32.759752 -3.600272 -11.668191 34.961550 -0.109460 1.911068 0.051738 -0.025141 -246346.000000 0 0 1
34.204382 -4.088472 -11.408991 36.288021 -0.118966 1.890622 0.051070 -0.017738 -54661.600000 0 0 1
34.246142 -5.340972 -10.696191 36.273030 -0.154712 1.870126 0.046500 -0.014755 -1299430.000000 0 0 1
-35.272765 -5.697572 -10.359291 37.201414 0.160146 1.852992 0.047742 -0.008532 -1626790.000000 0 0 1
-35.196303 -7.070772 -9.617291 37.165412 0.198256 1.832545 0.056732 -0.016404 -354727.000000 0 0 1
35.122301 -7.037872 -8.288491 36.766925 -0.197763 1.798184 0.050577 -0.010123 402778.000000 0 0 1
34.957011 -8.323072 -7.736191 36.757514 -0.233742 1.782847 0.049114 -0.006965 -476375.000000 0 0 1
34.289132 -8.254072 -6.348291 35.835389 -0.236225 1.748888 0.056866 -0.003369 -97538.100000 0 0 1
35.144972 -8.016372 -5.189991 36.419326 -0.224258 1.713790 0.058204 -0.002447 693100.000000 0 0 1
35.208373 -9.009072 -4.158891 36.579903 -0.250504 1.684736 0.059095 -0.002936 -121155.000000 0 0 1
-34.850948 -10.341772 -4.469891 36.626777 0.288466 1.693140 0.067588 -0.003616 -85148.000000 0 0 1
35.145089 -11.145872 -5.310391 37.250611 -0.307105 1.713842 0.049107 -0.001831 713699.000000 0 0 1
-34.764766 -12.107772 -5.905491 37.283534 0.335139 1.729860 0.050582 -0.001401 399387.000000 0 0 1
-35.352207 -12.690772 -7.210891 38.246976 0.344653 1.760466 0.058463 -0.003556 61088.900000 0 0 1
35.362430 -11.721272 -8.255591 38.158151 -0.320065 1.788873 0.060457 -0.006773 200744.000000 0 0 1
34.595912 -12.276372 -9.302791 37.869887 -0.340989 1.818988 0.070095 -0.004488 -91576.700000 0 0 1
34.836229 -11.562672 -10.682391 38.227892 -0.320474 1.854007 0.044244 -0.013959 -159434.000000 0 0 1
34.232042 -10.249072 -10.822591 37.336372 -0.290906 1.864884 0.032057 -0.010037 494239.000000 0 0 1
34.510732 -9.618872 -12.059391 37.801352 -0.271822 1.895492 0.028325 -0.019145 -269382.000000 0 0 1
33.549882 -8.431372 -12.368291 36.737682 -0.246210 1.914169 0.027436 -0.012898 -68489.100000 0 0 1
33.736472 -7.777772 -13.604191 37.198351 -0.226586 1.945203 0.035857 -0.006607 678214.000000 0 0 1
32.696332 -6.820272 -13.733991 36.113554 -0.205646 1.960917 0.033290 -0.012318 207044.000000 0 0 1
32.807422 -6.055572 -15.154491 36.642264 -0.182525 1.997178 0.032934 -0.011407 377831.000000 0 0 1
33.879482 -5.110172 -15.171691 37.471501 -0.149705 1.987651 0.041650 -0.002130 786859.000000 0 0 1
33.415912 -3.851572 -15.653891 37.101241 -0.114755 2.006362 0.052232 -0.007997 1132400.000000 0 0 1
34.630312 -2.815972 -15.666191 38.113223 -0.081137 1.994395 0.056398 -0.018570 1776750.000000 0 0 1
-35.188483 -3.018472 -16.793491 39.107056 0.085571 2.014651 0.054800 -0.011452 994275.000000 0 0 1
-33.968044 -2.345672 -16.624291 37.890596 0.068946 2.024997 0.046082 -0.009081 -334356.000000 0 0 1
-33.863084 -0.825872 -16.393391 37.631553 0.024384 2.021533 0.039411 -0.007897 -951285.000000 0 0 1
-34.246639 0.008128 -17.488991 38.453832 -0.000237 2.042949 0.032447 0.001907 306181.000000 0 0 1
-34.088602 1.374128 -17.146691 38.182850 -0.040289 2.036518 0.034249 -0.005194 -186991.000000 0 0 1
-34.439927 2.455828 -18.154091 39.009110 -0.071187 2.054861 0.017649 -0.002550 -236619.000000 0 0 1
-33.606324 2.549628 -19.272191 38.824000 -0.075722 2.090242 0.016889 0.007536 139562.000000 0 0 1
-33.780414 3.852928 -19.797591 39.343437 -0.113567 2.098093 0.010429 0.013620 179245.000000 0 0 1
-32.889484 4.020528 -21.083191 39.273194 -0.121640 2.137477 0.010794 0.021167 442612.000000 0 0 1
-31.509804 4.257328 -20.812691 38.002114 -0.134298 2.150376 0.015111 0.015229 479844.000000 0 0 1
-30.962984 4.624928 -22.092391 38.316708 -0.148273 2.185325 0.013510 0.011981 -470939.000000 0 0 1
-29.486334 5.011628 -21.938391 37.092497 -0.168356 2.203653 0.024450 0.006084 -408772.000000 0 0 1
-28.578704 3.977728 -21.649591 36.073112 -0.138297 2.214496 0.024686 0.016468 -463232.000000 0 0 1
-27.318514 4.558728 -21.484291 35.052218 -0.165350 2.230550 0.013802 0.017525 -457824.000000 0 0 1
-26.340824 3.578728 -20.785491 33.744376 -0.135036 2.234412 0.028837 0.018889 -69318.600000 0 0 1
-26.619664 3.412128 -19.444391 33.141115 -0.127486 2.197793 0.025213 0.021638 160413.000000 0 0 1
-25.891224 2.290828 -18.939391 32.160596 -0.088249 2.200494 0.030757 0.017432 148328.000000 0 0 1
-25.082884 2.666628 -17.634091 30.776990 -0.105915 2.180913 0.029125 0.012768 1133100.000000 0 0 1
-23.830884 3.355628 -17.837391 29.955697 -0.139890 2.208633 0.024236 0.007004 721775.000000 0 0 1
-23.266184 3.733928 -16.585791 28.815725 -0.159130 2.184111 0.030890 -0.001077 -99084.300000 0 0 1
-22.113084 4.722628 -16.850191 28.199657 -0.210406 2.211216 0.047426 -0.006045 -345964.000000 0 0 1
-21.076084 4.192528 -17.606791 27.780887 -0.196360 2.257218 0.066926 -0.012896 -517453.000000 0 0 1
-19.937184 5.025028 -17.655591 27.100961 -0.246901 2.280323 0.068278 -0.013623 -313952.000000 0 0 1
-18.747984 4.202228 -18.160291 26.437507 -0.220499 2.328030 0.088240 -0.019057 -588639.000000 0 0 1
-18.390484 3.147228 -17.252391 25.411807 -0.169492 2.317077 0.108586 -0.027001 261489.000000 0 0 1
-17.264884 2.435228 -17.770991 24.896078 -0.140127 2.365715 0.077659 -0.025090 -395098.000000 0 1 0
-17.179184 0.905728 -17.494391 24.535656 -0.052674 2.364591 0.073463 -0.028513 63045.200000 0 1 0
-18.164684 0.073128 -18.053891 25.610624 -0.004026 2.353131 0.066205 -0.028267 655955.000000 0 0 1
-19.504484 0.336128 -17.604191 26.276328 -0.017232 2.304956 0.060443 -0.029750 307828.000000 0 0 1
-20.536284 -0.796072 -17.880691 27.241362 0.038745 2.286807 0.054098 -0.027838 -322272.000000 0 0 1
-20.352284 -2.063272 -17.228791 26.745164 0.101033 2.270752 0.040454 -0.024886 679336.000000 0 0 1
-21.367284 -3.015872 -17.568291 27.826268 0.140218 2.254097 0.027281 -0.012856 203591.000000 0 0 1
-21.376884 -4.189772 -16.591491 27.382530 0.193542 2.221712 0.029316 -0.013486 -382819.000000 0 0 1
-21.742684 -3.711472 -15.322791 26.857164 0.169070 2.177946 0.024582 -0.023169 494030.000000 0 0 1
-22.252584 -4.801772 -14.548791 27.016696 0.212526 2.139465 0.027365 -0.027832 -55552.300000 0 0 1
-22.480384 -4.308772 -13.059191 26.352906 0.189371 2.089265 0.028638 -0.030340 -287835.000000 0 0 1
-23.284784 -3.167072 -12.980491 26.845943 0.135185 2.075465 0.019426 -0.023955 333733.000000 0 0 1
-23.549184 -2.727472 -11.673891 26.425043 0.115306 2.028371 0.024446 -0.025853 -425569.000000 0 0 1
-24.416884 -1.444472 -11.626691 27.082294 0.059090 2.014525 0.045456 -0.023863 -223486.000000 0 0 1
-24.774484 -1.084372 -10.300391 26.852355 0.043742 1.964481 0.037935 -0.019769 558086.000000 0 0 1
-25.377804 0.189528 -10.234991 27.364647 -0.007468 1.954139 0.050725 -0.018314 -510542.000000 0 0 1
-25.921914 0.349228 -8.841191 27.390404 -0.013471 1.899466 0.054693 -0.012805 61343.700000 0 0 1
-24.924284 0.613228 -7.816991 26.128554 -0.024599 1.874623 0.047607 -0.012029 1078220.000000 0 0 1
-25.455174 0.673228 -6.536291 26.289584 -0.026441 1.822058 0.041742 -0.008967 703820.000000 0 0 1
-24.306484 1.201528 -5.567591 24.964914 -0.049392 1.795704 0.025667 -0.002486 878600.000000 0 1 0
-23.978684 2.555728 -5.776991 24.796828 -0.106182 1.805930 0.050392 -0.007086 499160.000000 0 1 0
-22.744084 2.883828 -5.161991 23.500127 -0.126122 1.792260 0.045552 0.000699 239105.000000 0 1 0
-22.269984 4.380128 -5.339491 23.316258 -0.194204 1.801850 0.066424 -0.001753 -90940.200000 0 1 0
-22.803884 5.262428 -4.358191 23.805548 -0.226799 1.754909 0.066909 -0.000582 602763.000000 0 1 0
-22.478284 6.624828 -4.625291 23.886291 -0.286607 1.765665 0.076976 -0.004948 -392748.000000 0 1 0
-22.832384 7.598228 -3.486491 24.314737 -0.321255 1.714682 0.051173 0.000161 3104.730000 0 1 0
-22.114684 7.398028 -2.243991 23.427026 -0.322827 1.666730 0.038215 -0.002384 900988.000000 0 1 0
-20.764184 7.825328 -2.171991 22.295844 -0.360406 1.668368 0.050249 -0.003159 -49483.100000 0 1 0
-20.419684 9.370228 -2.252491 22.579601 -0.430216 1.670720 0.050020 -0.003311 -567464.000000 0 1 0
-20.269984 9.891628 -3.558991 22.833812 -0.453997 1.727299 0.033155 -0.002851 599782.000000 0 1 0
-19.852384 11.232528 -3.609291 23.093588 -0.514895 1.727729 0.051200 -0.000069 -299989.000000 0 1 0
-19.790484 11.800628 -5.050191 23.588610 -0.537678 1.786561 0.061261 -0.005822 -153545.000000 0 1 0
-18.761184 11.140028 -5.768591 22.568981 -0.535834 1.829263 0.055303 -0.003981 298574.000000 0 1 0
-18.691184 11.630028 -7.106191 23.132571 -0.556598 1.883040 0.046924 -0.001565 -128012.000000 0 1 0
-17.356784 11.405628 -7.875991 22.212103 -0.581370 1.933262 0.041399 -0.001499 131807.000000 0 1 0
-17.069284 10.095428 -8.342591 21.514575 -0.534100 1.969002 0.036756 0.001382 443501.000000 0 1 0
-17.946384 9.638628 -9.375391 22.424848 -0.492869 2.002128 0.044125 0.000149 -36680.200000 0 1 0
-17.730384 10.195328 -10.800191 23.129102 -0.521849 2.056638 0.029596 0.004382 -479582.000000 0 1 0
-16.587084 9.822828 -11.486491 22.440115 -0.534663 2.108160 0.028580 -0.000728 -445842.000000 0 1 0
-16.650584 10.513028 -12.718691 23.442073 -0.563182 2.144276 0.028070 -0.000554 872.616000 0 1 0
-15.513984 10.104128 -13.666191 23.011777 -0.577283 2.206667 0.021707 -0.003198 -691068.000000 0 1 0
-15.649484 8.880728 -14.374891 23.030657 -0.516162 2.244856 0.029102 -0.009841 -15665.400000 0 1 0
-15.718484 7.665428 -13.634091 22.174714 -0.453735 2.232990 0.032505 -0.012242 -345304.000000 0 1 0
-15.621184 6.413528 -14.495791 22.254947 -0.389582 2.280160 0.042300 -0.015991 -131479.000000 0 1 0
-14.470784 6.245028 -15.308691 21.971800 -0.407415 2.341643 0.051129 -0.018874 426958.000000 0 1 0
-14.580684 5.094928 -16.108891 22.317056 -0.336167 2.377224 0.051246 -0.020130 90663.100000 0 1 0
31.413942 -15.756972 28.497473 45.246258 -0.464920 0.889461 0.017601 0.016485 83782.000000 0 0 1
30.458582 -14.743672 28.799093 44.435221 -0.450812 0.865691 0.019349 0.013264 -381412.000000 0 0 1
29.564482 -14.974372 29.819753 44.581477 -0.468833 0.838092 0.026384 0.014166 -319192.000000 0 0 1
30.081042 -14.975472 31.271163 45.902282 -0.461916 0.821321 0.029043 0.003959 -129389.000000 0 0 1
30.760702 -13.791972 31.622173 46.221219 -0.421492 0.817361 0.017945 0.002732 33346.300000 0 0 1
30.790332 -13.636372 32.989613 47.141381 -0.416916 0.795677 0.008811 0.008592 -25688.900000 0 0 1
30.927582 -12.142072 33.436975 47.137846 -0.374108 0.782228 0.023678 0.002884 165514.000000 0 0 1
30.519012 -11.949372 -34.153911 47.335898 -0.373191 2.376795 0.018236 -0.001645 62470.800000 0 0 1
30.874762 -10.681972 -33.638931 46.892784 -0.333087 2.370800 0.016049 -0.002780 29435.000000 0 0 1
30.417942 -10.433872 -32.167401 45.484707 -0.330440 2.356345 0.019781 -0.001766 -1198950.000000 0 0 1
29.062872 -10.327872 -32.019041 44.458233 -0.341445 2.374894 0.053466 -0.015121 -1245750.000000 0 0 1
28.725662 -10.244272 -30.648351 43.236908 -0.342564 2.358659 0.051076 -0.009806 -119390.000000 0 0 1
27.266062 -9.883872 -30.281811 41.929908 -0.347765 2.377775 0.030765 0.006857 113733.000000 0 0 1
27.032322 -9.842872 -28.891201 40.771682 -0.349194 2.358322 0.025605 -0.003739 -165395.000000 0 0 1
26.306772 -10.939872 -28.429361 40.248672 -0.394102 2.355115 0.037666 -0.001768 -945291.000000 0 0 1
25.715792 -10.861872 -27.013551 38.846032 -0.399651 2.339773 0.029667 0.000276 -607715.000000 0 0 1
24.824492 -9.800572 -26.755901 37.791333 -0.376011 2.357445 0.020146 -0.001938 1427720.000000 0 0 1
23.541992 -9.687072 -27.428341 37.421633 -0.390364 2.393451 0.014997 -0.002379 1120100.000000 0 0 1
22.551892 -10.875272 -27.372341 37.095882 -0.449333 2.400721 0.017676 0.005939 -831680.000000 0 0 1
23.012592 -12.042772 -28.048361 38.227193 -0.482123 2.394589 0.024791 -0.002392 235207.000000 0 0 1
22.146692 -13.140072 -27.851251 37.931908 -0.535493 2.395348 0.016255 -0.008226 277514.000000 0 0 1
22.891492 -14.379372 -28.450721 39.245768 -0.560864 2.381740 0.028128 0.003891 395892.000000 0 0 1
22.915592 -14.214172 -29.882631 40.250946 -0.555201 2.407454 0.029486 -0.003683 53690.900000 0 0 1
24.023292 -14.874172 -30.448591 41.538852 -0.554386 2.393540 0.023768 0.004120 -283610.000000 0 0 1
24.122192 -14.794272 -31.950401 42.679957 -0.550146 2.416751 0.039180 -0.007306 -257744.000000 0 0 1
23.018192 -15.394572 -32.593491 42.768747 -0.589478 2.437326 0.043235 -0.008426 -31356.900000 0 0 1
23.231692 -15.799372 -33.988661 44.097174 -0.597230 2.450841 0.040949 -0.009041 -605.765000 0 0 1
23.375792 -14.651872 33.967315 43.759382 -0.559890 0.682134 0.032238 -0.014563 -391723.000000 0 0 1
22.304792 -13.769472 34.005974 42.936096 -0.553067 0.656696 0.040955 -0.012996 -586873.000000 0 0 1
22.549292 -12.587572 33.232422 42.086951 -0.509136 0.660618 0.040601 -0.007729 1050560.000000 0 0 1
21.301692 -11.562072 33.346185 41.223921 -0.497281 0.628511 0.048229 -0.014322 2101760.000000 0 0 1
20.006192 -12.001972 32.925328 40.353095 -0.540355 0.616459 0.039936 -0.011850 738008.000000 0 0 1
19.931292 -12.163672 31.498603 39.209352 -0.547944 0.637907 0.030874 -0.003705 -180123.000000 0 0 1
18.464792 -12.467372 31.022373 38.193868 -0.593885 0.622824 0.029672 0.001278 577725.000000 0 0 1
17.641692 -11.374872 31.263043 37.656273 -0.572691 0.591292 0.032528 -0.000174 210965.000000 0 0 1
16.625092 -11.669372 32.266363 38.127236 -0.612009 0.561831 0.022947 0.003406 847518.000000 0 0 1
15.782592 -10.418372 32.688443 37.764626 -0.583455 0.524482 0.027486 -0.002581 672481.000000 0 0 1
14.804192 -9.956572 31.711273 36.385468 -0.592065 0.512469 0.020134 -0.000290 692973.000000 0 0 1
14.122492 -8.742472 31.951713 36.010937 -0.554306 0.479387 0.025469 0.002429 467739.000000 0 0 1
12.966492 -8.737672 32.982061 36.500591 -0.592970 0.442688 0.031671 0.004304 -872438.000000 0 0 1
12.001792 -9.709172 32.684713 36.146943 -0.680191 0.441251 0.027692 0.002685 31341.800000 0 0 1
10.813492 -9.774372 33.443307 36.481841 -0.734969 0.411027 0.027399 0.001560 192616.000000 0 0 1
9.717992 -8.836672 32.927898 35.450989 -0.737935 0.379557 0.015272 0.001878 -754535.000000 0 0 1
10.234692 -7.501772 32.900238 35.262603 -0.632516 0.368117 0.039988 -0.003274 -68364.700000 0 0 1
9.306492 -6.585872 32.405393 34.352496 -0.615851 0.338301 0.030828 0.004335 -229891.000000 0 0 1
9.939692 -5.174672 32.342803 34.229105 -0.479997 0.333532 0.042615 0.001346 64913.500000 0 0 1
10.084792 -4.592772 33.648850 35.426568 -0.427348 0.318138 0.049470 -0.002726 349184.000000 0 0 1
10.516192 -3.246672 33.676676 35.429503 -0.299447 0.315870 0.032228 -0.006925 -274805.000000 0 0 1
10.229992 -2.598172 -33.933851 35.537438 -0.248717 2.840039 0.026964 -0.015908 -508628.000000 0 0 1
8.881192 -2.255772 -33.806961 35.026771 -0.248734 2.876908 0.026984 -0.006368 -457667.000000 0 0 1
8.614092 -1.673472 -32.530491 33.693262 -0.191881 2.878113 0.021364 -0.006317 603345.000000 0 0 1
7.106792 -1.472972 -32.156721 32.965601 -0.204369 2.919610 0.017760 -0.004101 324284.000000 0 0 1
6.513392 -0.472272 -32.962771 33.603446 -0.072381 2.946008 0.030305 -0.004893 -689337.000000 0 0 1
5.163592 -0.315872 -32.671261 33.078297 -0.061097 2.984554 0.033356 -0.004224 -672426.000000 0 0 1
4.540492 0.774928 -33.569831 33.884364 0.169042 3.005233 0.035257 -0.010966 -396020.000000 0 0 1
5.095692 2.045228 -33.428041 33.875994 0.381682 2.978789 0.029872 -0.015404 -209837.000000 0 0 1
4.592192 2.942828 -34.409642 34.839230 0.569904 2.984392 0.036491 -0.016799 27874.900000 0 0 1
5.489092 4.188728 34.304519 34.992508 0.651833 0.198624 0.028229 -0.016906 478400.000000 0 0 1
4.846692 5.106328 33.441988 34.175014 0.811478 0.207491 0.046183 -0.026361 45437.200000 0 0 1
5.809092 6.096028 33.259070 34.308495 0.809495 0.247972 0.040977 -0.026957 -19301.000000 0 0 1
5.362492 7.189928 32.249233 33.473339 0.929967 0.271274 0.050545 -0.029752 -463874.000000 0 0 1
4.276792 7.898728 32.794543 34.002395 1.074539 0.267338 0.057529 -0.029178 -366506.000000 0 0 1
3.899992 9.175928 32.255283 33.761085 1.168905 0.299791 0.054541 -0.024658 7195.180000 0 0 1
3.681892 9.191728 30.759713 32.314147 1.189802 0.311431 0.044655 -0.020496 351809.000000 0 0 1
2.496692 8.478128 30.347153 31.607939 1.284406 0.283395 0.054770 -0.025062 468966.000000 0 0 1
2.398292 8.575128 28.960623 30.298553 1.298084 0.298285 0.048779 -0.013080 246589.000000 0 0 1
1.101892 7.927328 28.385423 29.492184 1.432682 0.274825 0.044068 -0.010512 766357.000000 0 0 1
-0.072108 8.593928 28.861113 30.113529 -1.562406 0.289418 0.040711 -0.011018 -110674.000000 0 0 1
-1.157608 8.325928 27.994093 29.228930 -1.432645 0.291712 0.039291 -0.007505 1277690.000000 0 0 1
-2.552608 8.832728 28.562673 30.005986 -1.289467 0.311421 0.031897 -0.006138 1064070.000000 0 0 1
-2.760908 10.267828 28.687703 30.594692 -1.308120 0.354934 0.034220 -0.006795 -908875.000000 0 0 1
-4.090808 10.462728 29.029203 31.127126 -1.198082 0.369241 0.028072 -0.002834 -783720.000000 0 0 1
-4.459708 11.692828 29.827113 32.346064 -1.206422 0.397259 0.019860 -0.001736 -234379.000000 0 0 1
-4.372908 12.954328 29.206363 32.248234 -1.245243 0.437831 0.016719 -0.003263 370228.000000 0 0 1
-5.491008 13.300628 28.381733 31.821072 -1.179272 0.469231 0.003464 -0.003631 267453.000000 0 0 1
-5.502808 14.771028 27.809733 31.966317 -1.214184 0.515655 -0.012964 -0.000584 -556854.000000 0 0 1
-4.621408 14.981628 26.788423 31.039107 -1.271586 0.529512 -0.008425 0.008653 -574727.000000 0 0 1
-5.092408 16.183728 26.207863 31.220150 -1.265943 0.574520 -0.004787 0.007661 403625.000000 0 0 1
-4.020808 16.830328 25.296373 30.648545 -1.336289 0.599940 0.020733 0.011301 246543.000000 0 0 1
-4.009608 16.159828 24.058043 29.257587 -1.327586 0.605384 0.014547 0.009878 70462.900000 0 0 1
-3.073008 16.907528 23.283283 28.938195 -1.391005 0.635817 0.023472 0.012571 281100.000000 0 0 1
-2.920608 16.527928 21.780283 27.496965 -1.395894 0.656558 0.020471 0.014343 -385401.000000 0 0 1
-2.248608 15.319228 21.641183 26.609693 -1.425054 0.621026 0.002202 0.016791 -260227.000000 0 0 1
-1.912408 15.345928 20.295083 25.515587 -1.446816 0.651130 -0.005335 0.016587 -182028.000000 0 0 1
-1.151508 14.079128 19.867883 24.377871 -1.489190 0.618073 -0.008196 0.012169 -441034.000000 0 1 0
-1.879708 12.890928 19.884783 23.772125 -1.426000 0.579978 -0.006233 0.013280 -563668.000000 0 1 0
-1.192508 11.863228 19.267283 22.658033 -1.470611 0.554144 -0.004155 0.008804 -290535.000000 0 1 0
-2.025908 10.542628 19.103583 21.913425 -1.380947 0.511982 -0.010421 0.006283 -103839.000000 0 1 0
-2.129808 9.733028 20.298083 22.611503 -1.355369 0.456301 0.003226 0.000028 -276253.000000 0 1 0
-2.800308 10.243028 21.399483 23.889312 -1.303931 0.460621 0.007658 0.004568 -123840.000000 0 1 0
-4.352608 10.167028 21.375883 24.067447 -1.166294 0.477458 -0.000166 0.008731 -144804.000000 0 1 0
-4.836708 8.876928 21.388283 23.656970 -1.071906 0.441526 -0.002699 0.010510 -275798.000000 0 1 0
-6.224908 8.932328 21.117683 23.759051 -0.962156 0.476018 -0.002437 0.008128 143424.000000 0 1 0
-6.876108 7.549828 21.077483 23.420953 -0.832066 0.451161 -0.005591 -0.000956 -174613.000000 0 1 0
-6.851608 6.880728 22.284483 24.308170 -0.787519 0.410933 0.008373 -0.005823 65513.800000 0 1 0
-7.703908 5.735828 22.336683 24.314138 -0.639994 0.406095 0.008300 -0.006551 287954.000000 0 1 0
-7.679108 4.983228 23.700683 25.407157 -0.575625 0.368594 0.003770 -0.002245 -107337.000000 0 0 1
-8.379308 5.632628 24.739613 26.720549 -0.591828 0.387479 -0.002661 -0.001086 -76285.000000 0 0 1
-8.434108 4.740828 25.820473 27.573655 -0.512087 0.358517 0.002294 0.009194 549949.000000 0 0 1
-9.534908 5.236628 26.841063 28.961688 -0.502233 0.385054 -0.008810 0.014494 578321.000000 0 0 1
-9.102308 6.422028 27.508613 29.678582 -0.614433 0.384771 -0.003380 0.014628 -261169.000000 0 0 1
-10.115308 6.961328 28.318313 30.865942 -0.602761 0.409145 -0.000952 0.017172 81488.000000 0 0 1
-9.564908 8.143128 29.151303 31.742660 -0.705280 0.406871 0.005224 0.010177 416416.000000 0 0 1
-8.528508 7.764728 30.056373 32.193353 -0.738555 0.366407 0.002050 0.007223 -25738.100000 0 0 1
-8.059808 8.902428 30.702703 32.967707 -0.835034 0.372841 0.006498 0.001908 -79664.400000 0 0 1
-7.024208 8.618428 31.815093 33.701883 -0.886963 0.336199 0.024803 -0.004210 432395.000000 0 0 1
-5.773808 8.214428 31.265133 32.837817 -0.958136 0.310740 0.036191 -0.004999 -343138.000000 0 0 1
-4.985508 7.688428 32.323673 33.597426 -0.995516 0.276240 0.051823 -0.012810 -110222.000000 0 0 1
-3.474608 7.605428 32.104453 33.175463 -1.142253 0.254788 0.037753 -0.012256 -93845.000000 0 0 1
-2.935008 8.893828 31.891643 33.238401 -1.252044 0.285639 0.026651 -0.006788 96109.800000 0 0 1
-1.508008 8.904728 32.010123 33.259829 -1.403039 0.274997 0.031723 -0.015311 902139.000000 0 0 1
-0.929208 10.258728 31.521723 33.162086 -1.480466 0.315843 0.027684 -0.011165 -122934.000000 0 0 1
-1.171208 11.235328 32.494923 34.402388 -1.466928 0.334562 0.023574 -0.017600 -44405.100000 0 0 1
-1.450308 12.541328 31.944553 34.348839 -1.455665 0.376373 0.023542 -0.007958 -19634.600000 0 0 1
-1.790108 13.570528 33.124139 35.840930 -1.439642 0.391864 0.014956 -0.015693 -470954.000000 0 0 1
-0.605308 13.997628 33.750197 36.542794 -1.527580 0.393481 0.041820 -0.012944 -258309.000000 0 0 1
-0.854308 14.697828 -34.009491 37.059431 -1.512737 2.733052 0.042327 -0.011319 754618.000000 0 0 1
0.524092 15.050028 -33.347471 36.590051 1.535987 2.717423 0.031476 -0.009107 634615.000000 0 0 1
1.233092 15.993928 -34.127800 37.709852 1.493851 2.702200 0.036271 -0.010294 983788.000000 0 0 1
2.517092 16.382228 -33.594801 37.460964 1.418341 2.683268 0.052752 -0.012581 978696.000000 0 0 1
3.336192 17.279828 34.391461 38.632826 1.380074 0.472983 0.066249 -0.004953 14734.400000 0 0 1
2.919492 18.615628 34.352734 39.181314 1.415233 0.501706 0.044721 0.003748 84908.500000 0 0 1
3.884292 19.381528 33.659325 39.034363 1.373005 0.531003 0.034682 0.017391 115199.000000 0 0 1
3.559992 20.865928 33.651461 39.755268 1.401811 0.561485 0.033344 0.009722 -126060.000000 0 0 1
3.761792 21.575828 -34.101469 40.528726 1.398179 2.570692 0.044227 -0.004834 8190.920000 0 0 1
3.104492 22.807328 -34.086535 41.130329 1.435510 2.547657 0.043648 -0.002086 -82662.800000 0 0 1
3.283592 23.414728 -32.655681 40.316559 1.431469 2.514917 0.040170 -0.006391 -35407.300000 0 0 1
2.914392 24.759128 -32.513111 40.970849 1.453626 2.487445 0.044213 -0.013421 174696.000000 0 0 1
3.007392 25.070728 -31.198071 40.136086 1.451410 2.461171 0.054672 -0.009408 -7027.120000 0 0 1
2.394192 26.424628 -30.769741 40.629670 1.480438 2.429999 0.048047 -0.017997 346212.000000 0 0 1
3.354492 27.495128 -30.728121 41.369700 1.449393 2.407993 0.040145 -0.008986 676468.000000 0 0 1
2.774192 28.707828 -30.295161 41.828606 1.474460 2.380770 0.030773 -0.013526 358434.000000 0 0 1
3.844292 29.852928 -30.343221 42.739758 1.442727 2.360228 0.031416 -0.017718 1369320.000000 0 0 1
4.953692 29.773728 -29.408961 42.141439 1.405929 2.343206 0.045515 -0.026385 832709.000000 0 0 1
5.472892 31.033928 -29.056381 42.864093 1.396239 2.315661 0.065535 -0.022359 280782.000000 0 0 1
6.752992 30.968828 -28.116951 42.370203 1.356099 2.296420 0.065911 -0.030029 2143070.000000 0 0 1
8.006292 30.544228 -28.740101 42.697119 1.314442 2.309210 0.058173 -0.022367 981900.000000 0 0 1
8.918192 31.506128 -29.150541 43.839757 1.294950 2.298202 0.061111 -0.026126 -616710.000000 0 0 1
8.488092 32.574028 -30.186771 45.214557 1.315886 2.301822 0.068958 -0.021786 -1107380.000000 0 0 1
7.739492 33.579228 -29.551161 45.395323 1.344268 2.279663 0.056020 -0.024404 -111532.000000 0 0 1
7.459992 -34.393897 -30.327021 46.457721 -1.357206 2.282055 0.056337 -0.019178 -796662.000000 0 0 1
6.273392 -34.460897 -31.237421 46.932774 -1.390724 2.299064 0.027545 -0.012552 -1086450.000000 0 0 1
6.487292 33.856528 -32.358731 47.280407 1.381480 2.324577 0.032809 -0.012630 514541.000000 0 0 1
5.259092 33.662328 -33.057141 47.471938 1.415818 2.341097 0.044753 -0.011226 360298.000000 0 0 1
5.409992 32.879728 -34.385513 47.882231 1.407719 2.371903 0.042100 -0.007240 48292.500000 0 0 1
6.108292 33.626828 33.583421 47.915769 1.391106 0.794159 0.042946 -0.012238 122875.000000 0 0 1
6.310592 32.888028 32.361223 46.569246 1.381219 0.802508 0.047338 -0.017971 278039.000000 0 0 1
5.258492 33.235328 31.246893 45.919572 1.413877 0.822392 0.035608 -0.024707 565264.000000 0 0 1
5.437792 34.541328 30.719163 46.543956 1.414649 0.849973 0.032445 -0.023469 511896.000000 0 0 1
4.339292 -34.304097 29.841493 45.674010 -1.444970 0.858784 0.012378 -0.030345 516192.000000 0 0 1
17.272616 -21.471272 29.983823 40.723316 -0.893346 0.743238 0.047259 0.006816 312892.000000 0 0 1
16.086516 -20.668872 30.157753 39.943314 -0.909430 0.715121 0.050394 0.007832 1838910.000000 0 0 1
14.848816 -21.440872 30.096943 39.824921 -0.965090 0.714026 0.053317 0.007698 1270910.000000 0 0 1
14.356516 -22.066372 31.412763 40.985315 -0.993995 0.697517 0.056416 0.008484 -1077570.000000 0 0 1
15.192516 -23.098572 31.759513 42.107283 -0.989009 0.716282 0.053273 -0.000171 -13174.400000 0 0 1
14.921016 -23.435372 33.141178 43.245706 -1.003836 0.697662 0.033633 -0.001494 427218.000000 0 0 1
15.963116 -24.426972 33.784189 44.641567 -0.991962 0.712412 0.027208 -0.006479 270457.000000 0 0 1
15.587416 -25.767722 33.671012 45.173887 -1.026767 0.729715 0.033630 -0.014697 51696.400000 0 0 1
16.370416 -26.636982 -34.471665 46.538318 -1.019729 2.404931 0.029034 -0.009245 131887.000000 0 0 1
16.049116 -28.102332 34.143743 47.043707 -1.051901 0.758618 0.018116 0.005391 -94043.100000 0 0 1
16.661716 -28.455292 32.948226 46.614397 -1.041077 0.785796 0.009797 0.002044 63521.300000 0 0 1
16.069916 -29.634552 32.337483 46.713614 -1.073908 0.806195 0.013878 0.005585 -496784.000000 0 0 1
16.792816 -30.123802 31.115373 46.450065 -1.062244 0.836766 0.016934 -0.001858 -498242.000000 0 0 1
17.886816 -30.930112 31.523063 47.647807 -1.046487 0.847866 0.009380 -0.012869 -186518.000000 0 0 1
18.469916 -31.525872 30.394173 47.527089 -1.040835 0.876932 0.000001 -0.007134 -1061310.000000 0 0 1
19.619816 -32.437002 30.699723 48.780829 -1.026812 0.890093 -0.018419 -0.005695 -1098470.000000 0 0 1
20.723416 -31.693342 31.151293 49.033978 -0.991703 0.882399 -0.011394 -0.007254 230907.000000 0 0 1
21.745116 -32.567452 31.648493 50.349937 -0.982082 0.891082 0.008093 -0.010895 -346991.000000 0 0 1
23.067216 -31.896692 31.979313 50.716584 -0.944679 0.888535 0.012505 -0.023877 -975684.000000 0 0 1
23.786616 -31.550322 30.864113 50.138004 -0.924787 0.907671 0.014690 -0.013244 -518811.000000 0 0 1
24.460716 -30.318992 31.050943 49.816955 -0.891936 0.897840 0.020812 -0.010920 402774.000000 0 0 1
25.512016 -30.057312 29.892133 49.475697 -0.867012 0.922062 0.025022 -0.009312 653292.000000 0 0 1
26.607516 -30.952002 30.063223 50.693034 -0.860733 0.935962 0.025269 -0.011379 -130833.000000 0 0 1
27.687816 -30.673502 29.199203 50.597157 -0.836512 0.955633 0.015492 -0.023837 247411.000000 0 0 1
28.878116 -31.624132 29.507803 52.007132 -0.830754 0.967476 0.017604 -0.018169 -59436.900000 0 0 1
28.759816 -32.925632 28.920473 52.417726 -0.852829 0.986358 0.002002 -0.012782 573462.000000 0 0 1
29.741316 -33.901142 29.376613 53.822102 -0.850668 0.993441 0.016609 -0.011651 -152981.000000 0 0 1
29.106716 33.941772 30.009193 53.849758 0.861936 0.979694 0.003713 -0.004622 -669725.000000 0 0 1
28.514316 34.033604 31.304423 54.326046 0.873411 0.956685 0.004782 -0.000897 333106.000000 0 0 1
27.383016 -34.244578 31.469023 53.970549 -0.896281 0.948284 -0.001047 0.002322 342825.000000 0 0 1
26.103016 34.440829 30.659663 52.986348 0.922253 0.953744 0.002056 -0.001412 -404897.000000 0 0 1
25.592516 33.194780 31.137123 52.214852 0.914003 0.931879 -0.003137 0.000975 -352996.000000 0 0 1
24.196416 33.156524 30.983853 51.427821 0.940373 0.924201 -0.007751 -0.002920 -148045.000000 0 0 1
23.802516 31.673052 30.934473 50.266128 0.926332 0.907885 0.011636 -0.008294 -243930.000000 0 0 1
23.741316 31.110232 29.643213 49.093958 0.918941 0.922530 0.015077 -0.007237 213959.000000 0 0 1
23.330716 29.760792 29.684373 48.074828 0.905924 0.905284 0.039838 -0.021109 -201663.000000 0 0 1
22.927116 29.409982 28.232473 46.772558 0.908638 0.922773 0.037042 -0.020962 -328445.000000 0 0 1
21.646316 29.885792 27.911613 46.268582 0.943946 0.923224 0.052439 -0.022661 -208869.000000 0 0 1
21.174916 29.437522 26.679883 45.019562 0.947223 0.936478 0.054503 -0.016744 -480123.000000 0 0 1
19.881016 30.155372 26.316233 44.689432 0.987921 0.941137 0.068377 -0.019027 -484832.000000 0 0 1
19.934716 31.521832 25.922773 45.420358 1.006886 0.963401 0.059080 -0.016912 -845353.000000 0 0 1
18.674316 32.052032 25.707263 45.132319 1.043251 0.964780 0.049615 -0.014229 -943342.000000 0 0 1
18.697216 33.568586 25.251923 45.979294 1.062606 0.989387 0.060113 -0.005888 -207597.000000 0 0 1
19.056016 33.858901 23.894533 45.612560 1.058174 1.019422 0.067051 -0.007054 659841.000000 0 0 1
20.468816 34.056962 23.784583 46.309345 1.029629 1.031419 0.060852 -0.003526 484765.000000 0 0 1
20.923216 34.384706 22.346083 46.037337 1.024148 1.063987 0.061269 -0.005483 -119969.000000 0 0 1
20.589816 -33.438402 21.919483 44.972558 -1.018874 1.061690 0.070905 -0.005828 233097.000000 0 0 1
21.018116 -33.200292 20.596383 44.364756 -1.006415 1.088008 0.067411 -0.007632 -34368.400000 0 0 1
20.577716 -31.835542 20.011783 42.865086 -0.996973 1.085065 0.067204 -0.015623 -169973.000000 0 0 1
21.296916 -30.793812 20.649683 42.757770 -0.965732 1.066781 0.062617 -0.005500 255379.000000 0 0 1
21.042416 -29.462492 20.152483 41.436026 -0.950597 1.062887 0.064439 -0.015797 -221331.000000 0 0 1
21.673916 -29.010902 18.834383 40.818195 -0.929157 1.091200 0.034346 -0.014240 -414074.000000 0 0 1
21.342316 -29.674792 17.653983 40.592498 -0.947296 1.120861 0.019207 -0.022916 25492.700000 0 0 1
21.904716 -29.014452 16.547183 39.943263 -0.924129 1.143659 0.013405 -0.021591 -399480.000000 0 0 1
21.655116 -29.633942 15.217983 39.732878 -0.939727 1.177747 -0.013985 -0.012615 -89546.900000 0 0 1
22.292316 -30.898622 15.159183 41.005768 -0.945808 1.192127 0.013132 -0.008596 273236.000000 0 0 1
22.687516 -31.333392 13.828083 41.081878 -0.944099 1.227494 0.011479 -0.006431 222078.000000 0 0 1
21.523216 -31.615922 12.821683 40.338702 -0.973092 1.247335 -0.010221 -0.009143 634808.000000 0 0 1
20.566316 -32.616262 13.219283 40.762033 -1.008213 1.240521 -0.006128 -0.007070 317663.000000 0 0 1
19.515116 -32.804562 12.311783 40.106845 -1.034142 1.258784 0.004409 0.006459 -121833.000000 0 0 1
18.404016 -33.703742 12.898483 40.509516 -1.070989 1.246749 0.032450 0.003799 122690.000000 0 0 1
17.773716 -33.216412 14.110783 40.228711 -1.079474 1.212410 0.028695 0.003374 861660.000000 0 0 1
18.523016 -33.556692 15.313783 41.275485 -1.066425 1.190696 0.032356 -0.003985 -486021.000000 0 0 1
18.066116 -32.760102 16.565183 40.914718 -1.066828 1.153959 0.033714 -0.003835 1742860.000000 0 0 1
16.629016 -32.741762 16.830483 40.395697 -1.100861 1.141050 0.034094 -0.012319 2266660.000000 0 0 1
15.846016 -33.958392 17.148583 41.210952 -1.134199 1.141625 0.040594 -0.003526 231006.000000 0 0 1
16.225816 34.423180 18.483883 42.307049 1.130320 1.118649 0.039114 -0.009806 147930.000000 0 0 1
17.360916 33.558249 18.501683 42.069820 1.093376 1.115437 0.019466 -0.003867 291406.000000 0 0 1
17.589616 33.188074 19.851983 42.484633 1.083439 1.084591 0.029018 -0.010060 334340.000000 0 0 1
18.393816 31.837462 19.866983 41.792983 1.046904 1.075416 0.030273 -0.010817 -18520.100000 0 0 1
17.681816 30.697642 19.424483 40.401762 1.048211 1.069249 0.011318 -0.004820 -343976.000000 0 0 1
18.499416 29.732632 18.812783 39.751460 1.014219 1.077808 0.009654 -0.010129 -125485.000000 0 0 1
17.828016 28.342762 18.583283 38.294761 1.009315 1.064125 0.016023 -0.001544 -222891.000000 0 0 1
17.518916 27.717492 19.778283 38.292979 1.007141 1.028039 0.024792 -0.009716 -82106.700000 0 0 1
17.069316 26.407902 19.547983 37.025160 0.996976 1.014594 0.021704 -0.014428 -724099.000000 0 0 1
16.989016 25.570752 20.839983 37.105187 0.984370 0.974422 0.032922 -0.013486 -47649.400000 0 0 1
15.879916 25.646352 21.731683 37.177589 1.016387 0.946487 0.026131 -0.009919 170567.000000 0 0 1
14.784316 24.861942 21.301883 35.923006 1.034315 0.936033 0.018996 -0.001633 -462710.000000 0 0 1
13.501616 25.152362 22.083483 36.091760 1.078149 0.912373 0.030562 -0.010183 -536284.000000 0 0 1
12.871216 26.317022 21.620683 36.410270 1.115920 0.935014 0.027735 -0.011328 -450630.000000 0 0 1
11.570116 26.379022 22.148683 36.335720 1.157454 0.915295 0.018509 -0.009096 66160.300000 0 0 1
10.639616 27.372352 21.386283 36.329330 1.200070 0.941374 0.017434 -0.012876 77445.000000 0 0 1
11.054416 28.704022 21.637683 37.607317 1.203185 0.957754 0.014837 -0.015320 -307314.000000 0 0 1
10.540116 29.553972 20.652683 37.564140 1.228219 0.988674 0.013531 -0.015273 -77084.400000 0 0 1
11.157516 30.969362 20.788483 38.932667 1.224996 1.007519 0.011292 -0.015700 -123135.000000 0 0 1
10.593216 31.848882 21.733783 39.986558 1.249698 0.996163 0.007535 -0.009547 -462884.000000 0 0 1
11.180716 31.794162 23.022783 40.815753 1.232644 0.971494 0.007869 -0.009281 -286171.000000 0 0 1
10.542116 32.819852 23.964923 41.983288 1.259995 0.963291 0.003115 -0.012690 329144.000000 0 0 1
9.198016 32.499902 24.291833 41.604570 1.294992 0.947304 0.001708 -0.014342 -34565.300000 0 0 1
8.898916 33.165817 25.545253 42.798622 1.308655 0.931201 0.008209 -0.015516 -425313.000000 0 0 1
7.489816 32.879002 26.095423 42.639151 1.346819 0.912202 0.028649 -0.025463 -376098.000000 0 0 1
6.404016 33.554572 25.478463 42.615406 1.382211 0.929955 0.017743 -0.019354 563949.000000 0 0 1
5.755416 32.988102 24.349713 41.403481 1.398065 0.942079 0.014213 -0.026824 13017.200000 0 0 1
5.065116 31.632502 24.525963 40.345922 1.412020 0.917393 0.009572 -0.024895 -480840.000000 0 0 1
6.039516 30.667932 24.845833 39.928852 1.376352 0.899179 0.006770 -0.020903 -163052.000000 0 0 1
5.475316 29.348762 24.739863 38.773570 1.386356 0.878820 0.002042 -0.017394 -702841.000000 0 0 1
6.492216 28.248452 25.044113 38.305763 1.344894 0.858207 -0.008855 -0.009878 204225.000000 0 0 1
7.498216 28.065822 23.978463 37.668028 1.309728 0.880749 -0.013779 -0.014036 1441300.000000 0 0 1
8.535716 29.059162 23.957403 38.616713 1.285096 0.901557 -0.001547 -0.014659 189027.000000 0 0 1
9.690416 28.786002 25.005023 39.341953 1.246076 0.882035 0.007895 -0.016218 -294412.000000 0 0 1
9.226316 28.930262 26.342843 40.199880 1.262077 0.856221 -0.001714 -0.007978 -399291.000000 0 0 1
10.214916 28.711152 27.283133 40.902862 1.228980 0.840591 0.000413 -0.005703 -431425.000000 0 0 1
11.206116 29.896042 27.452433 42.106846 1.212169 0.860616 0.007101 -0.012319 -85421.100000 0 0 1
10.722516 31.003252 28.238313 43.284828 1.237822 0.860071 0.014892 -0.019764 344655.000000 0 0 1
11.509716 32.184192 28.054373 44.219268 1.227349 0.883515 0.023642 -0.010432 -293885.000000 0 0 1
10.885016 33.356876 28.796323 45.391552 1.255371 0.883566 0.021809 -0.012913 -355172.000000 0 0 1
10.898316 33.356142 30.235673 46.320637 1.255004 0.859591 0.035058 -0.024532 145368.000000 0 0 1
10.148216 32.375332 30.915943 45.901459 1.267041 0.831824 0.036693 -0.018718 -390122.000000 0 0 1
10.387616 32.364402 32.421363 46.973417 1.260225 0.809022 0.054929 -0.025350 -152058.000000 0 0 1
10.114316 31.074762 32.988165 46.434462 1.256127 0.780696 0.054566 -0.025414 98304.200000 0 0 1
10.395416 31.058772 34.374866 47.479926 1.247815 0.761231 0.070684 -0.019806 -104709.000000 0 0 1
10.282516 29.646672 -34.012091 46.276102 1.236944 2.396436 0.058388 -0.011514 -22624.100000 0 0 1
11.259316 28.720142 34.435338 46.232145 1.197175 0.730508 0.052372 -0.003429 465244.000000 0 0 1
11.025416 27.418992 -34.030331 45.071325 1.188473 2.426501 0.039680 -0.008933 48271.800000 0 0 1
12.340216 26.642272 -34.266688 45.125353 1.137035 2.433135 0.014635 -0.009997 128595.000000 0 0 1
12.392216 25.222242 -34.043761 44.144152 1.114116 2.451513 0.012645 -0.009955 -395835.000000 0 0 1
12.308716 24.831182 -32.678371 42.848197 1.110598 2.438204 0.022243 -0.005331 -349486.000000 0 0 1
12.512416 23.306252 -32.593591 41.977186 1.078090 2.459824 0.023979 -0.017116 -170689.000000 0 0 1
13.704716 22.740452 -33.112951 42.443079 1.028425 2.465739 0.013880 -0.004225 157536.000000 0 0 1
13.643616 21.328252 -33.121231 41.690029 1.001698 2.488921 0.015910 -0.000915 -99003.800000 0 0 1
14.900616 20.666652 -33.733811 42.274210 0.946116 2.494726 0.022439 -0.005276 938980.000000 0 0 1
16.079616 20.835652 -32.912851 42.141834 0.913529 2.467065 0.009916 -0.009198 1893.420000 0 0 1
17.185416 20.232752 -33.483571 42.729993 0.866659 2.471249 0.009190 -0.007542 -1528140.000000 0 0 1
18.425816 20.457452 -32.679521 42.731360 0.837600 2.441475 0.001793 -0.005904 -1203310.000000 0 0 1
18.817116 21.804252 -32.858981 43.694644 0.858802 2.421908 0.002321 -0.005466 441703.000000 0 0 1
19.934016 22.178352 -32.023331 43.757720 0.838642 2.391804 0.006255 -0.005224 745492.000000 0 0 1
19.544316 22.344352 -30.502321 42.563387 0.852144 2.369759 -0.005266 0.001542 -10378.700000 0 0 1
18.752216 23.499352 -30.342151 42.714298 0.897283 2.360793 -0.000019 0.000656 -89209.500000 0 0 1
18.426716 23.835552 -29.001891 41.818502 0.912689 2.337157 0.005579 0.006868 -781596.000000 0 0 1
19.572716 24.293112 -28.073481 41.968641 0.892596 2.303545 -0.002419 0.008127 -62077.800000 0 0 1
20.358716 25.392382 -28.519961 43.273994 0.894980 2.290358 0.003161 0.000112 304772.000000 0 0 1
19.617816 26.618652 -28.580711 43.706617 0.935670 2.283553 0.006091 0.002326 -318509.000000 0 0 1
20.450316 27.842432 -29.075201 45.152893 0.937288 2.270417 0.011696 0.000958 -185059.000000 0 0 1
20.625216 27.973242 -30.478851 46.226206 0.935460 2.290739 0.016812 -0.005072 200455.000000 0 0 1
21.281916 26.971362 -31.272381 46.457896 0.902764 2.309235 0.020916 -0.010136 588523.000000 0 0 1
22.753416 26.557492 -30.916331 46.678023 0.862390 2.294723 0.029282 -0.013370 -157448.000000 0 0 1
23.600916 27.602592 -31.208931 47.884274 0.863392 2.280696 0.027976 -0.009588 -648287.000000 0 0 1
24.922216 27.172482 -30.953601 48.141313 0.828567 2.269171 0.037935 -0.011291 225069.000000 0 0 1
26.095616 28.143892 -31.295141 49.522174 0.823144 2.254853 0.012387 -0.002248 19789.900000 0 0 1
26.266116 29.188652 -30.303201 49.600103 0.838051 2.228057 0.010655 0.003399 -190158.000000 0 0 1
27.244816 30.044682 -30.816751 50.937560 0.834232 2.220551 0.005276 0.002528 -95559.200000 0 0 1
27.449016 31.299682 -29.924921 51.270064 0.850849 2.194040 0.003080 0.009708 -174878.000000 0 0 1
28.037116 31.131262 -28.659901 50.760470 0.837644 2.170758 0.011117 0.008571 -653712.000000 0 0 1
27.180016 31.442022 -27.631671 49.908549 0.857974 2.157533 0.013147 0.010910 -586139.000000 0 0 1
27.811016 31.408742 -26.204741 49.463624 0.846076 2.129135 0.020526 0.010522 -481762.000000 0 0 1
27.965516 30.150492 -25.582291 48.431146 0.822977 2.127299 0.023892 0.015359 360661.000000 0 0 1
26.757116 29.478432 -25.226101 47.130429 0.833752 2.135588 0.035891 0.010038 265396.000000 0 0 1
26.129716 29.908452 -23.857891 46.330082 0.852728 2.111751 0.037678 0.014734 -306271.000000 0 0 1
25.811416 31.264262 -23.798191 47.011032 0.880646 2.101599 0.029891 0.017199 54600.100000 0 0 1
25.339416 31.559072 -22.497191 46.305341 0.894277 2.078125 0.039474 0.024987 -86857.100000 0 0 1
2.470416 -26.229942 -20.214391 33.207445 -1.476890 2.225256 0.022588 -0.000800 -65179.900000 0 0 1
2.588316 -27.254102 -19.227191 33.454003 -1.476111 2.183077 0.016291 0.003621 190819.000000 0 0 1
2.650616 -26.605782 -17.958391 32.208651 -1.471498 2.162245 0.030195 0.000193 -165266.000000 0 0 1
2.497816 -27.586742 -16.810191 32.401388 -1.480498 2.116256 0.017660 -0.012509 -159365.000000 0 0 1
3.609716 -28.425542 -16.686291 33.158314 -1.444484 2.098130 0.025183 -0.021801 -270787.000000 0 0 1
3.502216 -29.034772 -15.436291 33.069058 -1.450755 2.056453 0.022520 -0.032921 -588495.000000 0 0 1
4.601816 -29.994662 -15.012591 33.856083 -1.418562 2.030211 0.070459 -0.020830 -688183.000000 0 0 1
5.748616 -29.319492 -14.598191 33.253367 -1.377184 2.025280 0.034730 -0.014182 -674617.000000 0 0 1
6.915016 -30.110922 -14.474291 34.117300 -1.345059 2.008931 0.046463 -0.011103 345978.000000 0 0 1
7.133916 -31.096852 -13.231491 34.539533 -1.345289 1.963927 0.039499 -0.011146 -981700.000000 0 0 1
7.315416 -30.324662 -12.013791 33.428007 -1.334083 1.938414 0.024095 -0.005925 -119708.000000 0 0 1
7.722816 -31.025752 -10.844991 33.761709 -1.326838 1.897816 0.026869 -0.004822 -414871.000000 0 0 1
9.046316 -31.770332 -10.895491 34.783639 -1.293397 1.889395 0.043789 -0.005883 -1165870.000000 0 0 1
10.130516 -31.105922 -10.363091 34.316168 -1.255951 1.877574 0.044775 -0.009482 -554411.000000 0 0 1
11.286216 -31.906242 -10.261391 35.364998 -1.230802 1.865187 0.048926 -0.008630 572202.000000 0 0 1
12.431116 -31.374122 -9.338391 35.015336 -1.193551 1.840758 0.043731 -0.000633 509743.000000 0 0 1
13.407116 -30.512512 -9.888591 34.764183 -1.156794 1.859227 0.044103 -0.009336 82017.100000 0 0 1
14.508316 -30.411212 -9.038291 34.885868 -1.125659 1.832868 0.037926 -0.002475 555235.000000 0 0 1
15.759916 -29.626012 -9.618391 34.908294 -1.081907 1.849941 0.035720 -0.007737 902748.000000 0 0 1
15.525616 -28.214222 -9.645291 33.617239 -1.067741 1.861801 0.035583 -0.005788 313019.000000 0 0 1
14.880916 -27.797702 -10.855191 33.346500 -1.079287 1.902366 0.035385 -0.008971 22209.200000 0 0 1
14.556116 -26.284722 -10.974991 31.987772 -1.065051 1.921011 0.041047 -0.006038 62398.600000 0 0 1
13.408216 -25.947552 -10.189191 30.933402 -1.093844 1.906455 0.027507 -0.002855 926874.000000 0 0 1
12.709116 -24.681972 -10.446091 29.662134 -1.095288 1.930684 0.025080 0.001370 891308.000000 0 0 1
12.168916 -24.425372 -11.914591 29.776481 -1.108583 1.982460 0.007455 0.002886 -665510.000000 0 0 1
13.187716 -24.141772 -12.797091 30.339851 -1.070828 2.006217 0.007596 0.002090 -699600.000000 0 0 1
12.687916 -24.315072 -14.093991 30.835800 -1.089851 2.045490 0.011218 -0.002169 23218.300000 0 0 1
13.509716 -23.645172 -15.203491 31.188984 -1.051708 2.079979 0.018235 -0.000272 295079.000000 0 0 1
14.775016 -24.240572 -15.455891 32.323227 -1.023409 2.069362 0.018326 -0.007687 164142.000000 0 0 1
15.183516 -23.850972 -16.713191 32.844159 -1.003899 2.104660 0.021386 -0.016211 -1329850.000000 0 0 1
16.219116 -24.768272 -17.297391 34.288872 -0.991030 2.099554 0.024253 -0.017360 -767634.000000 0 0 1
17.465816 -24.854272 -16.681891 34.656530 -0.958241 2.072990 0.032096 -0.016076 -344454.000000 0 0 1
18.365416 -23.818372 -17.105191 34.600447 -0.913952 2.087899 0.022942 -0.013238 -672450.000000 0 0 1
19.811916 -24.137672 -16.735191 35.428884 -0.883508 2.062763 0.018241 -0.009476 -366629.000000 0 0 1
20.513916 -24.857072 -17.721991 36.779937 -0.880833 2.073548 0.027868 -0.005041 -262637.000000 0 0 1
21.558016 -25.586002 -17.109191 37.578132 -0.870631 2.043502 0.028481 0.001753 -108676.000000 0 0 1
22.172316 -26.632652 -18.013591 39.056360 -0.876536 2.050167 0.029742 -0.001598 -337831.000000 0 0 1
23.020916 -26.076602 -18.998591 39.634558 -0.847555 2.070704 0.026484 -0.001490 41965.000000 0 0 1
23.354216 -27.023072 -20.056691 40.962626 -0.858097 2.082466 0.022472 -0.006741 -347283.000000 0 0 1
24.382316 -26.450152 -21.024791 41.667130 -0.826055 2.099703 0.013121 -0.009426 -482102.000000 0 0 1
23.976616 -25.327432 -21.780891 41.118903 -0.812789 2.129049 0.019008 -0.010708 -390371.000000 0 0 1
24.222516 -24.064872 -21.236291 40.209805 -0.782133 2.127202 0.031325 -0.005039 -463837.000000 0 0 1
23.356716 -22.835972 -21.586191 39.153307 -0.774125 2.154748 0.054576 0.002141 -725364.000000 0 0 1
23.447616 -22.324572 -22.935891 39.676597 -0.760868 2.187159 0.046092 0.004063 -184449.000000 0 0 1
22.887316 -23.100972 -23.946291 40.384514 -0.790044 2.205523 0.011498 -0.006797 -320169.000000 0 0 1
22.138216 -22.144972 -24.929691 40.024866 -0.785551 2.243183 0.006543 -0.002690 12746.500000 0 0 1
22.953816 -21.181372 -25.593081 40.379871 -0.745260 2.257263 0.008605 0.010170 -69101.000000 0 0 1
22.211416 -20.259972 -26.345811 39.973932 -0.739483 2.290384 0.004684 0.014581 -36342.000000 0 0 1
22.925216 -19.840972 -27.652241 41.035060 -0.713404 2.310229 0.004121 0.013514 555976.000000 0 0 1
22.024516 -18.998472 -28.373261 40.633277 -0.711767 2.343783 0.001904 0.012886 521762.000000 0 0 1
22.581916 -18.801172 -29.629711 41.729447 -0.694291 2.360356 0.009962 0.000944 5237.310000 0 0 1
21.879316 -17.658172 -30.399281 41.408113 -0.679038 2.395193 0.031246 -0.002946 -437800.000000 0 0 1
20.618616 -18.011972 -30.896401 41.281304 -0.718024 2.416497 0.022170 0.000377 -96856.200000 0 0 1
19.888716 -16.925372 -31.437891 40.870163 -0.705077 2.448406 0.027363 -0.009560 659558.000000 0 0 1
18.553816 -17.396072 -32.116891 40.967818 -0.753205 2.471806 0.015979 -0.008308 308301.000000 0 0 1
18.739516 -18.223372 -33.271311 42.311238 -0.771435 2.475670 0.018125 -0.003797 -99748.100000 0 0 1
17.626616 -18.960572 -33.698351 42.494467 -0.821842 2.486523 0.019933 -0.003122 -422770.000000 0 0 1
18.031716 -19.923572 34.133059 43.441423 -0.835201 0.666927 0.032261 0.005671 -8607.690000 0 0 1
18.756216 -21.039972 -34.356772 44.439440 -0.842722 2.454533 0.023617 0.008392 13287.900000 0 0 1
19.009216 -21.948172 33.549778 44.369586 -0.857032 0.713396 0.023599 0.000704 326245.000000 0 0 1
19.915516 -23.138572 34.047079 45.729912 -0.860119 0.730973 0.014637 0.001468 379867.000000 0 0 1
19.231816 -23.960972 -33.941401 45.782198 -0.894453 2.405901 0.012164 -0.004865 215174.000000 0 0 1
19.443816 -23.647172 -32.582701 44.708871 -0.882637 2.387327 0.011751 0.006242 -30490.200000 0 0 1
18.456616 -24.401572 -31.642881 44.015399 -0.923231 2.373022 0.016509 0.002564 -17081.400000 0 0 1
18.443616 -25.825052 -31.775321 44.908477 -0.950620 2.356832 0.024225 -0.006732 -88864.700000 0 0 1
19.537216 -26.458372 -31.146441 45.297340 -0.934752 2.328974 0.016539 -0.016630 -25768.500000 0 0 1
19.559916 -27.993512 -31.482791 46.447747 -0.960923 2.315578 0.017021 -0.020981 -44791.200000 0 0 1
18.582816 -28.689922 -30.759651 45.984658 -0.996031 2.303539 0.021953 -0.024513 -130513.000000 0 0 1
18.713516 -30.072582 -31.031511 47.090451 -1.014157 2.290254 0.017877 -0.016815 8228.980000 0 0 1
17.507816 -30.939012 -30.530941 46.860265 -1.055842 2.280398 0.050195 -0.017700 1397750.000000 0 0 1
16.309716 -30.977672 -31.358611 46.999846 -1.086175 2.301249 0.049159 -0.024045 761508.000000 0 0 1
16.436716 -31.451892 -32.664461 48.232294 -1.089234 2.314791 0.035859 -0.019438 -878366.000000 0 0 1
15.118616 -31.874492 -33.342561 48.541551 -1.127905 2.327993 0.040399 -0.023679 -148369.000000 0 0 1
14.368316 -30.796032 -33.813691 47.939648 -1.134254 2.353697 0.047440 -0.016651 650783.000000 0 0 1
13.141216 -31.320562 -34.400111 48.342909 -1.173533 2.362549 0.032159 -0.016833 1498520.000000 0 0 1
12.111716 -30.263342 33.991608 47.095573 -1.190108 0.764457 0.043155 0.000795 666445.000000 0 0 1
11.492216 -29.500452 -33.888431 46.376432 -1.199322 2.390180 0.057896 -0.010871 120295.000000 0 0 1
10.652416 -28.515442 -34.445264 45.968257 -1.213283 2.417842 0.031515 -0.002685 -131207.000000 0 0 1
9.685316 -27.902802 -33.430181 44.608841 -1.236699 2.417962 0.038819 -0.004614 -52750.800000 0 0 1
8.731116 -28.723312 -32.803891 44.467475 -1.275698 2.400461 0.042884 -0.005652 -297518.000000 0 0 1
7.954616 -27.955952 -31.899841 43.155661 -1.293582 2.402650 0.011714 -0.003213 293421.000000 0 0 1
6.865216 -28.813142 -31.171391 42.999814 -1.336891 2.381713 0.003701 0.001183 1044870.000000 0 0 1
5.681616 -29.196632 -31.928251 43.636422 -1.378600 2.391592 -0.003917 0.005426 1097020.000000 0 0 1
5.874016 -30.326422 -32.814851 45.066733 -1.379472 2.386399 0.007081 0.002287 -163786.000000 0 0 1
4.505016 -30.955262 -33.162701 45.588246 -1.426278 2.385380 0.012687 -0.008019 146439.000000 0 0 1
3.850516 -31.412492 -31.993391 45.001647 -1.448826 2.361628 0.004437 -0.006965 -407861.000000 0 0 1
2.842616 -32.298362 -32.319641 45.780169 -1.483011 2.354595 0.018834 -0.013750 -1608020.000000 0 0 1
2.123816 -32.896542 -31.097141 45.318046 -1.506325 2.327045 0.002586 -0.020197 15901.800000 0 0 1
1.166316 -32.067752 -30.477541 44.255864 -1.534442 2.330445 -0.013372 -0.022824 -76640.800000 0 0 1
-0.049384 -31.962212 -31.200171 44.665827 1.569251 2.344130 -0.015946 0.006628 -1116930.000000 0 0 1
-0.958184 -30.961342 -30.536021 43.496798 1.539858 2.349039 -0.026213 0.004685 -935677.000000 0 0 1
-1.466984 -31.360872 -29.330741 42.964505 1.524053 2.322212 -0.012159 -0.003293 -437718.000000 0 0 1
-2.131684 -30.255372 -28.812761 41.834278 1.500456 2.330540 -0.005125 -0.002922 -416116.000000 0 0 1
-2.672384 -30.473102 -27.409031 41.073186 1.483324 2.301403 0.010352 -0.006302 -185653.000000 0 0 1
-1.629284 -30.375362 -26.471171 40.324187 1.517209 2.286911 -0.005452 0.004799 10489.500000 0 0 1
-2.165484 -30.333402 -25.171651 39.476786 1.499528 2.262216 0.006043 -0.002152 630449.000000 0 0 1
-0.985284 -30.436402 -24.184991 38.887776 1.538436 2.241985 -0.010864 0.008113 582962.000000 0 0 1
-1.619084 -30.654092 -22.925591 38.312890 1.518027 2.212271 0.019203 -0.008431 492352.000000 0 0 1
-0.679484 -31.176292 -22.000691 38.163507 1.549005 2.185217 0.008229 -0.006827 412718.000000 0 0 1
-1.316384 -31.185052 -20.555391 37.373312 1.528609 2.153163 -0.017621 0.004831 138802.000000 0 0 1
-1.608384 -29.909592 -19.998791 36.015583 1.517073 2.159498 -0.007445 0.000993 550435.000000 0 0 1
-0.472184 -29.103052 -19.603891 35.093064 1.554573 2.163524 0.013343 -0.001761 108891.000000 0 0 1
-0.804884 -27.690422 -19.101491 33.649284 1.541737 2.174462 0.021708 -0.005626 -609726.000000 0 0 1
-1.543584 -27.670262 -17.914991 32.999590 1.515069 2.144665 0.018215 -0.003357 -122971.000000 0 0 1
-1.554984 -26.385142 -17.314491 31.597236 1.511930 2.150738 0.018272 -0.003281 14562.900000 0 0 1
-2.483784 -26.289092 -16.074691 30.914095 1.476596 2.117623 0.009224 0.000761 28999.800000 0 0 1
-2.410884 -24.956172 -15.505091 29.479327 1.474490 2.124646 0.011098 0.004363 185510.000000 0 0 1
-3.283984 -24.943972 -14.403191 28.990312 1.439895 2.090736 0.003172 0.011531 -69050.600000 0 0 1
-3.064784 -23.620972 -13.552191 27.404473 1.441769 2.088084 0.007310 0.014901 -713414.000000 0 0 1
-1.935984 -23.578572 -12.757291 26.878348 1.488872 2.065341 0.013820 0.008764 -802099.000000 0 0 1
-1.766684 -22.414072 -11.977291 25.474837 1.492139 2.060270 0.013035 0.010413 342331.000000 0 0 1
-0.415084 -22.457572 -11.217691 25.106801 1.552315 2.033980 0.004368 0.009257 395460.000000 0 0 1
-0.018184 -21.162672 -10.739191 23.731609 1.569937 2.040393 0.001257 0.009146 624794.000000 0 1 0
1.286916 -21.233272 -10.131991 23.561945 -1.510262 2.015306 0.002907 0.006174 972044.000000 0 1 0
1.968316 -19.920972 -9.761191 22.271063 -1.472310 2.024492 0.003677 0.006094 -650532.000000 0 1 0
2.448416 -19.181172 -10.894391 22.194591 -1.443836 2.083871 0.001101 0.012676 917599.000000 0 1 0
3.495016 -18.176172 -10.727191 21.393013 -1.380829 2.096052 0.004399 0.015104 2595780.000000 0 1 0
4.892716 -18.544272 -10.049591 21.652320 -1.312835 2.053454 0.009068 0.004425 1084160.000000 0 1 0
4.614816 -18.997672 -8.733991 21.412395 -1.332497 1.990943 0.003828 0.002155 -651114.000000 0 1 0
5.633216 -19.778272 -8.209591 22.142957 -1.293325 1.950617 0.000957 0.000141 -557306.000000 0 1 0
5.113916 -20.787972 -7.138091 22.566441 -1.329583 1.892638 0.008630 -0.007598 -74497.400000 0 1 0
4.107316 -21.655572 -7.603091 23.316107 -1.383357 1.902958 0.000430 -0.004575 99130.900000 0 1 0
3.882416 -22.794272 -6.739491 24.084699 -1.402091 1.854408 0.015522 -0.005195 30146.500000 0 1 0
2.960716 -23.828172 -7.386691 25.121919 -1.447177 1.869241 0.014443 -0.006518 413448.000000 0 0 1
3.663516 -24.565472 -8.380691 26.212969 -1.422755 1.896225 0.010828 0.002388 293320.000000 0 0 1
2.689316 -25.209462 -9.159991 26.956536 -1.464519 1.917507 0.004892 0.007909 291679.000000 0 0 1
3.284016 -25.945432 -10.367791 28.132567 -1.444892 1.948227 -0.005683 0.010764 48310.600000 0 0 1
3.825816 -27.242572 -10.224591 29.348541 -1.431274 1.926644 -0.004433 0.015752 72178.800000 0 0 1
4.211416 -27.789962 -11.505791 30.371059 -1.420396 1.959340 0.004008 0.018966 262785.000000 0 0 1
4.432616 -29.329972 -11.416391 31.784105 -1.420802 1.938191 0.007098 0.008728 -70562.200000 0 0 1
3.226916 -30.078662 -11.469291 32.352489 -1.463923 1.933187 0.012145 0.009690 164338.000000 0 0 1
3.511516 -31.433512 -11.601191 33.689525 -1.459545 1.922349 0.017109 0.007976 267941.000000 0 0 1
2.247816 -32.328122 -11.840491 34.501556 -1.501377 1.921104 0.010124 0.002579 379269.000000 0 0 1
1.857416 -32.055492 -13.198091 34.715907 -1.512917 1.960781 0.015555 -0.006832 453276.000000 0 0 1
0.939416 -33.058772 -13.638191 35.773806 -1.542387 1.961927 0.012663 -0.004154 105624.000000 0 0 1
0.420616 -32.939882 -15.091991 36.235079 -1.558028 2.000391 0.016887 -0.007764 908479.000000 0 0 1
-0.612784 -31.927372 -15.303791 35.410996 1.551606 2.017701 0.018270 -0.007086 757435.000000 0 0 1
-1.131084 -32.053042 -16.609491 36.118583 1.535523 2.048634 -0.009152 -0.005917 -510214.000000 0 0 1
-2.247084 -31.085472 -16.946191 35.475757 1.498635 2.068813 0.000933 -0.000484 -667961.000000 0 0 1
-3.375084 -31.362842 -16.175291 35.449388 1.463595 2.044621 -0.007249 0.001556 -393965.000000 0 0 1
-4.565884 -30.823112 -16.752391 35.377311 1.423734 2.064096 0.000735 0.005175 1472840.000000 0 0 1
-5.866384 -31.004122 -15.866991 35.318996 1.383794 2.036720 0.001083 -0.002827 719587.000000 0 0 1
-5.996984 -30.171502 -14.735391 34.108872 1.374590 2.017517 -0.013310 -0.002757 275628.000000 0 0 1
-7.335284 -30.189492 -14.219991 34.167528 1.332441 2.000041 0.005123 -0.002919 941603.000000 0 0 1
-7.725884 -31.435272 -13.326891 35.006737 1.329802 1.961344 -0.004657 -0.010134 46107.100000 0 0 1
-7.922984 -32.649172 -14.014991 36.402776 1.332728 1.966002 -0.004984 -0.002642 -255672.000000 0 0 1
-8.567384 -33.599902 -13.188091 37.098238 1.321134 1.934236 0.005199 -0.013835 121361.000000 0 0 1
-8.845984 34.213587 -13.969891 37.999721 -1.317785 1.947257 0.021058 -0.005075 530375.000000 0 0 1
-7.628084 33.532165 -14.290291 37.239847 -1.347117 1.964636 0.013406 0.003612 390487.000000 0 0 1
-7.906784 32.340762 -14.978291 36.507415 -1.331016 1.993558 0.021780 -0.006630 -285854.000000 0 0 1
-8.309284 -22.029172 -3.428491 23.792503 1.210103 1.715399 0.048382 -0.007181 457923.000000 0 1 0
-7.767984 -21.063072 -4.381891 22.873468 1.217476 1.763559 0.033122 -0.004284 74398.000000 0 1 0
-6.472084 -21.298772 -4.888391 22.790830 1.275792 1.786965 0.023193 0.005224 322775.000000 0 1 0
-6.123984 -20.266672 -5.993991 22.003843 1.277350 1.846690 0.022615 0.001656 -139733.000000 0 1 0
-7.078284 -20.364672 -6.994191 22.665849 1.236282 1.884494 0.025094 -0.004313 -638400.000000 0 1 0
-6.850184 -19.352972 -7.936491 22.010235 1.230598 1.939688 0.008629 -0.000399 -131256.000000 0 1 0
-7.714884 -19.367772 -9.223391 22.796951 1.191725 1.987325 0.007652 -0.009416 146264.000000 0 1 0
-7.243484 -20.220972 -10.260491 23.804064 1.226821 2.016441 0.008776 0.001862 -441701.000000 0 1 0
-8.069684 -20.263772 -11.406691 24.614079 1.191815 2.052649 0.020580 0.002196 -144468.000000 0 1 0
-7.449284 -21.116572 -12.542391 25.665405 1.231656 2.081382 0.013631 0.007762 -197611.000000 0 0 1
-6.438784 -20.547472 -13.332091 25.325900 1.267127 2.125182 0.012306 0.012604 -365056.000000 0 0 1
-6.196484 -21.378172 -14.435891 26.529561 1.288676 2.146164 0.004355 0.018286 14935.100000 0 0 1
-5.222484 -20.683472 -15.445791 26.337290 1.323470 2.197479 0.007160 0.016325 234641.000000 0 0 1
-3.915884 -20.643872 -14.885591 25.750426 1.383336 2.187160 0.005579 0.014377 268093.000000 0 0 1
-2.918284 -19.969672 -15.666091 25.548593 1.425688 2.230886 0.016760 0.018605 292626.000000 0 0 1
-3.044984 -18.411872 -15.827891 24.470208 1.406898 2.274207 0.021328 0.014456 -685994.000000 0 1 0
-4.175384 -17.827772 -16.463091 24.623092 1.340736 2.303126 0.017815 0.008334 -174705.000000 0 1 0
-4.187084 -18.024772 -17.845191 25.707488 1.342548 2.338053 0.028258 -0.004564 -259777.000000 0 0 1
-5.590684 -17.653072 -18.381091 26.091210 1.264092 2.352506 0.028072 0.003636 12811.200000 0 0 1
-6.557284 -18.565172 -17.966191 26.654223 1.231270 2.310470 0.022939 0.013253 -37014.500000 0 0 1
-7.677384 -18.701572 -18.842091 27.635402 1.181253 2.321030 0.022516 0.016409 411833.000000 0 0 1
-8.698084 -19.744072 -18.351791 28.324429 1.155836 2.275639 0.023383 0.016537 -197363.000000 0 0 1
-8.240084 -21.071472 -18.409091 29.168486 1.198026 2.253805 0.018052 0.019123 46524.900000 0 0 1
-9.206884 -21.961072 -17.918191 29.801292 1.173817 2.215868 0.029354 0.014501 42403.900000 0 0 1
-8.801484 -23.467672 -18.246591 31.002191 1.211984 2.200070 0.022913 0.000478 -367092.000000 0 0 1
-8.786784 -23.703872 -19.643891 32.015053 1.215810 2.231386 0.013253 -0.002564 681432.000000 0 0 1
-8.026284 -24.847472 -20.155891 32.986028 1.258354 2.228174 0.017732 -0.016585 275990.000000 0 0 1
-6.492484 -24.685872 -20.141191 32.514800 1.313617 2.238834 0.034386 -0.009358 -521072.000000 0 0 1
-5.946284 -23.646572 -20.951891 32.148101 1.324439 2.280660 0.031184 -0.007400 119613.000000 0 0 1
-5.883884 -22.330572 -20.446491 30.843695 1.313162 2.295491 0.027776 -0.004190 -1081250.000000 0 0 1
-4.907784 -22.128672 -19.298891 29.769308 1.352545 2.276122 0.040164 0.011829 825007.000000 0 0 1
-3.542384 -22.336472 -19.777291 30.043431 1.413514 2.289341 0.033724 0.000934 1156510.000000 0 0 1
-2.637984 -22.188572 -18.701091 29.137991 1.452462 2.267654 0.010319 0.006489 1781610.000000 0 0 1
-1.143484 -22.675272 -19.054391 29.640266 1.520410 2.269016 0.031746 0.002011 1737970.000000 0 0 1
-0.362384 -21.864472 -19.918891 29.579532 1.554224 2.309596 0.042838 -0.012873 -599720.000000 0 0 1
0.817516 -22.565472 -20.112491 30.238736 -1.534584 2.298455 0.034045 -0.016002 228884.000000 0 0 1
1.914916 -22.109172 -21.151391 30.657197 -1.484400 2.332192 0.054440 -0.023631 776578.000000 0 0 1
1.520216 -22.327872 -22.456291 31.703784 -1.502815 2.357906 0.045468 -0.028800 -63996.400000 0 0 1
0.761916 -21.273372 -23.025091 31.357482 -1.534996 2.395398 0.046476 -0.021952 -339899.000000 0 0 1
0.142216 -21.690072 -24.356791 32.614916 -1.564240 2.414032 0.044035 -0.021906 -21903.500000 0 0 1
-0.449784 -20.671272 -25.177581 32.579355 1.549041 2.454050 0.045132 -0.025724 832520.000000 0 0 1
-1.795384 -20.287572 -24.819991 32.106712 1.482530 2.454427 0.041835 -0.017052 624130.000000 0 0 1
-2.196484 -18.941272 -25.477761 31.823146 1.455349 2.499100 0.022436 -0.007767 -189672.000000 0 0 1
-1.463384 -17.795872 -25.131291 30.828823 1.488749 2.523850 0.034296 -0.008553 -128173.000000 0 0 1
-2.040784 -16.565072 -25.622901 30.579396 1.448216 2.564246 0.025816 -0.000932 144756.000000 0 0 1
-1.304884 -15.201772 -25.319991 29.561775 1.485169 2.599268 0.028763 0.000457 792320.000000 0 0 1
-0.018084 -15.080372 -25.952881 30.016162 1.569597 2.615210 0.037261 -0.007660 297125.000000 0 0 1
0.788116 -13.990072 -25.577241 29.163993 -1.514522 2.640409 0.039154 -0.011464 136528.000000 0 0 1
0.380516 -12.561272 -26.022411 28.898032 -1.540513 2.691693 0.033179 -0.006945 -48194.700000 0 0 1
1.216416 -11.484172 -25.562761 28.050323 -1.465269 2.717270 0.022433 -0.007499 260927.000000 0 0 1
0.903016 -10.280472 -26.262101 28.217043 -1.483183 2.767167 0.020185 -0.002680 -703414.000000 0 0 1
1.867516 -9.130772 -25.991051 27.611471 -1.369049 2.797297 0.036768 -0.006570 1567980.000000 0 0 1
3.250216 -9.201972 -26.470911 28.212574 -1.231266 2.788381 0.031272 -0.004577 1285770.000000 0 0 1
3.445116 -9.404272 -27.850571 29.596680 -1.219644 2.796379 0.034339 -0.001671 142401.000000 0 0 1
4.882716 -9.082172 -28.404561 30.218303 -1.077511 2.793364 0.017539 0.007069 332117.000000 0 0 1
5.107016 -7.661272 -28.406781 29.861713 -0.982839 2.828150 0.018619 -0.003621 1011610.000000 0 0 1
6.348316 -7.296072 -29.054341 30.621700 -0.854748 2.820260 0.028348 0.002825 -184539.000000 0 0 1
7.610516 -7.311572 -28.208391 30.117974 -0.765367 2.783584 0.034643 -0.002690 -818029.000000 0 0 1
8.095416 -8.584772 -27.831661 30.229711 -0.814727 2.740596 0.031669 0.003963 377990.000000 0 0 1
8.705716 -9.350972 -28.872181 31.572662 -0.821118 2.724987 0.031090 -0.003563 -705339.000000 0 0 1
9.121516 -10.718872 -28.382261 31.680420 -0.865735 2.681233 0.026161 -0.004165 -465068.000000 0 0 1
8.027416 -11.498872 -27.996871 31.312749 -0.961344 2.677224 0.025093 -0.007703 -111182.000000 0 0 1
8.329916 -12.524572 -27.038841 30.941095 -0.983889 2.633926 0.023717 -0.007347 -210967.000000 0 0 1
9.094916 -13.768472 -27.522801 32.090386 -0.987033 2.601508 0.030330 -0.012776 -445238.000000 0 0 1
8.383916 -14.606372 -28.366431 32.989249 -1.049721 2.605809 0.036312 -0.017106 -449541.000000 0 0 1
9.234616 -15.306572 -29.246901 34.277551 -1.027946 2.592959 0.028533 -0.017698 -108440.000000 0 0 1
8.434716 -16.084572 -30.302081 35.328091 -1.087821 2.601641 0.030518 -0.014408 -73005.200000 0 0 1
7.671516 -15.225472 -31.143191 35.504443 -1.104065 2.640719 0.027703 -0.015809 165095.000000 0 0 1
7.123216 -15.998572 -32.195631 36.650418 -1.151907 2.643409 0.026816 -0.014972 167151.000000 0 0 1
6.146116 -15.116272 -33.100011 36.903755 -1.184622 2.683569 0.020852 -0.012652 743288.000000 0 0 1
6.723716 -14.159172 -34.008081 37.446496 -1.127457 2.709707 0.023769 -0.000102 487235.000000 0 0 1
5.655116 -13.537472 34.216964 37.229613 -1.175093 0.405059 0.009267 -0.009446 83710.300000 0 0 1
6.052516 -12.331872 33.422485 36.135447 -1.114534 0.389965 0.029720 0.001081 -69775.600000 0 0 1
6.812716 -12.673072 32.231613 35.297262 -1.077543 0.419856 0.009721 0.003843 412606.000000 0 0 1
6.975716 -11.445072 31.545793 34.275171 -1.023424 0.401774 0.013888 0.002172 -117922.000000 0 0 1
7.677316 -11.523972 30.200123 33.223343 -0.983114 0.429910 -0.001814 0.003475 21042.100000 0 0 1
6.768916 -11.949972 29.202393 32.270727 -1.055421 0.439607 0.006698 0.004842 308402.000000 0 0 1
7.196216 -11.656072 27.875943 31.059906 -1.017696 0.456752 -0.000417 0.000852 -343307.000000 0 0 1
6.431316 -12.415972 26.808943 30.236362 -1.092863 0.480756 0.004471 -0.002769 -338729.000000 0 0 1
6.713116 -13.843472 26.734603 30.845529 -1.119277 0.522197 0.004656 -0.003924 -153856.000000 0 0 1
6.306916 -14.593672 25.602013 30.136614 -1.162870 0.555699 0.002929 -0.004675 204171.000000 0 0 1
4.791916 -14.926072 25.653073 30.063770 -1.260147 0.548536 0.002754 -0.015988 246403.000000 0 0 1
3.864516 -13.857672 25.530173 29.304595 -1.298834 0.513154 -0.001435 -0.017754 378813.000000 0 0 1
2.558516 -14.386472 25.312303 29.227201 -1.394795 0.523544 -0.001107 -0.015890 418545.000000 0 0 1
1.448716 -13.346572 25.125573 28.487264 -1.462674 0.490721 0.017321 -0.010643 -724151.000000 0 0 1
1.651816 -12.635972 23.902973 27.087791 -1.440810 0.489802 0.014746 -0.001967 375938.000000 0 0 1
0.661216 -11.611572 23.636683 26.343094 -1.513913 0.457266 0.017130 0.011262 944067.000000 0 0 1
-0.757084 -12.156572 23.329083 26.317324 1.508599 0.481171 0.018328 0.016627 -494381.000000 0 0 1
-0.844284 -12.779872 22.080583 25.526263 1.504829 0.525617 0.018124 0.007375 -413733.000000 0 0 1
-2.155184 -13.244172 21.916683 25.698130 1.409483 0.549375 0.023484 0.001760 -85827.300000 0 0 1
-2.372184 -13.910872 20.518383 24.902684 1.401894 0.602463 0.017517 0.001040 166180.000000 0 1 0
-1.584984 -15.084772 20.346483 25.377981 1.466109 0.640599 0.014749 -0.001045 -43214.600000 0 0 1
-1.578384 -15.654472 19.066283 24.719971 1.470310 0.689930 0.018398 -0.002450 219870.000000 0 1 0
-2.537584 -16.892072 18.965383 25.523855 1.421688 0.733187 0.003137 -0.005776 434723.000000 0 0 1
-2.260984 -17.661672 17.840983 25.206098 1.443472 0.784411 -0.007747 -0.004807 -134188.000000 0 0 1
-3.138984 -18.797972 17.877283 26.130714 1.405338 0.817361 -0.001947 0.000441 308529.000000 0 0 1
-2.853684 -19.939972 16.865783 26.271670 1.428648 0.873724 0.006202 -0.003025 -250991.000000 0 0 1
-1.695084 -20.628072 17.228883 26.930003 1.488807 0.876603 0.004161 -0.009534 -648319.000000 0 0 1
-1.888884 -22.043072 17.474283 28.192472 1.485315 0.902282 0.007271 -0.022758 660564.000000 0 0 1
-0.631084 -22.768072 18.109983 29.099053 1.543085 0.899047 0.022894 -0.011597 862558.000000 0 0 1
0.453316 -22.994572 17.262983 28.757024 -1.551085 0.926914 0.040744 -0.016684 -1145300.000000 0 0 1
1.419116 -23.789472 17.839083 29.768872 -1.511214 0.928229 0.035555 -0.003910 -209619.000000 0 0 1
2.759016 -23.740372 17.042383 29.354050 -1.455099 0.951355 0.041760 -0.015505 130389.000000 0 0 1
3.337816 -22.472172 17.159683 28.470937 -1.423343 0.923905 0.038110 -0.006105 -1063090.000000 0 0 1
4.460116 -22.334272 16.373383 28.049956 -1.373691 0.947491 0.038946 -0.010491 -638045.000000 0 0 1
5.203516 -21.024872 16.600983 27.289457 -1.328178 0.916842 0.048088 -0.009249 -325904.000000 0 0 1
5.964116 -21.038672 17.812983 28.204588 -1.294560 0.887228 0.053116 -0.006460 248895.000000 0 0 1
6.524416 -19.790272 18.326783 27.750565 -1.252339 0.849430 0.064504 -0.007254 300320.000000 0 0 1
7.466916 -18.978472 17.436083 26.831963 -1.195957 0.863442 0.058027 -0.011218 -636170.000000 0 0 1
6.871916 -18.298172 16.328183 25.468724 -1.211542 0.874856 0.050080 -0.010718 -333809.000000 0 0 1
7.751916 -17.388872 15.749983 24.708845 -1.151443 0.879647 0.058105 -0.010120 -301285.000000 0 1 0
7.064116 -16.468972 14.726083 23.194532 -1.165598 0.882924 0.040333 -0.011674 -176268.000000 0 1 0
6.794816 -17.191272 13.571683 22.932508 -1.194393 0.937494 0.049424 -0.017167 -183557.000000 0 1 0
6.245316 -16.368872 12.601483 21.581041 -1.206308 0.947254 0.045860 -0.022378 -72716.800000 0 1 0
6.787316 -16.690472 11.188283 21.208894 -1.184563 1.015108 0.057801 -0.015498 -417206.000000 0 1 0
8.009716 -16.068472 10.973583 21.042121 -1.108370 1.022182 0.050433 -0.018810 -903907.000000 0 1 0
8.504016 -16.297872 9.704483 20.787398 -1.089872 1.085077 0.046216 -0.016409 -879551.000000 0 1 0
9.994916 -16.044472 9.654483 21.225750 -1.013672 1.098595 0.043475 -0.009609 -670299.000000 0 1 0
10.519916 -16.499172 8.414583 21.300153 -1.003186 1.164676 0.043430 -0.012025 -322524.000000 0 1 0
11.921816 -16.364272 8.421383 21.928037 -0.941180 1.176622 0.056067 -0.007987 14759.800000 0 1 0
12.752316 -17.496072 7.806183 23.014574 -0.940958 1.224747 0.042707 -0.005066 -43591.500000 0 1 0
12.785616 -18.685872 8.569683 24.208950 -0.970726 1.208964 0.022683 -0.006919 89420.300000 0 1 0
13.469616 -19.699172 7.833983 25.116911 -0.971049 1.253603 0.022323 -0.011073 183274.000000 0 0 1
14.016016 -20.936672 8.553483 26.607424 -0.980871 1.243515 0.027330 -0.007651 -618647.000000 0 0 1
13.023316 -21.576672 9.250783 26.846537 -1.027746 1.219005 0.038514 -0.005154 -480176.000000 0 0 1
13.448916 -22.874372 9.573783 28.209352 -1.039287 1.224535 0.032662 -0.001874 222572.000000 0 0 1
12.258716 -23.539672 10.265483 28.456501 -1.090672 1.201732 0.050452 -0.009068 104089.000000 0 0 1
12.234716 -23.196472 11.621683 28.684981 -1.085440 1.153655 0.055220 -0.009393 420861.000000 0 0 1
11.122416 -23.703072 12.427383 28.982471 -1.132059 1.127644 0.060703 -0.007728 607802.000000 0 0 1
11.310016 -25.085962 13.021783 30.443206 -1.147235 1.128805 0.066281 -0.012862 -530083.000000 0 0 1
12.387116 -25.226732 13.896283 31.351800 -1.114349 1.111590 0.040305 -0.019421 -231738.000000 0 0 1
12.380916 -26.518172 14.411583 32.621990 -1.133991 1.113220 0.032964 -0.028497 381966.000000 0 0 1
13.641116 -26.716252 15.319583 33.682752 -1.098711 1.098626 0.022807 -0.026259 408605.000000 0 0 1
13.548516 -26.021912 16.517283 33.667831 -1.090759 1.058023 0.013638 -0.020902 -298126.000000 0 0 1
14.617616 -26.328982 17.349583 34.754827 -1.063976 1.048122 0.019612 -0.020149 -793433.000000 0 0 1
14.542716 -25.692032 18.728583 34.961850 -1.055722 1.005476 0.025346 -0.013654 -135526.000000 0 0 1
14.778616 -24.290472 18.698983 34.030670 -1.024214 0.989061 -0.003572 -0.018692 758635.000000 0 0 1
16.092616 -24.022472 19.211183 34.714853 -0.980560 0.984356 0.006460 -0.020478 785562.000000 0 0 1
16.724416 -22.588472 19.410083 34.156939 -0.933470 0.966404 0.002098 -0.024769 141391.000000 0 0 1
16.763516 -21.748072 18.276783 32.985374 -0.914113 0.983530 -0.007770 -0.019207 -595612.000000 0 0 1
15.577616 -21.153872 17.919083 31.800031 -0.936059 0.972189 -0.004848 -0.010504 -1234240.000000 0 0 1
15.813016 -20.219272 16.631083 30.585346 -0.907080 0.995886 -0.012960 -0.006033 -166874.000000 0 0 1
16.579016 -19.099472 16.884383 30.409472 -0.855925 0.982152 -0.012099 -0.006269 -242452.000000 0 0 1
17.948116 -19.255872 16.560283 31.099300 -0.820535 1.009248 -0.003722 -0.006201 368335.000000 0 0 1
18.785216 -17.941172 16.901683 30.990916 -0.762420 0.993959 0.004901 -0.009844 -37672.300000 0 0 1
18.828916 -17.681372 18.297883 31.653934 -0.753978 0.954447 -0.001449 -0.012270 163039.000000 0 0 1
19.486516 -16.490772 18.651883 31.615860 -0.702322 0.939795 0.005575 -0.008673 -413102.000000 0 0 1
19.841016 -16.342172 20.155483 32.664599 -0.689000 0.905816 0.006354 -0.016559 -472687.000000 0 0 1
20.952616 -17.114472 20.513283 33.951613 -0.684912 0.922045 0.010280 -0.015169 -321976.000000 0 0 1
21.282416 -16.870372 21.862483 34.864292 -0.670268 0.893005 0.019809 -0.006546 -66408.300000 0 0 1
33.150472 -0.955472 -7.593291 34.022416 -0.028814 1.795877 0.075581 -0.018976 -435100.000000 0 0 1
34.319202 -0.727072 -8.337491 35.324921 -0.021182 1.809067 0.066986 -0.020748 -274998.000000 0 0 1
35.142169 -1.857172 -8.216091 36.137588 -0.052798 1.800158 0.058572 -0.022886 -474812.000000 0 0 1
-34.233520 -1.735672 -8.822591 35.394697 0.050658 1.822716 0.056335 -0.018557 -215625.000000 0 0 1
-33.547414 -2.973772 -8.815891 34.813679 0.088413 1.826815 0.054896 -0.013844 -103989.000000 0 0 1
-32.226014 -2.783972 -9.258891 33.645112 0.086175 1.849587 0.086234 -0.019819 -488546.000000 0 0 1
-31.238424 -3.881472 -8.846691 32.698148 0.123620 1.844767 0.088063 -0.012471 -316345.000000 0 0 1
-30.926674 -3.854972 -7.452491 32.044650 0.124009 1.805511 0.074620 -0.013351 880857.000000 0 0 1
-29.670674 -4.519272 -7.227091 30.870756 0.151153 1.807097 0.065998 -0.014189 677898.000000 0 0 1
-29.408534 -4.528272 -5.718191 30.299585 0.152778 1.760657 0.053101 -0.019835 -140295.000000 0 0 1
-28.969874 -3.288472 -5.115991 29.601369 0.113030 1.744498 0.045833 -0.015088 493473.000000 0 0 1
-29.209164 -3.201672 -3.735491 29.620599 0.109176 1.697244 0.042009 -0.018186 -237115.000000 0 0 1
-28.992054 -1.741172 -3.209991 29.221138 0.059985 1.680870 0.044326 -0.013602 91381.300000 0 0 1
-27.631274 -1.340972 -3.101291 27.837089 0.048493 1.682437 0.033708 0.000886 784523.000000 0 0 1
-27.517014 -0.043672 -2.608191 27.640380 0.001587 1.665299 0.039297 -0.007825 -860669.000000 0 0 1
-26.080424 0.260728 -2.218591 26.175917 -0.009997 1.655655 0.047459 0.002740 -672572.000000 0 0 1
-25.698884 -0.442872 -1.041891 25.723808 0.017231 1.611310 0.031898 -0.003301 -1137740.000000 0 0 1
-24.357184 -0.275372 -0.869091 24.374240 0.011305 1.606460 0.034316 0.000175 -1549070.000000 0 1 0
-23.823984 -1.018472 0.372109 23.848647 0.042724 1.555193 0.016487 -0.002143 -295931.000000 0 1 0
-23.806684 -2.395272 0.203109 23.927741 0.100276 1.562308 0.016084 -0.000964 197922.000000 0 1 0
-22.960884 -3.076072 1.077109 23.191045 0.133177 1.524335 0.010787 -0.004913 -651539.000000 0 1 0
-23.086484 -4.616872 0.908009 23.561106 0.197378 1.532248 0.009053 -0.008101 222926.000000 0 1 0
-24.233084 -5.087472 1.635509 24.815310 0.206934 1.504841 0.011349 -0.009614 780514.000000 0 1 0
-24.364784 -6.514572 1.407509 25.259918 0.261265 1.515046 0.005851 -0.005080 78640.600000 0 0 1
-25.626664 -7.230572 1.979209 26.700643 0.275002 1.496602 0.007712 -0.003815 188013.000000 0 0 1
-25.625624 -7.443872 3.370109 26.896867 0.282705 1.445169 0.009739 -0.004578 1105830.000000 0 0 1
-26.892104 -7.952572 3.860509 28.307812 0.287527 1.433994 0.015654 -0.003189 968298.000000 0 0 1
-26.861024 -8.153972 5.366009 28.579642 0.294721 1.381919 0.021070 -0.008092 102534.000000 0 0 1
-26.001984 -9.231472 5.809409 28.197030 0.341148 1.363281 0.023249 -0.000408 444243.000000 0 0 1
-25.954624 -9.380272 7.232009 28.529528 0.346804 1.314508 0.018720 0.001571 -237635.000000 0 0 1
-25.297664 -8.196872 8.011709 27.773153 0.313343 1.278168 0.016255 0.006999 -67378.700000 0 0 1
-23.907184 -8.093772 7.779309 26.411745 0.326438 1.271822 0.015694 0.004129 244080.000000 0 0 1
-23.373684 -6.816272 8.064509 25.648138 0.283753 1.250942 0.014659 0.002541 -649709.000000 0 0 1
-21.936684 -6.518772 7.708209 24.148064 0.288852 1.245905 0.004755 0.002905 -623293.000000 0 1 0
-20.955484 -6.972272 8.617409 23.706637 0.321197 1.198772 0.016274 -0.002430 94695.200000 0 1 0
-19.666884 -6.740172 8.079609 22.304626 0.330172 1.200127 0.016790 -0.004114 259442.000000 0 1 0
-18.579184 -6.899272 9.189109 21.845498 0.355562 1.136645 0.015935 -0.005126 82238.700000 0 1 0
-18.593884 -5.798072 10.050909 21.917366 0.302271 1.094397 0.024582 -0.005539 806080.000000 0 1 0
-17.488784 -5.902072 10.975209 21.474339 0.325476 1.034350 0.009438 -0.006253 590274.000000 0 1 0
-17.366884 -4.569972 11.788209 21.481508 0.257310 0.989915 0.009698 -0.010332 149284.000000 0 1 0
-18.444984 -4.408172 12.708709 22.828944 0.234590 0.980397 0.020749 -0.006268 470188.000000 0 1 0
-18.481084 -3.101572 13.284209 22.970425 0.166275 0.954131 0.021661 -0.005747 120804.000000 0 1 0
-19.691184 -3.081472 14.243509 24.497260 0.155231 0.950308 0.022995 -0.007990 196481.000000 0 1 0
-19.449784 -3.911572 15.317309 25.064207 0.198464 0.913318 0.024965 -0.002252 842146.000000 0 0 1
-20.656784 -3.995072 16.090109 26.486882 0.191044 0.917919 0.029589 -0.002789 474603.000000 0 0 1
-20.573584 -4.994772 17.293909 27.336777 0.238168 0.885859 0.019334 0.005436 550250.000000 0 0 1
-21.541084 -4.778072 18.369809 28.710593 0.218278 0.876523 0.020480 0.003989 1111480.000000 0 0 1
-21.276984 -5.603972 19.460409 29.373833 0.257533 0.846634 0.017409 0.006697 -246216.000000 0 0 1
-22.032084 -5.075572 20.714709 30.663877 0.226422 0.829098 -0.004016 0.006636 -327168.000000 0 0 1
-21.797784 -3.686772 21.006909 30.496326 0.167550 0.810917 -0.000147 0.009632 372347.000000 0 0 1
-22.239284 -3.384672 22.332409 31.698237 0.151034 0.789033 0.009733 0.002889 -25836.200000 0 0 1
-22.188284 -1.887972 22.648009 31.761875 0.084884 0.776948 0.017028 0.003660 381095.000000 0 0 1
-23.331484 -1.181572 22.147109 32.190817 0.050600 0.812074 0.036428 -0.003364 411208.000000 0 0 1
-23.224684 0.225028 22.223309 32.145172 -0.009689 0.807451 0.033891 -0.003268 297519.000000 0 0 1
-24.596484 0.893628 21.883409 32.934316 -0.036316 0.844030 0.039033 -0.008985 365794.000000 0 0 1
-25.477304 0.775628 22.964909 34.308624 -0.030434 0.837446 0.034248 -0.005136 -508419.000000 0 0 1
-26.761044 1.242328 22.645309 35.078582 -0.046390 0.869041 0.036435 -0.008317 -246808.000000 0 0 1
-27.743484 1.246128 23.807009 36.579057 -0.044886 0.862110 0.024124 -0.006239 -375800.000000 0 0 1
-27.370264 2.165328 24.842009 37.026280 -0.078948 0.835335 0.012497 0.000027 33857.900000 0 0 1
-28.282014 2.145328 25.912809 38.418074 -0.075710 0.830516 0.011999 0.000540 -276907.000000 0 0 1
-27.867924 3.069028 27.051909 38.959542 -0.109686 0.803268 0.015343 0.002028 -75981.100000 0 0 1
-26.827324 2.522928 27.826309 38.734661 -0.093767 0.769322 0.004615 -0.001304 139296.000000 0 0 1
-26.549894 3.364828 28.979809 39.446778 -0.126064 0.745637 -0.004631 0.002514 -95173.800000 0 0 1
-25.299334 2.829728 29.722709 39.134423 -0.111387 0.708248 0.010637 -0.000183 2872.660000 0 0 1
-25.612914 1.811928 30.671809 40.000804 -0.070625 0.696987 0.017053 0.000835 128885.000000 0 0 1
-24.582284 1.686228 31.622809 40.089077 -0.068488 0.661920 0.009217 -0.005401 85803.800000 0 0 1
-24.791484 0.476528 32.577509 40.940675 -0.019219 0.650593 -0.005003 -0.006835 -97172.400000 0 0 1
-24.633984 -0.700072 31.818909 40.246320 0.028411 0.659001 0.001587 -0.004951 84483.900000 0 0 1
-25.053584 -1.937472 32.444809 41.037806 0.077180 0.658995 -0.004138 0.002616 66664.600000 0 0 1
-25.929224 -2.836472 31.446509 40.856495 0.108960 0.692453 -0.003205 0.004347 892843.000000 0 0 1
-27.222924 -2.372572 31.080109 41.384657 0.086934 0.721213 0.002920 0.008270 410512.000000 0 0 1
-27.124974 -1.423372 30.021609 40.485642 0.052427 0.735438 0.012780 0.001432 302171.000000 0 0 1
-28.504284 -1.072872 29.326809 40.910964 0.037621 0.771530 0.025748 -0.010741 928419.000000 0 0 1
-29.298184 -0.463272 30.314609 42.161282 0.015811 0.768412 0.026708 -0.008796 -163467.000000 0 0 1
-30.673094 -0.399972 29.918909 42.850202 0.013039 0.797887 0.021828 -0.002815 535146.000000 0 0 1
-31.587254 -0.211472 31.124909 44.345905 0.006695 0.792782 0.008144 0.001179 -479883.000000 0 0 1
-31.702054 -1.450172 31.848809 44.960759 0.045712 0.783611 0.018034 0.007203 49849.800000 0 0 1
-32.194974 -1.192972 33.169009 46.239839 0.037038 0.770840 0.024218 0.009663 29329.600000 0 0 1
-32.415474 -2.425472 34.043609 47.070301 0.074685 0.762299 0.023650 0.015208 -696941.000000 0 0 1
-33.473074 -3.198072 33.643609 47.566446 0.095253 0.785129 0.033712 0.003681 -639789.000000 0 0 1
-33.406254 -4.425372 34.353909 48.122269 0.131705 0.775762 0.013261 0.009435 -251690.000000 0 0 1
-34.543295 -5.359472 33.934409 48.718654 0.153925 0.800235 0.022801 0.012119 -639878.000000 0 0 1
35.024517 -4.921672 34.464109 49.383342 -0.139607 0.798350 0.038995 0.001674 -799954.000000 0 0 1
33.927722 -5.418472 33.720609 48.140727 -0.158369 0.794756 0.041174 -0.011710 448918.000000 0 0 1
32.556582 -4.862472 34.261009 47.512013 -0.148259 0.765405 0.059164 -0.009945 36710.800000 0 0 1
32.218202 -5.097572 -33.324465 46.631725 -0.156919 2.366892 0.054795 -0.013226 43789.700000 0 0 1
31.822722 -6.404672 -33.028565 46.309735 -0.198608 2.364863 0.056978 -0.018796 -1313540.000000 0 0 1
30.477972 -6.854372 -33.579465 45.863599 -0.221215 2.392283 0.050935 -0.015880 -1477470.000000 0 0 1
29.509902 -6.378472 -32.687965 44.497441 -0.212872 2.395878 0.040054 -0.017976 -94744.100000 0 0 1
28.239912 -6.649172 -33.263465 44.137991 -0.231241 2.424355 0.021783 -0.014161 -79722.800000 0 0 1
26.926342 -6.361372 -32.544665 42.715924 -0.231997 2.437016 0.033601 -0.025097 -156734.000000 0 0 1
25.795502 -7.011672 -33.034965 42.495651 -0.265405 2.461275 0.041209 -0.020644 607912.000000 0 0 1
24.567992 -6.693872 -32.366965 41.182698 -0.266006 2.475005 0.052534 -0.018750 498407.000000 0 0 1
23.236692 -7.197172 -32.970865 40.973419 -0.300362 2.505948 0.046692 -0.016828 133678.000000 0 0 1
23.018992 -8.594272 -32.976765 41.124233 -0.357328 2.501234 0.047171 -0.025072 206624.000000 0 0 1
22.779892 -9.099172 -31.707365 40.088345 -0.380022 2.483136 0.051340 -0.028906 -542093.000000 0 0 1
22.432492 -10.587672 -31.595565 40.169581 -0.440981 2.476006 0.051337 -0.022298 -11736.600000 0 0 1
21.253792 -11.077272 -32.197165 40.138349 -0.480456 2.501691 0.059635 -0.027486 -28276.500000 0 0 1
21.074092 -12.464972 -31.801365 40.135018 -0.534134 2.485463 0.046792 -0.020322 -19824.100000 0 0 1
19.915692 -13.183272 -32.582965 40.399048 -0.584733 2.509052 0.042421 -0.020447 -25109.500000 0 0 1
18.590192 -12.850672 -32.389865 39.494789 -0.604837 2.532390 0.020494 -0.018630 -732739.000000 0 0 1
18.198692 -11.562372 -32.923665 39.355413 -0.566001 2.561794 0.024827 -0.018911 -257862.000000 0 0 1
16.790092 -11.159572 -32.370865 38.135497 -0.586607 2.584580 0.017370 -0.017589 617202.000000 0 0 1
15.773192 -11.834572 -33.124365 38.549634 -0.643691 2.604628 0.010043 -0.007255 243059.000000 0 0 1
14.524792 -11.333672 -32.640965 37.481386 -0.662612 2.627742 0.008188 -0.005509 -144168.000000 0 0 1
13.297892 -11.816772 -33.399265 37.841524 -0.726492 2.652179 0.008625 -0.001815 -908752.000000 0 0 1
13.067392 -13.168872 -33.198965 38.030872 -0.789266 2.632009 0.016678 0.001858 554546.000000 0 0 1
11.905292 -13.616772 -33.912865 38.434813 -0.852357 2.651624 0.007211 -0.000205 772096.000000 0 0 1
10.575392 -13.550072 -33.098065 37.295111 -0.908079 2.662609 -0.000272 0.003586 -74042.000000 0 0 1
10.089792 -12.264572 -32.969365 36.595118 -0.882380 2.692687 0.018211 -0.000882 -591664.000000 0 0 1
9.095592 -12.237672 -31.984365 35.432895 -0.931632 2.696741 0.016895 -0.007407 -167041.000000 0 0 1
8.083292 -11.085572 -32.243665 35.041168 -0.940759 2.739299 0.022852 -0.006476 114162.000000 0 0 1
8.617392 -9.757072 -32.095565 34.635028 -0.847344 2.756276 0.022669 -0.002535 625861.000000 0 0 1
7.641092 -8.858172 -32.602165 34.637475 -0.859031 2.797079 0.025367 -0.000387 169884.000000 0 0 1
8.197192 -7.452072 -32.740165 34.563648 -0.737820 2.815317 0.032533 0.006202 -152147.000000 0 0 1
8.334192 -6.804672 -31.523665 33.309215 -0.684707 2.812682 0.030018 -0.001569 379446.000000 0 0 1
8.884492 -5.511872 -31.831465 33.504583 -0.555279 2.824234 0.039630 -0.010710 36257.300000 0 0 1
9.076692 -4.610472 -30.605765 32.254545 -0.469984 2.820472 0.039707 -0.006147 -362765.000000 0 0 1
7.852792 -4.121272 -30.115965 31.394627 -0.483303 2.855208 0.034300 -0.004738 -65577.400000 0 0 1
7.979392 -3.150572 -29.060665 30.300479 -0.376049 2.854541 0.041995 -0.010128 559831.000000 0 0 1
6.562592 -2.650472 -28.631965 29.493763 -0.383843 2.899258 0.040532 -0.006729 -798762.000000 0 0 1
5.955292 -1.810672 -29.591065 30.238637 -0.295163 2.934266 0.032141 -0.005521 39207.400000 0 0 1
4.631292 -1.422072 -29.276365 29.674513 -0.297919 2.977597 0.038997 -0.007839 324246.000000 0 0 1
3.554892 -2.527772 -29.319565 29.642263 -0.618116 2.993902 0.026561 -0.008607 -1109240.000000 0 0 1
3.672492 -3.465172 -28.275965 28.723245 -0.756360 2.964886 0.038440 -0.009379 -183297.000000 0 0 1
2.653892 -4.444672 -28.206665 28.677765 -1.032516 2.960085 0.040198 -0.006566 222906.000000 0 0 1
3.078592 -5.403872 -27.092365 27.797047 -1.052953 2.915943 0.045689 -0.008304 187975.000000 0 0 1
2.935092 -4.803372 -25.806965 26.413758 -1.022293 2.926832 0.048189 -0.010666 102725.000000 0 0 1
3.358292 -5.805772 -24.843165 25.732624 -1.046380 2.877902 0.046825 -0.017528 -100533.000000 0 0 1
3.215992 -5.422772 -23.383265 24.218302 -1.035500 2.878231 0.043684 -0.014658 -144304.000000 0 1 0
4.148792 -4.423772 -23.027865 23.813122 -0.817464 2.884071 0.039521 -0.015568 -21627.100000 0 1 0
3.856292 -3.892272 -21.727465 22.407666 -0.790042 2.894568 0.034541 -0.020947 63626.300000 0 1 0
4.700092 -2.639472 -21.406565 22.074843 -0.511689 2.894905 0.038637 -0.024252 -327547.000000 0 1 0
6.058392 -2.861572 -21.203965 22.237375 -0.441269 2.835533 0.035078 -0.017665 -780135.000000 0 1 0
6.730292 -1.821572 -20.552265 21.702778 -0.264320 2.814523 0.039597 -0.021190 248596.000000 0 1 0
8.201392 -2.137072 -20.189265 21.896035 -0.254906 2.744143 0.031812 -0.019939 -197180.000000 0 1 0
9.048792 -2.253172 -21.299465 23.251336 -0.244040 2.728923 0.038965 -0.021311 977765.000000 0 1 0
10.286892 -2.975672 -21.111165 23.671841 -0.281582 2.672162 0.029890 -0.020256 1974710.000000 0 1 0
11.524892 -2.292772 -20.420165 23.559777 -0.196377 2.619422 0.020366 -0.014091 151362.000000 0 1 0
11.228892 -2.139172 -19.039165 22.207068 -0.188250 2.600890 0.024250 -0.015569 643142.000000 0 1 0
12.269392 -1.521972 -18.276065 22.065107 -0.123416 2.546826 0.016024 -0.019721 16017.400000 0 1 0
12.472392 0.005528 -18.464765 22.282463 0.000443 2.547520 0.009120 -0.012608 61436.200000 0 1 0
12.939792 0.523628 -19.734565 23.604353 0.040444 2.560851 0.007442 -0.010686 318412.000000 0 1 0
12.902992 1.940528 -19.642165 23.581083 0.149275 2.555237 0.018468 -0.016200 36193.900000 0 1 0
13.242792 2.694428 -20.963665 24.942067 0.200724 2.568991 0.009115 -0.010396 1050330.000000 0 1 0
14.630592 2.768828 -21.371965 26.047678 0.187037 2.533071 0.013363 -0.005072 1098500.000000 0 0 1
14.834992 3.810928 -22.306565 27.058880 0.251451 2.539887 0.018669 -0.008563 494355.000000 0 0 1
16.292992 3.986628 -22.866065 28.358627 0.239969 2.508696 0.002801 -0.007565 824545.000000 0 0 1
16.684992 3.056128 -23.854765 29.270782 0.181158 2.523471 -0.001152 -0.009424 -52132.300000 0 0 1
17.192392 1.852628 -23.387365 29.085725 0.107344 2.504929 -0.001921 -0.006744 -506621.000000 0 0 1
8.671216 27.206728 3.105509 28.723513 1.262259 1.462467 -0.005870 -0.004262 -49301.800000 0 0 1
8.939816 27.647028 4.398109 29.387443 1.258053 1.420572 -0.003236 -0.000684 1635040.000000 0 0 1
10.367516 27.613228 4.688109 29.865601 1.211627 1.413171 0.014542 -0.006257 1274220.000000 0 0 1
10.557216 28.052128 6.191609 30.605763 1.210849 1.367088 0.005062 -0.004925 -154469.000000 0 0 1
10.178316 27.129628 7.190409 29.854929 1.211874 1.327560 -0.000172 -0.003072 104670.000000 0 0 1
10.149116 27.837428 8.441209 30.808780 1.221188 1.293260 0.004752 0.000781 -707309.000000 0 0 1
10.364116 26.916428 9.726009 30.438532 1.203246 1.245563 0.003131 0.006945 150682.000000 0 0 1
11.659216 26.406528 9.996809 30.547966 1.155010 1.237405 -0.005273 0.006335 97647.700000 0 0 1
12.210416 25.644928 8.949709 29.780092 1.126423 1.265552 -0.002931 0.003569 -22727.400000 0 0 1
13.606216 25.030328 9.332809 29.979122 1.072888 1.254225 0.004160 0.006358 643239.000000 0 0 1
14.665816 25.944728 9.366209 31.240053 1.056304 1.266299 0.007455 0.003631 393194.000000 0 0 1
15.906216 25.329128 9.747509 31.457691 1.010056 1.255750 -0.004547 0.014957 1193270.000000 0 0 1
16.935616 26.324928 10.404609 32.985948 0.999124 1.249891 0.006659 0.013028 22924.900000 0 0 1
17.642316 27.116028 9.467609 33.707060 0.993983 1.286086 0.014443 0.008192 -214562.000000 0 0 1
18.989016 27.280328 9.815309 34.657457 0.962713 1.283658 0.022691 0.000185 -118215.000000 0 0 1
19.473116 28.073928 11.129809 35.933554 0.964354 1.255884 0.020809 0.010830 -670464.000000 0 0 1
19.345216 29.484028 11.132509 36.979427 0.990127 1.265007 0.022809 -0.000959 -1111460.000000 0 0 1
18.089816 29.989628 11.345209 36.814847 1.028025 1.257528 0.007395 0.011521 -1082210.000000 0 0 1
18.001716 31.518428 11.476009 38.067990 1.051861 1.264572 0.006050 0.013896 -500744.000000 0 0 1
18.523916 32.253328 10.368309 38.612361 1.049469 1.298937 0.021098 -0.004278 411300.000000 0 0 1
17.701216 32.217328 9.189209 37.891039 1.068390 1.325837 0.028162 -0.010203 1990700.000000 0 0 1
16.256316 32.934328 9.285909 37.883583 1.112283 1.323156 0.020942 -0.005867 1474580.000000 0 0 1
16.346716 34.251528 9.703109 39.173111 1.125510 1.320493 0.028113 -0.011442 23813.600000 0 0 1
15.062616 -34.271397 9.731709 38.679674 -1.156700 1.316466 0.023021 -0.008783 311117.000000 0 0 1
15.165116 -32.740097 9.829209 37.396631 -1.137022 1.304835 0.025230 -0.005499 -173241.000000 0 0 1
15.667716 -32.219697 8.642609 36.854862 -1.118187 1.334088 0.026763 -0.012041 -66170.500000 0 0 1
15.888416 -30.780797 8.762809 35.730743 -1.094289 1.323023 0.032303 -0.010339 -170168.000000 0 0 1
16.359516 -30.150897 7.444209 35.101661 -1.073661 1.357098 0.034655 -0.007593 -116354.000000 0 0 1
15.473916 -30.315597 6.342109 34.622245 -1.098842 1.386576 0.036197 -0.000684 18621.000000 0 0 1
15.861616 -29.506897 5.255809 33.909753 -1.077557 1.415175 0.036582 -0.003055 280640.000000 0 0 1
15.280616 -30.052797 3.876309 33.936611 -1.100404 1.456324 0.036686 -0.004635 236216.000000 0 0 1
15.686216 -31.383397 3.573109 35.266727 -1.107288 1.469305 0.031319 -0.008372 -37430.200000 0 0 1
15.819016 -31.546397 2.170309 35.357130 -1.105987 1.509375 0.033013 -0.006010 -91867.700000 0 0 1
16.265916 -32.932697 1.645809 36.767529 -1.112029 1.526019 0.030536 -0.007222 -98927.900000 0 0 1
17.619916 -33.170197 1.964409 37.610933 -1.082504 1.518543 0.021652 0.005523 150148.000000 0 0 1
18.179416 -34.318597 1.326909 38.858949 -1.083653 1.536643 0.044322 0.002330 447020.000000 0 0 1
19.655916 34.488828 1.710009 39.733593 1.052787 1.527746 0.050052 0.003582 293463.000000 0 0 1
19.756016 33.921328 2.991409 39.368835 1.043413 1.494739 0.043112 -0.016909 -719225.000000 0 0 1
21.043516 33.703028 3.445409 39.882258 1.012643 1.484299 0.020581 -0.002946 -957202.000000 0 0 1
21.156416 33.273428 4.943609 39.738573 1.004443 1.446070 0.023654 0.010289 -437433.000000 0 0 1
20.542016 32.061128 5.277709 38.441443 1.000977 1.433069 0.024034 -0.003861 115673.000000 0 0 1
21.415516 30.887328 5.341709 37.962945 0.964552 1.429619 0.005389 -0.007162 336192.000000 0 0 1
20.884616 29.721528 6.149509 36.842270 0.958276 1.403097 0.030838 -0.015670 121312.000000 0 0 1
19.851716 28.896728 5.613609 35.505269 0.968856 1.412024 0.036542 -0.016923 587753.000000 0 0 1
18.863416 28.728128 6.640609 35.003307 0.989783 1.379926 0.040717 -0.019609 678863.000000 0 0 1
17.379716 29.079728 6.338509 34.465371 1.032101 1.385834 0.049889 -0.021113 136308.000000 0 0 1
17.175316 30.503028 6.221809 35.554705 1.057975 1.394898 0.047433 -0.026229 173877.000000 0 0 1
17.326516 31.056028 4.944709 35.904528 1.061899 1.432639 0.055265 -0.028595 -274230.000000 0 0 1
17.321016 32.602828 4.944409 37.247942 1.082444 1.437660 0.051486 -0.023523 -446704.000000 0 0 1
16.059516 33.160528 5.176109 37.206461 1.119791 1.431225 0.039958 -0.018961 -712380.000000 0 0 1
16.009916 34.549528 5.424409 38.463118 1.136863 1.429296 0.036226 -0.021258 80.453900 0 0 1
14.568816 -33.990997 5.502509 37.388713 -1.165874 1.423089 0.027377 -0.021841 460731.000000 0 0 1
13.673516 -34.182197 4.413409 37.079183 -1.190274 1.451487 0.024719 -0.017300 -45528.700000 0 0 1
12.736416 -33.111397 4.438009 35.752997 -1.203589 1.446346 0.024584 -0.013404 -126796.000000 0 0 1
11.954216 -33.230897 3.097809 35.451265 -1.225478 1.483303 0.027189 -0.010638 849517.000000 0 0 1
10.847816 -32.266097 3.167909 34.187889 -1.246469 1.478001 0.029069 -0.009784 1011880.000000 0 0 1
10.282816 -32.051397 1.868709 33.712318 -1.260347 1.515337 0.026706 -0.003466 254099.000000 0 0 1
9.116516 -30.987097 1.869209 32.354365 -1.284666 1.512991 0.029826 -0.004148 443118.000000 0 0 1
8.614516 -30.490797 0.640709 31.690836 -1.295445 1.550577 0.043488 0.004450 341132.000000 0 0 1
7.609616 -31.300997 0.014309 32.212713 -1.332312 1.570352 0.033058 0.001023 -441253.000000 0 0 1
8.047616 -31.930197 -1.333091 32.955708 -1.323901 1.611258 0.043576 0.000314 672278.000000 0 0 1
9.262416 -32.695197 -1.138191 34.000937 -1.294734 1.604278 0.043994 -0.008509 728782.000000 0 0 1
9.466016 -33.639697 -2.191791 35.014834 -1.296495 1.633433 0.047014 0.000672 157292.000000 0 0 1
10.853216 -34.341897 -2.120491 36.078451 -1.264695 1.629605 0.039934 -0.008308 86470.100000 0 0 1
10.957716 33.927728 -1.040191 35.668533 1.258400 1.599963 0.035717 -0.007333 -261622.000000 0 0 1
12.054516 33.078028 -1.151791 35.224904 1.221327 1.603500 0.041400 -0.008819 -902487.000000 0 0 1
12.203216 32.113528 0.066809 34.354062 1.207647 1.568852 0.038986 -0.011428 -379028.000000 0 0 1
12.597616 32.799128 1.320109 35.159997 1.204086 1.533242 0.040640 -0.010199 252594.000000 0 0 1
13.861616 33.422128 1.320209 36.206712 1.177645 1.534325 0.048072 -0.006743 135338.000000 0 0 1
15.152916 32.532528 1.331709 35.913085 1.134900 1.533706 0.050981 -0.011088 -65559.300000 0 0 1
15.440116 31.993528 0.061809 35.524454 1.121164 1.569056 0.057250 -0.014258 -391743.000000 0 0 1
16.266816 30.884528 0.173309 34.906925 1.086019 1.565831 0.065087 -0.012985 -194033.000000 0 0 1
17.081816 30.432728 -1.081191 34.915732 1.059321 1.601767 0.060461 -0.009040 638633.000000 0 0 1
18.072316 31.369228 -1.533591 36.235189 1.048124 1.613132 0.048060 -0.001573 234568.000000 0 0 1
17.616616 32.591828 -2.127791 37.109296 1.075259 1.628166 0.036506 0.002718 -514084.000000 0 0 1
18.744616 33.467428 -2.682791 38.452915 1.060243 1.640621 0.026179 0.011720 -260528.000000 0 0 1
19.610716 33.951328 -1.698891 39.244860 1.047001 1.614099 0.013505 0.009075 184524.000000 0 0 1
20.564616 -34.241097 -2.251191 40.005300 -1.029948 1.627098 0.005778 0.006988 -831612.000000 0 0 1
21.719916 -33.754797 -1.335191 40.161222 -0.999031 1.604048 0.000645 0.007578 134856.000000 0 0 1
22.790116 34.445428 -1.126791 41.317630 0.986289 1.598071 -0.001340 0.010258 936529.000000 0 0 1
23.448916 33.654228 -2.163591 41.074808 0.962248 1.623495 0.005461 0.014907 -230137.000000 0 0 1
24.059416 34.499328 -3.329191 42.191736 0.961826 1.649785 -0.005865 0.010677 -892798.000000 0 0 1
23.099516 -34.038597 -4.181991 41.348552 -0.974559 1.672110 -0.008124 0.004870 -249075.000000 0 0 1
23.721716 -33.392897 -5.272691 41.298991 -0.953136 1.698817 -0.003205 -0.000858 -130879.000000 0 0 1
22.863116 -33.070497 -6.518591 40.729251 -0.965903 1.731535 0.003799 -0.008426 78568.500000 0 0 1
21.899116 -32.033397 -6.265991 39.306137 -0.971139 1.730894 0.012711 -0.008209 381334.000000 0 0 1
21.218216 -31.705497 -7.458391 38.872597 -0.981022 1.763861 0.020058 -0.008508 229054.000000 0 0 1
20.109516 -30.614497 -7.310991 37.350912 -0.989612 1.767806 0.037693 -0.016451 873818.000000 0 0 1
18.954616 -30.983597 -6.548091 36.907157 -1.021772 1.749161 0.023212 -0.007370 14382.100000 0 0 1
18.295316 -29.786397 -6.212191 35.504075 -1.019989 1.746673 0.039157 -0.016001 473280.000000 0 0 1
17.081316 -29.934097 -5.234691 34.860056 -1.052252 1.721529 0.036739 -0.005603 1004320.000000 0 0 1
15.974516 -30.659697 -5.769791 35.049859 -1.090469 1.736166 0.036627 -0.005093 -334103.000000 0 0 1
14.870116 -30.628297 -4.921291 34.401047 -1.118814 1.714345 0.021329 0.000827 -686071.000000 0 0 1
13.792816 -31.560497 -5.413591 34.865652 -1.158782 1.726697 0.028471 0.005174 -612965.000000 0 0 1
14.106216 -32.976097 -5.384491 36.268458 -1.166581 1.719809 0.030329 0.008951 233387.000000 0 0 1
12.994216 -33.807997 -5.761191 36.674536 -1.203851 1.728539 0.036669 0.005503 270119.000000 0 0 1
13.194816 33.794228 -5.693291 36.722834 1.198553 1.726458 0.029927 0.007346 -249230.000000 0 0 1
13.389616 33.222028 -4.363491 36.083583 1.187677 1.692020 0.034383 -0.001821 351334.000000 0 0 1
14.011716 31.902728 -4.500391 35.133541 1.156959 1.699243 0.040573 -0.006926 -99572.200000 0 0 1
13.076216 30.741928 -4.788491 33.748825 1.168625 1.713163 0.034111 -0.010170 -50253.900000 0 0 1
12.138616 30.351528 -3.792791 32.908152 1.190347 1.686307 0.036747 -0.015034 562090.000000 0 0 1
12.747416 29.633228 -2.693391 32.370962 1.164552 1.654097 0.049781 -0.020524 -370179.000000 0 0 1
11.728416 28.795228 -1.928191 31.151867 1.184009 1.632732 0.041457 -0.018790 653467.000000 0 0 1
10.656116 29.635728 -1.417491 31.525203 1.225622 1.615775 0.028352 -0.019453 486038.000000 0 0 1
9.708816 28.882428 -0.697291 30.478549 1.246513 1.593676 0.017691 -0.016478 -391476.000000 0 0 1
8.473316 29.645428 -0.271391 30.833782 1.292397 1.579598 0.014081 -0.008960 -63358.900000 0 0 1
7.625016 28.972828 0.666709 29.966817 1.313454 1.548546 0.006284 -0.010517 585522.000000 0 0 1
6.312416 29.534328 0.684809 30.209139 1.360233 1.548125 0.016244 -0.002601 787630.000000 0 0 1
5.312416 28.838828 1.695909 29.373046 1.388628 1.513027 0.014239 -0.000918 284305.000000 0 0 1
4.886616 27.630928 1.123609 28.082195 1.395753 1.530774 0.011082 -0.008998 -602964.000000 0 0 1
3.643516 27.285028 1.655909 27.576983 1.438046 1.510713 0.009116 -0.004312 -487823.000000 0 0 1
2.986716 26.258728 0.725609 26.437998 1.457541 1.543347 0.010333 -0.006404 -786063.000000 0 0 1
1.793116 25.785828 1.245809 25.878103 1.501369 1.522636 0.019469 -0.001330 -720796.000000 0 0 1
1.249616 24.786328 0.451509 24.821915 1.520423 1.552605 0.012528 0.000203 -77941.500000 0 1 0
-0.059784 24.189328 0.982109 24.209331 -1.568325 1.530218 0.017413 0.001555 783748.000000 0 1 0
-1.251484 24.954928 0.773409 24.998256 -1.520689 1.539853 0.024235 -0.002435 584199.000000 0 1 0
-2.461284 24.283128 1.024809 24.429049 -1.469784 1.528834 0.021655 -0.002289 163892.000000 0 1 0
-3.686584 25.156128 1.391709 25.462885 -1.425284 1.516113 0.035733 -0.009860 410910.000000 0 0 1
-4.790384 24.273728 1.762609 24.804605 -1.375952 1.499677 0.023431 -0.017819 645843.000000 0 1 0
-5.873984 24.965128 2.340409 25.753423 -1.339712 1.479793 0.015652 -0.011949 135588.000000 0 0 1
-6.906884 25.622328 1.355409 26.571523 -1.307490 1.519764 0.017358 -0.005222 -392338.000000 0 0 1
-6.462384 26.782528 0.662709 27.559125 -1.334031 1.546747 0.019340 -0.007756 71174.500000 0 0 1
-7.324484 27.106928 -0.438691 28.082486 -1.306891 1.586418 0.013288 -0.002373 -30402.300000 0 0 1
-6.832284 28.198728 -1.404691 29.048606 -1.333087 1.619172 0.012142 0.003172 -101195.000000 0 0 1
-7.159884 29.491928 -0.948391 30.363419 -1.332630 1.602036 0.018894 -0.005949 66227.000000 0 0 1
-7.152684 30.396028 -2.017391 31.291361 -1.339685 1.635312 0.012023 -0.002816 -147895.000000 0 0 1
-7.432784 31.877728 -1.662891 32.775006 -1.341724 1.621555 0.006638 -0.003603 -729824.000000 0 0 1
-7.570684 32.833528 -2.768491 33.808584 -1.344179 1.652775 0.002128 -0.002130 441727.000000 0 0 1
-6.414884 33.002028 -3.601491 33.812059 -1.378812 1.677514 -0.000505 -0.004332 1200700.000000 0 0 1
-5.102284 33.484728 -2.875291 33.993052 -1.419583 1.655482 0.005247 -0.002525 -179330.000000 0 0 1
-5.136784 -34.247997 -2.601491 34.728657 1.421918 1.645776 0.004559 -0.001629 -153922.000000 0 0 1
-4.097084 -33.888897 -1.735191 34.179735 1.450483 1.621585 0.007505 -0.005259 -278606.000000 0 0 1
-4.013784 -32.331597 -1.538591 32.616098 1.447284 1.617987 0.010253 -0.002119 -244194.000000 0 0 1
-5.163584 -31.777497 -0.974991 32.209044 1.409712 1.601072 -0.000345 0.003376 -554724.000000 0 0 1
-5.302184 -30.460697 -1.450691 30.952733 1.398457 1.617681 0.003854 0.006015 84554.800000 0 0 1
-6.654284 -29.755297 -1.180591 30.513128 1.350783 1.609497 0.010343 0.000149 108468.000000 0 0 1
-6.923084 -29.449897 0.122409 30.252942 1.339908 1.566750 0.005200 0.001808 331568.000000 0 0 1
-8.124884 -28.692397 0.354709 29.822696 1.294849 1.558902 0.000592 0.004394 568417.000000 0 0 1
-8.127884 -28.001497 1.718509 29.207869 1.288294 1.511925 0.007531 0.002277 130913.000000 0 0 1
-7.421784 -26.795797 1.530309 27.846713 1.300594 1.515814 0.010226 0.002528 -442703.000000 0 0 1
-7.092584 -26.082097 2.669709 27.160778 1.305284 1.472345 0.016292 0.004839 10252.900000 0 0 1
-8.221384 -25.217997 3.307109 26.729674 1.255649 1.446754 0.004587 0.007249 129467.000000 0 0 1
-8.659184 -24.189797 2.506409 25.814915 1.227040 1.473552 0.011810 -0.003388 -730944.000000 0 0 1
-9.325184 -23.173997 3.203209 25.184395 1.188224 1.443261 0.011393 -0.005453 -350532.000000 0 0 1
-8.430284 -21.970797 3.725409 23.825706 1.204417 1.413791 0.018795 0.004583 801358.000000 0 1 0
-7.779984 -22.145397 4.992809 23.997393 1.232952 1.361209 0.009173 0.004322 -73725.500000 0 1 0
-7.027784 -21.005297 5.420209 22.803309 1.247931 1.330805 0.003502 0.007977 307809.000000 0 1 0
-7.858884 -19.709997 5.748909 21.983994 1.191389 1.306216 0.004580 -0.006696 94521.400000 0 1 0
-8.380284 -19.874397 7.016509 22.681539 1.171756 1.256288 0.010187 -0.006829 -160185.000000 0 1 0
-9.068184 -18.719597 7.478609 22.103956 1.119689 1.225646 0.002368 -0.013493 -193637.000000 0 1 0
-26.664364 29.738228 -6.257491 40.429033 -0.839843 1.726198 0.040407 -0.000348 -366141.000000 0 0 1
-25.972744 30.487128 -5.293591 40.398892 -0.865186 1.702207 0.032901 0.001274 -177037.000000 0 0 1
-25.121934 29.671028 -4.534291 39.141299 -0.868232 1.686901 0.023912 -0.001500 -100620.000000 0 0 1
-24.320884 30.463728 -3.449991 39.133701 -0.897059 1.659070 0.019033 -0.005604 -100177.000000 0 0 1
-25.018384 30.881928 -2.236091 39.807199 -0.889909 1.626999 0.023404 -0.006644 377349.000000 0 0 1
-24.245684 31.727928 -1.411991 39.956330 -0.918285 1.606142 0.023301 -0.006139 -499953.000000 0 0 1
-23.056284 31.127928 -0.695291 38.743045 -0.933277 1.588744 0.022380 -0.004360 411.376000 0 0 1
-21.968884 30.839528 -1.593991 37.897878 -0.951822 1.612869 0.038325 -0.012197 723732.000000 0 0 1
-20.778684 30.492028 -0.902991 36.909794 -0.972631 1.595264 0.035410 -0.013363 381433.000000 0 0 1
-19.468584 30.202528 -1.667191 35.972183 -0.998226 1.617160 0.032607 -0.011905 1115600.000000 0 0 1
-18.379584 29.834928 -0.759891 35.050099 -1.018664 1.592478 0.026532 -0.008421 903689.000000 0 0 1
-17.243484 29.418828 -1.490091 34.132470 -1.040632 1.614466 0.022125 -0.008111 675192.000000 0 0 1
-15.865484 29.935828 -0.946291 33.893404 -1.083451 1.598720 0.012794 -0.006574 631577.000000 0 0 1
-15.451684 29.303928 0.253209 33.129124 -1.085555 1.563153 0.016169 -0.015515 -120320.000000 0 0 1
-14.285984 29.901128 0.770209 33.147549 -1.125087 1.547558 0.017870 -0.018946 -201138.000000 0 0 1
-13.925784 29.335728 2.121409 32.542476 -1.127590 1.505561 0.025985 -0.016309 -303211.000000 0 0 1
-14.858984 29.478728 3.192109 33.165861 -1.103908 1.474400 0.010662 -0.010521 -395436.000000 0 0 1
-14.542284 28.841828 4.381909 32.596475 -1.103788 1.435959 0.017891 -0.015273 667403.000000 0 0 1
-13.235984 29.317528 5.147309 32.576118 -1.146721 1.412123 0.031029 -0.009841 948416.000000 0 0 1
-13.268584 30.541528 5.864009 33.811638 -1.160954 1.396483 0.028325 -0.014083 -405527.000000 0 0 1
-13.331084 31.681428 5.152509 34.755992 -1.172501 1.422000 0.030045 -0.010588 -14363.900000 0 0 1
-13.079284 32.916528 6.092209 35.939957 -1.192579 1.400463 0.038287 -0.012883 -101777.000000 0 0 1
-14.194884 33.279728 6.853209 36.823925 -1.167628 1.383597 0.037210 -0.011118 -371400.000000 0 0 1
-13.901184 34.437528 7.591609 37.905392 -1.187135 1.369155 0.052620 -0.016888 291375.000000 0 0 1
-15.053984 -34.234297 8.529709 38.358382 1.156512 1.346553 0.032856 -0.013898 166465.000000 0 0 1
-15.203384 34.076028 9.691609 38.551859 -1.151140 1.316679 0.014454 -0.009690 -462384.000000 0 0 1
-16.252884 34.527728 10.489609 39.577167 -1.130846 1.302549 0.027503 -0.011386 -854073.000000 0 0 1
-16.332584 33.595828 11.738609 39.156454 -1.118291 1.266327 0.030368 -0.010737 70319.900000 0 0 1
-15.483084 33.852328 12.824109 39.372119 -1.141829 1.239028 0.033106 -0.017603 266256.000000 0 0 1
-14.096184 33.596828 12.599609 38.551257 -1.173535 1.237852 0.031167 -0.011826 -186896.000000 0 0 1
-13.220284 33.784828 13.798909 38.814951 -1.197805 1.207342 0.044138 -0.013310 -670897.000000 0 0 1
-13.547584 32.980028 14.957909 38.664691 -1.181030 1.173570 0.032387 -0.012102 -93676.600000 0 0 1
-13.091284 31.643728 15.039809 37.401913 -1.178528 1.156972 0.016177 -0.006811 -522980.000000 0 0 1
-13.937284 30.489328 14.479409 36.517123 -1.142037 1.163084 0.019113 -0.012034 -196876.000000 0 0 1
-13.814884 30.480128 13.061109 35.923276 -1.145249 1.198685 0.016023 -0.005586 -15715.300000 0 0 1
-14.876384 29.829028 12.430009 35.575031 -1.108172 1.213863 0.005430 -0.008726 -333489.000000 0 0 1
-14.731184 29.755028 10.886909 34.941297 -1.111091 1.253944 0.000506 0.000115 10703.800000 0 0 1
-14.059384 28.576528 10.513309 33.538245 -1.113577 1.251949 -0.001014 0.000031 52248.200000 0 0 1
-14.250084 28.469628 9.144109 33.123999 -1.106720 1.291107 0.005955 0.001768 -108422.000000 0 0 1
-13.518984 27.248328 8.516809 31.587503 -1.110242 1.297792 0.013748 -0.000794 525503.000000 0 0 1
-12.127384 27.350028 8.242009 31.032695 -1.153433 1.301979 0.018129 0.002333 475394.000000 0 0 1
-11.684684 26.055028 7.823009 29.607360 -1.149222 1.303396 0.024740 -0.000382 1052050.000000 0 0 1
-10.458984 26.108428 6.785709 28.932442 -1.189775 1.334055 0.032402 -0.010379 458057.000000 0 0 1
-10.740584 26.619028 5.520909 29.230348 -1.187283 1.380779 0.034315 -0.019636 -728128.000000 0 0 1
-9.808584 26.467828 4.538909 28.589437 -1.215902 1.411360 0.045358 -0.009001 -974593.000000 0 0 1
-10.232984 27.013928 3.165409 29.060042 -1.208695 1.461653 0.032997 -0.015102 -114992.000000 0 0 1
-9.934284 28.353328 3.053609 30.198108 -1.233788 1.469504 0.039736 -0.009160 86561.000000 0 0 1
-10.193884 28.880828 1.761209 30.677668 -1.231484 1.513355 0.031938 -0.010893 -27506.500000 0 0 1
-9.630584 30.319328 1.596409 31.852132 -1.263237 1.520656 0.046260 -0.017933 55818.600000 0 0 1
-10.391584 31.236028 2.295009 32.999114 -1.249634 1.501193 0.039834 -0.022976 -13612.100000 0 0 1
-9.900084 32.561028 2.019309 34.092665 -1.275631 1.511532 0.039615 -0.013455 -36111.400000 0 0 1
-10.674184 33.622528 2.888909 35.394327 -1.263389 1.489085 0.031928 -0.007228 123646.000000 0 0 1
-12.000184 33.899128 2.524009 36.048938 -1.230565 1.500723 0.046570 -0.007116 -418144.000000 0 0 1
-12.170484 -34.427897 1.318209 36.539546 1.231001 1.534712 0.030841 -0.001497 666133.000000 0 0 1
-13.661984 -34.165497 0.866809 36.806009 1.190396 1.547243 0.025875 -0.002948 1150140.000000 0 0 1
-14.296784 33.913928 0.119409 36.804440 -1.171842 1.567552 0.027009 -0.003549 42722.100000 0 0 1
-14.462584 34.041628 -1.257191 37.007827 -1.169053 1.604774 0.027915 -0.001923 -273679.000000 0 0 1
-13.231984 33.716528 -2.138591 36.283098 -1.196817 1.629772 0.023653 -0.003381 119053.000000 0 0 1
-12.989384 32.335228 -2.323491 34.924056 -1.188817 1.637375 0.019175 -0.003140 308076.000000 0 0 1
-11.587984 32.122328 -2.462691 34.237263 -1.224581 1.642789 0.014112 0.003897 343928.000000 0 0 1
-11.150784 30.661128 -2.610691 32.730115 -1.221988 1.650645 -0.002262 -0.001981 -171442.000000 0 0 1
-11.415184 29.995428 -3.827591 32.321550 -1.207156 1.689497 -0.009180 0.002253 -58082.000000 0 0 1
-10.284784 30.017128 -4.710991 32.078001 -1.240702 1.718190 -0.012692 0.003299 302562.000000 0 0 1
-10.625584 29.346728 -6.049991 31.792072 -1.223409 1.762263 -0.009333 -0.001859 -248536.000000 0 0 1
-10.874684 27.998428 -5.871291 30.604620 -1.200327 1.763836 -0.013149 0.005180 32778.300000 0 0 1
-10.956484 27.368828 -7.146691 30.334345 -1.190008 1.808629 -0.018376 0.004971 -81867.400000 0 0 1
-11.449684 25.914028 -7.099191 29.206688 -1.154754 1.816323 -0.001064 0.003594 71799.200000 0 0 1
-10.489084 25.060528 -6.469791 27.926853 -1.174402 1.804590 -0.007826 0.005727 174617.000000 0 0 1
-10.742784 23.707628 -6.726491 26.883168 -1.145337 1.823696 0.024291 -0.000330 -110687.000000 0 0 1
-10.157084 22.574128 -5.802491 25.424919 -1.147989 1.801046 0.016382 0.002359 80197.200000 0 0 1
-8.800084 22.210828 -6.019091 24.637204 -1.193564 1.817603 0.018787 -0.003671 307856.000000 0 1 0
-8.246884 21.059628 -5.401791 23.252922 -1.197555 1.805244 0.027384 0.001748 -159367.000000 0 1 0
-8.066584 21.091428 -3.867191 22.910113 -1.205503 1.740407 0.010248 -0.003053 253662.000000 0 1 0
-9.259984 21.020928 -3.082991 23.176098 -1.155860 1.704216 0.009076 -0.003986 355347.000000 0 1 0
-9.975284 19.794528 -3.100091 22.381693 -1.104000 1.709753 0.016967 -0.005072 -283746.000000 0 1 0
-11.305984 19.773128 -2.346591 22.897780 -1.051381 1.673458 0.028216 -0.006217 -521629.000000 0 1 0
-11.231584 19.762928 -0.941791 22.751017 -1.054000 1.612204 0.025537 -0.008205 150132.000000 0 1 0
-10.871384 18.539428 -0.332791 21.494374 -1.040442 1.586280 0.029933 -0.007593 -501535.000000 0 1 0
-10.735784 18.504828 1.232409 21.429058 -1.045092 1.513253 0.024485 -0.006277 953846.000000 0 1 0
-11.955484 18.451028 2.033209 22.079582 -0.995858 1.478580 0.038503 -0.015040 1116990.000000 0 1 0
-11.627184 18.583428 3.416509 22.185755 -1.011712 1.416185 0.031524 -0.011292 -80412.100000 0 1 0
-12.840784 18.513628 4.361709 22.949175 -0.964388 1.379574 0.029299 -0.016618 -31704.900000 0 1 0
-13.372884 17.245028 4.609309 22.304052 -0.911197 1.362638 0.012239 -0.017100 36336.600000 0 1 0
-14.662784 17.382628 5.159809 23.319018 -0.870070 1.347679 0.018965 -0.015917 -129609.000000 0 1 0
-15.210384 16.036028 5.641209 22.810813 -0.811816 1.320899 0.010087 -0.012174 -206149.000000 0 1 0
-14.478784 15.475028 6.772609 22.248144 -0.818645 1.261475 0.011242 -0.011348 619745.000000 0 1 0
-14.921684 15.986928 8.042309 23.300585 -0.819849 1.218393 0.006015 -0.014122 -1129570.000000 0 1 0
-13.862384 15.847628 9.112409 22.942297 -0.852120 1.162345 0.000950 -0.006987 -870914.000000 0 1 0
-12.691984 16.559928 9.044809 22.740410 -0.916864 1.161742 0.005236 -0.015897 -59763.200000 0 1 0
-11.764084 16.104228 8.006609 21.490594 -0.939895 1.189027 0.006021 -0.015591 -800088.000000 0 1 0
-10.726484 17.176428 7.712409 21.669527 -1.012565 1.206908 0.027521 -0.025419 -578813.000000 0 1 0
-9.793484 17.269928 8.743309 21.693506 -1.054932 1.155962 0.033199 -0.019136 -646714.000000 0 1 0
-9.116384 18.509028 8.687809 22.386840 -1.113137 1.172253 0.032433 -0.021196 432335.000000 0 1 0
-7.837484 18.505928 9.595909 22.270541 -1.170187 1.125330 0.032267 -0.017769 632242.000000 0 1 0
-6.728784 17.757528 9.090309 21.053267 -1.208588 1.124335 0.020345 -0.014554 464794.000000 0 1 0
-5.533484 18.041928 9.810309 21.269057 -1.273203 1.091395 0.017322 -0.007970 788802.000000 0 1 0
-4.531184 18.986528 9.119609 21.545002 -1.336526 1.133732 0.011652 -0.013567 -663939.000000 0 1 0
-4.939584 20.368428 9.291509 22.926065 -1.332878 1.153510 0.014379 -0.015409 88354.700000 0 1 0
-4.335784 21.216728 8.352809 23.210299 -1.369215 1.202662 0.019636 -0.021404 931017.000000 0 1 0
-2.872984 21.770228 8.655309 23.603204 -1.439586 1.195336 0.022622 -0.015413 1272880.000000 0 1 0
-1.897584 20.738828 8.426909 22.465809 -1.479551 1.186292 0.014252 -0.005255 -301205.000000 0 1 0
-0.678784 21.446128 8.241609 22.985240 -1.539156 1.204070 0.014048 -0.008074 53569.600000 0 1 0
0.493416 20.442628 8.104809 21.996191 1.546664 1.193440 0.007854 -0.007339 -145935.000000 0 1 0
0.948516 20.060428 9.364409 22.158804 1.523549 1.134479 0.007739 -0.005560 -1322.920000 0 1 0
2.083516 19.186228 9.282009 21.415136 1.462626 1.122499 -0.000572 -0.020407 1002590.000000 0 1 0
2.935416 19.062828 10.636909 22.026164 1.418010 1.066808 -0.000674 -0.024216 -765585.000000 0 1 0
3.637216 17.880928 10.788309 21.197748 1.370121 1.036847 0.008221 -0.027156 -724192.000000 0 1 0
4.442816 18.020628 11.921409 22.059049 1.329076 0.999846 0.006391 -0.021671 -964002.000000 0 1 0
5.870516 18.450928 11.557609 22.549457 1.262755 1.032650 0.016351 -0.024678 -1029560.000000 0 1 0
6.698016 17.426628 11.018409 21.678471 1.203849 1.037627 0.018276 -0.022754 -206525.000000 0 1 0
7.468416 16.917028 12.069709 22.082594 1.155056 0.992532 0.020498 -0.012469 -1259780.000000 0 1 0
8.712116 16.175928 11.570409 21.712576 1.076759 1.008784 0.027650 -0.014115 -114078.000000 0 1 0
9.649316 17.071928 10.996009 22.482710 1.056347 1.059753 0.030226 -0.021882 -339212.000000 0 1 0
10.835716 16.453628 10.605709 22.374442 0.988426 1.076957 0.031390 -0.016787 -225577.000000 0 1 0
11.757816 17.352528 9.765009 23.123837 0.975273 1.134824 0.033438 -0.016793 888550.000000 0 1 0
12.957316 16.806128 9.160809 23.114030 0.913998 1.163279 0.040242 -0.013165 990218.000000 0 1 0
13.585816 17.860228 8.406609 23.963163 0.920499 1.212356 0.042532 -0.007744 170598.000000 0 1 0
14.659416 17.358228 7.416009 23.899869 0.869491 1.255293 0.045143 -0.012168 619827.000000 0 1 0
15.887216 16.975828 8.041209 24.601695 0.818512 1.237822 0.054210 -0.008121 143045.000000 0 1 0
16.825016 16.490228 7.148109 24.619184 0.775349 1.276207 0.066924 -0.007245 614692.000000 0 1 0
18.320016 16.376728 7.626209 25.728958 0.729449 1.269869 0.047645 -0.005056 743620.000000 0 0 1
18.512516 15.212228 8.438909 25.403549 0.687849 1.232168 0.043851 -0.007121 -292687.000000 0 0 1
19.503716 15.459328 9.374609 26.594530 0.670234 1.210554 0.036223 -0.005366 -733269.000000 0 0 1
19.803716 14.303228 10.337809 26.526209 0.625503 1.170468 0.020084 -0.005729 -356268.000000 0 0 1
20.363816 13.163528 9.744109 26.132568 0.573853 1.188694 0.013186 -0.008899 229754.000000 0 0 1
20.666016 12.249328 10.801209 26.340014 0.535055 1.148267 0.023188 -0.013103 -270124.000000 0 0 1
21.272316 10.966228 10.269309 26.042816 0.475984 1.165464 0.013784 -0.007908 1744030.000000 0 0 1
22.717716 11.117228 9.981509 27.190401 0.455102 1.194910 0.004950 -0.006049 2709300.000000 0 0 1
23.428616 10.068428 9.333709 27.154952 0.405886 1.219921 0.021890 -0.014723 89377.900000 0 0 1
23.581316 8.691028 10.004709 27.050076 0.353109 1.191939 0.034223 -0.022001 -516689.000000 0 0 1
22.317116 8.066028 10.018309 25.758125 0.346819 1.171318 0.025632 -0.020301 398472.000000 0 0 1
22.199816 6.720828 10.461209 25.444808 0.293971 1.147099 0.032133 -0.019566 -585584.000000 0 0 1
23.189216 5.748228 9.747009 25.802830 0.242986 1.183432 0.041485 -0.026231 50288.900000 0 0 1
23.069316 5.599528 8.327109 25.157281 0.238121 1.233431 0.041302 -0.024723 -390426.000000 0 0 1
24.137816 5.020828 7.666509 25.818951 0.205082 1.269317 0.049842 -0.025449 -694457.000000 0 0 1
23.815916 4.897128 6.123409 25.073409 0.202798 1.324082 0.049847 -0.022714 244260.000000 0 0 1
22.850916 3.898828 5.777009 23.890145 0.168993 1.326560 0.037961 -0.020346 732422.000000 0 1 0
22.862616 3.679228 4.370509 23.565595 0.159560 1.384255 0.051260 -0.020107 59218.100000 0 1 0
22.053716 2.415728 3.936109 22.532090 0.109103 1.395206 0.058513 -0.013200 133825.000000 0 1 0
22.652016 1.176928 4.376509 23.100927 0.051910 1.380193 0.063736 -0.012438 606016.000000 0 1 0
21.905316 0.109528 3.861309 22.243304 0.005000 1.396318 0.051190 -0.013334 -199151.000000 0 1 0
22.480616 -1.273872 4.217509 22.908257 -0.056605 1.385636 0.055686 -0.011975 -661163.000000 0 1 0
22.432816 -1.578972 5.593809 23.173586 -0.070271 1.327001 0.056927 -0.016849 749787.000000 0 1 0
22.627816 -2.998572 5.753109 23.539493 -0.131749 1.323893 0.055578 -0.017600 -557793.000000 0 1 0
22.270716 -3.493072 7.187009 23.660926 -0.155578 1.262170 0.057640 -0.020085 -232836.000000 0 1 0
22.257916 -4.913772 7.432509 23.975032 -0.217280 1.255592 0.044264 -0.021744 616407.000000 0 1 0
22.155916 -5.238472 8.827009 24.418073 -0.232173 1.200926 0.054959 -0.021329 -204453.000000 0 1 0
22.056416 -6.743072 9.201709 24.831954 -0.296696 1.191185 0.065069 -0.026513 765371.000000 0 1 0
20.738516 -7.289272 9.004409 23.754977 -0.337997 1.182023 0.054769 -0.016970 1113920.000000 0 1 0
20.540316 -8.594772 9.554409 24.229350 -0.396296 1.165455 0.054906 -0.014593 -204011.000000 0 1 0
-25.370934 -32.969497 5.228409 41.928609 0.914914 1.445773 0.012973 -0.002462 399467.000000 0 0 1
-26.169824 -34.011197 5.853409 43.311472 0.914965 1.435235 0.002028 0.004027 581815.000000 0 0 1
-26.406504 -33.880197 7.234009 43.560327 0.908738 1.403955 0.000420 0.008652 -107614.000000 0 0 1
-27.103824 33.952928 7.715709 44.124265 -0.897107 1.395030 0.017627 0.006250 285639.000000 0 0 1
-28.456144 33.774328 7.327809 44.767780 -0.870651 1.406372 0.019906 -0.003187 62302.600000 0 0 1
-28.952404 32.497028 7.636809 44.188453 -0.843018 1.397101 0.026324 -0.005042 100186.000000 0 0 1
-30.492854 32.457228 7.887209 45.227136 -0.816593 1.395509 0.031450 -0.004986 525865.000000 0 0 1
-31.175464 32.559628 6.666109 45.568365 -0.807112 1.423981 0.015650 -0.001274 -479045.000000 0 0 1
-32.558434 32.721828 6.843609 46.664811 -0.787901 1.423611 0.011124 0.005999 -403934.000000 0 0 1
-33.337924 32.744928 5.535509 47.056236 -0.776425 1.452887 0.014483 0.002323 -407933.000000 0 0 1
-33.255654 31.574728 4.752309 46.102998 -0.759476 1.467533 0.014031 -0.002994 11494.100000 0 0 1
-33.972224 31.653328 3.573309 46.570524 -0.750078 1.493992 0.018592 0.000346 -461993.000000 0 0 1
-33.761974 30.436528 2.685009 45.535287 -0.733645 1.511797 0.008293 -0.001618 18646.500000 0 0 1
-34.244185 29.164928 3.131709 45.089520 -0.705466 1.501285 0.017425 -0.004733 112036.000000 0 0 1
-33.457304 28.145828 2.616709 43.799840 -0.699390 1.511018 0.012872 -0.008958 -563664.000000 0 0 1
-33.595834 26.781528 3.307409 43.091406 -0.673012 1.493967 0.027559 -0.008815 -358026.000000 0 0 1
-34.806040 26.121028 3.006309 43.621169 -0.643804 1.501823 0.024321 -0.005532 -186826.000000 0 0 1
-35.206540 25.199928 4.013309 43.481530 -0.621234 1.478366 0.026100 -0.007057 135044.000000 0 0 1
34.047202 24.931428 3.952109 42.384044 0.632051 1.477415 0.023273 -0.006886 97693.600000 0 0 1
33.586722 24.074328 2.886209 41.424285 0.621900 1.501066 0.010644 -0.000628 138033.000000 0 0 1
33.966672 22.736328 2.959009 40.980863 0.589873 1.498529 0.001989 0.000116 -1153310.000000 0 0 1
33.381342 22.032328 1.723509 40.033835 0.583386 1.527732 0.005736 -0.002300 1582100.000000 0 0 1
32.016892 21.495328 1.782209 38.604491 0.591255 1.524614 0.007501 0.000927 1897710.000000 0 0 1
31.674452 20.702528 2.948709 37.954716 0.578904 1.493028 -0.002466 -0.001794 -810676.000000 0 0 1
32.122382 19.198228 2.985509 37.541079 0.538696 1.491186 -0.001442 -0.000119 -408346.000000 0 0 1
31.559182 18.438528 1.946109 36.602577 0.528760 1.517603 0.003961 -0.004949 158595.000000 0 0 1
31.835512 17.086128 1.926109 36.182116 0.492575 1.517537 0.000806 -0.002872 -886139.000000 0 0 1
31.154052 16.173828 2.924909 35.223895 0.478855 1.487663 0.006489 0.001929 -26696.800000 0 0 1
29.733782 16.134928 2.792009 33.944499 0.497180 1.488451 0.009412 0.005330 509877.000000 0 0 1
29.199872 15.284428 3.799109 33.176490 0.482225 1.456032 0.018921 0.000469 120467.000000 0 0 1
27.654802 15.296328 3.834109 31.834983 0.505233 1.450066 0.011488 0.000901 18912.100000 0 0 1
27.024032 14.850328 2.652809 30.949442 0.502477 1.484977 0.018379 -0.006969 190296.000000 0 0 1
25.616392 14.980128 2.771009 29.804065 0.529158 1.477688 0.004379 -0.000082 80586.800000 0 0 1
24.918392 14.385328 1.530109 28.813281 0.523559 1.517667 0.021614 -0.007620 -549733.000000 0 0 1
25.270492 14.991528 0.290809 29.384150 0.535436 1.560899 0.031534 -0.007451 779935.000000 0 0 1
26.529092 14.518628 -0.213991 30.242835 0.500746 1.577872 0.037383 -0.005011 -81329.300000 0 0 1
27.086292 15.321028 -1.408891 31.151021 0.514770 1.616040 0.049214 -0.008989 80928.000000 0 0 1
27.530082 16.653628 -1.159391 32.196163 0.544033 1.606814 0.030161 -0.014646 815965.000000 0 0 1
28.637762 16.831528 -0.256791 33.218785 0.531355 1.578527 0.034159 -0.012377 13757.700000 0 0 1
29.234432 18.252828 -0.301691 34.466052 0.558139 1.579550 0.034418 -0.005150 95495.200000 0 0 1
29.998182 18.397128 -1.519491 35.222920 0.550123 1.613949 0.026341 -0.002248 649937.000000 0 0 1
30.890852 19.506828 -1.596791 36.569260 0.563243 1.614475 0.016327 0.003975 277262.000000 0 0 1
30.451592 20.602328 -2.586891 36.857121 0.594821 1.641041 0.004215 0.001617 535138.000000 0 0 1
31.437632 21.629628 -2.789291 38.261543 0.602638 1.643762 -0.038894 0.009849 664413.000000 0 0 1
30.873912 22.554028 -3.648291 38.408237 0.630917 1.665927 -0.001985 0.009070 -93155.800000 0 0 1
31.648982 23.903128 -3.655691 39.829407 0.646857 1.662709 -0.017029 0.019238 -118708.000000 0 0 1
31.654902 24.752428 -2.512491 40.261993 0.663635 1.633240 -0.008634 0.023627 140820.000000 0 0 1
32.545092 24.268828 -1.522991 40.626082 0.640742 1.608293 -0.003149 0.027129 -134525.000000 0 0 1
32.742112 25.152228 -0.287691 41.288778 0.655043 1.577764 -0.009652 0.014275 109932.000000 0 0 1
33.214462 26.443828 -0.595291 42.459756 0.672391 1.584817 0.003189 0.017125 145670.000000 0 0 1
34.140202 26.878828 0.406809 43.453311 0.666953 1.561434 0.006284 0.012883 304997.000000 0 0 1
34.565312 28.329628 0.083809 44.691561 0.686577 1.568921 0.000874 0.000282 -53909.600000 0 0 1
-35.331562 28.530728 -0.997591 45.423748 -0.679306 1.592760 -0.011299 0.007544 46239.100000 0 0 1
34.742693 28.616028 -2.199891 45.064080 0.689000 1.619633 -0.025980 0.010050 -301450.000000 0 0 1
35.163489 27.609728 -3.293591 44.828738 0.665640 1.644333 -0.024084 0.009576 332587.000000 0 0 1
-34.593811 28.261828 -4.079491 44.856493 -0.684998 1.661868 -0.017185 0.006263 583020.000000 0 0 1
-34.339440 27.741128 -5.423191 44.476717 -0.679509 1.693034 -0.006629 0.004263 247285.000000 0 0 1
35.295741 27.957328 -6.492791 45.492393 0.669898 1.714008 -0.006991 0.007957 479770.000000 0 0 1
34.188112 27.117128 -6.286391 44.087236 0.670565 1.713874 -0.012451 0.012731 403972.000000 0 0 1
33.154862 27.351528 -7.283291 43.593546 0.689778 1.738656 -0.021360 0.015611 1575300.000000 0 0 1
31.955402 26.311428 -7.182091 42.012158 0.688835 1.742593 -0.019263 0.020528 525525.000000 0 0 1
32.208192 24.921328 -7.591291 41.425450 0.658533 1.755090 -0.016611 0.016307 -67948.600000 0 0 1
33.240912 24.239128 -6.898591 41.714315 0.630053 1.736937 -0.012285 0.016436 -26136.000000 0 0 1
33.257782 22.685228 -7.070191 40.874041 0.598613 1.744646 -0.007842 0.013858 -507635.000000 0 0 1
32.106972 22.014328 -6.663791 39.495498 0.601034 1.740330 -0.012372 0.019079 -325058.000000 0 0 1
32.299372 20.660528 -6.800891 38.940454 0.569070 1.746345 0.010894 0.006555 -183171.000000 0 0 1
31.160132 19.810328 -6.262091 37.451525 0.566299 1.738791 0.014931 0.003167 -556228.000000 0 0 1
29.939562 19.761428 -6.931291 36.536751 0.583404 1.761660 0.017764 -0.001721 -319098.000000 0 0 1
29.001052 19.069328 -6.138191 35.247378 0.581657 1.745835 0.029271 -0.008870 -507604.000000 0 0 1
27.656132 18.811428 -6.798991 34.131477 0.597307 1.771338 0.016546 -0.009628 -718842.000000 0 0 1
27.708812 17.745728 -7.755391 33.805846 0.569623 1.802268 0.026393 -0.007926 83821.100000 0 0 1
27.044322 18.068428 -8.952191 33.734332 0.588997 1.839387 0.018743 -0.011310 -233095.000000 0 0 1
26.758142 16.745328 -9.746391 33.036288 0.559177 1.870274 0.027138 -0.005826 -319856.000000 0 0 1
26.300272 17.076928 -11.015291 33.236462 0.575887 1.908607 0.047124 -0.008055 -38891.200000 0 0 1
26.324362 15.912328 -11.803191 32.946768 0.543701 1.937189 0.037751 -0.008386 -49086.000000 0 0 1
25.556892 16.032428 -13.179491 32.922522 0.560268 1.982661 0.043192 0.002701 975885.000000 0 0 1
24.126992 16.105228 -12.964591 31.773743 0.588593 1.991090 0.026756 -0.000642 1070250.000000 0 0 1
23.398792 16.155528 -14.194891 31.780489 0.604283 2.033819 0.027375 -0.002285 108092.000000 0 0 1
23.110492 14.814328 -14.971191 31.268126 0.570038 2.070084 0.031570 -0.004913 -608746.000000 0 0 1
24.238092 14.058628 -15.354891 31.951570 0.525600 2.072098 0.030401 -0.006436 -81312.200000 0 0 1
24.660692 14.363328 -16.675091 33.053193 0.527406 2.099591 0.032720 -0.006254 -474956.000000 0 0 1
25.994162 13.667628 -17.012291 33.939926 0.484071 2.095836 0.041190 -0.001429 -120332.000000 0 0 1
25.999712 12.250528 -17.212491 33.501199 0.440326 2.110390 0.038962 -0.005030 773414.000000 0 0 1
27.295212 11.830328 -17.698991 34.615597 0.408982 2.107494 0.035761 -0.005073 942172.000000 0 0 1
27.330802 10.406028 -18.316891 34.507487 0.363797 2.130351 0.030600 -0.001282 -308525.000000 0 0 1
26.623772 10.331228 -19.531391 34.598190 0.370158 2.170649 0.021086 -0.003553 -170786.000000 0 0 1
26.838882 9.182628 -20.307791 34.886281 0.329655 2.192122 0.008256 -0.001047 -699160.000000 0 0 1
28.252662 8.968428 -20.833291 36.230810 0.307376 2.183420 0.001403 -0.001421 -1002650.000000 0 0 1
28.670622 10.042228 -21.677191 37.319586 0.336908 2.190572 0.002148 -0.004031 59133.200000 0 0 1
29.280792 9.625028 -22.871491 38.381129 0.317588 2.209188 -0.015575 0.008783 1034420.000000 0 0 1
30.756272 9.008828 -22.810991 39.337623 0.284940 2.189374 -0.011153 0.008074 853963.000000 0 0 1
31.702872 10.011528 -22.565991 40.181174 0.305882 2.167122 0.000474 0.006972 -365228.000000 0 0 1
33.041532 9.588928 -22.545991 41.134075 0.282450 2.150899 -0.014971 0.008173 -116142.000000 0 0 1
33.996142 10.782928 -22.443191 42.139127 0.307144 2.132463 0.002390 0.008120 -274711.000000 0 0 1
33.924212 11.429428 -21.200891 41.604829 0.324967 2.105490 0.002721 0.005460 -49115.000000 0 0 1
34.934990 12.383628 -21.127291 42.663453 0.340657 2.088871 -0.013513 0.003583 -374552.000000 0 0 1
34.920723 13.089228 -19.768191 42.208603 0.358619 2.058213 -0.018016 0.004044 -204343.000000 0 0 1
35.370546 12.358728 -18.665591 41.859503 0.336147 2.032988 -0.020778 0.011843 202186.000000 0 0 1
35.143597 13.064328 -17.462691 41.360545 0.355911 2.006674 -0.018218 0.009996 -348988.000000 0 0 1
-35.208546 12.203128 -16.307891 40.675611 -0.333639 1.983323 -0.022453 0.013928 -549576.000000 0 0 1
34.937993 10.988928 -16.049191 39.987453 0.304730 1.983793 -0.016900 0.009499 117481.000000 0 0 1
-35.310973 10.506928 -14.815091 39.708277 -0.289211 1.953143 -0.011995 -0.004771 38175.700000 0 0 1
34.954678 9.140728 -14.357691 38.878345 0.255775 1.949050 0.021690 -0.011548 240061.000000 0 0 1
33.643402 9.193128 -13.802691 37.508751 0.266740 1.947638 0.031408 -0.007918 727048.000000 0 0 1
33.588722 8.509428 -12.547291 36.851691 0.248121 1.918224 0.033919 -0.008407 -32822.200000 0 0 1
32.474222 9.100028 -11.626191 35.672874 0.273216 1.902772 0.044129 -0.006708 -7426.920000 0 0 1
32.506032 10.514728 -11.398191 36.015557 0.312847 1.892812 0.038802 0.000940 95451.400000 0 0 1
31.532312 11.063428 -10.518291 35.033136 0.337441 1.875739 0.027211 0.004147 -218134.000000 0 0 1
31.713272 10.736528 -9.007591 34.671910 0.326438 1.833606 0.037918 -0.002223 84311.700000 0 0 1
32.795032 11.366628 -8.334491 35.695631 0.333639 1.806459 0.030575 0.003388 219189.000000 0 0 1
32.508242 12.703028 -7.998991 35.806935 0.372518 1.796090 0.031094 0.000250 -433954.000000 0 0 1
32.638542 12.871128 -6.463891 35.675233 0.375629 1.752990 0.036400 -0.001669 -487899.000000 0 0 1
33.900662 12.623728 -5.893891 36.651758 0.356467 1.732305 0.036751 -0.000256 -65372.600000 0 0 1
33.787102 12.598928 -4.457491 36.334150 0.356921 1.693787 0.041098 -0.004240 -34043.500000 0 0 1
35.190268 12.486328 -3.835391 37.536297 0.340965 1.673153 0.036404 -0.001977 189523.000000 0 0 1
-34.841620 13.709428 -4.073291 37.662695 -0.374872 1.679160 0.031543 0.002812 -296460.000000 0 0 1
-33.537544 13.540028 -3.575791 36.343988 -0.383716 1.669343 0.022794 -0.013286 -358933.000000 0 0 1
-32.816754 14.867328 -3.566391 36.203535 -0.425380 1.669466 0.016511 -0.013514 -269204.000000 0 0 1
-33.231994 15.675428 -2.537391 36.831004 -0.440750 1.639744 0.033986 -0.012281 -15438.100000 0 0 1
-32.410534 16.816428 -2.485191 36.597966 -0.478619 1.638754 0.023593 -0.005534 -63827.200000 0 0 1
-32.769444 17.787628 -1.374291 37.311189 -0.497307 1.607638 0.023423 -0.002497 -123729.000000 0 0 1
-33.940554 18.517228 -1.640691 38.698072 -0.499442 1.613206 0.003723 -0.001223 -76612.000000 0 0 1
-34.183626 19.423728 -0.613191 39.321464 -0.516722 1.586391 -0.017152 0.009407 471713.000000 0 0 1
35.305369 20.304228 -0.764791 40.734698 0.521912 1.589572 -0.022523 0.013287 596454.000000 0 0 1
-35.228245 21.458728 -1.586991 41.279835 -0.547109 1.609251 -0.008868 0.012024 54966.300000 0 0 1
35.249880 21.278528 -2.944891 41.279561 0.543098 1.642197 -0.027453 0.018736 -27588.800000 0 0 1
-35.314556 22.618528 -3.666691 42.097034 -0.569659 1.658008 -0.006929 -0.006491 -554722.000000 0 0 1
-33.994804 22.780728 -4.088491 41.125710 -0.590392 1.670375 0.008247 0.001793 -588724.000000 0 0 1
-33.822184 24.045728 -4.755691 41.770250 -0.618034 1.684897 0.016952 -0.000337 372586.000000 0 0 1
-32.348904 24.404628 -5.096591 40.841311 -0.646323 1.695913 0.022241 -0.004126 397158.000000 0 0 1
-31.780324 23.435328 -5.940091 39.931044 -0.635399 1.720109 0.015921 -0.005340 -248151.000000 0 0 1
-30.468044 23.742628 -6.349391 39.144972 -0.661968 1.733718 0.014003 0.000017 112174.000000 0 0 1
-29.821994 22.690528 -7.357791 38.188329 -0.650419 1.764680 0.015882 -0.020224 272519.000000 0 0 1
-30.416904 22.765628 -8.667591 38.969077 -0.642510 1.795095 0.022666 -0.031131 33170.900000 0 0 1
-29.447874 22.695428 -9.665591 38.414625 -0.656617 1.825142 0.007429 -0.034144 -85982.400000 0 0 1
-30.061864 22.579728 -11.093691 39.199869 -0.644210 1.857720 0.010073 -0.021393 215944.000000 0 0 1
-30.810914 23.746028 -11.392691 40.533686 -0.656619 1.855702 0.015235 -0.016387 -125979.000000 0 0 1
-31.709884 23.561728 -12.430791 41.414929 -0.639032 1.875649 0.002834 -0.012872 -540865.000000 0 0 1
-32.427984 24.892028 -12.878691 42.860797 -0.654676 1.875989 0.032603 -0.006636 -179946.000000 0 0 1
-31.675904 26.003128 -13.271391 43.077319 -0.687363 1.883974 0.023551 -0.014214 -583963.000000 0 0 1
-31.044554 25.913628 -14.530491 42.969938 -0.695558 1.915752 0.004171 -0.014941 -141571.000000 0 0 1
-29.734844 26.748028 -14.683991 42.605604 -0.732567 1.922661 -0.015306 -0.002073 1173700.000000 0 0 1
-28.566044 26.095228 -14.095491 41.178425 -0.740227 1.920163 0.008258 -0.009014 1073820.000000 0 0 1
-28.474254 25.910528 -12.662891 40.527613 -0.738293 1.888568 0.012730 -0.004283 -835769.000000 0 0 1
-28.789424 27.019928 -11.665191 41.170185 -0.753703 1.858072 0.018759 -0.000758 441087.000000 0 0 1
-27.685714 27.936128 -11.557091 40.993809 -0.789900 1.856594 0.007570 0.003100 451328.000000 0 0 1
-27.902044 28.864628 -10.484791 41.492429 -0.802353 1.826258 0.008379 -0.004663 244618.000000 0 0 1
-26.761794 29.883428 -10.180391 41.386631 -0.840451 1.819330 0.019221 -0.004128 25906.900000 0 0 1
-27.152214 31.122228 -9.607391 42.404454 -0.853419 1.799346 0.020010 -0.014153 -889527.000000 0 0 1
-26.068164 31.931528 -9.318491 42.261163 -0.886149 1.793121 0.029935 -0.004625 -1036990.000000 0 0 1
33.463602 -25.313762 34.285468 54.185723 -0.647621 0.885710 0.015359 -0.003908 -123156.000000 0 0 1
33.135562 -23.958172 34.415629 53.445252 -0.626019 0.871157 0.012735 -0.006073 -462310.000000 0 0 1
32.001622 -23.818872 -33.748561 52.253305 -0.639844 2.272952 -0.000285 0.000704 -465905.000000 0 0 1
31.746832 -22.378572 -33.235181 51.119850 -0.614012 2.278568 -0.002695 0.006948 36431.600000 0 0 1
31.418992 -21.614872 -34.320083 51.305203 -0.602597 2.303578 -0.006164 0.006245 -34776.100000 0 0 1
30.815412 -20.386672 -33.950201 50.177905 -0.584469 2.313927 -0.007386 0.012498 121575.000000 0 0 1
30.602522 -19.579672 33.681631 49.541197 -0.569175 0.823209 -0.001022 0.010245 -292524.000000 0 0 1
31.781622 -19.288472 32.974190 49.693197 -0.545482 0.845235 0.011753 0.003216 -61252.500000 0 0 1
31.501852 -18.648472 31.760513 48.465064 -0.534502 0.856180 0.017703 0.007195 103472.000000 0 0 1
32.660402 -18.644872 30.697573 48.545588 -0.518726 0.886219 0.018243 0.008746 95838.100000 0 0 1
33.603662 -17.641772 30.937093 48.964701 -0.483443 0.886892 0.015804 0.002612 149802.000000 0 0 1
34.734147 -17.781972 30.085433 49.272637 -0.473158 0.913990 0.017644 0.001713 82249.100000 0 0 1
-35.075880 -16.565772 30.272083 49.205093 0.441230 0.908128 0.014450 -0.004919 -707691.000000 0 0 1
-34.037004 -16.743272 29.355033 47.964286 0.457158 0.912186 0.023018 -0.007767 231089.000000 0 0 1
-32.936604 -15.875272 29.641103 47.068452 0.449140 0.889572 0.025511 -0.010207 1444150.000000 0 0 1
-31.745744 -16.276672 30.630603 47.020806 0.473772 0.861333 0.031077 -0.013343 298364.000000 0 0 1
-30.934684 -15.180872 30.936363 46.308445 0.456212 0.839211 0.028842 -0.011565 400628.000000 0 0 1
-29.744564 -15.687172 31.563833 46.120516 0.485324 0.817047 0.035069 -0.016373 565393.000000 0 0 1
-28.822164 -14.633872 32.190973 45.619361 0.469812 0.787466 0.032860 -0.020078 5465.040000 0 0 1
-29.408014 -14.102672 33.357824 46.652557 0.447156 0.774134 0.032510 -0.016301 122932.000000 0 0 1
-28.560644 -13.166672 33.958513 46.284471 0.431970 0.747058 0.032374 -0.018080 -327537.000000 0 0 1
-29.003174 -12.658872 -33.611071 46.164220 0.411541 2.386308 0.020690 -0.006103 -423407.000000 0 0 1
-28.777194 -13.479572 -32.490061 45.447000 0.438059 2.367277 0.041416 -0.002813 173931.000000 0 0 1
-29.097104 -12.847972 -31.279091 44.610463 0.415809 2.347820 0.041357 0.007565 -372279.000000 0 0 1
-28.929314 -13.790972 -30.097411 43.965330 0.444845 2.324812 0.041207 0.004323 314223.000000 0 0 1
-30.128434 -14.548072 -30.054801 44.973993 0.449849 2.302678 0.036082 0.004732 236054.000000 0 0 1
-30.222574 -15.345472 -28.863721 44.519680 0.469827 2.276193 0.040198 0.002935 134054.000000 0 0 1
-31.333984 -16.417072 -28.797221 45.613800 0.482614 2.254059 0.032794 -0.000330 212298.000000 0 0 1
-31.207584 -17.518572 -29.632411 46.463894 0.511520 2.262372 0.041314 -0.002368 -189319.000000 0 0 1
-32.413474 -18.209872 -29.522371 47.474237 0.511857 2.241913 0.031425 -0.001223 -397623.000000 0 0 1
-32.283584 -19.566772 -30.187631 48.336130 0.544886 2.245333 0.032061 0.002041 694506.000000 0 0 1
-33.502384 -20.326972 -30.316331 49.544682 0.545355 2.229255 0.016237 0.001102 493489.000000 0 0 1
-33.255784 -21.555272 -30.948931 50.283330 0.575085 2.233805 0.011191 -0.002991 -473524.000000 0 0 1
-34.450298 -22.420972 -31.354841 51.697670 0.576952 2.222452 0.014221 -0.004125 -99955.700000 0 0 1
-35.206693 -22.881572 -30.212681 51.728944 0.576320 2.194515 0.006340 -0.007251 -207031.000000 0 0 1
34.607552 -23.848872 -30.473801 51.914390 -0.603389 2.198146 0.011466 -0.005219 -277302.000000 0 0 1
35.108760 -25.307322 -30.771951 53.103659 -0.624567 2.188874 0.006336 -0.000917 69929.300000 0 0 1
-34.956750 -25.547932 -31.981651 53.828405 0.631128 2.206993 0.014190 -0.003316 -155845.000000 0 0 1
-34.441046 -26.818442 -31.995691 54.121518 0.661603 2.203320 -0.001063 0.004284 -434301.000000 0 0 1
-34.427997 -27.517762 -33.378661 55.286972 0.674304 2.218974 0.006316 -0.005699 452001.000000 0 0 1
35.030953 -27.979002 -33.687341 56.078777 -0.673944 2.215191 0.023971 -0.005624 326628.000000 0 0 1
34.910694 -29.186702 -34.464375 57.082513 -0.696333 2.219011 0.018357 -0.007161 -40832.800000 0 0 1
-35.173323 -30.461142 -33.989631 57.622382 0.713727 2.201692 0.004684 -0.008123 -145772.000000 0 0 1
35.009748 -30.959962 -32.815711 57.105802 -0.724087 2.182970 0.016553 -0.014969 -408777.000000 0 0 1
-34.894634 -31.751602 -32.086591 57.055666 0.738273 2.168050 0.011833 -0.011382 -608297.000000 0 0 1
-35.378239 -32.164922 -30.688311 56.815266 0.737860 2.141402 0.011316 -0.010885 -88009.400000 0 0 1
34.499492 -33.271672 -30.660321 56.897051 -0.767283 2.139896 0.017281 -0.005829 469007.000000 0 0 1
33.894312 -33.395492 -29.376561 55.920172 -0.777985 2.123900 0.005626 -0.008355 453562.000000 0 0 1
32.635372 -34.312875 -29.297391 55.684630 -0.810450 2.124840 0.000768 -0.001531 338009.000000 0 0 1
31.484732 -33.923452 -30.025601 55.169065 -0.822666 2.146288 0.012932 -0.005603 -361890.000000 0 0 1
30.467012 34.267823 -29.753281 54.660591 0.844044 2.146384 0.015790 0.000093 -492305.000000 0 0 1
29.129302 -34.467380 -30.365961 54.393089 -0.869138 2.163094 0.005740 0.003054 -505248.000000 0 0 1
29.098702 34.254461 -31.743321 55.024913 0.866600 2.185712 0.011371 0.000086 1028600.000000 0 0 1
27.847192 -34.400228 -32.335211 54.812477 -0.890286 2.201761 0.007653 0.014298 1242590.000000 0 0 1
27.620242 34.153835 -33.773541 55.407710 0.890772 2.226284 0.008990 -0.003579 77968.500000 0 0 1
27.314922 32.752872 -33.761131 54.393654 0.875682 2.240408 -0.001713 -0.001626 66192.200000 0 0 1
27.190372 32.183252 33.884492 54.066967 0.869293 0.893468 0.002770 -0.000619 39178.900000 0 0 1
27.019222 30.636242 33.904126 53.085850 0.848051 0.878033 -0.000075 -0.001543 573829.000000 0 0 1
28.238822 29.993852 34.330238 53.624877 0.815527 0.876048 0.002467 0.000121 473602.000000 0 0 1
28.091442 28.575382 34.460998 52.851130 0.793938 0.860526 0.001222 0.000913 -748291.000000 0 0 1
29.350042 27.832922 -34.159231 52.942890 0.758873 2.272093 0.013372 -0.004632 -851069.000000 0 0 1
29.878292 28.098702 -32.893311 52.575843 0.754713 2.246742 0.008428 -0.002224 50863.800000 0 0 1
31.052882 27.298782 -32.720681 52.727108 0.721151 2.240261 0.016539 -0.005142 526967.000000 0 0 1
31.756242 27.645112 -31.362151 52.500435 0.716299 2.211013 0.017484 -0.005903 -122664.000000 0 0 1
32.604912 28.809942 -31.328201 53.614823 0.723684 2.194838 0.000299 0.001755 244776.000000 0 0 1
32.115722 30.156462 -31.498261 54.156923 0.753946 2.191504 0.013039 0.010082 -315059.000000 0 0 1
31.266912 30.685372 -30.337501 53.287670 0.776012 2.176469 0.009806 0.018472 139859.000000 0 0 1
31.993592 30.944352 -29.122161 53.190630 0.768729 2.150177 0.002474 0.018140 260581.000000 0 0 1
31.122302 30.878342 -27.993911 52.016620 0.781463 2.139064 0.005654 0.012254 -321340.000000 0 0 1
31.705602 31.366282 -26.691071 51.975976 0.780018 2.110087 0.003344 0.013921 -245727.000000 0 0 1
32.004202 32.738522 -26.673721 52.986481 0.796740 2.098333 -0.006147 0.008102 -58365.300000 0 0 1
32.382432 33.029122 -25.376121 52.758813 0.795284 2.072573 -0.021896 0.009721 -249764.000000 0 0 1
32.657172 34.494313 -25.161791 53.753737 0.812749 2.057929 -0.019106 0.006448 -369906.000000 0 0 1
31.510682 -33.804712 -25.202061 52.638632 -0.820506 2.070055 -0.009510 0.007042 -82277.100000 0 0 1
31.692712 -32.407642 -25.119451 51.823451 -0.796551 2.076830 -0.004287 0.000152 -1115790.000000 0 0 1
32.191692 -31.666472 -26.377501 52.295727 -0.777174 2.099473 -0.003071 -0.004032 560887.000000 0 0 1
33.563362 -31.712112 -26.766921 53.372515 -0.757045 2.096141 0.000652 -0.009533 373035.000000 0 0 1
34.457772 -31.128032 -25.838161 53.140409 -0.734673 2.078560 0.005519 -0.006660 -955299.000000 0 0 1
-34.873000 -31.554082 -26.136911 53.804501 0.735476 2.078047 -0.000696 -0.005281 -383271.000000 0 0 1
-34.641344 -32.955152 -25.862221 54.359169 0.760458 2.066631 0.002339 -0.004007 -266960.000000 0 0 1
-34.605381 -33.352072 -24.503991 53.947555 0.766958 2.042291 0.007611 -0.002127 620670.000000 0 0 1
-33.418334 -32.891552 -23.519891 52.457836 0.777454 2.035724 -0.008664 0.005306 1102200.000000 0 0 1
-33.644244 -31.565842 -23.069491 51.580413 0.753537 2.034488 -0.043000 0.010086 -41093.300000 0 0 1
-32.569384 -31.022612 -22.305791 50.206728 0.761080 2.031166 0.006169 0.003924 141144.000000 0 0 1
-32.464564 -29.483882 -22.651591 49.359313 0.737320 2.047567 0.013660 0.004098 207835.000000 0 0 1
-33.665174 -28.741912 -22.814591 49.799067 0.706672 2.046690 0.001243 0.015241 -191346.000000 0 0 1
-33.803334 -28.295672 -24.167691 50.273132 0.696938 2.072281 0.008326 0.007873 802986.000000 0 0 1
-35.038901 -27.338022 -24.433491 50.715752 0.662563 2.073473 0.000430 0.004952 842201.000000 0 0 1
-34.930726 -26.084042 -23.824491 49.680371 0.641409 2.070944 -0.001931 0.008169 -360940.000000 0 0 1
34.881553 -25.234342 -24.357491 49.464959 -0.626278 2.085663 0.001480 0.001419 -71751.100000 0 0 1
35.307889 -24.734472 -25.787651 50.233894 -0.611086 2.109882 0.003175 -0.004165 -46681.500000 0 0 1
-34.537070 -23.683672 -25.800871 49.187503 0.601096 2.122972 0.006880 -0.006937 -452249.000000 0 0 1
-34.167643 -23.232572 -27.081281 49.402187 0.597148 2.150983 0.016218 -0.016175 8935.340000 0 0 1
-32.930424 -22.308472 -26.964371 48.053700 0.595426 2.166547 0.019684 -0.022394 -330997.000000 0 0 1
-33.017744 -21.192572 -26.092931 47.118336 0.570627 2.157687 0.029522 -0.022316 -140801.000000 0 0 1
-33.773814 -20.081772 -26.596041 47.447840 0.536436 2.165825 0.029775 -0.016396 422855.000000 0 0 1
-35.011467 -19.708072 -25.708171 47.698228 0.512696 2.140017 0.031382 -0.017589 176884.000000 0 0 1
-34.817492 -19.286672 -24.345791 46.657808 0.505860 2.119750 0.029650 -0.028673 -553783.000000 0 0 1
-34.124171 -20.148372 -23.517691 46.081425 0.533363 2.106389 0.024549 -0.026015 -565520.000000 0 0 1
-34.826046 -21.455772 -23.080591 46.967194 0.552162 2.084515 0.034537 -0.011180 -492159.000000 0 0 1
34.895057 -21.178772 -22.227091 46.478479 -0.545498 2.069427 0.031837 -0.008296 -788559.000000 0 0 1
34.520502 -22.388472 -21.640991 46.489152 -0.575359 2.055003 0.030525 0.007520 -447335.000000 0 0 1
33.479682 -21.984772 -20.589791 45.035084 -0.581043 2.045634 0.016383 0.004706 -1175980.000000 0 0 1
32.232982 -21.812272 -21.148291 44.294363 -0.594921 2.068545 0.023410 0.002845 -1482780.000000 0 0 1
31.235162 -21.762972 -20.167291 43.081109 -0.608539 2.057963 0.021377 0.006227 -402761.000000 0 0 1
29.972592 -21.116372 -20.738091 42.122748 -0.613755 2.085555 0.010977 0.013918 -1133420.000000 0 0 1
29.214392 -22.011172 -21.528891 42.443675 -0.645696 2.102769 0.008080 0.016987 483350.000000 0 0 1
27.951762 -21.526672 -21.977991 41.565980 -0.656264 2.127923 0.021884 0.012207 373481.000000 0 0 1
27.889832 -20.181872 -22.806991 41.295394 -0.626409 2.155904 0.030858 0.003382 -881762.000000 0 0 1
28.388582 -19.064472 -22.128891 40.731481 -0.591379 2.145144 0.022741 0.014571 -49093.400000 0 0 1
28.472092 -17.982072 -23.096691 40.834692 -0.563309 2.171974 0.022298 0.008724 -4539.870000 0 0 1
29.333562 -16.809472 -22.536891 40.631609 -0.520364 2.158755 0.020847 0.010474 147074.000000 0 0 1
28.616462 -16.061172 -21.526491 39.246057 -0.511444 2.151366 0.008094 0.005553 145739.000000 0 0 1
29.412022 -15.298972 -20.704091 39.086890 -0.479646 2.129036 -0.006894 0.000473 -234609.000000 0 0 1
30.331522 -16.085872 -19.708091 39.587440 -0.487620 2.091899 0.011601 -0.003292 393014.000000 0 0 1
31.430862 -16.800472 -20.238191 40.984623 -0.490882 2.087250 0.015937 -0.007170 137961.000000 0 0 1
32.030282 -17.694472 -19.287091 41.364540 -0.504707 2.055867 0.023868 -0.005334 139766.000000 0 0 1
33.310072 -18.290672 -19.905191 42.899024 -0.502155 2.053303 0.032841 -0.014535 -701385.000000 0 0 1
34.393052 -17.475372 -20.094591 43.497853 -0.470113 2.051009 0.026727 -0.019881 45621.100000 0 0 1
35.377904 -18.093372 -20.973691 44.931748 -0.472751 2.056454 0.026747 -0.024327 415917.000000 0 0 1
-34.465641 -17.040272 -21.577191 44.088847 0.459168 2.082201 0.021517 -0.027777 -508589.000000 0 0 1
-33.563814 -16.576472 -20.624991 42.739903 0.458739 2.074383 0.027685 -0.037324 -120295.000000 0 0 1
-32.826354 -15.461472 -21.147591 41.998182 0.440186 2.098483 0.029074 -0.030332 310070.000000 0 0 1
-31.488804 -14.995972 -20.405591 40.408070 0.444453 2.100164 0.032257 -0.027494 991810.000000 0 0 1
-30.407404 -15.873572 -20.597791 40.010618 0.481116 2.111580 0.023166 -0.028583 161297.000000 0 0 1
-30.503694 -17.024572 -19.793791 40.151035 0.509052 2.086312 0.025091 -0.030554 -170176.000000 0 0 1
-29.357684 -18.038172 -20.175591 39.928733 0.550961 2.100514 0.016232 -0.035848 421588.000000 0 0 1
-29.529024 -19.307072 -19.621991 40.370148 0.579066 2.078363 0.023149 -0.041681 247413.000000 0 0 1
-28.516654 -20.227672 -19.988091 40.272597 0.616959 2.090151 0.021109 -0.043902 -4959.060000 0 0 1
-28.900654 -21.638072 -19.484791 41.025737 0.642672 2.065693 0.017837 -0.024778 -119919.000000 0 0 1
-29.968704 -22.194772 -20.233991 42.428122 0.637457 2.067921 0.031188 -0.024425 6656.190000 0 0 1
-30.335964 -23.386372 -19.683991 43.065678 0.656751 2.045493 0.028958 -0.006827 -513041.000000 0 0 1
-31.357744 -24.082972 -20.569591 44.569112 0.654926 2.050506 0.021261 -0.007331 -484742.000000 0 0 1
-30.920084 -24.261072 -21.884091 44.984049 0.665303 2.078859 0.019444 -0.011651 -473885.000000 0 0 1
-31.855124 -24.976182 -22.603491 46.362446 0.664943 2.080065 0.018492 -0.000527 -421210.000000 0 0 1
-31.529304 -25.122792 -24.123191 46.980635 0.672791 2.110021 0.016689 0.001863 557298.000000 0 0 1
-30.380684 -25.931682 -24.410691 46.811536 0.706556 2.119366 0.024804 0.000995 203792.000000 0 0 1
-30.310884 -26.071572 -25.801731 47.583673 0.710351 2.143896 0.020941 0.008560 595302.000000 0 0 1
-28.883274 -26.422582 -26.345141 47.185409 0.740935 2.163171 0.024351 0.006413 512902.000000 0 0 1
-28.004104 -25.322042 -26.256641 45.987464 0.735145 2.178461 0.026361 -0.001955 -360289.000000 0 0 1
-26.724414 -25.728572 -26.699001 45.705474 0.766415 2.194633 0.026845 -0.005011 708481.000000 0 0 1
-25.679584 -24.558372 -26.873381 44.550346 0.763084 2.218321 0.036806 -0.000748 205946.000000 0 0 1
-25.853354 -23.720772 -27.983121 44.879015 0.742407 2.244038 0.037857 -0.003800 -34909.600000 0 0 1
-24.760784 -22.850672 -28.212641 43.945452 0.745301 2.267890 0.045427 -0.010450 108465.000000 0 0 1
-24.820184 -22.138872 -29.565251 44.500284 0.728361 2.297465 0.044409 -0.017162 53456.100000 0 0 1
-24.478984 -23.040672 -30.576471 45.442423 0.755140 2.308867 0.047480 -0.007526 101113.000000 0 0 1
-24.198084 -22.521872 -31.827061 45.888384 0.749536 2.337237 0.042690 -0.007336 -318860.000000 0 0 1
-23.633884 -23.548172 -32.829071 46.806247 0.783582 2.348131 0.033721 -0.010913 -418931.000000 0 0 1
-24.549584 -24.471872 -33.315551 48.077859 0.783813 2.336369 0.009746 -0.008074 -468616.000000 0 0 1
-23.902484 -25.392962 -34.196714 48.842057 0.815625 2.346402 0.044158 -0.005929 223767.000000 0 0 1
-19.507584 -14.832272 -11.974491 27.275091 0.650082 2.025311 -0.020177 0.026447 62471.200000 0 0 1
-19.839284 -14.355072 -10.703491 26.725082 0.626369 1.982863 -0.015703 0.019850 216647.000000 0 0 1
-18.973184 -14.863872 -9.692691 25.978158 0.664546 1.953154 -0.030152 0.015231 -108810.000000 0 0 1
-19.276784 -14.341372 -8.255191 25.405069 0.639632 1.901747 -0.011576 -0.000944 -902165.000000 0 0 1
-20.491184 -14.794272 -7.774391 26.442395 0.625327 1.869218 0.009016 -0.002630 -514530.000000 0 0 1
-20.650084 -14.128472 -6.580091 25.871554 0.600033 1.827958 0.006323 -0.012141 -430103.000000 0 0 1
-21.862484 -14.703172 -5.851691 26.988771 0.592051 1.789352 0.018853 -0.015521 -781662.000000 0 0 1
-21.739284 -16.025272 -5.359491 27.534160 0.635231 1.766696 0.013824 -0.019276 593565.000000 0 0 1
-21.020384 -16.201372 -4.114991 26.856548 0.656647 1.724623 0.017282 -0.013919 39094.300000 0 0 1
-20.868484 -17.662972 -3.490791 27.561927 0.702397 1.697790 -0.002321 -0.009765 441400.000000 0 0 1
-22.094184 -18.285772 -3.107891 28.847555 0.691362 1.678741 0.008446 -0.010097 506195.000000 0 0 1
-21.782984 -19.382472 -2.267091 29.245826 0.727150 1.648393 -0.011386 0.000209 147826.000000 0 0 1
-22.967384 -20.330672 -1.942091 30.734487 0.724577 1.634028 -0.011662 -0.011696 -41297.400000 0 0 1
-23.478684 -21.015372 -3.034891 31.656043 0.730092 1.666815 -0.022517 -0.010617 269211.000000 0 0 1
-24.459784 -21.995172 -2.673891 33.003308 0.732394 1.651904 0.000156 -0.007685 152221.000000 0 0 1
-24.713584 -23.073872 -3.715991 34.014312 0.751099 1.680263 0.012188 -0.005835 -128462.000000 0 0 1
-23.570184 -23.931572 -3.701991 33.793172 0.793006 1.680565 0.005051 -0.004068 86927.200000 0 0 1
-23.474784 -24.772272 -4.816991 34.466424 0.812284 1.711014 0.002483 -0.001059 1142630.000000 0 0 1
-22.024384 -24.709072 -5.490591 33.552322 0.842782 1.735178 0.004935 0.006288 1527610.000000 0 0 1
-21.729984 -23.447072 -6.094091 32.543745 0.823388 1.759167 -0.005607 0.010338 28868.700000 0 0 1
-21.507984 -22.374172 -5.124291 31.455609 0.805135 1.734431 -0.019297 0.005994 -1139480.000000 0 0 1
-21.380784 -21.002572 -5.828891 30.532310 0.776475 1.762884 -0.004915 0.014000 -57663.700000 0 0 1
-20.157084 -20.732772 -6.457591 29.628641 0.799476 1.790511 -0.023960 0.020754 -168122.000000 0 0 1
-20.339684 -19.453972 -7.118191 29.031508 0.763144 1.818510 -0.029177 0.015723 241983.000000 0 0 1
-19.039884 -18.989572 -7.798191 27.998800 0.784075 1.853048 -0.020681 0.017218 -42124.200000 0 0 1
-18.892884 -19.772472 -8.947991 28.774264 0.808143 1.887012 -0.037032 0.013849 215463.000000 0 0 1
-17.619184 -19.732672 -9.598791 28.141620 0.841921 1.918871 0.004767 0.015864 193844.000000 0 0 1
-17.197784 -18.508072 -10.481091 27.352619 0.822078 1.964037 0.001920 0.017097 -47462.500000 0 0 1
-16.929084 -17.354072 -9.755091 26.132729 0.797794 1.953349 0.003102 0.006676 168885.000000 0 0 1
-15.616484 -17.313672 -9.209691 25.069029 0.836892 1.946980 0.030807 0.001278 15750.700000 0 0 1
-15.465784 -15.968072 -8.425891 23.773209 0.801376 1.933099 0.027956 -0.002103 80892.700000 0 1 0
-16.018484 -16.140672 -7.098891 23.822414 0.789198 1.873385 0.000221 -0.004461 275024.000000 0 1 0
-16.153284 -14.942672 -6.360491 22.905630 0.746486 1.852177 0.008394 -0.007302 -184435.000000 0 1 0
-16.886084 -15.173172 -5.011291 23.248183 0.732019 1.788058 0.009720 -0.009227 -22207.900000 0 1 0
-17.145084 -14.040972 -4.268891 22.568257 0.686190 1.761098 0.003482 -0.006726 -72379.100000 0 1 0
-17.449584 -14.330272 -2.917891 22.767494 0.687558 1.699310 -0.007752 -0.010695 -768270.000000 0 1 0
-18.402984 -13.354372 -2.302791 22.854145 0.627743 1.671728 0.003012 0.003004 26678.300000 0 1 0
-19.745284 -13.417572 -2.810891 24.037650 0.596857 1.688001 0.011685 -0.005262 958824.000000 0 1 0
-20.532684 -12.485972 -2.102491 24.122833 0.546356 1.658065 0.016492 -0.003952 -1027720.000000 0 1 0
-22.001384 -12.526272 -2.464191 25.436993 0.517570 1.667823 0.010804 -0.004397 -791307.000000 0 0 1
-22.371184 -11.876272 -3.661491 25.591449 0.488040 1.714364 0.008527 -0.007150 189992.000000 0 0 1
-23.725084 -12.060872 -4.007891 26.914818 0.470313 1.720262 0.003086 -0.004783 -79736.600000 0 0 1
-24.135884 -11.196672 -5.238491 27.117304 0.434354 1.765197 0.010255 -0.009041 -109382.000000 0 0 1
-23.476084 -11.655772 -6.374591 26.974413 0.460840 1.809373 0.018148 -0.017980 278600.000000 0 0 1
-24.183684 -11.260672 -7.505391 27.712528 0.435776 1.845052 0.024784 -0.018031 -415749.000000 0 0 1
-23.408284 -11.680472 -8.782891 27.595659 0.462838 1.894701 0.036877 -0.020241 414878.000000 0 0 1
-22.400384 -10.718572 -9.146991 26.463795 0.446300 1.923719 0.019994 -0.012364 608559.000000 0 0 1
-21.562084 -11.222872 -10.168791 26.349206 0.479906 1.967006 0.005252 -0.006628 -1478210.000000 0 0 1
-20.232284 -10.562172 -10.213291 25.004322 0.481128 1.991564 -0.011457 -0.001023 -1662310.000000 0 0 1
-20.193484 -9.234672 -10.636991 24.621161 0.428916 2.017535 -0.006475 -0.008715 531239.000000 0 1 0
-18.897284 -8.682072 -10.488091 23.291324 0.430672 2.037898 -0.007808 0.002049 -74245.400000 0 1 0
-18.660084 -7.266572 -11.024891 22.859353 0.371351 2.074066 -0.041360 -0.001873 -221640.000000 0 1 0
-18.508484 -7.217772 -12.440291 23.439733 0.371831 2.130264 -0.005117 -0.006818 442926.000000 0 1 0
-18.425184 -5.885272 -12.959891 23.282668 0.309172 2.161123 0.010779 -0.017290 -220461.000000 0 1 0
-18.019184 -5.964072 -14.451291 23.855837 0.319635 2.221537 0.027975 -0.013365 379738.000000 0 1 0
-18.982484 -6.686872 -15.228891 25.238227 0.338692 2.218561 0.031453 -0.021137 713319.000000 0 0 1
-18.622184 -6.414772 -16.530891 25.713915 0.331739 2.269045 0.040043 -0.031660 -303604.000000 0 0 1
-19.202884 -7.374772 -17.609591 27.078326 0.366677 2.278803 0.031126 -0.023142 -385626.000000 0 0 1
-20.558484 -7.123872 -17.881791 28.163084 0.333569 2.258724 0.032946 -0.033123 30263.200000 0 0 1
-20.993784 -8.020072 -18.852291 29.333759 0.364912 2.268791 0.025165 -0.027304 -424683.000000 0 0 1
-22.485084 -7.886972 -19.184591 30.591369 0.337356 2.248652 0.037020 -0.023888 -842152.000000 0 0 1
-22.791284 -6.759172 -19.941091 31.028634 0.288305 2.268771 0.032321 -0.023794 732653.000000 0 0 1
-24.169984 -6.589672 -20.304391 32.247174 0.266170 2.251897 0.035213 -0.024429 581083.000000 0 0 1
-24.964584 -5.876972 -19.221691 32.050627 0.231203 2.213959 0.028007 -0.016323 -860749.000000 0 0 1
-24.922184 -4.452372 -19.265691 31.813609 0.176786 2.221291 0.028374 -0.014414 243002.000000 0 0 1
-25.645814 -3.883772 -18.201191 31.687140 0.150297 2.182671 0.048578 -0.005817 -482335.000000 0 0 1
-25.404704 -2.334972 -17.974791 31.208079 0.091654 2.184582 0.017240 -0.001750 59432.600000 0 0 1
-25.919604 -1.356072 -18.904991 32.110177 0.052271 2.200313 0.039675 0.004270 626793.000000 0 0 1
-27.311674 -1.458672 -19.213591 33.424801 0.053358 2.183193 0.039985 0.014084 300376.000000 0 0 1
-27.782944 -0.449372 -20.280891 34.400704 0.016173 2.201296 0.033751 0.018265 -333945.000000 0 0 1
-27.314994 -0.575572 -21.667591 34.870112 0.021069 2.241299 0.038099 0.012516 66823.400000 0 0 1
-27.891134 -1.498572 -22.605591 35.932907 0.053678 2.251198 0.035679 0.014527 -130808.000000 0 0 1
-27.090034 -1.638172 -23.937891 36.188067 0.060398 2.293594 0.032501 0.010644 -233437.000000 0 0 1
-27.170674 -0.565872 -24.840991 36.819025 0.020824 2.311325 0.035648 0.012883 107482.000000 0 0 1
-26.776414 0.789828 -24.494591 36.298556 -0.029489 2.311502 0.040107 0.013251 1904870.000000 0 0 1
-25.227034 0.997528 -24.077091 34.887027 -0.039521 2.332485 0.041029 0.009627 1863690.000000 0 0 1
-24.297884 0.764128 -25.107991 34.948280 -0.031438 2.372343 0.042529 0.005101 -973159.000000 0 0 1
-23.014084 0.995528 -24.659091 33.744776 -0.043230 2.390220 0.047384 0.001324 -513953.000000 0 0 1
-21.849784 0.435128 -25.521381 33.599751 -0.019912 2.433449 0.031954 0.000625 220284.000000 0 0 1
-21.829884 1.179928 -26.725571 34.528137 -0.053998 2.455967 0.011548 0.003562 -576109.000000 0 0 1
-20.900584 0.598128 -27.531781 34.571537 -0.028610 2.492068 -0.007939 0.003761 -676485.000000 0 0 1
-20.776884 1.281028 -28.889941 35.608266 -0.061578 2.517215 -0.007236 0.006422 -393935.000000 0 0 1
-20.061584 2.477228 -28.874881 35.247164 -0.122859 2.530831 -0.006184 0.005339 96953.000000 0 0 1
-20.113484 3.183528 -30.062851 36.310633 -0.156976 2.546212 -0.013567 0.009019 -278112.000000 0 0 1
-19.362584 2.652328 -31.291581 36.893191 -0.136135 2.583311 -0.019643 0.007385 -322809.000000 0 0 1
-17.957984 2.619528 -31.195961 36.090707 -0.144848 2.614706 -0.028023 0.012227 73491.800000 0 0 1
-17.394784 1.767128 -32.233591 36.670228 -0.101242 2.644584 -0.025838 0.016610 613765.000000 0 0 1
-15.851884 1.746128 -32.361621 36.077773 -0.109710 2.683723 -0.016288 0.003311 508682.000000 0 0 1
-15.211784 3.016228 -32.711261 36.201141 -0.195743 2.698891 -0.007587 0.006444 1516110.000000 0 0 1
-13.790084 2.817928 -32.935241 35.816717 -0.201569 2.737729 -0.009783 0.005720 1420280.000000 0 0 1
-13.036384 4.057728 -33.501901 36.177200 -0.301756 2.754605 0.003805 0.011997 -210818.000000 0 0 1
-12.984484 5.079328 -32.580371 35.438355 -0.372884 2.737230 0.021339 -0.004658 328918.000000 0 0 1
-12.416084 6.315028 -33.041851 35.858090 -0.470517 2.742622 0.021201 0.000009 -107432.000000 0 0 1
-12.112984 7.255328 -31.864991 34.853146 -0.539663 2.724485 0.022433 -0.003079 -457555.000000 0 0 1
-10.977184 6.854928 -31.141001 33.723146 -0.558218 2.747723 0.041119 -0.014565 37405.100000 0 0 1
-11.231184 5.943228 -30.056831 32.632416 -0.486712 2.741623 0.033999 -0.019743 -947756.000000 0 0 1
-9.945984 5.310728 -29.586011 31.661625 -0.490443 2.777490 0.046310 -0.023773 -876717.000000 0 0 1
-9.309584 4.412628 -30.501171 32.194115 -0.442622 2.815854 0.037495 -0.024362 216661.000000 0 0 1
-9.940084 3.172528 -30.746471 32.468688 -0.308945 2.814429 0.035663 -0.023717 -371993.000000 0 0 1
-9.671184 2.618728 -32.175391 33.699337 -0.264435 2.839709 0.031560 -0.019333 -150750.000000 0 0 1
-10.339984 1.404228 -32.405201 34.043857 -0.134980 2.830065 0.033598 -0.014928 253858.000000 0 0 1
-9.945384 0.743228 -33.631021 35.078606 -0.074592 2.853308 0.025331 -0.010619 -411901.000000 0 0 1
-10.318284 1.312128 33.940892 35.498913 -0.126486 0.297369 0.019666 -0.004505 298592.000000 0 0 1
-11.726584 1.178428 33.740282 35.739447 -0.100156 0.336055 -0.006203 0.001454 396150.000000 0 0 1
-12.047784 1.410728 32.336773 34.537026 -0.116564 0.358874 -0.014945 0.009286 -199361.000000 0 0 1
-13.534584 1.320328 31.993483 34.763647 -0.097244 0.401913 -0.008359 0.014237 -40583.200000 0 0 1
-14.332484 2.485728 32.272313 35.399168 -0.171725 0.423470 -0.013466 0.019937 -697886.000000 0 0 1
-15.570784 2.252128 31.720613 35.407890 -0.143642 0.460427 -0.014594 0.016374 -998531.000000 0 0 1
-16.439584 3.488628 31.492053 35.695656 -0.209107 0.490202 -0.004719 0.016837 -205867.000000 0 0 1
-17.089184 4.180128 32.565883 37.014192 -0.239896 0.495310 -0.007552 0.012390 78259.500000 0 0 1
-16.263984 4.869228 33.461824 37.522263 -0.290894 0.469519 -0.005453 0.018837 -646972.000000 0 0 1
-16.966984 5.269828 -34.169247 38.512168 -0.301147 2.662107 -0.004445 0.019935 96272.000000 0 0 1
-18.066984 6.097328 34.452431 39.377193 -0.325482 0.505498 -0.014909 0.015431 -516944.000000 0 0 1
-19.194984 5.739128 -33.762481 39.259268 -0.290531 2.606042 -0.021934 0.014369 -405266.000000 0 0 1
-20.455684 6.591828 -33.991711 40.215962 -0.311742 2.577790 -0.026899 0.010480 -239458.000000 0 0 1
-20.386284 7.902728 -33.450921 39.962705 -0.369814 2.562672 -0.028602 0.011283 131119.000000 0 0 1
-20.039184 8.858928 -34.405003 40.789137 -0.416248 2.574534 -0.024074 0.011580 -342181.000000 0 0 1
-19.904284 10.300728 -33.925341 40.659738 -0.477560 2.557789 -0.025003 0.005347 -564581.000000 0 0 1
-18.696884 10.414328 -33.186551 39.488971 -0.508208 2.568818 -0.019604 0.007944 190539.000000 0 0 1
-18.356384 11.720528 -32.978911 39.521338 -0.568247 2.557945 -0.007184 0.001927 -338859.000000 0 0 1
-17.525584 12.334628 -34.103209 40.278009 -0.613276 2.580540 -0.005765 -0.008906 -962475.000000 0 0 1
-18.243184 12.389828 33.613444 40.201806 -0.596594 0.580629 -0.001763 -0.002304 -303961.000000 0 0 1
-17.533184 12.634228 32.453783 38.990823 -0.624411 0.587473 0.003092 0.003613 -111673.000000 0 0 1
-18.333984 12.170528 31.178193 38.161976 -0.586032 0.614614 0.009219 0.005054 159442.000000 0 0 1
-18.623184 10.744328 31.141663 37.842658 -0.523286 0.604256 -0.003051 0.009349 624391.000000 0 0 1
-17.510184 9.834328 30.931493 36.879233 -0.511732 0.575861 -0.014135 0.009147 638578.000000 0 0 1
-17.828384 8.385728 31.085083 36.802909 -0.439654 0.564910 -0.011645 0.015635 -1686.090000 0 0 1
-18.621284 7.844328 30.045603 36.208065 -0.398695 0.592040 -0.007009 0.018847 147561.000000 0 0 1
-18.805684 6.437728 30.260373 36.204810 -0.329825 0.581188 0.003516 0.014831 -508896.000000 0 0 1
-19.479284 5.736828 29.107993 35.491252 -0.286412 0.609131 0.007362 0.011994 -2111190.000000 0 0 1
-20.806684 5.958828 29.086433 36.255294 -0.278924 0.639713 0.020750 0.008981 -2021380.000000 0 0 1
-21.442784 4.864728 28.430153 35.940676 -0.223094 0.658306 0.015468 0.009031 -437269.000000 0 0 1
-22.877784 5.074528 27.970713 36.489788 -0.218276 0.697368 0.000294 0.020126 -604732.000000 0 0 1
-22.992584 5.880528 26.784803 35.786383 -0.250390 0.725054 -0.005275 0.016271 235778.000000 0 0 1
-24.319684 6.355528 26.693493 36.665820 -0.255616 0.755365 -0.000865 0.020403 -67821.400000 0 0 1
-24.566484 7.095628 25.368643 36.019830 -0.281181 0.789365 -0.002701 0.013016 -345130.000000 0 0 1
-24.578584 6.300728 24.196293 35.060898 -0.250946 0.809139 0.001966 0.016956 1054040.000000 0 0 1
-25.798094 5.564128 23.921553 35.619403 -0.212426 0.834447 -0.006059 0.018261 243745.000000 0 0 1
-25.794764 4.800028 22.589183 34.621977 -0.183981 0.859981 0.002458 0.024615 27335.000000 0 0 1
-26.669684 5.332328 21.598283 34.730269 -0.197338 0.899647 0.000337 0.014760 110910.000000 0 0 1
-26.653224 4.511528 20.469383 33.907873 -0.167678 0.922692 0.025321 -0.002847 -78118.700000 0 0 1
-27.466884 5.035928 19.272883 33.929844 -0.181331 0.966696 0.017480 -0.007838 -819471.000000 0 0 1
-28.816694 4.971328 19.556783 35.179308 -0.170834 0.981330 0.024447 -0.002148 -1110570.000000 0 0 1
-29.606334 5.582128 18.533483 35.372096 -0.186357 1.019305 0.030991 0.002327 -98606.400000 0 0 1
-31.060304 5.635228 19.023383 36.856307 -0.179476 1.028447 0.029615 0.004380 -417180.000000 0 0 1
-31.304224 6.565128 20.028883 37.738727 -0.206724 1.011341 0.037168 0.001060 -738022.000000 0 0 1
-32.554354 6.437128 20.609083 39.063498 -0.195217 1.015048 0.036277 0.005424 -657371.000000 0 0 1
-32.971424 7.715228 21.368283 40.040518 -0.229862 1.007866 0.046106 0.004499 -122867.000000 0 0 1
-32.128014 7.993828 22.464083 40.009319 -0.243860 0.974634 0.035974 0.007308 349830.000000 0 0 1
-32.727434 8.983128 23.313283 41.173908 -0.267886 0.968890 0.050513 0.008251 207758.000000 0 0 1
-0.336984 32.850628 12.188709 35.040575 -1.560539 1.215524 0.029952 -0.004186 -420309.000000 0 0 1
-0.257684 33.095928 13.540309 35.759569 -1.563011 1.182461 0.022160 -0.005648 137477.000000 0 0 1
-0.064284 34.420928 13.895609 37.119972 -1.568929 1.187108 0.017401 -0.006335 -219817.000000 0 0 1
0.029216 -34.483797 15.398109 37.765525 -1.569949 1.150831 0.018177 -0.004096 443894.000000 0 0 1
-1.187684 34.469128 16.126109 38.073386 -1.536353 1.133432 0.020005 0.001584 183113.000000 0 0 1
-0.975384 -34.363997 17.481409 38.567283 1.542420 1.100365 0.009711 -0.004359 274564.000000 0 0 1
-2.279184 -34.230197 18.314709 38.888682 1.504310 1.080427 0.016744 -0.000974 70352.500000 0 0 1
-2.979684 33.688828 18.568209 38.582302 -1.482579 1.068702 0.007272 -0.001216 -12276.900000 0 0 1
-3.919484 34.014228 19.602609 39.453673 -1.456072 1.050830 0.012701 -0.003861 794896.000000 0 0 1
-5.101384 33.005728 19.810609 38.831204 -1.417449 1.035411 0.017614 -0.007669 -33969.000000 0 0 1
-6.003984 32.937528 18.768209 38.381952 -1.390492 1.059870 0.016725 -0.010509 -450291.000000 0 0 1
-7.036284 32.051228 19.208909 38.023318 -1.354692 1.041197 0.021272 -0.019706 -548546.000000 0 0 1
-8.097084 31.918528 18.155309 37.602798 -1.322357 1.066927 0.004745 -0.020554 -920234.000000 0 0 1
-8.858484 33.109928 18.043209 38.733673 -1.309372 1.086227 0.010113 -0.022789 -444317.000000 0 0 1
-9.549484 33.076328 16.845509 38.327631 -1.289729 1.115739 0.014584 -0.009207 -214305.000000 0 0 1
-10.517084 34.258128 16.585809 39.488194 -1.272934 1.137330 0.041664 -0.023029 140138.000000 0 0 1
-11.558584 34.286728 17.550209 40.214306 -1.245646 1.119184 0.036966 -0.019348 -545194.000000 0 0 1
-12.483784 -33.869497 17.166909 39.971120 1.217662 1.126876 0.022437 -0.019609 -126360.000000 0 0 1
-13.823184 -34.030897 17.956509 40.885432 1.184961 1.116098 0.041598 -0.016672 370680.000000 0 0 1
-13.747684 -33.718297 19.341409 41.231207 1.183651 1.082529 0.035161 -0.014426 15869.000000 0 0 1
-15.012984 -33.874697 19.957909 42.085661 1.153619 1.076717 0.030462 -0.013625 120677.000000 0 0 1
-15.039584 -33.522597 21.490709 42.565293 1.149074 1.041544 0.028982 -0.021019 -163717.000000 0 0 1
-15.158884 -32.107997 21.778809 41.653712 1.129699 1.020601 0.033121 -0.014816 -1878.300000 0 0 1
-15.007984 -31.821097 23.178109 42.131301 1.130096 0.988265 0.029302 -0.011357 197822.000000 0 0 1
-14.836684 -30.274997 23.333209 41.001723 1.115129 0.965411 0.031016 -0.015844 225629.000000 0 0 1
-14.506784 -29.725997 24.663009 41.259492 1.116781 0.930100 0.024900 -0.020667 -136130.000000 0 0 1
-14.183684 -28.363797 24.709709 40.202631 1.107098 0.908881 0.018654 0.003473 -36760.600000 0 0 1
-15.321884 -27.366297 24.389909 39.730869 1.060398 0.909832 0.033459 -0.001355 611517.000000 0 0 1
-16.428284 -27.408697 25.299609 40.757765 1.030831 0.901122 0.042637 -0.007663 293552.000000 0 0 1
-17.522984 -26.654897 24.870509 40.448495 0.989235 0.908577 0.044225 -0.004112 -155998.000000 0 0 1
-18.724184 -26.506497 25.879409 41.508231 0.955788 0.897615 0.044820 -0.006087 917588.000000 0 0 1
-19.629884 -27.612397 26.064509 42.745005 0.952787 0.915029 0.051633 -0.006554 753460.000000 0 0 1
-20.388484 -28.077297 24.959509 42.743444 0.942731 0.947225 0.045212 -0.007763 -39983.700000 0 0 1
-21.818384 -27.513397 24.734709 42.951539 0.900332 0.957123 0.040191 -0.006801 188868.000000 0 0 1
-21.842984 -26.159997 24.238209 41.820475 0.875089 0.952586 0.055588 -0.005646 804160.000000 0 0 1
-23.043184 -25.979697 23.463209 41.910084 0.845228 0.976596 0.057094 -0.006605 468589.000000 0 0 1
-23.341784 -24.487197 23.318009 41.087604 0.809342 0.967306 0.046158 0.008034 -159612.000000 0 0 1
-24.053784 -23.947697 24.390009 41.796522 0.783188 0.947713 0.034536 0.009620 320745.000000 0 0 1
-24.709684 -22.691097 24.116209 41.316412 0.742838 0.947524 0.025654 0.010901 334145.000000 0 0 1
-25.269354 -21.945997 25.338009 41.978348 0.715127 0.922791 0.024895 0.015785 522992.000000 0 0 1
-26.491594 -22.503197 25.828009 43.304555 0.704173 0.931754 0.021552 0.019525 513233.000000 0 0 1
-26.555964 -22.006497 27.124409 43.877542 0.691988 0.904366 0.005956 0.017938 208876.000000 0 0 1
-27.911934 -22.221697 27.908309 45.296287 0.672380 0.906979 -0.000439 0.014634 1239080.000000 0 0 1
-29.090294 -21.511497 27.472509 45.428278 0.636730 0.921351 0.001247 0.012096 1072510.000000 0 0 1
-29.718694 -21.997197 26.306409 45.377358 0.637187 0.952405 0.007382 0.016614 -25183.700000 0 0 1
-30.643304 -23.274497 26.448409 46.692961 0.649572 0.968626 -0.010041 0.009941 -71373.900000 0 0 1
-31.402164 -23.560197 25.290109 46.698698 0.643676 0.998506 -0.017907 0.006223 -90460.900000 0 0 1
-30.781764 -24.530397 24.501909 46.363789 0.672856 1.013998 -0.018199 0.001019 -481345.000000 0 0 1
-31.391944 -24.926897 23.144509 46.286852 0.671105 1.047171 -0.017695 -0.003540 -921214.000000 0 0 1
-32.568344 -25.637697 23.238809 47.518741 0.666885 1.059802 -0.013862 -0.000497 -786282.000000 0 0 1
-32.876624 -26.332497 22.005909 47.524024 0.675319 1.089365 -0.006688 -0.001502 1109090.000000 0 0 1
-34.265590 -27.110797 22.026309 48.931424 0.669350 1.103867 0.004982 -0.002819 677329.000000 0 0 1
-34.429912 -28.168397 22.983409 50.071095 0.685703 1.093910 0.004870 -0.000902 198031.000000 0 0 1
-33.647404 -29.364297 22.807909 50.145892 0.717529 1.098614 -0.000309 -0.001568 -448216.000000 0 0 1
-34.052394 -30.405697 21.730209 50.559608 0.728884 1.126532 0.012221 -0.004345 -548162.000000 0 0 1
-33.924764 -29.889497 20.410409 49.607020 0.722248 1.146761 -0.001855 -0.001701 444611.000000 0 0 1
-34.423349 -30.924697 19.546309 50.233077 0.731910 1.171129 -0.003745 -0.002739 -347579.000000 0 0 1
-34.747031 -30.416397 18.129309 49.610334 0.719038 1.196697 -0.006474 -0.001322 -773774.000000 0 0 1
-33.662224 -30.072097 17.296009 48.338683 0.729128 1.204876 0.003152 -0.000810 -82725.600000 0 0 1
-33.951384 -29.459297 16.051909 47.730603 0.714675 1.227809 -0.002668 0.010617 -238876.000000 0 0 1
-34.505697 -30.402897 14.990109 48.370266 0.722273 1.255705 -0.003294 0.012445 167990.000000 0 0 1
-33.508204 -31.337897 14.572509 48.137527 0.751942 1.263244 0.001923 0.009437 -27174.600000 0 0 1
-33.787244 -32.182697 13.475409 48.568410 0.761081 1.289655 0.019902 0.001022 -141583.000000 0 0 1
-34.021144 -31.585497 12.077709 47.968249 0.748290 1.316272 0.013984 0.006489 -226962.000000 0 0 1
-35.108954 -30.716897 12.034709 48.176764 0.718775 1.318319 0.009358 0.004497 -179501.000000 0 0 1
-35.096979 -29.973997 10.840509 47.410495 0.706831 1.340103 0.013270 0.014816 -500238.000000 0 0 1
34.414882 -29.148997 10.827809 46.381996 -0.702743 1.335174 0.036897 0.022259 -685436.000000 0 0 1
34.495192 -28.207097 9.752109 45.614276 -0.685447 1.355338 0.041292 -0.011074 135666.000000 0 0 1
33.285252 -27.516297 9.566409 44.233141 -0.690800 1.352801 0.052139 -0.011484 -116534.000000 0 0 1
33.384792 -26.502797 8.415109 43.448321 -0.670985 1.375884 0.047981 -0.011232 -38363.000000 0 0 1
34.087072 -25.334197 8.684009 43.349302 -0.639148 1.369105 0.049901 -0.013260 -200471.000000 0 0 1
34.354912 -24.597597 7.516809 42.916246 -0.621374 1.394738 0.050996 -0.017987 104624.000000 0 0 1
35.045780 -23.248997 7.741509 42.762758 -0.585730 1.388759 0.054946 -0.025003 -462397.000000 0 0 1
34.168412 -22.326997 8.368609 41.665439 -0.578789 1.368568 0.048549 -0.018178 100281.000000 0 0 1
34.591272 -20.988297 8.171509 41.277576 -0.545369 1.371515 0.054993 -0.020888 -97179.500000 0 0 1
33.769392 -19.976297 8.962009 40.246017 -0.534183 1.346233 0.060537 -0.015329 -74986.500000 0 0 1
34.108742 -19.842297 10.345509 40.794026 -0.526882 1.314393 0.051205 -0.021290 -99468.000000 0 0 1
33.123092 -19.120597 11.072509 39.816289 -0.523530 1.288991 0.060950 -0.010341 60923.400000 0 0 1
33.487372 -18.983297 12.550309 40.488022 -0.515710 1.255629 0.051793 -0.024912 45690.400000 0 0 1
34.675012 -18.262597 12.803609 41.228768 -0.484762 1.255024 0.018211 -0.012315 219535.000000 0 0 1
35.078488 -18.453797 14.163909 42.091083 -0.484287 1.227592 0.016434 -0.005874 18767.500000 0 0 1
-34.433233 -17.678097 14.593509 41.365845 0.474312 1.210244 0.016354 -0.007449 30972.300000 0 0 1
-33.262614 -18.026097 13.895509 40.304179 0.496628 1.218807 0.005235 -0.006326 -384466.000000 0 0 1
-32.144974 -17.502897 14.547909 39.386450 0.498610 1.192473 -0.002939 -0.009434 51976.500000 0 0 1
-30.787904 -17.540797 13.794709 38.024579 0.517865 1.199543 0.015898 -0.007827 255261.000000 0 0 1
-30.283694 -18.837597 13.477409 38.126077 0.556466 1.209491 0.005797 -0.007965 734330.000000 0 0 1
-29.146634 -18.734897 12.585609 36.863535 0.571283 1.222379 -0.024497 0.006045 617420.000000 0 0 1
-28.358404 -20.009997 12.302309 36.823170 0.614482 1.230155 -0.032447 0.001182 -693590.000000 0 0 1
-29.115644 -20.910097 11.590709 37.673564 0.622819 1.258062 -0.024302 0.006398 -870461.000000 0 0 1
-28.318294 -21.700197 10.741509 37.258614 0.653849 1.278350 -0.022657 0.013803 -432169.000000 0 0 1
-29.079254 -22.449997 9.641109 37.981000 0.657451 1.314148 -0.018169 0.007357 70371.300000 0 0 1
-29.643444 -23.679597 10.003309 39.236759 0.674017 1.313003 -0.015368 0.001625 -514670.000000 0 0 1
-30.909804 -23.731497 10.587309 40.381816 0.654775 1.305516 -0.009318 -0.000067 -563634.000000 0 0 1
-31.577924 -25.090497 10.747209 41.739679 0.671414 1.310381 0.000705 -0.004204 25933.200000 0 0 1
-31.976544 -25.634697 9.492809 42.068402 0.675760 1.343184 -0.000824 -0.003534 -357363.000000 0 0 1
-32.596074 -26.850497 9.655009 43.320577 0.689046 1.346035 0.007034 0.002612 -44217.200000 0 0 1
-32.731524 -27.684097 8.326909 43.670348 0.702047 1.378945 0.008713 0.002421 151916.000000 0 0 1
-31.485294 -28.058897 7.782409 42.885794 0.727918 1.388317 0.001494 -0.002463 -296736.000000 0 0 1
-31.588364 -28.848697 6.566309 43.280347 0.740098 1.418492 0.006414 -0.004896 34725.700000 0 0 1
-30.287884 -29.069697 5.748009 42.372666 0.764878 1.434723 0.023156 0.000153 314275.000000 0 0 1
-29.796534 -27.895397 5.109409 41.135054 0.752457 1.446264 0.025840 0.000763 21477.000000 0 0 1
-28.602324 -28.216697 4.411009 40.419450 0.778611 1.461448 0.025398 -0.004571 -12527.700000 0 0 1
-27.919424 -27.122097 3.599409 39.090384 0.770913 1.478587 0.026593 -0.005629 -349559.000000 0 0 1
-28.477224 -26.654997 2.440609 39.081936 0.752358 1.508307 0.036507 -0.007177 -681630.000000 0 0 1
-27.725044 -25.576197 1.962809 37.771319 0.745105 1.518807 0.027357 -0.015957 -241603.000000 0 0 1
-28.152294 -24.961297 0.618609 37.629784 0.725392 1.554356 0.026409 -0.011996 -268262.000000 0 0 1
-27.792364 -25.773997 -0.478091 37.907031 0.747736 1.583409 0.029253 -0.010197 -70279.700000 0 0 1
-27.935964 -25.157897 -1.757391 37.635439 0.733122 1.617508 0.032255 -0.012725 -60106.100000 0 0 1
-29.359204 -24.976197 -2.317891 38.615358 0.704907 1.630858 0.038734 -0.013368 57287.300000 0 0 1
-30.155174 -23.993197 -1.690491 38.572863 0.672088 1.614636 0.025729 -0.016826 1041470.000000 0 0 1
-31.514204 -23.962497 -2.193891 39.650466 0.650106 1.626155 0.026091 -0.013936 1397070.000000 0 0 1
-32.325514 -22.637897 -2.027291 39.516112 0.610934 1.622122 0.023615 -0.023922 262245.000000 0 0 1
-32.493124 -22.255397 -0.681191 39.389971 0.600538 1.588091 0.035631 -0.024820 91151.300000 0 0 1
-33.377644 -21.176697 -0.576291 39.532919 0.565371 1.585374 0.037306 -0.019509 -338701.000000 0 0 1
-33.495934 -20.714397 0.932909 39.394595 0.553850 1.547113 0.042396 -0.021084 -313698.000000 0 0 1
-34.096223 -21.604897 1.814109 40.405631 0.564792 1.525884 0.040092 -0.027451 113739.000000 0 0 1
-33.976644 -21.232497 3.167109 40.190320 0.558538 1.491912 0.037945 -0.028550 -1157500.000000 0 0 1
-35.011071 -22.104397 3.945509 41.592625 0.563156 1.475793 0.053974 -0.014894 1387270.000000 0 0 1
34.382812 -22.019097 3.578509 40.985657 -0.569604 1.483374 0.047168 -0.013771 790846.000000 0 0 1
33.813502 -20.693897 3.520909 39.799335 -0.549197 1.482214 0.045658 -0.020387 -1838070.000000 0 0 1
32.530032 -20.641097 2.762909 38.625012 -0.565419 1.499204 0.038459 -0.013409 -441513.000000 0 0 1
31.416192 -21.332397 3.317709 38.118965 -0.596510 1.483650 0.036854 -0.002574 60534.600000 0 0 1
30.265382 -21.189297 2.504809 37.030443 -0.610804 1.503103 0.029369 -0.003964 181030.000000 0 0 1
29.043332 -21.946797 3.030609 36.528915 -0.647112 1.487736 0.016081 0.012616 -281020.000000 0 0 1
28.782412 -23.149997 2.378109 37.013579 -0.677364 1.506502 0.011734 0.005319 83540.400000 0 0 1
27.494192 -23.657597 2.677709 36.370078 -0.710534 1.497106 0.006379 0.012441 219377.000000 0 0 1
27.058512 -24.810897 1.700109 36.750973 -0.742093 1.524520 0.009384 0.008050 46431.800000 0 0 1
26.818872 -24.371497 0.380209 36.240396 -0.737625 1.560305 0.006125 -0.003524 14291.400000 0 0 1
26.533802 -25.525997 -0.472491 36.821765 -0.766042 1.583629 0.009655 0.001005 -81261.100000 0 0 1
25.707322 -25.243197 -1.774791 36.072639 -0.776289 1.620017 0.008273 -0.006487 -88093.100000 0 0 1
26.226232 -24.415897 -2.807991 35.942121 -0.749666 1.649001 0.010637 -0.021189 -273286.000000 0 0 1
26.756592 -24.953697 -4.008691 36.805866 -0.750547 1.679927 0.015634 -0.018713 -1388680.000000 0 0 1
25.851812 -25.826497 -4.972791 36.878893 -0.784908 1.706049 0.016769 -0.021705 46258.300000 0 0 1
25.084392 -25.141797 -5.925391 36.006207 -0.786541 1.736114 0.012365 -0.036684 153631.000000 0 0 1
24.091592 -24.388997 -5.263491 34.683315 -0.791533 1.723144 0.021920 -0.039335 -1708620.000000 0 0 1
23.285392 -23.388597 -6.076791 33.558357 -0.787609 1.752882 0.025035 -0.053272 -241843.000000 0 0 1
22.477792 -23.933497 -7.092191 33.591109 -0.816753 1.783530 0.021846 -0.046415 1271090.000000 0 0 1
21.411692 -23.073597 -7.646791 32.393284 -0.822739 1.809107 0.030591 -0.047175 1029460.000000 0 0 1
21.734392 -21.784397 -8.400891 31.898569 -0.786547 1.837303 0.024641 -0.045720 -708118.000000 0 0 1
22.217192 -21.836397 -9.718991 32.632662 -0.776754 1.873215 0.027024 -0.039702 172918.000000 0 0 1
22.166792 -20.545997 -10.291591 31.928381 -0.747470 1.898990 0.023916 -0.033089 -114147.000000 0 0 1
22.976692 -20.525697 -11.637691 32.934305 -0.729116 1.931958 0.017315 -0.022872 -931357.000000 0 0 1
24.325692 -20.688497 -11.407991 33.910108 -0.704772 1.913908 0.022559 -0.028430 -1566470.000000 0 0 1
24.948692 -20.033697 -12.472091 34.341510 -0.676565 1.942473 0.015730 -0.031862 494850.000000 0 0 1
26.482192 -20.372597 -12.499191 35.673225 -0.655735 1.928773 0.004615 -0.015902 624667.000000 0 0 1
26.757202 -21.679397 -12.931991 36.785602 -0.680946 1.930023 -0.002228 -0.018605 173798.000000 0 0 1
27.251902 -22.579097 -11.955291 37.355197 -0.691899 1.896572 0.012558 -0.023504 -232660.000000 0 0 1
27.525952 -23.991697 -12.467291 38.583842 -0.716903 1.899823 0.013242 -0.028488 -451972.000000 0 0 1
28.620252 -24.113397 -13.345091 39.732432 -0.700141 1.913329 0.013317 -0.028107 165611.000000 0 0 1
28.957302 -25.427297 -13.636291 40.878126 -0.720581 1.910899 0.011163 -0.020224 -74115.800000 0 0 1
-4.327784 -9.135672 -27.870911 29.647562 1.128390 2.793645 0.043232 -0.001967 73357.900000 0 0 1
-4.052084 -7.955272 -27.116301 28.548196 1.099690 2.823529 0.028952 0.002153 231767.000000 0 0 1
-4.590084 -6.800072 -27.754881 28.942068 0.977043 2.854180 0.026363 -0.000949 -177516.000000 0 0 1
-4.336184 -5.436372 -27.066221 27.945249 0.897505 2.890110 0.021101 -0.007625 -206117.000000 0 0 1
-5.011384 -5.317072 -25.842771 26.855801 0.814986 2.866054 0.018855 -0.006670 247062.000000 0 0 1
-4.719284 -4.102572 -25.250751 26.013519 0.715604 2.898832 0.023938 -0.016800 112936.000000 0 0 1
-5.376684 -4.086072 -23.826891 24.765408 0.649846 2.865411 0.015886 -0.016160 -48503.200000 0 1 0
-4.785684 -4.979572 -22.942791 23.959770 0.805250 2.849192 0.013396 -0.024465 82846.300000 0 1 0
-5.357484 -4.942672 -21.643691 22.838170 0.745148 2.816741 0.013099 -0.014834 -407871.000000 0 1 0
-4.761584 -5.955772 -20.691491 22.051796 0.896366 2.788516 0.013880 -0.017439 -796452.000000 0 1 0
-5.239684 -7.265072 -20.795191 22.642339 0.945973 2.734866 0.010309 -0.017847 -15316.000000 0 1 0
-4.430484 -8.216572 -20.178991 22.233599 1.076272 2.708304 0.011374 -0.020665 -1165420.000000 0 1 0
-5.074284 -9.654072 -20.245791 22.996555 1.086871 2.647467 0.015256 -0.016121 168055.000000 0 1 0
-6.171184 -9.864472 -19.405591 22.626716 1.011768 2.601460 0.023116 -0.015033 -376123.000000 0 1 0
-7.357984 -9.196372 -19.774191 23.015904 0.895997 2.604409 0.017347 -0.016476 -1111310.000000 0 1 0
-8.380584 -9.265172 -18.614291 22.418061 0.835487 2.550488 0.015056 -0.014246 -440439.000000 0 1 0
-8.933484 -10.573472 -18.580491 23.169810 0.869273 2.501310 0.027280 -0.014765 -122721.000000 0 1 0
-9.641684 -10.772672 -17.394491 22.618153 0.840743 2.448150 0.023262 -0.008142 -34591.100000 0 1 0
-10.468684 -12.107772 -17.478191 23.699761 0.857873 2.400133 0.029538 -0.001860 378866.000000 0 1 0
-11.671684 -12.133672 -18.235391 24.819019 0.804803 2.396072 0.031817 -0.009305 368099.000000 0 1 0
-11.459784 -12.172172 -19.643291 25.794327 0.815534 2.436475 0.031721 -0.013062 -963046.000000 0 0 1
-12.683184 -11.841072 -20.522491 26.874650 0.751074 2.439725 0.022552 -0.008369 885445.000000 0 0 1
-13.750884 -12.788972 -20.728691 27.970042 0.749170 2.405509 0.018430 0.000903 745900.000000 0 0 1
-14.395084 -13.306872 -19.585891 27.710980 0.746136 2.355749 0.013116 0.006220 -1058050.000000 0 0 1
-15.507284 -14.275572 -19.887891 28.979235 0.744065 2.327159 0.007815 0.012287 -363573.000000 0 0 1
-14.984284 -15.549872 -20.175491 29.552965 0.803919 2.322233 0.017734 0.019707 549432.000000 0 0 1
-15.932884 -16.246872 -21.016291 30.975832 0.795155 2.316479 0.019825 0.011480 427964.000000 0 0 1
-15.440584 -17.628572 -21.472791 31.784571 0.851466 2.312538 0.012714 0.009601 -543654.000000 0 0 1
-15.406084 -18.651172 -20.506691 31.713373 0.880395 2.273949 0.018356 0.016471 56274.600000 0 0 1
-15.144784 -19.865072 -21.198191 32.762004 0.919417 2.274487 0.013976 0.011012 36376.400000 0 0 1
-15.778284 -21.131072 -20.476591 33.388130 0.929419 2.231015 0.019930 0.002566 35791.200000 0 0 1
-15.468584 -22.411472 -20.981691 34.377064 0.966672 2.227286 0.015699 0.002452 -8760.850000 0 0 1
-16.306084 -23.376272 -20.401291 35.050694 0.961718 2.192045 0.020353 0.005595 -34973.100000 0 0 1
-15.967484 -24.862072 -20.741691 36.101259 0.999894 2.182841 0.015724 0.000323 -419186.000000 0 0 1
-16.099584 -25.180462 -22.108191 37.175589 1.001932 2.207684 0.008287 0.004742 194732.000000 0 0 1
-15.353884 -26.352362 -22.397091 37.839377 1.043241 2.204209 0.009991 0.006690 -295166.000000 0 0 1
-15.436684 -26.640082 -23.933391 38.997338 1.045622 2.231558 0.018468 0.002355 22521.500000 0 0 1
-16.673384 -27.168962 -24.384591 40.134306 1.020370 2.223800 0.026591 0.007588 -217764.000000 0 0 1
-16.806584 -28.544002 -24.152491 40.994685 1.038656 2.200817 0.027835 0.010167 -219303.000000 0 0 1
-17.764984 -29.344022 -25.069571 42.487053 1.026413 2.201920 0.040012 0.002462 -94550.700000 0 0 1
-17.520984 -29.375472 -26.492161 43.263586 1.032992 2.229817 0.038939 -0.001596 -169259.000000 0 0 1
-17.495684 -28.042812 -27.083811 42.732085 1.012994 2.257259 0.061419 -0.011976 -124484.000000 0 0 1
-16.378984 -27.640662 -28.068321 42.662723 1.035859 2.288839 0.058394 -0.013326 -557125.000000 0 0 1
-16.397884 -28.270062 -29.315821 43.903353 1.045180 2.301959 0.072687 -0.008344 -389127.000000 0 0 1
-15.219684 -28.003522 -30.000191 43.770395 1.072964 2.325948 0.025953 -0.000774 -503900.000000 0 0 1
-15.308984 -28.440812 -31.464491 45.091673 1.076999 2.343103 0.048720 -0.008505 -110355.000000 0 0 1
-15.507784 -29.856712 -31.593021 46.152287 1.091744 2.324767 0.019331 -0.001796 134417.000000 0 0 1
-16.301184 -30.011872 -32.740361 47.311440 1.073221 2.335077 0.022073 -0.002088 -352787.000000 0 0 1
-16.284784 -31.400112 -33.466851 48.694880 1.092362 2.328529 0.006465 -0.000187 -169757.000000 0 0 1
-15.053884 -31.607812 -34.104461 48.875224 1.126311 2.343099 0.006433 -0.000251 -441809.000000 0 0 1
-15.152184 -32.852082 34.206438 49.788838 1.138647 0.813402 -0.005328 0.004855 1410320.000000 0 0 1
-13.839084 -33.370652 33.405177 49.203928 1.177675 0.824515 -0.017383 0.005819 1831640.000000 0 0 1
-12.950484 -34.056532 34.301971 50.041859 1.207418 0.815553 -0.012437 0.008803 341133.000000 0 0 1
-11.906684 34.337628 33.657754 49.534697 -1.237017 0.823745 -0.008285 0.007234 151031.000000 0 0 1
-10.945284 33.545823 -34.407980 49.285196 -1.255408 2.343593 0.001920 0.004199 -430594.000000 0 0 1
-10.149984 34.323718 -33.575381 49.075921 -1.283277 2.324236 0.005533 0.002735 -523939.000000 0 0 1
-9.490684 33.550447 -32.632331 47.755362 -1.295121 2.323100 0.016290 -0.004731 -532604.000000 0 0 1
-8.833184 34.499258 -31.626181 47.628135 -1.320141 2.296983 0.008445 -0.004152 -421833.000000 0 0 1
-9.699984 -34.053956 -30.678261 46.849945 1.293304 2.284740 0.011482 -0.005230 -421455.000000 0 0 1
-9.159484 -32.903962 -30.129981 45.545391 1.299300 2.293663 0.005898 -0.004964 9908.910000 0 0 1
-10.094484 -32.164442 -29.098251 44.532664 1.266691 2.282881 0.007506 0.000890 465707.000000 0 0 1
-10.051684 -32.608352 -27.775551 43.997980 1.271784 2.254014 0.033562 -0.001381 -411727.000000 0 0 1
-10.636784 -33.828482 -27.540451 44.899709 1.266152 2.231126 0.036438 -0.002139 -466835.000000 0 0 1
-10.747484 -34.197640 -26.096781 44.339926 1.266295 2.200075 0.032058 -0.007141 15518.100000 0 0 1
-9.546284 -34.166153 -25.370721 43.613427 1.298337 2.191636 0.033851 -0.009759 -430643.000000 0 0 1
-9.856184 -34.227920 -23.961191 42.928237 1.290424 2.162973 0.030901 -0.010762 35497.600000 0 0 1
-8.639884 -34.346780 -23.004991 42.232435 1.324361 2.146855 0.042060 -0.009781 155811.000000 0 0 1
-7.996684 33.514719 -23.033891 41.445669 -1.336573 2.160075 0.032919 -0.012007 33915.900000 0 0 1
-7.145484 33.278150 -21.911691 40.479815 -1.359288 2.142778 0.039042 -0.004185 -123100.000000 0 0 1
-6.354984 31.998682 -22.008291 39.353098 -1.374746 2.164279 0.033031 -0.014747 96067.300000 0 0 1
-5.190384 32.095602 -22.836691 39.731376 -1.410468 2.183128 0.019596 -0.018541 290444.000000 0 0 1
-4.559484 30.814932 -22.871791 38.645411 -1.423899 2.204132 0.010933 -0.010776 857418.000000 0 0 1
-3.059484 30.864822 -23.371691 38.835984 -1.471994 2.216556 0.013296 -0.015267 946359.000000 0 0 1
-2.808084 31.010912 -24.772591 39.789990 -1.480491 2.242836 0.016875 -0.016808 -141754.000000 0 0 1
-3.151984 32.297222 -25.291681 41.142614 -1.473511 2.232842 0.016617 -0.017892 -289956.000000 0 0 1
-2.465384 32.656952 -26.662131 42.230603 -1.495446 2.254084 0.008187 -0.005101 452300.000000 0 0 1
-1.278884 33.441651 -26.583401 42.739405 -1.532573 2.242075 0.007975 -0.011486 326740.000000 0 0 1
-1.616384 -34.341111 -26.517521 43.417779 1.523763 2.227807 -0.003703 -0.008118 -740.890000 0 0 1
-0.458184 -33.421772 -26.973881 42.951310 1.557088 2.249791 -0.022497 0.000103 285998.000000 0 0 1
0.618516 -33.276952 -26.063631 42.273526 -1.552212 2.235146 -0.027130 0.001272 232286.000000 0 0 1
1.534616 -32.264282 -26.468621 41.760350 -1.523268 2.257281 -0.029132 0.004953 494803.000000 0 0 1
2.661916 -32.022822 -25.428481 40.977489 -1.487861 2.240237 -0.033938 0.010114 -115211.000000 0 0 1
2.198916 -31.295782 -24.314791 39.692194 -1.500649 2.230122 -0.024529 0.007756 382624.000000 0 0 1
3.214316 -30.483472 -23.729091 38.763948 -1.465740 2.229565 -0.027187 0.013701 -164471.000000 0 0 1
2.994616 -30.013362 -22.260091 37.487082 -1.471349 2.206578 -0.012840 0.008189 -362339.000000 0 0 1
3.027616 -30.978782 -21.200291 37.660374 -1.473374 2.168727 -0.011140 0.010121 299309.000000 0 0 1
2.825616 -30.348002 -19.932991 36.418532 -1.477957 2.149968 0.005245 0.000794 -535127.000000 0 0 1
2.675016 -31.382382 -18.731691 36.645407 -1.485762 2.107331 0.010911 0.003757 -527894.000000 0 0 1
1.483416 -32.098592 -18.805291 37.231158 -1.524615 2.100289 0.019752 -0.002166 -459773.000000 0 0 1
1.529416 -33.336852 -19.476591 38.639648 -1.524951 2.099086 0.014372 0.009267 -184673.000000 0 0 1
2.227116 -34.500503 -18.634391 39.274487 -1.506333 2.065153 0.003613 -0.008882 557831.000000 0 0 1
3.634116 34.551842 -18.743991 39.476243 1.466003 2.065552 0.008210 -0.006045 -207568.000000 0 0 1
4.211916 33.547543 -17.964991 38.287319 1.445899 2.059198 0.018138 -0.017940 -393310.000000 0 0 1
5.279516 32.729192 -18.668691 38.047251 1.410865 2.083656 0.033317 -0.016794 -250546.000000 0 0 1
6.452816 33.519601 -18.828591 38.983565 1.380614 2.074860 0.068865 -0.019204 -516455.000000 0 0 1
7.383316 32.687492 -19.471491 38.757250 1.348648 2.097164 0.055280 -0.022005 15595.100000 0 0 1
8.748916 33.402791 -19.767791 39.787631 1.314629 2.090742 0.040948 -0.017508 819929.000000 0 0 1
9.422416 33.856021 -18.594691 39.758956 1.299357 2.057467 0.039740 -0.017714 794601.000000 0 0 1
10.778716 34.310207 -18.730691 40.548857 1.266405 2.050965 0.042139 -0.005104 931904.000000 0 0 1
11.485016 34.544352 -17.398391 40.347514 1.249822 2.016634 0.021374 -0.002607 -381646.000000 0 0 1
11.822316 33.337576 -16.802091 39.159563 1.230008 2.014256 0.015450 -0.004877 -58336.200000 0 0 1
12.657616 33.460487 -15.668391 39.055319 1.209148 1.983606 0.006559 -0.009437 428061.000000 0 0 1
13.885516 32.511812 -15.657991 38.665206 1.167156 1.987735 0.004849 -0.000918 300954.000000 0 0 1
13.621216 31.265682 -15.007591 37.260008 1.159931 1.985349 0.016853 -0.004035 -550758.000000 0 0 1
14.583116 30.365822 -15.430891 37.052163 1.123075 2.000349 0.010814 -0.000183 -407617.000000 0 0 1
14.676516 29.048742 -14.667291 35.698165 1.102967 1.994204 0.027225 -0.002217 -468982.000000 0 0 1
15.049316 29.204232 -13.310791 35.447796 1.094974 1.955737 0.036072 -0.009256 -250800.000000 0 0 1
14.001216 29.386322 -12.383991 34.827478 1.126163 1.934332 0.021393 -0.010172 83529.400000 0 0 1
13.318816 28.063272 -11.923491 33.273229 1.127675 1.937297 0.013478 -0.005693 -131015.000000 0 0 1
12.398216 27.573512 -12.919191 32.877345 1.148240 1.974635 0.020703 0.001016 129007.000000 0 0 1
11.919316 26.269032 -12.622991 31.487649 1.144836 1.983281 0.037068 0.001896 397253.000000 0 0 1
11.003616 26.114342 -11.371291 30.534320 1.172010 1.952401 0.025803 0.006343 -125675.000000 0 0 1
9.688316 26.646512 -11.468291 30.584666 1.222069 1.955159 0.020501 0.009243 295970.000000 0 0 1
9.246716 26.933742 -10.137691 30.227487 1.240091 1.912805 0.006614 0.016752 -22308.800000 0 0 1
8.116116 27.987412 -10.213991 30.878669 1.288547 1.907924 0.006394 0.015369 134983.000000 0 0 1
8.529116 29.290972 -10.642791 32.310615 1.287445 1.906454 0.010121 0.009565 93833.900000 0 0 1
7.433616 30.202582 -10.605091 32.862175 1.329468 1.899392 0.019067 0.006368 311488.000000 0 0 1
7.763516 31.563292 -11.185791 34.374926 1.329617 1.902237 0.042839 -0.004788 -185900.000000 0 0 1
8.505216 32.299152 -10.217891 34.928201 1.313315 1.867678 0.038473 -0.003412 -231209.000000 0 0 1
8.915516 33.594784 -10.633291 36.347804 1.311392 1.867681 0.045794 -0.007035 345626.000000 0 0 1
10.167816 33.571813 -11.542491 36.928041 1.276711 1.888691 0.040933 -0.014981 -206199.000000 0 0 1
11.425816 33.248141 -10.970791 36.828609 1.239787 1.873275 0.029806 -0.011962 -26555.200000 0 0 1
12.353016 33.444153 -12.028691 37.627088 1.216977 1.896190 0.032326 -0.012724 158341.000000 0 0 1
13.829716 33.175828 -11.634391 37.779037 1.175839 1.883843 0.034562 -0.014741 204374.000000 0 0 1
14.203516 34.093363 -10.674591 38.445340 1.176056 1.852150 0.038406 -0.008931 -824751.000000 0 0 1
15.595716 34.211439 -10.674391 39.084415 1.143078 1.847422 0.024764 -0.009470 -480171.000000 0 0 1
16.084516 -33.954142 -9.628291 38.785299 -1.128399 1.821665 0.028211 -0.008705 -166242.000000 0 0 1
16.138416 -34.533333 -8.303891 39.012231 -1.133626 1.785291 0.033026 -0.006074 64103.000000 0 0 1
16.647916 -33.613962 -7.367491 38.227366 -1.110942 1.764738 0.028273 -0.003688 -1197610.000000 0 0 1
17.048116 -34.243974 -6.014191 38.722842 -1.108876 1.726741 0.028582 -0.002334 -520514.000000 0 0 1
18.060916 33.948729 -6.072891 38.930616 1.081873 1.727429 0.025759 -0.008642 -957364.000000 0 0 1
19.345716 34.497854 -6.289791 40.048972 1.059714 1.728502 0.026889 -0.006142 -1174240.000000 0 0 1
20.198316 33.433066 -6.976691 39.678912 1.027337 1.747544 0.027378 -0.005755 -312062.000000 0 0 1
20.457516 32.249852 -6.307991 38.708574 1.005506 1.734487 0.037383 -0.001799 60093.000000 0 0 1
21.446016 32.275652 -5.265991 39.107288 0.984320 1.705862 0.019688 0.008132 20312.900000 0 0 1
21.845516 30.849402 -4.739391 38.096903 0.954632 1.695523 0.006343 0.009788 -101515.000000 0 0 1
22.576216 30.096252 -5.686791 38.050092 0.927210 1.720814 -0.001678 0.009050 -14490.600000 0 0 1
22.942616 28.819602 -5.240491 37.207470 0.898452 1.712111 -0.009321 0.017421 -400454.000000 0 0 1
23.825316 28.014322 -6.177891 37.290941 0.866030 1.737231 -0.017109 0.019548 -157880.000000 0 0 1
25.168616 28.497742 -6.223891 38.526839 0.847353 1.733054 -0.007954 0.014777 172183.000000 0 0 1
25.970816 27.596362 -6.955691 38.528225 0.815735 1.752327 -0.016296 0.016002 -252725.000000 0 0 1
26.770716 26.662012 -6.031291 38.261085 0.783364 1.729092 -0.014437 0.014845 -363845.000000 0 0 1
27.913116 27.288532 -5.446691 39.414115 0.774084 1.709431 -0.010345 0.014128 -196663.000000 0 0 1
28.612216 26.359342 -4.747491 39.191995 0.744439 1.692229 -0.009300 0.024219 224823.000000 0 0 1
29.854216 26.984392 -3.988291 40.439314 0.734950 1.669581 -0.005659 0.020349 595418.000000 0 0 1
29.516416 27.898282 -2.970291 40.722912 0.757222 1.643800 0.011963 0.006011 -452109.000000 0 0 1
30.683416 28.297502 -2.325191 41.804631 0.744968 1.626445 0.024336 -0.004073 -274218.000000 0 0 1
30.511016 29.476432 -1.348291 42.445259 0.768153 1.602567 0.014847 0.003909 59151.400000 0 0 1
30.304116 30.716402 -2.022591 43.196385 0.792155 1.617637 0.004290 0.003009 21951.100000 0 0 1
30.048416 31.769502 -1.153091 43.744007 0.813232 1.597159 0.020598 -0.005438 -185806.000000 0 0 1
32.410872 23.372328 19.352283 44.398662 0.624764 1.119786 0.021761 -0.001031 -146946.000000 0 0 1
32.897202 22.884428 20.571683 45.045722 0.607790 1.096532 0.008588 0.001909 -293811.000000 0 0 1
33.652642 23.910828 21.145783 46.382886 0.617751 1.097417 0.012320 0.003029 -290546.000000 0 0 1
33.577692 23.965628 22.642583 47.058467 0.619886 1.068821 0.005526 0.008780 -840075.000000 0 0 1
32.330582 24.341628 23.100483 46.598430 0.645353 1.052115 -0.008841 0.014189 -518952.000000 0 0 1
32.329672 24.660928 24.510033 47.477476 0.651640 1.028335 -0.010685 0.015483 -752588.000000 0 0 1
30.970562 25.177028 24.932753 47.060606 0.682578 1.012430 0.002812 0.010592 -849431.000000 0 0 1
30.790382 26.495528 24.588363 47.483136 0.710566 1.026480 -0.008218 0.014066 222520.000000 0 0 1
29.600332 26.983728 25.178143 47.310042 0.739188 1.009606 -0.004244 0.001915 -159746.000000 0 0 1
29.392612 28.535628 25.373573 48.187404 0.770605 1.016247 -0.012718 0.005578 -324316.000000 0 0 1
29.192192 29.216528 24.146693 47.841952 0.785815 1.041741 -0.014281 -0.006771 140166.000000 0 0 1
28.891002 30.580328 24.448743 48.657861 0.813796 1.044352 -0.016560 0.004702 -256423.000000 0 0 1
29.142562 31.472528 23.213483 48.771659 0.823818 1.074738 -0.019394 0.001091 -1187020.000000 0 0 1
30.481352 31.542728 22.885883 49.475450 0.802509 1.089904 -0.025543 0.005227 -1064110.000000 0 0 1
30.664962 32.476928 21.846183 49.722695 0.814087 1.115910 -0.027765 0.006617 -488235.000000 0 0 1
32.114152 32.902028 21.722783 50.850187 0.797516 1.129412 -0.017987 -0.011674 -527680.000000 0 0 1
32.516632 33.905728 22.648083 52.152329 0.806308 1.121571 -0.010285 0.001038 224649.000000 0 0 1
33.924302 34.066428 22.672983 53.154905 0.787489 1.130126 0.001625 -0.005195 273004.000000 0 0 1
34.385652 -33.808797 23.456883 53.624930 -0.776939 1.118063 0.010427 0.001962 14172.700000 0 0 1
33.865872 -32.590197 22.857883 52.263764 -0.766205 1.118140 -0.003975 0.006489 429987.000000 0 0 1
34.123752 -31.481397 23.731283 52.140988 -0.745143 1.098270 0.005209 0.009772 -1260080.000000 0 0 1
33.266022 -30.188697 23.620183 50.753312 -0.736940 1.086719 0.001309 0.002706 131685.000000 0 0 1
31.904942 -30.212697 24.011403 50.072746 -0.758162 1.070677 0.003023 0.006302 442412.000000 0 0 1
31.071352 -30.742197 22.987383 49.385538 -0.780073 1.086633 0.001302 0.009454 -405421.000000 0 0 1
30.351322 -32.096797 23.253683 49.921347 -0.813342 1.086251 -0.006686 0.017128 102417.000000 0 0 1
29.336252 -32.035397 24.247533 49.747615 -0.829350 1.061674 -0.004723 0.013552 28886.400000 0 0 1
28.681462 -33.218697 24.325663 50.178142 -0.858567 1.064678 -0.010839 0.014159 -610932.000000 0 0 1
27.905272 -33.497097 25.592923 50.554499 -0.876216 1.039972 -0.010335 0.016984 -259846.000000 0 0 1
27.457952 34.283328 25.565953 50.822275 0.895499 1.043677 -0.015481 0.006331 374954.000000 0 0 1
26.798372 33.931928 26.804063 50.872254 0.902325 1.015859 -0.009975 0.007467 -239802.000000 0 0 1
26.709302 32.413928 26.984333 49.921977 0.881587 0.999729 -0.013073 0.010820 583152.000000 0 0 1
25.941992 31.688628 26.010803 48.515131 0.884785 1.004941 -0.018367 0.015037 403476.000000 0 0 1
24.554192 31.931928 25.877763 47.877082 0.915274 0.999760 -0.006592 0.014565 -89472.700000 0 0 1
24.074192 31.363428 24.470853 46.497892 0.916134 1.016578 0.016650 -0.002266 20188.600000 0 0 1
24.236592 32.171128 23.349483 46.557408 0.925145 1.045441 0.025137 -0.003761 1019760.000000 0 0 1
25.621892 32.240328 22.940483 47.140066 0.899286 1.062551 -0.001285 -0.001346 376934.000000 0 0 1
25.794292 33.117828 21.663983 47.238376 0.909077 1.094366 0.002187 0.005675 181977.000000 0 0 1
27.094072 33.578528 21.325383 48.128767 0.891870 1.111754 0.003170 0.002157 278094.000000 0 0 1
26.963812 -34.534997 20.338383 48.304896 -0.907893 1.136203 -0.005119 -0.002765 -993286.000000 0 0 1
28.268462 -34.056097 19.763683 48.471918 -0.877995 1.150825 0.008761 -0.014346 -996363.000000 0 0 1
28.981842 34.000028 19.241883 48.643593 0.864907 1.164109 0.017060 -0.018043 -706376.000000 0 0 1
30.073822 34.422128 18.486483 49.305859 0.852716 1.186470 0.013023 -0.011385 -547048.000000 0 0 1
30.876612 33.325828 17.760183 48.779095 0.823528 1.198136 0.004688 -0.007007 -368578.000000 0 0 1
31.804762 32.642828 18.544883 49.203758 0.798401 1.184349 -0.000371 -0.007274 69034.700000 0 0 1
32.544832 31.636828 17.822983 48.761806 0.771252 1.196614 0.020207 -0.016255 666262.000000 0 0 1
33.560792 30.860028 18.709883 49.282125 0.743499 1.181380 0.017805 -0.016980 685799.000000 0 0 1
34.592642 31.591328 19.380183 50.697676 0.740081 1.178545 0.027476 -0.016032 363643.000000 0 0 1
35.338941 30.779328 20.260183 51.055683 0.716546 1.162741 0.031227 -0.012441 -89424.800000 0 0 1
-34.279996 31.608728 20.834983 51.071776 -0.744878 1.150583 0.052625 -0.011459 465081.000000 0 0 1
-33.205514 31.947928 19.910383 50.196609 -0.766099 1.162934 0.048143 -0.013111 1234700.000000 0 0 1
-32.129964 32.700128 20.511683 50.223123 -0.794193 1.150084 0.043220 -0.008784 544389.000000 0 0 1
-32.350384 34.089328 21.118983 51.523209 -0.811565 1.148460 0.031184 -0.006629 -593622.000000 0 0 1
-32.335224 34.161728 22.518083 52.150306 -0.812859 1.124318 0.047260 -0.009372 288119.000000 0 0 1
-32.335214 -33.617097 23.000583 52.006750 0.804832 1.112678 0.037782 -0.004456 -75860.600000 0 0 1
-32.230884 -33.555297 24.577573 52.619815 0.805528 1.084813 0.050170 -0.013467 -758655.000000 0 0 1
-33.424134 -34.004397 25.137093 53.901254 0.794004 1.085631 0.045915 -0.004621 -531387.000000 0 0 1
-33.341744 34.477128 26.392723 54.744133 -0.802138 1.067734 0.055494 -0.010249 6742.340000 0 0 1
-34.717871 34.199328 27.032323 55.728548 -0.777874 1.064352 0.042269 -0.008911 133599.000000 0 0 1
-34.723729 33.466128 28.231893 55.881650 -0.766958 1.041173 0.058188 -0.009518 -173538.000000 0 0 1
34.783990 33.446828 28.865093 56.229973 0.765803 1.031724 0.057672 -0.015106 77142.500000 0 0 1
34.655942 32.413828 30.049903 56.166602 0.751981 1.006272 0.058368 -0.007698 -82167.900000 0 0 1
34.555912 31.059728 29.714303 55.152131 0.732166 1.001820 0.049660 -0.004974 435661.000000 0 0 1
-35.067483 30.551128 29.055583 54.839098 -0.716679 1.012392 0.044587 -0.001929 553.719000 0 0 1
-35.308430 29.078928 28.597383 53.945153 -0.688948 1.012055 0.048413 0.001969 -863386.000000 0 0 1
34.547132 28.916828 27.589923 52.828885 0.696913 1.021308 0.036901 0.001234 -210018.000000 0 0 1
34.279552 27.596028 27.181433 51.724837 0.677800 1.017493 0.037071 -0.000875 128519.000000 0 0 1
33.861902 26.445928 28.215033 51.401397 0.663044 0.989730 0.027844 0.002986 -694292.000000 0 0 1
34.951377 26.023028 28.969733 52.326305 0.640004 0.984072 0.023513 0.005186 -319331.000000 0 0 1
34.723532 24.805528 29.669203 51.974027 0.620307 0.963260 0.015149 0.006698 -119010.000000 0 0 1
35.092948 23.540128 28.806873 51.141847 0.590854 0.972453 0.015419 0.013885 43731.200000 0 0 1
34.183152 23.326328 27.750133 49.826452 0.598811 0.980104 0.010396 0.011646 230677.000000 0 0 1
34.742694 22.404328 26.821673 49.278909 0.572757 0.995262 0.003875 0.012238 -247738.000000 0 0 1
34.505332 20.894928 27.221813 48.664597 0.544495 0.977163 0.004776 -0.000717 368680.000000 0 0 1
33.156042 20.435628 27.045483 47.417256 0.552353 0.963837 0.016063 0.003552 759266.000000 0 0 1
32.932582 19.174628 27.733853 47.131602 0.527257 0.941675 0.020794 0.002332 -182452.000000 0 0 1
32.846462 19.131628 29.280343 47.981744 0.527420 0.914434 0.011865 -0.010201 36717.200000 0 0 1
31.734852 19.835528 29.837263 47.862420 0.558628 0.897717 0.023097 -0.010138 404368.000000 0 0 1
31.675312 21.275628 29.700893 48.354118 0.591464 0.909378 0.018733 -0.001082 -397085.000000 0 0 1
30.355662 21.950428 30.184013 48.107818 0.626067 0.892555 0.031178 -0.013270 773184.000000 0 0 1
29.190572 21.807328 29.344933 46.784336 0.641622 0.892794 0.054825 -0.021863 531035.000000 0 0 1
29.140232 22.399428 28.047173 46.233445 0.655348 0.918966 0.048220 -0.002289 -435479.000000 0 0 1
28.958082 23.915428 27.987023 46.837930 0.690314 0.930380 0.046156 0.001041 -297152.000000 0 0 1
30.095352 24.618828 28.416883 48.159486 0.685637 0.939666 0.036313 -0.004856 -353496.000000 0 0 1
29.835062 25.894628 29.005283 49.009888 0.714809 0.937475 0.008828 0.002593 -95241.400000 0 0 1
30.082232 25.964928 30.543863 50.120312 0.712068 0.915479 0.016251 -0.006620 -222163.000000 0 0 1
31.367672 25.570428 30.948963 50.947188 0.683931 0.917923 0.014724 0.007311 -99533.600000 0 0 1
31.728302 25.768128 32.343143 52.122552 0.682105 0.901389 0.021826 0.001698 -16379.100000 0 0 1
31.136252 24.604828 33.168391 51.720459 0.668756 0.874603 0.024751 -0.005066 -70175.900000 0 0 1
31.671182 24.459028 -34.452668 52.804300 0.657609 2.281622 0.016213 -0.008711 249266.000000 0 0 1
31.481472 23.182528 -33.832061 51.702234 0.634731 2.284137 0.014610 -0.013842 -174978.000000 0 0 1
31.972422 23.094428 -32.372091 51.024902 0.625552 2.258076 0.009840 -0.017363 -319697.000000 0 0 1
31.133902 23.821728 -31.538841 50.313945 0.653119 2.248288 -0.004824 -0.015967 120095.000000 0 0 1
31.460882 23.580328 -30.176241 49.562329 0.643189 2.225412 0.015564 -0.026546 454525.000000 0 0 1
32.740472 24.283228 -29.575191 50.361747 0.638160 2.198460 0.012998 -0.005139 878194.000000 0 0 1
33.211422 23.713928 -28.311671 49.667893 0.620080 2.177326 0.016930 -0.008886 -100800.000000 0 0 1
34.369302 24.350228 -27.827511 50.483194 0.616400 2.154626 0.021794 -0.001780 240234.000000 0 0 1
35.156064 23.565528 -26.715941 50.050219 0.590522 2.133864 0.019466 0.001387 -362054.000000 0 0 1
-34.952289 22.440928 -27.228291 49.665255 -0.570762 2.151050 0.009528 -0.005650 79635.300000 0 0 1
-35.090079 21.369828 -26.307471 48.785922 -0.547010 2.140334 0.003988 -0.004704 -499320.000000 0 0 1
-34.175177 20.150928 -26.611281 47.771989 -0.532764 2.161623 0.013699 0.002753 -425002.000000 0 0 1
-32.900704 20.582428 -26.204621 46.827074 -0.559025 2.164704 0.010590 0.001862 -1034820.000000 0 0 1
-32.018864 19.509828 -26.259611 45.775629 -0.547246 2.181763 -0.006365 -0.002482 314254.000000 0 0 1
-30.656884 19.764028 -25.532771 44.523968 -0.572630 2.181521 -0.006691 0.001604 539568.000000 0 0 1
-30.769814 19.493228 -24.182191 43.721228 -0.564701 2.156876 -0.001358 -0.000806 -31722.700000 0 0 1
-29.570014 19.871828 -23.555691 42.710020 -0.591704 2.154989 0.007560 0.006322 -182613.000000 0 0 1
-29.825614 20.357628 -22.151191 42.363611 -0.598922 2.121025 -0.003113 0.000416 -3462.340000 0 0 1
-30.442084 19.409028 -21.313691 41.924984 -0.567589 2.104095 -0.020967 0.004257 -100997.000000 0 0 1
-30.809864 19.963128 -20.114791 41.861426 -0.574930 2.072031 -0.019216 0.007182 -103910.000000 0 0 1
-31.804824 19.035228 -19.303091 41.791100 -0.539317 2.050927 -0.023121 -0.002895 757329.000000 0 0 1
-32.478434 19.571028 -18.154391 42.041119 -0.542318 2.017311 -0.014074 -0.005222 175748.000000 0 0 1
-33.370624 20.622728 -18.433191 43.343719 -0.553543 2.010067 -0.014844 -0.006331 -813743.000000 0 0 1
-34.512869 20.740428 -17.419091 43.871724 -0.541116 1.979092 0.005424 -0.011244 -368694.000000 0 0 1
-34.054584 21.004928 -16.149391 43.147706 -0.552682 1.954418 0.006806 -0.020187 60764.900000 0 0 1
-35.087370 20.823428 -15.186291 43.535757 -0.535607 1.927112 0.019151 -0.013477 -539794.000000 0 0 1
-34.944558 21.640328 -13.884391 43.384355 -0.554473 1.896560 0.023678 -0.014104 -285252.000000 0 0 1
-35.269180 23.002328 -14.019491 44.379818 -0.577916 1.892199 0.027751 -0.015948 1600680.000000 0 0 1
34.111622 23.399728 -14.128391 43.712257 0.601251 1.899920 0.043557 -0.010548 1222450.000000 0 0 1
33.916192 24.848528 -14.674091 44.531858 0.632301 1.906590 0.032484 -0.009574 330003.000000 0 0 1
34.503832 25.880528 -13.835491 45.296103 0.643550 1.881203 0.028234 -0.002544 400394.000000 0 0 1
34.178902 27.154528 -14.378591 45.959869 0.671367 1.888990 0.015994 0.007849 55305.100000 0 0 1
-35.339209 27.907228 -14.854491 47.416547 -0.668426 1.889438 0.022498 0.003491 193226.000000 0 0 1
-35.010737 27.483128 -16.176591 47.357746 -0.665522 1.919397 0.013743 0.002859 -260616.000000 0 0 1
-33.898234 28.191028 -16.640991 47.124801 -0.693736 1.931707 0.017367 -0.000851 -616490.000000 0 0 1
-33.528814 27.940728 -18.115291 47.254941 -0.694739 1.964220 -0.003813 0.005463 119288.000000 0 0 1
-33.127154 26.627728 -18.567091 46.380827 -0.677056 1.982660 0.002581 0.002271 1358130.000000 0 0 1
-31.878774 26.052328 -18.064891 44.959096 -0.685160 1.984286 -0.003892 -0.002014 1115220.000000 0 0 1
-31.647794 24.672328 -18.737991 44.287910 -0.662172 2.007655 -0.004597 0.003812 -836795.000000 0 0 1
-31.445534 24.891428 -20.126391 44.871777 -0.669581 2.035918 -0.007794 0.005933 101464.000000 0 0 1
-31.089844 23.767928 -20.861991 44.347666 -0.652711 2.060562 -0.007879 0.007526 -318344.000000 0 0 1
-30.788524 23.935828 -22.357191 44.952209 -0.660825 2.091343 -0.014219 0.011983 1256250.000000 0 0 1
-31.994854 24.329928 -23.067791 46.343706 -0.650145 2.091804 -0.002974 0.008065 1472330.000000 0 0 1
-31.672914 23.993628 -24.446891 46.653169 -0.648312 2.122353 0.002209 0.009917 745797.000000 0 0 1
-32.593864 24.678228 -25.547911 48.208616 -0.648057 2.129332 -0.011546 0.012840 8395.310000 0 0 1
-32.259954 26.051528 -25.674091 48.770336 -0.679328 2.125191 -0.019583 0.025346 89782.200000 0 0 1
-33.014904 26.658128 -26.709261 50.140047 -0.679272 2.132576 -0.007345 0.021426 -339494.000000 0 0 1
-32.515454 28.039928 -26.981921 50.710121 -0.711624 2.131853 -0.016172 0.028018 535564.000000 0 0 1
-31.222124 28.041928 -27.602751 50.230296 -0.731788 2.152591 -0.026165 0.026443 319806.000000 0 0 1
-30.758434 29.392428 -27.670411 50.750840 -0.762692 2.147449 -0.010727 0.016188 773082.000000 0 0 1
-29.324454 29.554528 -28.285501 50.333520 -0.789306 2.167552 0.008946 0.010161 680979.000000 0 0 1
-28.290634 29.148028 -27.416391 49.006387 -0.800324 2.164513 0.004014 0.009655 120421.000000 0 0 1
-26.988174 29.285828 -27.958471 48.658990 -0.826205 2.182887 0.017775 0.012157 601455.000000 0 0 1
-26.112784 30.504928 -27.605401 48.728701 -0.862819 2.173063 0.028244 -0.000384 60316.600000 0 0 1
-25.542134 30.611228 -26.266841 47.743008 -0.875426 2.153366 0.029592 -0.005540 204172.000000 0 0 1
-26.443154 31.164128 -25.326491 48.081955 -0.867166 2.125552 0.009591 0.008262 158545.000000 0 0 1
-25.631204 31.779428 -24.170291 47.445691 -0.892084 2.105319 -0.010779 0.002267 -18998.200000 0 0 1
-25.259214 33.099128 -24.406991 48.262629 -0.918940 2.101003 -0.001641 -0.003849 -260144.000000 0 0 1
-24.249884 33.424428 -23.475691 47.501130 -0.943151 2.087726 0.019139 -0.003725 54951.100000 0 0 1
-23.829284 -34.206297 -23.666191 47.937398 0.962333 2.087124 0.022927 0.008601 393256.000000 0 0 1
-24.759384 -33.328897 -23.009691 47.468814 0.931867 2.076854 0.003137 -0.001208 534706.000000 0 0 1
-24.443684 -31.995397 -23.347091 46.543375 0.918411 2.096267 0.019556 0.000193 -532896.000000 0 0 1
16.456916 8.862828 -25.484791 31.604657 0.494008 2.508771 0.028918 -0.018931 -624016.000000 0 0 1
15.185816 8.305028 -25.452111 30.779741 0.500455 2.544389 0.020277 -0.019480 -607469.000000 0 0 1
15.137116 6.937928 -25.436001 30.401600 0.429767 2.561965 0.013235 -0.015401 238417.000000 0 0 1
13.674816 6.421828 -25.414001 29.565384 0.439041 2.605256 0.012537 -0.011362 13708.900000 0 0 1
12.968216 6.587228 -24.227091 28.258063 0.469989 2.600898 0.026505 -0.017907 -215147.000000 0 0 1
11.773016 5.847928 -24.316591 27.642336 0.461023 2.645999 0.025634 -0.016707 -244883.000000 0 0 1
10.933416 6.004928 -23.001791 26.166412 0.502250 2.644679 0.033135 -0.025075 -89249.800000 0 0 1
11.532416 5.326828 -21.871691 25.293133 0.432706 2.615406 0.031296 -0.012262 403366.000000 0 0 1
10.980816 5.591428 -20.549991 23.961313 0.470980 2.601444 0.039809 -0.010944 53904.400000 0 1 0
11.585116 6.842628 -19.799291 23.938429 0.533508 2.544711 0.044128 -0.022692 30871.400000 0 1 0
10.988016 6.986128 -18.529491 22.646954 0.566325 2.529051 0.025800 -0.010145 -81749.000000 0 1 0
11.068416 8.353228 -18.109991 22.809165 0.646496 2.488122 0.014052 -0.009822 931548.000000 0 1 0
12.524016 8.773428 -17.617191 23.327868 0.611080 2.426755 0.007901 -0.010087 1147200.000000 0 1 0
12.957216 8.131628 -16.421991 22.443142 0.560449 2.391631 0.007753 -0.011329 98523.100000 0 1 0
14.310016 8.491228 -16.192491 23.217973 0.535535 2.342576 0.007510 -0.006550 -208094.000000 0 1 0
14.867316 7.817828 -14.949891 22.486768 0.484105 2.298063 0.008995 -0.008795 101824.000000 0 1 0
16.285816 8.007428 -14.923491 23.495899 0.456970 2.259003 0.011302 -0.011303 928078.000000 0 1 0
16.854616 8.208128 -13.631091 23.178828 0.453190 2.199484 0.015819 -0.008920 37317.300000 0 1 0
17.101316 9.676728 -13.342591 23.751185 0.514928 2.167314 0.021377 -0.014138 244828.000000 0 1 0
15.855216 10.393628 -13.243191 23.125689 0.580255 2.180545 0.015033 -0.013839 1025700.000000 0 1 0
16.061716 11.760328 -13.411291 24.003057 0.632009 2.163653 0.024910 -0.011031 143517.000000 0 1 0
14.809016 12.504328 -12.897191 23.280951 0.701218 2.157934 0.022515 -0.018977 102599.000000 0 1 0
14.611516 12.692728 -11.485191 22.505807 0.715239 2.106355 0.047437 -0.013533 78728.000000 0 1 0
15.313716 13.803228 -10.921991 23.330857 0.733568 2.057975 0.062101 0.001065 -272931.000000 0 1 0
14.743116 15.193928 -11.155891 23.930500 0.800456 2.055763 0.046276 0.000871 -548573.000000 0 1 0
13.503716 15.421628 -10.566291 23.061298 0.851607 2.046746 0.049722 -0.002189 -467173.000000 0 1 0
13.271316 16.818028 -10.337291 23.787254 0.902729 2.020360 0.045625 -0.009580 380160.000000 0 1 0
12.048416 17.223028 -9.450691 23.045880 0.960371 1.993340 0.031556 -0.002769 368829.000000 0 1 0
12.312816 17.104228 -8.062291 22.564587 0.946859 1.936170 0.037235 -0.001023 -339116.000000 0 1 0
11.196416 17.222928 -7.232191 21.778282 0.994359 1.909307 0.036961 -0.006309 -549098.000000 0 1 0
11.476316 17.126928 -5.685191 21.385950 0.980438 1.839869 0.032538 -0.003883 -87777.600000 0 1 0
12.239216 18.187128 -5.200691 22.530362 0.978449 1.803727 0.022734 -0.002755 330431.000000 0 1 0
13.119316 17.741028 -4.145091 22.450886 0.934055 1.756491 0.041533 -0.004947 838487.000000 0 1 0
14.253016 18.727328 -3.714091 23.825527 0.920241 1.727322 0.058581 -0.013566 1832780.000000 0 1 0
15.496416 18.695428 -4.504291 24.697096 0.878687 1.754204 0.067682 -0.018321 1306420.000000 0 1 0
16.187016 19.927228 -4.443791 26.054964 0.888596 1.742189 0.061861 -0.020274 -389649.000000 0 0 1
17.564716 19.880228 -5.114091 27.016599 0.847157 1.761240 0.057236 -0.013190 -335959.000000 0 0 1
18.570216 19.141028 -4.481491 27.042848 0.800533 1.737283 0.045851 -0.021595 -68131.500000 0 0 1
18.540616 17.743828 -4.812791 26.110550 0.763442 1.756180 0.043021 -0.022496 -345820.000000 0 0 1
19.722416 16.861328 -4.280091 26.298236 0.707350 1.734276 0.059735 -0.021009 -29265.600000 0 0 1
20.961016 17.177528 -4.851891 27.531300 0.686518 1.747953 0.042295 -0.020551 -247585.000000 0 0 1
21.966216 16.336028 -4.324291 27.714255 0.639450 1.727468 0.042831 -0.017488 749422.000000 0 0 1
23.429016 16.772828 -4.689491 29.193113 0.621317 1.732132 0.035191 -0.012392 947123.000000 0 0 1
24.024316 17.878028 -3.998591 30.212255 0.639756 1.703536 0.049462 -0.012649 -366201.000000 0 0 1
25.399416 17.995928 -4.137991 31.402336 0.616419 1.702954 0.036455 -0.004328 -770712.000000 0 0 1
26.030016 19.261028 -3.485391 32.568341 0.637041 1.678019 0.038904 -0.005812 -160490.000000 0 0 1
25.835916 20.472128 -4.211991 33.231663 0.670084 1.697884 0.039941 -0.006314 261988.000000 0 0 1
26.085216 21.573428 -3.385791 34.019331 0.691011 1.670487 0.035903 0.011762 -293403.000000 0 0 1
26.030816 22.872628 -4.184591 34.903743 0.720908 1.690975 0.012204 0.013575 441872.000000 0 0 1
27.143216 23.224528 -5.036891 36.076351 0.707753 1.710871 0.003600 0.018639 791654.000000 0 0 1
27.389016 22.366328 -6.145991 35.891280 0.684791 1.742884 0.013063 0.008594 -57315.500000 0 0 1
28.336516 22.949628 -7.217391 37.171686 0.680746 1.766201 -0.001411 0.012874 -41161.600000 0 0 1
27.735716 23.968528 -8.002391 37.520641 0.712666 1.785727 -0.005592 0.004772 380970.000000 0 0 1
28.632216 24.930428 -8.588691 38.924229 0.716397 1.793279 -0.019518 0.011750 -169063.000000 0 0 1
29.548516 24.429828 -9.696791 39.546922 0.690852 1.818519 -0.010864 0.001403 -169959.000000 0 0 1
28.887316 24.068328 -10.880091 39.142532 0.694648 1.852467 -0.009868 0.002439 55509.800000 0 0 1
29.858416 23.472528 -11.726291 39.749094 0.666225 1.870260 -0.011081 -0.003476 123063.000000 0 0 1
29.362316 23.001728 -13.062991 39.520461 0.664522 1.907669 0.006311 -0.004786 -128608.000000 0 0 1
29.256316 23.970028 -14.053291 40.348349 0.686406 1.926552 -0.000978 -0.002007 39703.500000 0 0 1
29.236316 23.337928 -15.291091 40.413346 0.673674 1.958828 0.008815 -0.004580 44724.000000 0 0 1
29.203016 24.376628 -16.507491 41.467257 0.695562 1.980225 0.009477 0.001020 -204837.000000 0 0 1
30.480116 24.902528 -16.812891 42.800078 0.685027 1.974497 0.011513 0.006234 36828.700000 0 0 1
30.450116 25.284128 -18.176791 43.553328 0.692973 2.001319 0.012615 0.003154 -472261.000000 0 0 1
31.750016 25.960928 -18.598091 45.032458 0.685421 1.996534 0.000062 0.004123 -82837.900000 0 0 1
32.779516 24.974828 -18.472491 45.160509 0.651076 1.992199 0.008875 0.009144 -371514.000000 0 0 1
34.069616 25.540528 -18.557791 46.448346 0.643282 1.981807 0.012824 0.004941 500089.000000 0 0 1
35.168016 24.396928 -18.445191 46.607129 0.606502 1.977691 0.011077 -0.005122 332927.000000 0 0 1
35.258116 23.444328 -19.492091 46.612368 0.586802 2.002231 0.003667 -0.001108 96648.500000 0 0 1
-34.760460 23.825628 -20.623891 46.917961 -0.600876 2.025920 0.008613 0.007786 -465760.000000 0 0 1
-34.772360 22.837828 -21.800591 46.967533 -0.581127 2.053486 0.019158 -0.000640 -127827.000000 0 0 1
-34.188060 21.570628 -21.573391 45.820592 -0.562860 2.061020 0.017118 -0.004909 360173.000000 0 0 1
-33.976160 20.932028 -22.837791 45.979277 -0.552159 2.090586 0.006904 -0.005095 -186777.000000 0 0 1
-33.681360 19.440528 -22.789191 45.074554 -0.523478 2.100861 -0.010803 -0.001476 -148844.000000 0 0 1
-34.776560 18.620228 -22.442691 45.384980 -0.491584 2.088051 -0.004408 -0.008578 53770.400000 0 0 1
-34.515960 17.305128 -22.976091 44.930165 -0.464740 2.107579 -0.017757 -0.008257 -327390.000000 0 0 1
35.143816 16.282628 -22.771591 44.930581 0.433871 2.102285 -0.020250 -0.012783 154224.000000 0 0 1
33.961216 16.444228 -23.585491 44.497777 0.450933 2.129441 0.021089 -0.016432 316149.000000 0 0 1
33.064116 15.429128 -23.307491 43.295876 0.436607 2.139251 0.037844 -0.010168 -641087.000000 0 0 1
33.371816 14.060528 -23.981691 43.433835 0.398758 2.155729 -0.000242 -0.013505 -571153.000000 0 0 1
33.071416 14.039328 -25.400971 44.000348 0.401460 2.186203 0.005898 -0.006567 332068.000000 0 0 1
33.572416 12.799928 -25.857901 44.267102 0.364250 2.194609 0.000348 0.001045 -291786.000000 0 0 1
33.431316 12.603428 -27.403261 45.027081 0.360518 2.225085 0.019471 0.001657 85070.600000 0 0 1
32.103316 12.617428 -27.920121 44.377421 0.374480 2.251257 0.012979 -0.000347 409610.000000 0 0 1
31.660216 13.912428 -28.253271 44.656156 0.414029 2.255812 0.009913 -0.002575 -371062.000000 0 0 1
31.989816 14.280128 -29.725871 45.944508 0.419853 2.274433 0.020023 -0.006334 280246.000000 0 0 1
33.377216 14.531228 -29.960421 47.146813 0.410616 2.259414 0.028237 -0.007846 382622.000000 0 0 1
33.672616 14.161328 -31.284301 48.094654 0.398103 2.279004 0.035794 -0.010964 -564702.000000 0 0 1
35.164416 14.409628 -31.565131 49.401731 0.388908 2.263926 0.047433 -0.008802 -103592.000000 0 0 1
-34.637560 13.521828 -31.103061 48.476807 -0.372186 2.267388 0.045330 -0.006078 17905.300000 0 0 1
-34.511460 13.269128 -29.715951 47.435729 -0.367060 2.247782 0.026573 -0.003661 32149.000000 0 0 1
-33.329160 12.267728 -29.347471 46.071728 -0.352688 2.261390 0.028823 -0.009592 992381.000000 0 0 1
-33.652460 10.980128 -29.847861 46.302766 -0.315389 2.271327 0.037324 -0.013754 843517.000000 0 0 1
-32.509760 10.129528 -29.759771 45.223178 -0.302050 2.289042 0.036408 -0.016121 442520.000000 0 0 1
-32.826360 8.721528 -30.344661 45.545949 -0.259687 2.299955 0.038139 -0.004433 -429387.000000 0 0 1
-33.011860 8.657128 -31.799341 46.646831 -0.256468 2.320886 0.040853 -0.007195 229933.000000 0 0 1
-33.410660 7.399028 -32.385451 47.115128 -0.217940 2.328656 0.030703 -0.004904 -308809.000000 0 0 1
-34.730260 6.736128 -31.970501 47.683114 -0.191577 2.305650 0.030647 0.011839 -435591.000000 0 0 1
-34.647960 6.239428 -30.673561 46.693457 -0.178171 2.287514 0.027065 0.006140 249658.000000 0 0 1
34.910016 5.721828 -30.182321 46.501839 0.162458 2.277140 0.022380 0.014968 -182433.000000 0 0 1
35.030316 4.947828 -28.845371 45.647119 0.140316 2.254826 0.020530 0.013188 -324771.000000 0 0 1
-34.808460 3.910628 -28.869121 45.391057 -0.111878 2.260112 0.012817 0.020636 45966.600000 0 0 1
-35.140160 2.820328 -28.084931 45.072702 -0.080088 2.243500 0.000569 0.025380 -583305.000000 0 0 1
-34.191360 1.599328 -28.150881 44.317932 -0.046742 2.259068 0.009209 0.026573 8551.610000 0 0 1
-33.028860 1.783528 -27.368431 42.931546 -0.053947 2.262032 0.014522 0.013580 -235442.000000 0 0 1
-32.155260 0.696228 -27.383911 42.241260 -0.021649 2.276112 0.017614 0.013957 397445.000000 0 0 1
-31.155360 0.830228 -26.157001 40.688259 -0.026642 2.269027 0.019979 0.008094 338679.000000 0 0 1
-31.725060 0.491428 -24.921191 40.345839 -0.015489 2.236597 0.020024 0.009440 538942.000000 0 0 1
-30.880860 0.949228 -23.849891 39.030064 -0.030729 2.228201 0.046091 0.012314 511580.000000 0 0 1
-31.515960 0.641328 -22.428591 38.687320 -0.020346 2.189206 0.045223 0.022797 -106075.000000 0 0 1
-31.455360 -0.796972 -22.236191 38.529509 0.025331 2.185995 0.049352 0.011611 229885.000000 0 0 1
-31.746460 -1.080372 -20.873291 38.009199 0.034018 2.152160 0.038546 0.014004 -82521.800000 0 0 1
-33.219760 -1.112772 -20.405891 39.002450 0.033485 2.121392 0.030228 0.014666 205810.000000 0 0 1
-33.931060 -2.354172 -20.667091 39.799342 0.069270 2.116807 0.023900 0.011413 1362970.000000 0 0 1
-35.319960 -2.259272 -20.294191 40.797771 0.063879 2.091434 0.018443 0.015253 818612.000000 0 0 1
34.733416 -3.591172 -20.111491 40.296138 -0.103026 2.093347 0.027218 0.016019 -428193.000000 0 0 1
34.308216 -4.183772 -21.324591 40.611523 -0.121348 2.123614 0.019055 0.018054 194728.000000 0 0 1
35.330016 -4.647072 -22.188891 41.977996 -0.130782 2.127728 0.013213 0.005060 -413686.000000 0 0 1
34.795216 -5.491072 -23.361491 42.268406 -0.156520 2.156390 0.015441 -0.001692 -693061.000000 0 0 1
34.653016 -6.904972 -23.056991 42.191646 -0.196684 2.148954 0.027944 -0.000194 356659.000000 0 0 1
34.120716 -7.711472 -24.114891 42.487857 -0.222271 2.174349 0.023510 -0.000314 354397.000000 0 0 1
32.652416 -7.466772 -24.544291 41.525356 -0.224809 2.203178 0.008780 0.010290 -311337.000000 0 0 1
32.430616 -6.296372 -25.246861 41.578758 -0.191763 2.223335 0.019248 0.003696 -98339.400000 0 0 1
31.034216 -6.100572 -25.350931 40.534050 -0.194101 2.246470 0.023615 0.000358 36179.500000 0 0 1
30.692716 -4.916372 -26.219131 40.665174 -0.158831 2.271501 0.032129 -0.013961 21709.500000 0 0 1
30.935616 -5.154972 -27.625571 41.794237 -0.165118 2.292934 0.038597 -0.020629 296488.000000 0 0 1
30.543016 -3.991772 -28.272071 41.810526 -0.129957 2.313382 0.044565 -0.019193 19663.500000 0 0 1
30.497616 -4.214172 -29.801111 42.848221 -0.137311 2.339917 0.057574 -0.018642 -73426.700000 0 0 1
30.202616 -3.028872 -30.462181 43.003681 -0.099951 2.357971 0.043698 -0.014720 152273.000000 0 0 1
29.771716 -3.334172 -31.800921 43.689476 -0.111527 2.386029 0.044029 -0.016339 -744182.000000 0 0 1
29.265516 -2.143072 -32.623451 43.878842 -0.073098 2.409069 0.052052 -0.013671 493091.000000 0 0 1
28.105216 -1.430172 -32.128161 42.710271 -0.050843 2.422244 0.044271 -0.011916 1068040.000000 0 0 1
26.853916 -2.097172 -32.076831 41.886203 -0.077937 2.443095 0.049475 -0.014385 -78629.100000 0 0 1
26.157916 -2.305572 -33.436631 42.515415 -0.087913 2.475851 0.039899 -0.019678 -1082620.000000 0 0 1
26.637416 -3.437872 -34.135619 43.435140 -0.128352 2.474944 0.039263 -0.023156 313738.000000 0 0 1
25.776716 -3.761672 33.726482 42.615312 -0.144910 0.657673 0.028687 -0.019509 -202785.000000 0 0 1
26.229316 -5.071872 33.015699 42.470428 -0.191009 0.680305 0.022236 -0.021248 554797.000000 0 0 1
27.481616 -5.198472 32.308663 42.733044 -0.186953 0.713527 0.025884 -0.023411 663001.000000 0 0 1
27.624316 -4.508572 31.092913 41.835383 -0.161784 0.732925 0.032176 -0.019834 -367507.000000 0 0 1
28.105016 -3.027472 31.335153 42.201295 -0.107306 0.733977 0.029930 -0.017405 127031.000000 0 0 1
29.372116 -2.963372 32.017353 43.550128 -0.100550 0.744858 0.043137 -0.019465 609734.000000 0 0 1
29.697716 -1.625972 32.267153 43.883565 -0.054696 0.744702 0.040138 -0.014071 -26862.200000 0 0 1
31.068216 -1.579072 32.990821 45.344479 -0.050782 0.756038 0.043180 -0.011914 44681.000000 0 0 1
32.102316 -2.082272 32.181043 45.502902 -0.064773 0.785223 0.043848 -0.008540 -1104740.000000 0 0 1
33.329016 -1.648272 32.646803 46.683550 -0.049414 0.796349 0.050857 -0.007918 -547026.000000 0 0 1
34.577016 -2.232672 31.954103 47.134059 -0.064481 0.825838 0.051100 0.000528 20168.500000 0 0 1
34.822516 -1.660672 30.707523 46.457695 -0.047654 0.848675 0.037635 0.001797 -110084.000000 0 0 1
-34.769460 -2.293572 30.265893 46.154091 0.065870 0.855611 0.040247 -0.003103 144668.000000 0 0 1
-34.354360 -1.715972 28.842473 44.889363 0.049908 0.873009 0.038512 -0.004432 50982.600000 0 0 1
-35.293860 -1.996672 27.828813 44.989844 0.056513 0.903891 0.036637 -0.011795 -30486.500000 0 0 1
-34.762760 -1.569172 26.557003 43.774264 0.045109 0.918918 0.039025 -0.001449 7712.660000 0 0 1
-25.926544 15.092128 12.073109 32.337563 -0.527162 1.188183 0.034645 0.002308 382239.000000 0 0 1
-26.950324 14.584728 12.969909 33.275408 -0.496039 1.170410 0.015103 0.014722 568314.000000 0 0 1
-27.920174 15.563728 13.231409 34.595317 -0.508535 1.178336 0.014634 0.005785 -671492.000000 0 0 1
-29.132374 14.843728 13.827509 35.499739 -0.471240 1.170697 0.017794 0.008281 -642426.000000 0 0 1
-30.058994 15.730228 14.382509 36.848877 -0.482123 1.169827 0.025736 -0.001528 180074.000000 0 0 1
-31.187584 15.016228 14.934309 37.698622 -0.448723 1.163476 0.030250 -0.001532 905424.000000 0 0 1
-32.170104 15.918628 15.746009 39.195090 -0.459500 1.157387 0.026940 -0.008017 -38145.200000 0 0 1
-31.737834 16.221528 17.035109 39.504721 -0.472496 1.124955 0.028758 -0.005425 304278.000000 0 0 1
-32.769404 16.708028 17.916009 40.914245 -0.471510 1.117544 0.032581 -0.019107 646431.000000 0 0 1
-32.142574 17.018528 19.309909 41.178246 -0.486945 1.082712 0.026190 -0.011391 198324.000000 0 0 1
-31.552024 15.876228 19.905209 40.543830 -0.466185 1.057610 0.023114 -0.008910 -513220.000000 0 0 1
-30.349894 16.197928 20.542109 40.068281 -0.490248 1.032496 0.017306 -0.006211 -306639.000000 0 0 1
-30.453384 16.713428 22.034709 41.137278 -0.501937 1.005533 0.030294 -0.013888 -561000.000000 0 0 1
-31.013804 18.013328 22.194409 42.177338 -0.526195 1.016651 0.025062 -0.005568 30997.500000 0 0 1
-31.232614 18.504828 23.462009 43.224654 -0.534875 0.997038 0.023807 -0.009458 -499564.000000 0 0 1
-32.032804 17.518928 24.458709 43.945896 -0.500465 0.980552 0.008453 -0.010228 420258.000000 0 0 1
-33.310374 17.091328 24.052709 44.499745 -0.474067 0.999749 0.023807 -0.004432 -172088.000000 0 0 1
-34.316172 18.025528 23.806609 45.489273 -0.483665 1.020024 0.010093 -0.006684 -368915.000000 0 0 1
35.100904 17.347528 23.437909 45.632727 0.459012 1.031397 -0.012711 -0.006823 777000.000000 0 0 1
34.450192 16.806528 24.612109 45.552508 0.453880 1.000000 0.003485 -0.002318 1404990.000000 0 0 1
33.240572 16.029228 24.291309 44.180759 0.449322 0.988652 0.013792 -0.000246 1508280.000000 0 0 1
32.747662 15.227728 25.555309 44.242139 0.435259 0.954982 0.014972 -0.011117 29477.200000 0 0 1
32.067792 16.034628 26.551509 44.614294 0.463666 0.933363 0.016740 -0.014820 283822.000000 0 0 1
31.907182 15.317428 27.795609 45.003197 0.447570 0.905063 0.022448 -0.011808 -8122.510000 0 0 1
30.961152 14.061028 27.822809 43.936478 0.426300 0.885050 0.021935 -0.010028 64228.300000 0 0 1
31.478162 12.882928 27.178009 43.537210 0.388468 0.896628 0.018380 -0.013571 203832.000000 0 0 1
30.570382 11.794228 27.315309 42.658858 0.368210 0.875882 0.025351 -0.016916 -120491.000000 0 0 1
31.230252 10.496228 27.041709 42.623391 0.324231 0.883521 0.024844 -0.017714 -166096.000000 0 0 1
32.180982 10.128628 28.037009 43.866600 0.304924 0.877414 0.040425 -0.019720 -126942.000000 0 0 1
32.564182 8.825328 27.792709 43.712093 0.264656 0.881735 0.040815 -0.017356 -509258.000000 0 0 1
33.733692 8.393428 28.683209 45.068149 0.243862 0.880921 0.047691 -0.020730 -800247.000000 0 0 1
34.920920 9.074528 28.432409 45.937127 0.254236 0.903402 0.054437 -0.016347 159565.000000 0 0 1
-34.781879 8.136828 28.776609 45.870255 -0.229806 0.892653 0.051089 -0.012297 1368540.000000 0 0 1
-33.391404 8.767528 29.143209 45.179443 -0.256772 0.869702 0.056834 -0.010907 504470.000000 0 0 1
-32.863354 9.315628 27.973409 44.150794 -0.276219 0.884614 0.046773 -0.012651 437570.000000 0 0 1
-31.757344 10.196928 28.293209 43.737992 -0.310690 0.867311 0.043954 -0.006542 1150180.000000 0 0 1
-30.856204 10.576428 27.039309 42.368507 -0.330215 0.878647 0.038155 -0.004452 158679.000000 0 0 1
-30.127424 9.549328 26.464809 41.221808 -0.306947 0.873679 0.023213 0.001827 -95969.700000 0 0 1
-29.492354 10.056228 25.320409 40.150340 -0.328614 0.888419 0.027642 0.009080 -77861.300000 0 0 1
-28.645494 9.074228 24.493809 38.766643 -0.306776 0.886888 0.010115 0.010280 -213216.000000 0 0 1
-27.913424 9.625728 23.471609 37.719097 -0.332073 0.899152 0.016165 0.009531 -196092.000000 0 0 1
-26.980984 8.678128 22.976309 36.485534 -0.311189 0.889581 -0.018579 0.012286 212994.000000 0 0 1
-26.170394 9.137228 21.710109 35.209477 -0.335912 0.906382 -0.008798 0.009050 -118235.000000 0 0 1
-25.088404 10.008728 22.087709 34.892256 -0.379591 0.885340 -0.002230 0.003238 1130540.000000 0 0 1
-24.184684 10.497028 21.056709 33.741244 -0.409499 0.896863 0.008326 -0.005039 1079980.000000 0 0 1
-23.543584 9.448828 20.082609 32.355709 -0.381655 0.901184 0.013728 -0.008834 -920010.000000 0 0 1
-24.398484 9.176428 19.013809 32.264807 -0.359740 0.940598 0.006040 -0.005992 84362.600000 0 0 1
-23.847184 8.349128 17.982509 31.012365 -0.336772 0.952252 0.012106 -0.006391 -286956.000000 0 0 1
-23.839684 6.846428 18.305909 30.827105 -0.279660 0.934992 0.011486 -0.008122 -65314.300000 0 0 1
-22.575384 6.473728 18.838609 30.107313 -0.279267 0.894748 0.010245 -0.003059 682630.000000 0 0 1
-22.552984 5.258628 19.582209 30.327433 -0.229075 0.868866 0.014990 -0.000473 -205751.000000 0 0 1
-22.634884 3.988428 18.731409 29.649810 -0.174417 0.886981 0.023795 -0.003895 -12178.900000 0 0 1
-23.993084 3.599928 18.541709 30.535595 -0.148929 0.918244 0.033920 -0.013261 533333.000000 0 0 1
-24.136384 2.559728 17.603909 29.983576 -0.105658 0.943302 0.044266 -0.013522 -81123.100000 0 0 1
-23.794084 1.081128 17.959609 29.830770 -0.045406 0.924730 0.041907 -0.012727 -339376.000000 0 0 1
-22.454284 0.753728 18.208909 28.919325 -0.033555 0.889700 0.030314 -0.009578 -77886.700000 0 0 1
-22.360584 -0.562372 18.797109 29.217175 0.025145 0.871920 0.034455 -0.010704 369042.000000 0 0 1
-20.904984 -1.144472 18.854609 28.174891 0.054692 0.837666 0.033255 -0.001834 246845.000000 0 0 1
-20.068784 -0.472972 19.723009 28.142084 0.023563 0.794226 0.010834 0.001654 180356.000000 0 0 1
-19.080184 -1.400272 20.268109 27.871319 0.073257 0.756558 -0.010570 0.006653 592698.000000 0 0 1
-18.277184 -0.763372 21.446409 28.188413 0.041742 0.706215 -0.001379 0.005440 509274.000000 0 0 1
-18.921884 -0.776572 22.720309 29.577918 0.041018 0.694848 -0.004945 0.003140 -21403.500000 0 0 1
-17.906784 -0.676872 23.686409 29.701129 0.037782 0.647670 -0.006201 0.005914 -682427.000000 0 0 1
-18.423484 -0.866472 25.173609 31.207149 0.046996 0.632315 -0.008587 0.010233 307881.000000 0 0 1
-19.100684 0.301228 25.655909 31.986756 -0.015769 0.640028 -0.001298 0.004864 197101.000000 0 0 1
-20.474984 0.392328 25.320909 32.565739 -0.019159 0.680065 0.022868 0.000540 -191705.000000 0 0 1
-21.236084 1.594728 25.905109 33.534894 -0.074955 0.688056 0.022937 -0.002874 -411241.000000 0 0 1
-21.020384 2.745828 25.109309 32.861429 -0.129891 0.701156 0.021307 0.007478 1016070.000000 0 0 1
-22.263284 3.250328 24.574509 33.318538 -0.144971 0.741343 0.017250 0.006021 153520.000000 0 0 1
-22.000484 4.360228 23.521609 32.500753 -0.195652 0.761611 0.015144 0.015141 83613.500000 0 0 1
-21.447184 3.998028 22.219709 31.139708 -0.184297 0.776245 0.010917 0.008208 892312.000000 0 0 1
-20.104884 3.530228 22.326309 30.251164 -0.173819 0.740648 0.007720 0.008122 -250011.000000 0 0 1
-19.488084 2.689028 21.212009 28.930358 -0.137117 0.747767 0.005432 -0.000756 -136612.000000 0 0 1
-19.126584 3.467828 20.068409 27.939096 -0.179361 0.769453 0.002959 0.003505 247682.000000 0 0 1
-18.909784 2.623228 18.915309 26.874713 -0.137844 0.790017 0.005483 -0.004791 86904.200000 0 0 1
-18.459184 3.318828 17.575009 25.702860 -0.177892 0.817871 0.000245 -0.002880 -1635140.000000 0 0 1
-17.230984 3.867028 17.639909 24.960511 -0.220765 0.785955 0.003614 -0.005867 -1682220.000000 0 1 0
-16.950984 4.651628 16.478709 24.094011 -0.267824 0.817655 0.008081 -0.006230 -314480.000000 0 1 0
-15.450784 5.013528 16.305909 23.016187 -0.313765 0.783491 0.022298 -0.009199 323682.000000 0 1 0
-14.891084 5.920928 17.329509 23.603255 -0.378449 0.746309 0.013736 -0.014852 256477.000000 0 1 0
-15.500784 7.163828 17.391009 24.372975 -0.432919 0.776263 0.011088 -0.024297 -513235.000000 0 1 0
-14.879684 8.228428 16.382109 23.611131 -0.505142 0.804003 0.010561 -0.015097 126569.000000 0 1 0
-15.295984 8.054828 15.073109 22.935693 -0.484699 0.853712 -0.005747 -0.008363 1456270.000000 0 1 0
-16.665484 8.421628 14.736309 23.786992 -0.467905 0.902676 0.003666 -0.006177 1267720.000000 0 1 0
-17.117684 7.670228 13.476609 23.096894 -0.421263 0.947787 -0.004424 -0.006240 -207527.000000 0 1 0
-16.806584 6.289128 13.441909 22.420957 -0.358075 0.927890 -0.009068 -0.010140 259711.000000 0 1 0
-17.328784 5.670528 12.275209 21.980045 -0.316249 0.978255 -0.017310 -0.006176 -28630.100000 0 1 0
-17.163984 4.151428 12.283109 21.510729 -0.237311 0.963046 -0.006804 -0.009755 -174887.000000 0 1 0
-17.832284 3.450928 13.295009 22.509032 -0.191158 0.938929 -0.007907 -0.005801 -52513.300000 0 1 0
-17.564384 2.084828 13.327409 22.146646 -0.118144 0.925068 -0.003569 -0.009361 -722699.000000 0 1 0
-18.315484 1.271528 14.397809 23.331752 -0.069312 0.905756 0.000624 -0.012786 143048.000000 0 1 0
-19.705684 1.252128 14.158109 24.296787 -0.063456 0.948730 0.016297 -0.004909 -105279.000000 0 1 0
-20.506984 0.624228 15.106909 25.478319 -0.030430 0.936101 0.018101 -0.010502 -382702.000000 0 0 1
-21.958484 0.469128 14.657609 26.405314 -0.021361 0.982312 0.029292 -0.015746 -702268.000000 0 0 1
-22.032384 -0.623872 13.804809 26.007459 0.028309 1.011250 0.035009 -0.010415 438246.000000 0 0 1
-23.367984 -0.949672 13.489609 26.998780 0.040618 1.047616 0.052133 -0.022284 -116982.000000 0 0 1
-23.510984 -2.197072 12.545909 26.739359 0.093178 1.082420 0.044585 -0.014393 -134101.000000 0 0 1
-22.962984 -3.381472 13.061909 26.633559 0.146207 1.058213 0.042861 -0.012188 341407.000000 0 0 1
-22.961784 -4.378372 12.078009 26.311442 0.188419 1.093882 0.040757 -0.006083 -404150.000000 0 0 1
-22.523084 -5.708472 12.697909 26.478536 0.248223 1.070649 0.034210 -0.006306 -159501.000000 0 0 1
-23.544584 -6.346172 13.429809 27.838483 0.263282 1.067382 0.032669 -0.006037 193184.000000 0 0 1
-23.448384 -7.724672 13.581709 28.177298 0.318236 1.067850 0.035071 -0.008180 -168786.000000 0 0 1
-24.368384 -8.197172 14.733509 29.632551 0.324495 1.050420 0.038475 -0.002193 467415.000000 0 0 1
-25.751284 -8.085072 14.439809 30.610539 0.304221 1.079548 0.030265 -0.012632 107832.000000 0 0 1
-26.581804 -8.474172 15.477609 31.905490 0.308610 1.064310 0.034851 -0.001396 -874474.000000 0 0 1
-28.032614 -7.986172 15.439809 32.984756 0.277536 1.083669 0.030331 -0.013601 202338.000000 0 0 1
-28.971524 -8.571772 14.500709 33.512610 0.287662 1.123317 0.027293 -0.011371 1077070.000000 0 0 1
-29.216054 -10.007972 14.602009 34.160738 0.330023 1.129126 0.030590 -0.013528 -476420.000000 0 0 1
-29.785944 -10.695472 15.862309 35.400684 0.344739 1.106181 0.036414 -0.009492 -61831.200000 0 0 1
-28.667784 -10.858272 16.717409 34.917269 0.362065 1.071541 0.035643 -0.013846 616861.000000 0 0 1
-29.041504 -11.051972 18.094509 35.957841 0.363634 1.043482 0.044213 -0.003377 -691246.000000 0 0 1
-27.863674 -11.075672 19.039809 35.518575 0.378345 1.005043 0.045184 0.001787 -165758.000000 0 0 1
-27.029894 -12.226472 18.866509 35.157460 0.424791 1.004359 0.042658 0.002333 643454.000000 0 0 1
-25.748674 -12.073472 19.476009 34.468506 0.438457 0.970317 0.037298 0.001528 163883.000000 0 0 1
-24.697084 -13.045972 18.990609 33.775532 0.485983 0.973681 0.041506 0.003365 -482084.000000 0 0 1
-24.173184 -12.747172 17.724309 32.572755 0.485269 0.995426 0.034794 0.002634 46691.200000 0 0 1
-23.060484 -13.574072 17.445309 31.943390 0.532017 0.993056 0.031551 -0.005936 -178394.000000 0 0 1
-22.595584 -13.454972 15.996409 30.781192 0.537081 1.024318 0.032566 -0.007472 -265288.000000 0 0 1
-21.893384 -12.266872 15.705209 29.604898 0.510717 1.011614 0.029448 -0.010790 -30756.700000 0 0 1
-21.916084 -12.045672 14.279409 28.797821 0.502557 1.051983 0.017932 -0.001647 -762492.000000 0 0 1
-20.641084 -11.295372 13.991009 27.374954 0.500712 1.034346 0.012274 -0.002404 -1098490.000000 0 0 1
-20.647984 -9.902872 14.224309 26.958062 0.447199 1.014970 0.014169 -0.002545 616735.000000 0 0 1
-19.373984 -9.273572 14.021109 25.650378 0.446431 0.992469 0.012966 0.004155 418584.000000 0 0 1
-18.860584 -9.174172 12.581909 24.457954 0.452725 1.030453 0.005486 0.016467 -541123.000000 0 1 0
-18.532584 -10.386172 11.997009 24.397899 0.510814 1.056729 0.000958 0.007432 72467.400000 0 1 0
-18.342184 -10.340572 10.586309 23.567628 0.513345 1.104939 0.009123 0.011919 -869238.000000 0 1 0
-17.687584 -11.655972 9.941709 23.399784 0.582670 1.131985 0.000456 0.003109 1400360.000000 0 1 0
-16.247584 -11.682772 9.892109 22.323194 0.623395 1.111708 -0.000476 -0.006903 995560.000000 0 1 0
-15.631884 -11.717472 11.141009 22.489487 0.643237 1.052516 0.002757 -0.006390 -1925210.000000 0 1 0
-14.178784 -12.100972 11.041509 21.665326 0.706497 1.036030 0.012018 -0.010749 -1014410.000000 0 1 0
-13.947984 -13.483872 10.871809 22.238644 0.768481 1.060002 0.011898 -0.011243 109373.000000 0 1 0
-12.596684 -13.870672 10.754009 21.603720 0.833495 1.049753 0.022373 -0.012565 5683.510000 0 1 0
-12.348384 -15.440272 10.698909 22.480019 0.896207 1.074775 0.032457 -0.010551 -200530.000000 0 1 0
-12.770484 -16.019672 9.472109 22.570689 0.897780 1.137721 0.017587 -0.012455 146648.000000 0 1 0
-12.547984 -17.406172 9.434609 23.440106 0.946186 1.156552 0.008871 -0.008257 146307.000000 0 1 0
-13.070184 -18.195372 8.190809 23.853525 0.947878 1.220284 -0.006238 -0.005235 -493870.000000 0 1 0
-12.309584 -17.889172 7.047509 22.830150 0.968100 1.256978 0.016806 -0.019096 -329647.000000 0 1 0
-12.740784 -18.553272 5.998909 23.292454 0.969043 1.310313 0.015323 -0.007156 -361590.000000 0 1 0
-11.796984 -18.362972 4.797309 22.346851 0.999759 1.354437 0.016108 -0.006931 -135488.000000 0 1 0
-12.122184 -19.204572 3.767909 23.020862 1.007741 1.406383 0.018984 -0.001244 190372.000000 0 1 0
-11.342884 -18.946872 2.608509 22.236216 1.031357 1.453217 0.026303 -0.011339 141497.000000 0 1 0
-11.624984 -19.871572 1.398309 23.064581 1.041475 1.510133 0.033816 -0.008064 -27928.100000 0 1 0
-11.375584 -21.247672 1.745709 24.164333 1.079247 1.498490 0.018594 -0.007583 -59991.000000 0 1 0
-11.750484 -22.231272 0.752409 25.156897 1.084565 1.540883 0.020737 -0.008100 22040.500000 0 0 1
-10.959184 -22.274672 -0.628791 24.832642 1.113568 1.596120 0.041332 -0.006096 145397.000000 0 1 0
-11.051184 -21.129772 -1.471891 23.890634 1.088907 1.632445 0.048736 -0.024960 -474460.000000 0 1 0
-12.096484 -21.186272 -2.387191 24.512889 1.052005 1.668336 0.061455 -0.018885 -577338.000000 0 1 0
-13.243684 -20.232072 -2.028991 24.266205 0.991202 1.654508 0.070098 -0.015136 -522002.000000 0 1 0
-14.001784 -20.574772 -0.912991 24.903911 0.973256 1.607465 0.055595 -0.004635 -833613.000000 0 1 0
-15.009784 -19.649772 -0.779191 24.738923 0.918480 1.602298 0.058342 0.006497 -942483.000000 0 1 0
25.843016 -20.752172 -4.477191 33.444871 -0.676573 1.705067 0.034858 -0.012289 134169.000000 0 0 1
24.715216 -20.508372 -3.629391 32.320392 -0.692642 1.683328 0.038306 -0.021351 632609.000000 0 0 1
24.854816 -21.497172 -2.646391 32.968071 -0.713087 1.651154 0.032321 -0.026021 470415.000000 0 0 1
23.469116 -21.878972 -2.011791 32.148657 -0.750347 1.633415 0.020121 -0.020803 763023.000000 0 0 1
22.605216 -22.472372 -3.005991 32.016235 -0.782451 1.664824 0.021599 -0.025681 260116.000000 0 0 1
21.416916 -22.822272 -2.316591 31.383228 -0.817155 1.644680 0.035651 -0.021417 -55130.700000 0 0 1
20.248316 -23.391272 -3.122191 31.094919 -0.857295 1.671374 0.035916 -0.030595 240018.000000 0 0 1
19.429116 -22.426572 -3.808691 29.915678 -0.856890 1.698457 0.038245 -0.035695 342066.000000 0 0 1
18.438016 -23.139972 -4.550391 29.935344 -0.898007 1.723395 0.045434 -0.031550 900886.000000 0 0 1
17.442916 -22.200472 -5.382491 28.741738 -0.904836 1.759179 0.030624 -0.013814 1138980.000000 0 0 1
16.394516 -21.492172 -4.651791 27.428685 -0.919145 1.741216 0.024306 -0.007889 1100410.000000 0 0 1
16.808016 -20.514572 -3.683291 26.775431 -0.884385 1.708796 0.022028 -0.018004 -123623.000000 0 0 1
15.619616 -20.075072 -2.779791 25.587266 -0.909577 1.679651 0.023014 -0.005188 135154.000000 0 0 1
15.289816 -21.121172 -1.891191 26.143049 -0.944203 1.643200 0.030830 -0.011064 458195.000000 0 0 1
14.406116 -20.560672 -0.891791 25.121161 -0.959625 1.606303 0.025485 0.002597 142943.000000 0 0 1
14.252216 -21.250272 0.454109 25.591130 -0.980018 1.553051 0.030087 0.002403 273798.000000 0 0 1
13.433916 -22.436872 0.377609 26.153889 -1.031302 1.556358 0.034619 0.002343 296534.000000 0 0 1
12.847516 -22.697372 1.658209 26.133868 -1.055725 1.507303 0.033059 0.003374 285159.000000 0 0 1
11.753716 -23.801172 1.622909 26.594726 -1.112097 1.509735 0.034783 -0.002503 110913.000000 0 0 1
12.298916 -25.055162 1.909909 27.976280 -1.114477 1.502474 0.034844 0.001657 -30857.800000 0 0 1
11.570016 -26.104242 1.350609 28.585326 -1.153592 1.523530 0.031958 0.006561 -113227.000000 0 0 1
11.856616 -27.441802 2.035109 29.962869 -1.162958 1.502823 0.035703 0.002839 315332.000000 0 0 1
11.255616 -27.561552 3.344109 29.958490 -1.183086 1.458938 0.043788 -0.002401 391154.000000 0 0 1
11.665016 -28.796192 3.935609 31.317444 -1.185911 1.444795 0.041230 -0.005717 10062.400000 0 0 1
11.194116 -28.988972 5.389809 31.539163 -1.202286 1.399061 0.035950 -0.010113 -143982.000000 0 0 1
11.771816 -30.158042 5.935409 32.913709 -1.198647 1.389472 0.023930 -0.012243 -25440.000000 0 0 1
11.618316 -30.244552 7.351409 33.222905 -1.204032 1.347674 0.025615 -0.011921 -83262.500000 0 0 1
12.326916 -31.488442 7.949709 34.737195 -1.197661 1.339897 0.022104 -0.008600 -80814.600000 0 0 1
11.903716 -31.691122 9.279109 35.101674 -1.211485 1.303267 0.014383 -0.004672 -325667.000000 0 0 1
10.947416 -32.701582 9.386609 35.740003 -1.247756 1.305043 0.007684 -0.006559 -209554.000000 0 0 1
10.786516 -33.123012 10.929809 36.509500 -1.255976 1.266765 0.007244 -0.003407 -157443.000000 0 0 1
11.929616 -33.797702 11.413609 37.614770 -1.231477 1.262502 0.009863 -0.003372 108529.000000 0 0 1
11.917016 -34.151086 12.855809 38.387287 -1.235057 1.229300 0.012504 0.003180 -19576.500000 0 0 1
10.851016 33.926745 13.278109 38.014165 1.261242 1.213979 0.005175 0.006129 -29517.600000 0 0 1
11.115716 32.628222 12.759609 36.755512 1.242450 1.216268 0.008472 0.003961 352167.000000 0 0 1
10.016716 31.744802 12.963309 35.722744 1.265145 1.199432 -0.002873 0.015011 188874.000000 0 0 1
10.149816 30.513992 11.981809 34.317433 1.249680 1.214136 0.008951 0.014793 -142130.000000 0 0 1
9.806916 30.767282 10.612609 33.991598 1.262232 1.253275 0.007435 0.006723 -166314.000000 0 0 1
10.713116 31.626682 10.005709 34.858745 1.244191 1.279665 -0.001898 0.004151 -524676.000000 0 0 1
10.248016 31.956202 8.576009 34.637676 1.260468 1.320602 0.000569 -0.002327 451150.000000 0 0 1
8.966516 32.601352 8.561509 34.879020 1.302397 1.322799 -0.002002 -0.000503 330105.000000 0 0 1
8.524316 32.939972 7.271109 34.793315 1.317568 1.360264 -0.001468 -0.003457 -174173.000000 0 0 1
9.118216 34.141898 6.498909 35.931141 1.309819 1.388924 0.009556 -0.003347 -242912.000000 0 0 1
8.643016 -33.727182 7.030909 35.519829 -1.319932 1.371537 0.004752 -0.000981 191663.000000 0 0 1
8.927916 -32.637412 6.169709 34.394384 -1.303780 1.390439 0.013476 -0.010225 152508.000000 0 0 1
8.042216 -31.381452 6.505309 33.042273 -1.319923 1.372623 0.008372 -0.008059 184356.000000 0 0 1
8.268316 -30.877002 7.825509 32.908858 -1.309153 1.330703 0.021344 -0.006133 -258662.000000 0 0 1
7.608116 -29.663282 8.059509 31.666219 -1.319726 1.313451 0.030299 -0.002454 -328609.000000 0 0 1
8.234116 -28.364172 7.520609 30.477639 -1.288262 1.321463 0.040461 -0.003362 -96220.000000 0 0 1
8.904416 -27.613262 8.571709 30.253183 -1.258856 1.283529 0.046480 -0.008131 88995.100000 0 0 1
9.487816 -26.384132 8.203809 29.213757 -1.225592 1.286148 0.049729 -0.012850 -6736.090000 0 0 1
8.721416 -25.325312 7.358909 27.777474 -1.239141 1.302672 0.040401 -0.011264 -135159.000000 0 0 1
8.638816 -25.736502 5.976009 27.797651 -1.246950 1.354122 0.039770 -0.004132 -302020.000000 0 0 1
7.866916 -24.856872 5.184409 26.582524 -1.264282 1.374508 0.047792 0.002601 254387.000000 0 0 1
7.833116 -25.412612 3.757009 26.856539 -1.271800 1.430444 0.048149 0.001861 89537.000000 0 0 1
6.963416 -26.508192 3.547709 27.636202 -1.313911 1.442069 0.025764 -0.001984 -657179.000000 0 0 1
7.517216 -27.771982 3.769309 29.017223 -1.306454 1.440529 0.030333 -0.001609 -159137.000000 0 0 1
6.610716 -28.998832 3.521009 29.950482 -1.346662 1.452963 0.027528 -0.000692 -285949.000000 0 0 1
5.568416 -29.130812 4.437809 29.988425 -1.381923 1.422267 0.016087 -0.004623 -106258.000000 0 0 1
4.479816 -30.007092 4.104909 30.616084 -1.422599 1.436314 0.010740 -0.001910 627526.000000 0 0 1
4.611616 -31.523952 3.988009 32.108111 -1.425537 1.446269 0.011469 0.003947 -543822.000000 0 0 1
5.641016 -31.923302 3.111409 32.566841 -1.395897 1.475111 0.018018 -0.002508 -139388.000000 0 0 1
5.928516 -33.267122 3.410709 33.962945 -1.394438 1.470202 0.013743 -0.003386 -308217.000000 0 0 1
7.120316 -33.877622 2.686009 34.721850 -1.363634 1.493361 0.016075 -0.001421 -415171.000000 0 0 1
6.800116 -34.266278 1.358609 34.960910 -1.374892 1.531926 0.025915 -0.002070 299743.000000 0 0 1
7.760316 33.877433 0.911809 34.766857 1.345611 1.544567 0.023751 -0.005075 45354.100000 0 0 1
7.386416 33.225072 -0.419491 34.038809 1.352039 1.583121 0.032752 -0.005341 358784.000000 0 0 1
6.247316 32.383382 -0.490191 32.984128 1.380220 1.585658 0.026829 -0.006423 632038.000000 0 0 1
4.978216 33.058892 -0.604491 33.437081 1.421333 1.588876 0.030167 -0.008524 1060020.000000 0 0 1
3.811316 32.067972 -0.232691 32.294506 1.452500 1.578002 0.034470 -0.010380 359717.000000 0 0 1
3.681416 30.989142 -1.167791 31.228889 1.452554 1.608200 0.040561 -0.010095 -314887.000000 0 0 1
2.479316 30.311112 -0.933091 30.426653 1.489182 1.601468 0.039472 -0.014977 -151692.000000 0 0 1
2.193516 29.263482 -1.982591 29.412473 1.495979 1.638254 0.041349 -0.012301 -16626.200000 0 0 1
1.846216 29.774992 -3.226091 30.006105 1.508870 1.678519 0.047344 -0.017832 -141072.000000 0 0 1
1.858316 28.743602 -4.210691 29.109756 1.506235 1.715954 0.050173 -0.026185 -188940.000000 0 0 1
1.494916 29.303982 -5.597991 29.871318 1.519826 1.759315 0.054334 -0.026104 -575375.000000 0 0 1
0.194416 29.805812 -5.680491 30.342910 1.564274 1.759117 0.056244 -0.024409 -488978.000000 0 0 1
-0.072184 30.705082 -6.711591 31.430125 -1.568445 1.785994 0.046808 -0.018924 -265155.000000 0 0 1
-0.071284 30.150652 -8.142291 31.230815 -1.568432 1.834557 0.044952 -0.016259 -374688.000000 0 0 1
-1.133684 29.264612 -8.481391 30.489945 -1.532077 1.852685 0.043259 -0.010719 192967.000000 0 0 1
-1.421884 29.082402 -9.842891 30.735816 -1.521944 1.896781 0.039296 -0.011782 -30027.500000 0 0 1
-1.564584 30.263262 -10.818291 32.176830 -1.519143 1.913690 0.027457 -0.011925 153771.000000 0 0 1
-0.305684 30.881022 -11.121391 32.824020 -1.560898 1.916457 0.026998 -0.007306 421900.000000 0 0 1
-0.390984 32.198512 -11.631391 34.237206 -1.558654 1.917426 0.011710 -0.007559 -14202.900000 0 0 1
-0.731584 33.280069 -10.589491 34.931870 -1.548817 1.878790 0.010130 -0.000214 369207.000000 0 0 1
0.281716 33.573075 -9.620591 34.925442 1.562405 1.849865 0.010113 -0.009243 165962.000000 0 0 1
-0.190284 34.426960 -8.598191 35.484936 -1.565269 1.815538 0.009864 0.002344 157006.000000 0 0 1
0.965416 -34.313207 -7.622991 35.163023 -1.542668 1.789321 0.020302 0.002254 289512.000000 0 0 1
1.896816 -33.427682 -8.208391 34.472968 -1.514113 1.811217 0.010092 0.007049 -461272.000000 0 0 1
2.742316 -32.983952 -7.172591 33.866022 -1.487846 1.784206 0.015233 0.000638 -428516.000000 0 0 1
4.041616 -32.313222 -7.756391 33.475970 -1.446366 1.804621 -0.007779 0.009496 1260920.000000 0 0 1
4.870316 -33.315152 -8.467191 34.717613 -1.425635 1.817169 0.004380 0.005467 831928.000000 0 0 1
5.670116 -34.089158 -7.556491 35.374023 -1.405973 1.786072 0.024140 0.009678 -940185.000000 0 0 1
6.177716 33.692845 -8.133291 35.206852 1.389457 1.803917 0.026618 0.004623 188572.000000 0 0 1
5.237516 32.622552 -8.300591 34.067026 1.411606 1.816929 0.019886 0.006022 140240.000000 0 0 1
4.207316 32.879482 -9.254391 34.415194 1.443526 1.843051 0.028738 -0.007335 266817.000000 0 0 1
3.368816 31.655822 -9.644091 33.263320 1.464775 1.864952 0.038929 -0.007412 93480.300000 0 0 1
4.013516 30.727522 -10.500591 32.719281 1.440915 1.897507 0.032290 -0.008563 -146047.000000 0 0 1
3.171716 29.652002 -10.756891 31.701920 1.464237 1.916983 0.018045 -0.006322 184354.000000 0 0 1
3.851516 28.840542 -11.872991 31.425769 1.438037 1.958227 0.017350 -0.003599 118698.000000 0 0 1
3.788216 29.431732 -13.143491 32.455027 1.442788 1.987748 0.015279 0.000736 35122.000000 0 0 1
4.885716 29.063322 -13.955391 32.608279 1.404248 2.013043 0.014213 -0.005244 43533.000000 0 0 1
4.791716 29.683782 -15.387691 33.776745 1.410752 2.043809 0.024823 -0.000511 26343.700000 0 0 1
3.875416 28.818032 -16.032291 33.204400 1.437119 2.074687 0.012305 0.000132 83175.300000 0 0 1
3.631316 29.208512 -17.366991 34.175079 1.447107 2.103863 0.037435 -0.001745 -79653.800000 0 0 1
2.605716 28.385612 -18.134691 33.784608 1.479256 2.137405 0.032653 -0.009176 -242006.000000 0 0 1
3.075916 27.106932 -18.431291 32.923540 1.457806 2.164966 0.038810 0.005407 -188653.000000 0 0 1
2.076216 26.317112 -18.989391 32.519195 1.492067 2.194375 0.026206 -0.013833 -298553.000000 0 0 1
2.758216 25.313062 -19.876691 32.302348 1.462260 2.233604 0.032803 -0.013460 307149.000000 0 0 1
3.289216 24.225552 -19.085291 31.015233 1.435847 2.233629 0.031496 -0.012413 -2064.880000 0 0 1
4.070116 23.338652 -19.852291 30.909092 1.398139 2.268266 0.031294 -0.006203 229302.000000 0 0 1
4.656916 22.205352 -18.963491 29.569892 1.364072 2.267002 0.024098 -0.002387 -376666.000000 0 0 1
3.656816 21.338752 -18.563491 28.518728 1.401075 2.279596 0.051268 -0.002963 -473993.000000 0 0 1
4.236216 20.198652 -18.044991 27.414463 1.364065 2.289260 0.039905 -0.001037 -60457.800000 0 0 1
3.162816 19.134652 -17.757991 26.296094 1.406985 2.312180 0.041027 -0.010753 81387.300000 0 0 1
2.430416 19.314452 -16.552891 25.552949 1.445620 2.275473 0.032097 -0.017870 -51337.300000 0 0 1
1.563216 18.184652 -16.371591 24.518446 1.485044 2.301945 0.029298 -0.010302 67035.500000 0 1 0
2.122116 16.929352 -15.652791 23.154183 1.446095 2.313150 0.017421 -0.002485 778930.000000 0 1 0
3.211716 16.267852 -16.380891 23.308619 1.375876 2.350098 0.012802 -0.004273 607745.000000 0 1 0
2.857316 15.147352 -17.149491 23.058872 1.384352 2.409424 0.017321 -0.008713 -119613.000000 0 1 0
2.681016 15.541552 -18.696191 24.459666 1.399971 2.440857 0.018210 -0.008979 102849.000000 0 1 0
3.932116 16.001552 -19.180291 25.286257 1.329837 2.431845 0.027371 -0.007851 205367.000000 0 0 1
3.666716 16.360252 -20.558191 26.528134 1.350316 2.457445 0.025810 -0.008866 76634.400000 0 0 1
4.084316 15.342552 -21.672391 26.865742 1.310622 2.509330 0.026411 -0.016536 -644114.000000 0 0 1
3.242116 14.326252 -21.953891 26.414506 1.348239 2.551933 0.026107 -0.007165 -738873.000000 0 0 1
2.115016 14.678952 -22.744391 27.152389 1.427696 2.563776 0.034288 -0.015081 121550.000000 0 0 1
1.236816 13.429252 -23.042491 26.698894 1.478957 2.612074 0.035173 -0.013054 -77808.400000 0 0 1
0.592416 12.875852 -21.904191 25.415194 1.524819 2.609711 0.033554 0.000954 -134304.000000 0 0 1
-0.256284 11.882152 -22.370391 25.331514 -1.549231 2.653236 0.019015 0.000770 -462052.000000 0 0 1
-0.575284 10.778552 -21.392891 23.961718 -1.517474 2.674308 0.020539 0.000581 -42693.900000 0 1 0
-1.442684 11.213252 -20.301491 23.237231 -1.442840 2.633476 0.012600 -0.003931 536433.000000 0 1 0
-1.948084 10.154052 -19.521791 22.090725 -1.381247 2.654527 0.003693 -0.000161 243120.000000 0 1 0
-3.017184 9.194052 -20.111691 22.318470 -1.253703 2.693150 -0.002020 0.002693 -307849.000000 0 1 0
-2.569384 8.226452 -21.050491 22.746416 -1.268065 2.752997 0.001967 0.008918 -667778.000000 0 1 0
-3.544284 7.255052 -21.161991 22.650112 -1.116370 2.777086 -0.000992 0.004712 -380259.000000 0 1 0
-3.043684 6.003452 -21.876491 22.888563 -1.101573 2.843106 0.004699 -0.006135 18367.500000 0 1 0
-2.159584 5.221252 -21.102791 21.846122 -1.178609 2.879980 0.011941 -0.002925 109788.000000 0 1 0
-1.909784 3.975052 -21.719091 22.162293 -1.122917 2.941268 0.028095 -0.015412 -370640.000000 0 1 0
-1.031584 2.989852 -20.975191 21.212308 -1.238557 2.991932 0.031160 -0.014166 -155718.000000 0 1 0
0.368616 3.142052 -21.073391 21.309533 1.454013 2.992582 0.022773 -0.004797 -145788.000000 0 1 0
0.998016 2.226352 -20.207491 20.354247 1.149379 3.021436 0.022996 -0.003801 34439.100000 0 1 0
2.545416 2.225152 -20.236191 20.516673 0.718365 2.976050 0.018529 -0.009912 126914.000000 0 1 0
3.062216 1.604952 -21.401091 21.678555 0.482753 2.981428 0.036415 -0.013166 -535479.000000 0 1 0
4.458216 1.744852 -21.256891 21.789346 0.373052 2.920068 0.046505 -0.013888 -393588.000000 0 1 0
5.195316 1.057552 -22.375191 22.994758 0.200815 2.908931 0.044128 -0.011931 -37775.400000 0 1 0
6.612816 1.103752 -22.276391 23.263388 0.165386 2.849256 0.036108 -0.012326 390936.000000 0 1 0
7.183616 0.451052 -23.405891 24.487620 0.062707 2.843252 0.030923 -0.013139 1105070.000000 0 1 0
8.754216 0.563852 -23.542891 25.124131 0.064320 2.784918 0.034116 -0.013475 1126110.000000 0 0 1
9.067616 1.892052 -23.880991 25.614512 0.205709 2.771580 0.027512 -0.014803 -485377.000000 0 0 1
10.425416 2.164152 -23.727691 26.007233 0.204677 2.719783 0.010963 -0.008548 -691003.000000 0 0 1
13.610616 -21.309472 22.369283 33.759847 -1.002397 0.846511 0.036699 0.006652 -141826.000000 0 0 1
12.467316 -22.117572 22.553783 33.960184 -1.057508 0.844474 0.027308 0.014837 974749.000000 0 0 1
11.142416 -21.593072 22.376683 33.032259 -1.094417 0.826548 0.021885 0.009064 1041220.000000 0 0 1
10.749816 -21.343072 20.921783 31.761711 -1.104219 0.851692 0.032093 0.000303 -851301.000000 0 0 1
11.355216 -20.205872 20.308983 30.816765 -1.058805 0.851276 0.027668 -0.003021 109743.000000 0 0 1
10.955516 -20.111872 18.957083 29.730148 -1.072009 0.879368 0.048966 -0.009655 57222.200000 0 0 1
11.273316 -18.742872 18.361383 28.557369 -1.029295 0.872433 0.054061 -0.015506 -70993.900000 0 0 1
10.597916 -17.698672 18.990683 28.039345 -1.031262 0.826728 0.073360 -0.018551 -271247.000000 0 0 1
10.869816 -16.498472 18.221283 26.876898 -0.988233 0.825821 0.070776 -0.018020 48424.000000 0 0 1
9.938916 -15.290272 18.494383 25.973384 -0.994410 0.778381 0.069092 -0.008332 116389.000000 0 0 1
8.589516 -15.662972 18.297683 25.571736 -1.069185 0.773395 0.059513 -0.008385 -379387.000000 0 0 1
7.771516 -14.561272 18.614283 24.878075 -1.080545 0.725421 0.044916 -0.004341 153287.000000 0 1 0
6.257616 -14.696472 18.344683 24.324297 -1.168256 0.716405 0.021154 -0.001717 185236.000000 0 1 0
5.842116 -14.622072 16.951383 23.136221 -1.190686 0.748549 0.020230 -0.009420 961895.000000 0 1 0
4.428816 -14.840472 16.761683 22.821219 -1.280782 0.745899 0.002661 -0.002145 556582.000000 0 1 0
3.858816 -16.245572 16.753483 23.653504 -1.337588 0.783727 -0.007954 0.001159 -1145690.000000 0 1 0
2.543816 -16.204572 16.310083 23.131752 -1.415086 0.788239 0.000394 0.000052 -1002900.000000 0 1 0
1.904716 -17.420172 16.607283 24.143160 -1.461889 0.812250 -0.001684 -0.003210 -725538.000000 0 1 0
0.452016 -17.369472 16.203583 23.758346 -1.544779 0.820280 0.005186 0.002252 -960303.000000 0 1 0
0.328316 -17.410972 14.793783 22.849634 -1.551942 0.866575 0.009545 0.000559 541206.000000 0 1 0
-1.059684 -17.661272 14.528583 22.893737 1.510868 0.883293 0.009615 0.010985 562992.000000 0 1 0
-1.497884 -18.059472 13.140383 22.384322 1.488044 0.943405 0.003945 -0.001960 133462.000000 0 1 0
-2.891584 -18.290372 13.050883 22.654459 1.414001 0.956866 -0.002954 -0.001627 -99716.900000 0 1 0
-3.169884 -19.505072 12.387783 23.322804 1.409689 1.010845 0.005358 -0.007316 462910.000000 0 1 0
-4.697784 -19.769772 12.290783 23.748188 1.337499 1.026816 0.008839 -0.010831 651412.000000 0 1 0
-5.331984 -20.247372 13.498683 24.911856 1.313300 0.998150 0.005078 -0.006772 -84651.800000 0 1 0
-5.630284 -21.648072 13.419483 26.084893 1.316351 1.030425 -0.020445 0.003747 332159.000000 0 0 1
-6.510784 -22.239872 14.584383 27.380768 1.286002 1.009067 -0.008758 0.005595 15233.000000 0 0 1
-7.853084 -21.852772 14.597283 27.428001 1.225805 1.009595 -0.001067 0.005451 -530353.000000 0 0 1
-8.564984 -22.715872 15.458083 28.780586 1.210231 1.003800 0.005442 -0.002145 90070.100000 0 0 1
-10.059584 -22.376572 15.619083 29.083706 1.148309 1.003873 0.006172 -0.000183 43596.000000 0 0 1
-10.099384 -21.093272 16.198083 28.448226 1.124255 0.965035 -0.000920 0.003449 -684026.000000 0 0 1
-11.378184 -20.545672 16.129183 28.491021 1.065041 0.969012 0.019505 -0.003539 -528168.000000 0 0 1
-11.543584 -19.287072 16.952883 28.153965 1.031470 0.924606 0.017577 0.002968 -348516.000000 0 0 1
-11.588184 -19.491872 18.332383 29.159824 1.034421 0.890934 0.015047 0.004086 -94162.400000 0 0 1
-12.100384 -18.427472 19.086583 29.159710 0.989761 0.857205 0.021723 -0.002069 -349499.000000 0 0 1
-12.428684 -18.901072 20.511383 30.535873 0.989121 0.834276 0.028487 -0.005431 -240448.000000 0 0 1
-13.627684 -19.631872 20.530383 31.505885 0.964000 0.861057 0.050308 -0.007786 -55096.800000 0 0 1
-13.977084 -20.157572 21.841183 32.843932 0.964520 0.843304 0.042601 0.002719 70203.200000 0 0 1
-15.302984 -20.946572 21.832583 33.905780 0.939845 0.871187 0.046852 -0.007619 -495950.000000 0 0 1
-15.297584 -22.127072 21.016983 34.137032 0.965898 0.907566 0.039825 -0.009115 928008.000000 0 0 1
-16.614784 -22.374872 20.500183 34.596871 0.932071 0.936582 0.042680 -0.008746 740623.000000 0 0 1
-17.639084 -23.049972 21.417883 36.071654 0.917604 0.935073 0.052109 -0.014750 -517510.000000 0 0 1
-18.301584 -22.121572 22.274383 36.338135 0.879618 0.910975 0.056625 -0.012070 49611.100000 0 0 1
-19.224184 -22.771972 23.119683 37.718056 0.869677 0.910994 0.059602 -0.017763 -55165.300000 0 0 1
-19.951584 -21.841672 24.102723 38.158428 0.830592 0.887118 0.055799 -0.008366 478857.000000 0 0 1
-20.843684 -20.918272 23.410983 37.684312 0.787184 0.900473 0.052835 -0.006525 643466.000000 0 0 1
-21.273384 -19.870272 24.243353 37.883040 0.751309 0.876360 0.044726 -0.003969 -29525.500000 0 0 1
-22.233184 -18.920872 23.522583 37.491676 0.705086 0.892576 0.046992 -0.002034 -137144.000000 0 0 1
-21.602584 -18.247472 22.475983 36.122177 0.701403 0.899220 0.052541 -0.004582 -35321.700000 0 0 1
-22.468284 -17.238672 22.028483 35.878262 0.654447 0.909705 0.040775 -0.004478 -148991.000000 0 0 1
-21.980984 -16.694172 20.675283 34.486612 0.649542 0.927900 0.046502 -0.003603 -247241.000000 0 0 1
-20.919384 -15.795272 20.756983 33.435963 0.646728 0.901036 0.039736 0.003770 -841988.000000 0 0 1
-20.622284 -15.473072 19.450283 32.295636 0.643698 0.924471 0.040003 -0.000259 -240458.000000 0 0 1
-19.642784 -14.322472 19.253583 31.010847 0.630021 0.900949 0.038252 -0.011908 -235943.000000 0 0 1
-19.396484 -14.154472 17.884883 29.940637 0.630411 0.930610 0.034400 -0.008143 156236.000000 0 0 1
-18.388784 -13.179672 17.653683 28.696754 0.621862 0.908181 0.035144 -0.018138 -127145.000000 0 0 1
-18.003784 -13.002872 16.180783 27.477785 0.625490 0.941139 0.011621 -0.012829 134874.000000 0 0 1
-17.487384 -11.723472 15.792483 26.318262 0.590580 0.927223 0.009381 -0.005522 412188.000000 0 0 1
-16.111784 -11.467572 16.053183 25.471543 0.618569 0.888934 -0.007955 -0.009883 153982.000000 0 0 1
-15.644684 -10.154472 15.354383 24.158363 0.575720 0.882047 0.000577 -0.008264 11814.200000 0 1 0
-16.304184 -8.954672 15.754383 24.376488 0.502248 0.868078 -0.003389 -0.007099 141750.000000 0 1 0
-15.970484 -7.922072 14.923683 23.249342 0.460478 0.873827 -0.013966 -0.000154 -928348.000000 0 1 0
-16.284084 -6.562372 15.625183 23.502818 0.383084 0.843541 0.000277 0.005836 489971.000000 0 1 0
-15.548184 -6.385472 16.856083 23.804366 0.389687 0.783980 -0.012590 0.006922 982932.000000 0 1 0
-14.144084 -6.213772 16.613583 22.686499 0.413937 0.749086 -0.007045 0.001444 449973.000000 0 1 0
-13.283184 -6.048072 17.936583 23.124514 0.427268 0.683048 -0.002414 0.006598 257536.000000 0 1 0
-13.283584 -7.166772 18.919683 24.202699 0.494762 0.673381 -0.004765 -0.007513 83285.900000 0 1 0
-12.782284 -8.397172 18.409883 23.933723 0.581237 0.693204 -0.011625 -0.005666 -448272.000000 0 1 0
-12.878584 -9.532472 19.473083 25.217591 0.637187 0.688496 -0.001382 -0.010173 626293.000000 0 0 1
-14.168184 -10.107772 19.726483 26.306627 0.619672 0.722935 -0.002868 -0.007662 479107.000000 0 0 1
-15.032184 -9.345372 20.529183 27.106270 0.556216 0.711537 -0.004255 -0.006235 133869.000000 0 0 1
-16.446384 -10.015672 20.741583 28.302129 0.547003 0.748276 0.000184 -0.005743 1975860.000000 0 0 1
-17.434484 -10.121372 19.650683 28.152313 0.525986 0.798177 0.011422 -0.008208 1166740.000000 0 0 1
-17.794484 -8.938872 18.981083 27.510518 0.465517 0.809366 0.002588 -0.003885 -559952.000000 0 0 1
-18.922184 -9.221372 17.967983 27.675462 0.453461 0.864213 0.019237 0.001740 -736498.000000 0 0 1
-20.169784 -9.246872 18.557783 28.926046 0.429860 0.874267 0.020172 -0.006981 -770773.000000 0 0 1
-21.184384 -9.400872 17.581483 29.090601 0.417656 0.921822 0.023951 -0.005874 -913166.000000 0 0 1
-22.579884 -9.616672 18.080083 30.483126 0.402629 0.935871 0.033526 -0.000395 -1222720.000000 0 0 1
-23.109684 -8.429672 18.596483 30.837413 0.349770 0.923478 0.036763 0.002908 -755558.000000 0 0 1
-24.446884 -8.620972 18.876983 32.067301 0.339026 0.941387 0.028286 0.006159 -911765.000000 0 0 1
-25.145624 -7.405972 19.558183 32.705861 0.286425 0.929790 0.038443 0.006840 -45188.600000 0 0 1
-24.951184 -7.394072 20.953783 33.411000 0.288097 0.892905 0.032132 0.007003 277882.000000 0 0 1
-25.579464 -6.284972 21.577783 34.050119 0.240931 0.884461 0.035816 0.007676 -582404.000000 0 0 1
-25.339724 -6.168872 23.091783 34.833706 0.238801 0.846091 0.033320 -0.000016 326465.000000 0 0 1
-24.066684 -5.793672 23.610083 34.208302 0.236239 0.809051 0.004550 -0.008776 669898.000000 0 0 1
-23.067584 -6.842172 23.558983 33.674240 0.288348 0.795939 -0.001478 -0.001038 361451.000000 0 0 1
-22.179584 -6.737072 24.851563 33.984147 0.294895 0.750615 -0.007660 -0.003568 113086.000000 0 0 1
-21.485584 -5.494072 24.833093 33.294108 0.250345 0.728956 -0.006601 -0.003915 43256.400000 0 0 1
-20.707784 -5.378972 26.016593 33.683954 0.254140 0.688227 -0.007777 -0.009225 -33858.600000 0 0 1
-20.100084 -3.973872 26.027223 33.124332 0.195187 0.666899 -0.007994 -0.007158 -82469.600000 0 0 1
-19.059884 -3.715572 26.962533 33.227441 0.192527 0.624161 -0.009661 -0.008346 -304192.000000 0 0 1
-19.347884 -3.617972 28.343903 34.508074 0.184861 0.606987 -0.002444 -0.007022 44476.600000 0 0 1
-20.245384 -2.388172 28.799903 35.284747 0.117419 0.615969 0.009589 -0.012227 -659009.000000 0 0 1
-21.485884 -2.348472 28.252893 35.572243 0.108871 0.653041 0.002895 -0.016478 -1569140.000000 0 0 1
-22.342784 -1.458872 28.970413 36.614384 0.065202 0.657978 0.021558 -0.006365 384183.000000 0 0 1
-23.623484 -1.159872 28.167663 36.780858 0.049059 0.698475 0.012909 -0.004336 -633567.000000 0 0 1
-23.377884 -0.517472 26.943933 35.675885 0.022132 0.714773 0.005470 -0.006917 383403.000000 0 0 1
-24.519184 -0.103072 26.162963 35.856682 0.004204 0.752981 0.023616 -0.008424 349793.000000 0 0 1
-25.344004 -1.232572 25.491983 35.967749 0.048595 0.783078 0.017363 -0.005565 -179665.000000 0 0 1
-26.207524 -1.865172 26.416353 37.257709 0.071050 0.782693 0.021479 -0.006908 67848.600000 0 0 1
-26.488084 -3.251172 26.177563 37.382530 0.122130 0.795032 0.009223 -0.008625 240992.000000 0 0 1
-25.325864 -4.212872 26.576163 36.951862 0.164837 0.768131 0.017434 -0.015167 352854.000000 0 0 1
-25.122664 -4.485072 27.950583 37.848371 0.176666 0.739971 0.007208 -0.015352 -385340.000000 0 0 1
-24.230584 -5.534872 28.135713 37.541635 0.224572 0.723560 0.012741 -0.017917 -502763.000000 0 0 1
-24.009184 -5.855872 29.605423 38.564404 0.239231 0.695571 -0.004061 -0.019077 -827173.000000 0 0 1
-25.124274 -6.463772 30.152493 39.776656 0.251811 0.710486 0.004606 -0.017978 -353398.000000 0 0 1
-24.763384 -7.156572 31.339113 40.578094 0.281333 0.688317 0.001725 -0.011169 609177.000000 0 0 1
-26.144004 -7.629472 31.910733 41.952505 0.283940 0.706499 -0.004372 -0.015106 650871.000000 0 0 1
-26.816554 -8.502972 31.043563 41.894283 0.307051 0.736242 -0.001562 -0.018864 -19767.200000 0 0 1
-28.086264 -8.792372 31.604103 43.185222 0.303385 0.749798 0.003266 -0.013021 812936.000000 0 0 1
-29.126874 -9.547772 30.681583 43.369278 0.316762 0.784913 0.003044 -0.024364 611542.000000 0 0 1
-28.703474 -10.922172 30.473253 43.264332 0.363599 0.789289 0.013748 -0.026103 298031.000000 0 0 1
-29.669984 -11.587272 29.730313 43.571371 0.372323 0.819843 0.014520 -0.022880 -315792.000000 0 0 1
-29.002614 -12.860572 29.167773 43.096461 0.417375 0.827386 0.022707 -0.021115 426106.000000 0 0 1
-28.036004 -12.521172 28.188453 41.681964 0.420032 0.828103 0.028286 -0.020064 6341.080000 0 0 1
-27.054804 -13.518072 27.940533 41.174921 0.463372 0.824967 0.035200 -0.022140 1019550.000000 0 0 1
-25.780424 -12.846772 27.241673 39.645663 0.462299 0.813267 0.030387 -0.018777 420318.000000 0 0 1
-24.905784 -12.148072 28.096573 39.462528 0.453809 0.778481 0.025503 -0.016657 -290825.000000 0 0 1
-25.369924 -10.929372 28.721993 39.850183 0.406773 0.765914 0.025245 -0.020463 -788980.000000 0 0 1
-25.436164 -9.600172 27.820843 38.899371 0.360893 0.773886 0.023827 -0.017217 830243.000000 0 0 1
-24.181884 -9.100472 27.275553 37.570439 0.359940 0.758332 0.005439 -0.016828 960811.000000 0 0 1
-23.488584 -9.940972 26.341743 36.666387 0.400367 0.769273 -0.001603 -0.005675 -259359.000000 0 0 1
-24.074284 -10.105572 24.911193 36.086857 0.397429 0.808876 0.014040 0.001957 77792.300000 0 0 1
-25.332864 -10.770472 24.940653 37.145568 0.402005 0.834659 0.032998 -0.008087 35923.600000 0 0 1
-25.905854 -10.715672 23.640283 36.671541 0.392209 0.870232 0.033407 -0.000053 -304114.000000 0 0 1
-27.198724 -11.529872 23.520183 37.761191 0.400949 0.898395 0.053026 -0.007144 1377700.000000 0 0 1
-28.448864 -11.046272 24.113743 38.895123 0.370367 0.902094 0.058464 -0.011472 1261490.000000 0 0 1
-28.454294 -10.952872 25.536873 39.771147 0.367447 0.873568 0.054463 -0.014016 -327647.000000 0 0 1
-29.922654 -10.775072 26.024343 41.094207 0.345642 0.885006 0.036846 -0.015573 -179191.000000 0 0 1
-30.488574 -9.568372 25.549153 40.912909 0.304100 0.896335 0.044530 -0.020340 1587600.000000 0 0 1
-31.926514 -9.409872 25.821983 42.126272 0.286620 0.910987 0.040434 -0.017035 1886950.000000 0 0 1
-32.378314 -9.251072 27.216233 43.297354 0.278303 0.891059 0.026188 -0.011002 -853793.000000 0 0 1
-32.458474 -10.451072 27.865603 44.037135 0.311501 0.885664 0.020420 -0.020699 29602.400000 0 0 1
-33.164394 -10.383572 29.102533 45.328281 0.303426 0.873641 0.023018 -0.016559 -1117690.000000 0 0 1
-33.650464 -11.737472 29.568943 46.308146 0.335610 0.878215 0.024621 -0.009295 -8926.100000 0 0 1
-34.800992 -12.255072 28.927083 46.883600 0.338586 0.905874 0.014481 -0.002884 285120.000000 0 0 1
34.774901 -11.640372 29.348553 46.969454 -0.323011 0.895865 0.016596 -0.002915 -45544.300000 0 0 1
33.467382 -12.248272 28.738443 45.781917 -0.350836 0.892169 0.016647 -0.000033 507072.000000 0 0 1
33.289072 -11.999272 27.312873 44.700536 -0.345960 0.913449 0.014668 0.001305 -403378.000000 0 0 1
32.070802 -12.458172 26.788623 43.604733 -0.370517 0.909233 0.017326 0.006848 -394066.000000 0 0 1
31.935862 -12.312472 25.258563 42.538115 -0.367977 0.935040 0.017796 -0.001187 -78535.600000 0 0 1
31.773952 -10.936472 25.038273 41.905913 -0.331495 0.930432 0.020392 -0.011041 35600.500000 0 0 1
31.677762 -10.571772 23.646483 40.919422 -0.322106 0.954669 0.021240 -0.014990 -731621.000000 0 0 1
31.530822 -9.056972 23.572283 40.396460 -0.279711 0.947736 0.020068 0.010885 543475.000000 0 0 1
30.230362 -8.618772 24.004703 39.552292 -0.277735 0.918629 0.027176 0.001148 436434.000000 0 0 1
29.980722 -7.271172 23.598383 38.840666 -0.237934 0.917800 0.031943 0.012988 108938.000000 0 0 1
28.483202 -6.913772 23.547183 37.597379 -0.238126 0.894000 0.028024 0.021430 136995.000000 0 0 1
27.799482 -7.558272 22.483883 36.543996 -0.265468 0.908087 0.016373 0.025822 249992.000000 0 0 1
26.389332 -7.417072 22.607683 35.531917 -0.273994 0.881150 0.024483 0.007254 406633.000000 0 0 1
14.351016 -17.327072 26.237113 34.562482 -0.879070 0.708834 0.029286 0.008712 -226056.000000 0 0 1
13.535416 -18.462472 26.197793 34.790728 -0.938179 0.718171 0.020133 0.006410 70631.100000 0 0 1
14.298016 -19.643272 26.146533 35.692192 -0.941601 0.748727 0.031618 0.003009 -584494.000000 0 0 1
13.460416 -20.951872 26.046233 36.035677 -0.999751 0.762965 0.014629 -0.006921 225047.000000 0 0 1
12.829816 -21.338572 27.285523 36.938308 -1.029458 0.739689 0.023183 -0.002687 711314.000000 0 0 1
11.547516 -20.729472 27.446873 36.282048 -1.062551 0.712873 0.014519 0.006756 -52605.200000 0 0 1
10.869916 -21.324572 28.732473 37.395821 -1.099390 0.694563 0.000382 0.008257 35958.900000 0 0 1
11.398516 -20.776972 29.923383 38.170900 -1.069019 0.669823 0.002547 0.002625 -48763.600000 0 0 1
10.607316 -19.733272 30.446883 37.801189 -1.077574 0.634366 0.000370 0.004018 -212624.000000 0 0 1
10.586516 -18.313272 29.722633 36.481299 -1.046651 0.618522 -0.003350 0.008623 479884.000000 0 0 1
11.882716 -17.734572 29.630253 36.519390 -0.980468 0.624327 -0.002242 0.018853 232591.000000 0 0 1
11.662516 -16.393972 29.270943 35.518512 -0.952467 0.602178 -0.003688 0.018513 303120.000000 0 0 1
12.840216 -15.406472 29.503123 35.674428 -0.876001 0.597027 -0.004263 0.014564 7416.150000 0 0 1
12.436916 -14.071472 29.297933 34.800174 -0.846982 0.570020 0.007980 0.010950 -813363.000000 0 0 1
13.215016 -13.152472 29.877473 35.217717 -0.783026 0.557907 0.008371 0.009631 -922073.000000 0 0 1
12.648816 -11.676272 29.851903 34.459599 -0.745438 0.523075 0.007279 0.007372 27693.200000 0 0 1
12.876516 -10.886272 28.654643 33.247619 -0.701839 0.531879 0.021796 0.012092 98563.500000 0 0 1
14.221116 -10.584772 28.325383 33.415638 -0.639843 0.559221 0.025938 0.012231 -242645.000000 0 0 1
14.356616 -9.422372 27.251333 32.210692 -0.580797 0.562295 0.030253 0.007334 23005.500000 0 0 1
14.465616 -8.028872 27.785773 32.338306 -0.506698 0.537050 0.031480 0.000447 -472289.000000 0 0 1
15.817416 -7.821172 28.067273 33.153178 -0.459211 0.561244 0.033565 -0.001134 -782452.000000 0 0 1
16.140316 -6.322172 27.992433 32.925005 -0.373331 0.554455 0.034098 -0.004587 -7457.160000 0 0 1
17.502816 -5.992772 28.161173 33.694414 -0.329878 0.581241 0.036176 -0.005987 31747.900000 0 0 1
17.952416 -4.723872 27.557353 33.226675 -0.257300 0.592809 0.032153 -0.003634 -695311.000000 0 0 1
19.462516 -4.679772 27.521503 34.031205 -0.235971 0.628834 0.030945 -0.000182 -1345170.000000 0 0 1
20.019116 -5.734872 26.789463 33.931241 -0.278998 0.660766 0.033953 0.003707 -399316.000000 0 0 1
21.368416 -5.780572 26.427653 34.473831 -0.264196 0.697266 0.036854 0.004448 267141.000000 0 0 1
22.409516 -5.901372 27.599143 36.037831 -0.257496 0.698453 0.041400 0.003908 -243923.000000 0 0 1
22.778216 -4.646572 28.139643 36.500373 -0.201231 0.690479 0.044512 -0.003114 58804.000000 0 0 1
23.727116 -4.788972 29.177543 37.910939 -0.199160 0.692529 0.049658 -0.011179 39202.700000 0 0 1
24.263116 -3.387072 29.629473 38.445763 -0.138701 0.690885 0.048986 -0.013102 -147335.000000 0 0 1
25.096316 -2.800572 28.646193 38.187336 -0.111133 0.722509 0.043618 -0.010602 84887.400000 0 0 1
25.176516 -1.394772 28.706543 38.208218 -0.055343 0.720739 0.037928 -0.014496 -371001.000000 0 0 1
26.341516 -0.832972 27.873623 38.360242 -0.031611 0.757395 0.039548 -0.015039 -8393.470000 0 0 1
27.602616 -1.130672 28.422293 39.635963 -0.040940 0.771188 0.045431 -0.013623 -39373.700000 0 0 1
28.681416 -0.858372 27.532863 39.767059 -0.029919 0.806051 0.039568 -0.004301 892215.000000 0 0 1
30.078616 -0.901972 28.232923 41.262993 -0.029978 0.817264 0.028620 -0.007927 491861.000000 0 0 1
30.316916 0.175828 29.120623 42.037566 0.005800 0.805531 0.027734 -0.004786 30792.800000 0 0 1
31.620916 0.172328 29.667653 43.359908 0.005450 0.817265 0.034121 -0.000409 221525.000000 0 0 1
31.949116 1.420128 30.562713 44.236209 0.044420 0.808066 0.034221 -0.009974 -89484.900000 0 0 1
32.151716 2.622228 29.862413 43.958760 0.081378 0.823950 0.028150 -0.005871 82698.500000 0 0 1
32.378516 3.735428 30.747283 44.807557 0.114860 0.814534 0.042290 -0.015743 -198947.000000 0 0 1
32.559216 4.975428 29.895413 44.481380 0.151639 0.833771 0.034760 -0.010728 104810.000000 0 0 1
32.236616 6.253228 30.447953 44.781470 0.191600 0.823139 0.046871 -0.016206 818534.000000 0 0 1
30.852116 6.471128 30.766653 44.049012 0.206750 0.797547 0.048811 -0.024078 589752.000000 0 0 1
30.807616 7.533428 31.874203 44.964726 0.239825 0.782900 0.039692 -0.022683 -55323.800000 0 0 1
31.289416 6.965228 33.081461 46.064357 0.219035 0.769645 0.041953 -0.010641 173131.000000 0 0 1
31.327616 7.968428 34.043117 46.945172 0.249076 0.759519 0.044991 -0.005077 -75814.900000 0 0 1
31.751716 7.474428 -33.524791 46.775529 0.231193 2.369879 0.041038 0.008781 477864.000000 0 0 1
30.690516 6.685428 -32.946111 45.519764 0.214483 2.380055 0.034479 0.001458 620960.000000 0 0 1
30.830016 5.265428 -33.100461 45.539600 0.169157 2.384521 0.043069 0.000124 -129329.000000 0 0 1
31.795616 4.433828 -32.236431 45.495137 0.138554 2.358264 0.042679 0.007946 -149303.000000 0 0 1
31.994216 3.097128 -32.745211 45.885410 0.096502 2.365463 0.049150 0.000276 172653.000000 0 0 1
32.440516 2.296628 -31.687381 45.406516 0.070677 2.343201 0.048002 0.008287 -192246.000000 0 0 1
32.599816 0.744628 -31.908091 45.622678 0.022837 2.345341 0.047049 0.000681 -355697.000000 0 0 1
33.632316 0.299228 -32.782851 46.967409 0.008897 2.343385 0.057635 -0.000286 103666.000000 0 0 1
33.826716 -1.109372 -32.607351 46.996987 -0.032784 2.337573 0.049451 -0.002158 206895.000000 0 0 1
34.693316 -1.547672 -31.407261 46.823472 -0.044581 2.306028 0.045051 0.004936 -569367.000000 0 0 1
34.010316 -1.454072 -30.186951 45.497999 -0.042728 2.296255 0.038029 0.004668 -207597.000000 0 0 1
34.782016 -1.693272 -29.039661 45.342670 -0.048644 2.265879 0.020405 0.005911 -27077.000000 0 0 1
33.964616 -1.336272 -27.759381 43.885806 -0.039323 2.255620 0.023717 0.005003 265360.000000 0 0 1
33.830016 0.047128 -27.510261 43.603746 0.001393 2.253528 0.005188 0.010199 395968.000000 0 0 1
32.778416 0.326528 -26.588551 42.207608 0.009961 2.252281 0.023453 0.009946 42791.900000 0 0 1
32.398616 1.827228 -26.560781 41.934284 0.056339 2.256723 0.014252 0.012575 -260338.000000 0 0 1
31.581516 2.131228 -27.652891 42.031139 0.067381 2.288842 0.027387 0.009101 433035.000000 0 0 1
30.685516 3.226828 -27.479291 41.317366 0.104773 2.298395 0.002765 0.015642 380858.000000 0 0 1
29.792216 3.460528 -28.740791 41.540155 0.115637 2.334886 0.016170 0.014916 19852.000000 0 0 1
28.929916 4.576128 -28.602421 40.938728 0.156880 2.344325 0.003405 0.014819 -36258.700000 0 0 1
28.277716 4.825028 -29.798531 41.362574 0.169002 2.375208 0.020462 0.008193 -659250.000000 0 0 1
27.056216 5.723228 -29.630111 40.530700 0.208458 2.390661 0.021976 -0.001620 -527132.000000 0 0 1
25.882516 5.143328 -29.137051 39.310637 0.196163 2.405653 0.018506 0.002356 -184744.000000 0 0 1
25.138016 6.059928 -28.369831 38.386064 0.236553 2.402479 0.021666 -0.008914 -357880.000000 0 0 1
23.794516 5.464428 -27.908761 37.080155 0.225737 2.422890 0.023763 -0.001415 -552590.000000 0 0 1
22.891216 5.331528 -28.958371 37.296383 0.228828 2.459792 0.040634 -0.009553 -371389.000000 0 0 1
21.645516 4.945528 -28.442481 36.082701 0.224623 2.478769 0.044125 -0.009605 -527290.000000 0 0 1
20.509716 4.591328 -29.383111 36.126112 0.220230 2.520681 0.036590 -0.013236 -512626.000000 0 0 1
20.709916 3.367128 -30.067411 36.664525 0.161175 2.532327 0.045880 -0.017230 235801.000000 0 0 1
19.778816 3.071828 -31.104391 36.988117 0.154078 2.569795 0.035285 -0.023021 9503.210000 0 0 1
20.126316 3.649628 -32.481461 38.385332 0.179387 2.579599 0.033885 -0.018389 -514633.000000 0 0 1
21.346416 3.297728 -33.075371 39.503476 0.153275 2.563081 0.027447 -0.017259 -322375.000000 0 0 1
21.434316 3.920528 -34.302785 40.638424 0.180909 2.575676 0.029904 -0.024074 -480015.000000 0 0 1
22.732916 3.656428 33.890323 40.972051 0.159477 0.596766 0.040643 -0.017614 -452730.000000 0 0 1
23.022516 2.372828 33.388184 40.625575 0.102703 0.606143 0.038025 -0.013461 152835.000000 0 0 1
24.394416 2.185428 33.075606 41.156522 0.089349 0.637386 0.036018 -0.017920 -175617.000000 0 0 1
24.774516 0.675028 32.877173 41.172088 0.027240 0.645946 0.032831 -0.020225 -1243900.000000 0 0 1
24.312616 0.137228 31.646273 39.907502 0.005644 0.655094 0.031486 -0.021001 362582.000000 0 0 1
22.945016 -0.221572 31.532713 38.997882 -0.009656 0.629070 0.034843 -0.020999 186173.000000 0 0 1
22.393316 -1.314672 32.575473 39.551870 -0.058641 0.603042 0.035091 -0.022823 -571446.000000 0 0 1
22.537116 -2.667772 32.255573 39.439328 -0.117824 0.613126 0.045151 -0.031372 441352.000000 0 0 1
21.792816 -3.486072 33.197411 39.864114 -0.158620 0.586714 0.045075 -0.020654 93973.300000 0 0 1
21.726216 -4.990872 32.783363 39.644497 -0.225799 0.597164 0.048621 -0.020212 275751.000000 0 0 1
22.981916 -5.618872 32.565713 40.252526 -0.239787 0.628287 0.046607 -0.015707 219942.000000 0 0 1
22.746116 -7.033272 32.497083 40.285396 -0.299883 0.632298 0.058397 -0.016034 -671341.000000 0 0 1
24.033316 -7.804672 32.345023 41.045264 -0.314000 0.663189 0.045658 -0.013915 -666486.000000 0 0 1
24.558016 -7.542372 31.062833 40.309839 -0.297980 0.691012 0.053241 -0.015440 406976.000000 0 0 1
25.744616 -8.287872 30.723343 40.931624 -0.311449 0.721824 0.044399 -0.011445 863168.000000 0 0 1
26.340816 -8.025472 29.336203 40.235054 -0.295743 0.753760 0.038396 -0.008889 722536.000000 0 0 1
25.334516 -8.242172 28.323593 38.884406 -0.314534 0.754805 0.034926 -0.005525 355283.000000 0 0 1
25.868916 -7.973172 27.063423 38.277946 -0.298976 0.785515 0.042390 -0.002375 403444.000000 0 0 1
25.217516 -8.795872 25.850923 37.169352 -0.335605 0.801694 0.025625 0.003395 170842.000000 0 0 1
23.890016 -8.484272 25.519923 35.971964 -0.341245 0.782094 0.029121 0.004473 -310667.000000 0 0 1
23.392416 -9.583172 24.744643 35.374280 -0.388815 0.796086 0.030272 -0.000461 671697.000000 0 0 1
21.935516 -9.373872 24.217123 33.992725 -0.403849 0.777855 0.024742 0.010622 414225.000000 0 0 1
20.915116 -9.430972 25.186053 34.069379 -0.423616 0.738829 0.023237 0.007799 -577067.000000 0 0 1
19.765416 -8.856672 24.644623 32.809598 -0.421264 0.721008 0.016480 0.014668 -149732.000000 0 0 1
18.624316 -8.610272 25.675753 32.867099 -0.433047 0.674212 0.020835 0.010325 -149366.000000 0 0 1
17.910116 -9.737472 26.091733 33.111465 -0.497982 0.663248 0.021766 0.011492 -382408.000000 0 0 1
18.545116 -10.597772 27.006673 34.432463 -0.519169 0.669169 0.020942 0.008454 -306387.000000 0 0 1
17.663416 -11.753072 27.555733 34.777139 -0.587119 0.656142 0.031442 0.003227 -47323.300000 0 0 1
17.139516 -12.735172 26.686523 34.177743 -0.639025 0.674826 0.021806 0.005154 62808.200000 0 0 1
16.421416 -13.767872 27.381473 34.770135 -0.697727 0.664055 0.018964 0.010415 -351219.000000 0 0 1
17.096216 -14.782772 28.285123 36.205789 -0.712956 0.674159 0.027547 0.014961 -490625.000000 0 0 1
16.161416 -15.758172 28.683473 36.500041 -0.772766 0.666731 0.026556 0.014072 315622.000000 0 0 1
16.790616 -16.809672 29.406353 37.805072 -0.785965 0.679572 0.029945 0.015291 62478.800000 0 0 1
17.215316 -18.010272 28.482523 37.841659 -0.807962 0.718679 0.030692 0.013141 -433411.000000 0 0 1
18.226416 -17.745872 27.575383 37.516929 -0.772040 0.745112 0.045320 0.002020 -329661.000000 0 0 1
18.583416 -18.803072 26.747673 37.607671 -0.791273 0.779551 0.036105 0.007873 -464706.000000 0 0 1
19.750416 -18.359672 25.880463 37.375859 -0.748922 0.805934 0.026848 0.002423 -590935.000000 0 0 1
20.960116 -18.243072 26.569553 38.445771 -0.716202 0.807798 0.031119 0.004522 9437.720000 0 0 1
21.910616 -17.378472 25.962543 38.159403 -0.670552 0.822528 0.013086 0.004136 449445.000000 0 0 1
23.304416 -17.243972 26.627883 39.363619 -0.637034 0.827852 0.014149 0.001639 479177.000000 0 0 1
23.968316 -18.514172 26.733393 40.397141 -0.657711 0.847626 0.010890 0.000532 1412360.000000 0 0 1
25.341516 -18.502072 27.195463 41.522431 -0.630649 0.856669 0.006391 -0.006701 1072180.000000 0 0 1
25.951016 -19.927772 27.129303 42.503769 -0.654859 0.878535 0.007908 -0.010280 -153270.000000 0 0 1
25.552516 -20.761672 28.177713 43.335454 -0.682323 0.862918 0.016997 0.002092 277678.000000 0 0 1
26.466916 -21.816672 28.433843 44.552758 -0.689383 0.878630 0.031505 -0.012525 359020.000000 0 0 1
25.764916 -22.823072 29.403383 45.269001 -0.724925 0.863836 0.027792 -0.005726 157526.000000 0 0 1
25.549916 -22.324172 30.689823 45.749668 -0.718120 0.835481 0.032418 -0.005681 -33211.600000 0 0 1
25.008216 -23.379272 31.398803 46.453052 -0.751746 0.828577 0.038001 0.002619 -418869.000000 0 0 1
24.409516 -23.202772 32.784393 47.000101 -0.760058 0.798839 0.033963 -0.001773 -273241.000000 0 0 1
24.062716 -24.439272 33.314766 47.813868 -0.793162 0.799926 0.028523 -0.001436 -150969.000000 0 0 1
23.866716 -24.287772 -34.287487 48.323367 -0.794142 2.359645 0.024921 0.003264 -818608.000000 0 0 1
23.665416 -25.648672 -33.531511 48.396989 -0.825593 2.336220 0.021462 0.002034 -334536.000000 0 0 1
22.473316 -26.371482 -33.714881 48.344578 -0.865037 2.342541 0.030557 -0.002809 -378603.000000 0 0 1
22.085616 -26.641612 33.880952 48.430041 -0.878627 0.795979 0.024844 -0.002184 -237422.000000 0 0 1
20.716016 -27.340082 33.732680 48.109532 -0.922375 0.793767 0.023891 -0.001141 340919.000000 0 0 1
20.870816 -28.698452 34.086240 49.204307 -0.942018 0.805502 0.014973 -0.006525 -345985.000000 0 0 1
19.640616 -29.341312 34.047687 49.050091 -0.980915 0.803570 0.014296 -0.010267 -694116.000000 0 0 1
19.794416 -30.881752 34.267635 50.197334 -1.000792 0.819402 0.001534 -0.006849 -346722.000000 0 0 1
20.344716 -31.157062 -33.451751 50.036883 -0.992334 2.303043 0.005182 -0.012977 96958.500000 0 0 1
21.105416 -32.356332 -33.479701 51.120066 -0.992819 2.284877 -0.008699 -0.010188 198189.000000 0 0 1
21.945416 -32.583422 -32.169021 50.775256 -0.978068 2.256938 0.001221 -0.003372 -870402.000000 0 0 1
22.700016 -33.752822 -32.255061 51.912741 -0.978741 2.241238 -0.004569 -0.003959 402193.000000 0 0 1
23.321216 -34.096406 -30.971791 51.630377 -0.970904 2.214142 0.006841 0.005769 -182060.000000 0 0 1
24.447216 -33.262162 -30.436531 51.287623 -0.936974 2.206132 0.007338 0.007012 -1278770.000000 0 0 1
25.093816 -33.726372 -29.265271 51.221322 -0.931120 2.178945 0.013863 0.011558 92173.600000 0 0 1
25.952216 -32.644892 -28.860311 50.716112 -0.899120 2.176154 0.010299 0.016600 213718.000000 0 0 1
26.671516 -32.917272 -27.494911 50.506304 -0.889831 2.146453 0.000967 0.010773 -163795.000000 0 0 1
27.543416 -33.990933 -27.540031 51.696002 -0.889796 2.132620 0.005031 0.014005 -727429.000000 0 0 1
28.116316 -34.152603 -26.296921 51.463148 -0.882035 2.107127 0.001048 0.012650 50627.000000 0 0 1
-26.157074 -30.702797 9.736509 41.492817 0.865175 1.333932 -0.000291 0.006474 -293151.000000 0 0 1
-26.077584 -32.055597 10.028609 42.522637 0.887871 1.332712 -0.003206 0.000102 -277958.000000 0 0 1
-24.940384 -32.292897 10.811609 42.210719 0.913164 1.311775 -0.003192 0.002401 -107576.000000 0 0 1
-24.974684 -33.533997 11.638209 43.401748 0.930659 1.299323 0.002838 0.000097 37614.700000 0 0 1
-25.127704 34.415728 10.820109 43.964970 -0.940139 1.322134 0.003706 0.001828 15373.800000 0 0 1
-25.500454 33.382328 11.667409 43.597952 -0.918464 1.299881 0.002095 -0.002997 -83632.900000 0 0 1
-25.456924 31.997228 11.004409 42.343531 -0.898745 1.307894 0.002811 -0.002634 460878.000000 0 0 1
-26.519284 31.918028 10.047009 42.696315 -0.877522 1.333255 0.012353 -0.004065 434432.000000 0 0 1
-26.577654 30.592928 9.463709 41.615631 -0.855516 1.341382 0.016758 -0.003702 -229673.000000 0 0 1
-25.804694 30.399728 8.129909 40.695468 -0.866972 1.369669 0.016577 0.003913 1768590.000000 0 0 1
-24.351484 30.236128 8.259109 39.691700 -0.892785 1.361183 0.012720 0.001052 1954670.000000 0 0 1
-23.697984 30.029028 6.991609 38.887267 -0.902695 1.390022 0.010118 0.004284 753071.000000 0 0 1
-22.260384 29.438328 7.189709 37.600954 -0.923358 1.378401 0.019033 0.005403 479409.000000 0 0 1
-22.245984 27.999728 7.366109 36.512027 -0.899414 1.367657 0.026446 0.001775 148084.000000 0 0 1
-22.478584 27.164728 6.232209 35.805720 -0.879516 1.395849 0.020724 -0.001515 -925863.000000 0 0 1
-22.619184 25.667128 6.611509 34.844526 -0.848437 1.379896 0.014823 0.003155 -519895.000000 0 0 1
-23.758084 25.353828 7.381409 35.521097 -0.817879 1.361467 0.026509 -0.001128 -8065.320000 0 0 1
-23.906284 24.005428 7.709809 34.744958 -0.787467 1.347037 0.033198 -0.005126 -101689.000000 0 0 1
-24.579084 23.089828 6.595809 34.362424 -0.754167 1.377649 0.022390 -0.015139 1243110.000000 0 0 1
-26.026474 23.193928 6.434109 35.450436 -0.727913 1.388289 0.026463 -0.018722 1500580.000000 0 0 1
-26.334354 22.604128 5.167709 35.087747 -0.709323 1.422979 0.024278 -0.018261 5262.810000 0 0 1
-26.112554 23.479628 3.908009 35.333142 -0.732356 1.459965 0.016925 -0.019367 428011.000000 0 0 1
-24.767284 23.972728 3.753809 34.672772 -0.769098 1.462320 0.018108 -0.017174 971616.000000 0 0 1
-24.647084 24.711528 2.545309 34.994527 -0.786704 1.497998 0.012745 -0.009211 228423.000000 0 0 1
-23.305084 25.482428 2.431409 34.617811 -0.829998 1.500503 0.033574 -0.006858 204627.000000 0 0 1
-22.906084 25.992728 1.175009 34.665418 -0.848438 1.536894 0.021087 -0.010183 368325.000000 0 0 1
-21.611484 26.597728 1.308309 34.295875 -0.888461 1.532639 0.025939 -0.013988 441803.000000 0 0 1
-21.038984 27.220628 -0.036291 34.403528 -0.912796 1.571851 0.036812 -0.017283 272511.000000 0 0 1
-20.634984 26.441828 -1.127491 33.559560 -0.908127 1.604399 0.043117 -0.016419 -83419.100000 0 0 1
-19.574384 25.567828 -0.845591 32.211572 -0.917394 1.597050 0.041701 -0.019701 -253143.000000 0 0 1
-19.212884 24.736328 -2.074391 31.389870 -0.910421 1.636929 0.048577 -0.028093 261985.000000 0 0 1
-20.249284 23.774728 -2.168491 31.304529 -0.865308 1.640123 0.039897 -0.024121 435951.000000 0 0 1
-19.929484 22.951228 -3.284491 30.573372 -0.855750 1.678434 0.040058 -0.020755 64948.500000 0 0 1
-21.213084 22.291828 -3.857791 31.012950 -0.810189 1.695512 0.030052 -0.009480 70365.500000 0 0 1
-21.880584 23.196128 -4.702891 32.232553 -0.814574 1.717224 0.034322 -0.000918 -432009.000000 0 0 1
-23.035584 22.662228 -5.280691 32.742944 -0.777228 1.732781 0.028921 -0.004118 -199454.000000 0 0 1
-23.292584 23.241828 -6.681991 33.576421 -0.784307 1.771142 0.018027 0.012590 -101502.000000 0 0 1
-22.392284 22.803628 -7.670391 32.867229 -0.794499 1.806343 0.019393 0.012782 16536.000000 0 0 1
-22.042484 23.785928 -8.614091 33.553599 -0.823423 1.830430 0.022447 0.007545 -367520.000000 0 0 1
-21.279484 23.284028 -9.843891 33.043374 -0.830350 1.873297 0.010510 0.004069 -361424.000000 0 0 1
-21.969484 22.457828 -10.753991 33.206333 -0.796390 1.900596 -0.000809 0.008733 -698327.000000 0 0 1
-21.080984 21.868828 -11.613891 32.519778 -0.803739 1.935993 -0.009785 0.012522 -525629.000000 0 0 1
-21.587584 21.594728 -13.038391 33.201742 -0.785564 1.974364 -0.011048 0.004465 167942.000000 0 0 1
-22.627084 20.626628 -13.171191 33.330511 -0.739182 1.977048 -0.013231 0.005211 261049.000000 0 0 1
-23.044484 20.555028 -14.541091 34.132107 -0.728362 2.010890 0.002007 -0.000552 -294238.000000 0 0 1
-24.205784 19.583628 -14.717791 34.439103 -0.680233 2.012364 0.000436 -0.006276 -532862.000000 0 0 1
-23.824384 18.399828 -15.389291 33.808064 -0.657628 2.043389 -0.003053 -0.008396 -74329.400000 0 0 1
-24.912284 17.544128 -15.704491 34.278993 -0.613563 2.046695 0.033676 -0.012128 -135379.000000 0 0 1
-24.670484 16.479628 -16.842391 34.115642 -0.588918 2.087119 0.043428 -0.013439 13276.500000 0 0 1
-23.660484 15.557128 -16.482291 32.764442 -0.581640 2.097925 0.054945 -0.011801 133532.000000 0 0 1
-23.366584 14.659228 -17.550691 32.694296 -0.560294 2.137450 0.061834 -0.018401 61613.000000 0 0 1
-22.507284 13.435028 -17.127691 31.311908 -0.538151 2.149576 0.057393 -0.011851 -209538.000000 0 0 1
-21.138884 13.712228 -17.011491 30.401783 -0.575442 2.164646 0.057507 -0.016476 -471071.000000 0 0 1
-20.380784 12.544928 -16.923491 29.311365 -0.551758 2.186300 0.055646 -0.010843 -301794.000000 0 0 1
-19.136084 12.718428 -16.036491 28.019942 -0.586592 2.180134 0.044538 -0.008840 15835.400000 0 0 1
-18.233284 13.692328 -16.583891 28.194998 -0.644110 2.199610 0.038059 0.001728 128786.000000 0 0 1
-17.170284 13.861628 -15.672691 27.066522 -0.679178 2.188351 0.042604 0.012862 -219224.000000 0 0 1
-16.236284 15.032728 -16.063191 27.342749 -0.746927 2.198732 0.021476 0.018567 5142.720000 0 0 1
-15.421584 14.729328 -17.205391 27.400800 -0.762442 2.249668 0.033381 0.003836 -300605.000000 0 0 1
-14.594184 15.805228 -17.463691 27.708770 -0.825215 2.252683 0.028768 0.004705 -331440.000000 0 0 1
-13.647584 15.529328 -18.663391 27.852087 -0.849803 2.305126 0.018226 0.001689 372248.000000 0 0 1
-12.603084 14.621128 -18.351591 26.634489 -0.859390 2.330927 0.011468 0.003922 132137.000000 0 0 1
-11.700284 14.441528 -19.433091 26.890508 -0.889877 2.378461 0.007031 0.000095 213662.000000 0 0 1
-10.953184 13.131328 -19.488891 25.927223 -0.875590 2.421397 0.006987 -0.008532 -112112.000000 0 0 1
-11.756084 12.059828 -19.929391 26.092635 -0.798151 2.439967 0.016426 -0.004420 -123953.000000 0 0 1
-11.053184 10.845128 -19.905291 25.219244 -0.775897 2.480448 0.005069 0.010660 -239578.000000 0 0 1
-11.562884 9.784928 -20.914991 25.824058 -0.702305 2.514784 0.010926 0.012225 -90645.200000 0 0 1
-11.098984 9.992028 -22.184991 26.743259 -0.732962 2.549106 0.005370 0.009951 -207251.000000 0 0 1
-11.544584 8.934528 -22.969791 27.216071 -0.658632 2.575455 0.006277 0.028969 10.222300 0 0 1
-11.227284 8.997228 -24.500191 28.412345 -0.675577 2.610606 0.004225 0.015322 -365766.000000 0 0 1
-9.848984 8.892028 -24.787891 28.116013 -0.734380 2.650099 -0.009022 0.013694 -91491.500000 0 0 1
-9.647384 8.500628 -26.177161 29.164644 -0.722293 2.685011 -0.018109 0.003825 -264011.000000 0 0 1
-9.378884 9.735028 -27.125551 30.307256 -0.804029 2.679269 0.006231 -0.000774 -66359.700000 0 0 1
-8.080684 10.281228 -27.230831 30.207934 -0.904672 2.693895 0.005747 -0.000669 6616.270000 0 0 1
-7.679184 11.128528 -26.205041 29.487594 -0.966783 2.665255 -0.006081 0.007756 1087750.000000 0 0 1
-6.156784 11.539328 -26.440241 29.498278 -1.080672 2.682222 -0.003223 0.005626 843219.000000 0 0 1
-5.914184 12.147028 -27.677091 30.798526 -1.117697 2.687478 -0.000788 0.009991 -304084.000000 0 0 1
-4.558784 12.493328 -27.752321 30.774292 -1.220912 2.694718 0.010516 0.000421 -180860.000000 0 0 1
-3.986784 12.591928 -29.216451 32.063252 -1.264168 2.717015 0.010168 -0.003438 -698327.000000 0 0 1
-2.719384 13.152028 -29.233801 32.171198 -1.366904 2.710943 0.025045 -0.012251 -891367.000000 0 0 1
-2.236684 13.091928 -30.569801 33.330377 -1.401585 2.731729 0.026804 -0.010693 648292.000000 0 0 1
-0.707084 12.770428 -30.571161 33.138794 -1.515484 2.745353 0.047572 -0.015020 104441.000000 0 0 1
-0.391484 11.476128 -30.066241 32.184369 -1.536697 2.776772 0.037968 -0.006446 361602.000000 0 0 1
1.002816 11.182528 -30.097371 32.123298 1.481359 2.784545 0.055991 -0.012613 631463.000000 0 0 1
1.499816 10.582428 -31.449601 33.216180 1.430007 2.813988 0.058044 -0.015272 -259077.000000 0 0 1
1.391216 11.495228 -32.522681 34.522464 1.450357 2.799554 0.056669 -0.019470 150296.000000 0 0 1
1.443916 10.697228 -33.672561 35.360387 1.436627 2.831377 0.060529 -0.020767 -51458.100000 0 0 1
1.556216 11.623128 34.057910 36.020274 1.437698 0.331606 0.049641 -0.018387 -700221.000000 0 0 1
2.793016 12.253528 33.904884 36.159245 1.346689 0.354977 0.054470 -0.023219 -558097.000000 0 0 1
2.851216 12.991828 32.728783 35.328321 1.354759 0.386012 0.053977 -0.014102 -565829.000000 0 0 1
4.267116 13.286028 32.269103 35.157102 1.260030 0.408156 0.058411 -0.011768 -582833.000000 0 0 1
4.943016 12.103628 31.845343 34.424658 1.183077 0.389567 0.041118 -0.017112 -48767.600000 0 0 1
6.266516 12.468228 31.506393 34.458362 1.105072 0.416940 0.049763 -0.009106 445092.000000 0 0 1
7.266416 11.294928 31.210253 33.977288 0.999121 0.406369 0.023760 -0.003639 347624.000000 0 0 1
6.981416 10.708028 29.948423 32.562403 0.993031 0.403420 0.021228 -0.008316 439671.000000 0 0 1
8.002016 9.790728 29.531733 32.124973 0.885592 0.404558 0.022110 -0.005029 425310.000000 0 0 1
7.500216 8.984628 28.324443 30.647200 0.875203 0.391835 0.016711 -0.003434 -24779.400000 0 0 1
6.713016 7.893028 28.709243 30.521879 0.866012 0.346368 0.020835 -0.006330 -523044.000000 0 0 1
6.113316 7.218328 27.643393 29.217017 0.868096 0.329698 0.043009 -0.007048 -92199.100000 0 0 1
5.262716 6.034628 28.243753 29.356813 0.853619 0.276250 0.057338 -0.021511 396023.000000 0 0 1
6.036616 4.999128 28.824513 29.871132 0.691662 0.265497 0.027052 -0.015776 145748.000000 0 0 1
5.229716 4.409728 29.832343 30.606606 0.700537 0.225409 0.036328 -0.018413 228592.000000 0 0 1
5.858616 3.167228 30.545493 31.263107 0.495606 0.214674 0.041771 -0.013654 171246.000000 0 0 1
5.840316 1.967328 29.814563 30.444833 0.324915 0.203833 0.036090 -0.006703 1065120.000000 0 0 1
7.044316 1.820428 28.984503 29.883737 0.252892 0.245940 0.033042 -0.000565 1164630.000000 0 0 1
7.158216 0.400828 28.286103 29.180547 0.055937 0.248234 0.028100 -0.002924 33995.700000 0 0 1
7.367016 -0.707072 29.146463 30.071401 -0.095685 0.248665 0.010327 -0.003055 -44788.100000 0 0 1
7.397016 -1.918972 28.389463 29.399998 -0.253830 0.262947 0.012505 0.003825 -267703.000000 0 0 1
8.008716 -3.096072 29.273113 30.506398 -0.368891 0.285316 0.016177 0.007598 825674.000000 0 0 1
9.406116 -3.049572 29.585353 31.194038 -0.313519 0.322551 0.016055 0.002717 391574.000000 0 0 1
10.193516 -3.693172 28.610423 30.595810 -0.347596 0.362229 0.019313 0.008313 -905378.000000 0 0 1
11.641316 -3.739172 29.086693 31.552137 -0.310790 0.397940 0.021771 -0.000260 -263732.000000 0 0 1
12.481316 -4.784272 28.630623 31.597232 -0.366040 0.436796 0.030936 -0.002444 291177.000000 0 0 1
12.346816 -5.930572 29.507023 32.531215 -0.447790 0.434603 0.032933 -0.000193 -608550.000000 0 0 1
11.658416 -7.157572 28.860723 31.938861 -0.550607 0.442640 0.030655 0.008482 225310.000000 0 0 1
10.265616 -6.860172 28.971313 31.492567 -0.589110 0.402866 0.020134 0.009507 56483.700000 0 0 1
9.459016 -7.950972 28.574653 31.132005 -0.698994 0.408155 0.009422 0.005271 197497.000000 0 0 1
7.949216 -7.639472 28.592783 30.644719 -0.765531 0.368021 0.011879 0.005102 179543.000000 0 0 1
7.359316 -7.598872 29.898803 31.714993 -0.801412 0.340062 0.012611 0.008234 -167944.000000 0 0 1
5.963516 -7.460972 29.814073 31.306686 -0.896486 0.310035 0.001359 0.012278 -135047.000000 0 0 1
5.340116 -6.841172 31.070383 32.259683 -0.908006 0.272379 -0.003760 0.012340 -122921.000000 0 0 1
5.520116 -7.536072 32.254203 33.579721 -0.938595 0.281909 -0.005898 0.016358 -40661.600000 0 0 1
4.917516 -6.904672 33.362356 34.422424 -0.951928 0.248818 -0.004322 0.004661 28572.100000 0 0 1
5.514116 -5.563172 33.934273 34.826559 -0.789827 0.226852 0.008956 -0.001056 -75756.100000 0 0 1
5.503716 -4.528772 32.955228 33.717172 -0.688524 0.212996 0.007713 0.007281 -337826.000000 0 0 1
6.320716 -3.513072 33.418771 34.192212 -0.507288 0.213102 0.013888 -0.000176 -335433.000000 0 0 1
6.353716 -2.271172 32.497803 33.190889 -0.343301 0.204719 0.018431 0.000856 -57732.900000 0 0 1
5.079116 -1.670672 32.497373 32.934295 -0.317782 0.163070 0.015466 -0.001003 -198933.000000 0 0 1
5.087516 -0.490672 31.719383 32.128536 -0.096149 0.159762 0.019539 -0.002157 597040.000000 0 0 1
3.644316 0.062328 31.476043 31.686373 0.017101 0.115284 0.030329 -0.005880 392976.000000 0 0 1
2.996216 0.487628 32.606593 32.747595 0.161333 0.092831 0.026939 -0.012248 -1717670.000000 0 0 1
1.777916 1.036028 32.294583 32.360075 0.527617 0.063632 0.039566 -0.013211 -770424.000000 0 0 1
1.003516 1.207528 33.664795 33.701388 0.877407 0.046605 0.035288 -0.019849 88060.800000 0 0 1
1.449716 2.304728 34.450127 34.557556 1.009313 0.078871 0.031594 -0.014945 -228186.000000 0 0 1
0.693616 2.336528 -33.322691 33.411708 1.282225 3.068580 0.022191 -0.011799 -229647.000000 0 0 1
1.120516 3.390328 -32.321221 32.517860 1.251595 3.031564 0.024387 -0.007182 73011.000000 0 0 1
2.210516 2.970528 -31.518331 31.735085 0.931050 3.024649 0.022396 -0.004790 -345308.000000 0 0 1
2.891816 4.088428 -31.020491 31.422105 0.955176 2.981539 0.028359 -0.008419 -44790.100000 0 0 1
3.993316 3.721128 -29.988721 30.481416 0.750130 2.961551 0.037167 -0.007026 -442797.000000 0 0 1
3.540516 3.085928 -28.843701 29.223574 0.716903 2.980179 0.043753 -0.012092 -703684.000000 0 0 1
4.558316 2.888528 -27.954551 28.470665 0.564819 2.950894 0.049049 -0.014386 -768774.000000 0 0 1
4.061216 2.098928 -26.726461 27.114621 0.477015 2.972183 0.049312 -0.016871 120666.000000 0 0 1
4.246016 0.688528 -26.816661 27.159456 0.160759 2.982544 0.049793 -0.018443 193923.000000 0 0 1
3.620816 0.063128 -25.707231 25.961048 0.017433 3.001644 0.057623 -0.016810 -90377.400000 0 0 1
3.961416 -1.411372 -25.633581 25.976244 -0.342258 2.978986 0.050982 -0.013482 -105980.000000 0 0 1
5.315416 -1.547872 -25.292611 25.891422 -0.283368 2.926105 0.041185 -0.015644 -343834.000000 0 0 1
5.729516 -2.896072 -25.191881 25.997028 -0.468010 2.892065 0.040981 -0.013311 -427002.000000 0 0 1
7.121516 -3.192572 -24.620891 25.828217 -0.421439 2.834629 0.037697 -0.016611 -221809.000000 0 0 1
8.109016 -2.582672 -25.410411 26.797674 -0.308336 2.818418 0.022575 -0.011012 -388011.000000 0 0 1
9.366416 -3.171172 -25.111871 26.988741 -0.326455 2.766455 0.014056 -0.003258 143866.000000 0 0 1
-28.825074 -4.836072 18.178783 34.420062 0.166225 1.014382 0.053101 -0.003805 6079.300000 0 0 1
-30.165544 -4.591572 18.527183 35.697326 0.151053 1.025107 0.046045 0.000199 -258716.000000 0 0 1
-30.725294 -5.619372 19.335783 36.735454 0.180892 1.016492 0.041180 -0.004215 76321.400000 0 0 1
-32.216444 -5.377372 19.605383 38.094441 0.165389 1.030195 0.041072 -0.000836 142844.000000 0 0 1
-33.142304 -5.569472 18.537383 38.380541 0.166492 1.066731 0.034220 0.006009 39153.100000 0 0 1
-34.447161 -5.316772 18.984883 39.690059 0.153137 1.072046 0.030669 0.003584 196018.000000 0 0 1
35.278998 -5.281072 17.792783 39.863273 -0.148591 1.108119 0.029957 0.002056 1576010.000000 0 0 1
33.923542 -5.188672 18.303983 38.894277 -0.151776 1.080816 0.013056 0.006243 805792.000000 0 0 1
33.042822 -5.139472 17.205683 37.606885 -0.154303 1.095599 0.021835 0.003361 -172382.000000 0 0 1
31.564192 -5.407072 17.508983 36.497933 -0.169657 1.070455 0.029604 0.008185 -345358.000000 0 0 1
31.003872 -4.519372 18.431683 36.350953 -0.144749 1.039040 0.029845 0.008743 87355.500000 0 0 1
29.735632 -4.937972 18.887283 35.571349 -0.164561 1.011053 0.026098 0.003055 78257.300000 0 0 1
29.267912 -4.162672 20.141983 35.772028 -0.141279 0.972706 0.024107 0.006148 -100750.000000 0 0 1
28.406682 -3.037772 20.080183 34.919642 -0.106534 0.958144 0.032880 0.006260 180108.000000 0 0 1
29.001222 -1.861772 19.594583 35.049747 -0.064108 0.977556 0.031821 0.008713 -280379.000000 0 0 1
28.202142 -0.614372 19.926083 34.536749 -0.021781 0.955803 0.038610 0.000148 -224334.000000 0 0 1
28.873242 0.575328 19.509383 34.851272 0.019923 0.976664 0.045825 -0.005779 594803.000000 0 0 1
28.096292 1.755328 19.830383 34.434385 0.062394 0.957105 0.054673 -0.008137 604416.000000 0 0 1
28.573822 3.023528 19.013483 34.454572 0.105422 0.986225 0.040402 -0.012241 -183128.000000 0 0 1
28.282522 2.863428 17.661083 33.466612 0.100900 1.014879 0.057403 -0.012542 58944.900000 0 0 1
28.360682 4.042228 16.945283 33.283787 0.141576 1.036640 0.054739 -0.012782 -64281.500000 0 0 1
27.855892 3.832228 15.518483 32.116351 0.136715 1.066495 0.058730 -0.012433 -139602.000000 0 0 1
27.583162 5.048428 14.874983 31.742441 0.181022 1.083074 0.062769 -0.018420 267323.000000 0 0 1
26.914032 4.815428 13.639283 30.554599 0.177046 1.108069 0.058706 -0.011531 31195.600000 0 0 1
26.203362 6.051528 13.061183 29.897018 0.226965 1.118678 0.060645 -0.009354 -321469.000000 0 0 1
25.147292 6.497628 13.854183 29.437117 0.252853 1.080784 0.037770 -0.013213 157907.000000 0 0 1
24.467092 7.646928 13.275583 28.867892 0.302921 1.092943 0.042882 -0.019568 123140.000000 0 0 1
23.230292 8.198328 14.039383 28.354247 0.339270 1.052798 0.030539 -0.017636 750878.000000 0 0 1
21.974192 7.516928 14.024583 27.130393 0.329602 1.027533 0.038164 -0.012436 853889.000000 0 0 1
21.975692 6.215628 14.527783 27.066983 0.275641 1.004234 0.036608 -0.014036 -1747380.000000 0 0 1
20.708092 5.539228 14.096183 25.655613 0.261372 0.989104 0.039284 -0.015514 -970005.000000 0 0 1
20.500492 5.472728 12.715783 24.736856 0.260872 1.030906 0.027691 -0.016102 454693.000000 0 1 0
19.333892 4.753028 12.370083 23.439488 0.241059 1.014852 0.030336 -0.016534 -393325.000000 0 1 0
19.184292 4.585728 10.802683 22.489196 0.234633 1.069743 0.034486 -0.017023 -152708.000000 0 1 0
20.175592 3.740428 10.227283 22.926898 0.183312 1.108413 0.029655 -0.018053 824726.000000 0 1 0
19.886092 3.554528 8.856883 22.057554 0.176876 1.157604 0.035201 -0.019256 -944527.000000 0 1 0
21.037192 2.863728 8.210683 22.763561 0.135295 1.201784 0.047214 -0.019372 -2126270.000000 0 1 0
21.170592 1.492428 8.591683 22.896251 0.070379 1.186136 0.046481 -0.019673 -201257.000000 0 1 0
22.034692 0.833928 7.763383 23.377194 0.037828 1.232276 0.039716 -0.013400 -221905.000000 0 1 0
23.584492 1.167128 7.890583 24.896822 0.049447 1.248304 0.050102 -0.017174 423756.000000 0 1 0
24.222992 0.685328 9.071583 25.875020 0.028285 1.212593 0.054926 -0.011283 464476.000000 0 0 1
23.981692 1.473228 10.246183 26.120418 0.061354 1.167701 0.048792 -0.009057 -836797.000000 0 0 1
24.823992 1.132628 11.464683 27.366994 0.045595 1.138537 0.046842 -0.008155 -586253.000000 0 0 1
26.207442 1.298328 11.337683 28.584239 0.049500 1.162941 0.063317 -0.008972 -129254.000000 0 0 1
26.903182 0.577728 12.378283 29.619873 0.021471 1.139659 0.049167 -0.009800 -376113.000000 0 0 1
28.417972 0.570928 12.241483 30.947714 0.020088 1.164126 0.064321 -0.001879 -606968.000000 0 0 1
28.988452 1.767328 12.696683 31.696365 0.060891 1.158655 0.059220 -0.001586 626036.000000 0 0 1
30.415452 1.652028 12.699483 33.001603 0.054262 1.175790 0.048024 0.001703 628653.000000 0 0 1
31.163342 2.820628 13.328583 34.011189 0.090265 1.168113 0.053040 -0.000927 -538256.000000 0 0 1
31.050712 3.953428 12.475083 33.695757 0.126640 1.191543 0.048645 -0.002147 470021.000000 0 0 1
31.862332 5.070528 12.877783 34.738390 0.157815 1.191026 0.036988 -0.009872 372057.000000 0 0 1
33.318472 5.035528 12.375383 35.897454 0.149998 1.218832 0.036195 -0.001799 54802.600000 0 0 1
34.159442 4.072628 13.022583 36.783712 0.118664 1.208918 0.036589 -0.000642 911079.000000 0 0 1
-35.264531 4.134328 12.565183 37.663824 -0.116705 1.230662 0.035155 0.002498 755254.000000 0 0 1
-34.272935 3.105128 13.183683 36.852210 -0.090353 1.204945 0.031100 0.006009 -723832.000000 0 0 1
-34.355028 1.757328 12.799283 36.703921 -0.051107 1.214594 0.025747 0.007227 -156947.000000 0 0 1
35.231280 1.049728 13.062683 37.589609 0.029787 1.215884 0.033518 0.010431 -96956.300000 0 0 1
34.715092 0.954628 14.516583 37.640140 0.027492 1.174865 0.027523 0.013746 -336095.000000 0 0 1
-35.257175 0.060428 15.300883 38.434217 -0.001714 1.161345 0.018758 0.013840 384301.000000 0 0 1
35.133318 -0.118972 16.647283 38.877966 -0.003386 1.128304 0.017307 0.004152 -397519.000000 0 0 1
-34.762036 -1.185372 17.360283 38.873946 0.034086 1.107858 0.015885 0.002270 656353.000000 0 0 1
-33.439364 -0.754572 17.692883 37.839114 0.022562 1.084243 0.023291 -0.002103 691252.000000 0 0 1
-32.619934 -1.719872 18.364683 37.473719 0.052676 1.058628 0.013031 0.000498 419369.000000 0 0 1
-32.651024 -1.490572 19.899783 38.266337 0.045620 1.023906 0.025178 0.000336 234457.000000 0 0 1
-33.880294 -1.797072 20.555583 39.669078 0.052992 1.026079 0.030886 -0.006420 265749.000000 0 0 1
-33.721914 -1.575072 21.987983 40.287960 0.046674 0.993488 0.034979 -0.000049 250047.000000 0 0 1
-34.162809 -2.825872 22.799983 41.169434 0.082530 0.983865 0.033541 0.005828 49621.600000 0 0 1
-33.315754 -3.927772 22.552483 40.422535 0.117354 0.978921 0.045698 -0.003544 -25115.700000 0 0 1
-33.582044 -5.097972 23.363683 41.226262 0.150656 0.968279 0.054687 -0.004923 4498.470000 0 0 1
-33.604554 -5.017872 24.905313 42.127422 0.148226 0.938263 0.051515 -0.007862 -958552.000000 0 0 1
-32.413914 -4.525472 25.346213 41.395317 0.138718 0.911834 0.056499 -0.014216 -1342110.000000 0 0 1
-32.371804 -4.480472 26.701473 42.201623 0.137533 0.885746 0.061789 -0.018335 214490.000000 0 0 1
-31.214894 -3.691572 27.378933 41.684569 0.117716 0.854213 0.045477 -0.016398 270894.000000 0 0 1
-31.381604 -2.246372 27.300973 41.655665 0.071461 0.856089 0.042994 -0.011363 -155915.000000 0 0 1
-30.872024 -1.722372 26.091053 40.457280 0.055733 0.869899 0.042771 -0.016995 -166921.000000 0 0 1
-30.992364 -0.213472 25.891803 40.385117 0.006888 0.874836 0.035574 -0.008657 581817.000000 0 0 1
-32.346824 0.128828 25.558513 41.225856 -0.003983 0.902101 0.038889 -0.015087 528068.000000 0 0 1
-32.437004 1.507128 25.235113 41.124708 -0.046430 0.910154 0.024576 -0.005989 -708426.000000 0 0 1
-33.836194 1.901728 24.822273 42.007735 -0.056145 0.938625 0.013062 -0.007010 -600104.000000 0 0 1
-34.291306 1.305628 23.604683 41.650683 -0.038056 0.968265 0.006741 0.000635 368664.000000 0 0 1
-35.369592 1.972928 22.918983 42.192183 -0.055723 0.996547 0.014135 0.009018 521127.000000 0 0 1
-35.080529 3.334428 22.331383 41.718732 -0.094766 1.005952 0.012430 0.002719 99678.900000 0 0 1
-34.188415 3.394128 21.203783 40.372865 -0.098953 1.017848 0.012927 -0.003166 81836.000000 0 0 1
-34.799505 2.981128 19.998883 40.247335 -0.085457 1.050774 0.017293 0.000190 -113082.000000 0 0 1
-33.884744 2.203828 19.024483 38.922534 -0.064947 1.060108 0.007202 0.001556 -315841.000000 0 0 1
-32.993894 2.998728 18.298983 37.847618 -0.090638 1.066158 0.015922 -0.001979 -316214.000000 0 0 1
-32.645444 2.240428 17.172683 36.954642 -0.068522 1.087505 0.030672 -0.000101 -386744.000000 0 0 1
-31.660404 3.083528 16.342783 35.762772 -0.097088 1.096202 0.030940 -0.001809 22409.100000 0 0 1
-32.242634 4.317328 15.842983 36.183240 -0.133109 1.117586 0.028515 -0.006970 564621.000000 0 0 1
-31.437364 4.960028 14.823283 35.108965 -0.156485 1.134917 0.032348 0.000369 149781.000000 0 0 1
-31.965434 6.363928 14.459383 35.656168 -0.196518 1.153246 0.043266 -0.000295 -181919.000000 0 0 1
-31.261974 6.949028 13.430583 34.727231 -0.218728 1.173697 0.047105 0.006627 -110461.000000 0 0 1
-31.723934 8.295028 13.154183 35.330553 -0.255750 1.189292 0.053936 0.006229 82147.900000 0 0 1
-31.145364 8.966928 11.908083 34.528857 -0.280325 1.218692 0.047800 0.006328 -98344.600000 0 0 1
-31.516024 10.376828 11.864883 35.237959 -0.318076 1.227378 0.043473 0.016966 211758.000000 0 0 1
-30.843354 11.111428 10.864483 34.537129 -0.345780 1.250788 0.039811 0.009767 -172581.000000 0 0 1
-31.101694 12.645528 10.876783 35.292055 -0.386171 1.257503 0.031240 0.015141 109236.000000 0 0 1
-30.285704 13.330028 9.945483 34.551789 -0.414626 1.278823 0.030419 0.008834 273144.000000 0 0 1
-30.375874 14.710828 10.207483 35.260387 -0.451003 1.277104 0.016153 0.011322 -68442.800000 0 0 1
-29.697154 15.538628 9.081983 34.725384 -0.482063 1.306182 0.020552 0.003239 -71434.900000 0 0 1
-28.299374 15.618228 9.228683 33.614762 -0.504295 1.292682 0.030613 0.004078 -87704.900000 0 0 1
-27.811944 16.720328 8.481883 33.541257 -0.541296 1.315141 0.029105 -0.011880 74144.600000 0 0 1
-26.318654 17.037028 8.728983 32.544232 -0.574501 1.299252 0.045812 -0.010305 30973.800000 0 0 1
-26.037314 17.603028 10.024783 32.989462 -0.594484 1.262035 0.035022 -0.003957 63579.800000 0 0 1
-26.307684 18.960928 10.273283 34.016928 -0.624508 1.264001 0.043394 -0.011165 -226040.000000 0 0 1
-26.290544 19.207928 11.792283 34.629397 -0.630970 1.223318 0.047671 -0.006414 833560.000000 0 0 1
-24.994484 19.032128 12.409683 33.777897 -0.650791 1.194594 0.038724 0.001174 905699.000000 0 0 1
-24.928284 19.522828 13.751383 34.520439 -0.664388 1.161074 0.043872 -0.007063 -62211.100000 0 0 1
-25.318614 18.566928 14.864383 34.737773 -0.632747 1.128625 0.032784 -0.005392 293630.000000 0 0 1
-24.316984 17.590828 15.185783 33.635709 -0.626257 1.102375 0.040274 -0.002380 678312.000000 0 0 1
-24.825184 16.803628 16.275783 34.110889 -0.595039 1.073395 0.036709 0.005525 534754.000000 0 0 1
-23.843284 15.668228 16.787183 33.102947 -0.581374 1.038956 0.045188 0.002153 730699.000000 0 0 1
-22.742184 16.147428 17.559583 32.958843 -0.617420 1.008922 0.046505 0.000928 704489.000000 0 0 1
-21.752784 15.118728 17.803383 31.917393 -0.607379 0.979069 0.030225 0.006715 558671.000000 0 0 1
-22.102384 14.067928 18.900883 32.305810 -0.566819 0.945841 0.037944 -0.005052 -410606.000000 0 0 1
-22.024984 14.646328 20.191283 33.276159 -0.586839 0.918794 0.041938 -0.017257 154095.000000 0 0 1
-22.260884 13.634628 21.145183 33.594178 -0.549555 0.889977 0.036620 -0.018344 -582108.000000 0 0 1
-21.790584 14.107228 22.510683 34.359486 -0.574545 0.856413 0.043789 -0.010901 -567870.000000 0 0 1
-20.428484 14.095228 22.812483 33.710648 -0.603969 0.827505 0.052268 -0.016593 -530180.000000 0 0 1
-19.924984 15.431328 22.528783 33.803505 -0.658980 0.841342 0.042799 -0.010609 -433616.000000 0 0 1
-18.405184 15.584428 22.676983 33.103939 -0.702599 0.816160 0.041508 -0.014378 -280772.000000 0 0 1
-17.525784 15.014228 21.779083 31.731823 -0.708367 0.814340 0.029851 -0.014436 -475633.000000 0 0 1
-17.413684 15.702828 20.528383 31.164558 -0.733782 0.851694 0.034448 -0.005993 -2217420.000000 0 0 1
-16.419184 14.949028 19.597983 29.616616 -0.738565 0.847682 0.030000 0.002119 604824.000000 0 0 1
-15.119184 14.806128 20.137683 29.211940 -0.774937 0.810184 0.029529 0.002143 282491.000000 0 0 1
-14.457584 15.987928 20.563983 29.791156 -0.835621 0.808932 0.009757 -0.002681 -2226970.000000 0 0 1
-13.409184 15.834628 21.652983 29.989887 -0.868147 0.764094 -0.020050 0.009226 -552936.000000 0 0 1
-12.360984 15.038228 21.174083 28.762545 -0.882801 0.743405 -0.000343 0.014867 -703371.000000 0 0 1
-11.553184 14.625628 22.264083 29.035744 -0.902227 0.696984 0.015130 0.019052 685184.000000 0 0 1
-10.261084 13.859928 21.811383 27.805105 -0.933505 0.669007 0.008162 0.017088 -686709.000000 0 0 1
-9.890884 12.831728 22.656083 27.852844 -0.914106 0.620787 0.012345 0.010239 20621.000000 0 0 1
-8.714184 12.130628 22.328183 26.863300 -0.947853 0.589573 0.012418 0.017917 -764531.000000 0 0 1
-7.391284 12.821628 22.418783 26.863117 -1.047858 0.583469 0.000057 0.021278 -1780300.000000 0 0 1
-7.123284 13.643328 21.278183 26.261048 -1.089620 0.626207 -0.004931 0.020166 -387790.000000 0 0 1
-6.265784 14.741828 21.516183 26.824013 -1.168897 0.639953 -0.009354 0.027348 118222.000000 0 0 1
-6.872984 15.973228 22.378883 28.340718 -1.164461 0.660579 -0.001919 0.011379 227619.000000 0 0 1
-7.886084 16.690028 21.717083 28.502264 -1.129387 0.704489 -0.021318 0.012191 -395796.000000 0 0 1
-7.352584 17.745628 20.962883 28.432556 -1.177996 0.741754 -0.005569 0.023017 -414951.000000 0 0 1
-8.272184 18.272928 19.782483 28.172248 -1.145698 0.792317 -0.005253 0.029212 1108800.000000 0 0 1
-9.420884 19.066028 20.025283 29.210930 -1.111865 0.815450 -0.002737 0.020793 271712.000000 0 0 1
-10.417584 18.468128 20.855083 29.741087 -1.057204 0.793687 -0.000875 0.021248 -601547.000000 0 0 1
-11.711284 19.268928 21.020783 30.827246 -1.024675 0.820453 -0.010644 0.013355 -210007.000000 0 0 1
-12.571484 19.141928 19.918483 30.351303 -0.989690 0.854939 -0.010534 0.019820 88857.400000 0 0 1
-13.773384 19.877428 20.129483 31.464493 -0.964841 0.876620 -0.019384 0.009282 741890.000000 0 0 1
-14.768684 19.869028 18.908783 31.151796 -0.931596 0.918531 -0.000603 0.011801 6271.690000 0 0 1
-15.458384 18.691328 18.612583 30.573773 -0.879787 0.916279 0.012773 0.010079 6201.740000 0 0 1
-16.104884 18.764628 17.379283 30.224461 -0.861528 0.958183 0.026155 0.007850 -753076.000000 0 0 1
-16.889984 17.499528 16.928683 29.632505 -0.803121 0.962723 0.027819 -0.000470 517943.000000 0 0 1
-17.971884 17.051328 17.720983 30.459311 -0.759120 0.949866 0.036696 -0.001088 906989.000000 0 0 1
-19.145884 17.911428 17.654783 31.608155 -0.752098 0.978158 0.042446 -0.001587 421264.000000 0 0 1
33.235132 -9.750172 11.917009 36.628609 -0.285363 1.239418 0.052914 -0.014946 -151195.000000 0 0 1
31.856622 -10.018572 11.910709 35.455340 -0.304696 1.228198 0.034630 -0.009424 -341720.000000 0 0 1
31.509492 -11.158172 12.649809 35.740321 -0.340341 1.209019 0.057535 -0.005229 -723293.000000 0 0 1
30.050462 -11.457172 12.402509 34.469106 -0.364251 1.202726 0.024355 0.002912 -995026.000000 0 0 1
29.154212 -10.382972 12.702009 33.453180 -0.342134 1.181330 0.023280 -0.005033 1550130.000000 0 0 1
27.734872 -10.682972 12.699509 32.320683 -0.367667 1.166989 0.016234 0.001164 1743960.000000 0 0 1
27.199412 -11.717672 13.782909 32.666197 -0.406778 1.135221 -0.005576 0.008089 -721443.000000 0 0 1
27.409012 -11.202372 15.075209 33.226631 -0.387993 1.099874 -0.001747 0.005472 -21646.700000 0 0 1
27.169892 -12.008372 16.205909 33.838374 -0.416159 1.071371 -0.000731 0.002117 449188.000000 0 0 1
25.681092 -11.844572 16.684609 32.835782 -0.432143 1.037792 -0.000793 -0.006938 707612.000000 0 0 1
25.359792 -10.528072 17.074209 32.334006 -0.393497 1.014485 -0.003337 -0.009738 -334737.000000 0 0 1
24.741392 -9.804172 16.077809 31.092671 -0.377283 1.027345 0.009259 -0.008434 -590277.000000 0 0 1
24.432092 -8.381872 16.370509 30.580655 -0.330486 1.005907 0.008461 -0.006017 704972.000000 0 0 1
25.587192 -7.519372 16.291009 31.251277 -0.285826 1.022433 0.011170 -0.001850 747475.000000 0 0 1
25.157292 -6.170472 16.323109 30.617119 -0.240527 1.008493 0.013367 -0.000985 -337632.000000 0 0 1
26.319842 -5.190472 16.415509 31.450660 -0.194709 1.021667 0.029027 0.001508 -392450.000000 0 0 1
26.854762 -4.956472 15.149409 31.228984 -0.182512 1.064310 0.033782 0.000631 -464322.000000 0 0 1
28.041952 -4.239672 15.177709 32.166578 -0.150054 1.079412 0.033739 0.001237 -527644.000000 0 0 1
28.387002 -3.514372 13.856009 31.783041 -0.123175 1.119696 0.040319 -0.002191 238269.000000 0 0 1
28.902842 -4.325972 12.728309 31.876295 -0.148570 1.160040 0.027792 -0.004815 589602.000000 0 0 1
28.904802 -3.560472 11.489509 31.307721 -0.122562 1.195029 0.042761 -0.012045 153708.000000 0 0 1
29.522812 -4.358772 10.264409 31.558730 -0.146582 1.239523 0.047029 -0.010734 720553.000000 0 0 1
30.919762 -4.649672 10.335909 32.931477 -0.149260 1.251539 0.050359 -0.009673 710660.000000 0 0 1
31.244952 -5.633972 9.385209 33.106960 -0.178399 1.283374 0.054562 -0.016041 -24773.200000 0 0 1
32.670772 -6.208972 9.503409 34.586782 -0.187807 1.292446 0.046864 -0.015539 689322.000000 0 0 1
33.772632 -5.346972 9.166409 35.400619 -0.157019 1.308878 0.048584 -0.011624 1104910.000000 0 0 1
34.957147 -6.075072 8.819109 36.560707 -0.172068 1.327175 0.043781 -0.021282 1459900.000000 0 0 1
-34.625643 -5.174972 8.286609 35.977540 0.148357 1.338382 0.033115 -0.020260 868768.000000 0 0 1
-34.721065 -4.759772 6.945709 35.727450 0.136237 1.375142 0.035591 -0.023558 581.617000 0 0 1
-33.573164 -4.005972 6.674709 34.463849 0.118759 1.375892 0.015350 -0.007809 -267737.000000 0 0 1
-33.867344 -3.300172 5.354609 34.446480 0.097137 1.414716 0.026482 -0.020564 -24484.900000 0 0 1
-33.115524 -3.898972 4.309509 33.621597 0.117199 1.442266 0.028700 -0.020798 371893.000000 0 0 1
-33.507554 -3.286672 3.043109 33.805605 0.097775 1.480656 0.015585 -0.017277 126647.000000 0 0 1
-32.718714 -3.896772 1.882709 33.003692 0.118541 1.513720 0.026851 -0.018934 163341.000000 0 0 1
-33.302514 -5.108772 1.414109 33.721754 0.152218 1.528849 0.038296 -0.009037 152944.000000 0 0 1
-34.326613 -4.946372 0.444809 34.684014 0.143112 1.557971 0.031410 -0.011047 -318454.000000 0 0 1
-33.872824 -5.169772 -1.012991 34.280037 0.151454 1.600351 0.053801 -0.012019 -1002750.000000 0 0 1
-33.688044 -6.543072 -1.420991 34.346984 0.191837 1.612180 0.057649 -0.019030 634257.000000 0 0 1
-32.910594 -6.729372 -2.648891 33.695820 0.201694 1.649489 0.053573 -0.012053 596026.000000 0 0 1
-31.400114 -6.386972 -2.485091 32.139326 0.200668 1.648196 0.047400 -0.012876 -129761.000000 0 0 1
-30.749784 -7.349272 -1.652591 31.658997 0.234602 1.623020 0.051294 -0.016128 255961.000000 0 0 1
-29.810984 -6.746972 -0.751091 30.574181 0.222575 1.595365 0.034628 -0.022815 194929.000000 0 0 1
-29.365174 -7.771272 0.291509 30.377477 0.258712 1.561200 0.021326 -0.016181 -343650.000000 0 0 1
-28.630364 -8.811272 -0.246291 29.956584 0.298560 1.579018 0.023435 -0.012203 146927.000000 0 0 1
-28.290244 -9.785172 0.688309 29.942633 0.333004 1.547807 0.028650 -0.013737 -235495.000000 0 0 1
-27.865124 -11.091672 0.072909 29.991593 0.378823 1.568365 0.020136 -0.008802 -232843.000000 0 0 1
-26.613044 -11.049272 -0.596191 28.821797 0.393526 1.591483 0.016757 -0.009660 445934.000000 0 0 1
-26.193774 -12.307372 -1.147391 28.963800 0.439245 1.610421 0.015484 -0.001881 205313.000000 0 0 1
-27.116044 -13.122172 -2.157091 30.201396 0.450706 1.642281 0.009204 -0.001444 -221124.000000 0 0 1
-28.158264 -13.892472 -1.626691 31.440972 0.458330 1.622557 0.021676 -0.004968 172610.000000 0 0 1
-28.458204 -14.992672 -2.507291 32.263542 0.484882 1.648588 0.017022 -0.007142 355551.000000 0 0 1
-29.344794 -16.110772 -1.817291 33.525758 0.502088 1.625029 0.023645 -0.011948 502787.000000 0 0 1
-28.578404 -16.746672 -0.805691 33.133448 0.530055 1.595115 0.010700 -0.006605 255840.000000 0 0 1
-29.337424 -17.484172 0.117409 34.152518 0.537450 1.567359 0.004795 -0.001698 -180971.000000 0 0 1
-29.688104 -18.964872 -0.123591 35.228755 0.568464 1.574305 0.008934 -0.005755 -202356.000000 0 0 1
-28.637624 -19.876272 0.096309 34.859561 0.606729 1.568034 0.018852 -0.014117 -28919.700000 0 0 1
-28.999384 -21.237372 0.067609 35.944330 0.632102 1.568915 0.031227 -0.017579 -66547.700000 0 0 1
-29.811924 -21.762572 1.288809 36.932660 0.630575 1.535893 0.036941 -0.015260 -153323.000000 0 0 1
-29.092494 -22.041172 2.462509 36.582105 0.648363 1.503431 0.034340 -0.022433 121701.000000 0 0 1
-29.947154 -22.607572 3.440009 37.679809 0.646640 1.479373 0.028699 -0.018795 27742.600000 0 0 1
-29.159524 -22.741972 4.737309 37.281594 0.662374 1.443384 0.016970 -0.014375 -105811.000000 0 0 1
-28.884374 -21.496572 5.359609 36.402405 0.639797 1.423027 -0.002696 -0.011733 43407.300000 0 0 1
-27.898784 -21.529272 6.373809 35.811690 0.657240 1.391862 -0.000405 -0.009125 -46881.400000 0 0 1
-27.539974 -20.177772 6.976609 34.846316 0.632319 1.369223 -0.004101 -0.002140 202426.000000 0 0 1
-26.612004 -20.234572 8.056609 34.388161 0.650095 1.334314 -0.000491 -0.000901 -73611.300000 0 0 1
-26.262664 -18.981572 8.542409 33.511198 0.625838 1.313040 0.003829 -0.000379 -529513.000000 0 0 1
-25.206544 -19.068772 9.590809 33.029859 0.647649 1.276185 0.013568 0.004039 -877484.000000 0 0 1
-25.675154 -19.777672 10.716609 34.135254 0.656369 1.251451 0.003458 -0.000302 185154.000000 0 0 1
-24.662684 -20.241372 11.636809 33.961397 0.687253 1.221062 0.014674 0.002002 140321.000000 0 0 1
-24.281784 -19.150872 12.655209 33.414297 0.667808 1.182366 0.007583 0.002814 -271340.000000 0 0 1
-23.657084 -18.011572 12.084409 32.095285 0.650732 1.184763 0.003252 0.002489 59213.300000 0 0 1
-23.362884 -16.876872 12.915409 31.582605 0.625589 1.149503 0.010376 0.003372 72543.800000 0 0 1
-22.542384 -17.051072 14.202109 31.632231 0.647585 1.105177 0.022022 -0.000759 -610005.000000 0 0 1
-23.276284 -17.489972 15.303609 32.892020 0.644401 1.086859 0.014559 -0.012417 -290249.000000 0 0 1
-22.496384 -17.780372 16.460309 33.063132 0.668839 1.049684 0.028590 -0.013072 -108072.000000 0 0 1
-23.362884 -18.423572 17.589409 34.563560 0.667740 1.036889 0.033299 0.001570 302479.000000 0 0 1
-24.135184 -17.508772 18.351709 35.012133 0.627600 1.019076 0.032445 -0.007416 180962.000000 0 0 1
-25.183874 -18.217772 18.999309 36.429226 0.626252 1.022141 0.023420 0.005350 -66729.400000 0 0 1
-26.190324 -17.374372 19.798409 37.145375 0.585730 1.008657 0.027602 0.004408 -411421.000000 0 0 1
-25.582104 -16.697172 20.882609 37.004364 0.578264 0.971177 0.033488 -0.001439 198247.000000 0 0 1
-26.327144 -15.603372 21.432509 37.362229 0.535014 0.959852 0.041989 -0.007323 14081.400000 0 0 1
-25.514154 -14.833672 22.517809 37.122252 0.526623 0.919038 0.038797 -0.002199 492944.000000 0 0 1
-24.454784 -14.069172 21.946109 35.743668 0.522070 0.909696 0.037975 0.000047 639882.000000 0 0 1
-23.387784 -13.828072 22.859109 35.506941 0.533962 0.871352 0.028849 0.004201 86225.200000 0 0 1
-22.183984 -13.078472 22.296309 34.063191 0.532697 0.857199 0.023030 0.007224 -336736.000000 0 0 1
-22.274784 -11.634272 22.319709 33.610887 0.481333 0.844558 0.025041 0.007531 339933.000000 0 0 1
-21.269684 -11.111972 21.467409 32.198215 0.481432 0.840988 0.009411 0.006935 -251827.000000 0 0 1
-21.141584 -9.601372 21.937009 31.943470 0.426297 0.813795 0.011454 0.006884 97828.000000 0 0 1
-20.606084 -9.426372 23.268209 32.478866 0.429037 0.772152 0.009212 0.005756 -508138.000000 0 0 1
-19.228784 -9.564972 23.348709 31.723762 0.461589 0.743653 0.013313 0.005584 -1073690.000000 0 0 1
-18.801584 -9.537772 24.840709 32.581122 0.469459 0.703742 -0.002120 0.004012 223701.000000 0 0 1
-19.163184 -10.771972 25.517709 33.681100 0.512099 0.711127 0.008161 0.007677 176417.000000 0 0 1
-18.387484 -10.823672 26.711209 34.186842 0.532027 0.674002 0.004120 0.002290 -517659.000000 0 0 1
-18.579684 -12.077772 27.564609 35.367851 0.576412 0.677138 0.010100 0.000384 -477656.000000 0 0 1
-19.831784 -12.390972 28.078009 36.540532 0.558458 0.694448 0.009621 0.006413 -1229420.000000 0 0 1
-20.708784 -12.916872 27.129409 36.492522 0.557692 0.732621 0.007034 0.005165 -350302.000000 0 0 1
-22.040384 -13.375672 27.784509 37.903378 0.545456 0.748023 0.010085 0.001491 -241599.000000 0 0 1
-22.035984 -14.503172 28.636509 38.935540 0.582089 0.744414 0.008607 0.003107 -29856.200000 0 0 1
-21.124984 -14.460672 29.743409 39.243425 0.600267 0.710676 0.003071 0.010769 -4450.280000 0 0 1
-21.368284 -15.371772 30.915509 40.603739 0.623610 0.705333 0.000473 0.003415 -781161.000000 0 0 1
-21.193084 -16.763972 30.614909 40.834425 0.669236 0.723138 0.007833 0.004211 19368.600000 0 0 1
-21.532484 -17.694972 31.631409 42.158107 0.687881 0.722274 0.013693 0.002192 787368.000000 0 0 1
-23.009984 -17.957172 32.129009 43.407288 0.662680 0.737465 0.021378 -0.004259 829934.000000 0 0 1
-23.586484 -16.999372 33.011709 43.989474 0.624500 0.722060 0.024383 -0.008371 134119.000000 0 0 1
-24.819084 -17.530972 33.489909 45.220526 0.614975 0.736847 0.033944 -0.012392 232725.000000 0 0 1
-25.648104 -16.511372 34.346109 45.935889 0.571980 0.726210 0.032798 -0.013392 323884.000000 0 0 1
-25.060684 -16.236272 -33.317165 44.740227 0.574882 2.410852 0.032785 -0.014619 77764.900000 0 0 1
-25.848184 -15.275972 -32.635465 44.345885 0.533767 2.397835 0.040149 -0.012402 -27180.000000 0 0 1
-25.343134 -14.797072 -31.269365 42.883575 0.528474 2.387903 0.032060 -0.005360 -149570.000000 0 0 1
-25.442074 -15.764672 -30.281865 42.577170 0.554728 2.362033 0.039462 0.002319 -24109.300000 0 0 1
-24.891384 -15.318172 -29.062165 41.216948 0.551667 2.353364 0.039805 0.007429 8455.590000 0 0 1
-25.492004 -16.005672 -27.787865 40.965708 0.560661 2.316270 0.031418 0.006112 707640.000000 0 0 1
-26.674644 -15.416772 -27.192465 41.093110 0.524053 2.293918 0.037093 0.000838 736717.000000 0 0 1
-26.600214 -14.189372 -26.405065 40.076641 0.490033 2.290104 0.034789 0.004595 -599663.000000 0 0 1
-25.746534 -14.164372 -25.076165 38.630655 0.502956 2.277231 0.021864 -0.002208 757155.000000 0 0 1
-24.382084 -14.209372 -25.557265 38.073167 0.527661 2.306713 0.004997 -0.000002 1198310.000000 0 0 1
-23.459884 -14.556072 -24.497365 36.910246 0.555333 2.296552 0.009364 0.004940 284396.000000 0 0 1
-23.089184 -16.059272 -24.540265 37.326067 0.607721 2.288234 0.004002 0.013342 -537430.000000 0 0 1
-22.142084 -16.253072 -25.567265 37.524916 0.633205 2.320390 -0.013137 0.016776 22790.100000 0 0 1
-21.894884 -17.627772 -25.677565 38.071796 0.677849 2.311017 0.000922 0.007543 -122250.000000 0 0 1
-21.072284 -18.059072 -26.935265 38.674019 0.708547 2.341262 -0.002864 0.006103 101183.000000 0 0 1
-21.643984 -17.801872 -28.222965 39.773163 0.688302 2.359724 0.004111 -0.001477 732201.000000 0 0 1
-22.791584 -18.639772 -28.482765 40.965416 0.685522 2.339617 0.027653 -0.004919 508321.000000 0 0 1
-23.288284 -18.450872 -29.972665 42.203549 0.670017 2.360569 0.018742 -0.006787 -65959.000000 0 0 1
-22.343884 -18.855172 -30.938665 42.567214 0.700920 2.384476 0.027651 -0.010206 133810.000000 0 0 1
-22.898084 -18.697772 -32.221365 43.728084 0.684760 2.399206 0.023605 -0.011085 -178464.000000 0 0 1
-21.983984 -19.144072 -33.394065 44.327809 0.716457 2.423928 0.023032 -0.012052 -563770.000000 0 0 1
-20.825584 -18.342772 -33.597765 43.577197 0.722095 2.451197 0.013408 -0.004611 580609.000000 0 0 1
-19.610184 -18.967672 -33.195765 42.968485 0.768745 2.453661 0.012780 -0.010850 64298.400000 0 0 1
-19.150384 -20.091972 -34.141665 44.000885 0.809388 2.458986 0.014662 -0.009067 -1627720.000000 0 0 1
-18.891984 -19.653972 33.512909 43.200703 0.805164 0.682895 0.012068 -0.005110 84381.000000 0 0 1
-18.630984 -20.692972 32.573509 42.852610 0.837786 0.707285 0.015032 -0.012834 210527.000000 0 0 1
-19.831084 -21.584972 32.066809 43.444944 0.827721 0.740543 0.009862 -0.008153 127718.000000 0 0 1
-20.659084 -22.088872 33.118009 44.849956 0.818833 0.740075 0.017964 -0.008246 423177.000000 0 0 1
-21.945184 -22.584072 32.757809 45.439030 0.799745 0.765670 0.035482 -0.001367 357965.000000 0 0 1
-22.082984 -23.747672 31.719209 45.362080 0.821705 0.796455 0.032463 0.001048 -790047.000000 0 0 1
-21.528784 -24.928172 32.235409 46.087134 0.858441 0.796176 0.027602 0.000611 46602.700000 0 0 1
-21.798584 -26.048522 31.433709 46.279389 0.873989 0.824102 0.031151 0.002770 -486157.000000 0 0 1
-21.266184 -27.316332 32.038109 47.168560 0.909294 0.824089 0.040933 -0.002004 -165254.000000 0 0 1
-21.919184 -27.773652 33.220509 48.532758 0.902671 0.816883 0.027752 -0.006569 281756.000000 0 0 1
-21.288584 -28.967272 33.653709 49.243058 0.937017 0.818359 0.031212 -0.014846 67124.400000 0 0 1
-22.335884 -29.859582 34.456209 50.771219 0.928557 0.824865 0.040626 -0.016163 435153.000000 0 0 1
-23.346684 -30.407902 33.623309 50.992500 0.916011 0.850806 0.030114 -0.016871 437763.000000 0 0 1
-24.435284 -29.568462 33.346909 50.827093 0.880166 0.855177 0.030409 -0.013371 -822369.000000 0 0 1
-25.503494 -29.177592 34.367209 51.796382 0.852489 0.845301 0.006870 -0.003868 -447833.000000 0 0 1
-26.597994 -28.439362 33.850509 51.595616 0.818842 0.855192 0.010723 0.003470 202581.000000 0 0 1
-27.525574 -28.228232 -34.040665 52.088935 0.798000 2.283009 0.003046 0.013353 -186428.000000 0 0 1
-28.638604 -27.233112 -34.372265 52.376184 0.760248 2.286644 -0.003542 0.008715 305149.000000 0 0 1
-29.584834 -27.755872 33.596109 52.672093 0.753513 0.879112 -0.000493 0.001561 257292.000000 0 0 1
-30.778304 -27.015882 33.664309 53.013655 0.720390 0.882772 0.000034 0.000564 -230318.000000 0 0 1
